
units lj                  # Use reduced LJ style units
atom_style atomic         # Uncharged point particles
atom_modify map hash      # Needed for indexing of clusters etc
                          # Used to be able to find where atoms are in relation to each other.

lattice fcc 1.0 spacing 1 1 1
Lattice spacing in x,y,z = 1.5874011 1.5874011 1.5874011
region box block 0 10 0 10 0 10 units lattice
create_box 2 box
Created orthogonal box = (0.0000000 0.0000000 0.0000000) to (15.874011 15.874011 15.874011)
  3 by 4 by 4 MPI processor grid
create_atoms 1 box
Created 4000 atoms
  using lattice units in orthogonal box = (0.0000000 0.0000000 0.0000000) to (15.874011 15.874011 15.874011)
  create_atoms CPU = 0.002 seconds
set type 1 type/fraction 2 0.91 78393
Setting atom values ...
  3634 settings made for type/fraction
mass 1 1.0
mass 2 1.0
pair_style lj/cut  3.5
pair_modify tail  yes
pair_coeff 1  1  1.0  1.0   # Intearaction between 1 and 1 set with epsilon = 1 and sigma = 1
pair_coeff 1  2  1.5  0.8
pair_coeff 2  2  0.5  0.88

write_data data.0
System init for write_data ...
Neighbor list info ...
  update every 1 steps, delay 10 steps, check yes
  max neighbors/atom: 2000, page size: 100000
  master list distance cutoff = 3.8
  ghost atom cutoff = 3.8
  binsize = 1.9, bins = 9 9 9
  1 neighbor lists, perpetual/occasional/extra = 1 0 0
  (1) pair lj/cut, perpetual
      attributes: half, newton on
      pair build: half/bin/atomonly/newton
      stencil: half/bin/3d
      bin: standard
WARNING: Not all mixed pair coeffs generated from mixing. Use write_data with 'pair ij' option to store all pair coeffs. (../write_data.cpp:312)


#############################
#   M E L T   S Y S T E M   #
#############################

velocity all create 2.4 6583654 mom yes dist gaussian # Assign velocities
                                                    # Temperature 2.4, random number seed, zero linear momentum
                                                                                # Gaussian distribution

timestep 0.002   # simulation timestep
thermo 1000       # output thermodynamic data every 1000 steps bf 100

# Define a fix  in this case with index 1 applied to all
# particles in the simulation. This fix is for simulations
# in the anisotropic NPT ensemble. Note that we use the MTK
# correction.
fix 1 all npt temp 2.4 2.4 0.1 iso 5.68 5.68 0.5 mtk yes tchain 5 pchain 5 # Use NPT ensemble
                                                                         # Set temperature and pressure and damping
                                                                         # Numbers of thermostats in chain and in barostat
run 10000          # run for 10000 steps
Per MPI rank memory allocation (min/avg/max) = 3.642 | 3.644 | 3.648 Mbytes
Step Temp E_pair E_mol TotEng Press Volume 
       0          2.4    -3.140535            0     0.458565   -2.4974117         4000 
    1000    2.4235995   -2.1634017            0    1.4710887     5.596485    4036.9086 
    2000     2.355664   -2.1870351            0    1.3455775    5.8670776    3970.0074 
    3000    2.4127757   -2.1576545            0    1.4606042     5.679765    4029.1117 
    4000    2.4018455   -2.1817367            0    1.4201308    5.6145601    4019.3545 
    5000    2.3860446   -2.1257612            0     1.452411    5.8573115    4027.6713 
    6000    2.4051888   -2.1321873            0     1.474694    5.6043467    4052.7663 
    7000    2.3908035   -2.1892541            0    1.3960546     5.415927    4033.5533 
    8000    2.4069798   -2.1622034            0    1.4473637    5.5868511    4030.7541 
    9000     2.428557   -2.1898885            0    1.4520362    5.4656737      4029.96 
   10000    2.3728283   -2.1627722            0    1.3955805    5.8847629    3986.8396 
Loop time of 2.53164 on 48 procs for 10000 steps with 4000 atoms

Performance: 682561.734 tau/day, 3950.010 timesteps/s
99.6% CPU use with 48 MPI tasks x no OpenMP threads

MPI task timing breakdown:
Section |  min time  |  avg time  |  max time  |%varavg| %total
---------------------------------------------------------------
Pair    | 1.0845     | 1.1508     | 1.2743     |   3.2 | 45.46
Neigh   | 0.20598    | 0.21378    | 0.23755    |   1.2 |  8.44
Comm    | 0.7417     | 0.86831    | 0.94263    |   4.5 | 34.30
Output  | 0.00024242 | 0.00025072 | 0.00042894 |   0.0 |  0.01
Modify  | 0.22724    | 0.28314    | 0.33594    |   5.0 | 11.18
Other   |            | 0.01538    |            |       |  0.61

Nlocal:        83.3333 ave          94 max          71 min
Histogram: 1 1 1 4 14 10 11 3 1 2
Nghost:        1646.00 ave        1675 max        1619 min
Histogram: 3 3 5 3 11 9 8 1 2 3
Neighs:        9578.31 ave       11131 max        7610 min
Histogram: 1 0 2 2 15 10 7 9 0 2

Total # of neighbors = 459759
Ave neighs/atom = 114.93975
Neighbor list builds = 901
Dangerous builds = 179

# Equilibrate just above the melting temperature to avoid step fn in T

fix 1 all npt temp 1.25 1.25 0.1 iso 5.68 5.68 0.5 mtk yes tchain 5 pchain 5
run 2000
Per MPI rank memory allocation (min/avg/max) = 3.643 | 3.645 | 3.649 Mbytes
Step Temp E_pair E_mol TotEng Press Volume 
   10000    2.3728283   -2.1627722            0    1.3955805    5.8847629    3986.8396 
   11000    1.2423266   -3.2023969            0   -1.3393729    5.8690164    3117.3083 
   12000    1.2560013   -3.2034153            0   -1.3198844    5.5369298    3142.7599 
Loop time of 0.709622 on 48 procs for 2000 steps with 4000 atoms

Performance: 487020.137 tau/day, 2818.404 timesteps/s
99.2% CPU use with 48 MPI tasks x no OpenMP threads

MPI task timing breakdown:
Section |  min time  |  avg time  |  max time  |%varavg| %total
---------------------------------------------------------------
Pair    | 0.26815    | 0.29143    | 0.31782    |   1.7 | 41.07
Neigh   | 0.040001   | 0.041923   | 0.044045   |   0.5 |  5.91
Comm    | 0.24711    | 0.27719    | 0.32896    |   3.4 | 39.06
Output  | 5.1085e-05 | 5.3387e-05 | 6.8297e-05 |   0.0 |  0.01
Modify  | 0.044995   | 0.094237   | 0.10908    |   5.5 | 13.28
Other   |            | 0.004792   |            |       |  0.68

Nlocal:        83.3333 ave          93 max          74 min
Histogram: 2 1 6 7 8 12 4 3 2 3
Nghost:        1932.35 ave        1956 max        1911 min
Histogram: 3 3 6 7 8 6 5 3 3 4
Neighs:        12164.9 ave       14124 max       10431 min
Histogram: 1 1 6 11 8 11 4 3 2 1

Total # of neighbors = 583914
Ave neighs/atom = 145.97850
Neighbor list builds = 144
Dangerous builds = 11

#############################
# L I N E A R  Q U E N C H  #
#############################

# Define solid atoms. This closely follows ten Wolde  Ruiz-Montero and Frenkel  Faraday Discuss  1996  104  93-110
# Compute components of the per-atom q6 vector
compute q6 all orientorder/atom degrees 1 6 components 6 nnn NULL cutoff 1.3 # compute the Q6 parameter.
                                                                             # Use all neighbours within 1.3 unit cell.

# get number of connections
compute coord_number all coord/atom orientorder q6 0.5

# An atom is solid if it has 8 or more connections (of a possible 14)
variable is_solid atom c_coord_number>=8
group solid dynamic all var is_solid    # Must be dynamic to update
dynamic group solid defined

# do clustering
compute cluster solid cluster/atom 1.3 # Create a cluster where all atoms within are solid and max 1.3 units from another member

# define chunks one chunk per cluster
compute clus_chunks solid chunk/atom c_cluster nchunk every compress yes  # Says which atoms are in which chunk

# count the size of each chunk
compute size_chunks solid property/chunk clus_chunks count


# Find the maximum entry in the vector of chunk sizes
variable max_n equal max(c_size_chunks)


# Thermo style which includes this variable
# thermo_style custom step temp pe vol v_max_n

thermo ${N}  # Print the thermo information every 100 steps
thermo 1000  

# Reset the npt fix at a lower temperature (below freezing)
fix 1  all npt temp  ${temp} ${temp}  0.1  iso  5.68  5.68  0.5  mtk yes tchain  5  pchain  5
fix 1  all npt temp  0.45 ${temp}  0.1  iso  5.68  5.68  0.5  mtk yes tchain  5  pchain  5
fix 1  all npt temp  0.45 0.45  0.1  iso  5.68  5.68  0.5  mtk yes tchain  5  pchain  5

dump dmp2 all dcd ${N} traj.dcd
dump dmp2 all dcd 1000 traj.dcd


compute msd all msd com yes
variable twopoint equal c_msd[4]/6/(step*dt+1.0e-6)
fix 9 all vector 10 c_msd[4]
variable fit equal slope(f_9)/6/(10*dt)
thermo_style custom step temp pe c_msd[4] v_twopoint v_fit v_max_n

fix 1 all npt temp 1.25 ${temp} 0.1 iso 5.68 5.68 0.5 mtk yes tchain 5 pchain 5
fix 1 all npt temp 1.25 0.45 0.1 iso 5.68 5.68 0.5 mtk yes tchain 5 pchain 5
run 5000000 # 5000000  # Run for this many steps
Neighbor list info ...
  update every 1 steps, delay 10 steps, check yes
  max neighbors/atom: 2000, page size: 100000
  master list distance cutoff = 3.8
  ghost atom cutoff = 3.8
  binsize = 1.9, bins = 8 8 8
  4 neighbor lists, perpetual/occasional/extra = 1 3 0
  (1) pair lj/cut, perpetual
      attributes: half, newton on
      pair build: half/bin/atomonly/newton
      stencil: half/bin/3d
      bin: standard
  (2) compute orientorder/atom, occasional
      attributes: full, newton on
      pair build: full/bin/atomonly
      stencil: full/bin/3d
      bin: standard
  (3) compute coord/atom, occasional
      attributes: full, newton on
      pair build: full/bin/atomonly
      stencil: full/bin/3d
      bin: standard
  (4) compute cluster/atom, occasional
      attributes: full, newton on
      pair build: full/bin/atomonly
      stencil: full/bin/3d
      bin: standard
Per MPI rank memory allocation (min/avg/max) = 9.819 | 9.826 | 9.832 Mbytes
Step Temp PotEng c_msd[4] v_twopoint v_fit v_max_n 
   12000    1.2560013   -3.2034153 8.4250345e-31 5.8507181e-33 8.3333333e+20            1 
   13000    1.2408588   -3.2258509    1.0092556 0.0064695871  0.085238912            2 
   14000    1.2343706   -3.1977051    2.1358123  0.012713168  0.089218913            2 
   15000    1.2072405   -3.2356915    3.2848566  0.018249202  0.092873412            2 
   16000    1.2417413   -3.2096688    4.5191426    0.0235372  0.095032019            2 
   17000    1.2363294   -3.2168007    5.7303914  0.028090153   0.09646717            2 
   18000    1.2368928   -3.2213589    6.7720467  0.031352067  0.096498792            1 
   19000    1.2633609   -3.2349774    7.8886591  0.034599381  0.096056735            1 
   20000    1.2463982   -3.2122157     9.084804  0.037853349  0.095983339            1 
   21000     1.244555   -3.2104024    10.114672  0.040137584  0.095424384            2 
   22000    1.2654535   -3.1963581    11.119727  0.042120175  0.094705532            2 
   23000    1.2623391   -3.2096649     12.11928  0.043910434  0.093705424            1 
   24000    1.2478095   -3.2361269    13.224376  0.045917973  0.093088887            2 
   25000    1.2567087   -3.2159746     14.19866  0.047328866  0.092313185            1 
   26000    1.2403071   -3.2380998    15.221684  0.048787447   0.09162981            1 
   27000    1.2553883   -3.2082138    16.379036  0.050552578  0.091100053            1 
   28000     1.239643   -3.2500453    17.367617  0.051689337  0.090719151            2 
   29000    1.2708127   -3.2252782    18.370921  0.052790003   0.09036903            2 
   30000    1.2406555   -3.2207567    19.573103  0.054369729  0.090205328            1 
   31000    1.2745123   -3.2108542    20.837977  0.056016067  0.090266939            1 
   32000    1.2708318   -3.2265555    21.784454  0.056730348  0.090288596            1 
   33000    1.2740784   -3.1982036    22.876924  0.057770009  0.090222698            1 
   34000    1.2330846   -3.2382339     23.95295   0.05870821  0.090186305            1 
   35000    1.2531229   -3.2369201    24.996169  0.059514688   0.09014149            2 
   36000    1.2645746   -3.2409034    26.126705  0.060478483  0.090133133            1 
   37000    1.1968802   -3.2195956    27.373339  0.061651665  0.090223559            1 
   38000    1.2596078   -3.1876982    28.469717  0.062433589  0.090357006            1 
   39000    1.2714615   -3.2278158    29.475668  0.062982195  0.090447961            2 
   40000    1.2497414    -3.247701    30.520787  0.063584972  0.090451234       -1e+20 
   41000    1.2684798   -3.2428242    31.826751  0.064688517   0.09053046            3 
   42000    1.2682853   -3.2194836    33.131934  0.065737963  0.090684815            1 
   43000    1.2430228   -3.2311589    34.251072  0.066378046  0.090849672            1 
   44000    1.2623845    -3.225916    35.381693  0.067010782  0.091065522            1 
   45000    1.2527101   -3.2376258    36.699305  0.067961674  0.091249514            1 
   46000    1.2661763   -3.2496308    37.715846  0.068325808  0.091421939            3 
   47000    1.2861271   -3.2333698    38.835033  0.068856441  0.091587539            1 
   48000    1.2403835   -3.2442322    40.057165  0.069543689  0.091756134            1 
   49000    1.2404488   -3.2154111    41.135247  0.069957903  0.091915703            1 
   50000    1.2416342   -3.2412596    42.153271  0.070255452  0.092055195            1 
   51000    1.2292134   -3.2314692    43.202336  0.070592052   0.09214333            4 
   52000    1.2290455   -3.2206336    44.317547  0.071021709  0.092216139            1 
   53000    1.2491457   -3.2100315    45.387655  0.071364237  0.092290338            4 
   54000    1.2247552   -3.2094871    46.731352  0.072116284  0.092329056            1 
   55000    1.2434449   -3.2554557    47.830047  0.072469768  0.092400771            1 
   56000    1.2623319   -3.2306403    49.337808  0.073419357  0.092524338            3 
   57000    1.2485094   -3.2390954    50.586917  0.073957481  0.092718407            2 
   58000    1.2228387   -3.2500451     52.11769  0.074881738  0.092892717            2 
   59000    1.2434805   -3.2251283    53.084461  0.074978052  0.093069352            1 
   60000    1.2357695   -3.2448785    54.047766  0.075066342  0.093241418            2 
   61000    1.2398498   -3.1926932    55.621678  0.075985898  0.093403159            1 
   62000    1.2532588   -3.2326899    56.573973  0.076040285  0.093574871            1 
   63000    1.2316854   -3.1995032    58.123473    0.0768829  0.093769016            2 
   64000    1.2275306   -3.2456956    59.168552  0.077042384  0.093980533            1 
   65000    1.2437144   -3.2471972    59.917701  0.076817565  0.094166179            1 
   66000    1.2260348   -3.2835425    61.165478  0.077229138  0.094309065            1 
   67000    1.2261815   -3.2401776     62.46794  0.077696443  0.094449075            3 
   68000    1.2630883   -3.2209132    64.003935  0.078436195  0.094591902            2 
   69000    1.2409603   -3.2583254    65.251873   0.07880661  0.094737872            2 
   70000     1.229113    -3.225362    66.759554  0.079475659  0.094909076            1 
   71000    1.2575528   -3.2509413    68.090853   0.07991884  0.095072437            3 
   72000    1.2407785   -3.2439688      69.2527  0.080153587  0.095252927            2 
   73000    1.2520102   -3.2505748    69.895938  0.079789883  0.095409505            3 
   74000    1.2261013   -3.2167917    71.159105  0.080134127  0.095537358            2 
   75000    1.2323147   -3.2168252    72.428115  0.080475683  0.095659351            1 
   76000    1.2610836   -3.2262577    73.821232  0.080944333  0.095756784            2 
   77000    1.2364133   -3.2168499    74.454952  0.080578952  0.095854541            1 
   78000    1.2156225   -3.2352939    75.330803  0.080481626  0.095922814            1 
   79000    1.2548548   -3.2338673    76.609148  0.080811337  0.095969704            3 
   80000    1.2117117   -3.2408542    77.592731  0.080825761  0.095986774            4 
   81000    1.2418431   -3.2636391     78.67731  0.080943734  0.096004184            2 
   82000    1.2207422   -3.2115278    79.808976  0.081106682  0.096011991            2 
   83000    1.2723105   -3.2065977    80.958457  0.081283591  0.095987278            2 
   84000    1.2332587    -3.225921    81.520504  0.080873515  0.095961519            1 
   85000    1.2239773   -3.2300515    82.674194  0.081053131  0.095913844            3 
   86000    1.2174736   -3.2069169    83.881084   0.08128012  0.095868881            2 
   87000    1.2152059   -3.2424543    84.725051  0.081154263    0.0958236            2 
   88000    1.2264653   -3.2279733    85.587408  0.081048681  0.095755991            1 
   89000    1.2386387   -3.2555497    86.893732  0.081361172  0.095706605            1 
   90000    1.2498591   -3.2281032    88.315571  0.081773676   0.09564171            1 
   91000    1.2339457   -3.2493188    89.182555  0.081669006  0.095595096            1 
   92000    1.2457153    -3.222404    90.409895  0.081893021  0.095544594            2 
   93000    1.2270551   -3.2494874    91.337932  0.081844024  0.095489715            1 
   94000    1.2518039   -3.2556371    91.965416  0.081529624  0.095421968            2 
   95000    1.2213291    -3.233729    92.949932  0.081535027  0.095338149            1 
   96000    1.2623395   -3.2108157    93.959516   0.08156208  0.095254194            1 
   97000    1.2214789   -3.2471064    95.072937  0.081677781  0.095175593            1 
   98000     1.231389   -3.2335538    96.661131  0.082194839  0.095076612            2 
   99000    1.2221967   -3.2208242    97.334588  0.081931471  0.094979833            2 
  100000    1.2135081    -3.239311    98.273969  0.081894973  0.094868719            2 
  101000    1.2367528   -3.2272535    98.851085  0.081560301  0.094761194            1 
  102000    1.2264506   -3.2455192    99.303206   0.08113007   0.09464296            1 
  103000    1.2455481   -3.2520792    101.09509  0.081792147   0.09453175            2 
  104000    1.2156686   -3.2762092     102.2435  0.081925879  0.094432404            2 
  105000    1.2257034   -3.2566404    103.26261  0.081954454  0.094333635            2 
  106000    1.2384075   -3.2073068    104.11728  0.081853206  0.094231516            2 
  107000     1.203404   -3.2266105    105.16108  0.081901149  0.094130557            1 
  108000    1.2495526   -3.2080925    106.22887  0.081966717  0.094041671            2 
  109000    1.2424457   -3.2334224    107.21374  0.081967694  0.093948423            2 
  110000    1.2217313   -3.2449105    108.89446    0.0824958  0.093848443            1 
  111000    1.2591265   -3.2619493    109.51717  0.082220096  0.093752087            2 
  112000    1.2419888   -3.2164743    110.52065  0.082232625  0.093661553            1 
  113000    1.2312662   -3.2291262     111.0614   0.08190369  0.093567212            2 
  114000    1.2485177   -3.2390893     112.6256  0.082328654  0.093477225            1 
  115000    1.2235854    -3.257854    113.97916  0.082593597  0.093405673            1 
  116000    1.2499968   -3.2459686    115.11277  0.082695957  0.093339587            2 
  117000       1.2397   -3.2644875    116.12517  0.082710232  0.093272201            3 
  118000    1.2555508   -3.2406396    117.18166  0.082755406  0.093211387            2 
  119000    1.2279242   -3.2295962    118.92341    0.0832797  0.093159228            2 
  120000    1.2713857    -3.251847    120.00471  0.083336603  0.093121389            1 
  121000    1.2320752   -3.2522823    121.09194   0.08339665  0.093090327            1 
  122000    1.2360661   -3.2341567    123.05486  0.084053863  0.093065509            1 
  123000    1.2212849   -3.2448403    123.62201  0.083754747  0.093050084            2 
  124000    1.2229057   -3.2453525    124.70488  0.083807041   0.09303434            1 
  125000    1.2090387    -3.278526    126.02338  0.084015587  0.093023495            2 
  126000    1.2194076   -3.2235411    127.12593  0.084077998  0.093022586            1 
  127000    1.2521734   -3.2800332     127.8072  0.083862989  0.093011888            3 
  128000    1.2445397   -3.2332248    130.09744  0.084698856  0.093020699            1 
  129000     1.246737   -3.2299252    131.54811  0.084979397   0.09303963            3 
  130000    1.2317734   -3.2124558    132.13921  0.084704625  0.093049876            1 
  131000    1.2375922   -3.2434952    132.90547  0.084545463  0.093053875            2 
  132000    1.2161206    -3.262931    133.66052  0.084381638  0.093049821            1 
  133000    1.2245752   -3.2370506    135.73269  0.085045545   0.09305255            4 
  134000    1.2188225   -3.2355373    136.41774  0.084836902  0.093054353            1 
  135000    1.2165323   -3.2523976    137.03243  0.084587922  0.093050952            3 
  136000    1.2542038   -3.2603998    138.16564   0.08466032  0.093043291            1 
  137000    1.2173526   -3.2564768    140.15831  0.085254445  0.093043897            2 
  138000    1.2327173   -3.2443966    140.94861  0.085113896  0.093049255            2 
  139000     1.206109   -3.2634363    142.36211  0.085348984  0.093066803            1 
  140000    1.2225702   -3.2561007    143.31122  0.085304298  0.093081714            1 
  141000     1.241699   -3.2052323    145.10635  0.085760256  0.093092554            3 
  142000    1.2313485   -3.2324263    146.46543  0.085953889  0.093113796            1 
  143000    1.2098726   -3.2734788    146.89736  0.085604522  0.093133965            1 
  144000    1.2316449   -3.2484229    148.35441  0.085853247  0.093161261            1 
  145000     1.219785   -3.2738479    148.99364  0.085628529  0.093183024            1 
  146000    1.2266696   -3.2572867    150.39437  0.085841535  0.093198335            2 
  147000    1.2358379   -3.2621615    151.94814  0.086138403  0.093214252            1 
  148000    1.2236832   -3.2437252    153.37531  0.086359969  0.093230887            2 
  149000     1.210014   -3.2428379    153.74121  0.085985017  0.093249767            2 
  150000    1.2266269   -3.2376973    154.94101  0.086078341  0.093267411            1 
  151000    1.2598668   -3.2571582     156.0461  0.086118159  0.093283655            1 
  152000     1.234237   -3.2581935    157.68293  0.086448976  0.093295381            1 
  153000     1.218215   -3.2584727    158.10916  0.086116102  0.093304486            1 
  154000    1.2258893    -3.242576    158.86748   0.08596725   0.09331414            3 
  155000     1.194759   -3.2429105    160.65434  0.086373298   0.09331026            1 
  156000    1.2411922   -3.2079545    161.72948  0.086393953  0.093317533            2 
  157000    1.2440674   -3.2863135    162.80592   0.08641503  0.093329358            2 
  158000    1.2237228    -3.251128    163.73721  0.086359287  0.093335602            1 
  159000    1.2421367   -3.2539643    164.31274   0.08611779  0.093343986            2 
  160000    1.2483878   -3.2193019     164.8424  0.085855416  0.093334908            2 
  161000    1.2460305   -3.2481145    165.79974  0.085817669  0.093321011            3 
  162000    1.2085151   -3.2416071    167.61989  0.086224223  0.093305525            1 
  163000     1.238155   -3.2417953    168.69188  0.086243294  0.093292169            3 
  164000    1.2189665   -3.2617808    169.37232  0.086063171  0.093271604            1 
  165000    1.2519236   -3.2459036    170.74733  0.086236023  0.093258201            4 
  166000    1.2170385   -3.2604964    171.44677  0.086067658  0.093242295            1 
  167000    1.2218867    -3.291858    173.12248  0.086388464  0.093222343            3 
  168000    1.2651196   -3.2429515    174.33415  0.086475273  0.093216479            2 
  169000    1.2247037   -3.2806306    175.15493  0.086368309  0.093212134            2 
  170000    1.2263554   -3.2614502     176.8228  0.086677845  0.093201621            2 
  171000    1.2439149   -3.2655467    177.60268  0.086551013  0.093192597            4 
  172000    1.2516897   -3.2882015    178.65021  0.086555333  0.093179685            2 
  173000    1.2361651   -3.2448347     179.5868  0.086506164  0.093167531            1 
  174000    1.2262903   -3.2679244     179.7584  0.086091188  0.093149483            1 
  175000    1.2290519   -3.2736685    180.72038  0.086057325  0.093123402            3 
  176000    1.2431099    -3.219538    183.03522  0.086664403  0.093098865            1 
  177000    1.2156446   -3.2549541    183.16839  0.086237469  0.093076094            2 
  178000    1.2296516   -3.2324576       184.54   0.08639513   0.09305272            1 
  179000    1.2251607   -3.2613668    185.08347  0.086165487  0.093024342            3 
  180000    1.2086358   -3.2584681    186.61571  0.086396164  0.092997741            1 
  181000    1.2292784   -3.2810694    187.58395  0.086364616  0.092979266            1 
  182000    1.2074166   -3.2462506    188.73298  0.086416197  0.092965624            1 
  183000    1.1805266   -3.2546645     190.0315  0.086535291  0.092949679            2 
  184000     1.210314   -3.2362019    190.79975  0.086412929   0.09293066            4 
  185000    1.2136169   -3.2230819    192.32423  0.086632537  0.092910091            2 
  186000    1.2373528   -3.2081051    193.18575  0.086552757  0.092889428            1 
  187000    1.2335077    -3.254108    193.82945  0.086376758  0.092861814            1 
  188000    1.2261222   -3.2300601    193.96453  0.085977187  0.092829363            1 
  189000    1.2177226   -3.2727179    194.93897  0.085951927  0.092794879            2 
  190000    1.2089082   -3.2802218    195.43438  0.085716833  0.092757697            4 
  191000    1.2490459   -3.2613185    197.77041  0.086287263  0.092721346            1 
  192000    1.2287416    -3.245898    198.85361   0.08630799  0.092684701            1 
  193000    1.1943138   -3.2688765    199.36692  0.086082433   0.09264287            2 
  194000    1.2122075    -3.257761    200.26166  0.086023048  0.092609837            1 
  195000    1.2183194     -3.27293    201.70362  0.086198127    0.0925716            1 
  196000    1.2111056   -3.2786191    202.34573  0.086031347  0.092531125            3 
  197000     1.198045   -3.2778285    203.03368  0.085885651  0.092490628            2 
  198000    1.2126454   -3.2704912    204.42753  0.086038523  0.092451546            2 
  199000     1.229677   -3.2176043    205.05053  0.085867058  0.092407964            2 
  200000    1.2443754   -3.2472077    206.48404  0.086035016  0.092372679            1 
  201000    1.2204193   -3.2621172    208.13774  0.086292595  0.092335486            1 
  202000    1.2350743   -3.2755796    208.64723  0.086075591  0.092298735            3 
  203000     1.218375   -3.2823928    209.03389    0.0858103  0.092263906            2 
  204000    1.2099614   -3.2790008     212.0284  0.086612908  0.092234373            1 
  205000    1.2445108   -3.2828168    211.83621  0.086112279  0.092205309            1 
  206000    1.2355836   -3.2704897    214.40179  0.086732115  0.092178233            3 
  207000    1.2124174   -3.2719994    214.48502  0.086346628  0.092150801            4 
  208000    1.2077636   -3.2432947    215.16554  0.086204144  0.092117228            2 
  209000    1.2201372   -3.2341419    216.82185  0.086452092  0.092090605            2 
  210000    1.2242788   -3.2534427    217.44531   0.08628782  0.092065194            3 
  211000    1.2180482   -3.2729267    217.68235   0.08597249  0.092038597            3 
  212000    1.2255992   -3.2330843    220.10372  0.086518757  0.092016811            1 
  213000    1.2115603   -3.2638632    220.91115  0.086428464  0.091991546            2 
  214000    1.2209783   -3.2493312     221.8201  0.086378545  0.091968201            3 
  215000    1.2290199   -3.2505715    224.00526  0.086823743  0.091945571            1 
  216000    1.2210004   -3.2538211    223.74394  0.086320965  0.091920696            1 
  217000    1.2171912   -3.2695512    224.00334  0.086022786  0.091894625            1 
  218000    1.2387022   -3.2422367    226.70817  0.086662144  0.091872386            1 
  219000    1.2176287   -3.2620735    227.90023  0.086720028  0.091850943            1 
  220000    1.2094749   -3.2692375    228.33416  0.086490212  0.091833265            1 
  221000    1.2067016   -3.2722333    229.41441  0.086506187  0.091815564            2 
  222000    1.2035961   -3.2345641    231.79021  0.087008339  0.091797862            1 
  223000    1.2157027   -3.2652477     231.8221  0.086630083  0.091779231            2 
  224000    1.2348382   -3.2776395    232.49163  0.086492422  0.091757922            1 
  225000    1.2039026   -3.3286998    232.83094  0.086233682  0.091732582            1 
  226000    1.2006594   -3.2543635    234.64473  0.086520918  0.091710088            1 
  227000    1.2349964   -3.2521588    235.29141   0.08637717  0.091687296            2 
  228000    1.2127187    -3.250169    236.21501  0.086335897  0.091661707            1 
  229000    1.2181257   -3.2604829    237.66804  0.086487643  0.091635827            4 
  230000    1.2086387   -3.2799351    238.34931  0.086358446  0.091612283            2 
  231000    1.2219364   -3.2937763    240.22848  0.086662512  0.091588716            1 
  232000    1.2101685   -3.2678089    240.39029  0.086347087  0.091562596            2 
  233000    1.1980678   -3.2468988    242.56841   0.08675551  0.091539126            4 
  234000    1.2197681   -3.2743932    243.03595  0.086551262  0.091516553            2 
  235000    1.2082076   -3.2762277    241.89127  0.085777047  0.091484541            2 
  236000    1.2192035   -3.2403054    243.57358  0.086007621  0.091446706            3 
  237000    1.2075117   -3.2642236    246.10553  0.086534995  0.091413237            1 
  238000    1.2371114   -3.2709204    246.30375  0.086240809   0.09137662            1 
  239000    1.2128631   -3.2671363    246.72652  0.086027379  0.091341124            2 
  240000    1.2383414   -3.2603081    247.89243  0.086073759  0.091308943            1 
  241000    1.2454173   -3.2812321     249.1166  0.086139902  0.091283504       -1e+20 
  242000    1.2338339   -3.2658722    250.09057  0.086119342  0.091248667            1 
  243000    1.2127429   -3.2730809    249.16418   0.08544725  0.091213094            1 
  244000    1.2147837   -3.2448222    251.94438  0.086046577  0.091179386            2 
  245000    1.2134711   -3.2822881    252.52604  0.085893211  0.091143436            3 
  246000     1.208704   -3.2394545    254.39856  0.086178373  0.091112291            2 
  247000    1.2224839   -3.2758924    254.22977  0.085772528  0.091079337            4 
  248000    1.2075214   -3.2716661    254.94313  0.085666374  0.091039362            1 
  249000    1.2081743   -3.3009458    256.84877  0.085960097  0.091004124            1 
  250000    1.2283473   -3.2677609     258.0012    0.0860004  0.090970948            2 
  251000    1.2223671   -3.2999128    259.09395  0.086020567  0.090935443            3 
  252000    1.2260954   -3.2778491    260.96269  0.086297187  0.090902487            2 
  253000    1.2040869   -3.2774217    262.12356  0.086338459  0.090874422            1 
  254000    1.2106547   -3.2327794    262.86039  0.086240286  0.090848459            2 
  255000     1.224647   -3.2678639    264.43022  0.086415104  0.090830171            1 
  256000    1.2148532   -3.2619579    265.03555  0.086274594  0.090810094            2 
  257000    1.1975069   -3.2645353    267.21848  0.086646718  0.090788147            4 
  258000    1.2045837   -3.2616164    265.78949  0.085849318  0.090761371            5 
  259000      1.22641   -3.2843316     268.5784  0.086415187  0.090732239            2 
  260000    1.1846236   -3.2871252    268.96421  0.086206478  0.090704448            4 
  261000     1.219286   -3.2817028    268.87329  0.085847156  0.090676913            3 
  262000    1.2217403   -3.2729367    271.00783   0.08619842  0.090649858            2 
  263000    1.1997158   -3.2678554     271.4222  0.086001965  0.090627627            2 
  264000    1.2068493    -3.297351    272.88027  0.086136449  0.090600528            1 
  265000    1.2114776   -3.2466321    275.70189  0.086698709   0.09058025            1 
  266000    1.2001329   -3.2682357    275.09892  0.086183872  0.090555171            2 
  267000    1.1895046   -3.2731656    276.41837  0.086272899  0.090532408            1 
  268000      1.19312    -3.287622    276.70937   0.08604147  0.090514053            2 
  269000    1.1886005   -3.2622979    279.36579  0.086544546  0.090491719            2 
  270000    1.2126691   -3.2839253    279.71817  0.086332769  0.090467254            2 
  271000    1.2095465   -3.2775756    280.31061  0.086196374  0.090442164            2 
  272000    1.2369497   -3.3044852    278.92436  0.085454767  0.090415851            1 
  273000    1.2221871   -3.3003923    281.41576  0.085902247  0.090387643            3 
  274000    1.2062616    -3.279386    283.02094  0.086076929  0.090361143            1 
  275000    1.2094021   -3.2637515    283.67605  0.085962439  0.090331769            2 
  276000    1.2057902   -3.2928938    284.95904  0.086038357  0.090299625            1 
  277000     1.205176   -3.2514234    285.69021  0.085947715  0.090268949            1 
  278000    1.1912053   -3.2632846    286.45102  0.085866612   0.09023649            1 
  279000    1.2053652   -3.2813892    286.78945  0.085659931  0.090203714            1 
  280000     1.212913   -3.2576523    287.57961   0.08558917  0.090173085            3 
  281000    1.1976985   -3.2457797    290.13831  0.086043388  0.090140176            1 
  282000    1.2311723   -3.2540412    290.98567  0.085988673   0.09010858            2 
  283000    1.2240238   -3.2903808    289.70315  0.085307171  0.090076043            4 
  284000    1.2180485   -3.2620542    292.15884   0.08572736  0.090042448            2 
  285000    1.1926089   -3.2827012      292.691  0.085582164  0.090009625            3 
  286000    1.1955022   -3.2625508    293.17172  0.085422996  0.089980046            2 
  287000    1.1937143   -3.2609763    294.66689   0.08555949  0.089947951            2 
  288000    1.2077843   -3.2520511    297.20429  0.085996612  0.089919099            2 
  289000    1.2261841   -3.2939522     298.1214  0.085963494   0.08989003            2 
  290000    1.1940341   -3.3084771    297.43633  0.085470209  0.089859397            3 
  291000    1.2018114   -3.2439525    300.44808  0.086038968  0.089828771            3 
  292000    1.2214769   -3.2653335    301.77536  0.086123104  0.089802616            1 
  293000    1.2112431   -3.2661328    302.79892  0.086120285  0.089781264            3 
  294000    1.2130152   -3.2803506    304.73856  0.086377142  0.089757763            1 
  295000    1.1991365   -3.2592792    304.31202  0.085963847  0.089734896            2 
  296000    1.1979593   -3.2778037    304.85164   0.08582535    0.0897129            2 
  297000    1.2196937   -3.2661064    305.56565  0.085736715  0.089687121            2 
  298000    1.2138375   -3.2917575    305.67789  0.085480395  0.089658662            2 
  299000    1.2184609    -3.256376    307.22136  0.085624681  0.089627951            2 
  300000    1.2015475   -3.2462178    309.17549  0.085882081  0.089599747            3 
  301000     1.231219   -3.2728448    308.26349  0.085344267  0.089573641            1 
  302000    1.1908055    -3.268277    309.11666  0.085297091  0.089542152            6 
  303000    1.1834758   -3.2631349    311.48057  0.085665724  0.089509861            3 
  304000    1.2014177    -3.299614    312.31896  0.085613749  0.089477472            2 
  305000     1.215342   -3.2455059    313.03152  0.085527736   0.08944496            1 
  306000    1.2052125   -3.2579745    315.96268   0.08604648  0.089417405            3 
  307000    1.1824741   -3.2794276     315.1082  0.085534257  0.089391957            1 
  308000    1.1955632   -3.2822497    316.62737  0.085667579  0.089362834            1 
  309000    1.2100032   -3.2594248     317.3941  0.085597115  0.089334287            2 
  310000    1.1808599   -3.2797335    316.40835  0.085056008  0.089303307            2 
  311000    1.2121178   -3.2537543    319.96188  0.085734694  0.089273171            1 
  312000    1.2076093   -3.2743646    319.73712  0.085399873  0.089242583            2 
  313000    1.1953465   -3.2850706    320.37766  0.085297566  0.089212227            2 
  314000    1.2022089   -3.2859105    320.09953  0.084952103  0.089180066            1 
  315000    1.1930724   -3.2736223    322.60014  0.085343953  0.089152519            4 
  316000    1.2220248   -3.2905785    323.90328  0.085417531  0.089123913            1 
  317000    1.2047485   -3.2787456    325.36135  0.085531375  0.089096264            1 
  318000    1.2006649   -3.2720632    325.50924  0.085301162  0.089074019            1 
  319000    1.2096991   -3.2768331    325.51688  0.085035758  0.089045889            1 
  320000    1.2077349   -3.2384839    328.07511  0.085436226  0.089015732            1 
  321000    1.2254618   -3.2697067    329.40982  0.085516569  0.088991213            3 
  322000    1.1965203   -3.2661981    328.86101  0.085108957   0.08896251            1 
  323000    1.1975118   -3.2876642    330.48881  0.085265431  0.088934483            1 
  324000    1.2085035   -3.2941855    330.82752  0.085089383  0.088906067            1 
  325000    1.1880813   -3.2703204    332.93889  0.085368946  0.088876715            2 
  326000    1.1955117   -3.2387249    332.82485  0.085077926    0.0888446            5 
  327000    1.2105568   -3.2636961    333.35667  0.084953279  0.088814369            2 
  328000    1.2184802    -3.302851    333.96832  0.084849675  0.088783353            1 
  329000    1.1784916   -3.2906023     335.0861  0.084874899  0.088751206            1 
  330000    1.1860749   -3.2678181    335.95472   0.08483705  0.088718844            1 
  331000    1.1919086   -3.3044684     336.7445  0.084779583  0.088689834            1 
  332000    1.1921148   -3.3053307    338.18847  0.084886664  0.088656452            2 
  333000    1.2068137   -3.2954942    339.18164  0.084880291  0.088625813            1 
  334000    1.1858019   -3.2897212    339.32312  0.084661458  0.088591298            1 
  335000    1.2011405   -3.2458957    341.14604  0.084862198  0.088555467            2 
  336000    1.1997035   -3.2716587    342.10321  0.084847027  0.088520055            2 
  337000    1.1990055   -3.2651601    340.70652  0.084249881  0.088481901            2 
  338000    1.1854948   -3.2891352    343.34924   0.08465218  0.088444586            2 
  339000     1.197441   -3.2975117    344.57025  0.084702618  0.088409485            2 
  340000    1.2045107   -3.2892433    346.25123  0.084865498  0.088376582            3 
  341000    1.1944325   -3.2833978    345.75683  0.084495805  0.088345415            1 
  342000    1.1851038   -3.3002797    348.46765  0.084909271  0.088314835            2 
  343000    1.1830408   -3.3086642    349.04854  0.084802853  0.088285844            2 
  344000    1.2123462   -3.2887373    350.07379  0.084804698  0.088256915            3 
  345000    1.2022788    -3.278078     351.0909  0.084804566  0.088225332            1 
  346000    1.1927755   -3.2771609    351.28872  0.084607109  0.088195062            1 
  347000    1.1994723   -3.2655705    353.46023   0.08488478   0.08816478            1 
  348000    1.1925411   -3.2725803    353.40332  0.084627231  0.088134877            2 
  349000    1.1902281   -3.2601665    355.32413  0.084843393  0.088106223            5 
  350000    1.1827452    -3.282828    356.74585  0.084939487  0.088077831            3 
  351000    1.2055632   -3.3021187    357.68545  0.084920572  0.088048602            5 
  352000    1.1987893   -3.2883175    358.51922  0.084876709  0.088019613            4 
  353000     1.194372   -3.2707269    360.52667  0.085110168  0.087993059            2 
  354000    1.2083682   -3.2827767    363.17422  0.085492989  0.087966708            3 
  355000    1.2095414   -3.2855223    363.25829  0.085271899  0.087947393            1 
  356000    1.2229204    -3.286609    363.42363  0.085071075  0.087925487            2 
  357000    1.1954043   -3.2883015    364.59975  0.085107317  0.087905124            2 
  358000    1.1838336   -3.2965788    363.41635  0.084594122  0.087885932            1 
  359000     1.202128   -3.2908966    367.33082  0.085267134  0.087864948            2 
  360000    1.1845111   -3.2961979    369.33283   0.08549371  0.087845698            2 
  361000    1.1509751   -3.2869713     369.3037  0.085250162  0.087830499            2 
  362000    1.1889737   -3.2926794    368.49589  0.084828704  0.087812597            1 
  363000    1.1758752   -3.2993149    371.72094  0.085335387  0.087796257            2 
  364000    1.1886294    -3.302159    372.34799  0.085244504  0.087778793            2 
  365000    1.2027792   -3.3027797    371.79866  0.084885538  0.087760485            3 
  366000    1.1821289   -3.3359927    374.49799  0.085268212  0.087746476            2 
  367000    1.2091873   -3.2875343    377.63627  0.085748472  0.087732206            1 
  368000    1.1973137   -3.3080533    375.89069  0.085120173  0.087720581            2 
  369000    1.1702305   -3.2821383    377.41589  0.085233941  0.087706894            1 
  370000    1.1814758   -3.2755267    379.83423  0.085548249  0.087694385            2 
  371000    1.2071284   -3.3001043    379.90559   0.08533369  0.087683047            3 
  372000    1.1936207   -3.3002369    382.47663  0.085680248  0.087669476            3 
  373000    1.1914719   -3.2964913    381.93498  0.085329531   0.08765413            1 
  374000    1.2153124   -3.2691649    384.00149  0.085561829  0.087638217            2 
  375000    1.1931236   -3.3024935    383.06031  0.085124514  0.087620202            4 
  376000     1.162211   -3.2789777     385.8087  0.085507248  0.087604254            2 
  377000     1.200782   -3.3110611    385.92342  0.085305796   0.08758754            3 
  378000    1.1817459   -3.2998795    387.29286  0.085382024   0.08756979            1 
  379000    1.2004474     -3.30006    387.08782  0.085111658  0.087553836            2 
  380000    1.1818004   -3.2900613    390.17806  0.085565365  0.087539963            2 
  381000    1.2097821   -3.2629171     388.5469  0.084984011  0.087524559            3 
  382000    1.1669623   -3.3086797    389.48564  0.084966327  0.087510864            4 
  383000    1.1781718   -3.2826387    391.46655  0.085175489  0.087496398            4 
  384000    1.1980201   -3.2888803    393.09581   0.08530725  0.087480756            4 
  385000    1.1793839   -3.2657207    391.61798  0.084765797  0.087464998            1 
  386000    1.1782113    -3.312842    392.92073  0.084827446  0.087446445            3 
  387000    1.1788426   -3.2994256    393.31236  0.084692584  0.087429644            1 
  388000    1.1804854   -3.2929503    396.04716  0.085061675  0.087413315            1 
  389000    1.1960491   -3.3093575    395.35866  0.084695514  0.087394244            2 
  390000    1.1861871   -3.3320967    394.38366  0.084270013  0.087372992            1 
  391000     1.201333    -3.278353    396.17722  0.084436747  0.087351476            3 
  392000    1.1891338   -3.2915192    398.68984  0.084755493  0.087328682            3 
  393000    1.1885542   -3.3188242    399.78963  0.084773034  0.087309116            3 
  394000    1.1813795   -3.3299669    399.59348  0.084516387  0.087288324            2 
  395000    1.1943373   -3.2864897    402.99411  0.085019855  0.087268305            2 
  396000     1.207617   -3.2852691    403.29405  0.084868276  0.087250921            1 
  397000    1.1602001    -3.322592    403.95907  0.084794095  0.087231255            2 
  398000    1.1994651   -3.2604931    404.99055  0.084797017  0.087212269            3 
  399000    1.1994591   -3.3368202    405.30134  0.084649402  0.087194006            1 
  400000    1.1784057   -3.3159841    408.25565   0.08505326   0.08717664            1 
  401000    1.1670212   -3.3042112      408.552  0.084902743  0.087161059            1 
  402000    1.2000198   -3.3314033    408.14097  0.084606338  0.087145445            2 
  403000    1.2010045   -3.3295857    410.37272  0.084857883  0.087130011            3 
  404000     1.176358   -3.3207656    410.66313  0.084707742  0.087114867            3 
  405000    1.1826841   -3.2737465    414.87105  0.085364414  0.087100987            1 
  406000     1.207121   -3.2806933    414.52862  0.085083871   0.08708379            1 
  407000    1.2157814   -3.3117487    414.87763  0.084946279  0.087065972            2 
  408000    1.1859407   -3.3140282    415.87703  0.084942203  0.087051834            2 
  409000    1.1703017   -3.2839443    417.72974  0.085112009   0.08703805            2 
  410000    1.1804837    -3.293929    418.52845  0.085066758  0.087025525            4 
  411000    1.1839049   -3.3010551    418.79229  0.084913278  0.087013819            1 
  412000    1.1904751   -3.3309537    421.13358  0.085180741  0.086999774            2 
  413000    1.1713273   -3.3030066    422.36666  0.085223296  0.086986416            2 
  414000    1.1670624   -3.3248593    422.11647  0.084967083  0.086975698            4 
  415000    1.2011829   -3.2874628    426.61577  0.085665818   0.08696458            4 
  416000    1.1881524   -3.3134395    425.41911  0.085220174   0.08695252            3 
  417000    1.1948695    -3.295903    425.31884  0.084995771  0.086938377            3 
  418000     1.182765   -3.3044612    425.72662  0.084873728  0.086922855            4 
  419000    1.1778562   -3.2953554    425.10713  0.084547958  0.086907535            3 
  420000    1.1604485   -3.3329032    428.40503  0.085000998  0.086893125            2 
  421000    1.1797306    -3.323629    427.91804    0.0847027  0.086878842            1 
  422000    1.1969521   -3.3033458    430.49908  0.085011667  0.086864858            5 
  423000    1.1693284   -3.3039889    430.67103  0.084844569   0.08685162            2 
  424000    1.1673128    -3.310078    430.83295  0.084676287  0.086836983            6 
  425000    1.1753734   -3.3219429    432.08308  0.084722173  0.086826111            4 
  426000    1.1656801   -3.2791752    434.15668  0.084928928  0.086814684            4 
  427000    1.2110226   -3.3025811    434.52553  0.084802016  0.086800857            1 
  428000    1.1910056   -3.2930183    436.51802  0.084991827  0.086786125            4 
  429000    1.1753578   -3.2660026    437.91739  0.085065538  0.086773173            3 
  430000    1.1852276   -3.2880272    437.36544  0.084760745  0.086760234            2 
  431000    1.1675958   -3.3091437    436.63003  0.084421892  0.086745775            1 
  432000    1.1935394   -3.3009865    439.55159  0.084790045  0.086732424            2 
  433000    1.1486822   -3.3012152    441.18222  0.084908048  0.086719169            1 
  434000    1.1789727   -3.3012176    441.45202  0.084764213  0.086704254            1 
  435000    1.1821419   -3.2815913    441.13288  0.084508215  0.086688446            3 
  436000    1.1947559   -3.2942024    443.27811   0.08472441  0.086673026            3 
  437000     1.198832    -3.288869    446.39466   0.08512484   0.08665609            2 
  438000    1.2069857   -3.2870398    445.30727  0.084723605  0.086641828            1 
  439000    1.1819284    -3.318619    444.32923  0.084344956   0.08662672            1 
  440000    1.1566694   -3.3301998    447.04494  0.084667603   0.08661232            1 
  441000    1.1691074   -3.3144783    450.15027  0.085062409  0.086600037            3 
  442000    1.1706696   -3.2732485    451.09864  0.085048762  0.086588269            1 
  443000    1.1879494   -3.3175744    451.37566  0.084908889  0.086575232            1 
  444000    1.1731756   -3.3056088    450.41364  0.084537094  0.086560751            2 
  445000    1.1860515   -3.3319713    450.29654  0.084325195  0.086544737            4 
  446000    1.1902828   -3.3051689    452.98113   0.08463773  0.086530306            2 
  447000     1.215955   -3.3138348     455.3688  0.084893513  0.086515539            1 
  448000    1.1590541   -3.3031327    453.63889  0.084382234  0.086501839            2 
  449000    1.1961116   -3.3236419     457.9649  0.084997197  0.086490015            1 
  450000    1.1856967   -3.2873923    459.76275  0.085141251  0.086480652            3 
  451000    1.2029323   -3.2996168    460.84208    0.0851519   0.08647392            2 
  452000    1.1643209   -3.3185879    461.59636  0.085102573  0.086466906            2 
  453000    1.1799514   -3.3049524    463.58628  0.085280772   0.08646188            2 
  454000    1.1928916   -3.3245893     462.3388  0.084863951   0.08645557            4 
  455000    1.1936323   -3.3234805    464.64069  0.085099027  0.086448732            1 
  456000    1.1994012   -3.3245852    463.05657  0.084622912  0.086442166            1 
  457000    1.1722958   -3.3429646    465.29882  0.084846613  0.086435824            4 
  458000    1.1657083   -3.3006307    468.70742  0.085281553  0.086429383            2 
  459000    1.1901634   -3.3343727    468.71288  0.085096747  0.086423862            4 
  460000    1.1820293   -3.2944284    469.94793  0.085135494  0.086418634            2 
  461000    1.1763909   -3.2720646    472.26813  0.085370233  0.086413933            2 
  462000    1.1837133   -3.2808837    473.82717   0.08546666  0.086410325            1 
  463000    1.1659396    -3.303493    474.79068  0.085455485  0.086410782            4 
  464000    1.1471721   -3.3058135    475.53115  0.085404301  0.086410252            1 
  465000     1.176176   -3.3464794    475.57153  0.085227873  0.086410301            1 
  466000    1.1459592   -3.2690946    478.41782  0.085553973   0.08640905            1 
  467000    1.1726011   -3.2909375    478.37882  0.085363815  0.086408105            3 
  468000    1.1960687   -3.3408331    479.56809  0.085393179  0.086407674            2 
  469000    1.1775124   -3.3248348    480.85361  0.085439519  0.086405783            3 
  470000    1.1811911   -3.3005078    480.63441  0.085218867  0.086402429            1 
  471000    1.1670147   -3.2654217    485.96092  0.085980347  0.086400811            2 
  472000    1.1710856   -3.3225287    483.55343  0.085373134  0.086399177            1 
  473000    1.1863358   -3.3244782    487.28238  0.085849609  0.086398489            5 
  474000    1.1629382   -3.3208168    488.40367  0.085865624  0.086398596            1 
  475000    1.1407945   -3.3539213    489.45865  0.085869938  0.086398522            1 
  476000    1.1567045   -3.3050228    489.91125  0.085768776  0.086398464            3 
  477000    1.1618906     -3.30502    492.53248  0.086046905  0.086399959            2 
  478000    1.1815819   -3.3222817    493.40016  0.086018159  0.086401395            1 
  479000    1.1757564   -3.3127581    491.33314  0.085478973  0.086403212            2 
  480000    1.1794375   -3.3096143    494.24803  0.085806949  0.086404112            2 
  481000    1.1559859     -3.30327    495.53402  0.085851355  0.086406783            1 
  482000    1.1944987   -3.3298302     494.7646  0.085540214  0.086408591            2 
  483000    1.1735062   -3.3517583    495.25143  0.085447106   0.08641017            2 
  484000    1.1550916   -3.3053627    499.76169  0.086047122  0.086410909            2 
  485000    1.1651446   -3.3059848    498.42576  0.085640165  0.086414817            1 
  486000    1.1962872   -3.3008607    502.12964  0.086099046  0.086417807            3 
  487000    1.1374197    -3.334437    500.43481   0.08563224  0.086420089            2 
  488000    1.1959206   -3.3061467    503.06452  0.085905826  0.086421817            1 
  489000     1.172215   -3.3462407    499.67043  0.085151744  0.086423865            1 
  490000    1.2112034   -3.3005683    502.75619  0.085502754   0.08642358            3 
  491000    1.1841785   -3.3133425    505.64961   0.08581969  0.086422681            1 
  492000    1.1813751   -3.3309092     504.4779  0.085446799  0.086420896            2 
  493000    1.1854896   -3.3365238    506.73145  0.085654404   0.08641914            2 
  494000    1.1666888   -3.3221163    509.81848  0.086001767    0.0864178            3 
  495000    1.1810399   -3.3342813    507.70115  0.085471574  0.086416024            2 
  496000    1.1408998   -3.2863028    509.27021  0.085562872  0.086413359            3 
  497000    1.1510082   -3.3231917     512.0291  0.085853303  0.086412233            2 
  498000    1.1888984   -3.3058534    512.84012  0.085816619  0.086411263            2 
  499000    1.1627407   -3.3213565    511.83418   0.08547665  0.086410768            2 
  500000    1.1542893   -3.3256108    513.96105  0.085660175  0.086410756            1 
  501000    1.1696225   -3.3005534    515.00272  0.085662461  0.086409861            1 
  502000    1.1618376   -3.3000996    516.92157  0.085810354  0.086409424            1 
  503000     1.192133   -3.3185103    517.90289  0.085802334  0.086409871            5 
  504000    1.1583548   -3.3372403    517.84441  0.085622422  0.086410506            2 
  505000    1.1435515   -3.3065546    521.86595  0.086116493  0.086411209            2 
  506000    1.1624062   -3.3202188    522.72589  0.086087926   0.08641367            1 
  507000    1.1714051   -3.3247106    522.45078  0.085872908  0.086415819            1 
  508000    1.1744319   -3.3107336    524.30106  0.086007391  0.086419463            1 
  509000    1.1770994   -3.3289074    522.70275  0.085576743   0.08641939            2 
  510000    1.1639582   -3.3268808    525.85731  0.085924397  0.086420163            2 
  511000    1.1654343   -3.3131369    524.30304  0.085502779   0.08642013            3 
  512000    1.1680693   -3.3089845    524.73074  0.085405393  0.086419349            2 
  513000    1.1848764   -3.3167497    526.43402  0.085515597  0.086417054            1 
  514000    1.1552194   -3.3028177    526.96427  0.085435192  0.086415329            3 
  515000    1.1680862   -3.2929457    530.22661  0.085797185  0.086414209            2 
  516000    1.2073865   -3.3535054     531.1284   0.08577655  0.086414128            3 
  517000    1.1525152    -3.330643    532.65679  0.085856995  0.086414553            4 
  518000     1.175858   -3.3413334    533.37164  0.085806248  0.086412076            3 
  519000    1.1525587   -3.3499683    531.90415  0.085405291  0.086409437            2 
  520000    1.1863976   -3.2985703    534.05789  0.085586201   0.08640637            1 
  521000     1.146576   -3.2849663    536.47374   0.08580834  0.086404718            5 
  522000    1.2029139    -3.322385    534.46663  0.085323536  0.086402295            3 
  523000    1.1682769   -3.3111385    535.86487  0.085383186  0.086397422            1 
  524000    1.1515857   -3.3389595    535.65939  0.085187562  0.086393116            1 
  525000    1.1542536   -3.3183086    537.83535  0.085370691  0.086387674            3 
  526000     1.164651   -3.3523667    537.86161  0.085212548  0.086383076            1 
  527000    1.1815607   -3.3136993    540.95933  0.085540691  0.086377727            1 
  528000    1.1600405   -3.3402612    540.09462  0.085242207  0.086373571            3 
  529000    1.1669538   -3.3397611    540.52022  0.085148112  0.086368531            1 
  530000    1.1664642   -3.3276916    542.94044  0.085367993  0.086365903            3 
  531000     1.151931   -3.3116171    543.46551  0.085289628  0.086363064            3 
  532000     1.188456   -3.3419652    543.61117  0.085152125  0.086360185            2 
  533000     1.148185   -3.3025055    544.07452  0.085064809  0.086355387            1 
  534000    1.1750495   -3.3356477    545.42836  0.085116785  0.086351255            2 
  535000     1.181129   -3.3124153    545.02753  0.084895254  0.086345571            1 
  536000     1.161947    -3.310564     549.5209  0.085435463   0.08634098            2 
  537000    1.1748521   -3.3433221     547.9698  0.085035661  0.086334539            1 
  538000    1.1684124   -3.3177877    552.99163  0.085655457  0.086328942            1 
  539000    1.1775727    -3.337199    548.71791  0.084835793  0.086323102            1 
  540000    1.1637943   -3.3527177    550.51797  0.084956476   0.08631662            1 
  541000    1.1787787   -3.3307359    551.27264  0.084915687   0.08631016            1 
  542000    1.1596415   -3.3734301     553.2136  0.085057441  0.086303455            2 
  543000    1.1592023   -3.3489455    551.90875  0.084700545  0.086295822            4 
  544000    1.1572699   -3.3508084    554.71028  0.084974001  0.086287304            1 
  545000    1.1714247    -3.371862    554.80961  0.084833274  0.086277493            2 
  546000    1.1750116   -3.3457247    555.19739  0.084737086  0.086267493            2 
  547000     1.150566   -3.3346323    556.89104  0.084840195  0.086256744            1 
  548000    1.1809147   -3.3344944    557.29399  0.084746653   0.08624567            2 
  549000    1.1585144   -3.3272993    557.94722  0.084691442  0.086234898            2 
  550000    1.1635544   -3.3228303    558.75239  0.084659454  0.086225741            2 
  551000     1.156099   -3.3308659    558.07765  0.084403759  0.086216943            1 
  552000     1.144378   -3.3320138    561.43572  0.084757809  0.086206991            1 
  553000    1.1708436   -3.3544594    561.59967  0.084629244  0.086196224            2 
  554000    1.1564819   -3.3460791    562.40855  0.084598158  0.086185815            1 
  555000    1.1788893   -3.3098682    565.82033  0.084958008  0.086176586            3 
  556000    1.1426854   -3.3041208    567.66339  0.085081444  0.086166126            2 
  557000    1.1699687   -3.3144121    566.38732   0.08473778  0.086156189            2 
  558000     1.159281   -3.3439932    565.47112  0.084449092  0.086145796            3 
  559000    1.1659036   -3.3220562    568.98655  0.084822086  0.086135993            2 
  560000    1.1587155   -3.3209675    570.26707  0.084861171  0.086124611            4 
  561000    1.1566878   -3.3598086    568.94497  0.084513513  0.086113619            3 
  562000    1.1654412   -3.3267854    570.24048  0.084555232  0.086101401            2 
  563000    1.1690208   -3.3549772    569.56197  0.084304613  0.086090115            2 
  564000    1.1588301   -3.3396707    571.49505  0.084440758  0.086077325            4 
  565000    1.1656208   -3.3558988    571.75815  0.084330111  0.086064165            1 
  566000    1.1790014    -3.310599     572.3159  0.084263236  0.086050428            4 
  567000    1.1471587   -3.3357437    572.60359  0.084156906  0.086037074            3 
  568000    1.1368934   -3.3229271    572.06037  0.083929046  0.086022374            2 
  569000    1.1587899   -3.3334253    575.15912  0.084235372   0.08600708            5 
  570000    1.1567253   -3.3199933    575.49474  0.084136658  0.085992597            3 
  571000    1.1422931   -3.3529243    574.21876  0.083803088  0.085977486            4 
  572000    1.1462385   -3.3504774    574.76716  0.083736475  0.085961389            2 
  573000    1.1483701   -3.3564438    576.13868  0.083789802  0.085946104            2 
  574000    1.1183525   -3.3490118    578.10828  0.083929773  0.085930506            5 
  575000    1.1709288   -3.3086188    581.60165  0.084290094  0.085917747            1 
  576000    1.1548288   -3.3664685    583.82744  0.084465776  0.085904034            2 
  577000    1.1363115   -3.3841452    583.29516  0.084242513  0.085891752            3 
  578000     1.122215   -3.3384977    583.48726   0.08412446  0.085878382            2 
  579000    1.1611072   -3.3301501    587.98415  0.084626388  0.085866079            4 
  580000    1.1474115   -3.3329484    583.17802  0.083789945  0.085853435            1 
  581000    1.1575941   -3.3380198    584.68699  0.083862162  0.085839827            4 
  582000    1.1643229   -3.3379045    586.92767  0.084038899  0.085827384            3 
  583000     1.140373    -3.319528    589.04618  0.084197568  0.085814577            1 
  584000     1.150009   -3.3270505     590.5136  0.084262785  0.085801644            3 
  585000    1.1619167   -3.3699661    589.87039  0.084027122  0.085788022            2 
  586000     1.148872   -3.3248872    590.30348  0.083945318  0.085771283            3 
  587000    1.1680372   -3.3324773    590.85643  0.083880811   0.08575552            1 
  588000    1.1705551   -3.3580225    588.43059  0.083394357  0.085739672            3 
  589000    1.1331634   -3.3324775     589.4972  0.083403679  0.085721629            2 
  590000    1.1828219    -3.330283    594.19317  0.083925588  0.085705056            2 
  591000    1.1282714   -3.3496443    591.71757  0.083434514  0.085687293            2 
  592000    1.1442458   -3.3515543    592.38675  0.083387774  0.085668938            2 
  593000    1.1691303   -3.3340948    593.86426  0.083454786  0.085652036            2 
  594000    1.1574838   -3.3497177    597.44957  0.083817279  0.085635307            2 
  595000    1.1707457   -3.3121972    596.67397  0.083567783  0.085618767            2 
  596000    1.1558173    -3.339866    596.77683   0.08344195  0.085602756            3 
  597000    1.1376451   -3.3263015    600.35156  0.083801167  0.085585434            2 
  598000    1.1326946   -3.3372339    602.62362  0.083977651  0.085570866            1 
  599000    1.1681514   -3.3222487    604.18943  0.084055291  0.085556187            1 
  600000    1.1570099   -3.3221694    602.94324  0.083742117   0.08554192            2 
  601000    1.1667073   -3.3635241    602.27284  0.083509822  0.085527605            2 
  602000    1.1424899   -3.3328726    602.57886  0.083413463  0.085514708            1 
  603000    1.1541937   -3.3399993    607.55959  0.083963459  0.085501243            2 
  604000    1.1460492   -3.3262954    607.64323  0.083835986  0.085487834            2 
  605000    1.1608314    -3.354441    608.08329  0.083758028  0.085474514            3 
  606000    1.1515556   -3.3465302     610.7994  0.083993317  0.085460757            1 
  607000    1.1655116   -3.3451782    612.52875   0.08409236  0.085448441            2 
  608000    1.1698933    -3.338555     612.5984  0.083963597  0.085436468            2 
  609000    1.1307121   -3.3446248    611.30083   0.08364817  0.085425309            3 
  610000    1.1381409   -3.3550962    612.39877  0.083661034  0.085413891            1 
  611000    1.1536753   -3.3123913    615.69908  0.083974234  0.085402349            5 
  612000    1.1690067   -3.3380594    617.58325   0.08409358  0.085392151            1 
  613000    1.1551227   -3.3198011    618.71302   0.08410998  0.085381454            2 
  614000    1.1254724   -3.3541654    615.57934  0.083547684  0.085370982            2 
  615000    1.1685565   -3.3751096    620.57555  0.084088828  0.085359774            1 
  616000    1.1535562   -3.3406189    619.63579  0.083825188  0.085349122            2 
  617000    1.1332297   -3.3141237    619.16522  0.083625772  0.085338017            1 
  618000    1.1520471   -3.3419223      622.202  0.083899947  0.085325803            2 
  619000    1.1184243   -3.3405913    623.97339   0.08400288  0.085313021            3 
  620000    1.1686977    -3.359728     624.4834  0.083935941  0.085300042            7 
  621000    1.1577586   -3.3562094    625.15577  0.083891004  0.085288217            4 
  622000    1.1585083   -3.3324557    624.57092  0.083677776  0.085277141            2 
  623000    1.1724089   -3.3637977    626.07633  0.083744828  0.085266017            2 
  624000     1.153962    -3.347383    628.62951  0.083951591  0.085255626            2 
  625000    1.1264239   -3.3499594    627.36648  0.083648864   0.08524547            3 
  626000    1.1484604   -3.3490817    629.80495   0.08383985  0.085234483            1 
  627000    1.1395048   -3.3368783    631.46839  0.083927218  0.085223172            2 
  628000    1.1447858    -3.363391    632.03245  0.083868425  0.085211511            2 
  629000    1.1538295   -3.3636882     631.9019  0.083717793  0.085200694            2 
  630000    1.1504909   -3.3574449    633.40998  0.083784389  0.085189039            3 
  631000    1.1520117   -3.3433076     634.3046  0.083769757  0.085176969            2 
  632000    1.1470881   -3.3585085    633.39276  0.083516977  0.085163627            2 
  633000    1.1323621   -3.3677506     633.7795  0.083435953  0.085150373            2 
  634000    1.1412647   -3.3582234    637.11165   0.08374233  0.085137852            2 
  635000    1.1617182   -3.3410452    636.66789  0.083552217  0.085125733            5 
  636000    1.1731392   -3.3750385    640.00812  0.083858506  0.085113268            1 
  637000    1.1784073   -3.3475054    637.95532   0.08345831  0.085100237            1 
  638000     1.136672   -3.3530407    638.72002  0.083427379  0.085086425            5 
  639000    1.1479581   -3.3520722    637.63663  0.083155533  0.085072602            2 
  640000    1.1525479   -3.3472868    642.48896  0.083657417  0.085059476            2 
  641000    1.1556133   -3.3521004    641.11634  0.083348458  0.085047376            2 
  642000    1.1314741   -3.3406651    643.09963  0.083476069  0.085033472            2 
  643000    1.1552889   -3.3581727     640.6365  0.083027022  0.085019454            2 
  644000    1.1401578   -3.3334773    642.08423  0.083085434  0.085004688            2 
  645000    1.1580582   -3.3705472    644.35113    0.0832495  0.084990293            3 
  646000    1.1425426   -3.3930402    642.21158  0.082844632  0.084975271            2 
  647000    1.1629786   -3.3592097    647.34172  0.083377347  0.084959289            2 
  648000    1.1699642    -3.363097     647.1891  0.083229051  0.084944185            2 
  649000    1.1521796   -3.3256631     650.7455  0.083557461   0.08492942            1 
  650000    1.1677548   -3.3225805    648.26767   0.08311124  0.084913929            1 
  651000    1.1532963   -3.3355221    647.40397  0.082873012  0.084897308            3 
  652000    1.1707473   -3.3510327    649.43561  0.083005573  0.084880502            3 
  653000    1.1494174   -3.3852061    651.21078     0.083105   0.08486396            3 
  654000    1.1462957   -3.3864497    647.04632  0.082447289   0.08484631            4 
  655000    1.1447896   -3.3351535    653.94927  0.083199653  0.084829162            4 
  656000    1.1539609   -3.3502393    651.40655  0.082749816  0.084811833            1 
  657000    1.1561951   -3.3609322    650.52884  0.082512537  0.084793045            2 
  658000    1.1208406   -3.3749675    651.67872  0.082532765  0.084774278            2 
  659000    1.1296854   -3.3794297    653.78092  0.082673358  0.084755558            2 
  660000    1.1522978    -3.367285    656.26758  0.082862068  0.084736938            2 
  661000    1.1390471   -3.3379689    655.71071  0.082666504  0.084718769            2 
  662000    1.1307708   -3.3982409    654.66862   0.08241045  0.084699948            3 
  663000    1.1762901     -3.35878    660.48614  0.083017363  0.084681451            4 
  664000    1.1710532   -3.3474609    658.33945  0.082622923  0.084664397            2 
  665000    1.1164664     -3.34788     660.4134  0.082758572  0.084648192            4 
  666000    1.1768554   -3.3390796    660.48552  0.082643333   0.08463015            2 
  667000    1.1423662   -3.3397439    659.02157  0.082336527  0.084610564            2 
  668000    1.1585217   -3.3456137    663.36563  0.082755193  0.084590778            1 
  669000    1.1513242   -3.3516985    661.83326  0.082440615   0.08457044            3 
  670000    1.1441236   -3.3851675    662.97877  0.082460045   0.08455007            2 
  671000    1.1543101   -3.3918762    664.49516   0.08252548  0.084530057            1 
  672000    1.1491883   -3.3468304    663.06257  0.082225022  0.084509649            3 
  673000    1.1722567   -3.3465087    664.87139  0.082326819  0.084489226            1 
  674000    1.1180196   -3.3866031    665.97628   0.08234128  0.084468555            3 
  675000    1.1373604   -3.3790578    669.48728  0.082652751  0.084446741            2 
  676000    1.1146628   -3.3836891    669.44918  0.082525786  0.084426574            2 
  677000    1.1360113   -3.3640195    669.90785  0.082460346  0.084406839            1 
  678000    1.1628125   -3.3536461    671.74175  0.082564128  0.084386952            2 
  679000    1.1473788   -3.3617454    672.42502  0.082526389  0.084368047            1 
  680000    1.1336436   -3.3759885    670.89722  0.082217797  0.084348837            2 
  681000    1.1660514   -3.3659214    672.24695  0.082262231  0.084330638            2 
  682000    1.1084651   -3.3898569    673.85993  0.082338701  0.084311713            5 
  683000    1.1562778   -3.3791966    674.51265  0.082297785  0.084292576            3 
  684000    1.1122377    -3.364035    675.39153  0.082284543  0.084274267            3 
  685000    1.1583134   -3.3501601     674.9153  0.082106484  0.084255243            2 
  686000    1.1275217   -3.3671012    676.93087  0.082231641  0.084235893            3 
  687000    1.1403905   -3.3948689    680.89401  0.082592675  0.084217418            3 
  688000    1.1504638    -3.359412    678.92615  0.082234272   0.08419887            6 
  689000    1.1403083   -3.3441322    680.47805  0.082302618  0.084180572            2 
  690000    1.1545453   -3.3810997    680.33453  0.082166006  0.084161921            1 
  691000    1.1217458   -3.3985186     680.9236  0.082118138  0.084142856            2 
  692000     1.143308    -3.370585     681.1421  0.082025783  0.084123084            4 
  693000    1.1653578   -3.3532111    683.29932  0.082166825  0.084103421            2 
  694000    1.1544375    -3.364769    681.60173  0.081844588  0.084083915            2 
  695000    1.1209769   -3.3578006    684.37363  0.082059188  0.084063675            3 
  696000    1.1430245    -3.359765    686.46918  0.082192191  0.084043093            2 
  697000    1.1323127   -3.3782508    686.49844  0.082077767  0.084023819            2 
  698000    1.1473555   -3.3876597    687.33719  0.082060314  0.084003536            2 
  699000     1.124159   -3.3710328     689.3238  0.082179757  0.083984232            2 
  700000    1.1430745   -3.3848084     688.7238  0.081990929  0.083966495            1 
  701000    1.1222885   -3.3608972    690.37218  0.082069921  0.083947575            2 
  702000    1.1455586   -3.3641773    690.53347  0.081972159  0.083927768            2 
  703000     1.154167   -3.3966542    690.73908  0.081879929  0.083908915            1 
  704000     1.148408   -3.3726627    693.60706  0.082103109  0.083890077            2 
  705000     1.145879   -3.3300529    698.50966  0.082566154  0.083871312            1 
  706000    1.1240081   -3.3870157    694.42309  0.081966842  0.083853895            4 
  707000    1.1359588   -3.3477314    694.95546  0.081913656   0.08383541            2 
  708000     1.117661   -3.3784947    696.52049  0.081982167  0.083816974            3 
  709000    1.1075556   -3.3469298    696.92183  0.081913708  0.083797158            1 
  710000    1.1365506   -3.3756514    696.98544  0.081805802  0.083779237            1 
  711000    1.1668857   -3.3600047    697.19969  0.081715857  0.083759508            1 
  712000    1.1170064   -3.3977649    700.28123  0.081961755  0.083739879            3 
  713000    1.1224953   -3.3571214    699.12813   0.08171203  0.083719998            2 
  714000    1.1199375   -3.3872956     698.6299  0.081539438  0.083699752            2 
  715000    1.1215034   -3.4027455    698.15717    0.0813703  0.083679233            2 
  716000     1.090652   -3.3878626    699.23344  0.081381918  0.083657548            2 
  717000    1.1480949   -3.3521321    703.81809  0.081801265  0.083637241            2 
  718000    1.1775562    -3.364555    702.61218  0.081547375  0.083617575            2 
  719000    1.1610625   -3.3307382    705.09796  0.081722063  0.083598201            2 
  720000    1.1311086   -3.4020537    705.96862  0.081709331   0.08357901            3 
  721000    1.1231244   -3.3816668    707.33012  0.081753366  0.083559163            3 
  722000    1.1225004   -3.3439782    711.48244  0.082119395  0.083539613            4 
  723000    1.1148424   -3.3633888     707.9514  0.081598824  0.083520568            1 
  724000    1.1302144   -3.3646327    710.97359  0.081833977   0.08350108            1 
  725000    1.1345066   -3.3834216    709.83601  0.081590346  0.083482401            2 
  726000    1.1156559   -3.3974177    706.22599  0.081063589   0.08346292            5 
  727000    1.1267791   -3.3388342    710.78559  0.081474735  0.083442651            3 
  728000    1.1352964   -3.3342176    712.34331  0.081541129  0.083422146            5 
  729000    1.1352696   -3.3641392    711.54097  0.081337559  0.083402941            2 
  730000    1.1537687   -3.3738549    713.64528  0.081466356    0.0833837            2 
  731000    1.1555924    -3.394612    714.07824  0.081404268  0.083363786            2 
  732000    1.1159656   -3.3731726    717.30674  0.081660603  0.083343982            2 
  733000    1.1574002   -3.4048788     713.8758   0.08115914  0.083324607            2 
  734000    1.1459115   -3.3486938     715.7255  0.081258572  0.083304837            2 
  735000    1.1414426   -3.3527997    717.36722  0.081334151  0.083285842            3 
  736000    1.1275406   -3.3572087    723.27427  0.081892467  0.083267885            3 
  737000    1.1311193   -3.3734301    720.74676  0.081495563  0.083249713            2 
  738000    1.1300346   -3.3432416    722.39726  0.081571507  0.083231336            2 
  739000    1.1456994   -3.3607456    720.57617   0.08125577  0.083213608            1 
  740000    1.1547951   -3.3408055    724.43016  0.081579973  0.083196221            5 
  741000    1.1354223   -3.3679566    725.44893   0.08158445  0.083177875            1 
  742000    1.1446378   -3.3576874    721.56637  0.081038451  0.083160672            2 
  743000    1.1555251   -3.3679534    726.74363  0.081510053  0.083143619            3 
  744000    1.1334048   -3.3387281    728.10493  0.081552972  0.083125793            3 
  745000    1.1397386   -3.3662024    729.49298  0.081598767  0.083107974            2 
  746000    1.1152593   -3.3943822    728.68272  0.081398874  0.083090657            2 
  747000    1.1437677    -3.387421    730.90897  0.081538261   0.08307356            1 
  748000    1.1169718   -3.3654141    728.45726  0.081156112  0.083056118            1 
  749000    1.1315251   -3.3558839    733.97993  0.081662209  0.083039155            2 
  750000     1.151541   -3.3816164    732.58753  0.081398614  0.083022193            2 
  751000    1.1525948   -3.3804559    733.37292  0.081377377   0.08300489            2 
  752000    1.1343696   -3.3737137    732.41442  0.081162945  0.082986185            2 
  753000    1.1248254   -3.3929857    733.89983  0.081219547  0.082967854            2 
  754000    1.1047292   -3.3669141    735.05899  0.081239941  0.082949481            2 
  755000    1.1379748    -3.355435    736.22595  0.081261143  0.082930116            2 
  756000    1.1501005   -3.3672873    734.54587   0.08096846  0.082912054            6 
  757000    1.1315055   -3.3593919     740.8614  0.081556737  0.082893963            1 
  758000    1.1332406   -3.3708011    740.38068  0.081396293  0.082876226            2 
  759000    1.1086516   -3.3681699    739.92616  0.081239148   0.08285743            3 
  760000    1.1096633    -3.373414    738.54196  0.080980478   0.08283955            2 
  761000    1.1001205   -3.3516621    743.49079  0.081415986  0.082820361            2 
  762000    1.1119008   -3.3922749    740.65821  0.080999367  0.082800481            3 
  763000    1.1211062   -3.3786296    740.55583  0.080882026  0.082781774            1 
  764000    1.0848586   -3.3719192    745.08697  0.081270394  0.082762433            1 
  765000    1.1386316   -3.3963524    741.69188  0.080794322  0.082743242            2 
  766000    1.1277953   -3.3891497    744.32225  0.080975005   0.08272392            3 
  767000     1.128143   -3.3415515     746.2859  0.081082779  0.082704382            5 
  768000    1.1276892   -3.3418575    746.92876  0.081046957  0.082685326            3 
  769000    1.1230986   -3.3732854    747.22108  0.080973242  0.082666153            1 
  770000    1.1478451   -3.3587016    749.39035  0.081102852  0.082647095            4 
  771000    1.1343932   -3.3981837    747.62154  0.080806479  0.082627206            5 
  772000    1.1249804   -3.3774484    749.99233  0.080957722  0.082607823            2 
  773000    1.1374319   -3.4108763    746.69405  0.080497418  0.082588277            5 
  774000    1.1191433   -3.4044206    752.03605  0.080968567  0.082568107            2 
  775000    1.1469436   -3.3945215    748.36019  0.080468837  0.082547535            7 
  776000    1.1147079   -3.3909222      747.698   0.08029403  0.082525945            1 
  777000     1.155376   -3.3840292    751.00175  0.080545018  0.082505226            4 
  778000    1.1013507   -3.3752095    753.02911  0.080658645  0.082484437            2 
  779000    1.1496325   -3.3779556    753.01497  0.080553591  0.082462868            2 
  780000    1.1188514   -3.3812536    755.03453  0.080666083  0.082442733            1 
  781000    1.1539129    -3.366554    755.57872  0.080620862  0.082422443            3 
  782000    1.1183014   -3.3668622    755.71514  0.080532303   0.08240186            2 
  783000    1.1036536   -3.3655232    758.08328   0.08068149  0.082381768            2 
  784000    1.1334635   -3.3758881    760.43245  0.080828279  0.082362002            2 
  785000    1.1254659   -3.3652446     760.2149  0.080702219  0.082342843            1 
  786000    1.1196928   -3.3774614    759.47605   0.08052121  0.082323677            3 
  787000    1.1152996   -3.3737883    758.94781  0.080362962  0.082304085            2 
  788000    1.1165132   -3.3598703    761.54572  0.080535714    0.0822845            2 
  789000     1.123536    -3.388826    762.12915  0.080495263  0.082265514            3 
  790000    1.1147272    -3.368739    762.31205  0.080412664  0.082246006            2 
  791000    1.1226722   -3.3847753    764.79969  0.080573082  0.082226555            2 
  792000    1.1088076   -3.3695563     769.1762  0.080931839  0.082207505            4 
  793000    1.1371141   -3.3956386    764.67156  0.080356406   0.08218819            2 
  794000     1.125328   -3.3943701     770.0558  0.080820298  0.082169203            1 
  795000    1.1299459   -3.3783162    768.71927  0.080578539  0.082151293            3 
  796000    1.1244764   -3.3770296     767.0938   0.08030714  0.082133279            1 
  797000    1.1466401   -3.4010512     767.0671  0.080203586  0.082114133            3 
  798000    1.1242623    -3.357911    771.33396  0.080548659  0.082094767            3 
  799000    1.1142709   -3.3683265     771.1032  0.080423779  0.082075207            4 
  800000    1.1210804   -3.3709465    770.71486  0.080282798  0.082055992            2 
  801000    1.1284208    -3.368676    769.05117  0.080009485  0.082036028            4 
  802000    1.1090639   -3.3688269    775.97346  0.080628996  0.082017349            1 
  803000    1.1564681   -3.3718267    776.20474  0.080552588  0.082000178            4 
  804000    1.1099274   -3.3795891    775.72298  0.080402465   0.08198261            2 
  805000    1.1170124    -3.352103    782.47405  0.081001455  0.081966024            3 
  806000    1.1112035   -3.3881312    778.21101  0.080460196  0.081949773            1 
  807000    1.1292607   -3.3681662    780.56502  0.080603575  0.081932735            1 
  808000    1.1231563   -3.3848068    783.07794  0.080762989  0.081916073            2 
  809000    1.1393363   -3.4059969    781.39816  0.080490128  0.081899386            5 
  810000     1.104803   -3.3877081    784.53064  0.080713029  0.081882425            2 
  811000    1.1244743   -3.3984284     783.2479  0.080481699  0.081865743            2 
  812000    1.1281827   -3.3815193    783.83206  0.080442535  0.081849492            3 
  813000     1.134515   -3.4024279    783.78676  0.080338947  0.081831833            3 
  814000    1.1334051   -3.3896109    784.78526  0.080342471  0.081815085            3 
  815000     1.115379   -3.3698529    787.31211  0.080502261  0.081797625            1 
  816000    1.1429584   -3.4125593    784.62957  0.080129653   0.08178008            1 
  817000    1.1063204   -3.3820151    785.20724  0.080090498  0.081762392            5 
  818000    1.1083816   -3.3909356    784.49381  0.079919907  0.081743827            2 
  819000    1.1156075   -3.4115689    785.71558   0.07994664   0.08172618            3 
  820000     1.086064    -3.376777     789.6758  0.080251606  0.081708325            1 
  821000    1.0972657    -3.391868    789.73312  0.080159675  0.081690477            1 
  822000     1.106278   -3.3601054    792.53579  0.080346289  0.081672368            3 
  823000    1.1498741   -3.3686159    788.78353  0.079868725  0.081654206            1 
  824000    1.1204247   -3.3850531    794.98446  0.080398914  0.081637055            1 
  825000    1.1296954   -3.4056182    792.89975  0.080090883  0.081618818            1 
  826000    1.1236818    -3.361835    794.66048  0.080171558   0.08160045            6 
  827000    1.1136634    -3.387648    795.43504  0.080152664  0.081582011            2 
  828000    1.1312732   -3.3860778    796.91701  0.080205013  0.081563122            2 
  829000    1.1198954   -3.4166846    796.08452   0.08002458  0.081545236            2 
  830000    1.1230198   -3.3609488    797.78419  0.080098814  0.081527427            2 
  831000    1.0973912   -3.3873483    794.61505  0.079684622  0.081509209            4 
  832000    1.1068855   -3.3764768     799.0967  0.080037731  0.081490202            3 
  833000    1.1330375   -3.3802919    799.68179  0.080000179  0.081471046            2 
  834000    1.1008237   -3.3729268    799.28896  0.079865004  0.081451505            2 
  835000    1.1343151   -3.3980925    800.46516  0.079886742  0.081432055            2 
  836000    1.1120958   -3.3977921    803.21922  0.080065711  0.081413186            3 
  837000    1.1175717   -3.3890511    803.36855  0.079984921  0.081394383            1 
  838000    1.1305857   -3.4031203    803.92189  0.079944499  0.081375609            2 
  839000    1.0887027   -3.4019723    801.53577  0.079612214  0.081355746            5 
  840000    1.1502832   -3.4163324    802.77058  0.079639938  0.081336716            4 
  841000    1.1296067   -3.4043186    804.87514   0.07975378  0.081317943            1 
  842000    1.1091096    -3.398995    804.00707  0.079573146  0.081299186            3 
  843000    1.1209991   -3.4205244    809.05213  0.079977474  0.081280226            2 
  844000    1.1121889   -3.4194155    804.63589  0.079446671  0.081260292            2 
  845000    1.1093987   -3.3860971    804.84201  0.079372979  0.081240259            2 
  846000    1.1089282   -3.4293565    805.85634  0.079379072  0.081220275            2 
  847000    1.0898829   -3.4122368    805.49926  0.079250222  0.081199424            8 
  848000    1.1009027   -3.3957507    807.10012  0.079314084  0.081178119            3 
  849000    1.1398158   -3.4067802    807.02239  0.079213034  0.081158299            2 
  850000    1.1382058   -3.4088894    809.75287  0.079387536  0.081138366            4 
  851000    1.1221979   -3.3714627    814.66791  0.079775549  0.081118479            1 
  852000    1.0795918   -3.3799644    812.12118  0.079432823  0.081098339            4 
  853000    1.1291297   -3.3965902    806.37383  0.078778217  0.081078468            2 
  854000    1.1292157   -3.3873138    810.92662  0.079130232  0.081058576            3 
  855000    1.1185277   -3.3583593     811.9779  0.079140146  0.081037712            4 
  856000    1.1115266   -3.3872833    816.35356  0.079473672  0.081016955            3 
  857000    1.1108142   -3.3802091    816.01932  0.079348437  0.080996724            3 
  858000    1.0711122   -3.4341808    811.33704  0.078801189  0.080976433            3 
  859000    1.1151371    -3.401995    812.98841  0.078869656   0.08095568            3 
  860000     1.128171    -3.368608     817.2426  0.079190174  0.080935322            2 
  861000    1.0832918   -3.3912883    816.90958  0.079065968  0.080914077            2 
  862000     1.126752   -3.4107773    818.32173  0.079110763  0.080893117            3 
  863000    1.0962666   -3.4128662    819.49789  0.079132666  0.080872167            2 
  864000    1.1322992   -3.3855194    819.60797  0.079051694  0.080851279            2 
  865000    1.1048988   -3.4053486    820.22538  0.079019786    0.0808301            3 
  866000    1.1052566     -3.41065    818.97397  0.078808119  0.080809522            2 
  867000    1.1191825   -3.3851643    820.67388  0.078880611  0.080788919            2 
  868000     1.111659   -3.4251434     824.7896  0.079184869  0.080768486            3 
  869000    1.1150715   -3.3959952    826.83657  0.079290043  0.080747953            1 
  870000    1.1379701   -3.4019224    824.06222  0.078933163  0.080728259            1 
  871000    1.1319417   -3.3908194    826.18413  0.079045554  0.080708857            1 
  872000    1.1213643   -3.4166173    828.03602  0.079131883   0.08068876            1 
  873000    1.1106379   -3.4194666     829.1176  0.079144483  0.080667874            1 
  874000    1.1171504   -3.4162622    825.72655  0.078730601  0.080647478            2 
  875000    1.1231774   -3.3995034    826.46954  0.078711385  0.080626272            2 
  876000     1.124694   -3.3791672    828.17562   0.07878383  0.080605579            1 
  877000    1.1126534   -3.4211353    829.65459  0.078834529  0.080584559            3 
  878000     1.124114   -3.3797919    831.03594  0.078875848  0.080564141            2 
  879000    1.1170314   -3.3879886     837.2349  0.079373805  0.080544648            1 
  880000    1.1187556   -3.3881161    834.18524  0.078994814  0.080525045            4 
  881000     1.134514   -3.4056241    834.75709  0.078959241  0.080505712            3 
  882000     1.102968   -3.4005783    836.94024  0.079075987  0.080486536            1 
  883000    1.0973873   -3.3737842    839.93792   0.07926934  0.080467795            2 
  884000    1.1257515   -3.4029559    834.09396  0.078628767  0.080448226            1 
  885000    1.1005159   -3.3845312    840.45972  0.079139334  0.080429043            3 
  886000    1.1015058   -3.4031429    837.07263  0.078731436  0.080409541            5 
  887000    1.1211776   -3.4368899    837.18121  0.078652876  0.080389899            2 
  888000    1.0949784   -3.3698185    842.56881  0.079069896  0.080370821            2 
  889000    1.0764423   -3.4193296    840.39911  0.078777569  0.080351054            2 
  890000    1.0995953   -3.4033296    836.82322  0.078354234  0.080331099            1 
  891000    1.1205364   -3.4373948    836.94401  0.078277592   0.08031021            2 
  892000    1.1325356   -3.4031981    840.90711  0.078560081  0.080289052            5 
  893000    1.0960186   -3.3966114    841.34791  0.078513243    0.0802682            2 
  894000     1.090213   -3.3958775    841.81038  0.078468529  0.080248105            2 
  895000     1.113963   -3.4217246    843.13488  0.078504179  0.080227588            3 
  896000    1.1093092   -3.4056933    841.58753   0.07827265  0.080207676            1 
  897000    1.0977748   -3.4081927    843.42583  0.078356172  0.080187401            2 
  898000    1.1075717     -3.42665     846.3813  0.078543179  0.080166133            1 
  899000    1.1243339   -3.4295458    846.03262  0.078423491  0.080145974            3 
  900000    1.1221338   -3.3991451    851.41437  0.078834664    0.0801262            5 
  901000    1.1325418   -3.4230626    850.81952  0.078692149   0.08010603            3 
  902000     1.113586   -3.4189593    850.09313  0.078537798   0.08008585            2 
  903000    1.1245078   -3.4094057    850.52405  0.078490592  0.080065559            1 
  904000    1.0908287   -3.4056866    848.14039  0.078184033  0.080045314            2 
  905000    1.1261837   -3.4513291    850.46813  0.078311983  0.080024518            3 
  906000    1.1131593   -3.3940864    854.01624  0.078551898  0.080004647            3 
  907000    1.0703695   -3.4268416    851.50622  0.078234676  0.079983971            1 
  908000    1.0819527   -3.3849621    855.23554   0.07849078  0.079964174            2 
  909000    1.1200641   -3.4225047     850.4177  0.077962752  0.079944054            2 
  910000     1.116987   -3.3926184    855.95839  0.078384468  0.079923408            6 
  911000    1.1173499   -3.3739428    855.93866  0.078296621  0.079904594            3 
  912000     1.116427   -3.4342399    853.51692  0.077989485  0.079885253            2 
  913000    1.0868189   -3.4160462    855.77563  0.078110225  0.079865944            2 
  914000    1.0913988   -3.3982533     859.0325  0.078321709  0.079845961            3 
  915000    1.0893409   -3.4183298    857.37506   0.07808516  0.079826663            3 
  916000    1.1043018   -3.4238918    863.10379  0.078521087  0.079807355            3 
  917000    1.1300004   -3.4236555    862.72087  0.078400661   0.07978823            4 
  918000    1.1133409    -3.399145    862.25678  0.078273128   0.07976889            2 
  919000    1.1092653    -3.411565    863.79033  0.078327016  0.079749954            1 
  920000    1.1056254   -3.3957511    867.34165  0.078563555  0.079730392            1 
  921000    1.0966668   -3.4045075    866.55467  0.078407045  0.079710811            2 
  922000    1.1238875   -3.4237065     864.9563  0.078177539  0.079691039            2 
  923000    1.1134359   -3.3890916    866.30273  0.078214403    0.0796713            4 
  924000    1.1097998   -3.4033929    867.68941  0.078254817  0.079651819            1 
  925000     1.102287   -3.4087812    865.14025  0.077940563  0.079633019            3 
  926000    1.0927526   -3.4096904    870.47417  0.078336408  0.079613632            2 
  927000    1.1115876   -3.4142235    865.34165  0.077790512  0.079594673            3 
  928000    1.1062313   -3.4005853    873.75799  0.078462463   0.07957602            1 
  929000    1.1102548   -3.3784658    874.74473  0.078466517  0.079557249            2 
  930000    1.1011814   -3.3863935    876.92387  0.078577408   0.07953845            3 
  931000    1.1263459   -3.4067548    870.62103  0.077928843  0.079519629            5 
  932000    1.1391245   -3.4054156    871.62768  0.077935236  0.079500431            4 
  933000    1.1012545   -3.4184756    869.96035  0.077702782  0.079481842            3 
  934000    1.0989365   -3.4244273    876.80232  0.078230043  0.079463957            2 
  935000    1.1199687   -3.4287282    874.91473   0.07797814  0.079446167            2 
  936000     1.120898   -3.3971862    879.20865  0.078277123  0.079428437            2 
  937000    1.0889175   -3.4213129    881.21793  0.078372281  0.079411039            3 
  938000    1.0870401    -3.409579    880.52309  0.078226998  0.079393496            1 
  939000     1.098996   -3.4139134    883.51234  0.078408976  0.079376141            2 
  940000    1.0802282   -3.4045606    881.91786  0.078184208   0.07935833            3 
  941000    1.1089268   -3.4176187    881.08525  0.078027386  0.079340078            2 
  942000    1.0929343   -3.4081003    884.43723  0.078241085  0.079322527            4 
  943000    1.1051725   -3.4068735    883.46385  0.078072097  0.079305447            4 
  944000    1.0939461   -3.3951625    884.15362  0.078050284   0.07928864            2 
  945000    1.1125827   -3.4229507     883.7833  0.077935035  0.079271481            3 
  946000    1.1123997   -3.4038132     890.1663  0.078414931  0.079254787            3 
  947000    1.0928966   -3.4120144    890.56254  0.078366995   0.07923822            3 
  948000    1.0904584   -3.4057279    893.19007  0.078515302   0.07922224            1 
  949000    1.0946714   -3.4203242    893.60538  0.078469036  0.079206327            2 
  950000    1.0807374    -3.409905    890.28372  0.078095063  0.079189418            2 
  951000    1.0936691   -3.4011819    892.22868  0.078183376  0.079171477            3 
  952000    1.1011711   -3.4103905    893.63079  0.078223984  0.079154694            2 
  953000    1.0950977   -3.4365041    893.80232  0.078156901  0.079137795            3 
  954000    1.0907626   -3.4051822    893.93102  0.078086218  0.079121329            2 
  955000    1.0977806    -3.412007    892.42811  0.077873308   0.07910453            1 
  956000    1.1026982   -3.4528028    894.33123  0.077957743  0.079087163            2 
  957000    1.1068268   -3.4287587    894.85495  0.077921887  0.079070238            2 
  958000    1.1229759   -3.4217374    896.45331  0.077979585  0.079052881            3 
  959000    1.0895244   -3.4107275    899.14573  0.078132232  0.079035471            2 
  960000    1.1075636   -3.4284229     897.6781  0.077923446  0.079017651            2 
  961000    1.0845541   -3.4307059    898.48844   0.07791263  0.079000042            1 
  962000      1.09765   -3.4051711    902.79942  0.078205078  0.078982992            3 
  963000     1.089005   -3.4276768    901.29937  0.077994061  0.078965864            1 
  964000    1.0936011   -3.4228077    899.85828  0.077788578  0.078948608            2 
  965000    1.1069924    -3.396407    904.65473   0.07812217  0.078931446            2 
  966000    1.0821946   -3.4126246    904.68884  0.078044241  0.078913872            1 
  967000    1.0805538   -3.4461579    899.14552  0.077485825  0.078895923            2 
  968000    1.0918958   -3.4390099    899.99641   0.07747903  0.078877337            2 
  969000    1.0989837   -3.3955992    905.63624  0.077884094  0.078858646            1 
  970000    1.0965791    -3.413786    903.21296  0.077595615  0.078840711            2 
  971000    1.1022516   -3.4337195    904.66626  0.077640428  0.078823029            3 
  972000    1.0886156   -3.4092981    905.04357  0.077592898   0.07880461            2 
  973000    1.0834208   -3.4405417    908.81259  0.077835953  0.078786726            3 
  974000    1.1191352   -3.3989081     908.1135  0.077696227  0.078769375            3 
  975000     1.084804   -3.4122527    906.32685  0.077463834  0.078752048            1 
  976000    1.1245677   -3.3855597    905.34965  0.077301029  0.078734411            4 
  977000    1.0944196   -3.4277463    909.03282  0.077536064  0.078717083            2 
  978000    1.0922303   -3.4452755    907.50197  0.077326344  0.078699727            5 
  979000    1.0986503   -3.4020486    912.40262  0.077664506  0.078682765            2 
  980000    1.0968833   -3.4250243    912.87109  0.077625093  0.078665695            1 
  981000    1.0977387   -3.4372231    909.44292   0.07725475  0.078648224            4 
  982000    1.0890432   -3.4597793    912.71366  0.077453637  0.078630237            3 
  983000    1.0944333   -3.4315292    915.67028   0.07762549  0.078612603            1 
  984000    1.0865702   -3.4080662    914.24937  0.077426268  0.078595535            3 
  985000    1.1034806    -3.417111    921.32618  0.077946377  0.078577986            1 
  986000    1.1044295   -3.4529095    913.09542  0.077171689  0.078561044            1 
  987000    1.0887557   -3.4034497    918.74055  0.077570124  0.078544004            2 
  988000    1.0971438   -3.4486646    918.77252  0.077494309  0.078526637            1 
  989000    1.0772721   -3.4154181    922.50269  0.077730257  0.078509128            1 
  990000    1.0874258   -3.4258571    920.24631   0.07746181  0.078491989            1 
  991000    1.0817881    -3.449052     918.3839  0.077227035  0.078474576            3 
  992000    1.0530716   -3.4310861    924.06475  0.077626407  0.078456611            2 
  993000    1.0932535   -3.4218662    922.50687  0.077417495  0.078440209            3 
  994000    1.0715643   -3.4364707    927.50938  0.077759002  0.078423558            1 
  995000    1.1135208   -3.4010946    927.05726  0.077642986  0.078407531            2 
  996000    1.0832836   -3.4419933    926.99519  0.077559839  0.078391506            3 
  997000    1.0988356   -3.4279524    926.40171  0.077432439  0.078375251            4 
  998000    1.0703406   -3.3979102    928.62108   0.07754017  0.078358967            2 
  999000    1.0796416   -3.3761596    935.51187   0.07803736  0.078343497            2 
 1000000    1.0864097   -3.4217964    929.37498  0.077447915  0.078328335            2 
 1001000     1.076846   -3.4202538    934.46696  0.077794452  0.078313132            2 
 1002000    1.0818802   -3.4248127    935.17157  0.077775413  0.078298224            3 
 1003000    1.0878066   -3.3830275    939.02128   0.07801772  0.078283316            1 
 1004000    1.0921398   -3.4565459    933.94607  0.077518764  0.078268371            4 
 1005000    1.0740251   -3.4047502     939.0131  0.077861783  0.078252969            3 
 1006000    1.0959576   -3.4355185    933.45214  0.077323736  0.078238034            2 
 1007000    1.0746228   -3.4224718    937.17585  0.077555102  0.078223483            4 
 1008000    1.0855482   -3.4165145    937.20054  0.077480203  0.078208421            2 
 1009000    1.1182592   -3.4231773    940.69825  0.077692291  0.078193395            1 
 1010000    1.0675645   -3.4365444    941.68708  0.077696954  0.078179156            2 
 1011000    1.0846654    -3.413857    941.57715  0.077611041  0.078164914            1 
 1012000    1.0525569   -3.4444805    943.46936  0.077690165  0.078150256            3 
 1013000    1.0819469   -3.4078126    944.88278  0.077729745  0.078135569            1 
 1014000    1.0942565   -3.4379801     942.2562  0.077437228  0.078120937            2 
 1015000    1.0827388   -3.4402258    945.84909  0.077655918  0.078106044            3 
 1016000    1.0629346   -3.4060512    944.73046  0.077487735  0.078091639            2 
 1017000    1.0900053   -3.4238811    946.55182  0.077560785  0.078076883            1 
 1018000    1.0823302   -3.4381174    943.51298  0.077235836   0.07806203            2 
 1019000    1.0741345   -3.4209077    947.92977  0.077521244  0.078047527            2 
 1020000    1.0772756   -3.4130091    948.74358  0.077511731  0.078032477            2 
 1021000    1.0919907   -3.4453756    944.51962  0.077091056  0.078018511            1 
 1022000    1.0780693   -3.4197675    949.45139  0.077417759  0.078004034            2 
 1023000    1.0972332   -3.4460845    947.57539  0.077189262  0.077989229            2 
 1024000    1.0983895   -3.4469881    950.35589   0.07734016  0.077974318            2 
 1025000    1.0973226   -3.4579222    948.35521   0.07710205  0.077959464            1 
 1026000    1.0806807   -3.4415582     950.5772  0.077207375  0.077944575            3 
 1027000    1.0932096   -3.4474279    951.73809  0.077226395  0.077929712            3 
 1028000    1.0841737   -3.4261561     954.4051  0.077367469  0.077914871            7 
 1029000    1.0808242   -3.4391826    952.36354  0.077126947   0.07789964            2 
 1030000    1.0722927   -3.4239682    956.78196  0.077409543  0.077884859            1 
 1031000     1.056819   -3.4470319    950.96542  0.076864325  0.077869279            1 
 1032000    1.0986626   -3.4429173    955.36316  0.077144958  0.077854116            3 
 1033000    1.0825162   -3.4503198    957.82848  0.077269158  0.077838916            3 
 1034000    1.1029338   -3.4379812    957.42382  0.077161816  0.077823787            3 
 1035000    1.0846818   -3.4380922    958.93829  0.077209202   0.07780878            1 
 1036000    1.0823417   -3.4394875    956.98289  0.076977388  0.077792945            3 
 1037000    1.0690572    -3.423206    956.77816  0.076886706  0.077777268            2 
 1038000    1.0923271   -3.4354509    960.34221  0.077098765  0.077762345            5 
 1039000    1.0806981   -3.4154416    959.28399  0.076939685    0.0777456            1 
 1040000    1.0873207   -3.4420061    959.38099  0.076873477  0.077729176            4 
 1041000    1.0773013   -3.4618928    962.75255  0.077069529  0.077712944            2 
 1042000    1.0804574   -3.4428384    960.49864   0.07681531  0.077697413            2 
 1043000      1.10094   -3.4256649    964.23557  0.077040234   0.07768164            3 
 1044000    1.0835762   -3.4342233    962.86683  0.076857186  0.077666701            2 
 1045000    1.1033348   -3.4607084    966.44613  0.077069069  0.077651809            3 
 1046000    1.0876631   -3.4080607    969.15602  0.077211283  0.077636623            2 
 1047000    1.1137759    -3.439049    966.76542  0.076947264  0.077621471            1 
 1048000    1.0712005     -3.45473    965.96759    0.0768104  0.077606226            1 
 1049000    1.0932675   -3.4406399    969.68575  0.077032551  0.077591048            2 
 1050000    1.0561155   -3.4637267    967.62961  0.076796001  0.077575556            2 
 1051000    1.0755651   -3.4300076    968.72375  0.076809685  0.077560278            3 
 1052000    1.0813983   -3.4541589    968.32062  0.076704739  0.077545011            2 
 1053000    1.0965333    -3.459096    972.95726  0.076998833  0.077529268            3 
 1054000    1.0882792    -3.429814    974.24907  0.077027915  0.077514135            2 
 1055000    1.0971188     -3.44057     972.0115  0.076778159  0.077498412            3 
 1056000    1.0896614   -3.4201618    973.32898  0.076809421  0.077483035            2 
 1057000    1.1103214   -3.4127325    978.31537  0.077129878  0.077467829            4 
 1058000    1.0873173    -3.398808    977.12185  0.076962969  0.077452539            2 
 1059000    1.0829378   -3.4785017    976.71112  0.076857973  0.077436952            4 
 1060000    1.0870017   -3.4417209    977.22426  0.076825806  0.077421569            2 
 1061000    1.1096376   -3.4751945    974.74449  0.076558631  0.077405866            4 
 1062000    1.0832453   -3.4496274    975.65958  0.076558348  0.077390284            2 
 1063000    1.0792571   -3.4305858    975.60536  0.076482076  0.077374811            3 
 1064000    1.0665551   -3.4332129    982.95689  0.076985972  0.077359258            5 
 1065000    1.0959118   -3.4552443    979.17351  0.076617646  0.077344437            1 
 1066000    1.1084225   -3.4653217    980.56596  0.076654625  0.077329306            2 
 1067000    1.0799204    -3.439671    983.50969  0.076812691  0.077314146            2 
 1068000    1.1088616   -3.4142715    984.54906  0.076821868  0.077299963            2 
 1069000     1.084135   -3.4210706    983.08472  0.076635853  0.077285295            1 
 1070000    1.0613089   -3.4251051    983.64698   0.07660802  0.077269749            2 
 1071000    1.0909573   -3.4535412    978.68635   0.07615051  0.077254018            3 
 1072000     1.073288   -3.4217169    986.02253  0.076649761  0.077238015            2 
 1073000    1.0925228   -3.4639008    981.16521  0.076201088  0.077222001            3 
 1074000    1.0656195   -3.4327773    985.33859  0.076453957  0.077206258            3 
 1075000    1.0828405   -3.4724662    985.73662  0.076413692  0.077190389            2 
 1076000    1.0782333     -3.43167    986.42212  0.076395765  0.077174824            2 
 1077000    1.1043015   -3.4161844    995.71719  0.077044041  0.077159555            1 
 1078000    1.0973061   -3.4263513    993.71689  0.076817942  0.077144967            3 
 1079000    1.0638798   -3.4356866     991.9248  0.076608341  0.077130451            2 
 1080000    1.0920503   -3.4436519    990.17394   0.07640231  0.077115998            1 
 1081000    1.0663438   -3.4424737    990.29931  0.076341297  0.077101455            3 
 1082000      1.06859    -3.448735    992.66438  0.076452894  0.077086234            1 
 1083000    1.1052134   -3.4471268     996.3172  0.076663373  0.077071165            2 
 1084000    1.0656694   -3.4487196    997.94252  0.076717599  0.077056044            2 
 1085000    1.1037695   -3.4177297    994.89608  0.076412909  0.077041359            2 
 1086000    1.0584342   -3.4492658    994.02765  0.076275909  0.077026464            6 
 1087000    1.0824648   -3.4170098    998.44898  0.076544693  0.077011217            2 
 1088000    1.0833201   -3.4472042    993.59494  0.076102553  0.076995922            2 
 1089000    1.0868319   -3.4311565    999.73433  0.076502474  0.076980514            1 
 1090000     1.081252    -3.454063    1000.0788  0.076458625  0.076965399            2 
 1091000    1.0649108   -3.4053776    1001.4838  0.076495858  0.076950761            2 
 1092000    1.0964003   -3.4031141    1004.6222   0.07666531  0.076937224            2 
 1093000    1.0646612   -3.4575669    1005.6689  0.076674966  0.076923276            2 
 1094000     1.094456   -3.4237977     1004.384  0.076507008  0.076909156            2 
 1095000    1.0737511   -3.4634366    1003.7373  0.076387926   0.07689496            2 
 1096000    1.0706566   -3.4454875     1006.908  0.076559307   0.07688066            5 
 1097000    1.0885388    -3.452562    1005.1123  0.076353106  0.076866184            2 
 1098000    1.0873823   -3.4470898    1007.8961  0.076494845  0.076852614            2 
 1099000    1.0611806   -3.4641344     1010.174   0.07659797  0.076839132            3 
 1100000    1.0785133   -3.4599488    1004.7409  0.076116736  0.076825253            2 
 1101000    1.0886782   -3.4701805    1013.2739   0.07669345  0.076811723            2 
 1102000    1.0751943    -3.423802    1011.0207   0.07645347  0.076798389            2 
 1103000     1.059987   -3.4719411    1010.8306  0.076369797   0.07678445            1 
 1104000    1.0697177   -3.4654412    1010.9153  0.076307012  0.076770037            2 
 1105000    1.0847191   -3.4374117    1010.2617  0.076188668  0.076756314            1 
 1106000    1.0652138   -3.4793186    1013.2577  0.076345515   0.07674174            3 
 1107000    1.0632235     -3.44703    1014.1252  0.076341858  0.076727462            2 
 1108000     1.093561   -3.4273912    1017.0947  0.076496292  0.076713781            2 
 1109000    1.0638795   -3.4425039    1014.2193  0.076211248  0.076700069            2 
 1110000    1.0799908   -3.4498934    1017.6422  0.076399564  0.076685831            3 
 1111000     1.069763   -3.4415302    1018.3351  0.076382769  0.076671427            2 
 1112000    1.0522738   -3.4473893    1017.3127  0.076237461  0.076657304            3 
 1113000     1.083062   -3.4822597    1015.9592  0.076067621  0.076642847            3 
 1114000     1.087957   -3.4221667    1020.5219   0.07634066   0.07662795            1 
 1115000    1.0863332   -3.4437245    1015.4709  0.075894688  0.076613053            3 
 1116000    1.0483604   -3.4498919    1022.6413  0.076362102  0.076598666            2 
 1117000    1.0573325   -3.4362065    1021.8712   0.07623629   0.07658409            2 
 1118000    1.0732048   -3.4800152    1023.2539  0.076271162   0.07657015            6 
 1119000    1.0705246    -3.440271    1028.1574  0.076568168  0.076556687            4 
 1120000    1.0687921   -3.4771513    1023.0709  0.076121347   0.07654283            1 
 1121000    1.0725801   -3.4661375     1023.629  0.076094927  0.076529292            3 
 1122000    1.0680698   -3.4550043    1027.2526  0.076296243  0.076515987            2 
 1123000    1.0580799   -3.4778131    1029.8487  0.076420945  0.076503506            1 
 1124000    1.0671456   -3.4695354    1028.9352  0.076285233  0.076490033            2 
 1125000    1.0852281   -3.4693348    1032.8153   0.07650484  0.076477607            2 
 1126000    1.0569176   -3.4723678    1029.3692  0.076181851  0.076465238            3 
 1127000    1.0627613   -3.4475475    1034.5354  0.076496259  0.076452845            2 
 1128000    1.0705597   -3.4239213    1033.7444  0.076370003  0.076440328            2 
 1129000    1.0614851   -3.4454787    1033.5628   0.07628896  0.076427176            3 
 1130000    1.0581254   -3.4861195    1033.5101  0.076217559  0.076413656            2 
 1131000     1.089123   -3.4516741    1031.9358  0.076034173  0.076400215            4 
 1132000    1.0498965    -3.437964     1030.224  0.075840992  0.076386742            2 
 1133000    1.0890635   -3.4649698    1035.6449  0.076172762  0.076373469            2 
 1134000    1.0439366   -3.4438529    1038.5881  0.076321875  0.076359973            2 
 1135000    1.0720732   -3.4534874    1034.3744   0.07594526  0.076346484            1 
 1136000    1.0684432   -3.4835968    1032.8596  0.075767286  0.076332699            4 
 1137000    1.0528641   -3.4640567    1037.2986   0.07602599  0.076318802            2 
 1138000    1.0879617   -3.4341343    1043.2357  0.076393944  0.076305579            3 
 1139000    1.0573097   -3.4597793    1036.0605   0.07580191  0.076292303            2 
 1140000    1.0560481   -3.4921669    1042.4985  0.076206032  0.076278176            1 
 1141000    1.0835898   -3.4613428    1041.8365  0.076090891  0.076265364            2 
 1142000    1.0998404   -3.4453359     1043.924  0.076176591  0.076252167            2 
 1143000    1.0604837   -3.4558977    1044.3705  0.076142501  0.076238949            3 
 1144000    1.0447327   -3.4770957    1042.0028  0.075903465  0.076225579            2 
 1145000    1.0650222   -3.4343492    1041.4529  0.075797154  0.076211326            4 
 1146000    1.0724397   -3.4385036    1042.8608  0.075833395  0.076197579            2 
 1147000    1.0593142   -3.4579977    1045.1916  0.075936618  0.076183291            2 
 1148000    1.0728951   -3.4847377    1040.4117  0.075523498  0.076168485            1 
 1149000    1.0599286   -3.4414324    1045.0862  0.075796791  0.076154594            2 
 1150000    1.0864984   -3.4422816    1044.6864  0.075701913  0.076139824            2 
 1151000    1.0724509   -3.4701877    1045.3938  0.075687355  0.076124438            2 
 1152000     1.091617   -3.4592318     1043.868  0.075511287  0.076109941            1 
 1153000    1.0595049   -3.4136979    1044.0498  0.075458932  0.076095599            3 
 1154000     1.063175   -3.4429583    1044.8397  0.075450584   0.07608129            2 
 1155000    1.0754245   -3.4693763    1047.2962  0.075562495  0.076066894            4 
 1156000    1.0775406   -3.4680854    1046.8017  0.075461485  0.076051968            2 
 1157000    1.0601619   -3.4818654    1052.2144   0.07578611  0.076037448            3 
 1158000    1.0567282   -3.4676115    1046.5884  0.075315804  0.076023054            1 
 1159000    1.0748868   -3.5016041    1050.9443  0.075564016  0.076008124            3 
 1160000    1.0719476   -3.4729714    1051.2464  0.075520572  0.075992862            3 
 1161000    1.0623719   -3.4817228    1050.4529  0.075398572  0.075978715            3 
 1162000     1.066419   -3.4744434    1050.5062  0.075337508  0.075963446            1 
 1163000    1.0591245   -3.4612029    1055.8748  0.075657412  0.075949051            2 
 1164000      1.06063    -3.466365    1051.0356  0.075245964  0.075934461            2 
 1165000    1.0510452   -3.4910657    1056.7248  0.075588328  0.075919777            1 
 1166000    1.0803424   -3.4282599    1053.1987  0.075271493   0.07590466            2 
 1167000    1.0606952   -3.4566519    1054.2533  0.075282295  0.075890025            4 
 1168000    1.0696718   -3.4502986    1060.6892  0.075677023  0.075875304            2 
 1169000    1.0795912   -3.4749765    1055.6509   0.07525313  0.075860778            2 
 1170000    1.0607528   -3.4599673     1059.321  0.075450214   0.07584695            2 
 1171000    1.0623595   -3.4628451    1062.9085  0.075641083  0.075832561            2 
 1172000    1.0185544   -3.4721306    1061.6477  0.075486895  0.075817426            6 
 1173000     1.051337   -3.4770598    1058.6941  0.075212707  0.075802807            4 
 1174000    1.0777411   -3.4656671    1061.2943  0.075333215  0.075788601            2 
 1175000    1.0931136   -3.4997927    1059.2432  0.075123631  0.075773751            1 
 1176000    1.0654842   -3.4384325    1064.7652  0.075451046  0.075758729            3 
 1177000    1.0867816   -3.4904128    1060.9727  0.075118433  0.075744137            4 
 1178000     1.066018   -3.4247601    1069.9681  0.075691008  0.075729151            4 
 1179000     1.038692   -3.5058533    1060.7481  0.074975128  0.075713428            1 
 1180000    1.0737643   -3.4871735    1060.5296  0.074896155   0.07569753            2 
 1181000    1.0466713   -3.4906352    1064.0221  0.075079179  0.075682036            2 
 1182000    1.0569179   -3.4815849    1064.3476  0.075038605  0.075666076            1 
 1183000    1.0502655    -3.470232    1064.7778  0.075005481  0.075650716            2 
 1184000    1.0747489   -3.4977033    1064.6992  0.074936597  0.075635594            6 
 1185000     1.034626   -3.4676073    1065.6723  0.074941796  0.075620072            2 
 1186000    1.0534658    -3.487014    1065.2972  0.074852251  0.075604582            2 
 1187000    1.0523562   -3.4836608    1063.6479  0.074673399  0.075589198            1 
 1188000    1.0604637   -3.4552801      1065.89  0.074767814  0.075573247            1 
 1189000    1.0613655   -3.4526153    1070.4289  0.075023052  0.075558039            2 
 1190000    1.0644813   -3.4660398    1069.9341  0.074925358  0.075542782            3 
 1191000    1.0564991   -3.4676182    1070.5842  0.074907934  0.075527319            3 
 1192000    1.0743646   -3.4892277    1067.2145  0.074609513  0.075512102            3 
 1193000    1.0549476   -3.4449229    1070.7083  0.074791022  0.075496419            4 
 1194000    1.0495436   -3.4401282    1072.9894  0.074887588  0.075481242            5 
 1195000    1.0599387   -3.4610704    1070.4235  0.074645988  0.075465619            2 
 1196000    1.0813289   -3.4792843    1076.2394  0.074988809  0.075450613            1 
 1197000     1.074262   -3.4839094    1074.1986  0.074784083   0.07543565            1 
 1198000    1.0629452   -3.4578774    1074.1098  0.074715484  0.075420079            3 
 1199000    1.0755474   -3.4749036    1077.6749  0.074900954  0.075404484            4 
 1200000     1.061034   -3.4788682    1074.5664  0.074622664  0.075389419            2 
 1201000    1.0687056   -3.4525036     1081.046  0.075010129  0.075374245            3 
 1202000    1.0458831   -3.4776589    1075.4335   0.07455862  0.075359011            5 
 1203000    1.0378364   -3.4630227    1076.5005  0.074570549  0.075343758            4 
 1204000    1.0534088   -3.4692238    1079.8661   0.07474156  0.075328891            2 
 1205000    1.0498441   -3.4442324    1083.9786  0.074963944   0.07531433            2 
 1206000    1.0755452   -3.4610776    1087.3065  0.075131735  0.075299357            2 
 1207000    1.0524717   -3.4933434    1082.5547  0.074741421  0.075284636            3 
 1208000    1.0536519   -3.4633266    1085.8192  0.074904748  0.075269816            2 
 1209000    1.0397611   -3.4626156    1084.3435  0.074741071  0.075254835            6 
 1210000    1.0692481   -3.4915556    1081.0472  0.074452288  0.075240241            2 
 1211000    1.0302331   -3.4390381    1088.0741  0.074874354   0.07522543            3 
 1212000    1.0395364   -3.4936134    1084.0242  0.074534117  0.075210267            3 
 1213000    1.0801245    -3.476348    1083.0198  0.074403671  0.075194721            3 
 1214000    1.0684704   -3.4721162    1081.8207  0.074260069  0.075178977            3 
 1215000    1.0584604   -3.5001661    1088.2267  0.074638319    0.0751632            2 
 1216000    1.0546169   -3.4722012    1086.0523  0.074427927  0.075147457            3 
 1217000    1.0560531   -3.4818904    1092.6259  0.074816895  0.075131299            4 
 1218000    1.0537488    -3.492004    1087.1851  0.074383217  0.075115992            2 
 1219000    1.0509442   -3.4774237    1093.1408  0.074729339  0.075100563            6 
 1220000    1.0432024   -3.4817704    1091.5995   0.07456281  0.075085018            2 
 1221000    1.0544245   -3.4478665    1097.0276  0.074872211  0.075069661            3 
 1222000    1.0477726   -3.4882438    1092.0775  0.074473371  0.075054545            1 
 1223000    1.0966024   -3.4934291    1095.4357  0.074641296  0.075039645            3 
 1224000    1.0577144   -3.4726316    1095.4349  0.074580263  0.075024176            3 
 1225000    1.0673491   -3.4718503    1093.3685  0.074378808  0.075008841            3 
 1226000    1.0729415   -3.4914376    1092.0844  0.074230858  0.074993187            2 
 1227000    1.0349572   -3.4886809    1097.3584  0.074528555  0.074977216            3 
 1228000     1.035349   -3.4831647     1093.079  0.074177456  0.074961729            7 
 1229000     1.045954   -3.4844493      1093.27  0.074130051  0.074946666            3 
 1230000    1.0645743   -3.4839535    1095.9559  0.074251756  0.074930453            2 
 1231000    1.0486861   -3.4742225    1098.2182  0.074344583  0.074914773            2 
 1232000    1.0553835   -3.4731548     1096.911  0.074195823  0.074899364            3 
 1233000    1.0418084   -3.4813619     1095.951  0.074070766   0.07488369            3 
 1234000    1.0414314   -3.4625162    1102.1935  0.074432299  0.074867932            1 
 1235000     1.059125   -3.4834269     1095.149   0.07389669  0.074852061            2 
 1236000    1.0732942   -3.4576766    1100.3169  0.074185337  0.074836238            2 
 1237000    1.0712819   -3.4709802    1102.7139  0.074286843  0.074820336            2 
 1238000    1.0582743   -3.4807616    1102.3106  0.074199693   0.07480479            3 
 1239000    1.0493672   -3.4632439    1106.1943  0.074401017      0.07479            2 
 1240000    1.0621171   -3.4791937    1101.4436  0.074021745  0.074774392            2 
 1241000    1.0685647   -3.4642019    1103.0541  0.074070249  0.074759249            3 
 1242000    1.0513492   -3.4580267    1104.5641  0.074111926  0.074744338            2 
 1243000    1.0664061    -3.495459     1103.803  0.074001271  0.074729672            1 
 1244000    1.0605464   -3.4720765    1102.6401  0.073863887  0.074714287            2 
 1245000    1.0427907   -3.4298197     1107.798  0.074149799  0.074698742            4 
 1246000    1.0698732   -3.4737257    1106.8722  0.074028371   0.07468327            2 
 1247000     1.057465   -3.4467603    1112.4236  0.074339986  0.074667425            1 
 1248000    1.0303182   -3.4883503    1109.5167  0.074086317  0.074651436            2 
 1249000    1.0809672   -3.4511668    1109.9578  0.074056431  0.074635562            2 
 1250000    1.0728071   -3.4917236    1114.9373  0.074329154  0.074620351            2 
 1251000    1.0487912   -3.4562055     1112.854  0.074130964  0.074605356            1 
 1252000    1.0597704   -3.4781216    1109.3931  0.073841395  0.074589527            3 
 1253000    1.0823484   -3.4659055    1115.7621  0.074206044   0.07457403            2 
 1254000    1.0480494   -3.4804792    1115.1085  0.074103433  0.074559027            3 
 1255000    1.0653048   -3.4940123    1111.8877  0.073830521  0.074543437            2 
 1256000    1.0553302   -3.4814433    1116.9821  0.074109744  0.074528156            2 
 1257000    1.0436945   -3.4856751    1117.3141  0.074072798  0.074512959            2 
 1258000    1.0311951   -3.5200069    1116.5198  0.073961304  0.074497482            5 
 1259000    1.0595369   -3.4964576    1114.4928  0.073768385  0.074482298            4 
 1260000     1.040773   -3.5059955    1115.5407  0.073779144  0.074466963            2 
 1261000    1.0411872   -3.4610186    1122.2497  0.074164003  0.074451557            3 
 1262000     1.061444   -3.4810586    1117.4247  0.073786628  0.074436797            2 
 1263000    1.0353375   -3.4700668    1119.6813  0.073877096  0.074421213            2 
 1264000    1.0483744    -3.479867    1124.4225  0.074131232  0.074405703            2 
 1265000    1.0586217   -3.4798387    1122.6496  0.073955839  0.074390678            1 
 1266000    1.0692408   -3.4678256    1116.1483  0.073469478  0.074374901            2 
 1267000    1.0136564   -3.5028601    1118.0528  0.073536753  0.074359173            9 
 1268000    1.0545318   -3.4901335    1123.2882  0.073822832  0.074343506            4 
 1269000    1.0407649   -3.4915285    1123.9642  0.073809051  0.074327884            2 
 1270000    1.0477636   -3.4680729      1124.94  0.073814959  0.074312529            4 
 1271000    1.0444417   -3.4998336    1125.3338  0.073782705  0.074296987            4 
 1272000    1.0597607    -3.469833    1125.2964  0.073722245  0.074281384            3 
 1273000    1.0619345   -3.4619893    1126.4467  0.073739637   0.07426597            5 
 1274000    1.0423707   -3.4852787     1123.416  0.073483519  0.074250916            3 
 1275000    1.0447598   -3.4913404    1127.0442  0.073663019  0.074235212            5 
 1276000    1.0710086    -3.497909    1127.5708   0.07363968  0.074219455            3 
 1277000    1.0399252   -3.4824478    1127.7098  0.073591088  0.074203587            1 
 1278000    1.0580296   -3.4723016    1128.8731  0.073609355  0.074187957            4 
 1279000    1.0632729   -3.4755271     1127.454  0.073459343   0.07417161            3 
 1280000    1.0398543   -3.5051408    1131.6018  0.073671992  0.074155287            1 
 1281000    1.0267588   -3.5061007    1124.9204  0.073179832  0.074139033            2 
 1282000    1.0310715   -3.4895405    1123.9956  0.073062636  0.074122356            2 
 1283000    1.0106449   -3.4927208    1126.3879  0.073161076  0.074105786            1 
 1284000    1.0465803   -3.5186502    1130.3725  0.073362698  0.074089417            3 
 1285000    1.0550843     -3.50627     1126.137  0.073030931  0.074072322            4 
 1286000    1.0422392   -3.5078401    1127.3604  0.073053419  0.074055426            3 
 1287000    1.0568371   -3.5010995    1132.6552  0.073339501  0.074038254            3 
 1288000    1.0604297   -3.4998195    1131.1311  0.073183945  0.074021832            5 
 1289000    1.0329532    -3.471022    1133.7216   0.07329465  0.074005155            2 
 1290000    1.0410769   -3.5012776    1132.5643  0.073163067  0.073988937            3 
 1291000    1.0359036   -3.4777761    1136.2802  0.073346256  0.073972557            2 
 1292000    1.0293376   -3.5066166    1132.8912  0.073070898    0.0739562            2 
 1293000    1.0764865   -3.4922816    1133.2916  0.073040189  0.073939696            3 
 1294000    1.0526017   -3.5053892    1131.6285   0.07287664  0.073923353            4 
 1295000    1.0544768   -3.5111805    1137.6459  0.073207586  0.073907146            5 
 1296000    1.0393984   -3.5010961    1137.9475  0.073170489  0.073890592            2 
 1297000    1.0649037   -3.4765463    1140.2877  0.073264437  0.073874147            3 
 1298000    1.0378961   -3.5214492    1134.7523  0.072852612  0.073857712            2 
 1299000    1.0535064   -3.5032438    1140.8232  0.073185987  0.073840926            2 
 1300000    1.0247316   -3.4859182    1137.6585  0.072926826  0.073823997            6 
 1301000    1.0423178    -3.508089    1136.9975  0.072828434  0.073807349            4 
 1302000    1.0485067   -3.5041105    1139.5839   0.07293804   0.07379048            4 
 1303000    1.0344329    -3.491398    1137.6881  0.072760814  0.073774009            3 
 1304000    1.0410791   -3.4937605    1141.4134  0.072943083  0.073757675            2 
 1305000    1.0456025   -3.5161632    1141.6126  0.072899908   0.07374112            3 
 1306000    1.0451205   -3.4963469    1141.9973  0.072868639  0.073724368            2 
 1307000     1.040794   -3.5163433    1141.3997  0.072774783  0.073707697            6 
 1308000    1.0244037   -3.4817439    1140.2853  0.072648145   0.07369118            5 
 1309000     1.050385   -3.4907675    1144.9172   0.07288752  0.073674695            3 
 1310000    1.0243636   -3.4967999    1139.3955  0.072480633  0.073657503            3 
 1311000    1.0202122   -3.4662805    1147.3859  0.072933253  0.073640695            1 
 1312000    1.0387187   -3.5029239     1145.018  0.072727263  0.073623796            5 
 1313000    1.0334802   -3.4800986    1150.4339  0.073015606  0.073607264            2 
 1314000    1.0416717    -3.520222     1143.672  0.072531204  0.073590511            4 
 1315000    1.0376588   -3.5219518     1148.647  0.072791315  0.073573705            3 
 1316000    1.0291802   -3.4862384    1156.2631  0.073218279  0.073557404            2 
 1317000    1.0472221   -3.4992763    1147.9175  0.072634616  0.073540854            3 
 1318000    1.0644739    -3.483796    1154.1499  0.072973567  0.073524282            5 
 1319000      1.04292   -3.4973845    1151.0226  0.072720661  0.073508077            3 
 1320000    1.0430275   -3.5064582    1154.2957  0.072872202  0.073491727            2 
 1321000    1.0221535   -3.4957682    1153.2613  0.072751785  0.073475395            2 
 1322000    1.0297335   -3.5262748    1152.1569  0.072627139  0.073458662            2 
 1323000    1.0652698   -3.5072737    1151.4334  0.072526668  0.073442679            3 
 1324000    1.0430744   -3.4789655    1159.3462  0.072969926  0.073426774            3 
 1325000    1.0170691   -3.5197033    1158.5845  0.072866947  0.073411093            3 
 1326000    1.0704208   -3.5401513    1152.0935  0.072404067  0.073394755            7 
 1327000    1.0551263   -3.4845122    1159.0784  0.072788143   0.07337877            2 
 1328000    1.0244452   -3.4865524    1154.1284  0.072422719  0.073362942            2 
 1329000    1.0470184   -3.4925311    1156.5725  0.072521474  0.073346694            4 
 1330000    1.0422544    -3.473236     1160.242  0.072696867  0.073329973            4 
 1331000    1.0643468   -3.4923308    1156.6869  0.072419663  0.073313755            2 
 1332000    1.0185283   -3.5046886    1158.6194  0.072486201  0.073297616            1 
 1333000    1.0500711   -3.5086914    1157.4738  0.072360203  0.073281824            3 
 1334000    1.0338567    -3.495901    1163.6036  0.072688878  0.073265575            3 
 1335000    1.0692351   -3.4817349    1158.8173  0.072335663  0.073249257            1 
 1336000    1.0459585   -3.4914519    1161.3017  0.072436482  0.073233238            3 
 1337000    1.0405562   -3.5008529    1165.5296  0.072645824  0.073216865            1 
 1338000    1.0474683   -3.5320603     1153.661  0.071852329  0.073200261            1 
 1339000    1.0368224   -3.4881548    1169.8396  0.072805554  0.073183774            2 
 1340000    1.0306797   -3.5294508     1167.028  0.072576366  0.073167818            5 
 1341000     1.038679   -3.4789269    1167.3248  0.072540693  0.073151346            3 
 1342000    1.0340642   -3.4902873    1163.6098   0.07225595  0.073135085            2 
 1343000    1.0553495    -3.511095    1165.7484  0.072334847  0.073119033            4 
 1344000    1.0230893   -3.4971112    1170.4687  0.072573706  0.073103124            3 
 1345000    1.0307613   -3.4766845    1172.0774  0.072619416  0.073087185            3 
 1346000    1.0481306    -3.515332    1168.5337  0.072346071  0.073071183            2 
 1347000    1.0296667   -3.5088789    1167.8524  0.072250211   0.07305566            3 
 1348000     1.042429   -3.4937887    1172.3143  0.072472444  0.073039772            7 
 1349000    1.0319474   -3.5111081     1176.279  0.072663639  0.073024111            3 
 1350000     1.043272   -3.4867601     1173.291  0.072425371  0.073008861            2 
 1351000    1.0160374   -3.4985488    1172.7274  0.072336995  0.072993599            4 
 1352000    1.0238832   -3.5076967    1176.4086  0.072510393  0.072977829            4 
 1353000    1.0576259   -3.5204002     1172.442  0.072212489   0.07296256            3 
 1354000    1.0316131   -3.5036451     1173.912   0.07224963  0.072947373            5 
 1355000    1.0657556   -3.4896435    1178.4281  0.072474055  0.072931811            4 
 1356000    1.0558902   -3.4624935    1182.4171  0.072665748  0.072916772            1 
 1357000    1.0208923   -3.5006187    1182.4198  0.072612366  0.072901515            4 
 1358000    1.0379057   -3.4983361    1181.1899  0.072483428  0.072886369            3 
 1359000    1.0179788   -3.5083181    1177.2966  0.072191354  0.072871157            3 
 1360000    1.0133401   -3.4810782    1186.2813  0.072688806  0.072856206            6 
 1361000    1.0292126   -3.5342595    1179.6244  0.072227795  0.072841133            3 
 1362000    1.0099355   -3.4832891    1183.4265  0.072407398  0.072826141            4 
 1363000    1.0469141   -3.5225033    1179.9216  0.072139987  0.072810957            2 
 1364000     1.025147   -3.4706209    1182.9695  0.072273307  0.072795769            3 
 1365000    1.0417874   -3.4779112    1191.5516  0.072744298  0.072781176            3 
 1366000    1.0293883   -3.4990788    1187.5482  0.072446813  0.072766561            2 
 1367000    1.0366794    -3.504028    1189.0652  0.072486293  0.072752152            2 
 1368000    1.0343752   -3.5054783    1193.0167  0.072674017  0.072738211            4 
 1369000    1.0284118   -3.5358656     1190.833  0.072488007  0.072724099            6 
 1370000    1.0237062   -3.5075059     1190.469  0.072412958  0.072710203            1 
 1371000    1.0272851    -3.514768    1191.7739  0.072439455  0.072696072            2 
 1372000    1.0516146   -3.5039571    1198.5016  0.072795289  0.072682218            3 
 1373000    1.0389044   -3.4664872     1198.448  0.072739013  0.072668369            3 
 1374000    1.0393696   -3.5260431    1194.6935  0.072458366    0.0726546            3 
 1375000    1.0043111   -3.4842025    1200.4672  0.072755586  0.072641385            2 
 1376000    1.0279308   -3.5040503    1195.9763  0.072430737  0.072628446            2 
 1377000    1.0295054   -3.4907696    1198.6953  0.072542685  0.072615367            1 
 1378000    1.0216537   -3.4996621    1200.7778  0.072615979  0.072602651            1 
 1379000    1.0245322   -3.5280522    1200.7802  0.072563463  0.072589542            2 
 1380000    1.0219338   -3.5108114    1202.4696  0.072612897  0.072576466            2 
 1381000    1.0345941   -3.4578268    1209.8507  0.073005713  0.072563364            2 
 1382000    1.0145974   -3.5149611    1206.0148  0.072721588  0.072550532            2 
 1383000    1.0224445   -3.5293724    1202.3732  0.072449577  0.072537363            3 
 1384000    1.0383463   -3.5066137    1204.0766  0.072499795  0.072524022            5 
 1385000    1.0227847   -3.5017497    1208.9076  0.072738124  0.072510934            2 
 1386000    1.0403942   -3.5279829    1207.6434  0.072609632  0.072497545            2 
 1387000    1.0133169   -3.4994385    1203.3492   0.07229928  0.072484169            3 
 1388000    1.0449697   -3.5256913    1200.3695  0.072068292  0.072470398            2 
 1389000    1.0536066   -3.4976254    1207.9959  0.072473959  0.072456518            4 
 1390000    1.0346134   -3.5173907    1209.0957   0.07248775  0.072443158            2 
 1391000    1.0609977   -3.5212655     1204.196  0.072142101  0.072429356            2 
 1392000    1.0199266   -3.5118862    1210.8114  0.072486314  0.072415468            4 
 1393000    1.0254565   -3.5080459    1207.3226  0.072225566  0.072401838            3 
 1394000    1.0296672   -3.5120971    1205.9423  0.072091241  0.072388082            2 
 1395000    1.0104583   -3.5396781     1203.485  0.071892772  0.072374233            2 
 1396000    1.0314989    -3.522327    1213.8372  0.072459242  0.072360513            4 
 1397000    1.0117004   -3.5037237    1213.5784  0.072391938   0.07234677            4 
 1398000    1.0052161   -3.5289481    1213.3518  0.072326645  0.072333502            3 
 1399000    1.0432892   -3.5300741    1214.3798  0.072336181  0.072320219            4 
 1400000    1.0238864   -3.5300162    1212.0846  0.072147894  0.072307138            2 
 1401000     1.015218   -3.4893311    1217.3565  0.072409973   0.07229367            2 
 1402000    1.0186079   -3.5366915    1210.8041  0.071968862  0.072280436            4 
 1403000    1.0133196   -3.5029164    1219.5542  0.072437292  0.072267164            3 
 1404000   0.99911766   -3.5000815    1217.8961  0.072287283  0.072253896            4 
 1405000    1.0271762   -3.5477213    1216.7782  0.072169524  0.072240562            5 
 1406000    1.0275954   -3.4996067    1216.4698  0.072099915  0.072227219            3 
 1407000    1.0192404   -3.5375889    1217.8846  0.072132468  0.072213954            4 
 1408000    1.0360193   -3.5094124    1223.0604  0.072387572  0.072200347            4 
 1409000    1.0258003   -3.5011101    1225.7983  0.072498124  0.072187237            2 
 1410000    1.0268142   -3.5114643    1222.8518  0.072272565  0.072174083            2 
 1411000    1.0141848   -3.5228261    1221.2705  0.072127954  0.072160455            4 
 1412000    1.0293981   -3.5141923    1219.4539  0.071969656  0.072146925            4 
 1413000    1.0231302   -3.5036315    1221.4025  0.072033645  0.072133862            8 
 1414000    1.0370206   -3.5413429    1218.4186  0.071806847  0.072120963            2 
 1415000    1.0458312   -3.5158021    1221.6683  0.071947486  0.072107472            3 
 1416000    1.0438202   -3.4995802    1226.2782  0.072167972  0.072094565            1 
 1417000    1.0159494   -3.5260363     1222.253  0.071880323  0.072081729            1 
 1418000    1.0158013    -3.531871     1228.357   0.07218835  0.072068571            3 
 1419000    1.0327077   -3.5039292    1227.1244  0.072065092  0.072055766            2 
 1420000    1.0361744   -3.4820423    1226.4276  0.071973452  0.072042577            1 
 1421000    1.0197563   -3.5327025    1226.3106  0.071915939  0.072029372            4 
 1422000    1.0349629   -3.4856644    1230.6733  0.072121032  0.072016473            2 
 1423000    1.0447513    -3.527304    1228.8262   0.07196218  0.072004144            2 
 1424000    1.0425436   -3.5513688    1231.5551  0.072071344  0.071991209            2 
 1425000    1.0261338   -3.5587395    1236.9982  0.072339074   0.07197849            7 
 1426000    1.0214228   -3.5347761    1230.6909  0.071919759  0.071965699            1 
 1427000    1.0260613   -3.5493059    1231.9702  0.071944069  0.071952781            2 
 1428000    1.0148472   -3.4889586    1241.1225  0.072427782  0.071940406            1 
 1429000     1.024863   -3.5170111    1237.9014  0.072189256  0.071928028            2 
 1430000    1.0163812   -3.5393532    1232.7852   0.07184063  0.071915662            2 
 1431000    1.0307143   -3.5126025    1236.7347  0.072020425  0.071903253            3 
 1432000    1.0448932   -3.5361878    1236.1668  0.071937084  0.071890962            3 
 1433000    1.0219031   -3.5495932    1230.0767  0.071532725  0.071878435            4 
 1434000    1.0214315   -3.5710364    1238.5899  0.071977561  0.071865952            3 
 1435000     1.015447    -3.532311    1238.0559  0.071896394  0.071853592            3 
 1436000    1.0268909   -3.5149381    1243.4192   0.07215757  0.071841301            6 
 1437000    1.0378298   -3.5327752    1241.8165   0.07201441  0.071828961            2 
 1438000    1.0289264   -3.5384654    1241.8639  0.071967077   0.07181655            2 
 1439000    1.0181433   -3.5354455    1243.6119  0.072018296  0.071803731            3 
 1440000     1.012156   -3.5182946    1237.2415  0.071599627  0.071790357            3 
 1441000    1.0150751    -3.504774    1244.2974  0.071957982  0.071777341            3 
 1442000    1.0020643   -3.5507592    1244.0923  0.071896224  0.071764237            3 
 1443000    1.0008216   -3.5187907    1247.6394  0.072051248   0.07175107            3 
 1444000    1.0313596   -3.5312632    1244.4759  0.071818785  0.071737719            2 
 1445000     1.019813   -3.5036026    1242.9377  0.071680374  0.071724387            3 
 1446000    1.0231379    -3.549217    1249.2236   0.07199306  0.071711378            6 
 1447000   0.99914458    -3.506459     1244.694  0.071682448  0.071698474            2 
 1448000    1.0128952   -3.5055356    1249.4285  0.071905418  0.071685616            3 
 1449000    1.0304145   -3.5524793    1245.3087  0.071618857  0.071672937            3 
 1450000    1.0285603   -3.5314803    1246.3549  0.071629594  0.071660279            2 
 1451000    1.0160918   -3.5199304    1249.1942  0.071743291  0.071647159            3 
 1452000    1.0365623   -3.5135131    1245.8051  0.071499372  0.071634399            2 
 1453000    1.0405088   -3.5143733    1250.6423  0.071727591  0.071622013            3 
 1454000   0.98984369   -3.5502375    1251.9976  0.071755938  0.071609323            2 
 1455000    1.0198881   -3.5162402    1251.1477  0.071657942  0.071596465            2 
 1456000    1.0277451   -3.5330401    1249.0013  0.071485882  0.071583762            4 
 1457000    1.0573724   -3.5418032     1254.956  0.071777398  0.071571248            3 
 1458000     1.038883   -3.5632214    1249.9067  0.071439569  0.071558912            2 
 1459000    1.0309873   -3.5264144    1251.1726  0.071462908  0.071545814            4 
 1460000    1.0223165   -3.5579806    1254.9618   0.07163024   0.07153264            4 
 1461000    1.0150495   -3.5331977    1254.7798   0.07157083  0.071519869            2 
 1462000    1.0296482   -3.5154478     1254.109  0.071483641  0.071506821            2 
 1463000    1.0120431   -3.5157727    1258.5813  0.071689526  0.071494005            5 
 1464000      1.02928   -3.5100527    1259.6349  0.071700529  0.071481425            1 
 1465000    1.0179061   -3.5437231    1261.3979  0.071751872  0.071468469            2 
 1466000   0.99359668    -3.508629    1257.0491  0.071455724  0.071455231            4 
 1467000    1.0379024   -3.5193399    1261.7617  0.071674717  0.071442215            3 
 1468000    1.0182859   -3.5277351    1261.8316  0.071629861  0.071429394            3 
 1469000    1.0082728   -3.5247234    1262.9176  0.071642706  0.071416498            1 
 1470000    1.0382668    -3.534286    1262.6852  0.071580795  0.071403426            2 
 1471000    1.0128491   -3.5128041    1262.6583  0.071530609  0.071390645            4 
 1472000    1.0067345   -3.5323491      1264.41  0.071581179   0.07137814            3 
 1473000    1.0369863   -3.5498719     1263.854  0.071501134  0.071365605            2 
 1474000    1.0135013   -3.5348478    1260.6264   0.07127015  0.071353252            7 
 1475000    1.0046904   -3.5253884     1261.362  0.071263389    0.0713407            3 
 1476000   0.99020694   -3.5414515    1265.4138  0.071443869  0.071327951            2 
 1477000    1.0485607   -3.5423345    1265.4991  0.071400312  0.071315337            2 
 1478000    1.0193212   -3.5428565    1270.6924  0.071644812  0.071302913            3 
 1479000    1.0308568   -3.5275952    1271.9932  0.071669662  0.071290413            4 
 1480000    1.0180028    -3.534375    1272.7565  0.071664216  0.071277651            2 
 1481000     0.990416   -3.5615667    1264.5531  0.071154236  0.071265254            3 
 1482000     1.007067   -3.5412098    1272.5803  0.071557598   0.07125313            2 
 1483000    1.0351279   -3.5182799     1275.582  0.071678019  0.071241172            1 
 1484000    1.0087751    -3.535128     1269.642  0.071296157  0.071229247            4 
 1485000    1.0198457   -3.5476383    1274.3077  0.071509974  0.071216734            4 
 1486000    1.0314822   -3.5090344    1278.7945  0.071713465  0.071205171            1 
 1487000    1.0113077   -3.5619912    1274.8707  0.071445344  0.071193382            2 
 1488000    1.0018649   -3.5454739    1272.1957  0.071247521  0.071181227            5 
 1489000   0.99357774   -3.5375501     1277.709  0.071508226  0.071169028            3 
 1490000    1.0243787   -3.5265683    1274.1551  0.071261474  0.071156749            2 
 1491000   0.98882953    -3.541768    1281.2013  0.071607494  0.071144372            4 
 1492000   0.98701308   -3.5249403    1279.2929  0.071452912  0.071131871            2 
 1493000    1.0055674   -3.5377247    1276.3413  0.071240302  0.071119546            4 
 1494000    1.0147788   -3.5543131    1283.0346  0.071565966  0.071107284            3 
 1495000   0.99950542   -3.5451182    1275.8881  0.071119738  0.071095366            3 
 1496000    1.0175694   -3.5539181    1273.5527  0.070942109  0.071083124            4 
 1497000    1.0343016   -3.5568854    1278.3591  0.071162277  0.071070545            1 
 1498000    1.0159054   -3.5641201    1281.0073  0.071262089  0.071058432            2 
 1499000     1.016919   -3.5429404     1280.527   0.07118785    0.0710463            2 
 1500000    1.0229292   -3.5187629    1284.5125  0.071361803  0.071034112            1 
 1501000    1.0044723   -3.5148156    1287.2796  0.071467886   0.07102218            2 
 1502000    1.0377752   -3.5485443    1283.8615  0.071230664  0.071010002            2 
 1503000    1.0105682    -3.531859    1283.2164  0.071147507  0.070997629            4 
 1504000    1.0061674   -3.5218801    1284.4438  0.071168209  0.070985332            2 
 1505000    1.0411128   -3.5536162     1290.504  0.071456479   0.07097339            3 
 1506000    1.0106533   -3.5634685    1284.1452  0.071057172  0.070961059            2 
 1507000   0.98919074    -3.514243    1290.9962  0.071388862  0.070948968            5 
 1508000    1.0146703   -3.5302655    1290.0041  0.071286701  0.070936852            3 
 1509000    1.0161046   -3.5370005    1284.0177  0.070908862  0.070924489            1 
 1510000    1.0060848   -3.5525179    1287.7675  0.071068844  0.070912303            4 
 1511000    1.0095535   -3.5396379     1286.686  0.070962164    0.0708999            3 
 1512000    1.0080324   -3.5460173    1290.5494  0.071128162  0.070887488            1 
 1513000    1.0292948    -3.561163    1291.8739  0.071154102  0.070874902            2 
 1514000    1.0070243   -3.5396041    1290.8362  0.071049989  0.070862722            2 
 1515000   0.99824243   -3.5418023    1292.2171   0.07107905  0.070850478            2 
 1516000    1.0205415   -3.5467171    1292.4176  0.071043183  0.070838385            2 
 1517000    1.0006131   -3.5626356    1292.8735  0.071021396  0.070825958            3 
 1518000    1.0039594   -3.5284921    1291.0783  0.070876059   0.07081388            2 
 1519000   0.99011287   -3.5568225    1295.4401   0.07106869  0.070801315            4 
 1520000    1.0187541   -3.5391693    1293.4218  0.070911283  0.070788812            3 
 1521000    1.0126032   -3.5426437    1293.9641  0.070894374  0.070776575            2 
 1522000    1.0183878   -3.5337161    1300.7617  0.071219979  0.070764422            1 
 1523000   0.99289768   -3.5610396    1297.6336  0.071002059  0.070752351            2 
 1524000   0.99898207   -3.5339339    1303.1932  0.071259469  0.070740004            3 
 1525000    1.0123042    -3.553965    1295.5069  0.070792725  0.070727619            1 
 1526000    1.0263677   -3.5454441    1297.0956  0.070833092  0.070714998            2 
 1527000    0.9943577   -3.5624976    1290.5613  0.070430109  0.070702315            2 
 1528000    1.0116255   -3.5485186    1299.4292   0.07086765  0.070689659            4 
 1529000    1.0339377   -3.5810675    1297.8531  0.070735399  0.070676923            2 
 1530000    1.0083417   -3.5589071    1303.9134  0.071019246  0.070663986            1 
 1531000    1.0139702   -3.5812489    1295.4969  0.070514744  0.070651031            1 
 1532000    1.0037959   -3.5375556    1301.4683  0.070793534   0.07063821            3 
 1533000   0.99457635   -3.5426916    1299.5958  0.070645563  0.070625734            2 
 1534000     1.026989    -3.501601    1305.8892  0.070941398  0.070613562            1 
 1535000   0.99489651   -3.5588694    1301.4113  0.070652079  0.070601043            4 
 1536000    1.0000994   -3.5741143    1299.3599  0.070494786  0.070588415            2 
 1537000    1.0065824   -3.5710956    1299.6246  0.070463272  0.070575881            4 
 1538000    1.0141754   -3.5563849    1307.8198  0.070861499  0.070563098            2 
 1539000    1.0013632   -3.5427258    1303.5884  0.070586333  0.070550226            2 
 1540000    1.0140403   -3.5560553    1303.9794  0.070561654  0.070537367            2 
 1541000    1.0168049   -3.5570542    1304.8844  0.070564808  0.070524311            1 
 1542000    1.0082104   -3.5717667    1303.7883  0.070459808  0.070511113            4 
 1543000   0.99598558   -3.5366332    1307.7185  0.070626404  0.070498302            4 
 1544000    1.0016034   -3.5527852    1306.5558  0.070517906  0.070485187            2 
 1545000   0.99647915   -3.5536753    1309.0682  0.070607775  0.070472077            3 
 1546000    1.0104402   -3.5594077    1309.6291  0.070592338  0.070459483            4 
 1547000    1.0032103   -3.5510173     1316.984    0.0709429  0.070446655            4 
 1548000   0.99692584   -3.5297641    1311.9493   0.07062604  0.070434456            2 
 1549000   0.99286581   -3.5432943    1307.8285  0.070358751   0.07042145            2 
 1550000   0.96844618   -3.5529816    1313.0088  0.070591869  0.070408371            2 
 1551000    1.0014907    -3.550839    1310.1553  0.070393043   0.07039553            1 
 1552000    1.0251264   -3.5420535    1318.2888  0.070784407  0.070382587            1 
 1553000    0.9990092   -3.5390299    1317.3979  0.070691021  0.070369777            5 
 1554000    1.0154357   -3.5412702    1316.7073  0.070608501  0.070357087            8 
 1555000   0.99949868   -3.5355768    1316.6231  0.070558582  0.070344315            1 
 1556000    1.0088872   -3.5650196    1315.4673  0.070451335  0.070331504            5 
 1557000    1.0158922   -3.5543162    1313.5619  0.070304107  0.070318656            3 
 1558000    1.0280152    -3.549363    1317.8046  0.070485914  0.070306011            4 
 1559000    1.0035974    -3.544987    1316.0481   0.07034681  0.070293391            1 
 1560000   0.98413528   -3.5450217    1323.8077  0.070716221  0.070280769            3 
 1561000    1.0436536   -3.5764588    1318.2741  0.070375512  0.070268224            2 
 1562000   0.98892738   -3.5433425    1320.5722  0.070453062  0.070256033            3 
 1563000   0.99087345   -3.5528187    1318.2486  0.070284099  0.070243657            2 
 1564000    1.0346919   -3.5647584    1323.3198  0.070509366  0.070231076            4 
 1565000      1.00192   -3.5633976    1322.3859  0.070414583  0.070219259            2 
 1566000    1.0078548   -3.5492932    1321.5866  0.070327087  0.070206783            5 
 1567000   0.98275005   -3.5642093    1322.4098  0.070325981  0.070194429            2 
 1568000   0.99605398   -3.5704428    1324.9683   0.07041711  0.070181959            3 
 1569000    0.9787754   -3.5284822    1319.4499  0.070079131  0.070169717            4 
 1570000    1.0069806   -3.5533771    1321.1385  0.070124125  0.070157073            2 
 1571000    1.0022697   -3.5580973    1323.1296  0.070185103  0.070144164            2 
 1572000   0.99244546   -3.5527989    1327.3627  0.070364857  0.070131361            3 
 1573000   0.99639991   -3.5824144    1321.6756  0.070018837  0.070118997            4 
 1574000    1.0123109   -3.5576725    1329.1268  0.070368847  0.070105894            3 
 1575000     1.002173   -3.5536229    1325.2828  0.070120783  0.070093337            2 
 1576000   0.99669518   -3.5404883    1324.9219  0.070057205   0.07008074            5 
 1577000    1.0057172   -3.5393392     1329.259  0.070241968  0.070068251            2 
 1578000   0.99835401   -3.5632368    1327.9995  0.070130939  0.070055469            1 
 1579000    1.0131295   -3.5259391    1329.0041  0.070139545  0.070043174            3 
 1580000   0.99052213   -3.5148686    1332.3065  0.070269333   0.07003103            6 
 1581000   0.99096736     -3.57458    1333.8827  0.070307963   0.07001905            4 
 1582000    1.0062999    -3.521675    1334.7616  0.070309819  0.070006833            2 
 1583000   0.98421249   -3.5621049     1333.723  0.070210731  0.069994795            3 
 1584000     1.018293   -3.5583529    1337.3054  0.070354871  0.069982628            1 
 1585000    1.0054307   -3.5397784    1333.4908  0.070109924  0.069970645            2 
 1586000   0.97589069   -3.5677407    1335.7074  0.070182187  0.069959042            6 
 1587000    1.0141462   -3.5504875    1336.7807  0.070194322  0.069946733            6 
 1588000   0.99283571   -3.5450674    1333.3998  0.069972704  0.069934668            2 
 1589000    0.9838874   -3.5628202     1339.881  0.070268565  0.069922947            3 
 1590000    1.0198937   -3.5286104    1342.2658  0.070349361  0.069911095            2 
 1591000   0.98099447   -3.5768654    1336.8598  0.070021986  0.069899136            3 
 1592000    1.0114619   -3.5270144    1343.8284  0.070342776  0.069887226            2 
 1593000     1.004491   -3.5732972    1342.9282  0.070251529  0.069875552            3 
 1594000    1.0003741   -3.5695098    1351.9296  0.070678041  0.069863755            2 
 1595000   0.99408883   -3.5522823    1343.3574  0.070185862  0.069852292            4 
 1596000    1.0007527   -3.5545473    1339.6528  0.069948453  0.069840384            4 
 1597000   0.99357262   -3.5833134    1344.1668  0.070140198  0.069828569            2 
 1598000    1.0017621    -3.577183    1345.7006  0.070176291  0.069816814            3 
 1599000   0.99156506   -3.5642426    1347.8514  0.070244497  0.069805458            3 
 1600000   0.98402461   -3.5353349    1348.8062  0.070250321  0.069793862            2 
 1601000   0.99325741   -3.5641731    1349.9691  0.070266973  0.069782428            4 
 1602000   0.98297705   -3.5491593    1352.7873  0.070369709  0.069771278            2 
 1603000   0.99817861   -3.5546469    1353.7519  0.070375954  0.069760205            4 
 1604000    1.0063217   -3.5615434    1346.4306  0.069951713  0.069748918            2 
 1605000    1.0230614   -3.5477401    1353.6224  0.070281535  0.069737617            1 
 1606000   0.99741576   -3.5737951    1353.4138  0.070226953  0.069726204            4 
 1607000    1.0118374   -3.5435845    1354.7235  0.070251168  0.069714574            2 
 1608000   0.98325918   -3.5676116    1352.3257  0.070083213  0.069703109            3 
 1609000   0.99807013   -3.5530483    1359.7997  0.070426751  0.069691902            3 
 1610000    1.0017866   -3.5599977    1355.7068  0.070171159  0.069680848            6 
 1611000    1.0007094   -3.5720033    1356.2759  0.070157042  0.069669522            2 
 1612000   0.98740396   -3.5381828      1360.18  0.070315344  0.069658015            3 
 1613000     1.009463   -3.5898842    1352.4541  0.069872603   0.06964676            3 
 1614000    1.0252653   -3.5439972    1355.5421  0.069988749  0.069635249            5 
 1615000    1.0047783   -3.5415686    1362.5633  0.070307702  0.069623712            2 
 1616000    1.0018485   -3.5529097    1354.9024  0.069869143  0.069612662            4 
 1617000     1.001205   -3.5744427    1360.2497  0.070101508   0.06960158            2 
 1618000   0.98351998   -3.5527218    1355.0036  0.069787988  0.069590676            3 
 1619000   0.98942356   -3.5644835    1358.9928  0.069950216  0.069579063            3 
 1620000   0.99722209   -3.5742898    1358.9838  0.069906572  0.069567748            2 
 1621000    1.0158277   -3.5554023    1360.5335  0.069943119  0.069556455            2 
 1622000   0.97547823   -3.5556812    1360.8519  0.069916355  0.069544946            2 
 1623000    1.0318778   -3.5645404     1366.992  0.070188538   0.06953364            2 
 1624000    1.0090693   -3.5892419    1356.8169  0.069623201  0.069522186            5 
 1625000   0.99117699   -3.5471831    1364.4198  0.069970245  0.069510501            2 
 1626000    1.0112084   -3.5410777      1366.38  0.070027673  0.069499047            2 
 1627000   0.98791841    -3.544105    1364.1757   0.06987173   0.06948768            4 
 1628000    1.0100342   -3.5619475    1363.9052  0.069814965  0.069476442            6 
 1629000   0.98589428    -3.567037    1368.3889   0.07000148  0.069465089            2 
 1630000     1.005281   -3.5863435     1362.702  0.069667789  0.069453643            2 
 1631000    1.0081924   -3.5741452    1366.0284  0.069795033  0.069442336            2 
 1632000   0.97594131    -3.566014    1365.4425  0.069722348  0.069430815            3 
 1633000    1.0057864    -3.618517    1372.0914   0.07001895  0.069419501            1 
 1634000   0.97833453   -3.5520513    1370.0069  0.069869795  0.069408238            3 
 1635000   0.98920519   -3.5919547    1366.2654  0.069636363   0.06939658            3 
 1636000    1.0011203   -3.5565118    1368.4657  0.069705872     0.069385            3 
 1637000   0.98432273   -3.5717075     1371.754  0.069830686  0.069373648            2 
 1638000   0.99794525   -3.5364799     1376.444  0.070026659  0.069362268            4 
 1639000   0.99402692   -3.5890747     1370.001  0.069656346  0.069351093            3 
 1640000   0.99351166    -3.567397    1373.9164  0.069812824  0.069339418            3 
 1641000   0.98987833   -3.5906502    1374.9396   0.06982224  0.069327766            2 
 1642000    0.9834592   -3.5795628    1370.8056  0.069569917  0.069316198            4 
 1643000   0.99145853   -3.5788922    1370.3396  0.069503938  0.069304536            4 
 1644000    1.0007962   -3.5656886    1375.9091  0.069743974   0.06929263            2 
 1645000   0.97276257   -3.5661065    1375.3211  0.069671786   0.06928077            3 
 1646000   0.99076227   -3.5837901    1372.7561  0.069499601  0.069268951            2 
 1647000    1.0170936   -3.5867518    1376.5291  0.069648306  0.069257216            2 
 1648000   0.99247869    -3.592506    1374.6668  0.069511873  0.069245984            3 
 1649000   0.99031595   -3.5855121    1376.8594  0.069580525  0.069234578            2 
 1650000   0.98603999   -3.5573677    1378.0349  0.069597721  0.069223004            2 
 1651000    1.0104471    -3.583809    1374.1259  0.069358265  0.069211069           10 
 1652000    0.9994279   -3.5921696    1377.5715   0.06949009  0.069199275            2 
 1653000   0.96655838   -3.6115141    1378.4454  0.069492103  0.069187293            2 
 1654000   0.98174733   -3.5738128    1380.2103  0.069539012  0.069175624            4 
 1655000     1.013161   -3.5483207    1381.9738  0.069585793  0.069163861            3 
 1656000   0.98427781   -3.6154678    1378.1962  0.069353674  0.069152237            8 
 1657000   0.99623288   -3.5634775    1385.5867  0.069683498  0.069140708            2 
 1658000    0.9797015   -3.5830485    1377.9053  0.069255393  0.069129082            3 
 1659000    1.0015902   -3.5856722    1383.4242   0.06949087  0.069117598            3 
 1660000   0.98725716   -3.5618634    1385.1325  0.069534766  0.069105962            3 
 1661000   0.95431275   -3.5942533    1382.2708  0.069349327  0.069094345            3 
 1662000   0.98349333   -3.5698455    1384.7492  0.069431871  0.069082678            2 
 1663000    1.0118337   -3.5686523    1382.8187   0.06929338  0.069070905            4 
 1664000    0.9906052   -3.5893634    1384.9627  0.069359112  0.069058993            5 
 1665000   0.97616928   -3.6023199    1385.4688  0.069342785  0.069047187            1 
 1666000    1.0075273   -3.5865302     1386.102  0.069332835  0.069035331            7 
 1667000   0.97752477    -3.580236     1382.794  0.069125874  0.069023661            1 
 1668000    1.0122509   -3.5863699    1387.9917   0.06934411  0.069011795            3 
 1669000   0.95625233   -3.5600025    1388.8844  0.069347133  0.069000063            2 
 1670000   0.98431335    -3.605029    1385.9016  0.069156766  0.068988059            2 
 1671000   0.97477442   -3.5825195     1394.916  0.069564929  0.068976596            3 
 1672000    1.0046841   -3.5746799    1389.0483  0.069230878  0.068964645            3 
 1673000    1.0082624   -3.5721206    1389.8902  0.069231432  0.068952744            2 
 1674000   0.97850465   -3.5840774    1388.7598  0.069133803  0.068941014            3 
 1675000    1.0132092    -3.586196    1389.8313  0.069145838  0.068929365            2 
 1676000    1.0013137   -3.5768528    1387.9436  0.069010722   0.06891724            3 
 1677000   0.96897724   -3.5941951     1391.282  0.069135462   0.06890537            3 
 1678000   0.97777319    -3.591456    1390.2691  0.069043954  0.068893563            3 
 1679000    0.9802895   -3.6057878       1396.2    0.0692972  0.068881399            4 
 1680000   0.96620814   -3.5917697    1394.9003  0.069191484  0.068869189            2 
 1681000   0.97801578    -3.601927    1393.5092   0.06908136  0.068857082            2 
 1682000   0.98114947   -3.5701281    1392.8524  0.069007748  0.068844991            4 
 1683000   0.96623999   -3.5551062     1393.121  0.068980043  0.068832706            2 
 1684000   0.95403568   -3.5968272    1399.8964  0.069274368  0.068820929            5 
 1685000   0.97335168   -3.5811665    1400.3872  0.069257526  0.068809014            2 
 1686000   0.96916853   -3.5528056    1400.5997  0.069226954  0.068797377            2 
 1687000   0.99224227   -3.5743427    1397.3173  0.069023773  0.068785484            2 
 1688000    0.9656627   -3.6068749    1398.2031  0.069026613  0.068773975            3 
 1689000   0.99594526   -3.5835534    1400.9174  0.069119666  0.068762328            3 
 1690000   0.98924228   -3.5654921    1400.4429  0.069055371  0.068750741            2 
 1691000   0.98454711   -3.5765153    1402.1918  0.069100719  0.068739147            3 
 1692000   0.99606217   -3.5440101    1402.9907  0.069099225  0.068727345            3 
 1693000   0.99508594   -3.6057304     1402.068  0.069012996  0.068715564            4 
 1694000   0.96093195   -3.5866835    1403.1656   0.06902625  0.068703863            3 
 1695000    0.9721256   -3.5826995    1403.7159  0.069012581  0.068692139            3 
 1696000   0.99518042   -3.6084023    1404.9467  0.069032367  0.068680403            2 
 1697000   0.98479195   -3.5827233    1401.1578  0.068805626  0.068668762            2 
 1698000   0.98360762   -3.6152317    1401.8099   0.06879711  0.068656732            4 
 1699000   0.98373773   -3.5905961    1409.4087  0.069129327  0.068644782            7 
 1700000   0.98756179    -3.570591    1405.9464  0.068918941  0.068632896            8 
 1701000   0.97129836   -3.6070856    1404.8233  0.068823404  0.068620911            3 
 1702000    1.0001595   -3.5634076    1404.5512  0.068769643  0.068608959            2 
 1703000   0.98570134    -3.579305    1404.0429  0.068704387  0.068596783            2 
 1704000   0.98386458   -3.5900042    1406.0386  0.068761669  0.068584576            5 
 1705000   0.99055516   -3.5948412    1412.5171  0.069037981  0.068572678            2 
 1706000   0.97951499   -3.6072583    1410.1826  0.068883478  0.068560543            3 
 1707000   0.98333052   -3.6133534    1413.7545    0.0690175  0.068548277            2 
 1708000   0.98870536   -3.6075436     1412.988  0.068939694  0.068536258            4 
 1709000   0.98861746   -3.5884114    1410.3911  0.068772729  0.068523974            3 
 1710000   0.98129828   -3.5686711    1408.6352  0.068646941  0.068511946            2 
 1711000   0.95991145   -3.5668366    1410.5466   0.06869991  0.068499922            2 
 1712000   0.98834246   -3.5762998    1412.9428  0.068776422  0.068487556            3 
 1713000   0.97085469   -3.5989127    1405.6587  0.068381919  0.068474952            2 
 1714000   0.99565654   -3.5717735    1409.4689   0.06852727  0.068462408            3 
 1715000   0.95524195   -3.5711903    1412.2826  0.068624031  0.068449772            3 
 1716000   0.97449449   -3.5825806    1411.7097   0.06855622  0.068437397            3 
 1717000   0.98784949   -3.6129354    1414.8995  0.068671105  0.068425022            2 
 1718000   0.99073678   -3.5759334    1413.0431  0.068541088  0.068412576            6 
 1719000   0.96763746   -3.5688563    1414.6921  0.068581157  0.068400295            4 
 1720000   0.97675352   -3.5687735    1415.6537  0.068587875  0.068388003            7 
 1721000   0.98445306   -3.5917231    1412.8793   0.06841368  0.068375415            7 
 1722000   0.96192867   -3.6087915    1412.8862  0.068374282   0.06836309            4 
 1723000   0.98374349   -3.6016018     1412.448  0.068313408  0.068350424            2 
 1724000   0.98321977   -3.6112784    1411.7857  0.068241768  0.068337659            4 
 1725000   0.97828781   -3.6112273    1420.7332  0.068634452  0.068325007            6 
 1726000   0.98204712   -3.5966122    1412.5052  0.068197429  0.068312423            3 
 1727000   0.97371475   -3.6329608    1418.6269  0.068453333  0.068299476            6 
 1728000   0.97489661   -3.5913711    1414.0485  0.068192924  0.068286696            3 
 1729000   0.99904071   -3.5911706    1421.7684  0.068525564  0.068273707            5 
 1730000   0.96966906   -3.5963521    1420.3456  0.068417417  0.068260987            4 
 1731000   0.96699591   -3.5718752    1422.6738  0.068489975  0.068248207           10 
 1732000   0.97981979   -3.5978016    1418.3801  0.068243848  0.068235621            4 
 1733000   0.97829522   -3.5787902     1424.762  0.068511348  0.068223013            6 
 1734000   0.96099041   -3.5923298    1424.4562  0.068457144  0.068210007            4 
 1735000   0.97982013   -3.6145449    1416.6562  0.068043044   0.06819722            3 
 1736000    1.0015424   -3.5966904     1425.964  0.068450652  0.068184694            3 
 1737000   0.95206215   -3.6071529     1426.866  0.068454517  0.068172021            2 
 1738000   0.96797412   -3.5898878    1424.1856  0.068286613  0.068159457            4 
 1739000    0.9955465   -3.5899279     1425.033  0.068287951  0.068146912            1 
 1740000   0.97570657   -3.6057453    1426.9545  0.068340731  0.068134247            2 
 1741000   0.97328987   -3.5793887    1424.2503  0.068172043  0.068121449            3 
 1742000   0.97324718   -3.6185676    1428.5487  0.068338533  0.068108578            3 
 1743000   0.97837619   -3.6145324    1427.2727  0.068238318  0.068096002            4 
 1744000   0.97139483   -3.6110616    1422.3967  0.067966204  0.068083236            4 
 1745000   0.97813942   -3.5878502    1430.7539  0.068326355  0.068070462            3 
 1746000   0.96955634   -3.5866249    1430.5073  0.068275452  0.068057941            2 
 1747000   0.98576906   -3.5983756    1437.0359  0.068547791  0.068045655            2 
 1748000   0.98996417    -3.587724    1433.8903  0.068358614  0.068033384            4 
 1749000   0.95295977    -3.623127    1428.7783  0.068075961  0.068021074            2 
 1750000   0.98789524   -3.6139158    1429.8915  0.068090072  0.068008799            4 
 1751000   0.98166803   -3.6347464    1427.4163  0.067933386   0.06799648            3 
 1752000   0.96849434    -3.587336    1432.5541  0.068138989  0.067984196            5 
 1753000    0.9653355   -3.6064449    1427.2093  0.067846042  0.067972092            3 
 1754000   0.97718605   -3.5962686    1428.9633  0.067890694  0.067959604            4 
 1755000   0.95882271   -3.5820373    1435.3921   0.06815727  0.067946796            3 
 1756000   0.97990137   -3.6161245    1433.9728  0.068051102  0.067934386            7 
 1757000   0.97644498   -3.5846338    1435.1533   0.06806836  0.067922388            2 
 1758000   0.99291076   -3.6197166    1438.4609  0.068186429  0.067909592            4 
 1759000   0.97101609   -3.5966887    1437.8408  0.068118286   0.06789707            2 
 1760000   0.97365213   -3.6035987    1438.0982  0.068091769  0.067884434            2 
 1761000   0.97705918    -3.590307    1441.4906  0.068213636  0.067871805            2 
 1762000   0.97259166   -3.5911933    1444.1553  0.068300951  0.067859557            3 
 1763000   0.96984949   -3.6015087    1439.1975  0.068027864  0.067847227            4 
 1764000   0.99231647    -3.597274    1441.3716  0.068092006  0.067834932            3 
 1765000   0.98792829   -3.6023364    1439.9278  0.067985262   0.06782265            6 
 1766000    0.9636937   -3.5846714    1444.7823  0.068175834  0.067810569            3 
 1767000   0.94838543   -3.5930088    1439.9857  0.067911038  0.067798523            3 
 1768000   0.95946822   -3.6173199    1439.2685  0.067838822  0.067786203            4 
 1769000   0.96422383   -3.6233309    1441.4333  0.067902455  0.067773908            3 
 1770000   0.95681758   -3.5967236    1440.7051  0.067829807  0.067761708            1 
 1771000    0.9675673   -3.6413551    1447.0577  0.068090425   0.06774959            1 
 1772000   0.95324965   -3.5755327    1445.2306  0.067966074  0.067737715            3 
 1773000    0.9651809   -3.5675776    1449.6611  0.068135981  0.067725895            4 
 1774000    0.9723727   -3.6150398    1449.9052   0.06810904  0.067714113            3 
 1775000   0.97892989   -3.6223433    1450.6299  0.068104689  0.067702483            3 
 1776000   0.98545985   -3.5748745    1455.3466  0.068287657  0.067690804            4 
 1777000      0.96617    -3.626358    1449.8566  0.067991776  0.067678986            3 
 1778000   0.96732686    -3.617718    1447.5155  0.067843807  0.067667016            7 
 1779000   0.96723454   -3.5969168    1451.2927  0.067982606  0.067655065            2 
 1780000   0.97593168   -3.5973365    1452.1994  0.067986862  0.067643187            1 
 1781000   0.95626914    -3.588298    1454.3213  0.068047973  0.067630926            2 
 1782000   0.95583085   -3.6293005    1455.2269  0.068052138  0.067618729            2 
 1783000   0.97165919   -3.5661819    1461.9985  0.068330459  0.067607133            4 
 1784000   0.94646819   -3.5893949    1452.4269  0.067845055  0.067595476            4 
 1785000   0.97309064   -3.6157239    1450.3249  0.067708913   0.06758339            4 
 1786000   0.96992201   -3.6164997     1454.221  0.067852791   0.06757141            3 
 1787000   0.97396673   -3.6323682    1455.0707  0.067854445  0.067559617            3 
 1788000   0.98834564   -3.6273463     1452.612    0.0677019  0.067547668            3 
 1789000   0.95850747   -3.6049317    1450.3077   0.06755672  0.067535529            4 
 1790000   0.95760505   -3.5938794     1461.958  0.068061357  0.067523486            2 
 1791000   0.97971434   -3.6516449    1455.6819  0.067731338   0.06751162            3 
 1792000   0.97328377   -3.6031801    1462.7235  0.068020995  0.067499616            5 
 1793000   0.96278648    -3.605577    1463.1211  0.068001539  0.067487565            2 
 1794000   0.95283614   -3.5769656    1461.0231   0.06786618  0.067475639            9 
 1795000     0.959646   -3.5794638    1458.2251  0.067698473  0.067463755            4 
 1796000   0.97701431   -3.6059006    1464.5783  0.067955562  0.067451657            2 
 1797000   0.94730508   -3.6375058    1460.0335  0.067706987  0.067439931            2 
 1798000   0.95453607   -3.5939464    1462.0428  0.067762458  0.067427884            3 
 1799000     0.967104   -3.6239286    1467.9889  0.068000226  0.067415914            2 
 1800000   0.95880594   -3.5917172    1467.3266  0.067931786  0.067404163            3 
 1801000   0.96656364   -3.6223417    1469.6824  0.068003071  0.067392141            2 
 1802000      0.97634   -3.6100123    1465.8211   0.06778677  0.067380316            3 
 1803000   0.96940281   -3.6072658    1461.0352  0.067527973  0.067368519            1 
 1804000   0.95331536   -3.6365335    1466.1625  0.067727387  0.067356407            7 
 1805000   0.97618941   -3.6216158    1462.6574  0.067528043  0.067344175            3 
 1806000   0.97059767   -3.6071411    1462.8757  0.067500723  0.067331841            1 
 1807000    0.9633986    -3.592562    1467.8102  0.067690934  0.067319724            3 
 1808000   0.97267521   -3.6076976    1469.3494  0.067724439  0.067307765            3 
 1809000   0.96719121   -3.5913747     1467.129  0.067584714  0.067295804            4 
 1810000   0.96811016   -3.5802003    1471.3736  0.067742801  0.067284255            3 
 1811000   0.97628753   -3.6145712    1464.3238  0.067380994  0.067272442            5 
 1812000   0.98393685   -3.6095319    1473.6029  0.067770551  0.067260821            4 
 1813000   0.94850065    -3.587122    1472.8367  0.067697955  0.067248848            4 
 1814000   0.95879279   -3.5996974    1476.6061  0.067833796  0.067237368            2 
 1815000   0.95468097   -3.6108891    1470.0256  0.067494291  0.067225441            2 
 1816000   0.95782061   -3.5914065    1472.4071  0.067566404  0.067213367            5 
 1817000   0.94521413   -3.6061627    1473.7939  0.067592821  0.067201543            3 
 1818000   0.97154172   -3.6161048    1474.0058  0.067565358  0.067189837            7 
 1819000   0.95167275   -3.6143416    1473.7725  0.067517523  0.067177931            3 
 1820000   0.95476021   -3.6154686    1476.0021  0.067582515  0.067166461            6 
 1821000   0.95453953   -3.6433352    1475.5942  0.067526737  0.067154802            2 
 1822000   0.97258862   -3.6257934    1476.1297  0.067514163  0.067142905            4 
 1823000   0.94913339   -3.6180818    1474.1071  0.067384672  0.067131196            3 
 1824000   0.96497044   -3.6105922    1473.2845  0.067310146  0.067119391            3 
 1825000   0.95442473   -3.6251357    1475.6981  0.067383476  0.067107834            3 
 1826000   0.95857433   -3.5948826      1477.04  0.067407814   0.06709617            3 
 1827000    0.9789006   -3.6196399     1481.969  0.067595741  0.067084482            2 
 1828000   0.96105707   -3.6075337    1475.6928  0.067272646  0.067072566            3 
 1829000    0.9490983   -3.6015502    1486.5764  0.067731748  0.067060641            3 
 1830000   0.94263958   -3.6043189    1480.0826  0.067399027  0.067049186            2 
 1831000    0.9430878   -3.6037315    1487.8319  0.067714906  0.067037397            3 
 1832000   0.95966676   -3.6284268    1485.2902  0.067562327  0.067025768            2 
 1833000   0.94121695   -3.6201405    1485.7493  0.067546342  0.067014191            8 
 1834000    0.9617899   -3.6074552    1477.8183  0.067149141   0.06700274            2 
 1835000   0.95366264   -3.6002574    1482.1063   0.06730728  0.066991294            3 
 1836000    0.9531915   -3.5935532    1484.4324  0.067376199  0.066979827            2 
 1837000   0.96212559   -3.6294781    1485.1894  0.067373862  0.066968305            3 
 1838000   0.94861736   -3.6296895    1481.8061  0.067183811  0.066956599            2 
 1839000   0.96400098   -3.6173531    1484.7671  0.067281454  0.066944676            4 
 1840000   0.95988202    -3.587673    1488.2713  0.067403591   0.06693292            5 
 1841000   0.94953331   -3.6384465    1481.2019  0.067046981  0.066921359            4 
 1842000   0.97109172   -3.6162695    1483.6384  0.067120809  0.066909666            4 
 1843000   0.94408595   -3.5945472    1489.8475  0.067365143  0.066898004            4 
 1844000   0.95768397   -3.6111664    1484.3689  0.067081026  0.066886075            4 
 1845000   0.95393795   -3.6240467    1487.4886  0.067185572  0.066874254            1 
 1846000   0.93944542   -3.6272071    1486.5792  0.067108124  0.066862212            3 
 1847000   0.95120442   -3.6228898    1484.8471  0.066993643  0.066850191            4 
 1848000    0.9430479   -3.6479101    1484.8313  0.066956678  0.066838101            3 
 1849000   0.95747106   -3.6244669    1488.0916  0.067067406  0.066825902            3 
 1850000   0.94866459   -3.6070954    1492.7738  0.067242064   0.06681407            2 
 1851000    0.9874511   -3.6202532    1490.9058  0.067121635  0.066802127            4 
 1852000    0.9542711   -3.5890936    1491.8663  0.067128612  0.066790252            3 
 1853000    0.9394648   -3.6407404    1488.1832  0.066926751  0.066777952            2 
 1854000   0.94576133   -3.6106378    1488.9506  0.066925143  0.066765919            3 
 1855000   0.94141823   -3.6292645     1490.209    0.0669456  0.066753624            4 
 1856000     0.951966   -3.5635188    1491.4575  0.066965586   0.06674123            3 
 1857000   0.98640274   -3.6253654    1498.3882  0.067240542  0.066729086            2 
 1858000   0.94753518    -3.634354    1494.0139  0.067008158  0.066716737            1 
 1859000   0.94417024    -3.627008    1490.8184  0.066828868   0.06670446            3 
 1860000    0.9666897   -3.6337206    1489.4138   0.06673001  0.066692362            3 
 1861000   0.96960969   -3.6158045    1493.6917   0.06688571  0.066680063            4 
 1862000   0.96446137   -3.6237887    1491.8771  0.066768578  0.066667901            2 
 1863000   0.95342077   -3.6334754    1491.1152  0.066698658  0.066655647            4 
 1864000   0.95960341    -3.632151    1494.8267  0.066828805  0.066643353            5 
 1865000   0.96166318   -3.6411813    1498.0491  0.066936958  0.066630847            2 
 1866000   0.96963941   -3.6410749    1499.0286  0.066944828  0.066618717            2 
 1867000   0.95172679   -3.6411779    1498.6022  0.066889937   0.06660641            4 
 1868000    0.9325201   -3.6310217    1496.5353  0.066761925  0.066593919            3 
 1869000   0.96403603   -3.6351809     1497.823   0.06678362  0.066581889            2 
 1870000   0.93083447   -3.6435458     1494.411  0.066595858  0.066569648            3 
 1871000   0.95179281   -3.6031199    1506.4192  0.067095102  0.066557214            3 
 1872000   0.95313335   -3.6079005    1505.3716  0.067012624  0.066545123            3 
 1873000   0.94224682   -3.6224115     1499.249   0.06670444  0.066533109            2 
 1874000   0.94790459   -3.6536735    1501.9256  0.066787869  0.066521264            3 
 1875000   0.92463569   -3.6329236    1501.6999  0.066742218  0.066509179            4 
 1876000   0.93376641   -3.5990511    1505.9785    0.0668967  0.066497233            3 
 1877000   0.95687403   -3.6062359    1507.8713  0.066945094  0.066485371            2 
 1878000   0.95291146   -3.6116465    1502.6585  0.066678138  0.066473076            1 
 1879000     0.949079   -3.6172299     1500.521  0.066547854  0.066461016            4 
 1880000   0.97598516    -3.630066    1501.7543  0.066567121  0.066448743            6 
 1881000   0.96025509   -3.6546663    1506.0491  0.066722004  0.066436615            3 
 1882000   0.93708231   -3.6127913    1509.6179  0.066844577  0.066424445            7 
 1883000   0.94708605   -3.6187552    1506.3992  0.066666633  0.066412307            3 
 1884000      0.94358   -3.6112154    1509.2618  0.066757863  0.066400254            4 
 1885000   0.94810506   -3.6629102    1505.2537  0.066545257  0.066388169            1 
 1886000   0.96134337   -3.6328465    1503.5364  0.066434094  0.066375961            3 
 1887000    0.9575703   -3.6148289    1516.6624  0.066978554  0.066364134            3 
 1888000   0.95858812   -3.6183633    1508.6595  0.066589844  0.066352098            3 
 1889000   0.95520063   -3.6321518    1508.1245  0.066530991  0.066340192            3 
 1890000    0.9361457   -3.6366395    1508.2723  0.066502305  0.066327959            3 
 1891000   0.93602007   -3.6411814    1512.7493  0.066664435  0.066315658            4 
 1892000   0.96838976   -3.6491879      1510.21  0.066517353  0.066303305            6 
 1893000   0.94826958   -3.6081711    1512.1221  0.066566391  0.066290982            3 
 1894000   0.96772244   -3.6353035     1511.657  0.066510779   0.06627883            4 
 1895000   0.93664028   -3.6499891    1506.5781  0.066252334  0.066266502            3 
 1896000   0.95526907   -3.6450241    1507.8466  0.066273146  0.066254052            1 
 1897000   0.94723606   -3.6391953    1507.9112  0.066241048  0.066241928            3 
 1898000    0.9525779   -3.6444732    1512.7016  0.066416475  0.066229851            2 
 1899000   0.93373436   -3.6245335    1512.8059  0.066386075   0.06621742            6 
 1900000   0.95019082   -3.6300328    1514.7321  0.066435619  0.066205389            6 
 1901000   0.94378802   -3.6439072     1512.456  0.066300896  0.066193267            4 
 1902000   0.94694312   -3.6356703    1512.0518  0.066248327  0.066181133            5 
 1903000   0.96985662   -3.6483283    1510.1772  0.066131424  0.066168946            3 
 1904000   0.95770791   -3.6217842    1521.7923  0.066605056  0.066156915           10 
 1905000   0.97162227   -3.6185642    1519.2488   0.06645883  0.066144849            4 
 1906000    0.9448046   -3.6631044    1515.4868  0.066259478  0.066132767            2 
 1907000   0.97005149   -3.6334472    1517.5976  0.066316972  0.066120633            6 
 1908000   0.94567021   -3.6159898    1524.1387  0.066567902  0.066108545            5 
 1909000   0.94689763      -3.6476    1520.7721  0.066386069  0.066096674            2 
 1910000   0.91959162   -3.6522119    1520.3049  0.066330931  0.066084443            2 
 1911000   0.94046044   -3.6650206    1517.8636  0.066189761  0.066072232            4 
 1912000   0.96351546   -3.6286684    1522.3656  0.066351359  0.066060074            4 
 1913000   0.95959625   -3.6367809    1524.4699  0.066408341  0.066047807            4 
 1914000   0.95696054   -3.6180219    1524.9629  0.066395111  0.066035413            6 
 1915000   0.95622398   -3.6350825    1520.3553  0.066159934  0.066023513            4 
 1916000   0.92975892   -3.6440427    1522.7332  0.066228826  0.066011153            2 
 1917000   0.95193309   -3.6612833    1518.7114  0.066019448  0.065998899            2 
 1918000   0.95590949   -3.6382651    1522.7916  0.066162305  0.065986817            3 
 1919000   0.96169835   -3.6607266    1522.9017  0.066132607  0.065974823            2 
 1920000    0.9607626   -3.6351553     1530.577  0.066431293  0.065962557            4 
 1921000    0.9459226   -3.6608207    1518.1311  0.065856806  0.065950241            3 
 1922000   0.93817845    -3.622897    1525.0365  0.066121943  0.065937854            3 
 1923000   0.94714897   -3.6168174    1527.0222  0.066173609  0.065925668            4 
 1924000   0.95044738   -3.6442597    1528.0532  0.066183871  0.065913517            3 
 1925000    0.9285377   -3.6216477     1526.014  0.066061211  0.065901371            4 
 1926000   0.92305204   -3.6270737    1528.3654  0.066128653  0.065889132            9 
 1927000   0.94176196   -3.6366109    1524.8584  0.065942676  0.065876707            3 
 1928000   0.93767861   -3.6594499    1528.2192  0.066053735   0.06586444            2 
 1929000    0.9363789    -3.656286    1532.7956  0.066217195  0.065852401            1 
 1930000   0.93663884   -3.6509837    1530.2872  0.066074577  0.065840636            4 
 1931000   0.94805335   -3.6402766    1531.1917  0.066079391   0.06582891            2 
 1932000   0.94388928   -3.6200456    1534.2875  0.066178724  0.065817084            2 
 1933000   0.94518041   -3.6521099      1533.85  0.066125626  0.065805254            3 
 1934000   0.93029263   -3.6451796    1531.5128  0.065990729   0.06579327            3 
 1935000   0.93782866   -3.6517711    1531.7862  0.065968397  0.065781166            1 
 1936000    0.9465018   -3.6686658    1529.2379  0.065824632  0.065768869            6 
 1937000   0.94186017   -3.6409243    1533.1651  0.065959608  0.065756724            2 
 1938000   0.93829213    -3.657414    1538.3348  0.066147868   0.06574481            2 
 1939000   0.93708494   -3.6405694    1532.6654  0.065870095  0.065732681            4 
 1940000   0.95390833   -3.6757914    1535.0283  0.065937642  0.065720718            2 
 1941000   0.95726921   -3.6240752    1543.6528  0.066273947  0.065708872            3 
 1942000   0.93864527   -3.6297447    1545.4377  0.066316415  0.065697128            7 
 1943000   0.95087267   -3.6349534    1544.4581   0.06624027  0.065685285            3 
 1944000   0.92311931    -3.632912    1537.6298  0.065913488  0.065673416            5 
 1945000   0.95111274   -3.6296485    1541.3617  0.066039489  0.065661476            3 
 1946000   0.95757874   -3.6489171    1539.7293  0.065935651  0.065649477            3 
 1947000   0.93503427   -3.6229782     1539.835  0.065906308  0.065637441            5 
 1948000   0.92392339   -3.6581946    1541.3078  0.065935481  0.065625535            8 
 1949000   0.94418374   -3.6660444    1535.4778  0.065652377  0.065613536            3 
 1950000   0.92827954   -3.6451551    1545.2209   0.06603508  0.065601416            2 
 1951000   0.91812659   -3.6318914    1537.2125  0.065659169  0.065589144            2 
 1952000     0.933213   -3.6636188    1537.5369  0.065639381  0.065576995            6 
 1953000   0.95500704   -3.6361631    1540.5829  0.065735744  0.065564747            3 
 1954000   0.92791564   -3.6533843     1538.919  0.065631142  0.065552811            5 
 1955000    0.9616184   -3.6449142    1546.1954  0.065907732  0.065540915            2 
 1956000   0.92370494   -3.6750705    1543.5647  0.065761961  0.065528874            2 
 1957000   0.92212107   -3.6781187     1543.078  0.065707629  0.065516743            2 
 1958000   0.96804266   -3.6560574     1545.914  0.065794775  0.065504358            1 
 1959000   0.94299233    -3.650352    1550.9171  0.065974014   0.06549229            6 
 1960000   0.93850446   -3.6242529    1549.3445  0.065873492  0.065480412            3 
 1961000   0.92732343   -3.6710427    1546.2289    0.0657075  0.065468347            4 
 1962000   0.95010842   -3.6222162    1552.5312  0.065941693  0.065456217            4 
 1963000    0.9429742   -3.6401734    1546.5893  0.065655856   0.06544418            3 
 1964000   0.94278355   -3.6342245    1548.1672  0.065689376  0.065432126            3 
 1965000   0.92664694   -3.6500436    1545.5313   0.06554416  0.065420146            3 
 1966000    0.9488221   -3.6487702    1548.6482  0.065642939  0.065408032            3 
 1967000   0.93075178   -3.6495097    1548.2688  0.065593493  0.065396015            3 
 1968000    0.9361151   -3.6461734    1550.8003  0.065667359   0.06538392            6 
 1969000    0.9631223   -3.6529767    1543.5838  0.065328585  0.065371746            2 
 1970000   0.93282242   -3.6411267    1547.3186  0.065453409   0.06535974            3 
 1971000   0.92308556   -3.6483111     1551.356  0.065590901  0.065347666            3 
 1972000    0.9437842   -3.6490969    1555.0224  0.065712578  0.065335647            3 
 1973000   0.93170069   -3.6770303    1551.2188  0.065518616  0.065323455            3 
 1974000   0.93869684   -3.6680192    1552.7672  0.065550793  0.065311124            3 
 1975000   0.94955099   -3.6506454    1552.6928  0.065514465  0.065298895            6 
 1976000   0.94899148   -3.6401939    1553.2142  0.065503297  0.065286915            5 
 1977000   0.94901134   -3.6474756    1554.7722  0.065535837  0.065274754            2 
 1978000   0.94075062   -3.6323693    1555.0767  0.065515533  0.065262644            2 
 1979000   0.92105075   -3.6529972    1556.4659  0.065540926  0.065250417            5 
 1980000   0.95079816    -3.641653    1556.9754  0.065529267  0.065238445            5 
 1981000   0.92806374   -3.6655223    1555.3451  0.065427609  0.065226262            1 
 1982000   0.94186771   -3.6214436    1562.4805  0.065694607  0.065213976            1 
 1983000   0.93560402   -3.6489002    1554.1906  0.065313102  0.065201771            5 
 1984000   0.94167683   -3.6536856    1556.1468   0.06536235  0.065189534            2 
 1985000   0.93095907   -3.6632974    1557.0263  0.065366343  0.065177428            2 
 1986000   0.92989929   -3.6586455    1558.0439  0.065376127   0.06516525            3 
 1987000   0.93465477   -3.6673868    1560.3227  0.065438797  0.065152933            7 
 1988000   0.93703794   -3.6661655    1558.0033  0.065308657  0.065140798            6 
 1989000   0.91831139   -3.6469753    1561.7274  0.065431849  0.065128782            2 
 1990000   0.94296037   -3.6348512    1564.8922  0.065531498  0.065116619            3 
 1991000   0.94198419    -3.659014    1559.2729  0.065263388  0.065104625            6 
 1992000   0.95017027   -3.6459908    1559.4927  0.065239823  0.065092764            2 
 1993000   0.94752189   -3.6629191     1560.575  0.065252342  0.065080834            2 
 1994000   0.93456917   -3.6639398    1563.9775  0.065361815  0.065068829            8 
 1995000   0.94675378   -3.6587314    1564.7701  0.065362158  0.065056882            5 
 1996000    0.9365514   -3.6671075    1565.2148   0.06534798  0.065044852            3 
 1997000    0.9501275   -3.6457471    1571.4725  0.065576384   0.06503287            3 
 1998000   0.93610138    -3.652945    1566.6624  0.065342944  0.065021219            4 
 1999000   0.93169782   -3.6705544    1563.2946  0.065169862  0.065009116            2 
 2000000   0.91899988   -3.6673129    1568.9855  0.065374397  0.064997033            4 
 2001000   0.92563962    -3.658852    1566.8948  0.065254658  0.064984955            4 
 2002000   0.94581918   -3.6473422    1572.2079  0.065443221  0.064973023            2 
 2003000   0.92235713   -3.7013544     1565.093  0.065114535  0.064960812            3 
 2004000   0.95081637   -3.6671736    1568.7933  0.065235916  0.064948689            3 
 2005000   0.92957322   -3.6349293    1569.1864  0.065219717  0.064936651            4 
 2006000    0.9412777   -3.6532305    1573.5449  0.065368267   0.06492482            2 
 2007000   0.90813036   -3.6619283    1560.6872  0.064801826  0.064912556            2 
 2008000      0.90596   -3.6432377    1572.8466  0.065274179   0.06490067            3 
 2009000   0.93620368   -3.6612443    1570.1602  0.065130256   0.06488881            2 
 2010000   0.92810857   -3.6748172    1566.9884  0.064966352  0.064876728            5 
 2011000   0.93417064   -3.6606027     1571.499   0.06512096  0.064864958            2 
 2012000   0.90773324   -3.6684507    1573.8994  0.065188012   0.06485307            2 
 2013000   0.92665503   -3.6419102    1576.0137  0.065243157  0.064841161            2 
 2014000   0.92091917   -3.6378199    1580.1612  0.065382374  0.064829426            3 
 2015000    0.9261701   -3.6761597    1571.1975  0.064979217  0.064817502            2 
 2016000   0.92676791   -3.6787129    1569.4161  0.064873349   0.06480535            3 
 2017000   0.92432107   -3.6831051    1576.4213  0.065130612  0.064793381            3 
 2018000   0.94130545   -3.6941146    1572.4435  0.064934072  0.064781364            3 
 2019000    0.9334881   -3.6698302    1575.9463  0.065046486  0.064769295            2 
 2020000   0.94127472    -3.667766    1578.4044  0.065115694  0.064757019            6 
 2021000   0.90848493   -3.6662197    1578.7282  0.065096826  0.064744876            3 
 2022000   0.93977477   -3.6615587    1576.0826  0.064955598  0.064732839            3 
 2023000   0.93580487   -3.6506159    1574.7698   0.06486941  0.064720703            6 
 2024000   0.92712075   -3.6568161    1580.2608  0.065063437  0.064708775            4 
 2025000   0.90857815   -3.6639055    1580.3225   0.06503385  0.064696806            4 
 2026000   0.92784861   -3.6758543     1570.608  0.064602172  0.064684739            3 
 2027000   0.93919307   -3.6576646      1574.51   0.06473072  0.064672635            3 
 2028000   0.92904755   -3.6833447    1577.6822   0.06482915  0.064660337            5 
 2029000   0.94198886   -3.6775091    1577.7964   0.06480189  0.064648189            3 
 2030000   0.93223802   -3.6587782    1581.1121  0.064906079  0.064636411            4 
 2031000   0.93478189   -3.6750698     1582.982  0.064950847  0.064624254            5 
 2032000    0.9304323    -3.649998    1584.2439  0.064970631  0.064612013            2 
 2033000   0.93771554   -3.6752365    1586.2516  0.065020972  0.064599943            2 
 2034000   0.91856174   -3.6766405    1586.6155  0.065003913   0.06458794            4 
 2035000   0.90406354   -3.6684117    1585.4212  0.064923065  0.064576055            4 
 2036000   0.93101529   -3.6655754    1585.0085  0.064874282  0.064564299            4 
 2037000     0.916579   -3.6819268    1584.9708  0.064840895  0.064552551            4 
 2038000   0.92081516   -3.6585079    1586.0075  0.064851466  0.064540746            2 
 2039000   0.93688172    -3.666501    1585.9776  0.064818441  0.064529118            4 
 2040000   0.92755412   -3.6512795    1589.4859   0.06492998    0.0645174            6 
 2041000    0.9051209   -3.6681193    1589.5793  0.064901979   0.06450569            6 
 2042000   0.90213309   -3.6811967    1592.8745  0.065004674  0.064494048            3 
 2043000   0.93696314   -3.6781454    1592.6205  0.064962494  0.064482268            3 
 2044000   0.92509675    -3.680141    1583.1583  0.064544942  0.064470354            1 
 2045000    0.9182784   -3.6716634    1589.8701  0.064786884   0.06445845            4 
 2046000   0.94834256   -3.6810627    1589.0085  0.064720125  0.064446589            2 
 2047000   0.92538962   -3.6576096    1592.7576  0.064841134  0.064434558            4 
 2048000   0.94606123   -3.6497328     1598.839  0.065056925  0.064422746            2 
 2049000   0.90811217   -3.6885384    1596.2569  0.064920161  0.064410765            6 
 2050000   0.93489346   -3.6571143    1592.2462  0.064725457  0.064398843            5 
 2051000   0.93297475   -3.6668431    1592.9481  0.064722414  0.064387075            4 
 2052000   0.93760195   -3.6696111    1594.1365  0.064739135  0.064374991            3 
 2053000   0.92763695   -3.6636489    1589.6464  0.064525345   0.06436317            2 
 2054000   0.95231449   -3.6670109    1591.5746   0.06457216  0.064351055            4 
 2055000   0.91728494   -3.7129866    1590.6863  0.064504715  0.064338888            3 
 2056000   0.90108056   -3.6812762    1591.7399  0.064516045  0.064326849            2 
 2057000   0.92739007   -3.6738163    1593.9316  0.064573472  0.064314867            1 
 2058000   0.91733976    -3.657939    1590.4314  0.064400363   0.06430302            4 
 2059000   0.92624507   -3.6727551    1596.5221  0.064615592  0.064290661            3 
 2060000   0.92105364   -3.6682968    1597.6448  0.064629644  0.064278552            3 
 2061000   0.90545661   -3.6355515    1597.3931  0.064588107  0.064266881            3 
 2062000   0.95619192   -3.6800017    1595.8428  0.064494132  0.064255131            4 
 2063000    0.9297478   -3.6684148    1599.4428   0.06460829  0.064243157            3 
 2064000   0.91624793   -3.6563224    1598.0123  0.064519231   0.06423132            4 
 2065000   0.92627648   -3.6806863    1594.2916  0.064337836  0.064219349            4 
 2066000   0.92096892    -3.684138    1597.0227  0.064416858  0.064207269            8 
 2067000   0.90472208   -3.6848044    1601.0866  0.064549532  0.064195175            5 
 2068000   0.92303073   -3.6837011    1598.6399  0.064419727   0.06418306            2 
 2069000   0.91773514   -3.6673845    1598.8142  0.064395609  0.064170845            3 
 2070000   0.92911901   -3.6761823    1599.6761  0.064399201  0.064158835            2 
 2071000   0.93016138   -3.6636059    1600.6246  0.064406269  0.064147014            5 
 2072000    0.9251046   -3.6872056     1597.339  0.064243042  0.064135057            4 
 2073000   0.89361473   -3.6702663    1602.2788   0.06441063  0.064122961            6 
 2074000   0.91955542   -3.6475694    1605.5183  0.064509736  0.064111043            2 
 2075000   0.92371486   -3.6789417    1601.0516  0.064299261   0.06409909            4 
 2076000   0.92811235   -3.6917865    1598.1875  0.064153321  0.064087208            3 
 2077000    0.9179197   -3.7084969    1597.3219  0.064087704  0.064075147            5 
 2078000   0.91287962   -3.6746978    1604.9339  0.064362124  0.064063062            4 
 2079000   0.93819623   -3.6874517    1601.8323   0.06420684  0.064050975            3 
 2080000   0.93054068   -3.6610681    1603.3614  0.064237235  0.064038702            3 
 2081000   0.91126027   -3.6709586    1605.2753  0.064283008  0.064026707            2 
 2082000   0.92544062   -3.6585773    1604.3748  0.064216091   0.06401456            3 
 2083000   0.91665002   -3.6923267     1603.404  0.064146425  0.064002543            3 
 2084000     0.913658   -3.6664991    1609.6852  0.064366811  0.063990392            4 
 2085000   0.91477682   -3.6786874    1598.0016  0.063868968  0.063978481            4 
 2086000   0.90784211   -3.6922486    1608.5262  0.064258795  0.063966289            3 
 2087000   0.89835897    -3.680296    1606.6474  0.064152985  0.063954462            4 
 2088000   0.91002415   -3.6978315    1605.3204  0.064069301  0.063942808            3 
 2089000   0.93746423   -3.6862966    1612.3221  0.064317941   0.06393116            4 
 2090000   0.93140493    -3.672201    1616.0729  0.064436719   0.06391969            4 
 2091000   0.91955943   -3.6768911    1614.6708  0.064350024  0.063908363            5 
 2092000   0.89336074   -3.6778306    1616.1653  0.064378795  0.063896995            3 
 2093000   0.89954167    -3.695833     1612.616   0.06420672  0.063885439            4 
 2094000   0.90540355   -3.7085905    1611.1459  0.064117553  0.063873976            3 
 2095000   0.91307531   -3.6815401    1622.6619  0.064545024  0.063862559            3 
 2096000   0.90971583    -3.694952    1615.0556  0.064211817  0.063851153            2 
 2097000   0.90608054   -3.6752281    1616.0949  0.064222497  0.063839829            3 
 2098000   0.90223646   -3.6766003     1612.354  0.064043296   0.06382832            7 
 2099000   0.90674229   -3.6852258    1612.1319  0.064003966  0.063816705            5 
 2100000    0.8988687   -3.6898949    1615.5027  0.064107249  0.063805093            4 
 2101000   0.93159043   -3.6680224    1621.4823  0.064313911  0.063793508            2 
 2102000   0.92594428   -3.6828257    1619.0671  0.064187562  0.063781978            4 
 2103000   0.90835024   -3.6997151     1614.931  0.063993146  0.063770312            4 
 2104000   0.89552953   -3.6884668    1616.8397  0.064038327  0.063758658            3 
 2105000   0.92103368   -3.6894087    1617.9832  0.064053175  0.063746675            6 
 2106000   0.91854257   -3.7060259    1614.7922  0.063896493   0.06373481           12 
 2107000   0.90690484   -3.6562686    1622.3478  0.064164998  0.063722892            3 
 2108000    0.9342649    -3.678492     1622.506  0.064140814  0.063711035            9 
 2109000   0.89898339   -3.6356157    1622.4349   0.06410759  0.063698883            4 
 2110000   0.91821488   -3.6697865    1620.7999  0.064012635  0.063687155            3 
 2111000   0.91448976   -3.6909572    1619.7881  0.063942369   0.06367523            4 
 2112000   0.91446665    -3.656628    1619.0265  0.063882043  0.063663425            3 
 2113000   0.90488465   -3.6735052    1621.2484  0.063939437  0.063651453            4 
 2114000   0.91671457   -3.6804198    1616.2523  0.063712248  0.063639607            6 
 2115000   0.94700119   -3.6864784    1621.1728  0.063875995  0.063627761            3 
 2116000   0.91308451   -3.6908274    1624.4875   0.06397635  0.063615793            4 
 2117000   0.91118528   -3.6938184     1625.062  0.063968745  0.063603853            4 
 2118000   0.93584713   -3.6846587    1622.8861  0.063852932  0.063592056            3 
 2119000   0.91470802   -3.6580865    1624.4736  0.063885229  0.063580105            3 
 2120000   0.89553738   -3.6964765    1625.9348  0.063912531   0.06356817            4 
 2121000   0.92222395   -3.6758442    1626.3671  0.063899384  0.063556012            3 
 2122000   0.91790404   -3.7023798    1624.4736  0.063794911   0.06354387            4 
 2123000   0.92046729   -3.6695241    1625.0413  0.063787145   0.06353172            8 
 2124000   0.90854417   -3.6730371    1628.5321  0.063894071  0.063519742            4 
 2125000   0.90854977   -3.6826571    1632.0295  0.064001158  0.063507797            3 
 2126000   0.89885087   -3.6898091    1627.9047   0.06380937   0.06349594            2 
 2127000   0.91902232   -3.7151998    1622.3062   0.06356003  0.063484046            2 
 2128000   0.90543465   -3.6667685    1632.2228  0.063918499  0.063472154            3 
 2129000    0.9180522   -3.6827888    1628.7793  0.063753691   0.06346029            1 
 2130000   0.93429743    -3.688612    1627.5819  0.063676914   0.06344831            3 
 2131000   0.91816337   -3.7013233    1630.7928  0.063772594  0.063436125            4 
 2132000    0.9109897    -3.680061    1631.6042  0.063774398  0.063424133            4 
 2133000   0.91280157   -3.6995507    1626.5531  0.063547161  0.063412232            3 
 2134000   0.91145751   -3.6809009    1631.0314  0.063692259  0.063400156            3 
 2135000   0.90494003   -3.6838233    1635.4604    0.0638353  0.063388117            1 
 2136000   0.90519948   -3.6908764    1622.3647  0.063294504  0.063375991            3 
 2137000   0.90143113   -3.7040292    1629.5064  0.063543377  0.063363804            5 
 2138000   0.90588445   -3.6832233    1636.1898  0.063774158  0.063351675            2 
 2139000   0.91383712   -3.7028306    1627.6267  0.063410733  0.063339273            4 
 2140000   0.91001147   -3.7164092    1628.9804  0.063433818  0.063326819            2 
 2141000   0.91636296   -3.6792666      1633.96  0.063598006  0.063314308            7 
 2142000   0.92248852    -3.703064    1633.9863   0.06356934   0.06330206            5 
 2143000   0.91268834   -3.6724746    1629.3504  0.063359402   0.06328976            3 
 2144000   0.91828867   -3.6867202    1630.1885  0.063362427  0.063277622            2 
 2145000   0.91140275   -3.6689302    1632.8415  0.063435955  0.063265432            3 
 2146000   0.88657252   -3.6951846    1635.9691  0.063527845  0.063253456            3 
 2147000   0.89533042   -3.6691017    1628.8196  0.063220759  0.063241275            3 
 2148000   0.90185431   -3.7012063    1632.4304  0.063331407  0.063229001            3 
 2149000   0.91261141   -3.7150853    1638.2403  0.063527234  0.063216577            3 
 2150000   0.91223763   -3.7090848     1637.778  0.063479767  0.063204134            5 
 2151000   0.89769274   -3.7089968    1637.6405  0.063444929  0.063191587            2 
 2152000   0.92416537   -3.6899201    1640.1869  0.063514052  0.063179047            3 
 2153000   0.91219385   -3.6995389    1638.4936  0.063419013  0.063166723            3 
 2154000   0.90403615   -3.6864429    1638.2947  0.063381873   0.06315445            2 
 2155000   0.89101354   -3.6930328    1634.7559   0.06321562  0.063141849            3 
 2156000   0.89856432   -3.7033738    1632.7874  0.063110211  0.063129316            3 
 2157000    0.9254483   -3.7056162    1643.1293    0.0634805  0.063117191            4 
 2158000   0.91416896   -3.7020067     1637.095  0.063218064  0.063105012            3 
 2159000    0.9031413   -3.6914379    1641.8658  0.063372928  0.063092791            5 
 2160000   0.93035056   -3.7107248    1638.4244  0.063210818  0.063080512            5 
 2161000   0.89417924   -3.7348654     1639.038  0.063205229  0.063068213            2 
 2162000   0.91628382   -3.7239792     1635.429  0.063036887  0.063055498            5 
 2163000   0.91363643   -3.6933556    1640.9068  0.063218787  0.063043123            7 
 2164000   0.89844857   -3.6734076    1641.9966  0.063231537  0.063030711            3 
 2165000   0.92450723   -3.6943553    1640.3731  0.063139842  0.063018231            2 
 2166000   0.88740749   -3.7059772     1641.352  0.063148351  0.063005581            6 
 2167000    0.9059741   -3.6994692    1637.8948  0.062986264  0.062992941            2 
 2168000   0.90724022   -3.7331975    1637.7182  0.062950422  0.062980494            3 
 2169000   0.91020908   -3.6836964    1642.3729  0.063100234  0.062967891            6 
 2170000   0.89230148   -3.7205951    1646.4822  0.063228963  0.062955342            3 
 2171000   0.90458821   -3.7016398    1644.3319  0.063117301  0.062942775            4 
 2172000    0.9233893   -3.6811024    1641.9857  0.062998222  0.062930423            2 
 2173000   0.88243957   -3.6879129    1641.5248  0.062951557  0.062918185            3 
 2174000   0.90094313   -3.6866064    1646.0794  0.063097188  0.062905918            4 
 2175000   0.89978922   -3.6992099    1645.3729  0.063041107  0.062893507            6 
 2176000   0.88127538   -3.7004602    1644.9513  0.062995989   0.06288115            2 
 2177000   0.89270598   -3.7254942    1643.0855  0.062895632  0.062868736            2 
 2178000   0.90320905   -3.6839588    1647.3481  0.063029849  0.062856269            2 
 2179000   0.88188462   -3.6949555     1647.716  0.063014993  0.062843966            4 
 2180000   0.90730741   -3.7122885    1647.6281  0.062982726   0.06283152            3 
 2181000   0.87661515   -3.6848134    1642.1042  0.062742785  0.062819048            3 
 2182000   0.89886328   -3.7053751    1646.9584  0.062899421  0.062806233            3 
 2183000   0.91659225   -3.6788342    1650.5332   0.06300707   0.06279358            4 
 2184000   0.91448254    -3.735922    1646.1826  0.062812216  0.062780763            4 
 2185000   0.90297602    -3.697264    1639.0282  0.062510609  0.062768198            3 
 2186000   0.90719689   -3.7055271    1647.5165  0.062805598  0.062755649            5 
 2187000   0.90442947    -3.722192    1648.3363  0.062808119  0.062743018            4 
 2188000   0.90264342   -3.7017614    1654.1528  0.063000943  0.062730376            3 
 2189000   0.90109009   -3.7110831    1647.7131  0.062727009  0.062717643            4 
 2190000   0.90069143   -3.6726483    1651.1347  0.062828564  0.062705089            4 
 2191000   0.89292057   -3.7257068    1649.7083  0.062745638  0.062692545            4 
 2192000   0.89573189   -3.7151386    1652.2741  0.062814556  0.062679743            3 
 2193000   0.89031377   -3.7180463    1652.6086  0.062798625  0.062667376            2 
 2194000    0.8925966   -3.7086267    1655.2274   0.06286947  0.062654694            4 
 2195000   0.89535554   -3.7224729    1652.2079  0.062726191  0.062642224            4 
 2196000   0.88993212   -3.7136371    1655.0716    0.0628063  0.062629702            3 
 2197000    0.8852751   -3.7133421    1659.7924  0.062956776  0.062617185            3 
 2198000   0.88912621   -3.7333811    1652.0623  0.062635059    0.0626047            2 
 2199000    0.8928838   -3.7081306    1647.1205  0.062419299  0.062592104            3 
 2200000   0.88679572   -3.7454341    1652.5013  0.062594745  0.062579546            3 
 2201000   0.90784883   -3.7062584    1657.5333  0.062756826  0.062567207            3 
 2202000   0.90474348   -3.7146273    1651.9786  0.062518113  0.062555029            2 
 2203000   0.90087009   -3.7300613    1659.1016  0.062759178  0.062542679            3 
 2204000   0.89059744    -3.705402    1661.9351  0.062837836  0.062530286            4 
 2205000   0.89524644   -3.7343838    1654.5783  0.062531304   0.06251803            4 
 2206000    0.9038173   -3.7076443    1665.9855  0.062933873  0.062505686            4 
 2207000   0.89448937    -3.715446    1658.7113  0.062630694  0.062493341            2 
 2208000   0.90815384    -3.726054    1659.4849  0.062631526  0.062480855            3 
 2209000   0.90835896   -3.6853527    1667.0377  0.062888099  0.062468583            4 
 2210000   0.89910563   -3.7083364    1664.0629   0.06274747  0.062456411            6 
 2211000   0.90550668   -3.7032635    1666.0208  0.062792885  0.062444276            3 
 2212000   0.88886387   -3.7123695    1663.0029  0.062650804  0.062432192            2 
 2213000   0.90009908   -3.7050879    1662.6201  0.062608079  0.062420051            4 
 2214000   0.88116832   -3.7128266    1663.0975  0.062597767  0.062408072            3 
 2215000   0.91626723   -3.7372616    1659.1549  0.062421176  0.062395961            2 
 2216000   0.88496595   -3.6877946    1670.1422  0.062806191  0.062383885            3 
 2217000   0.89006363   -3.7208672    1663.5236  0.062529077  0.062371761            3 
 2218000   0.87319024   -3.7056018    1663.0931  0.062484711  0.062359615            4 
 2219000   0.90211422   -3.7133827    1663.5987  0.062475542  0.062347725            4 
 2220000   0.90556543   -3.7082352    1671.3789  0.062739448  0.062335625            3 
 2221000    0.8723398   -3.7111857    1668.4942  0.062602966  0.062323693            2 
 2222000   0.91270383    -3.701164    1667.5206  0.062538277  0.062311669            2 
 2223000   0.90436281   -3.6907901    1673.2898  0.062726413  0.062299772            4 
 2224000   0.89200178   -3.7215341    1667.3975  0.062477424  0.062287908            2 
 2225000   0.90839868   -3.7150662     1668.804  0.062502022  0.062275843            2 
 2226000   0.88953244   -3.7183786    1670.7854   0.06254812  0.062263749            3 
 2227000   0.89251508   -3.7018289    1678.0239  0.062790896  0.062251751            5 
 2228000   0.90282895   -3.7068463    1674.0527  0.062614179  0.062239791            1 
 2229000   0.89249648   -3.7284703    1667.0288  0.062323492   0.06222777            3 
 2230000   0.89842673   -3.6999174    1670.9217   0.06244102  0.062215759            3 
 2231000    0.8757209   -3.7127475    1673.5234  0.062510213  0.062203971            3 
 2232000    0.8888615   -3.7101906    1671.8587  0.062420054  0.062192117            3 
 2233000   0.89282576   -3.6929324    1679.4324  0.062674741  0.062180159            2 
 2234000   0.90523944   -3.7096418     1670.347   0.06230778  0.062168203            6 
 2235000   0.87979083   -3.7257988    1670.9845  0.062303672  0.062156085            2 
 2236000   0.89012654   -3.7065277    1675.9411  0.062460535  0.062144284            3 
 2237000   0.90225499    -3.727682    1672.4046  0.062300873  0.062132374            5 
 2238000   0.88143104    -3.702687    1677.8041  0.062474086  0.062120611            6 
 2239000   0.89635095   -3.7163589    1671.3853  0.062207285  0.062108531            2 
 2240000   0.88717033   -3.7228673    1669.9194  0.062124977  0.062096549            3 
 2241000   0.90917684   -3.6979832    1673.2405  0.062220755  0.062084561            3 
 2242000   0.90348118   -3.6834822    1678.1361  0.062374966  0.062072551            2 
 2243000     0.892047   -3.7429303     1680.959  0.062452035  0.062060458            3 
 2244000   0.91662053   -3.7258065    1670.7386  0.062044658  0.062048659            3 
 2245000   0.88624129   -3.7106801    1681.9508  0.062433213  0.062036879            2 
 2246000   0.89070568   -3.7400326    1678.9293  0.062293311  0.062025003            9 
 2247000    0.9060572   -3.7146132    1679.3245  0.062280243  0.062013205            3 
 2248000   0.89252374    -3.723137    1683.3979   0.06240354  0.062001357            4 
 2249000   0.87806973   -3.7287732    1681.8648  0.062318985  0.061989381            6 
 2250000    0.8850989   -3.7136879    1679.8922  0.062218229  0.061977294            2 
 2251000   0.89650992   -3.7145919    1677.0438   0.06208514  0.061965139            5 
 2252000   0.87308317   -3.7319155    1680.1733  0.062173376  0.061953063            3 
 2253000   0.89750266   -3.7362258    1679.3803   0.06211645  0.061940887            5 
 2254000   0.88440752   -3.7236476    1686.9515  0.062368807  0.061928929            6 
 2255000   0.89667884   -3.7217743    1684.5998  0.062254242  0.061916924            4 
 2256000   0.87477123   -3.7298209    1687.9847  0.062351683  0.061904952            2 
 2257000   0.92316808    -3.704242    1688.1693  0.062330869  0.061893116            4 
 2258000   0.90761477   -3.7340661     1686.631  0.062246492  0.061881136            5 
 2259000   0.89176259   -3.7102107    1683.4823  0.062102784  0.061869252            4 
 2260000   0.87760612   -3.7367291     1680.503   0.06196545  0.061857165            1 
 2261000   0.89838425   -3.7451659    1684.0333  0.062068159  0.061845053            2 
 2262000   0.89980195   -3.7347555    1687.5777  0.062171297  0.061833009            3 
 2263000   0.89950197   -3.7353412    1681.8317  0.061932231  0.061820854            4 
 2264000   0.87581346   -3.7215282    1683.4579  0.061964736  0.061808943            2 
 2265000   0.88850208   -3.7439516    1682.5726  0.061904806  0.061796859            2 
 2266000    0.8833395   -3.7222584     1687.426  0.062055973  0.061784991            3 
 2267000   0.90101757   -3.7337858    1689.0612  0.062088708  0.061773178            2 
 2268000   0.89927298   -3.7202751    1688.4505  0.062038894  0.061761379            2 
 2269000   0.87380107   -3.7505628     1686.269  0.061931432  0.061749394            4 
 2270000   0.88980972    -3.738035    1690.1142  0.062045308  0.061737357            4 
 2271000   0.86904499   -3.7350277    1690.9829  0.062049864  0.061725342            5 
 2272000   0.87112333   -3.7164577    1691.5973   0.06204509   0.06171355            2 
 2273000   0.90190806   -3.7435643    1688.8298  0.061916329  0.061701627            6 
 2274000   0.88548004    -3.735435    1693.7118  0.062068009  0.061689788            3 
 2275000   0.87559584   -3.7394752    1694.0028  0.062051386  0.061678201            4 
 2276000   0.87712111   -3.6964434    1701.1939  0.062287415  0.061666661            5 
 2277000   0.88337597    -3.743848    1695.9603  0.062068521  0.061655147            5 
 2278000    0.8721474   -3.7242783    1700.7545  0.062216655  0.061643552            4 
 2279000   0.87886804   -3.7168964     1696.963  0.062050718  0.061632076            3 
 2280000   0.89070936   -3.7327671    1695.0293  0.061952824  0.061620522            3 
 2281000   0.88995939   -3.7514327    1693.6223  0.061874263   0.06160895            3 
 2282000   0.89361796   -3.7183646    1701.6499  0.062140296  0.061597354            4 
 2283000   0.88692844   -3.7418962     1693.442  0.061813477  0.061585625            5 
 2284000   0.88266423   -3.7306314    1694.1554  0.061812443  0.061573884            4 
 2285000   0.89383769    -3.728417    1702.3015  0.062082476  0.061562081            6 
 2286000   0.86065652   -3.7392885    1695.1528  0.061794723  0.061550392            6 
 2287000   0.87188785   -3.7395123    1699.8832  0.061940067  0.061538591            2 
 2288000   0.87291804   -3.7267893    1699.9964  0.061917119  0.061526865            5 
 2289000   0.87290585   -3.7272891    1702.8444  0.061993754  0.061515246            4 
 2290000   0.88525686   -3.7111256    1703.0882  0.061975553  0.061503621            3 
 2291000   0.87579605   -3.7386187    1702.4427  0.061925022  0.061492031            2 
 2292000   0.89768546   -3.7369583    1699.3273  0.061784731  0.061480443            2 
 2293000   0.89189771   -3.7332804    1697.6364  0.061696337    0.0614688            5 
 2294000   0.88602305   -3.7327331    1703.7864   0.06189285  0.061457055            2 
 2295000   0.88871617   -3.7210048    1702.4038   0.06181568  0.061445447            2 
 2296000     0.899335   -3.7279975     1705.992   0.06191899  0.061434144            9 
 2297000   0.90834578   -3.7241846      1702.95  0.061781673  0.061422594            4 
 2298000   0.87181645   -3.7288027    1705.2787  0.061839233  0.061410994            3 
 2299000    0.8946697   -3.7481054    1711.8325  0.062049895  0.061399688            2 
 2300000   0.89322617    -3.718694    1719.2047  0.062290026  0.061388498            6 
 2301000   0.88641658   -3.7227907     1708.125  0.061861689  0.061377494            3 
 2302000   0.87312602   -3.7393275    1714.4205  0.062062719  0.061366123            3 
 2303000   0.87710631   -3.7329727    1700.1233  0.061518428  0.061354523            8 
 2304000   0.87664308   -3.7174084    1711.6782  0.061909657    0.0613431            5 
 2305000   0.86654932   -3.7407194    1706.5235   0.06169644  0.061331679            4 
 2306000   0.87384001    -3.761033     1707.665  0.061710935  0.061320204            2 
 2307000   0.87896676   -3.7453902    1713.5436  0.061896532  0.061308634            2 
 2308000   0.88386614   -3.7387954    1705.8566  0.061592165  0.061297189            3 
 2309000   0.88187579   -3.7064418    1712.0021  0.061787287  0.061285772            2 
 2310000   0.88660857   -3.7323413    1707.6782  0.061604553   0.06127445            5 
 2311000   0.87701325   -3.7213702    1705.4563  0.061497775  0.061263014            3 
 2312000   0.90486852   -3.7332327    1713.9294  0.061776579    0.0612515            4 
 2313000    0.8675043   -3.7549874    1705.2243  0.061436239  0.061239997            5 
 2314000   0.88166867   -3.7485931    1707.6744  0.061497924  0.061228444            4 
 2315000   0.86102411   -3.7357314    1712.0529  0.061628974  0.061216735            4 
 2316000   0.87865454   -3.7169538    1711.5185  0.061583135  0.061205309            3 
 2317000   0.87238625   -3.7333149    1711.0083  0.061538207  0.061193845            5 
 2318000   0.88529376   -3.7373736    1712.9063  0.061579894  0.061182372            5 
 2319000   0.88532636   -3.7020525    1716.1385  0.061669487  0.061170945            4 
 2320000   0.87992004   -3.7520816    1715.6492   0.06162533  0.061159601            5 
 2321000   0.88794618   -3.7425682    1718.4193  0.061698239  0.061148164            2 
 2322000    0.8777603   -3.7386677    1720.2363  0.061736874  0.061136855            3 
 2323000   0.88225123   -3.7300917    1714.8031  0.061515393  0.061125355            3 
 2324000   0.87137128   -3.7486843    1719.5628  0.061659594  0.061113899            3 
 2325000   0.87538811   -3.7500576    1722.0642  0.061722732   0.06110241            3 
 2326000   0.88975823   -3.7230225     1719.271  0.061596123  0.061091022            6 
 2327000   0.88176784   -3.7570169    1720.7588  0.061622933  0.061079444            2 
 2328000    0.8692857   -3.7386047    1717.7716  0.061489534  0.061068043            4 
 2329000   0.86722847   -3.7449762     1721.179  0.061585052  0.061056586            3 
 2330000   0.88781133   -3.7269394    1719.2561  0.061489848  0.061045304            3 
 2331000   0.86911678    -3.743975    1725.9249  0.061701878  0.061033976            7 
 2332000    0.8881913   -3.7477317    1721.7225  0.061525246  0.061022649            5 
 2333000   0.88073013   -3.7452806    1723.9041  0.061576801  0.061011377            3 
 2334000   0.89787212   -3.7298582    1725.2624  0.061598913  0.061000032            5 
 2335000   0.87400803   -3.7543827    1720.8228  0.061414089  0.060988711            5 
 2336000   0.88918794   -3.7684323    1722.8157  0.061458894   0.06097745            4 
 2337000   0.87471706   -3.7634469    1726.2212  0.061554029  0.060966139            4 
 2338000   0.88495294   -3.7502809    1728.9794  0.061626014  0.060954792            3 
 2339000   0.86464569    -3.745987    1725.7145  0.061483344  0.060943683            9 
 2340000   0.86533132   -3.7355727    1735.2286  0.061795889  0.060932478            3 
 2341000   0.86369449   -3.7104909    1729.5978  0.061569053  0.060921222            3 
 2342000   0.87157833   -3.7530085     1723.754  0.061334829  0.060909957            6 
 2343000    0.8640985    -3.737696    1732.8633   0.06163264   0.06089893            2 
 2344000   0.89173219   -3.7529702    1726.1176  0.061366523  0.060887674            3 
 2345000   0.87131603   -3.7536715    1727.6078  0.061393311  0.060876615            4 
 2346000   0.86999522   -3.7636616    1729.0166  0.061417185  0.060865513            4 
 2347000   0.88027149   -3.7360131    1735.1624  0.061609233  0.060854138            5 
 2348000   0.86047574   -3.7421857    1728.2411  0.061337348  0.060842967            4 
 2349000   0.90703337   -3.7423703    1731.2365    0.0614175   0.06083188            4 
 2350000    0.8760656   -3.7506664    1726.9088  0.061237899  0.060820914            2 
 2351000   0.88312658    -3.727618    1735.5868  0.061519453   0.06080958            2 
 2352000   0.87457886   -3.7412182    1733.7397  0.061427854  0.060798214            3 
 2353000   0.87772767   -3.7482118     1735.688  0.061470745  0.060786998            4 
 2354000   0.88789468   -3.7280949    1733.5257  0.061368086   0.06077571            4 
 2355000   0.87934361   -3.7397682    1730.6308   0.06123959  0.060764316            3 
 2356000   0.87576888   -3.7421268    1731.9701  0.061260967  0.060753073            3 
 2357000   0.87016776   -3.7234711    1730.2637  0.061174647  0.060741768            2 
 2358000    0.8723695   -3.7596406    1732.2964   0.06122054  0.060730462            4 
 2359000   0.88348796    -3.742162    1736.5905  0.061346281  0.060719218            3 
 2360000   0.87595109   -3.7206246    1739.0296  0.061406414  0.060707945            2 
 2361000    0.8771442   -3.7521581    1736.3175  0.061284676  0.060696686            3 
 2362000   0.87559262   -3.7410033    1738.0474  0.061319765  0.060685269            2 
 2363000   0.89775761   -3.7553318    1732.9485  0.061113998  0.060673963            3 
 2364000   0.86050156   -3.7433286    1733.5905  0.061110775  0.060662638            2 
 2365000   0.87620967   -3.7345104    1735.6598   0.06115785  0.060651462            3 
 2366000   0.86518157   -3.7409042    1736.6598  0.061167223  0.060640144            2 
 2367000   0.86882952   -3.7897985    1732.6652  0.061000747  0.060628815            2 
 2368000   0.88847814   -3.7488502    1739.6666  0.061221374  0.060617425            4 
 2369000   0.84549613   -3.7399306    1742.6755  0.061301375  0.060606295            3 
 2370000   0.87037778   -3.7719568    1737.2536  0.061084866  0.060595055            4 
 2371000   0.87329704   -3.7753463    1736.8353  0.061044402  0.060583816            3 
 2372000   0.86312952   -3.7320293    1734.6804   0.06094296  0.060572534            3 
 2373000    0.8554906    -3.740777    1740.0089  0.061104399  0.060561313            2 
 2374000   0.87297847   -3.7581896    1739.6523  0.061066144  0.060549953            4 
 2375000   0.86714878   -3.7721885    1739.3541  0.061029968  0.060538628            3 
 2376000   0.87937931   -3.7351876    1744.2007  0.061174266  0.060527467            5 
 2377000   0.86887135   -3.7729995    1738.2446  0.060939721  0.060516176            8 
 2378000   0.86404502   -3.7238458    1738.2065  0.060912761  0.060504781            3 
 2379000   0.87834114   -3.7809845    1739.7837  0.060942401  0.060493262            8 
 2380000   0.85893089   -3.7521464    1743.4136  0.061043894  0.060481711            3 
 2381000   0.88480014   -3.7434519      1739.82  0.060892484  0.060470527            6 
 2382000   0.88436572    -3.730004    1748.2982  0.061163526  0.060459185            5 
 2383000   0.87563194   -3.7516836    1745.6975  0.061046914  0.060447853            1 
 2384000   0.86088502   -3.7492175    1740.9295  0.060854638  0.060436383            5 
 2385000    0.8633496   -3.7471085    1749.0729  0.061113658  0.060424754            6 
 2386000    0.8605192   -3.7438688    1742.6841  0.060864911  0.060413239            2 
 2387000   0.88044186   -3.7577111    1739.3745  0.060723868  0.060401816            5 
 2388000   0.88995659   -3.7792525    1752.8689  0.061169351  0.060390509            7 
 2389000   0.85956237    -3.751199     1747.662  0.060962117  0.060379103            4 
 2390000    0.8638908   -3.7403455    1745.9433  0.060876686  0.060367882            2 
 2391000   0.84033591   -3.7682014    1748.0497  0.060924638  0.060356673            4 
 2392000   0.88481809   -3.7510382     1749.796  0.060960006  0.060345352            3 
 2393000   0.86223912   -3.7409886    1749.9236  0.060938974  0.060334071            3 
 2394000   0.86573994   -3.7201021    1743.1939  0.060679264   0.06032285            3 
 2395000    0.8721119   -3.7436873    1742.6815    0.0606361  0.060311466            3 
 2396000   0.87332296   -3.7475622    1747.9481  0.060793965  0.060300084            3 
 2397000   0.87945658   -3.7446681    1751.8292  0.060903531  0.060288734            3 
 2398000   0.86813556   -3.7705267    1745.7096  0.060665472  0.060277348            3 
 2399000   0.88361487   -3.7648259    1750.4787  0.060805845  0.060265912            9 
 2400000   0.88628903   -3.7828471    1744.0815  0.060558384  0.060254525            3 
 2401000   0.84564718   -3.7618795    1749.9711  0.060737577  0.060243218            3 
 2402000    0.8604686   -3.7637586    1747.4709  0.060625551  0.060231888            5 
 2403000   0.86838775   -3.7686829    1752.8423  0.060786597  0.060220618            5 
 2404000   0.87559879   -3.7593729    1745.0295  0.060490483  0.060209033            5 
 2405000   0.87799484    -3.772097    1756.0722  0.060847961  0.060197625            2 
 2406000   0.87496609    -3.752277    1752.7578  0.060707876  0.060186353            4 
 2407000   0.86445287   -3.7624377    1756.2951   0.06080512  0.060174964            3 
 2408000   0.85842218   -3.7715919    1749.1519  0.060532667  0.060163481            3 
 2409000   0.84885649   -3.7410648    1758.5739   0.06083347  0.060152132            4 
 2410000   0.87246574   -3.7800219     1751.212  0.060553666  0.060140786            5 
 2411000   0.86312638   -3.7669661     1755.633  0.060681357  0.060129271            6 
 2412000   0.86038181   -3.7672051     1753.291  0.060575285  0.060117981            4 
 2413000   0.86943329   -3.7690601    1760.3483  0.060793906  0.060106632           11 
 2414000   0.86460498   -3.7425847    1752.4223  0.060495109  0.060095202            2 
 2415000   0.87239087   -3.7508345    1753.5234  0.060508054  0.060083726            4 
 2416000   0.88352005   -3.7677554    1756.7883  0.060595623  0.060072322            3 
 2417000   0.84380475   -3.7690349    1751.2959  0.060381187  0.060060683            7 
 2418000   0.85932073   -3.7547848     1755.319  0.060494863  0.060049155            5 
 2419000   0.87935866   -3.7844508    1754.3672  0.060437069  0.060037949            3 
 2420000   0.84947023   -3.7485341    1759.5381  0.060590155  0.060026589            6 
 2421000   0.85820836   -3.7558255    1756.4917  0.060460269  0.060015077            8 
 2422000   0.86287962   -3.7722931    1748.7947  0.060170476  0.060003584            2 
 2423000   0.84902476   -3.7782324    1754.1224  0.060328876  0.059992234            2 
 2424000   0.85754885   -3.7568328    1762.4198  0.060589239  0.059980837            4 
 2425000   0.84787598   -3.7537944    1755.4436  0.060324524  0.059969427            6 
 2426000   0.87851281   -3.7823988    1766.0148  0.060662778   0.05995809            3 
 2427000   0.83326028   -3.7251786    1760.6029  0.060451962  0.059946648            1 
 2428000   0.86753728   -3.7788412    1759.3919  0.060385501  0.059935074            4 
 2429000   0.83443252   -3.7851326    1752.4054  0.060120949  0.059923428            2 
 2430000   0.85753867   -3.7671001    1754.9206  0.060182463  0.059911871            2 
 2431000   0.86151072   -3.7748524    1764.0673  0.060471251  0.059900477            4 
 2432000   0.84777457   -3.7735898    1759.0259  0.060273641  0.059889018            7 
 2433000   0.87132789   -3.7844373    1760.2063  0.060289296  0.059877643            5 
 2434000   0.86283572   -3.7834331    1763.7925  0.060387308  0.059866348            7 
 2435000      0.86484   -3.7359961    1759.4332   0.06021332  0.059854965            5 
 2436000   0.86412306   -3.7764167    1755.3306  0.060048256  0.059843633            5 
 2437000   0.85846015   -3.7611126    1763.9484  0.060318303  0.059832105            5 
 2438000   0.87130775   -3.7998143    1757.0382  0.060057363  0.059820471            6 
 2439000   0.86809547   -3.7679357    1764.2026  0.060277524  0.059808988            6 
 2440000   0.86372713   -3.7700391    1760.8046  0.060136768  0.059797357            3 
 2441000   0.83144933   -3.7654796    1756.6721  0.059971053  0.059785621            4 
 2442000   0.85841339   -3.7596137    1765.7798  0.060257296  0.059774066            3 
 2443000   0.85310181   -3.7603204    1757.4485   0.05994844  0.059762398            1 
 2444000   0.85163061   -3.7330078     1761.932  0.060076788  0.059750904            2 
 2445000    0.8568929   -3.7834204    1760.7813  0.060012997  0.059739266            4 
 2446000   0.88094433   -3.7980776    1766.4745  0.060182424  0.059727459            9 
 2447000    0.8559372   -3.7637285    1769.1967  0.060250533  0.059716053            4 
 2448000    0.8604679   -3.7606799    1766.6908  0.060140618  0.059704381            6 
 2449000   0.87657826   -3.7820692    1764.2241  0.060032124  0.059693011            3 
 2450000   0.84691793   -3.7821772    1766.8319  0.060096323  0.059681566            4 
 2451000   0.85989297   -3.7685255    1760.7421  0.059864754  0.059670051            4 
 2452000   0.85373543   -3.7834039    1760.4509  0.059830442  0.059658484            2 
 2453000   0.85168512   -3.7740916     1771.653  0.060186608  0.059647003            4 
 2454000   0.84992368   -3.7759382    1766.0343  0.059971281  0.059635428            7 
 2455000   0.86005033   -3.7640969    1771.9177  0.060146562  0.059623932            5 
 2456000   0.86436657   -3.7610839    1771.3546  0.060102965  0.059612597            9 
 2457000   0.84857372   -3.7896436    1767.6361  0.059952386  0.059601042            4 
 2458000   0.85983129   -3.7660565    1771.0503  0.060043744  0.059589503            3 
 2459000   0.85640906   -3.7740348    1767.9229  0.059913342  0.059577874            3 
 2460000   0.86595341   -3.7857207    1769.8656  0.059954795  0.059566328            2 
 2461000   0.84851003   -3.7691877    1775.6111  0.060124986   0.05955471            2 
 2462000   0.86333495   -3.8059231    1763.9657  0.059706393   0.05954325            8 
 2463000   0.83849426   -3.7822984    1769.8297  0.059880555  0.059531737            7 
 2464000   0.85053609   -3.7696725    1773.5037  0.059980511  0.059520183            6 
 2465000   0.86257245   -3.7717196    1771.6455  0.059893357  0.059508958            3 
 2466000   0.85695849   -3.7787388     1775.389  0.059995572  0.059497428            5 
 2467000   0.85339672   -3.7702612    1781.9613   0.06019326  0.059485921            4 
 2468000   0.85837048    -3.759078    1774.5843  0.059919783  0.059474356            3 
 2469000   0.85134541   -3.7940438    1772.6448  0.059830054  0.059462766            5 
 2470000   0.87158663   -3.8099204    1770.4774  0.059732706  0.059451116            2 
 2471000   0.84827458   -3.8140821    1773.8925  0.059823705   0.05943948            7 
 2472000   0.85964138   -3.7779022    1779.3552  0.059983657  0.059427953            2 
 2473000    0.8612838   -3.7965701    1773.9861  0.059778478  0.059416314            5 
 2474000   0.85991244   -3.7883599    1774.5882  0.059774596  0.059404533            3 
 2475000   0.85076283    -3.780606     1774.061  0.059732693  0.059392859            8 
 2476000   0.83726777    -3.755042     1776.468  0.059789581  0.059381305            3 
 2477000   0.87205255   -3.7787656    1773.2056  0.059655684  0.059369682            2 
 2478000   0.85942154   -3.7776362    1776.0399  0.059726928  0.059357989            2 
 2479000   0.85492941   -3.8017785    1778.7096  0.059792576   0.05934646            4 
 2480000   0.87312217   -3.7743356    1782.0403  0.059880386  0.059334822            4 
 2481000   0.85753426    -3.771809    1776.9232  0.059684375  0.059323273            3 
 2482000   0.85202789   -3.7886332    1773.7596  0.059554109  0.059311628            3 
 2483000   0.85698294   -3.7612831     1784.609  0.059894249  0.059300329            2 
 2484000   0.86506769   -3.7571283      1783.48   0.05983226  0.059288869            4 
 2485000   0.85392548   -3.7656515    1781.3893  0.059738072  0.059277372            2 
 2486000   0.85561754   -3.7926268    1783.8608  0.059796889  0.059265956            3 
 2487000   0.85022727   -3.7697746    1781.7105  0.059700794  0.059254568            3 
 2488000   0.86159695   -3.7621938    1779.9432  0.059617605  0.059243162            6 
 2489000   0.85149384   -3.7505853    1783.1568  0.059701247  0.059231771            3 
 2490000    0.8492077    -3.758148    1777.0409  0.059472586  0.059220263            6 
 2491000   0.85759758    -3.791378    1774.0779  0.059349587  0.059208683            3 
 2492000    0.8409642   -3.7767103    1781.3462  0.059568826   0.05919691            4 
 2493000   0.85872445   -3.7686841    1782.2342  0.059574617  0.059185429            3 
 2494000   0.84165402   -3.7769718    1777.7886  0.059402184  0.059173939            7 
 2495000   0.84541377   -3.7978892    1780.8615  0.059481012  0.059162379            5 
 2496000   0.86644702   -3.7707831    1784.5202  0.059579333  0.059150787            3 
 2497000   0.84146035   -3.7935229    1780.8638  0.059433447  0.059139348            6 
 2498000   0.86017716   -3.7513556    1786.7997  0.059607677  0.059127901            7 
 2499000   0.84532538    -3.775458    1784.6874  0.059513386  0.059116505            3 
 2500000   0.86181121   -3.7999049    1781.5673  0.059385575  0.059105032            2 
 2501000   0.84212602   -3.7750164    1784.3556  0.059454738  0.059093485            5 
 2502000   0.84678615   -3.7730946     1786.538  0.059503665  0.059082097            3 
 2503000   0.86287398    -3.744593    1788.7686  0.059554154  0.059070767            6 
 2504000   0.86541246    -3.814538    1781.0359  0.059273028  0.059059274            2 
 2505000   0.87579922   -3.7805561    1788.0085   0.05948132  0.059047643            5 
 2506000   0.85447815    -3.787994    1785.2364  0.059365404  0.059036314            5 
 2507000   0.82173964   -3.7934214    1786.6641  0.059389179  0.059024658            8 
 2508000    0.8608687   -3.7827763    1789.4918  0.059459457  0.059013259            3 
 2509000   0.84216169   -3.7998171    1787.3089  0.059363254   0.05900182            9 
 2510000   0.84387979   -3.7572667    1788.2301   0.05937019   0.05899017            6 
 2511000    0.8498907   -3.7823722    1787.0019  0.059305783  0.058978635            8 
 2512000   0.83861945   -3.7752687    1786.1103  0.059252597  0.058967066            7 
 2513000   0.84852914   -3.7685678    1792.2897  0.059433932  0.058955579            4 
 2514000   0.84318233   -3.7877293    1787.4473   0.05924978  0.058944165            2 
 2515000   0.84160074   -3.8113086    1791.3531  0.059355638  0.058932494            3 
 2516000   0.85539666   -3.7849497    1786.1884  0.059160982  0.058920739            4 
 2517000   0.86119906   -3.7861265    1789.7532  0.059255503  0.058909231            4 
 2518000    0.8490676   -3.7979945    1791.8084  0.059299986   0.05889765            4 
 2519000   0.84706598    -3.765709    1795.6072  0.059402116  0.058886027            2 
 2520000   0.86470702   -3.7801553    1791.5036  0.059242845  0.058874443            3 
 2521000   0.82771253    -3.826514    1789.7374   0.05916096  0.058862739            6 
 2522000   0.83514922   -3.8051172    1787.1194  0.059050998  0.058850982            3 
 2523000   0.82436518   -3.7827127    1794.6331  0.059275765  0.058839269            4 
 2524000   0.85548028   -3.8099144    1791.2881  0.059141842  0.058827644            3 
 2525000   0.84630347   -3.7972125    1792.5131  0.059158847  0.058815931            3 
 2526000   0.85066263   -3.7569438    1799.5671  0.059368142  0.058804337            4 
 2527000   0.84981253   -3.7561802     1802.353  0.059436519  0.058792868            3 
 2528000   0.86917293   -3.7833419    1799.4368  0.059316879  0.058781394            3 
 2529000   0.86040312   -3.7928241    1796.8439  0.059207983  0.058769905            3 
 2530000   0.85990915   -3.8046753    1787.7189  0.058884022  0.058758161            4 
 2531000    0.8415731   -3.7629079    1793.4601  0.059049787   0.05874656           11 
 2532000   0.85792753   -3.7924985    1791.7994  0.058971807  0.058734812            2 
 2533000   0.82380198   -3.7852275    1800.5936  0.059237846  0.058723265            5 
 2534000   0.85043546   -3.7966174    1799.2712  0.059170982  0.058711746            3 
 2535000   0.83340866    -3.765695    1795.8933  0.059036596  0.058700186            3 
 2536000   0.84385058   -3.7862748    1795.0453  0.058985451  0.058688702            4 
 2537000   0.85276052   -3.7743687    1796.8631  0.059021914  0.058677075            3 
 2538000   0.83942218   -3.8009155    1801.7283  0.059158402  0.058665537            3 
 2539000   0.84293101   -3.8020951    1796.4409  0.058961563  0.058654137            5 
 2540000   0.84416729   -3.8004594    1795.0702  0.058893379  0.058642604            4 
 2541000   0.85389849   -3.7832078    1804.7984  0.059189243  0.058631233            4 
 2542000   0.85213726   -3.7987359    1804.1861  0.059145886  0.058619636            4 
 2543000   0.85725175   -3.7974085    1792.3419  0.058734497  0.058608045            8 
 2544000   0.84671707   -3.8000847    1799.6447  0.058950624  0.058596411            4 
 2545000   0.84640843   -3.8139702    1800.3801  0.058951543   0.05858482            3 
 2546000   0.84170402   -3.8043553    1799.8886  0.058912301  0.058573182            3 
 2547000   0.83902609   -3.7956985    1803.1056  0.058994425  0.058561702            3 
 2548000   0.84488319   -3.7777115    1802.8799  0.058963889   0.05855021            5 
 2549000   0.82816305   -3.7730035    1804.8998  0.059006793  0.058538742            4 
 2550000   0.84935592    -3.795189    1796.9447  0.058723684   0.05852709            2 
 2551000   0.84336351   -3.8046361    1805.6366    0.0589846  0.058515416            4 
 2552000   0.82086765   -3.7927466    1802.0405  0.058844061   0.05850372            3 
 2553000   0.85561196   -3.7695123    1809.6685      0.05907  0.058492126            3 
 2554000    0.8371014   -3.7805996    1800.6276   0.05875188  0.058480396            6 
 2555000   0.82654499   -3.7877294    1800.4935  0.058724512  0.058468719            4 
 2556000   0.83959486   -3.8133324    1800.5182   0.05870234  0.058457163            4 
 2557000   0.84194793   -3.7959856    1805.9249   0.05885559  0.058445504            5 
 2558000   0.82715468    -3.803329    1803.7362  0.058761279  0.058433783            4 
 2559000    0.8500475   -3.8000223    1799.9675   0.05861559  0.058422083            2 
 2560000   0.83340443   -3.7988944    1804.8883  0.058752875  0.058410384            2 
 2561000   0.81780111   -3.8472747    1802.7704  0.058661017    0.0583985           11 
 2562000   0.83922411    -3.796383    1799.8544  0.058543274  0.058386631            4 
 2563000   0.84606785   -3.8052888    1808.3763  0.058797513  0.058374947            3 
 2564000    0.8314382   -3.8247756    1802.0239   0.05856812  0.058363108            8 
 2565000   0.82351529   -3.7950231    1802.9726  0.058576107  0.058351198            3 
 2566000   0.83437845   -3.8107329    1803.6815  0.058576302  0.058339466            6 
 2567000   0.85648995   -3.8025236    1807.5162  0.058677969  0.058327675            4 
 2568000   0.84210144   -3.7891973    1804.0773  0.058543526  0.058315962            5 
 2569000   0.85544411    -3.814769    1808.2587  0.058656374   0.05830439            6 
 2570000   0.84934464   -3.8015152     1804.893  0.058524415  0.058292698            5 
 2571000    0.8326645   -3.7985461    1808.4373  0.058616535  0.058281055           11 
 2572000   0.83191288   -3.8378497    1804.0276  0.058450867  0.058269229            7 
 2573000   0.83362401   -3.7923053     1815.594  0.058802758  0.058257446            3 
 2574000    0.8288771   -3.7993089    1814.4269   0.05874213  0.058245717            5 
 2575000   0.83154905   -3.7938842    1810.2352  0.058583665   0.05823419            6 
 2576000   0.83378005    -3.781052    1817.5098  0.058796254  0.058222576            4 
 2577000   0.83980056   -3.8253364    1806.2454  0.058409176  0.058211086            5 
 2578000   0.85709469   -3.7973422    1806.1236  0.058382583  0.058199254            3 
 2579000   0.82806861   -3.8088217    1806.3769  0.058368131  0.058187418            5 
 2580000    0.8209762   -3.8022005    1808.4846  0.058413584  0.058175524            6 
 2581000   0.82543267   -3.8279617    1806.6288  0.058331033  0.058163732            3 
 2582000   0.82833837   -3.8056901    1813.8109  0.058540245  0.058152037            3 
 2583000   0.84104766   -3.8182177    1810.7797  0.058419787  0.058140259            4 
 2584000   0.84135356   -3.8038912    1818.5825  0.058648815   0.05812846            5 
 2585000   0.82204244   -3.8129144    1814.4121  0.058491687  0.058116704            4 
 2586000   0.82390707   -3.8035443    1820.9448  0.058679584  0.058105114            7 
 2587000   0.83800368   -3.8172131    1815.1005   0.05846864  0.058093363            2 
 2588000   0.83444755   -3.8074608    1814.3178  0.058420846   0.05808168            2 
 2589000   0.82457616   -3.8139642    1816.5509  0.058470157  0.058070125            6 
 2590000   0.82842754   -3.7965383    1820.9333  0.058588587  0.058058438            6 
 2591000   0.83613932   -3.8351798     1814.668  0.058364466  0.058046652            4 
 2592000    0.8391189   -3.8271999     1815.021  0.058353299  0.058034894            3 
 2593000   0.83341978   -3.8025565    1819.2243  0.058465878  0.058023011            5 
 2594000   0.84044021   -3.8186813    1816.9125  0.058369073  0.058011438            6 
 2595000   0.83477738   -3.8176422    1818.0707  0.058383772  0.057999621            7 
 2596000   0.84263185   -3.8191807    1819.7979  0.058416726  0.057987782            3 
 2597000   0.81844506   -3.8202976    1815.9682  0.058271346  0.057976117            5 
 2598000   0.83473648     -3.81779    1823.0851  0.058477199  0.057964351            4 
 2599000   0.84317728   -3.7999808    1819.2727  0.058332459  0.057952477            3 
 2600000    0.8323057     -3.81399    1818.9639  0.058300126  0.057940932            3 
 2601000   0.83296023   -3.8087522    1817.7776  0.058239703  0.057929096            3 
 2602000   0.84573361    -3.828458    1813.8992  0.058093108  0.057917329            3 
 2603000   0.82362496   -3.8521155    1808.1392  0.057886389  0.057905505            9 
 2604000    0.8463612   -3.7939691    1818.0033  0.058179828  0.057893702            4 
 2605000   0.81844674   -3.8172681    1818.9693  0.058188397  0.057882107            8 
 2606000    0.8309381   -3.8134023    1816.7059  0.058093691  0.057870343            2 
 2607000   0.82028882    -3.806264    1816.8255   0.05807523  0.057858412            5 
 2608000   0.84437609   -3.7996113    1816.8324  0.058053183  0.057846715            9 
 2609000   0.80870592   -3.7899038    1822.4137  0.058209202  0.057835027            3 
 2610000   0.83491701   -3.7948279    1823.0806  0.058208192    0.0578233            4 
 2611000   0.83962846   -3.8173717    1820.5421  0.058104879  0.057811374            3 
 2612000    0.8069213   -3.7978432    1824.1544  0.058197883  0.057799649            3 
 2613000   0.82993758      -3.7929    1824.4379   0.05818465   0.05778807            4 
 2614000   0.83577409   -3.8290393    1820.3879  0.058033279  0.057776271            5 
 2615000   0.83636156   -3.8259796    1826.6465  0.058210533   0.05776449            4 
 2616000   0.83855921   -3.7985751     1822.205  0.058046794  0.057752739            8 
 2617000   0.82810175   -3.8135293    1827.4172  0.058190588  0.057740946            5 
 2618000   0.84140952   -3.8086556    1823.2513  0.058035756  0.057729144            6 
 2619000   0.82628055     -3.82273    1819.2565  0.057886487  0.057717495            4 
 2620000   0.82910721   -3.8096173     1826.596  0.058097837  0.057705795            6 
 2621000   0.81761387   -3.8191512    1828.6915  0.058142297  0.057694186            3 
 2622000   0.83600334   -3.8486345    1820.9207  0.057873147  0.057682395            3 
 2623000   0.80597961   -3.8031556    1822.3791  0.057897417  0.057670595            4 
 2624000   0.83097636   -3.8328493     1825.654  0.057979358  0.057658802            5 
 2625000   0.82422177   -3.8487698    1825.5139  0.057952821  0.057646995            4 
 2626000   0.84621829   -3.8231434    1826.9549  0.057976481  0.057635125            3 
 2627000   0.82478844   -3.7928626    1825.1873   0.05789834  0.057623471            6 
 2628000    0.8099141   -3.7992169    1824.5915  0.057857417  0.057611687            5 
 2629000    0.8419827   -3.8039461    1827.3981  0.057924373  0.057599884            2 
 2630000   0.81653193   -3.8192268    1828.7373  0.057944782  0.057588187            7 
 2631000   0.82801358    -3.838972     1819.503  0.057630273  0.057576361            3 
 2632000   0.84557998   -3.7948248    1826.9446  0.057843992  0.057564544            4 
 2633000   0.82211825   -3.8020283    1825.9938  0.057791929  0.057552723            8 
 2634000   0.82911584   -3.8406564    1827.6255  0.057821611  0.057540903            5 
 2635000    0.8378774    -3.831565    1827.3879  0.057792152  0.057528953            4 
 2636000   0.82650529    -3.816237    1825.3978  0.057707316   0.05751725            4 
 2637000   0.83702731   -3.8316006    1829.0449  0.057800685  0.057505353            2 
 2638000   0.83844463   -3.8605387    1825.9691  0.057681613  0.057493347            3 
 2639000    0.8312236   -3.7998736    1831.0677  0.057820757  0.057481406            2 
 2640000   0.83235656   -3.8135752    1830.8296  0.057791338   0.05746939            4 
 2641000   0.84236044   -3.7899148    1829.3439  0.057722576  0.057457681            5 
 2642000   0.81980589   -3.8145138    1832.0585  0.057786351  0.057445886            3 
 2643000   0.84072884   -3.7983562    1835.2657  0.057865612   0.05743415            2 
 2644000   0.82089015    -3.831183    1827.6609  0.057604038  0.057422262            3 
 2645000   0.83147811   -3.8385168    1827.7039  0.057583614  0.057410345            3 
 2646000   0.81868073   -3.8123948     1832.925  0.057726284  0.057398433            6 
 2647000   0.82211435   -3.8283917    1825.7463  0.057478476  0.057386409            2 
 2648000   0.83396469   -3.8273476    1831.3931  0.057634474   0.05737467            2 
 2649000   0.79859143   -3.8306108    1829.4903  0.057552858   0.05736273            6 
 2650000   0.84475851   -3.8296648    1836.6131   0.05775513  0.057350798            3 
 2651000   0.82719946   -3.8287067    1832.8802  0.057616001  0.057338895           10 
 2652000   0.82314585   -3.8270422    1828.4435  0.057454862   0.05732714            2 
 2653000   0.81995277   -3.8125647    1834.6781  0.057629041  0.057315367            4 
 2654000   0.81703364   -3.8148019    1834.5198  0.057602355  0.057303698            3 
 2655000   0.83074088   -3.8262873    1829.4906  0.057422805  0.057291977            6 
 2656000   0.84281864   -3.8392508     1834.399   0.05755519  0.057280213           10 
 2657000   0.80671116   -3.8226035    1841.3077  0.057750209   0.05726853            2 
 2658000   0.83963993   -3.8281229    1834.3142  0.057509223  0.057256755            5 
 2659000   0.82955822   -3.8254404     1834.163  0.057482857  0.057245024            3 
 2660000   0.81003349   -3.8052323    1841.2668  0.057683796  0.057233323            5 
 2661000    0.8518382   -3.8046018    1840.0392  0.057623674  0.057221545            3 
 2662000   0.80974812   -3.8445715    1831.5658  0.057336772  0.057209748            4 
 2663000   0.83376632   -3.7997387    1838.2238  0.057523587  0.057197896            4 
 2664000   0.84277611   -3.8363648    1840.6803  0.057578837  0.057186093            3 
 2665000   0.82119168   -3.8241556    1840.5451  0.057553005   0.05717442            1 
 2666000   0.82704459   -3.8334691    1838.6807   0.05747314  0.057162696            2 
 2667000   0.81913624   -3.8367088    1837.6088  0.057418097  0.057151035            4 
 2668000   0.83360645   -3.8220051    1835.8435  0.057341438  0.057139185            3 
 2669000   0.82199443   -3.8009061    1844.4334  0.057588153  0.057127655            3 
 2670000   0.83467836   -3.8152409    1837.1492  0.057339238  0.057116242            4 
 2671000   0.80064113   -3.8266479    1843.8376  0.057526444  0.057104491            3 
 2672000    0.8295601   -3.8480218    1840.8301  0.057411119  0.057092805            4 
 2673000   0.83185079   -3.8180079    1847.6942  0.057603635  0.057081239            3 
 2674000   0.82221932   -3.8102173    1844.5676  0.057484655  0.057069609            5 
 2675000   0.82654932   -3.8239456    1848.3483  0.057580944  0.057058018            4 
 2676000   0.82932078   -3.8561502    1841.7053  0.057352557  0.057046426            6 
 2677000    0.8213153   -3.8256646    1840.8731  0.057305227  0.057034658            4 
 2678000   0.81425806   -3.8156122    1840.9583  0.057286478  0.057022849            2 
 2679000   0.80621432    -3.819739    1839.0773  0.057206586  0.057011142            5 
 2680000   0.82602325   -3.8197671    1838.5476  0.057168769  0.056999341            4 
 2681000   0.81433351   -3.8310796    1846.6843  0.057400357  0.056987679            3 
 2682000    0.8284136   -3.8311913    1851.1093  0.057516445  0.056975905            6 
 2683000   0.81517864    -3.820943    1839.4904  0.057134128  0.056964086            6 
 2684000   0.84380253   -3.8274947    1840.9601  0.057158473  0.056952178            3 
 2685000   0.81341613   -3.8470997    1844.8978  0.057259398  0.056940305            5 
 2686000   0.82836466   -3.8221683    1845.2432  0.057248796  0.056928474            8 
 2687000   0.82314526   -3.8100214    1845.8915  0.057247597  0.056916667            7 
 2688000   0.81505308   -3.8130209    1843.8475   0.05716293  0.056904874            4 
 2689000   0.82372468   -3.8312957     1843.012  0.057115781  0.056893056            5 
 2690000   0.81619642     -3.86845    1838.6973  0.056960883   0.05688097            5 
 2691000   0.81958874   -3.8253028    1846.5364  0.057182474  0.056868988            5 
 2692000   0.84207926   -3.8069308    1850.9554  0.057298026  0.056857289            6 
 2693000   0.83182971   -3.7993981    1844.9387  0.057090565  0.056845568            3 
 2694000   0.80325339   -3.8661812    1847.5875  0.057151308  0.056833821            5 
 2695000   0.82938263   -3.8186755    1847.3167  0.057121728  0.056821993            6 
 2696000   0.82670151   -3.8432118    1849.8685  0.057179416  0.056810296            4 
 2697000   0.81631258   -3.8410756    1850.4835   0.05717722  0.056798533            2 
 2698000   0.83087065   -3.8313001    1845.6779  0.057007594  0.056786876            4 
 2699000   0.83596639   -3.8221327    1848.1088   0.05706153   0.05677534            1 
 2700000   0.82242909   -3.8105555    1850.4024  0.057111185  0.056763801            5 
 2701000   0.81135084   -3.8618867    1844.4206  0.056905485  0.056752104            3 
 2702000   0.82351906   -3.8256477    1851.8277  0.057112871  0.056740504            4 
 2703000    0.8260995   -3.8527893    1851.4985  0.057081593  0.056728901            5 
 2704000   0.82218661   -3.8326388    1855.7397  0.057191189  0.056717323            2 
 2705000   0.81098784   -3.8338863    1850.9005  0.057020965  0.056705825            5 
 2706000   0.81633934   -3.8189096    1857.3304  0.057197905  0.056694219            5 
 2707000   0.82668435   -3.8536916    1850.8631  0.056977683  0.056682641            5 
 2708000   0.80733382   -3.8209447    1852.1712  0.056996897  0.056670916            2 
 2709000   0.81501176   -3.8338534    1852.3627  0.056981749  0.056659247            4 
 2710000   0.82822635   -3.8267779    1846.6173  0.056784049   0.05664758            5 
 2711000   0.81841512   -3.8387717    1853.4284   0.05697247  0.056635818            5 
 2712000   0.81311611   -3.8499215    1853.6903   0.05695951  0.056624091            3 
 2713000   0.81842853   -3.8291375    1859.1092  0.057104963  0.056612452            2 
 2714000   0.81385796   -3.8447167    1855.5681  0.056975192  0.056600827            5 
 2715000   0.81847772   -3.8386846    1853.9815   0.05690551   0.05658918            5 
 2716000   0.82668216    -3.823576    1858.6962  0.057029214  0.056577435            4 
 2717000   0.83145693    -3.842812    1857.3385  0.056966584  0.056565913            3 
 2718000   0.82954235   -3.8359841    1855.7036  0.056895498  0.056554301            4 
 2719000   0.82680781   -3.8245875    1853.5834  0.056809594  0.056542529            6 
 2720000   0.82118024   -3.8366792     1852.085    0.0567428   0.05653071            6 
 2721000   0.82245873   -3.8490746    1851.7732  0.056712398  0.056518768            6 
 2722000   0.80063505   -3.8703734    1852.2917  0.056707437  0.056506876            2 
 2723000   0.83315843   -3.8408922    1847.2612   0.05653266  0.056494976            7 
 2724000   0.82525804    -3.839258    1855.9155  0.056776662   0.05648306            5 
 2725000   0.82634199   -3.8570373    1855.4482  0.056741537  0.056471268            9 
 2726000   0.82424209   -3.8489964    1857.1815  0.056773706  0.056459621            6 
 2727000   0.81939938   -3.8633623    1845.8986  0.056408099  0.056447787            5 
 2728000    0.8162178   -3.8702469    1851.7958  0.056567566  0.056435726            4 
 2729000   0.81964913   -3.8332014    1862.0256  0.056859217  0.056423824            3 
 2730000   0.81426962   -3.8486787    1851.3405  0.056512224  0.056411988            4 
 2731000   0.82024823   -3.8520832     1853.875  0.056568871  0.056400229            3 
 2732000   0.81324723   -3.8434376    1861.2663  0.056773617  0.056388353            6 
 2733000   0.83193026   -3.8576681    1858.3567  0.056664127  0.056376417            3 
 2734000   0.81663787   -3.8526708    1852.9543  0.056478734  0.056364422            2 
 2735000   0.81702847   -3.8330805    1857.2517  0.056589021  0.056352598            3 
 2736000   0.81601149    -3.853881    1860.1167    0.0566556  0.056340692            3 
 2737000   0.80799933   -3.8360295    1855.6915  0.056500168  0.056328706            9 
 2738000   0.83077415   -3.8669987     1860.063  0.056612584  0.056316794            3 
 2739000   0.82257618   -3.8487786    1858.8676  0.056555544  0.056304932            6 
 2740000   0.80694337   -3.8738164    1855.5007  0.056432505  0.056292902            4 
 2741000    0.8101032   -3.8422955    1858.6388  0.056507321  0.056281032            3 
 2742000   0.81344937   -3.8661507    1857.3803  0.056448466  0.056269059            6 
 2743000   0.81087695   -3.8517949    1862.7964   0.05659243  0.056257088            5 
 2744000   0.81388609   -3.8415868    1860.8536  0.056512804  0.056245126            8 
 2745000   0.81217959    -3.846858    1860.6591  0.056486311  0.056233299            5 
 2746000   0.81230356   -3.8618048     1860.315  0.056455299   0.05622138            4 
 2747000   0.82034819   -3.8649698    1857.0383  0.056335344  0.056209465            4 
 2748000   0.82965248   -3.8577744    1857.6926  0.056334687  0.056197586            8 
 2749000   0.80128614   -3.8600684    1858.8874  0.056350411  0.056185529            4 
 2750000   0.81379545    -3.859835    1854.7118  0.056203388  0.056173457            6 
 2751000   0.82024798   -3.8495213    1868.1123  0.056588886  0.056161689            4 
 2752000     0.826108   -3.8263886     1868.186  0.056570553  0.056149812            5 
 2753000   0.82002379   -3.8658145    1863.3809  0.056404556  0.056138065            4 
 2754000   0.81486454   -3.8535448    1863.2942  0.056381451  0.056126158           10 
 2755000   0.81886034   -3.8467621    1866.5936  0.056460787  0.056114215            2 
 2756000   0.82201559   -3.8157774    1871.9227  0.056601437  0.056102559            4 
 2757000   0.81564454   -3.8525005    1864.3681  0.056352559  0.056090775            2 
 2758000   0.79993142   -3.8305509    1862.4893  0.056275361  0.056078995            6 
 2759000   0.81198938   -3.8544276    1863.8688   0.05629663  0.056067201            5 
 2760000   0.80738989   -3.8320378    1870.9447  0.056489875  0.056055434            2 
 2761000   0.80140823    -3.848543    1874.9309  0.056589728  0.056043739            4 
 2762000   0.81308631   -3.8448454    1864.9424  0.056267874  0.056031896            6 
 2763000   0.80552885   -3.8498783    1868.2031  0.056345854  0.056020033            7 
 2764000   0.80786841   -3.8349345    1867.5936  0.056307091  0.056008298            6 
 2765000   0.81377186   -3.8404777    1862.4243  0.056130933   0.05599651            4 
 2766000   0.80578543   -3.8434858    1864.1932   0.05616393  0.055984681            6 
 2767000   0.81247108   -3.8457772    1872.9943  0.056408695  0.055972846            6 
 2768000   0.80783085   -3.8557014    1870.9298  0.056326162  0.055961118            4 
 2769000   0.79755781   -3.8661006    1872.2682  0.056346099  0.055949459            4 
 2770000   0.81441263    -3.861897    1871.3326  0.056297612  0.055937726            6 
 2771000   0.79685358   -3.8721531    1869.7188  0.056228761   0.05592598            3 
 2772000    0.8130659   -3.8732013    1860.3359  0.055926405  0.055914187            8 
 2773000    0.8008426   -3.8639561    1873.5592  0.056303618  0.055902534            4 
 2774000   0.79366766   -3.8429539    1870.5035  0.056191525  0.055890681            5 
 2775000   0.83444837   -3.8436612    1870.8584  0.056181935  0.055879009            3 
 2776000   0.81480601   -3.8591978     1870.253  0.056143522  0.055867407            5 
 2777000   0.80520847   -3.8294646     1882.123  0.056479503  0.055855617            5 
 2778000   0.80755927   -3.8366346    1876.6539  0.056295113  0.055843878            5 
 2779000    0.8022985   -3.8525622    1878.6996    0.0563362  0.055832279            5 
 2780000   0.81269586   -3.8890546    1877.1254  0.056268748  0.055820845            7 
 2781000   0.81552314   -3.8534371    1873.2051   0.05613104  0.055809344            1 
 2782000   0.79956187   -3.8794189    1873.9541  0.056133299  0.055797768            5 
 2783000    0.8003905   -3.8811129    1867.6761  0.055925144  0.055786163           11 
 2784000   0.81663171   -3.8449175     1883.186  0.056369312  0.055774617            4 
 2785000   0.80065486   -3.8335439    1875.4377  0.056117225  0.055763044            5 
 2786000   0.81147483   -3.8447332    1870.3939  0.055946216  0.055751611            4 
 2787000   0.80869693   -3.8571687    1879.2512  0.056190981  0.055740174            3 
 2788000   0.80948845   -3.8679754    1883.8327  0.056307769  0.055728911            6 
 2789000   0.81227671   -3.8644014    1879.8984  0.056170024  0.055717549            6 
 2790000   0.78647925   -3.8376358    1880.2096  0.056159187  0.055706081            4 
 2791000   0.80643822   -3.8164801    1888.9817  0.056400981  0.055694706            3 
 2792000   0.80121342   -3.8515091    1883.3691  0.056213261  0.055683426            4 
 2793000   0.81133456   -3.8504836    1884.4882  0.056226524  0.055672219           10 
 2794000   0.81113484   -3.8440108    1884.6906  0.056212437  0.055660963            7 
 2795000   0.80980056   -3.8827948    1878.0362  0.055993922   0.05564967            7 
 2796000   0.80371335   -3.8630007     1879.896  0.056029327  0.055638402            6 
 2797000   0.79738692   -3.8605914    1886.7663  0.056213987  0.055627118            8 
 2798000   0.79423654    -3.855466    1887.6457  0.056220088  0.055615766            2 
 2799000    0.8126487   -3.8630991    1883.5161  0.056077055  0.055604464            2 
 2800000   0.78155337   -3.8784415    1882.7175   0.05603326  0.055593007            7 
 2801000   0.80191113   -3.8734121    1886.4909  0.056125518  0.055581627            3 
 2802000   0.78178163    -3.849689    1885.7649  0.056083895  0.055570212            3 
 2803000   0.80322111    -3.854531    1885.0377  0.056042266  0.055558846            6 
 2804000   0.81316949   -3.8716934    1889.0001  0.056140042   0.05554749            4 
 2805000   0.80123675   -3.8517747    1884.5044  0.055986464  0.055536053            5 
 2806000   0.80641922   -3.8667199    1886.9646  0.056039576  0.055524647            7 
 2807000   0.78823363   -3.8562981    1882.2143  0.055878587  0.055513241            2 
 2808000   0.80794121   -3.8627971    1884.8924  0.055938165  0.055501889            5 
 2809000   0.80874227   -3.8443051    1882.7078  0.055853442  0.055490561            2 
 2810000   0.80213927   -3.8711092      1883.61  0.055860321  0.055479248            4 
 2811000   0.79869511   -3.8623648    1886.4453  0.055924502  0.055467925           10 
 2812000   0.77987177   -3.8777667    1886.1078  0.055894611   0.05545652            4 
 2813000   0.78793727   -3.8781377     1888.618  0.055949106  0.055445165            6 
 2814000    0.7802566   -3.8528448    1888.5624  0.055927576  0.055433621            5 
 2815000   0.81370352   -3.8546487    1892.0888  0.056012103  0.055422328            6 
 2816000   0.79975742   -3.8688239    1884.0451  0.055754175   0.05541094            5 
 2817000   0.81602485   -3.8531908    1892.6226  0.055988124  0.055399608            3 
 2818000   0.79337186    -3.867331    1887.6733  0.055821897  0.055388244            4 
 2819000   0.80289231   -3.8447649     1899.012  0.056137284   0.05537696            5 
 2820000   0.80921152   -3.8755647    1891.9985  0.055910122   0.05536575            9 
 2821000   0.77913453   -3.8513363     1884.656  0.055673402  0.055354334            2 
 2822000    0.8016111   -3.8678434    1890.0476  0.055812886  0.055342903            3 
 2823000   0.80264415   -3.8518542    1892.0211  0.055851372  0.055331603            5 
 2824000   0.79214477   -3.8785797    1892.5758  0.055847964  0.055320346            2 
 2825000   0.79340107   -3.8581996    1892.9633  0.055839626  0.055308958            5 
 2826000   0.81977666   -3.8660504    1894.9543  0.055878576  0.055297455            5 
 2827000   0.79741847   -3.8573007    1889.6419  0.055702215  0.055285937            4 
 2828000   0.78544742   -3.8813352    1883.2647  0.055494598  0.055274386            2 
 2829000   0.78809452   -3.8607292    1882.2372  0.055444715  0.055262655            7 
 2830000   0.79779941   -3.8592915    1887.9716  0.055593981   0.05525107            3 
 2831000   0.80210392   -3.8522808    1891.4359   0.05567632  0.055239545            4 
 2832000   0.80683326   -3.8960061    1887.0659   0.05552807   0.05522797            6 
 2833000    0.7962425   -3.8823991    1891.1456  0.055628475  0.055216359            4 
 2834000   0.80484802   -3.8688977    1894.0103  0.055693082  0.055204852            6 
 2835000   0.80834012   -3.8831268    1894.4391  0.055686039  0.055193272           10 
 2836000    0.7872348   -3.8728316     1892.692  0.055615067  0.055181759            8 
 2837000   0.80339625    -3.859317    1889.4914  0.055501452  0.055170197            3 
 2838000   0.79713774   -3.8803328    1901.1737  0.055824927  0.055158808            3 
 2839000   0.77632501   -3.8662263    1892.9343  0.055563411  0.055147284            7 
 2840000     0.813487   -3.8867472    1892.8393   0.05554106  0.055135796            3 
 2841000    0.8040069   -3.8491702    1893.2242    0.0555328  0.055124237            6 
 2842000   0.78796529   -3.8500583    1891.7113  0.055468897  0.055112666           11 
 2843000   0.79720031   -3.8857597    1892.2413  0.055464923  0.055101184            4 
 2844000   0.77821259   -3.8650647    1894.0996   0.05549987  0.055089761            8 
 2845000    0.7990893   -3.8578194    1895.5794  0.055523709  0.055078241            4 
 2846000   0.80988894    -3.873798    1899.1944  0.055610049  0.055066767            6 
 2847000   0.78778314   -3.8789805    1896.8082  0.055520672   0.05505542            3 
 2848000   0.79910586   -3.8822715    1894.0927  0.055421721  0.055043938            2 
 2849000   0.78403961   -3.8800656     1898.926   0.05554364  0.055032469            4 
 2850000   0.81947228   -3.8809246    1896.6841  0.055458601   0.05502112            3 
 2851000   0.79073201     -3.85337    1900.5983  0.055553557   0.05500978            4 
 2852000   0.78261941   -3.8650035    1897.9003  0.055455244  0.054998462            3 
 2853000   0.78119278   -3.8945237    1900.2602  0.055504739  0.054986983            5 
 2854000   0.78807199    -3.874086    1900.9272  0.055504765  0.054975603            6 
 2855000    0.7876437   -3.8960434    1892.4067  0.055236623  0.054964093           16 
 2856000    0.7897361   -3.8868727    1892.2759  0.055213467  0.054952716            8 
 2857000   0.79895492   -3.9042142    1896.8788  0.055328398  0.054941305            3 
 2858000    0.8061544   -3.8597687    1902.4884  0.055472604  0.054929829            4 
 2859000    0.7930016   -3.8738442     1898.343  0.055332371  0.054918546            4 
 2860000    0.8057969   -3.8720905    1900.2128  0.055367507  0.054907304            2 
 2861000   0.79798974   -3.8885653    1896.5097  0.055240293  0.054895831            7 
 2862000   0.81418834   -3.8697796    1903.3501  0.055420164  0.054884499            4 
 2863000   0.79916837   -3.8709828    1902.2203  0.055367921  0.054873151            3 
 2864000   0.79250011    -3.861757     1903.826   0.05539531  0.054861882            6 
 2865000   0.79256931   -3.8645321    1900.5777  0.055281492  0.054850588            5 
 2866000   0.79073114   -3.8785817    1899.6677  0.055235744  0.054839104            3 
 2867000   0.80054053   -3.8620159     1897.677  0.055158614  0.054827857            4 
 2868000   0.77571961   -3.8733429    1908.2538  0.055446706  0.054816603            4 
 2869000   0.78278686   -3.8718723    1906.3014   0.05537067  0.054805237            4 
 2870000    0.7913367   -3.8742638    1904.4544  0.055297746  0.054793731            5 
 2871000     0.786698   -3.8887443     1899.892  0.055146058  0.054782218            5 
 2872000   0.78727873   -3.8749439     1898.569  0.055088469  0.054770947            6 
 2873000   0.79041979   -3.8877552    1907.5896  0.055330942  0.054759682            5 
 2874000   0.79096584   -3.8973657    1903.7433  0.055200165  0.054748438            4 
 2875000   0.79259016   -3.8657486    1911.3931  0.055402698  0.054737198            3 
 2876000   0.78780634    -3.899176    1911.0386  0.055373162  0.054725944            4 
 2877000   0.79501449    -3.908365    1908.5422  0.055281607  0.054714618            4 
 2878000   0.79888568   -3.8794087    1904.4467  0.055143812  0.054703365            3 
 2879000    0.7965623    -3.882529      1907.76  0.055220561  0.054692115            8 
 2880000   0.77744404   -3.8974855    1903.5643  0.055079987  0.054680803            4 
 2881000   0.79257565   -3.8976037    1909.0654  0.055219987  0.054669518            5 
 2882000   0.79439471     -3.88707    1907.5641  0.055157418  0.054658361            3 
 2883000   0.77801043   -3.8941189    1907.2692   0.05512976  0.054647128            5 
 2884000   0.79430449   -3.9077158    1906.9404  0.055101144  0.054635761            3 
 2885000   0.81875841   -3.8614087    1910.6008  0.055187777  0.054624564            3 
 2886000   0.78664239   -3.8908902    1906.4962  0.055050134  0.054613302            3 
 2887000   0.80559338   -3.8873906    1911.2537   0.05516839  0.054601924            4 
 2888000   0.79533855   -3.9203239    1903.8998  0.054937092  0.054590571            3 
 2889000    0.7812021   -3.8807477     1905.839   0.05497401   0.05457916            7 
 2890000   0.79273872   -3.9041045     1899.673  0.054777193  0.054567757            7 
 2891000   0.78651266   -3.8832385    1915.7421  0.055221438  0.054556448            4 
 2892000   0.78607521   -3.8831015    1907.9844  0.054978804  0.054545168            7 
 2893000   0.78427319   -3.8869717    1911.7176  0.055067336  0.054533772           12 
 2894000   0.79642329   -3.8620775    1909.4174  0.054982071  0.054522428            9 
 2895000   0.80240669   -3.8714359    1910.1281  0.054983537  0.054511158            4 
 2896000   0.79381881   -3.8592377    1914.2848  0.055084162  0.054499934            2 
 2897000   0.79747589   -3.8882004     1910.763  0.054963843  0.054488646            5 
 2898000   0.80344836   -3.8663899    1914.6068  0.055055406   0.05447745            5 
 2899000   0.79076369   -3.9010676    1910.4935  0.054918177  0.054466063            4 
 2900000   0.78333427   -3.8751827    1912.4513  0.054955496  0.054454847            2 
 2901000   0.79657886   -3.8908096    1914.5429  0.054996636  0.054443614            7 
 2902000   0.79450385   -3.9045527    1912.2162  0.054910872  0.054432467            3 
 2903000   0.79179713   -3.8761326    1921.4636  0.055157412  0.054421302            3 
 2904000   0.78551095   -3.8967714    1908.9503  0.054779335  0.054410219            3 
 2905000   0.79312958   -3.8828837    1917.4177  0.055003378  0.054399055            6 
 2906000   0.79714874   -3.8712816    1916.9691  0.054971583  0.054387962            5 
 2907000   0.79254734    -3.899729     1915.716  0.054916753  0.054376847            3 
 2908000   0.78371055    -3.890096    1918.2136  0.054969441   0.05436587            7 
 2909000   0.77497008   -3.8787874    1919.5053  0.054987547  0.054354797           11 
 2910000   0.78574988   -3.8728813    1923.4617   0.05508195  0.054343795            6 
 2911000   0.76689498   -3.8972244    1917.9268   0.05490458  0.054332795            7 
 2912000   0.78830865   -3.8716725    1923.0826   0.05503327  0.054321788            2 
 2913000   0.79187461   -3.8951191    1918.8286  0.054892681  0.054310876            4 
 2914000   0.78340423   -3.8778466    1923.0839  0.054995536  0.054300023            2 
 2915000   0.78118429   -3.8875496    1929.2731  0.055153604  0.054289209            3 
 2916000   0.78633853   -3.8756052    1925.9424  0.055039507  0.054278317            6 
 2917000   0.77333426   -3.9026107    1923.6121  0.054954064    0.0542674            9 
 2918000   0.78258092   -3.9175692    1920.1186  0.054835463  0.054256423           10 
 2919000   0.77533155   -3.8788334    1929.3412  0.055079972  0.054245439            4 
 2920000   0.78802327   -3.9091729    1920.4214  0.054806547  0.054234541            4 
 2921000   0.77885411    -3.894751    1921.1427  0.054808361  0.054223488            7 
 2922000   0.78367096   -3.8861932    1923.3501  0.054852558  0.054212464            2 
 2923000   0.77152968   -3.9167989    1926.0637  0.054911157  0.054201382            2 
 2924000   0.78118245   -3.9020418    1924.7523  0.054855001  0.054190315            6 
 2925000   0.77211621   -3.8952167    1918.3565   0.05465403  0.054179225            3 
 2926000   0.77437579    -3.913345    1921.4382  0.054723119  0.054168178            7 
 2927000   0.78238035   -3.8992507    1926.3026  0.054842916  0.054157284            6 
 2928000   0.76650988   -3.9040138    1921.7058  0.054693358  0.054146307            2 
 2929000   0.77791745   -3.9029604    1923.6163  0.054729039  0.054135188            5 
 2930000   0.79610357   -3.9119414    1922.1006  0.054667252  0.054124013            2 
 2931000   0.79197525   -3.8954719    1930.2869   0.05488135  0.054112928            7 
 2932000   0.79153723   -3.8976591    1932.4755  0.054924837  0.054101856            5 
 2933000   0.76842625   -3.9257768    1929.3535  0.054817408  0.054090793            4 
 2934000   0.77816835   -3.9006373     1924.931  0.054673114  0.054079713            4 
 2935000   0.79462486   -3.8836461    1927.3389  0.054722854  0.054068736            4 
 2936000   0.78563064   -3.8839808    1922.5401  0.054568009  0.054057687            8 
 2937000   0.78674795   -3.8895249    1927.3187  0.054685017  0.054046617            7 
 2938000   0.78470435   -3.8705634     1932.595   0.05481606  0.054035576            4 
 2939000   0.78781828    -3.896754    1926.2934  0.054618731  0.054024598            3 
 2940000   0.77920954   -3.8868341    1924.4258  0.054547218  0.054013733            8 
 2941000   0.77488038   -3.8943883    1930.0681  0.054688544  0.054002847           13 
 2942000   0.78388515   -3.8750741     1927.591  0.054599791  0.053991981            5 
 2943000   0.77874558   -3.8908521    1932.5011   0.05472027  0.053981111            5 
 2944000   0.78206149   -3.9061183    1935.6603   0.05479111  0.053970233            3 
 2945000   0.77978764   -3.9121238    1936.8202  0.054805324  0.053959465            4 
 2946000   0.78848935   -3.8861059    1931.4162  0.054633858  0.053948529            2 
 2947000   0.77158166   -3.9107035    1938.5314   0.05481652  0.053937879            5 
 2948000   0.76588419   -3.8897948      1937.94  0.054781208  0.053927066            3 
 2949000   0.77054582   -3.8865267    1931.9849   0.05459435  0.053916188            4 
 2950000   0.77629775   -3.9203359    1928.6058   0.05448039  0.053905347            5 
 2951000   0.77176381    -3.893313    1931.1654  0.054534209  0.053894577            4 
 2952000   0.78607323   -3.9176754    1929.7774  0.054476552  0.053883877            4 
 2953000   0.76977066   -3.9112886    1936.2658  0.054641206  0.053872961            4 
 2954000   0.78670108   -3.8942914    1937.7766   0.05466533  0.053862121            2 
 2955000   0.75863345   -3.9134613    1930.0105   0.05442782  0.053851179            6 
 2956000   0.78575349   -3.8952874    1935.6066  0.054567169   0.05384026           11 
 2957000   0.76343581   -3.9031931    1941.7834  0.054722789   0.05382943            7 
 2958000   0.76430416   -3.8855016    1934.1654  0.054489671  0.053818605            6 
 2959000    0.7782345   -3.8819672    1940.0827  0.054637903  0.053807681            5 
 2960000   0.79244791   -3.9021603    1940.1117  0.054620262  0.053796734            4 
 2961000   0.77029512   -3.9106927    1937.2995  0.054522671  0.053785822            8 
 2962000   0.78038835   -3.9177492    1931.4835  0.054340633  0.053775029            5 
 2963000   0.77295335   -3.9082254    1936.8972  0.054474554  0.053764176            5 
 2964000   0.77900928   -3.8959111    1938.6186  0.054504573  0.053753296            3 
 2965000    0.7804285   -3.9117661    1936.0325  0.054413505  0.053742403            9 
 2966000   0.78534216   -3.9196208    1944.2462  0.054625933  0.053731462            3 
 2967000   0.76570705   -3.9083063    1937.4295  0.054416064  0.053720581            6 
 2968000   0.77193028   -3.8990789    1935.8032  0.054352066  0.053709788            3 
 2969000   0.77348542   -3.9018755    1930.7969  0.054193243  0.053698893            4 
 2970000    0.7573354   -3.9132892    1937.5789  0.054365288  0.053687728            7 
 2971000    0.7571025    -3.928439    1942.2506  0.054478027  0.053676724            8 
 2972000   0.78544949   -3.9031014    1934.6283   0.05424597  0.053665663            6 
 2973000   0.77248668   -3.9010771    1934.9493  0.054236721  0.053654794            5 
 2974000   0.77732498   -3.9155582    1934.9885  0.054219585  0.053643826            7 
 2975000   0.78490085   -3.9092783    1938.7484  0.054306677  0.053632933            4 
 2976000   0.77423919   -3.9346024    1933.4057  0.054138824  0.053621978            5 
 2977000   0.76869044   -3.8948637    1938.8508  0.054273061  0.053610982            5 
 2978000   0.75364065   -3.8985936    1942.8576  0.054366959  0.053600106            4 
 2979000   0.78054132    -3.928365    1937.0396  0.054185956  0.053589235            8 
 2980000   0.78045248    -3.922236    1938.7116  0.054214529  0.053578378            6 
 2981000    0.7711453   -3.9282306    1939.1001  0.054207204   0.05356743            3 
 2982000   0.77631285   -3.9185391    1942.6595  0.054288496  0.053556426            4 
 2983000    0.7925203   -3.9133985    1938.8429  0.054163673  0.053545569            6 
 2984000    0.7903912   -3.9165493    1944.3162  0.054298374  0.053534604            8 
 2985000   0.77210075   -3.9105731    1933.8678  0.053988493  0.053523819            4 
 2986000   0.75749671   -3.9261894    1943.0343   0.05422623  0.053512858            4 
 2987000   0.76805858   -3.9057506    1940.9681  0.054150432  0.053502018            7 
 2988000    0.7604088   -3.9276256    1946.4003  0.054283811  0.053491016            4 
 2989000   0.76946026   -3.9274111    1939.4356  0.054071474  0.053480108            4 
 2990000   0.76087995   -3.9174601    1943.6335  0.054170386  0.053469101            4 
 2991000   0.76474321    -3.893039    1942.6055  0.054123636  0.053458223            4 
 2992000    0.7736604   -3.9209218    1939.0885   0.05400759  0.053447343            3 
 2993000   0.77648514   -3.9267397    1946.5003  0.054195909  0.053436421            3 
 2994000   0.77618362   -3.9027632    1940.2272  0.054003207  0.053425453            7 
 2995000   0.75335894   -3.9198905    1945.3722   0.05412833  0.053414553            4 
 2996000   0.77221308   -3.9382301     1942.122  0.054019861  0.053403623            5 
 2997000   0.77349472   -3.9364278    1942.0227  0.053999073  0.053392637           10 
 2998000   0.79418616   -3.9059615     1939.546  0.053912221  0.053381714            6 
 2999000   0.76760571   -3.9286204    1949.2868  0.054164911  0.053370798            8 
 3000000   0.77796367   -3.9422191     1946.353  0.054065362  0.053359879            7 
 3001000   0.77870573    -3.904325    1946.8896  0.054062246   0.05334895           11 
 3002000   0.77740321   -3.9035014    1942.0331  0.053909424  0.053338152            7 
 3003000   0.75888309   -3.9101205    1945.7426  0.053994412  0.053327174            3 
 3004000   0.76872448   -3.9511868    1939.2327  0.053795846  0.053316237            4 
 3005000   0.75779086   -3.8952659    1948.5616  0.054036649  0.053305303            5 
 3006000   0.79103724   -3.9120402    1944.9054  0.053917316  0.053294478            4 
 3007000   0.76480181   -3.9295475    1946.7693  0.053951038  0.053283481            6 
 3008000   0.78078334   -3.9413315    1946.4455  0.053924132  0.053272572            9 
 3009000   0.76490941   -3.9371329    1940.0905  0.053730212  0.053261634            4 
 3010000   0.76944789   -3.9336286    1941.0851  0.053739898  0.053250782           13 
 3011000   0.77938571   -3.9236396    1951.9011  0.054021396  0.053239832            6 
 3012000    0.7655773   -3.8965673    1946.5518  0.053855462   0.05322896            6 
 3013000   0.76550964    -3.925858    1946.8635  0.053846207  0.053217996           12 
 3014000   0.76184871   -3.9388653    1940.6052  0.053655309  0.053207112            8 
 3015000   0.76124984   -3.9089676    1951.9343  0.053950644  0.053196252            4 
 3016000   0.76767346   -3.9242328    1948.7109  0.053843693  0.053185461            8 
 3017000   0.76652681   -3.9122991    1945.6285  0.053740706   0.05317453            5 
 3018000   0.76448412   -3.9660859    1944.6643  0.053696274  0.053163474            5 
 3019000   0.77648435   -3.9202822     1951.226   0.05385961  0.053152367            3 
 3020000    0.7699077   -3.9519503    1945.7208  0.053689868  0.053141425            8 
 3021000   0.75704031   -3.9415497    1945.0336  0.053653138  0.053130291            6 
 3022000   0.76771643   -3.9397106     1950.729  0.053792438  0.053119346            5 
 3023000   0.75490071   -3.9220078    1952.4543  0.053822206  0.053108447            3 
 3024000   0.75524354    -3.931149    1943.6519  0.053561837  0.053097509            6 
 3025000   0.77871477   -3.9047369    1951.6416  0.053764232  0.053086633            5 
 3026000   0.77884026   -3.9016143     1950.728  0.053721304  0.053075717           10 
 3027000   0.76858095   -3.9216484    1953.7546   0.05378688  0.053064836            6 
 3028000   0.76967088    -3.936857    1948.2784  0.053618406  0.053054002            6 
 3029000   0.77268704   -3.9420334    1944.5156  0.053497182  0.053043081            9 
 3030000    0.7678314   -3.9080627    1951.2856  0.053665721   0.05303209            3 
 3031000   0.75312428   -3.9233567    1947.8242  0.053552848  0.053021129            4 
 3032000   0.76607789   -3.9467045    1953.1729  0.053682192  0.053010111            6 
 3033000   0.75717487    -3.950802    1954.1998  0.053692708   0.05299909            6 
 3034000   0.77866189   -3.9294301    1951.8078   0.05360931  0.052988141            5 
 3035000   0.76146672   -3.9344813    1949.3757  0.053524867  0.052977111            6 
 3036000   0.78036595   -3.9251421    1946.7023  0.053433856  0.052966035            8 
 3037000   0.77687025   -3.9241867    1951.4951  0.053547774  0.052955053            7 
 3038000   0.76864575   -3.9428071    1949.4696  0.053474589  0.052944006           12 
 3039000   0.76385038   -3.9454175     1950.689   0.05349043  0.052932988            6 
 3040000   0.77215389   -3.9117682    1953.5967  0.053552541  0.052922112            6 
 3041000   0.76812507   -3.9129056    1952.2605  0.053498315  0.052911105            4 
 3042000   0.76260698   -3.9224617    1946.2077  0.053314915  0.052900002            8 
 3043000   0.74755664   -3.9157174     1956.884  0.053589768  0.052888986            4 
 3044000   0.77202255   -3.9177109    1957.5096  0.053589292  0.052878081            7 
 3045000   0.76675946   -3.9468009    1954.0145  0.053476039   0.05286706            6 
 3046000   0.77893587   -3.9331266    1958.5953  0.053583806   0.05285603            5 
 3047000   0.77966289   -3.9675182    1949.9259  0.053329119  0.052844938            7 
 3048000    0.7663076    -3.927388    1958.7017  0.053551555   0.05283396            5 
 3049000   0.77437044   -3.9352366    1952.5857  0.053366835  0.052823046            4 
 3050000   0.75905673   -3.9304678    1952.2987  0.053341493  0.052812114            8 
 3051000   0.75776121   -3.9311087    1957.7616  0.053473222  0.052801236            7 
 3052000   0.77146693   -3.9285729    1957.2789  0.053442523  0.052790379            4 
 3053000   0.77156328   -3.9406851    1953.8739  0.053332076  0.052779599            7 
 3054000    0.7670278   -3.9077847    1959.4593  0.053467019  0.052768719            6 
 3055000   0.75865169     -3.92591    1963.3771  0.053556386  0.052757813            4 
 3056000   0.77378999   -3.9191159    1961.9322   0.05349946  0.052746887            8 
 3057000   0.76184275   -3.9308019    1960.7598  0.053449999  0.052736066            6 
 3058000   0.76414447   -3.9292474    1956.6165  0.053319613  0.052725129            6 
 3059000   0.76638445   -3.9229873    1960.2569  0.053401354  0.052714204            5 
 3060000   0.75940619   -3.9296226    1960.6206  0.053393809  0.052703297            6 
 3061000   0.76231088   -3.9370655    1961.4997  0.053400298  0.052692396            4 
 3062000     0.759418    -3.918438    1963.0949   0.05342627  0.052681391            5 
 3063000   0.77607534   -3.9424504    1955.3848  0.053199065  0.052670373            5 
 3064000   0.74968263   -3.9546931    1962.1741  0.053366353  0.052659369            8 
 3065000   0.77407821   -3.9197441     1959.608  0.053279174   0.05264844            4 
 3066000   0.75706375   -3.9274176    1954.1375   0.05311311  0.052637387            2 
 3067000   0.75726072   -3.9275844    1964.9794  0.053390377  0.052626485            4 
 3068000   0.75743383   -3.9467826     1960.993  0.053264694   0.05261554            7 
 3069000   0.73750265   -3.9461746      1960.51  0.053234225  0.052604608            4 
 3070000   0.74195832   -3.9444633    1960.6197  0.053219862  0.052593554            3 
 3071000    0.7519451   -3.9368165    1959.3964  0.053169336  0.052582597            4 
 3072000   0.75024763   -3.9590168    1964.3386  0.053286096  0.052571713            6 
 3073000   0.75592698   -3.9269408    1964.9419  0.053285115  0.052560759            8 
 3074000   0.75647248   -3.9347896    1962.2056  0.053193602  0.052549976            4 
 3075000   0.75613524    -3.903497     1963.582  0.053213604  0.052539126            4 
 3076000   0.75354043   -3.9547185    1965.5604  0.053249902   0.05252835            5 
 3077000   0.76620949   -3.9319761    1962.6945   0.05315498  0.052517468            7 
 3078000   0.77053347   -3.9389026    1961.4896   0.05310509  0.052506573            7 
 3079000   0.76878896   -3.9348434    1964.2924    0.0531637  0.052495724            4 
 3080000   0.74760196   -3.9463088    1965.7695  0.053186404  0.052484956            5 
 3081000   0.75286753   -3.9453706    1966.9973  0.053202351  0.052474174            3 
 3082000   0.75883274   -3.9477633    1966.4386  0.053169981  0.052463357            6 
 3083000   0.75816529   -3.9376757    1965.1649  0.053118307  0.052452584            5 
 3084000   0.76586314   -3.9304157    1967.0664  0.053152465  0.052441693            6 
 3085000   0.74810797    -3.951153    1964.5037   0.05306601  0.052430863            3 
 3086000   0.76345843   -3.9237846     1971.257  0.053231178  0.052420082            3 
 3087000    0.7661056   -3.9517666    1966.1062  0.053074889   0.05240928            9 
 3088000    0.7549018   -3.9367409    1962.3071  0.052955178  0.052398466            5 
 3089000   0.77573183   -3.9460301    1964.7951  0.053005156  0.052387567           12 
 3090000   0.74854346   -3.9256208    1969.8121  0.053123304  0.052376586            6 
 3091000   0.75243589   -3.9348813    1966.4344  0.053015056  0.052365577            4 
 3092000   0.75674685   -3.9304363    1969.4489  0.053079153  0.052354613            9 
 3093000   0.76468312    -3.937979    1971.7258  0.053123338   0.05234372            4 
 3094000   0.76638116   -3.9911134    1958.7769  0.052757404  0.052332703            6 
 3095000   0.76060461   -3.9468447    1963.9599   0.05287991  0.052321728            5 
 3096000    0.7567858   -3.9384931    1963.7679  0.052857663  0.052310757            7 
 3097000   0.76438696   -3.9731834    1965.5584  0.052888775   0.05229969            5 
 3098000   0.76078506    -3.944188    1970.2876  0.052998913   0.05228878            9 
 3099000   0.75182826    -3.931873    1967.8179  0.052915399  0.052277875            5 
 3100000   0.76344525   -3.9665895    1963.2025  0.052774261  0.052266948            4 
 3101000   0.75727938   -3.9452373    1966.5102  0.052846129  0.052255942            5 
 3102000   0.73788468   -3.9352406     1961.348  0.052690416  0.052244963            5 
 3103000   0.76549982   -3.9511923    1967.2695  0.052832461  0.052233991            5 
 3104000   0.75244115   -3.9595192     1968.011  0.052835346  0.052223045            7 
 3105000   0.73665334   -3.9558226    1965.7641  0.052758027  0.052212059            4 
 3106000   0.75063179   -3.9536557    1968.0255  0.052801713  0.052201224            6 
 3107000   0.76223404   -3.9341846    1967.7014  0.052776027  0.052190307            3 
 3108000    0.7527072   -3.9271397    1968.3681  0.052776921   0.05217932            5 
 3109000   0.75530507   -3.9743477    1969.2071  0.052782434  0.052168369            7 
 3110000    0.7746261    -3.947252    1970.4578  0.052798976  0.052157515            7 
 3111000   0.74945946   -3.9522891    1970.2546  0.052776562  0.052146657            3 
 3112000   0.76256037   -3.9562482    1972.1874  0.052811359  0.052135586            7 
 3113000   0.74465474    -3.968775    1972.2599  0.052796336  0.052124666            6 
 3114000   0.74305473   -3.9733652    1972.5545  0.052787265  0.052113758            3 
 3115000   0.74791995   -3.9574459    1969.3649  0.052684988  0.052102806            4 
 3116000   0.75409375   -3.9472549    1974.3825   0.05280227  0.052091873            6 
 3117000   0.76325143   -3.9580596    1971.3916  0.052705368   0.05208088            3 
 3118000   0.73483899   -3.9468529    1977.1115  0.052841339  0.052070058            3 
 3119000   0.75000871   -3.9341179    1974.1719  0.052745856  0.052059114            5 
 3120000    0.7458709   -3.9488857    1974.6695  0.052742242  0.052048197            5 
 3121000   0.73929705   -3.9291567    1971.5325   0.05264158  0.052037292            4 
 3122000   0.76923293   -3.9421538    1974.3449  0.052699789  0.052026275            5 
 3123000   0.73837894   -3.9364561    1973.7946  0.052668231  0.052015248            8 
 3124000   0.74951412   -3.9327053    1971.5422  0.052591287  0.052004338           16 
 3125000   0.74424325   -3.9577661    1974.4154  0.052651078  0.051993499            4 
 3126000   0.73079462   -3.9492021    1975.2128  0.052655491  0.051982576            7 
 3127000   0.74282041   -3.9712603    1973.8628  0.052602675  0.051971679            4 
 3128000   0.75782458   -3.9648863    1974.4859   0.05260246  0.051960715            4 
 3129000   0.74405592   -3.9532293    1973.8851  0.052569647  0.051949742            5 
 3130000   0.74282341   -3.9607452    1973.3818   0.05253945  0.051938909            3 
 3131000   0.75746226    -3.948347    1972.1859  0.052490841  0.051928053            9 
 3132000   0.76761489   -3.9231145    1981.8333  0.052730771  0.051917216           13 
 3133000   0.75024662   -3.9664448    1977.1066  0.052588217  0.051906459            4 
 3134000   0.77288013   -3.9459557    1979.6871  0.052640053   0.05189551            8 
 3135000   0.74811192   -3.9749147     1971.907  0.052416455  0.051884595            4 
 3136000   0.73442976   -3.9393816    1970.7322  0.052368521   0.05187369            4 
 3137000   0.76147027   -3.9437094    1980.0499  0.052599348  0.051862939            7 
 3138000   0.74426006    -3.940383    1976.6091  0.052491211  0.051852125            6 
 3139000   0.75116735   -3.9547201    1976.6715  0.052476148  0.051841437            4 
 3140000   0.74149362   -3.9608406    1982.4341  0.052612369  0.051830749            3 
 3141000    0.7583907   -3.9559163    1976.3362  0.052433837  0.051819974            7 
 3142000   0.74893862   -3.9670255    1983.0673  0.052595674  0.051809242            3 
 3143000   0.74666525   -3.9577424     1981.187  0.052529085  0.051798578            5 
 3144000   0.73968309   -3.9567583    1981.3237  0.052516002  0.051787859           10 
 3145000   0.75192538   -3.9665567     1986.652  0.052640489  0.051777201            6 
 3146000   0.75702178    -3.957928     1984.125  0.052556818  0.051766631            7 
 3147000    0.7449834   -3.9351713    1983.5186  0.052524061  0.051756056            6 
 3148000   0.75150043   -3.9652341    1981.7311  0.052460057  0.051745447            3 
 3149000   0.76187572   -3.9739434    1984.6208  0.052519869  0.051734808            8 
 3150000   0.73333082   -3.9541033    1983.7552  0.052480296  0.051724182            5 
 3151000   0.74446625   -3.9709375    1982.6113  0.052433389  0.051713547           15 
 3152000   0.74248613   -3.9711596    1985.3022  0.052487898  0.051702846           11 
 3153000   0.75311934   -3.9574465    1987.4478  0.052527956  0.051692125            4 
 3154000   0.73303355   -3.9605111    1987.4292  0.052510813  0.051681453           13 
 3155000   0.74207363   -3.9226524     1988.847  0.052531616  0.051670809            8 
 3156000   0.75667971   -3.9635022    1985.6036  0.052429329   0.05166017            3 
 3157000   0.73790509   -3.9736408    1978.2505  0.052218627  0.051649411            6 
 3158000    0.7763687   -3.9484745    1992.2789  0.052572274   0.05163869            5 
 3159000   0.75684262   -3.9505357    1985.0738  0.052365563  0.051628044           12 
 3160000   0.75195454    -3.981989    1982.9535  0.052293078  0.051617365            3 
 3161000   0.74045778   -3.9784554    1987.0027  0.052383283   0.05160669            9 
 3162000   0.76150861   -3.9559553    1984.0876  0.052289892  0.051595908            3 
 3163000   0.75221156   -3.9483021    1986.6636  0.052341227  0.051585273            8 
 3164000   0.75160917   -3.9487918    1989.5498  0.052400701  0.051574712            5 
 3165000   0.73545383   -3.9766021    1989.5459  0.052384043  0.051564042            9 
 3166000   0.75825231   -3.9262156    1987.7401  0.052319964  0.051553377            7 
 3167000   0.73862512   -3.9754828    1987.9941  0.052310129  0.051542704            8 
 3168000   0.74945911   -3.9665133    1981.7723  0.052129953  0.051532029            6 
 3169000   0.74693074    -3.966031    1980.3011  0.052074816  0.051521299           14 
 3170000   0.75176801   -3.9551523    1987.4729  0.052246923  0.051510649            6 
 3171000   0.74126409   -3.9543978    1992.8712  0.052372311  0.051499918            4 
 3172000   0.74264957   -3.9808109    1982.8613  0.052092825  0.051489176            5 
 3173000    0.7402029   -3.9418771     1987.662  0.052202489  0.051478592            4 
 3174000   0.74302311   -3.9546409     1990.502  0.052260608  0.051468031            6 
 3175000   0.73220287   -3.9794469    1988.4786   0.05219104  0.051457438            5 
 3176000   0.75029822   -3.9868752    1991.7688  0.052260935  0.051446875            8 
 3177000    0.7452639   -3.9955445    1991.2059  0.052229722  0.051436216            5 
 3178000   0.74760763    -3.962199    1991.2116  0.052213437  0.051425634            5 
 3179000   0.73427955    -3.979293    1986.5078  0.052073707  0.051414999            5 
 3180000   0.74238522   -3.9632138    1986.3622  0.052053518  0.051404381           13 
 3181000    0.7441506   -3.9651639    1990.4673  0.052144695   0.05139379            6 
 3182000   0.73395632   -3.9678021    1987.4381  0.052048977  0.051383135            7 
 3183000   0.74512908   -3.9571827    1992.8646  0.052174693  0.051372408            4 
 3184000   0.74259164   -3.9776557    1990.3525  0.052092559  0.051361818           11 
 3185000   0.72503121   -3.9722625    1985.1381  0.051939772  0.051351137            6 
 3186000   0.74019654   -3.9719552    1994.1663  0.052159612  0.051340449            5 
 3187000    0.7303237   -3.9566612     1988.736  0.052001254  0.051329734            7 
 3188000    0.7389399   -3.9600608    1991.5126  0.052057523   0.05131916            4 
 3189000    0.7383324   -4.0059177    1988.3945  0.051959718   0.05130855            5 
 3190000   0.73554077   -3.9831242    2002.5723    0.0523138  0.051298007            7 
 3191000    0.7357328   -3.9625186    1997.1038  0.052154595  0.051287542            4 
 3192000   0.72124671   -3.9443953     1997.129  0.052138914  0.051277099            5 
 3193000   0.73100413   -3.9475484    1992.4381  0.052000159  0.051266637            9 
 3194000   0.73499496    -3.977393    1997.9758  0.052128359  0.051256094            4 
 3195000   0.75984718   -3.9673283    1986.8405  0.051821609  0.051245446            4 
 3196000   0.74967734   -3.9679252    1996.7859  0.052064713  0.051234948            7 
 3197000   0.75101306   -3.9728511    1993.1456   0.05195354   0.05122445           10 
 3198000   0.75482382   -3.9802337    1991.8816  0.051904356  0.051213892            8 
 3199000   0.73389345   -3.9847552    1994.6406  0.051960004  0.051203279           10 
 3200000   0.74731159   -3.9628595    2001.7645  0.052129283  0.051192699            5 
 3201000   0.75785437   -3.9809174    1999.3063  0.052049003  0.051182102            7 
 3202000   0.73323359   -3.9874708    1990.5119   0.05180387  0.051171488            4 
 3203000   0.73658081   -4.0034356    1993.8398  0.051874279  0.051160861            4 
 3204000   0.74130894    -3.974685    1998.7655  0.051986203  0.051150186            8 
 3205000   0.73422329   -3.9733873    1999.8047  0.051997002  0.051139499            3 
 3206000   0.72439151   -3.9759532    1996.5536  0.051896277  0.051128872            4 
 3207000   0.73231844   -3.9795152    1997.0028  0.051891767  0.051118294            9 
 3208000   0.72349517   -3.9909111    1991.1214  0.051722813  0.051107603            7 
 3209000   0.73756785   -3.9871571    1996.7126  0.051851891  0.051096958           13 
 3210000   0.74638383   -3.9741153    2000.2783  0.051928304   0.05108634           10 
 3211000   0.73985953   -3.9709312     1998.427  0.051864088  0.051075721            4 
 3212000   0.71847589   -3.9918048    1997.2335  0.051816975  0.051065185            6 
 3213000   0.73009669   -4.0012143    1997.4748  0.051807106  0.051054601            6 
 3214000   0.72662983   -3.9834414      2001.59  0.051897688  0.051044027            2 
 3215000   0.74855112   -3.9709524     1995.908  0.051734267  0.051033436            8 
 3216000   0.74344212    -3.990573    2001.5184  0.051863557  0.051022874            5 
 3217000   0.74064039   -3.9767353    1997.0548   0.05173181  0.051012341            4 
 3218000   0.73353792   -3.9713277    2004.9703  0.051920713  0.051001862            6 
 3219000   0.75470241   -3.9926518    1995.9925  0.051672167  0.050991318            9 
 3220000   0.73069642    -3.988597    1998.5897  0.051723337  0.050980677            7 
 3221000   0.72480897   -3.9600422     2006.134  0.051902464   0.05097004            4 
 3222000   0.73989373   -3.9742686    2004.6722  0.051848545  0.050959522            4 
 3223000   0.74388622   -3.9832151    2000.7784  0.051731781  0.050948948           14 
 3224000   0.73091479   -3.9609374    2006.1809  0.051855378  0.050938495           14 
 3225000   0.73576701   -3.9987765    1997.2765  0.051609212  0.050928008            8 
 3226000   0.74653078   -3.9619824    2010.8103  0.051942815  0.050917561            5 
 3227000   0.73420186   -3.9874936    2006.6162  0.051818411  0.050907129            7 
 3228000   0.73921912   -3.9800417    2004.7626  0.051754507  0.050896712            3 
 3229000   0.75873961   -3.9746275    2007.3787  0.051805996   0.05088625            5 
 3230000     0.728888   -3.9762587    1998.2445  0.051554295  0.050875712            4 
 3231000   0.73047054    -3.993616    2006.9982  0.051764114  0.050865286            6 
 3232000   0.72202196   -4.0087048    2000.5656  0.051582241  0.050854803            4 
 3233000   0.73385478   -3.9717164    2009.6778  0.051801159  0.050844278            3 
 3234000   0.72039432   -3.9841869     1999.069  0.051511775  0.050833821            7 
 3235000   0.73907306   -3.9703171    2008.6593  0.051742898  0.050823261            5 
 3236000   0.74781453   -3.9943723     2004.196  0.051611969  0.050812786            7 
 3237000   0.72340587   -3.9760372    2009.0296  0.051720462  0.050802329            6 
 3238000   0.74002666   -3.9880706     2008.193  0.051682958  0.050791731            6 
 3239000   0.74129067   -4.0044823    2007.0243  0.051636934  0.050781136            6 
 3240000   0.71432628   -3.9791004    2003.7773  0.051537482  0.050770596            4 
 3241000   0.71869922   -3.9750432    2005.0587  0.051554527  0.050760017            4 
 3242000   0.72500788   -3.9941742     2006.104  0.051565494  0.050749493            5 
 3243000   0.73323349   -3.9894423    2002.9433  0.051468375  0.050738874           15 
 3244000   0.73361246   -3.9864373    2005.1569  0.051509375  0.050728327            8 
 3245000   0.73007829   -3.9496143    2008.2545  0.051573048  0.050717796            4 
 3246000   0.73205082   -3.9662006    2006.8226  0.051520399  0.050707234            8 
 3247000   0.72769923   -4.0118588    2004.8207  0.051453155   0.05069651            5 
 3248000   0.72494487   -3.9815955    2006.5245  0.051481028  0.050685879            2 
 3249000   0.73380616   -3.9659527    2010.1419  0.051557965   0.05067531           12 
 3250000   0.73446151   -3.9841336    2004.9088  0.051407917   0.05066486            7 
 3251000   0.72910638   -3.9864882    2005.7442  0.051413518  0.050654376            7 
 3252000   0.73369611   -3.9854797    2008.3553  0.051464619  0.050643786           11 
 3253000   0.72919018   -3.9872911    2008.8403  0.051461222  0.050633162           10 
 3254000   0.75208856   -3.9727766    2005.0868  0.051349282  0.050622679           10 
 3255000   0.72520695   -3.9780535    2009.9229   0.05145732  0.050612206            4 
 3256000   0.74218235   -4.0269549    2002.1801  0.051243348  0.050601638           10 
 3257000   0.73758292   -3.9993342    2006.1393  0.051328914  0.050591039            4 
 3258000   0.72960232   -3.9817941    2008.7179  0.051379115    0.0505805            2 
 3259000   0.74231667   -3.9813207    2007.8551  0.051341289  0.050569993            7 
 3260000   0.72591666   -4.0003677     2006.345  0.051286939  0.050559497            4 
 3261000   0.73109247   -3.9833593    2009.4332  0.051350127  0.050548999           10 
 3262000   0.72021319   -3.9664341    2013.8913  0.051448276  0.050538365            3 
 3263000   0.72400625   -3.9729806    2006.5001  0.051243746  0.050527869            6 
 3264000   0.74086091   -3.9892764    2012.7088  0.051386562  0.050517399            4 
 3265000    0.7360799   -3.9975154    2011.2844  0.051334466  0.050506954           11 
 3266000   0.73098241   -4.0130778    2014.8374  0.051409405  0.050496469            6 
 3267000   0.71840957   -3.9901362    2005.5803  0.051157542  0.050486034            8 
 3268000   0.73443963   -3.9821228    2013.3339  0.051339603   0.05047562            2 
 3269000    0.7233234   -3.9918424    2007.9279   0.05118609  0.050465101            5 
 3270000   0.72932402   -3.9958167     2017.568  0.051416107  0.050454529            4 
 3271000   0.72968215   -3.9999756    2007.3677  0.051140519  0.050444053           14 
 3272000   0.71919113   -3.9924842    2014.4493  0.051305248   0.05043361            9 
 3273000   0.73244997   -4.0041316    2018.6681  0.051396987  0.050423172            8 
 3274000   0.71470491    -3.991263     2009.012  0.051135512  0.050412748            2 
 3275000   0.73386228   -4.0095046    2012.9347  0.051219714  0.050402179           11 
 3276000   0.74056837   -3.9971204    2012.5871  0.051195234  0.050391779            3 
 3277000   0.74282709   -4.0109202     2017.259  0.051298418  0.050381183            3 
 3278000   0.71262011   -3.9997032       2016.8  0.051271101  0.050370738            9 
 3279000   0.72329177   -3.9965348    2016.4283  0.051246017  0.050360306            7 
 3280000   0.72948861   -3.9993084    2017.3135  0.051252883  0.050349941            6 
 3281000   0.72874072   -4.0194779    2008.5925  0.051015761  0.050339551            4 
 3282000   0.73184566   -4.0269027      2012.09  0.051089021   0.05032915            4 
 3283000   0.74126838   -3.9823032    2017.1942   0.05120302  0.050318703            6 
 3284000   0.72519638   -3.9893505    2020.2043  0.051263812  0.050308317            6 
 3285000   0.72497576   -3.9868096    2016.6973  0.051159242  0.050297998            4 
 3286000   0.71759186   -3.9870528    2019.1089  0.051204832  0.050287592            8 
 3287000   0.72007773   -3.9899385    2016.1487  0.051114204  0.050277116            5 
 3288000   0.72531666   -3.9780857    2019.7529  0.051190006  0.050266716            5 
 3289000   0.73059164   -3.9803687    2019.9816  0.051180236  0.050256221           10 
 3290000   0.72420526   -4.0049677    2015.4942  0.051051018  0.050245666            5 
 3291000    0.7189197   -4.0022271    2016.5763  0.051062905  0.050235168            4 
 3292000   0.71989034   -4.0112435    2015.7097  0.051025457  0.050224751           13 
 3293000    0.7147467   -3.9966847    2020.5752  0.051133091   0.05021431            6 
 3294000    0.7255361   -4.0301371    2012.5801  0.050915303  0.050203771            4 
 3295000   0.72938266   -4.0262727    2018.1408  0.051040485  0.050193195            5 
 3296000   0.71960953   -4.0050428    2016.5442  0.050984634  0.050182696            9 
 3297000   0.71646951    -3.984132     2016.867  0.050977327  0.050172266            6 
 3298000   0.72402117   -4.0079447    2018.2556  0.050996958  0.050161858            7 
 3299000   0.72830821   -3.9960303    2022.3148  0.051084035  0.050151514            7 
 3300000   0.73372242   -4.0127599    2020.5098  0.051022976  0.050141132            4 
 3301000   0.72571552   -3.9917958    2019.5602  0.050983545  0.050130644            5 
 3302000   0.73355698   -3.9662126    2022.9881  0.051054616  0.050120314            4 
 3303000    0.7123144   -3.9910372    2024.2331  0.051070571  0.050109878            6 
 3304000   0.70621143   -3.9959142    2016.3831  0.050857121   0.05009937            4 
 3305000    0.7212296    -4.001774    2022.4651  0.050995086  0.050088914            8 
 3306000   0.71733872   -4.0046802    2018.1886  0.050871865  0.050078424           10 
 3307000   0.70994676   -4.0213057    2020.9898  0.050927069  0.050067877            2 
 3308000   0.73671333   -4.0087312    2019.5757   0.05087605  0.050057472            5 
 3309000   0.73706246   -3.9973421    2023.8563  0.050968477  0.050047079            4 
 3310000   0.72259135   -4.0073667    2024.6518  0.050973107  0.050036656            3 
 3311000   0.72790812   -3.9747737    2025.1609  0.050970526  0.050026315            4 
 3312000   0.70522941   -4.0216733     2025.476  0.050963064  0.050015838            6 
 3313000   0.71544942   -4.0056271    2017.6282  0.050750281  0.050005242            7 
 3314000   0.71687157    -4.015722    2018.1465  0.050748001  0.049994735            6 
 3315000   0.72197692   -4.0243222    2024.2293  0.050885602  0.049984182           10 
 3316000   0.71961671   -3.9974012    2026.4012  0.050924838  0.049973764            4 
 3317000    0.7056675   -3.9983862    2023.7142  0.050841981  0.049963296            3 
 3318000   0.70817799   -4.0124022    2023.0764  0.050810638  0.049952808            7 
 3319000    0.7299518   -4.0161991    2020.8071  0.050738352  0.049942277           13 
 3320000    0.7236808   -4.0110803    2020.7421  0.050721438  0.049931816            5 
 3321000   0.71609056   -3.9989859    2022.4386  0.050748735  0.049921267            9 
 3322000   0.70258643   -4.0106838    2013.5241  0.050509836  0.049910729           16 
 3323000   0.73738091   -4.0226951    2023.9952  0.050757227  0.049900245            7 
 3324000   0.71240784   -4.0232434    2020.1678  0.050646003  0.049889708            5 
 3325000    0.7406029   -4.0096719    2024.6479  0.050743056  0.049879295            4 
 3326000   0.71401262   -3.9894205    2029.6983  0.050854337  0.049868773            5 
 3327000    0.7190865   -4.0329276    2021.2091  0.050626417  0.049858281            6 
 3328000   0.69400084   -4.0323744    2017.6437  0.050521927  0.049847751            5 
 3329000   0.70960696   -4.0170038    2023.3557  0.050649738  0.049837238            5 
 3330000   0.73301289    -3.996639    2022.4562  0.050612018  0.049826802            6 
 3331000   0.72512788   -4.0107279    2024.4113  0.050645734  0.049816311            5 
 3332000   0.71438086   -3.9823857    2025.6938  0.050662609  0.049805882            5 
 3333000   0.71938987   -4.0072445    2020.8837  0.050527144  0.049795505           10 
 3334000   0.71726364   -3.9704966    2025.7155  0.050632761  0.049785113            7 
 3335000   0.70999962    -4.006686    2024.1676  0.050578901  0.049774742            3 
 3336000   0.71048837   -4.0086025    2028.0641  0.050661075  0.049764406            6 
 3337000   0.72425832   -3.9885511     2025.792  0.050589152  0.049754025            3 
 3338000   0.72671075   -4.0210189     2022.219  0.050484795  0.049743599            4 
 3339000    0.7275908   -3.9959792    2033.7487  0.050757431  0.049733225            5 
 3340000    0.7205121   -4.0080064     2026.998  0.050573801  0.049722815            3 
 3341000   0.70688462   -3.9840389     2027.658  0.050575128  0.049712428            6 
 3342000    0.7057615   -4.0068978    2026.0711  0.050520424   0.04970202            6 
 3343000   0.71538791   -4.0011703    2033.7204   0.05069599  0.049691565            4 
 3344000   0.72751374   -4.0034501    2032.7234  0.050655986  0.049681288            5 
 3345000   0.70829761   -4.0096261    2032.4329  0.050633605  0.049670913           11 
 3346000   0.73065122   -4.0197591    2031.7251  0.050600845  0.049660483            6 
 3347000   0.70202668   -4.0373587    2028.3293  0.050501178  0.049650088            7 
 3348000   0.72901582   -4.0084929    2026.5083  0.050440768   0.04963961           14 
 3349000   0.73609876   -4.0412814    2021.1125  0.050291443  0.049629219            4 
 3350000   0.71029473    -4.023961    2019.3977  0.050233775   0.04961865            5 
 3351000   0.71069449   -4.0154168    2030.6259  0.050498009  0.049608225            5 
 3352000   0.69184747   -4.0122405    2033.3249  0.050550041  0.049597873            8 
 3353000   0.69225507   -4.0161348    2028.5811  0.050417066  0.049587476            5 
 3354000   0.71841948   -4.0499381    2027.0935  0.050365074  0.049577033            4 
 3355000   0.71918294   -4.0324332    2029.6147  0.050412684  0.049566479            7 
 3356000   0.71009852   -4.0350848    2041.2011  0.050685366  0.049556126            5 
 3357000   0.70641657   -4.0180409    2033.1801  0.050471158  0.049545744            9 
 3358000   0.72629452   -4.0230539    2034.7751   0.05049571  0.049535307            5 
 3359000   0.72833112   -3.9854647    2029.7674   0.05035644  0.049524879           14 
 3360000   0.70785319   -3.9985414    2029.1632  0.050326467  0.049514457            4 
 3361000   0.72476483   -4.0137295    2035.4242   0.05046673  0.049504006            5 
 3362000   0.70735992   -4.0004873    2034.2847  0.050423476  0.049493665            5 
 3363000   0.71824654   -4.0212443    2033.1053  0.050379256  0.049483237            3 
 3364000    0.7225198   -4.0256034    2033.3314  0.050369882  0.049472721            8 
 3365000   0.71470325   -3.9932877    2033.0368  0.050347617  0.049462257            6 
 3366000   0.70663886   -4.0062328    2036.3389  0.050414412  0.049451972            6 
 3367000   0.71422678   -4.0189267    2034.9148  0.050364193  0.049441625            6 
 3368000   0.70844951   -4.0499038    2034.6189  0.050341917  0.049431277            7 
 3369000   0.71603641   -3.9999186    2036.0472  0.050362303  0.049420937           11 
 3370000   0.71861887   -4.0430672    2028.7371  0.050166595  0.049410574            4 
 3371000    0.7107352   -4.0217292    2033.6226  0.050272487  0.049400122            6 
 3372000   0.70622008   -4.0238873      2034.07  0.050268634  0.049389715            4 
 3373000   0.69761555   -4.0274555    2031.1024  0.050180413  0.049379263            5 
 3374000   0.71034771   -4.0176362    2033.0281  0.050213103  0.049368869            6 
 3375000   0.70769621    -4.002546    2029.4607  0.050110141  0.049358424            7 
 3376000    0.7211299   -4.0310708     2033.198  0.050187549  0.049347865           16 
 3377000   0.70464398   -4.0190178    2039.9397  0.050339051  0.049337473           13 
 3378000   0.71078824   -4.0065905    2032.3924  0.050137961  0.049326951            9 
 3379000   0.71013283   -4.0346049    2027.7463   0.05000854  0.049316532            7 
 3380000   0.68746849   -4.0295025    2028.9848   0.05002428  0.049306159            2 
 3381000    0.7071823   -4.0582834    2029.5534  0.050023498  0.049295772           13 
 3382000   0.70761231   -4.0409488    2034.8591  0.050139441  0.049285273            4 
 3383000   0.71458098   -4.0184506     2025.466  0.049893242  0.049274702            6 
 3384000   0.72123116   -3.9995517    2033.5028  0.050076409  0.049264246            5 
 3385000   0.71650264   -4.0129642    2037.6946  0.050164809  0.049253909            5 
 3386000   0.72516943   -4.0248955    2031.4351  0.049995942  0.049243448            7 
 3387000   0.72579148   -4.0234134    2032.6928  0.050012126  0.049232959            8 
 3388000   0.70567924   -4.0192683    2033.4667  0.050016399  0.049222491            5 
 3389000   0.70759898   -4.0239466    2035.4127   0.05004949  0.049212069            6 
 3390000   0.71093761    -4.033243    2030.6624  0.049917955  0.049201615            6 
 3391000    0.7177484   -4.0422091    2030.8872  0.049908758   0.04919122            7 
 3392000     0.707237   -4.0115147    2035.4468  0.050006064   0.04918072            3 
 3393000   0.71251291    -4.020575     2040.386  0.050112634  0.049170307            4 
 3394000   0.70530315   -4.0377893    2028.1151  0.049796579  0.049159833           10 
 3395000     0.710799   -4.0256219    2037.6385  0.050015673  0.049149391            4 
 3396000   0.69358841   -4.0428915    2035.9575  0.049959695  0.049139024           14 
 3397000   0.70365076   -4.0242798    2038.9641  0.050018743  0.049128604            7 
 3398000   0.72095496   -4.0210806    2039.3973  0.050014648  0.049118267            2 
 3399000   0.69901989   -4.0268667     2037.118  0.049944053  0.049107869            6 
 3400000   0.71663151   -4.0097704    2041.4792  0.050036255  0.049097603            5 
 3401000   0.71541026    -4.046496     2033.601  0.049828506  0.049087229            4 
 3402000   0.70234256   -4.0286323    2042.4908  0.050031618  0.049076742            9 
 3403000    0.7225394   -4.0106188    2046.1712  0.050107042  0.049066418            4 
 3404000   0.70661409   -4.0128334    2037.4882  0.049879754   0.04905607            3 
 3405000   0.73404071   -4.0231166     2046.877  0.050094886  0.049045696            3 
 3406000   0.71145062    -4.048842    2036.8782   0.04983554  0.049035222            8 
 3407000   0.69163453   -4.0531527    2038.9792  0.049872301  0.049024769           16 
 3408000   0.70118398    -4.039477    2036.4702  0.049796317  0.049014305            8 
 3409000   0.70414525   -4.0331295    2037.2141  0.049799894  0.049003877            5 
 3410000   0.70980022   -4.0144764    2041.0635  0.049879362  0.048993415            6 
 3411000   0.69986371   -4.0390457    2035.9107  0.049738852  0.048982979           20 
 3412000    0.7023831   -4.0366304    2040.1982   0.04982899  0.048972553            5 
 3413000   0.69829298   -4.0303499    2038.8619  0.049781762   0.04896212            7 
 3414000   0.71724551   -4.0221204    2043.7854  0.049887362  0.048951675            7 
 3415000   0.70737258   -4.0545182    2036.0239  0.049683355  0.048941261            7 
 3416000    0.7215845   -4.0158561    2041.4675  0.049801608  0.048930735            6 
 3417000   0.70867923   -4.0258615    2042.5181  0.049812656  0.048920241            5 
 3418000   0.71073858   -4.0579196     2034.158  0.049594255  0.048909738            8 
 3419000   0.71332814   -4.0406423    2039.6637  0.049713945  0.048899277            4 
 3420000   0.69444885    -4.021705    2039.0828  0.049685254  0.048888888            5 
 3421000   0.71023454   -4.0159691    2046.5222  0.049851948  0.048878518            7 
 3422000   0.69433247   -4.0197974    2046.0952  0.049826981  0.048868117            4 
 3423000   0.69640966   -4.0306479    2038.3171  0.049623067  0.048857665            6 
 3424000   0.69891745   -4.0556027    2040.8176  0.049669431  0.048847226            5 
 3425000   0.68751088   -4.0589893    2036.4889  0.049549608  0.048836747            7 
 3426000   0.70128186     -4.04028    2042.2549  0.049675397  0.048826262            7 
 3427000   0.69775253    -4.036401    2035.7596  0.049502957  0.048815868            5 
 3428000   0.68354023    -4.041114    2045.8101  0.049732839  0.048805393            6 
 3429000   0.70765514   -4.0558975    2040.4642  0.049588418  0.048794896            7 
 3430000   0.71311028   -4.0504791    2036.8552  0.049486279   0.04878445           12 
 3431000   0.70598878   -4.0208869    2040.7836   0.04956727   0.04877393           12 
 3432000   0.73628607   -4.0388846    2043.4744  0.049618162  0.048763531            5 
 3433000    0.7072105   -4.0277828    2042.1289  0.049571049  0.048753069            4 
 3434000    0.7040746   -4.0213299     2041.203  0.049534144  0.048742687            3 
 3435000   0.71521952   -4.0586947    2036.5294  0.049406341  0.048732179           12 
 3436000   0.69573153   -4.0479171    2043.1519  0.049552578  0.048721637            5 
 3437000   0.69925589   -4.0193576    2039.9566  0.049460687  0.048711149            6 
 3438000   0.70916148   -4.0214048    2049.2422  0.049671373  0.048700683            6 
 3439000   0.68729751   -4.0295665    2043.3454   0.04951404  0.048690253            5 
 3440000   0.69824351    -4.046014    2043.3789  0.049500458  0.048679765            7 
 3441000   0.70960637   -4.0444997    2041.9229   0.04945081  0.048669218           10 
 3442000    0.7139621   -4.0544083    2042.0098  0.049438548  0.048658797            3 
 3443000   0.70862368    -4.056735    2043.4549  0.049459167  0.048648371            6 
 3444000   0.70535883   -4.0451812    2047.1744  0.049534805  0.048637918            6 
 3445000   0.71144217   -4.0529802    2040.9341  0.049369475  0.048627537            3 
 3446000   0.70169915   -4.0261694    2047.1998   0.04950667  0.048617141            5 
 3447000   0.69218322   -4.0301282    2043.1396   0.04939415  0.048606697            9 
 3448000   0.70253022   -4.0529425    2040.3934  0.049313452  0.048596131           14 
 3449000   0.71192358   -4.0412534    2050.6275  0.049546427  0.048585688            6 
 3450000   0.69808484   -4.0357495    2042.9503  0.049346626  0.048575315            4 
 3451000   0.71038756   -4.0290429    2048.1167  0.049457083  0.048565001            6 
 3452000   0.68914107   -4.0440977    2040.1133  0.049249548  0.048554598            7 
 3453000   0.70983639   -4.0483335    2048.9452  0.049448431  0.048544143            7 
 3454000   0.69367905   -4.0524705    2045.3958   0.04934848  0.048533662            5 
 3455000   0.71211378   -4.0739523    2047.0315   0.04937365  0.048523181            5 
 3456000   0.70506398   -4.0621084    2044.7319  0.049303914  0.048512774            6 
 3457000   0.69762004   -4.0203353    2047.2666  0.049350752  0.048502387            8 
 3458000   0.70092423   -4.0474154    2043.5683  0.049247357  0.048491995            4 
 3459000   0.70580372   -4.0556751    2046.2939  0.049298783  0.048481583           10 
 3460000   0.69060301   -4.0270001     2053.932  0.049468496  0.048471246            6 
 3461000    0.6989184   -4.0315797    2046.8405  0.049283457  0.048460922            2 
 3462000   0.69938618   -4.0555776    2046.8718  0.049269974  0.048450583            7 
 3463000   0.69228892   -4.0614357    2047.5189  0.049271317  0.048440185            5 
 3464000   0.69275491   -4.0657149    2045.5846  0.049210561  0.048429815           11 
 3465000   0.70582781   -4.0610494    2045.8975  0.049203885  0.048419429            4 
 3466000   0.70148851   -4.0469433    2052.1239   0.04933939  0.048409077           10 
 3467000   0.70973797   -4.0496857    2044.0075  0.049130073  0.048398673            7 
 3468000   0.69992768   -4.0467609    2051.0605  0.049285383   0.04838832            8 
 3469000   0.71176005   -4.0405447    2051.3376  0.049277832  0.048378012            5 
 3470000    0.7055103   -4.0589147    2048.6242  0.049198468   0.04836771            6 
 3471000   0.70122711   -4.0296696    2048.7862  0.049188183  0.048357364           14 
 3472000   0.70377183   -4.0632119    2051.6392  0.049242492  0.048347088           16 
 3473000   0.68403156   -4.0535909    2052.0825   0.04923895  0.048336739            8 
 3474000   0.69198227   -4.0449283    2053.2507  0.049252798  0.048326436            8 
 3475000   0.70613536   -4.0356109    2053.4644  0.049243751   0.04831609            4 
 3476000   0.68777898   -4.0854464    2049.1655  0.049126522  0.048305772            6 
 3477000   0.69144476   -4.0709007    2054.6394  0.049243587  0.048295452            7 
 3478000   0.70054654   -4.0637437    2055.1687  0.049242111  0.048285254            4 
 3479000   0.70227424   -4.0424991    2055.3588  0.049232508   0.04827498            7 
 3480000   0.69749625   -4.0509536    2051.7826  0.049132724  0.048264683            6 
 3481000   0.70886527   -4.0512394     2059.226  0.049296802  0.048254441            7 
 3482000   0.70344914   -4.0615263    2051.8276   0.04910558  0.048244287            5 
 3483000   0.69788647   -4.0467501    2057.1766  0.049219461  0.048234052            7 
 3484000   0.69122066   -4.0491112    2059.8003   0.04926809  0.048223761            9 
 3485000   0.70555735   -4.0449758    2051.7841  0.049062269  0.048213542           14 
 3486000   0.68104871    -4.052911    2054.1755  0.049105363   0.04820336           11 
 3487000   0.69958808   -4.0508335    2053.9385  0.049085615  0.048193141            9 
 3488000   0.67520239   -4.0696187    2058.8025  0.049187751  0.048182862            5 
 3489000   0.68535597   -4.0581673    2059.9029  0.049199936  0.048172578            4 
 3490000   0.71423162   -4.0416247    2054.8668  0.049065588   0.04816234            4 
 3491000   0.70871895   -4.0644833     2055.682  0.049070992  0.048152121            3 
 3492000   0.70315725   -4.0556437    2060.8369  0.049179956  0.048141978            7 
 3493000   0.70122471   -4.0341342    2056.1895  0.049055003  0.048131788            6 
 3494000   0.69192266   -4.0582875    2056.3022  0.049043652  0.048121553            5 
 3495000   0.69541586   -4.0495357    2055.3768  0.049007554  0.048111293            5 
 3496000   0.69351921   -4.0654987    2056.2041  0.049013256  0.048101143            4 
 3497000   0.68272667   -4.0629669    2054.7245  0.048963981  0.048090869            5 
 3498000   0.68807618   -4.0545067    2061.5154  0.049111764  0.048080624           11 
 3499000   0.70450827   -4.0685992    2052.4379  0.048881535  0.048070356            7 
 3500000   0.71596309   -4.0494804    2058.8622  0.049020528  0.048060073            8 
 3501000    0.6906761   -4.0769981    2055.1612  0.048918434  0.048049865            9 
 3502000    0.6758614   -4.0671872    2056.0513  0.048925645  0.048039599            5 
 3503000   0.69690679   -4.0657173    2063.4421    0.0490875  0.048029472            8 
 3504000   0.69464706   -4.0634377    2055.6151  0.048887345   0.04801925            4 
 3505000   0.68873228   -4.0621939    2055.2688  0.048865163   0.04800907            5 
 3506000   0.70323338   -4.0744448    2056.2429   0.04887438  0.047998872            5 
 3507000   0.68853034   -4.0627693    2059.1807  0.048930251  0.047988592            8 
 3508000   0.68248339   -4.0541409    2053.4475  0.048780109  0.047978428            3 
 3509000    0.6887638   -4.0595811      2058.99  0.048897834  0.047968194            6 
 3510000   0.68196303   -4.0684565    2052.7148  0.048734919  0.047957957            6 
 3511000   0.70095816   -4.0675631    2060.2894  0.048900821  0.047947707            8 
 3512000   0.68027942   -4.0575155    2060.8489  0.048900172  0.047937478            7 
 3513000   0.70376507   -4.0751396    2063.1654  0.048941204  0.047927248           17 
 3514000   0.70158611   -4.0746923    2061.7219  0.048893044  0.047917058            7 
 3515000   0.68353898   -4.0746374    2065.1777  0.048961064  0.047906927            2 
 3516000   0.69729539   -4.0642831    2063.1421  0.048898892  0.047896797           17 
 3517000   0.69611363    -4.051434    2058.0584  0.048764533  0.047886659            8 
 3518000   0.69986052   -4.0607093    2063.3506  0.048876034  0.047876541            5 
 3519000   0.68411233    -4.089569    2063.3819  0.048862884  0.047866331            9 
 3520000   0.68407016   -4.0826953    2060.1624  0.048772784   0.04785611            5 
 3521000   0.68490341   -4.0546386    2064.4568  0.048860571  0.047845889            6 
 3522000   0.67729005   -4.0669798    2064.9693  0.048858822  0.047835837            7 
 3523000    0.6974967   -4.0743307    2064.4328  0.048832265  0.047825694           14 
 3524000   0.69292145    -4.060721    2060.4298  0.048723748  0.047815589            6 
 3525000   0.69588297   -4.0732097     2065.994  0.048841466  0.047805392            7 
 3526000   0.67531385   -4.0790452    2057.7138  0.048631919   0.04779518            8 
 3527000   0.68067208   -4.0757525    2063.8799  0.048763819   0.04778502            5 
 3528000   0.68055803   -4.0703455    2066.6089  0.048814459  0.047774881            5 
 3529000   0.67891518   -4.0610612    2067.5888  0.048823765  0.047764697           12 
 3530000   0.69649139   -4.0576607    2060.3372  0.048638744  0.047754573            9 
 3531000   0.68646505   -4.0806641    2057.9565  0.048568784  0.047744406            7 
 3532000   0.70312147   -4.0708587    2064.9025  0.048718916  0.047734138            8 
 3533000   0.69564478   -4.0846381    2063.0267   0.04866088  0.047724064            5 
 3534000   0.68916791   -4.0831726    2062.7288  0.048640087  0.047713928           10 
 3535000   0.69531127   -4.0718228    2062.5098  0.048621165  0.047703778            6 
 3536000   0.68436444   -4.0685435    2062.2825  0.048602057  0.047693624            4 
 3537000   0.69222852   -4.0859263    2066.9674  0.048698694  0.047683505            7 
 3538000   0.68148617   -4.0896576     2066.714  0.048678962  0.047673347            7 
 3539000   0.69102369   -4.0714764    2068.4702   0.04870656  0.047663197            6 
 3540000   0.69104144   -4.0865056     2065.764  0.048629096   0.04765309            4 
 3541000   0.67929702   -4.0830069    2070.2214  0.048720263  0.047642927           10 
 3542000   0.68250407   -4.0546088    2069.2314  0.048683216   0.04763276           18 
 3543000   0.67458586   -4.0545215    2068.5432  0.048653289  0.047622695            5 
 3544000   0.69112342    -4.055819    2069.4728  0.048661419  0.047612672            4 
 3545000   0.67813418   -4.0594884    2066.7701  0.048584159  0.047602615           10 
 3546000   0.67860304   -4.0576679    2068.3301  0.048607119  0.047592546            8 
 3547000   0.68374498   -4.0895633    2066.8489  0.048558615  0.047582494            7 
 3548000   0.69315943   -4.0718428    2067.7803  0.048566805  0.047572394            5 
 3549000   0.69984684   -4.0850604    2066.4974  0.048522997  0.047562262            5 
 3550000   0.69363211   -4.0884241    2062.8871   0.04842458  0.047552128            6 
 3551000   0.69109211   -4.0793897    2065.9044  0.048481751  0.047542006            4 
 3552000   0.69051227   -4.0791139    2067.5138   0.04850586  0.047531988           10 
 3553000   0.68832727   -4.0698495    2063.8329  0.048405876  0.047521992           12 
 3554000   0.68556212   -4.1002953    2068.0845  0.048491945  0.047511925           10 
 3555000   0.69632749   -4.0713687    2061.5977  0.048326247  0.047501764           10 
 3556000   0.68458389   -4.0655969    2074.3809  0.048612225  0.047491678            9 
 3557000   0.68429253   -4.0639193      2071.11  0.048521927  0.047481701            7 
 3558000   0.67080685   -4.0730729    2069.0082  0.048459063  0.047471675            8 
 3559000   0.68481188   -4.0721119     2072.748  0.048533015  0.047461653            6 
 3560000   0.69132546   -4.0866554    2069.8078  0.048450556  0.047451549            4 
 3561000   0.69076738   -4.0852453    2068.6088  0.048408894    0.0474415            9 
 3562000     0.685522   -4.0944716    2066.1889  0.048338689  0.047431434            4 
 3563000   0.68421688   -4.0958122    2064.9815  0.048296882  0.047421305            4 
 3564000   0.68024017   -4.0899054    2071.1539  0.048427655  0.047411137            8 
 3565000   0.67958593   -4.0658914    2071.7298  0.048427533  0.047401096            9 
 3566000   0.66905658    -4.072167    2066.9739  0.048302812  0.047391069           12 
 3567000   0.69253169   -4.0903135    2073.5193  0.048442185  0.047380914            9 
 3568000   0.69503753   -4.0638561    2072.7283  0.048410134   0.04737085            7 
 3569000   0.66484561   -4.0936022    2067.1367  0.048266012  0.047360735            8 
 3570000   0.68293682   -4.0954005    2066.5808  0.048239515  0.047350541           10 
 3571000   0.67885411   -4.1087886    2068.5934  0.048272972  0.047340361           12 
 3572000   0.67270723   -4.0680215    2069.3297  0.048276635  0.047330136            9 
 3573000   0.68378629    -4.069864    2068.9307  0.048253818  0.047320076            6 
 3574000   0.69148912   -4.0796622    2071.2721  0.048294909  0.047309974            9 
 3575000   0.67466835   -4.0695906    2072.9026  0.048319408   0.04729993            5 
 3576000   0.66981183   -4.0677327    2079.5076  0.048459815   0.04728983            5 
 3577000   0.67116044   -4.0678435    2068.0737  0.048179892  0.047279724           14 
 3578000    0.6881985   -4.0942729    2069.1315  0.048191064  0.047269654            2 
 3579000   0.67210471    -4.110021    2072.6008  0.048258378  0.047259528            5 
 3580000    0.6833622   -4.0873045    2074.4065  0.048286929  0.047249347            5 
 3581000   0.66394683   -4.1052634    2062.9458  0.048006744  0.047239115            6 
 3582000    0.6594863   -4.0903359    2066.0343  0.048065195  0.047228947            8 
 3583000    0.6628324   -4.0902047    2066.5316  0.048063344  0.047218748            8 
 3584000   0.69060277   -4.0705323    2074.7689  0.048241464   0.04720863            6 
 3585000   0.67915206   -4.0736393    2077.1911  0.048284311  0.047198559           17 
 3586000   0.67872693   -4.0753845    2071.1613  0.048130724  0.047188355           12 
 3587000    0.6767327   -4.0907002    2070.3017  0.048097336  0.047178109            6 
 3588000   0.66975188   -4.0828934    2067.1236  0.048010118   0.04716796            7 
 3589000   0.64675696   -4.0899855    2069.4985  0.048051883  0.047157687            6 
 3590000   0.67992505   -4.0823354    2076.1721   0.04819341  0.047147458           10 
 3591000   0.66668368   -4.0774316    2070.9722  0.048059319   0.04713732            5 
 3592000   0.67887075   -4.0847737    2070.9947  0.048046461  0.047127199            9 
 3593000   0.66209467   -4.0929003    2075.1856   0.04813029  0.047116992            3 
 3594000   0.68360815   -4.0914959     2076.064  0.048137267  0.047106835            4 
 3595000   0.67612203   -4.0945382     2072.138  0.048032871  0.047096678            5 
 3596000   0.68302365   -4.0684448    2080.5026  0.048213353  0.047086585            4 
 3597000   0.68329995   -4.1061546    2065.9358  0.047862473  0.047076531            7 
 3598000   0.67814111   -4.1126982    2072.4577  0.048000225  0.047066347            8 
 3599000   0.67546503   -4.0778025      2079.22  0.048143467  0.047056141            8 
 3600000   0.67668093   -4.0841056    2069.9964  0.047916584  0.047045987            6 
 3601000   0.67360841   -4.0621377     2074.977  0.048018536  0.047035953            3 
 3602000   0.69250132   -4.0869833    2071.7481  0.047930504  0.047025817           11 
 3603000    0.6684598   -4.1106012    2072.0891  0.047925088   0.04701574            4 
 3604000   0.66851777   -4.0878172    2075.5952   0.04799286  0.047005658            3 
 3605000   0.68186628   -4.1017733     2069.505  0.047838767  0.046995506            8 
 3606000   0.66922421   -4.0896891    2082.0222  0.048114767  0.046985442            8 
 3607000   0.67909951   -4.0610744    2080.7101  0.048071115  0.046975415            5 
 3608000   0.67694941    -4.090794    2072.1108  0.047859175  0.046965303            5 
 3609000   0.68804574   -4.1066114    2067.2067  0.047732675  0.046955104            5 
 3610000   0.67443811   -4.0914721    2070.9033  0.047804786  0.046944881            9 
 3611000   0.68118708   -4.0951395    2072.6857  0.047832681  0.046934699           10 
 3612000   0.69138055   -4.1082628    2073.6382  0.047841413  0.046924572            8 
 3613000   0.68071564   -4.1030928    2080.9427  0.047996649  0.046914451            6 
 3614000   0.66848998   -4.0857659     2082.839  0.048027093  0.046904392            6 
 3615000   0.68536032   -4.1012943    2082.6461  0.048009363  0.046894304           10 
 3616000   0.66677747   -4.0843681    2079.1913  0.047916466  0.046884177            9 
 3617000   0.66694577   -4.0686989    2076.2375  0.047835164  0.046874058            5 
 3618000    0.6738908   -4.0943299    2075.8127   0.04781216   0.04686394           11 
 3619000   0.67405268   -4.0927023    2069.9619  0.047664224  0.046853677           12 
 3620000   0.67230249   -4.1049271    2077.7836  0.047831115  0.046843436           16 
 3621000   0.66469245     -4.11964    2067.1026  0.047572094  0.046833207           13 
 3622000   0.66784946   -4.0966257     2074.123  0.047720481  0.046822943            5 
 3623000   0.66715316   -4.0864797    2073.8108  0.047700128  0.046812733            7 
 3624000   0.67478464   -4.0802543     2077.405  0.047769615  0.046802553           19 
 3625000   0.66814927    -4.093803    2069.5663  0.047576236  0.046792273            6 
 3626000   0.67883825   -4.1000125    2076.7566  0.047728364  0.046782112            6 
 3627000   0.67054094   -4.0896587     2076.713  0.047714204  0.046771912            6 
 3628000   0.68198398   -4.1004008    2070.3566  0.047555049  0.046761724            7 
 3629000   0.66631837   -4.1039748    2077.2892  0.047701139  0.046751524            9 
 3630000   0.67413334    -4.086648    2079.6681   0.04774261  0.046741288            7 
 3631000   0.67378065   -4.1008193    2071.6428  0.047545276  0.046731129            7 
 3632000   0.67143133   -4.0933188    2077.4991  0.047666555  0.046720915            6 
 3633000   0.67266392   -4.1105258    2076.0444  0.047620067  0.046710847            9 
 3634000   0.67189442   -4.0848321     2078.142  0.047655063  0.046700691            7 
 3635000   0.66137363   -4.0955173    2077.2207  0.047620833  0.046690545            5 
 3636000   0.66357384   -4.1017293    2086.6127  0.047822991   0.04668048            8 
 3637000   0.66517171   -4.1048247    2077.2502  0.047595321  0.046670373            8 
 3638000   0.65746865   -4.1298148     2073.991  0.047507582  0.046660131           17 
 3639000   0.67343989   -4.1322469    2075.2681  0.047523772  0.046649983            4 
 3640000   0.66661172   -4.1143841    2070.4652  0.047400759   0.04663986           12 
 3641000   0.66271847    -4.105027    2076.0916  0.047516516  0.046629602            8 
 3642000   0.67252232    -4.106213    2076.0002  0.047501378  0.046619383            5 
 3643000   0.67196443   -4.1155994    2076.9957  0.047511111  0.046609192           14 
 3644000   0.66632179   -4.0890539    2081.8604  0.047609321   0.04659902            6 
 3645000   0.65451801   -4.1072658    2074.1034  0.047418917  0.046588863           10 
 3646000   0.68637589   -4.0774251    2080.5349   0.04755291   0.04657873           13 
 3647000   0.67044621   -4.1288881    2077.9822  0.047481541   0.04656856            8 
 3648000   0.65245546   -4.0938804    2082.1888   0.04756462  0.046558392            7 
 3649000     0.681646   -4.1184509    2080.3509  0.047509612  0.046548157            9 
 3650000   0.67284601   -4.1062479    2077.7751  0.047437787  0.046537942            4 
 3651000   0.65656772   -4.0983401    2081.9169  0.047519331  0.046527776            7 
 3652000    0.6703109    -4.088128    2078.8603  0.047436571  0.046517613            5 
 3653000   0.66185511   -4.1230836    2078.8387  0.047423092  0.046507457           11 
 3654000   0.67017954   -4.1112732    2077.7167  0.047384527  0.046497297            6 
 3655000   0.68194861   -4.0990179    2078.9254  0.047399119  0.046487093            3 
 3656000   0.67558579   -4.0894221    2081.7076  0.047449572  0.046476914           17 
 3657000   0.66588353   -4.1115948    2082.3532  0.047451309  0.046466745            5 
 3658000   0.66011425   -4.1057327    2079.2084  0.047366693  0.046456568            4 
 3659000   0.65150988   -4.1072649    2079.3582   0.04735716  0.046446365            6 
 3660000   0.66189467   -4.0933761    2077.1571  0.047294104  0.046436156            6 
 3661000   0.67074458   -4.0889366    2079.2568  0.047328981  0.046425891            8 
 3662000    0.6628263   -4.0976352    2086.1485  0.047472887  0.046415688            5 
 3663000    0.6605343   -4.1076244    2075.4061  0.047215536  0.046405521           14 
 3664000    0.6609024   -4.1070931    2079.7983  0.047302545  0.046395396            4 
 3665000   0.65269978   -4.1225145    2078.2731  0.047254958  0.046385154            8 
 3666000   0.66785524    -4.106312    2079.2594  0.047264488  0.046374948            5 
 3667000   0.66316638   -4.1396674    2083.6248  0.047350804  0.046364738           13 
 3668000   0.66767533   -4.1140152    2081.9067  0.047298863  0.046354535            3 
 3669000   0.68382477   -4.1074504    2082.3069   0.04729506  0.046344318            7 
 3670000   0.67103121   -4.1087211    2075.0209  0.047116733   0.04633418            5 
 3671000   0.67285439   -4.1081886    2083.7188  0.047301344  0.046324001            8 
 3672000   0.67162426   -4.1004911    2086.7428  0.047357091  0.046313894            3 
 3673000   0.65374016   -4.0888806     2085.569  0.047317564  0.046303824            5 
 3674000   0.66176243   -4.1053646    2086.0356   0.04731527  0.046293735            5 
 3675000   0.66249412   -4.1156003    2078.5677  0.047133055  0.046283604           10 
 3676000   0.66705095   -4.0929458    2079.2251  0.047135135  0.046273445            4 
 3677000    0.6707304   -4.1095835    2080.8877  0.047159998  0.046263289            7 
 3678000   0.65981521   -4.0708682     2083.255  0.047200811  0.046253209            6 
 3679000   0.65902226   -4.1057037    2087.5523  0.047285321  0.046243104            7 
 3680000   0.65799107   -4.1131381    2083.6815  0.047184817  0.046232939            7 
 3681000   0.65343892   -4.1253285    2084.8203  0.047197778  0.046222822            6 
 3682000   0.66062226   -4.1222761    2088.8456  0.047276064  0.046212623            8 
 3683000    0.6614023    -4.129243    2077.5528  0.047007711  0.046202404            9 
 3684000   0.67764187   -4.1140547    2079.3685  0.047036024  0.046192203           11 
 3685000   0.65480156    -4.114606    2074.4627  0.046912318  0.046182008            6 
 3686000   0.65283251   -4.0972828    2079.1349   0.04700522   0.04617175            6 
 3687000   0.66914478   -4.0954134    2076.3548  0.046929635  0.046161576           10 
 3688000   0.66851568    -4.097389    2082.9244  0.047065356  0.046151434            9 
 3689000   0.67037009   -4.1155739    2084.8753  0.047096667  0.046141298            9 
 3690000    0.6614988   -4.1273596    2077.2767  0.046912301  0.046131069            9 
 3691000   0.66801569    -4.106571    2082.8526  0.047025481  0.046120886            8 
 3692000   0.65962839   -4.1306343    2082.5566  0.047006062  0.046110694            7 
 3693000   0.66399422   -4.1018107    2093.9768  0.047251035  0.046100525            9 
 3694000    0.6656364     -4.09422    2087.6866  0.047096342  0.046090376            5 
 3695000   0.67055432   -4.1088439    2083.6811   0.04699326  0.046080194            5 
 3696000   0.66000066   -4.1160783    2083.3287  0.046972598  0.046069964            4 
 3697000   0.64649417   -4.1077485    2082.1644   0.04693365  0.046059763           35 
 3698000   0.66016723   -4.1388885    2077.5259   0.04681643  0.046049604            5 
 3699000   0.65608439    -4.113795    2085.7488  0.046989024   0.04603943            3 
 3700000   0.66532019   -4.1365237    2082.4572  0.046902188  0.046029238            9 
 3701000   0.65337915   -4.1159988     2086.635  0.046983586  0.046019056           15 
 3702000   0.64779301   -4.1025293      2084.46  0.046921935  0.046008851            5 
 3703000   0.65211573   -4.1323623     2077.275  0.046747569  0.045998651           15 
 3704000   0.66847143    -4.128388    2085.2816  0.046915083  0.045988395            7 
 3705000   0.64888062     -4.11848    2082.1154  0.046831205  0.045978199            9 
 3706000   0.64806178   -4.1199416    2077.8394  0.046722418  0.045967958            9 
 3707000   0.65308309   -4.1069845    2092.1604   0.04703175  0.045957839           11 
 3708000   0.65424611    -4.116659    2089.2598  0.046953878  0.045947758            6 
 3709000   0.64460369   -4.1315264    2081.3412  0.046763306  0.045937539            6 
 3710000   0.66412317   -4.1509172    2085.6638  0.046847794  0.045927364            3 
 3711000   0.65546538   -4.1210754    2091.9749   0.04697689  0.045917166            9 
 3712000   0.65816798   -4.1280093    2086.3547  0.046838064  0.045907044            4 
 3713000   0.65736948   -4.1098417    2091.6971  0.046945352  0.045896955            7 
 3714000   0.65527896   -4.1206211    2085.7388  0.046799022  0.045886837           13 
 3715000   0.66001196   -4.0991479    2096.4617  0.047026957  0.045876739            9 
 3716000   0.65727119    -4.111069    2088.4528  0.046834697  0.045866597           12 
 3717000   0.65948249   -4.1049399    2091.0894  0.046881209  0.045856519            7 
 3718000   0.66148554   -4.1125161     2090.158  0.046847723  0.045846365            5 
 3719000   0.66538782   -4.1325743    2088.6871  0.046802167  0.045836244            7 
 3720000   0.66232658   -4.1198278    2088.8456  0.046793136  0.045826067            4 
 3721000   0.67491984   -4.1294615    2088.5981  0.046775017  0.045815963            7 
 3722000   0.66133031   -4.1281403    2088.5061  0.046760391  0.045805827           19 
 3723000   0.64772108   -4.1091931     2086.023  0.046692251  0.045795679            7 
 3724000   0.65479445   -4.1270128    2090.8713  0.046788204  0.045785504           10 
 3725000   0.64610352   -4.1196794    2083.2534  0.046605222  0.045775284            6 
 3726000   0.65532782   -4.1302866    2085.1792  0.046635785  0.045765126            8 
 3727000   0.65872752   -4.1396388    2087.5183  0.046675573  0.045754972            7 
 3728000   0.64800516   -4.1117355    2087.6888  0.046666862  0.045744829            4 
 3729000    0.6506178   -4.1323874    2083.2676  0.046555548  0.045734637            8 
 3730000   0.65041726   -4.0972624    2092.5998   0.04675156  0.045724467            5 
 3731000   0.66272764   -4.1240722    2091.2936  0.046709853  0.045714303           12 
 3732000   0.66585248   -4.1344915    2086.0962  0.046581284  0.045704074            9 
 3733000   0.66748706   -4.1304073    2088.6505  0.046625826  0.045693841            8 
 3734000    0.6598396   -4.1442441    2091.8958  0.046685765  0.045683693            5 
 3735000   0.63965064   -4.1380557    2092.1758  0.046679514  0.045673523           11 
 3736000   0.65580909    -4.122892    2087.3232  0.046558779  0.045663477            4 
 3737000   0.64044747   -4.1081322     2090.675  0.046621065  0.045653377           10 
 3738000   0.65761401   -4.1513591    2088.9633  0.046570433  0.045643348            6 
 3739000    0.6557915   -4.1241057    2088.2751  0.046542638  0.045633287            6 
 3740000   0.65677191   -4.1235478    2086.9125  0.046499834   0.04562317           14 
 3741000   0.67199902   -4.1250295    2092.2046  0.046605288     0.045613            8 
 3742000   0.64916543   -4.1368485      2086.07  0.046456218  0.045602865            9 
 3743000   0.65636361   -4.1404077    2086.0335  0.046442994   0.04559274            5 
 3744000   0.65866047   -4.1289229    2087.8804  0.046471697  0.045582632           10 
 3745000   0.67000669   -4.1408214    2092.3106  0.046557868  0.045572443            7 
 3746000    0.6599317   -4.1578131    2088.0641  0.046450971  0.045562266           12 
 3747000   0.65995279   -4.1361338    2091.8632  0.046523067  0.045552154            7 
 3748000   0.65233123   -4.1383491    2089.7188  0.046462977  0.045541989            4 
 3749000   0.65065862   -4.1086684    2091.7633  0.046496028   0.04553189           10 
 3750000   0.64057352   -4.1323715    2090.8152  0.046462559   0.04552188            5 
 3751000   0.64849302   -4.1357343    2092.2369  0.046481758  0.045511839            5 
 3752000   0.64468552   -4.1161556     2093.271  0.046492337  0.045501855            7 
 3753000   0.66249767   -4.1259456    2092.9073  0.046471874  0.045491927            7 
 3754000   0.64248492   -4.1064372    2096.9789  0.046549877   0.04548196            5 
 3755000   0.63794368   -4.1268233    2094.5621  0.046483847  0.045472013            5 
 3756000   0.65821364   -4.1568701    2092.1289  0.046417485  0.045462001            8 
 3757000   0.64582088    -4.155306    2095.0673  0.046470306  0.045451961            9 
 3758000   0.65246421   -4.1307285    2094.8638  0.046453428  0.045441945            4 
 3759000   0.65652756   -4.1509028    2091.7095  0.046371143  0.045431938            7 
 3760000   0.64380627   -4.1278991    2102.3435  0.046594491  0.045421999            7 
 3761000   0.65396387   -4.1560409    2095.3797  0.046427805  0.045411968            6 
 3762000   0.64756556   -4.1385442    2094.4279   0.04639438  0.045401883            8 
 3763000   0.66812433   -4.1252984    2093.5862  0.046363412  0.045391831            4 
 3764000   0.64234527   -4.1234731    2094.5404  0.046372219  0.045381845           10 
 3765000   0.64441198   -4.1232507    2101.5532  0.046515121  0.045371868           10 
 3766000   0.65172552   -4.1498788    2092.1757  0.046295267  0.045361846            6 
 3767000   0.65650162   -4.1476372     2097.652  0.046404124  0.045351848            9 
 3768000   0.63849796   -4.1344487    2091.3767  0.046253023  0.045341841            6 
 3769000   0.65226878    -4.153136    2095.5854  0.046333806  0.045331834            5 
 3770000   0.64490858   -4.1743026     2092.331   0.04624958  0.045321833            9 
 3771000   0.64749578   -4.1666858    2094.5255  0.046285811  0.045311763           13 
 3772000    0.6427577   -4.1556103    2098.5482  0.046362412  0.045301764            9 
 3773000   0.63105089   -4.1436572    2097.5723  0.046328569  0.045291694            5 
 3774000   0.65880861   -4.1245508    2094.9949  0.046259383  0.045281651            6 
 3775000   0.64522927    -4.143764    2093.2528   0.04620867  0.045271602           11 
 3776000   0.65680251   -4.1278879    2095.3917  0.046243638  0.045261597            7 
 3777000   0.65436008   -4.1391197    2095.1799  0.046226721  0.045251577            7 
 3778000   0.65233786   -4.1415328    2090.8649  0.046119307  0.045241498            8 
 3779000   0.63513688   -4.1361064    2093.4973  0.046165151  0.045231392            6 
 3780000   0.63956421   -4.1260163    2096.1493  0.046211405  0.045221339            8 
 3781000   0.64224758   -4.1406807    2092.7614  0.046124512  0.045211267            4 
 3782000   0.65049746   -4.1442595    2096.4844  0.046194351  0.045201226            7 
 3783000    0.6389542   -4.1403725    2098.8202  0.046233592  0.045191162            8 
 3784000    0.6500647   -4.1328049    2105.1009  0.046359692  0.045181161            7 
 3785000   0.65094312   -4.1599658    2101.5124  0.046268437  0.045171198            6 
 3786000   0.65765944   -4.1154245    2097.1887  0.046161047  0.045161194            4 
 3787000   0.63157217    -4.141547    2095.1484  0.046103961  0.045151221            9 
 3788000    0.6563505   -4.1462319    2100.0338  0.046199266  0.045141161           14 
 3789000   0.65104831   -4.1511067    2100.0308  0.046187006  0.045131139            9 
 3790000   0.63780822   -4.1415093    2097.9403  0.046128855   0.04512118            8 
 3791000   0.65394922    -4.147006     2094.672  0.046044844  0.045111133           12 
 3792000   0.64775406   -4.1497325    2092.3404   0.04598146  0.045101107            8 
 3793000   0.64850973   -4.1287524    2096.8922  0.046069342  0.045091096            8 
 3794000   0.63675777   -4.1604655     2096.351  0.046045314  0.045081152            4 
 3795000   0.63448221   -4.1586462    2099.1089  0.046093739  0.045071152           13 
 3796000   0.64268366    -4.154006    2099.4035  0.046088064  0.045061106            9 
 3797000   0.65041114   -4.1442038    2096.5213   0.04601267  0.045051108            5 
 3798000   0.63229231   -4.1404368    2096.6752  0.046003933  0.045041031            7 
 3799000   0.62973835   -4.1416486     2103.783  0.046147737  0.045031025           13 
 3800000   0.64163065   -4.1449984    2101.2605  0.046080274  0.045021071            7 
 3801000   0.65281142   -4.1394302    2101.6656  0.046077033  0.045011072            3 
 3802000   0.66137687   -4.1496586    2095.0271  0.045919409  0.045001126            4 
 3803000   0.63854646    -4.140049    2100.0717  0.046017873  0.044991192            7 
 3804000   0.63749741   -4.1538715    2094.6198  0.045886343  0.044981205            5 
 3805000   0.65152348   -4.1388396    2104.4164   0.04608884  0.044971193           13 
 3806000   0.62231016   -4.1399689    2104.5975  0.046080694  0.044961252            4 
 3807000   0.64523398   -4.1391463    2097.2402  0.045907543  0.044951245           12 
 3808000   0.63343909   -4.1489841    2101.1764  0.045981627  0.044941426            8 
 3809000   0.63400397   -4.1654636    2102.4532  0.045997489  0.044931561            7 
 3810000   0.64560867   -4.1426061    2105.1063  0.046043445  0.044921675            7 
 3811000   0.63185877   -4.1545116     2101.401  0.045950341  0.044911742            9 
 3812000   0.63332669   -4.1663519    2105.9457  0.046037638  0.044901786           14 
 3813000   0.63996098   -4.1532545    2095.3512   0.04579402  0.044891848           18 
 3814000   0.64015481   -4.1633836    2105.5683   0.04600525  0.044881934            7 
 3815000   0.63204631   -4.1781222    2101.9707  0.045914607  0.044871968            6 
 3816000   0.64222307   -4.1326149    2107.8556  0.046031088  0.044862083            6 
 3817000   0.62412663   -4.1636442    2102.7909  0.045908456  0.044852188            8 
 3818000   0.63203841   -4.1528336    2100.0055  0.045835636  0.044842308           13 
 3819000   0.63655511   -4.1453716    2098.4644  0.045790006  0.044832399            7 
 3820000   0.64500879   -4.1492356      2103.02    0.0458774  0.044822502           11 
 3821000   0.64889109   -4.1516089    2104.5666  0.045899123  0.044812586           20 
 3822000   0.63545417   -4.1639412    2106.5955  0.045931352  0.044802664           12 
 3823000   0.64184802    -4.162369    2101.7899  0.045814586  0.044792842            6 
 3824000   0.64079387   -4.1481458    2108.7538  0.045954362  0.044783012            4 
 3825000   0.63420206   -4.1549113    2105.1834  0.045864562    0.0447732            6 
 3826000   0.64909846   -4.1285302    2106.2138  0.045875017   0.04476338            8 
 3827000   0.63200044   -4.1501469    2105.2895  0.045842903  0.044753538            9 
 3828000   0.64156788   -4.1560684    2108.5905  0.045902789  0.044743655           12 
 3829000   0.63260695   -4.1473351    2101.0653  0.045727025   0.04473381            6 
 3830000   0.66178996     -4.14907    2105.8739   0.04581971  0.044723989            6 
 3831000   0.63874232   -4.1710269     2103.707  0.045760616  0.044714144            5 
 3832000   0.63151329   -4.1654316    2099.8161   0.04566406  0.044704221            9 
 3833000   0.64332824   -4.1427135    2104.7877  0.045760234  0.044694357           10 
 3834000   0.64186637   -4.1770997    2101.5856  0.045678698  0.044684455           13 
 3835000    0.6369903   -4.1906354    2096.4673   0.04555557  0.044674535           11 
 3836000   0.63504926   -4.1515341    2103.5695  0.045697982  0.044664659            6 
 3837000    0.6341789   -4.1519881    2100.1385  0.045611556  0.044654729           21 
 3838000   0.64706908   -4.1686375    2107.0887  0.045750579  0.044644787            5 
 3839000   0.63535411   -4.1431605    2103.9859   0.04567131  0.044634945           11 
 3840000   0.64129434   -4.1672222    2109.9254  0.045788311  0.044625127            5 
 3841000   0.63822458   -4.1750847    2100.2605  0.045566703  0.044615227            9 
 3842000   0.64268601   -4.1313416    2105.6261  0.045671224  0.044605405            9 
 3843000   0.63118705   -4.1767775    2113.0108  0.045819472  0.044595563            8 
 3844000   0.62556884   -4.1587497    2109.4839  0.045731094  0.044585798           11 
 3845000   0.63316856   -4.1822228    2105.9257  0.045642082  0.044575959           12 
 3846000   0.62221742   -4.1362036    2108.1357    0.0456781   0.04456621            6 
 3847000    0.6277031   -4.1653418    2107.2159  0.045646302  0.044556381           23 
 3848000   0.62714177   -4.1584571    2112.4329   0.04574742  0.044546495            5 
 3849000   0.63926231   -4.1604784    2104.8479  0.045571315  0.044536604            4 
 3850000   0.64024889   -4.1731155    2101.7449  0.045492313  0.044526729           12 
 3851000   0.64671884   -4.1656051    2110.4765  0.045669448  0.044516978            9 
 3852000   0.63420493   -4.1657357      2102.49  0.045484814  0.044507101           10 
 3853000   0.64499872   -4.1847734    2107.4246  0.045579734  0.044497198           12 
 3854000    0.6335753   -4.1424654    2110.4202  0.045632679  0.044487315            9 
 3855000   0.63423581   -4.1718396    2102.3433  0.045446246  0.044477452            5 
 3856000    0.6465845   -4.1695297    2109.2516  0.045583756  0.044467549           10 
 3857000   0.63572147   -4.1503119    2110.4009   0.04559677  0.044457715           15 
 3858000   0.62725037   -4.1749769    2101.1011  0.045384075  0.044447833            5 
 3859000    0.6347711    -4.165103    2104.7627  0.045451385  0.044437959            6 
 3860000   0.62945934   -4.1735701    2106.5253  0.045477663  0.044428116            7 
 3861000    0.6325895   -4.1599348    2107.4734  0.045486346  0.044418305           17 
 3862000     0.646958   -4.1540974    2110.5021  0.045539922  0.044408524           10 
 3863000   0.62989534    -4.151635    2110.3329  0.045524482  0.044398727           10 
 3864000   0.62994726   -4.1420413     2109.031  0.045484622  0.044388947            4 
 3865000   0.63632261   -4.1572651    2109.5899  0.045484904  0.044379151            4 
 3866000   0.62810563   -4.1566793    2107.5569  0.045429317  0.044369356            8 
 3867000   0.64902973   -4.1514563    2111.5774   0.04550421  0.044359499            6 
 3868000   0.64172001   -4.1636191    2110.4181  0.045467469   0.04434968           17 
 3869000   0.63161295   -4.1730162    2107.3187  0.045388962  0.044339742           10 
 3870000   0.64140231   -4.1782786    2104.8185  0.045323396  0.044329886            8 
 3871000    0.6201111   -4.1562878    2109.2641   0.04540739  0.044320081            8 
 3872000   0.63517086   -4.1798646    2111.5105   0.04544401  0.044310318            8 
 3873000   0.64211201   -4.1466945    2113.1154  0.045466808  0.044300534            7 
 3874000   0.62907977   -4.1655322    2111.2325  0.045414569  0.044290734            8 
 3875000   0.62817836   -4.1428784    2110.4918   0.04538692  0.044280973            8 
 3876000    0.6260513   -4.1658018    2109.4707  0.045353258  0.044271172           10 
 3877000   0.64332385   -4.1934985    2103.0061  0.045202607  0.044261335            4 
 3878000   0.63026284   -4.1744293    2110.0154  0.045341573  0.044251437            9 
 3879000   0.64707638   -4.1695767    2110.1487  0.045332746  0.044241589            7 
 3880000   0.64633313   -4.1834076    2109.1126  0.045298811  0.044231821            6 
 3881000   0.63958956   -4.1611214    2110.3625  0.045313977  0.044222037            8 
 3882000    0.6465839   -4.1633155    2109.2661  0.045278768  0.044212226            9 
 3883000   0.62797038   -4.1907051    2101.6494  0.045103644  0.044202381           14 
 3884000   0.63347158    -4.180979    2111.6141   0.04530583  0.044192535            6 
 3885000   0.63151303   -4.1817054    2109.0627   0.04523944  0.044182654            8 
 3886000   0.62190996   -4.1682295    2109.3885  0.045234785  0.044172842           10 
 3887000   0.63376826    -4.168181    2115.4871  0.045353895  0.044163075            5 
 3888000   0.63578278   -4.1633491    2113.2949  0.045295243  0.044153363            5 
 3889000   0.64119523   -4.1577423    2112.0094   0.04525605  0.044143632            7 
 3890000   0.63829347   -4.1693508    2110.1353  0.045204269  0.044133901            6 
 3891000   0.65031273   -4.1817683    2108.3555  0.045154534  0.044124076            8 
 3892000   0.62731911   -4.1816959    2105.7536  0.045087222  0.044114241           14 
 3893000   0.62328561    -4.173567    2113.5354  0.045242217  0.044104379            8 
 3894000   0.63871493   -4.1731823    2112.1261   0.04520044   0.04409459           23 
 3895000   0.63048797   -4.1626184    2106.1227  0.045060391  0.044084715            7 
 3896000   0.63403551    -4.175118    2113.0165   0.04519628  0.044074921           13 
 3897000   0.62653421   -4.1894613    2109.8867  0.045117754  0.044065153           13 
 3898000   0.62055377   -4.1783627    2111.2955  0.045136299  0.044055352            9 
 3899000   0.62364837   -4.1665956    2116.5688  0.045237429  0.044045577           19 
 3900000   0.61805099   -4.1739894    2108.3479  0.045050168  0.044035789           15 
 3901000   0.62824449   -4.1662272    2113.0787   0.04513968  0.044026012            5 
 3902000   0.63475279   -4.1843162    2107.6944  0.045013122  0.044016245            9 
 3903000   0.62664714    -4.171598    2119.3418  0.045250273  0.044006488           11 
 3904000   0.64969862   -4.2136989    2111.9094  0.045080033  0.043996704            9 
 3905000   0.63493786   -4.1683395    2110.2024  0.045032062  0.043986997            6 
 3906000   0.64049086   -4.1720646    2118.9648  0.045207476  0.043977388           14 
 3907000    0.6275667   -4.1784864    2112.6111  0.045060385  0.043967631            7 
 3908000   0.63683766   -4.1925082    2114.6067  0.045091409  0.043957857            7 
 3909000   0.62136791   -4.1780433    2111.1589  0.045006372  0.043948045            9 
 3910000   0.62177868   -4.1647119    2111.6241  0.045004777  0.043938276            4 
 3911000   0.61676532   -4.1752346    2112.1019   0.04500345  0.043928538           21 
 3912000   0.63107031   -4.1858795    2112.7001  0.045004689  0.043918764            9 
 3913000   0.64189315   -4.1816527    2115.3901  0.045050475  0.043909002            9 
 3914000    0.6263481   -4.2065655    2115.1184  0.045033181  0.043899258            7 
 3915000   0.62934514   -4.2021685    2111.4831  0.044944297  0.043889502           16 
 3916000   0.62049997   -4.2060358    2113.1934  0.044969216  0.043879694            5 
 3917000   0.64029272   -4.2007588    2109.7902  0.044885334  0.043869925            3 
 3918000   0.62373263    -4.175222    2117.3588  0.045034856  0.043860212            6 
 3919000   0.62646526   -4.2022213    2114.8222  0.044969426  0.043850496           11 
 3920000   0.62491904   -4.1838506    2111.0791  0.044878383  0.043840735           10 
 3921000   0.60972745   -4.1814159    2117.1648  0.044996276   0.04383097            5 
 3922000   0.64495731    -4.204858    2111.4325  0.044863006  0.043821207            6 
 3923000   0.62120905   -4.1737459     2110.117  0.044823626  0.043811434            9 
 3924000   0.62268258   -4.1493171     2117.201  0.044962644  0.043801692            8 
 3925000   0.63129637   -4.1900622    2117.8369  0.044964689     0.043792            4 
 3926000   0.61523032   -4.2074672    2119.9948   0.04499904  0.043782302           13 
 3927000   0.61740935   -4.1868863    2114.5826  0.044872731  0.043772541            7 
 3928000    0.6291314   -4.1782583    2118.1001  0.044935932  0.043762815           10 
 3929000   0.63077257   -4.1660366     2117.617  0.044914248  0.043753156            8 
 3930000   0.63321851   -4.1953528     2113.072  0.044806446  0.043743477            8 
 3931000   0.61291156    -4.163012    2119.0072  0.044920868  0.043733777            6 
 3932000   0.61229219   -4.1993724    2114.1833  0.044807209  0.043724131            6 
 3933000   0.62198736   -4.1863279    2117.8236  0.044872948  0.043714489           20 
 3934000   0.61355742     -4.19444    2109.5844  0.044687011  0.043704816            6 
 3935000   0.62040361   -4.1978558    2116.9098  0.044830787  0.043695081           13 
 3936000   0.62095281   -4.1858522    2117.8129  0.044838519  0.043685404            7 
 3937000    0.6220722   -4.1713744    2120.4889  0.044883772  0.043675758            7 
 3938000   0.61886294   -4.1897285    2115.7995   0.04477314  0.043666109            7 
 3939000   0.63721132    -4.177512    2119.5136  0.044840349   0.04365643            7 
 3940000   0.62483988   -4.1926047    2116.5083  0.044765404  0.043646749           11 
 3941000   0.62171526   -4.1995012    2117.8599  0.044782625  0.043637072            7 
 3942000   0.61661283   -4.1759434    2120.5165  0.044827425  0.043627424            5 
 3943000   0.61677908   -4.1834719    2112.5893  0.044648519  0.043617722            6 
 3944000   0.62689588    -4.185152    2114.3549  0.044674504   0.04360807           16 
 3945000   0.62527118   -4.1796859    2118.6882  0.044754715  0.043598402           16 
 3946000   0.62065701   -4.2107245    2113.8451  0.044641095   0.04358868            7 
 3947000   0.63155392   -4.1907547    2112.2541  0.044596194  0.043578981            5 
 3948000   0.61690129   -4.1923946    2117.8666  0.044703365   0.04356927           18 
 3949000   0.61641206   -4.2114366    2114.6618  0.044624416  0.043559551            7 
 3950000   0.62236247   -4.1869777    2127.1208  0.044875966  0.043549876            6 
 3951000   0.61632335   -4.1774845    2117.3104  0.044657691  0.043540214            8 
 3952000   0.61814492   -4.1939706    2116.6793  0.044633082  0.043530565           16 
 3953000   0.63506005   -4.1958833    2121.7587  0.044728871  0.043520894            8 
 3954000    0.6114627   -4.1870266    2118.8275  0.044655781  0.043511229            6 
 3955000   0.62505492   -4.2188269    2118.6411  0.044640562  0.043501557           10 
 3956000   0.61394903   -4.1805724    2120.4827  0.044668071  0.043491859           14 
 3957000   0.62489029   -4.1974796    2116.8522  0.044580326  0.043482141            6 
 3958000   0.61816658   -4.2111313    2117.8083  0.044589193  0.043472441            5 
 3959000   0.60664408   -4.2038228    2124.8025  0.044725151  0.043462724           15 
 3960000   0.61231821   -4.1924866    2119.9994  0.044612783   0.04345303            7 
 3961000   0.62684041   -4.2011426    2118.0572  0.044560659  0.043443283            6 
 3962000   0.62328612    -4.220945    2113.9835  0.044463728  0.043433486            6 
 3963000   0.63926138   -4.1881975    2111.4539  0.044399316  0.043423679            8 
 3964000   0.60624383   -4.2109908    2117.4824  0.044514851  0.043413973            9 
 3965000   0.61386028   -4.2094583    2123.3309  0.044626543  0.043404241            8 
 3966000   0.63678844   -4.2047186    2118.5893   0.04451566  0.043394502           16 
 3967000   0.63475327   -4.1984379     2117.426  0.044480001  0.043384775           19 
 3968000   0.62742669   -4.2091473    2116.0971  0.044440884  0.043375077            9 
 3969000   0.61614753    -4.190872    2113.8104  0.044381675  0.043365353            6 
 3970000   0.61994646   -4.1904602    2125.4531  0.044614884  0.043355677           12 
 3971000   0.61305857   -4.1985469    2122.6717   0.04454528  0.043346014            4 
 3972000   0.60268549   -4.1894025    2124.9847  0.044582593  0.043336381           15 
 3973000   0.61662979   -4.1938907    2119.3742  0.044453691   0.04332668            4 
 3974000   0.60760188   -4.2340486    2110.4641  0.044255663  0.043316902           18 
 3975000   0.61457185   -4.2035824    2120.3263  0.044451286  0.043307139           16 
 3976000    0.6172648   -4.2051089    2121.0768  0.044455834  0.043297448            7 
 3977000   0.61381805   -4.2102528    2114.6425  0.044309834   0.04328767            9 
 3978000   0.60380785   -4.2328678     2117.544  0.044359477  0.043277877           14 
 3979000     0.616314   -4.2095854    2115.1915  0.044299059  0.043268143            8 
 3980000   0.61319173   -4.1925655    2112.7553   0.04423692  0.043258334            7 
 3981000   0.61590136    -4.183499    2118.7362  0.044351006  0.043248659            9 
 3982000   0.61304839   -4.2163343    2120.9334  0.044385849  0.043238908            5 
 3983000   0.61392447   -4.1891272    2117.2536  0.044297715  0.043229164            9 
 3984000   0.61577341   -4.2233359    2115.8324  0.044256869  0.043219369           12 
 3985000   0.61547081   -4.2101113    2117.9446  0.044289932  0.043209562            7 
 3986000   0.62393311   -4.1960716    2120.6191  0.044334737  0.043199812           10 
 3987000   0.61630761    -4.193801    2119.4503  0.044299187   0.04319011           10 
 3988000   0.62341448   -4.2060682    2121.5333  0.044331605  0.043180404           14 
 3989000   0.61113824   -4.1853064    2126.0013  0.044413833  0.043170773            5 
 3990000   0.61362471   -4.2106226    2114.9747  0.044172404   0.04316107            8 
 3991000   0.61599082   -4.2207452    2121.1438  0.044290149  0.043151354           15 
 3992000   0.61070928   -4.2177238    2123.9464  0.044337558  0.043141647            8 
 3993000   0.61492358   -4.1898003    2126.5436  0.044380657  0.043131953            8 
 3994000   0.61991088   -4.1962754    2125.6502  0.044350905  0.043122227            7 
 3995000   0.61605935   -4.2168637    2123.0797  0.044286184  0.043112524           11 
 3996000   0.61174288   -4.2286376    2115.5605  0.044118296  0.043102766           13 
 3997000   0.61755006   -4.2013516    2120.0971  0.044201841  0.043092973           10 
 3998000   0.62237498   -4.2015206    2120.1457  0.044191798  0.043083253            8 
 3999000   0.60660981   -4.2159075    2117.2247  0.044119877  0.043073464           16 
 4000000    0.6103471   -4.2039669    2117.7743  0.044120297  0.043063671            9 
 4001000   0.61539548   -4.2045127    2121.3507  0.044183761  0.043053859            8 
 4002000   0.61061694   -4.2161122    2122.0872  0.044188056  0.043044109            6 
 4003000   0.61126491   -4.2055436    2114.2184  0.044013207  0.043034318            8 
 4004000   0.60269071    -4.203903    2115.8111  0.044035363  0.043024522            9 
 4005000   0.60523126   -4.2049717    2122.0072  0.044153292   0.04301476            4 
 4006000   0.61036783   -4.2172155    2117.2706  0.044043739     0.043005           11 
 4007000   0.60880758   -4.2023563    2120.3051  0.044095854  0.042995241           13 
 4008000   0.61104227   -4.2134351    2118.1671    0.0440404  0.042985446            6 
 4009000   0.61806851   -4.2098047    2118.4402  0.044035091  0.042975614           13 
 4010000   0.60167026   -4.2246903    2115.9128  0.043971587  0.042965814           10 
 4011000   0.60497522   -4.2264301    2118.6935  0.044018398  0.042956035           10 
 4012000   0.60552642   -4.2321877    2120.8151  0.044051492  0.042946309            5 
 4013000   0.62307973   -4.2369429    2118.0598    0.0439833  0.042936555           14 
 4014000    0.6116106   -4.2110772     2120.226  0.044017314  0.042926788            5 
 4015000    0.6097153   -4.2117584    2123.0339  0.044064631   0.04291709            9 
 4016000   0.60314655   -4.2142869    2118.5333  0.043960269   0.04290732            6 
 4017000   0.59700012   -4.1922437    2118.1217  0.043940786  0.042897514            5 
 4018000   0.61023491   -4.2118583    2123.2646  0.044036514  0.042887726           10 
 4019000   0.61030326   -4.2039511    2116.8861  0.043893301  0.042878013           14 
 4020000   0.61158469   -4.2010645    2127.5786  0.044104033  0.042868294           17 
 4021000   0.60077716   -4.2322739    2120.4764  0.043945877  0.042858585           10 
 4022000   0.60617934   -4.2268197    2124.0743  0.044009495  0.042848833           13 
 4023000    0.6134589   -4.2343068    2128.2962   0.04408601  0.042839114           10 
 4024000    0.6241985    -4.217639    2127.5977  0.044060589  0.042829439           21 
 4025000   0.61022615   -4.2289088    2120.8902   0.04391077  0.042819788           13 
 4026000   0.60340656   -4.2192845    2125.1023  0.043987049  0.042810103           16 
 4027000   0.59854599   -4.2391533    2123.4645  0.043942235  0.042800409            9 
 4028000   0.59774043   -4.2238465     2118.867  0.043836208  0.042790722            8 
 4029000    0.6164523   -4.1962697    2126.6653  0.043986624  0.042781039            7 
 4030000   0.59332972   -4.2287934    2120.8985  0.043856461  0.042771348           10 
 4031000   0.62043276   -4.2113632    2124.7372   0.04392494  0.042761608            7 
 4032000   0.60561037   -4.2292154    2126.1257  0.043942744  0.042751924           10 
 4033000   0.61414617   -4.2084025    2121.5611  0.043837531  0.042742252            7 
 4034000   0.61339071   -4.2145461    2124.8133  0.043893846  0.042732583           18 
 4035000   0.60261241   -4.2238488    2126.0701  0.043908923  0.042722894            8 
 4036000   0.59226556   -4.2098955    2128.9085  0.043956651  0.042713231           19 
 4037000   0.61437196   -4.2175718     2128.011  0.043927236  0.042703565           12 
 4038000    0.6148523   -4.2250421    2121.9412  0.043791092  0.042693909            6 
 4039000   0.60919016   -4.2144232    2122.7488  0.043796913  0.042684282            8 
 4040000   0.60872196   -4.2075449     2127.071  0.043875226  0.042674608            8 
 4041000   0.61092911   -4.2366128    2119.7707  0.043713823  0.042664888            9 
 4042000   0.60140662   -4.2382827    2123.2289  0.043774306  0.042655205            6 
 4043000   0.58695468   -4.2092878    2123.5199  0.043769477  0.042645515            6 
 4044000   0.60710827   -4.2219482    2121.0278    0.0437073  0.042635841            7 
 4045000   0.60045011   -4.2058095    2123.7497  0.043752568  0.042626132           13 
 4046000   0.60363344   -4.2436361    2120.0892  0.043666362   0.04261643           19 
 4047000   0.60678093   -4.2110798    2125.6012  0.043769071   0.04260675           20 
 4048000   0.59340025   -4.2364124    2120.2075  0.043647223  0.042597076            6 
 4049000   0.60389692   -4.2272024    2121.2962  0.043658851  0.042587354            7 
 4050000   0.59839895   -4.2204599    2122.6407  0.043675734  0.042577602           18 
 4051000   0.59268102   -4.2221105     2119.975  0.043610117  0.042567806           11 
 4052000   0.60637814   -4.2228118    2128.1124  0.043766707  0.042558032            5 
 4053000   0.59080463   -4.2263979    2122.2909  0.043636214   0.04254829           18 
 4054000   0.59093329   -4.2251213    2125.7205  0.043695948  0.042538568            6 
 4055000   0.59997565   -4.2175238    2123.0644  0.043630588  0.042528877           15 
 4056000   0.60868994   -4.2142638    2117.6588  0.043508768   0.04251912            7 
 4057000    0.6083484   -4.2186363    2124.6351  0.043641343  0.042509376           14 
 4058000   0.62277159   -4.2153328    2126.4425  0.043667703  0.042499681           21 
 4059000   0.61131638   -4.2190552    2120.9489  0.043544158  0.042489994           11 
 4060000   0.59366447   -4.2345215     2122.091  0.043556877  0.042480299           12 
 4061000   0.59593436   -4.2122934    2121.8714  0.043541644  0.042470527            5 
 4062000   0.60078173   -4.2193786    2123.7402  0.043569264  0.042460826           10 
 4063000   0.60273071   -4.2241606     2125.117   0.04358678  0.042451072           15 
 4064000   0.59569604    -4.237749    2126.7901  0.043610361  0.042441357            8 
 4065000   0.59369516    -4.231037    2127.7269  0.043618839  0.042431682           13 
 4066000   0.59921116   -4.2246162    2128.1451  0.043616681  0.042422031            8 
 4067000   0.60013131   -4.2302755    2125.5403  0.043552584  0.042412404           11 
 4068000   0.61030793   -4.2304535    2121.5777  0.043460704  0.042402679           12 
 4069000   0.60375846   -4.2027768    2121.7777  0.043454118  0.042392986           10 
 4070000    0.6079023   -4.2302028    2127.2983  0.043556477   0.04238327            7 
 4071000   0.59032245    -4.235319    2131.2359  0.043626379  0.042373561           17 
 4072000   0.59400842   -4.2474292    2124.7015   0.04348194  0.042363905           34 
 4073000   0.60790128   -4.2350202    2123.0281  0.043437026  0.042354205           10 
 4074000   0.59982425   -4.2076162    2126.7547  0.043502592  0.042344543            7 
 4075000   0.59982746   -4.2414932    2125.3744  0.043463689  0.042334905            8 
 4076000   0.58763846   -4.2466871    2130.3027  0.043553784  0.042325227            6 
 4077000   0.60959772   -4.2475753    2126.3029  0.043461346  0.042315576           14 
 4078000   0.59708797   -4.2303604    2128.6264  0.043498168  0.042305879           12 
 4079000   0.59976399   -4.2371417    2132.5595  0.043567858  0.042296228           10 
 4080000   0.59527597    -4.231681    2124.8759  0.043400242  0.042286585           12 
 4081000   0.59754423   -4.2237865    2126.0298  0.043413172  0.042276969           20 
 4082000   0.59117947   -4.2341943    2126.7965  0.043418188  0.042267346            8 
 4083000   0.59524889   -4.2337273    2126.9009  0.043409685  0.042257735            7 
 4084000   0.58028422   -4.2436624    2129.8078   0.04345837  0.042248109           17 
 4085000   0.60149748    -4.198958    2131.9759  0.043491961  0.042238526            8 
 4086000   0.59523933   -4.2239778    2132.5283  0.043492582  0.042228973            9 
 4087000   0.58842037   -4.2019308    2132.5984  0.043483371  0.042219411            5 
 4088000   0.60746731   -4.2459447    2124.5997   0.04330968   0.04220982           23 
 4089000   0.59319142   -4.2214557    2125.5043  0.043317525  0.042200183            5 
 4090000   0.59979174   -4.2288211    2127.7782  0.043353265  0.042190593            5 
 4091000   0.60077117   -4.2371489    2127.2705  0.043332326  0.042180966           18 
 4092000    0.5898273    -4.240178    2127.4369  0.043325124  0.042171343            5 
 4093000   0.60880323   -4.2365086    2132.9462  0.043426708  0.042161688           14 
 4094000   0.60187545   -4.2446727    2127.9282  0.043313959  0.042152055           10 
 4095000   0.58478289   -4.2556628    2130.6613  0.043359002  0.042142433           15 
 4096000   0.60029519    -4.229227    2129.8031  0.043330955  0.042132847           13 
 4097000   0.59736228   -4.2189683     2132.869  0.043382739  0.042123277           14 
 4098000   0.60384816   -4.2357381    2128.0294   0.04327374   0.04211372           13 
 4099000   0.58929843   -4.2179149    2132.9648  0.043363519  0.042104157            8 
 4100000   0.60194872   -4.2390787    2132.3954   0.04334137  0.042094617           19 
 4101000   0.59038224    -4.242251    2124.8696  0.043177876  0.042085005           11 
 4102000   0.59766971   -4.2339814    2124.0696  0.043151097  0.042075364            7 
 4103000   0.59645348   -4.2305788    2130.3255  0.043267639  0.042065734           19 
 4104000   0.58580292   -4.2463518    2131.6183  0.043283348  0.042056136            6 
 4105000   0.60043076   -4.2248348    2128.7351  0.043214274  0.042046515           10 
 4106000   0.59664797   -4.2416367    2125.5661  0.043139432  0.042036875           13 
 4107000   0.59412928   -4.2441705    2129.8128  0.043215096  0.042027302            7 
 4108000    0.5944487   -4.2626376    2124.6043  0.043098918  0.042017722           12 
 4109000    0.5817242   -4.2359456    2130.0982  0.043199851  0.042008151            9 
 4110000   0.58206239   -4.2422717    2124.1894  0.043069533  0.041998578            9 
 4111000   0.59689262   -4.2345502    2126.7251  0.043110458  0.041988923           10 
 4112000   0.58109747   -4.2432093    2128.5801  0.043137567  0.041979337            5 
 4113000   0.58052661   -4.2418114    2127.1445  0.043097993  0.041969785           11 
 4114000   0.59538588   -4.2222126    2129.2343  0.043129848  0.041960209            9 
 4115000    0.5995955   -4.2404287    2126.8223  0.043070521  0.041950592           12 
 4116000   0.57858768    -4.243715    2126.7823  0.043059247  0.041940997            5 
 4117000   0.58648331   -4.2339448    2131.3739  0.043141728  0.041931425            9 
 4118000   0.58547885   -4.2556871    2132.0616  0.043145167  0.041921804            9 
 4119000   0.57949697   -4.2613647    2128.7345  0.043067381  0.041912164           18 
 4120000   0.59767597   -4.2697884    2126.2141  0.043005949  0.041902508            4 
 4121000   0.58493813   -4.2702803    2131.4595  0.043101584  0.041892862           16 
 4122000   0.59385844   -4.2139791    2128.6042  0.043033402  0.041883273           12 
 4123000   0.60488569   -4.2404181    2127.4841  0.043000326  0.041873699            9 
 4124000   0.59329803   -4.2713331    2129.5992  0.043032638  0.041864057            9 
 4125000   0.58852338   -4.2468177    2123.5193  0.042899381   0.04185438           12 
 4126000   0.58874244   -4.2581968    2129.2456  0.043004638  0.041844706           11 
 4127000    0.5879935   -4.2571561    2133.9162  0.043088527  0.041835091           11 
 4128000   0.59049304   -4.2553825    2127.5321   0.04294921  0.041825468            7 
 4129000   0.58549948   -4.2549384     2133.285  0.043054917   0.04181589            8 
 4130000   0.57713118   -4.2555856    2134.6689  0.043072414  0.041806298           10 
 4131000   0.59744374   -4.2566071    2132.7645  0.043023572  0.041796744            7 
 4132000   0.57585411   -4.2647965    2128.8004  0.042933211  0.041787198            6 
 4133000   0.58178323   -4.2375792    2126.2236  0.042870869  0.041777627           11 
 4134000   0.57736908   -4.2524046    2128.6919  0.042910254   0.04176807           15 
 4135000    0.5923353    -4.267647    2124.5914  0.042817238  0.041758477            8 
 4136000   0.58966685   -4.2352924     2127.863  0.042872805   0.04174886           26 
 4137000   0.59727407   -4.2471356    2133.2706  0.042971369  0.041739317            9 
 4138000   0.58361098   -4.2410509    2133.0025  0.042955585  0.041729821            8 
 4139000   0.58483542   -4.2723859    2128.6305  0.042857181  0.041720265           12 
 4140000    0.5853893    -4.260471    2130.0428  0.042875257  0.041710666           15 
 4141000   0.56976983    -4.255806     2133.378  0.042932021  0.041701141           13 
 4142000   0.60236734   -4.2413935     2133.377  0.042921635  0.041691563            9 
 4143000   0.60458763   -4.2364609    2136.1118  0.042966284  0.041682005           25 
 4144000   0.58444887   -4.2620059    2132.5032   0.04288335  0.041672414           10 
 4145000   0.58114786   -4.2502253    2132.7716    0.0428784   0.04166284           28 
 4146000   0.60083904   -4.2537498    2136.0591  0.042934135  0.041653274            8 
 4147000   0.59151429   -4.2462149     2128.604  0.042773973  0.041643708            5 
 4148000   0.57622055   -4.2333065    2127.6164   0.04274382  0.041634159           20 
 4149000   0.58811973   -4.2520273    2134.9893  0.042881603  0.041624566            7 
 4150000   0.58066004   -4.2431852     2136.777   0.04290717  0.041615029           22 
 4151000   0.59108248   -4.2521365    2134.8564  0.042858276  0.041605479           10 
 4152000   0.58863991   -4.2711933    2131.6428  0.042783453  0.041595897            8 
 4153000   0.58144067   -4.2624733    2126.7297  0.042674567   0.04158629            7 
 4154000   0.57624198   -4.2570958    2129.7436  0.042724755   0.04157676            7 
 4155000   0.59479657   -4.2528203    2135.7221  0.042834378  0.041567195            9 
 4156000    0.5865064   -4.2464729    2129.5593    0.0427005  0.041557653           14 
 4157000   0.59244797    -4.274812    2132.2293  0.042743751  0.041548025           19 
 4158000   0.58251747   -4.2554523    2133.4491  0.042757919   0.04153842            9 
 4159000   0.58664412   -4.2521743    2133.0152  0.042738943  0.041528878            8 
 4160000   0.58734092   -4.2542457    2131.5068  0.042698455  0.041519296           16 
 4161000   0.60110223   -4.2695029    2133.2042  0.042722187   0.04150972           16 
 4162000   0.59844098   -4.2373877     2129.774   0.04264324  0.041500169            7 
 4163000   0.58558313   -4.2442277    2133.3071   0.04270372    0.0414906           13 
 4164000    0.5855992    -4.252324    2136.9645   0.04276666  0.041481065            6 
 4165000   0.58601794   -4.2400234     2134.565  0.042708383   0.04147155           11 
 4166000   0.59099669   -4.2568628    2132.1536  0.042649896     0.041462            8 
 4167000   0.58927307   -4.2535683    2130.9188  0.042614967  0.041452502           10 
 4168000   0.58537745   -4.2671928     2127.854  0.042543465  0.041442918           15 
 4169000   0.59181921   -4.2608782    2129.0204  0.042556577  0.041433285            7 
 4170000   0.58299398   -4.2642699    2137.7171  0.042720165  0.041423742            4 
 4171000   0.57518831   -4.2528497    2138.4594  0.042724754  0.041414251            3 
 4172000   0.58279305   -4.2727404    2133.5132  0.042615716  0.041404749            8 
 4173000    0.5861846   -4.2705108    2129.3799  0.042522964  0.041395235           14 
 4174000   0.57960496   -4.2748112    2128.9676  0.042504543  0.041385652            7 
 4175000   0.58202559   -4.2591762    2133.1854  0.042578551  0.041376068           15 
 4176000   0.58795856    -4.250159    2137.6016  0.042656481  0.041366467            8 
 4177000   0.58716043   -4.2476419    2139.2175  0.042678507  0.041356951            7 
 4178000   0.59447218   -4.2772524    2132.8079  0.042540448  0.041347394           24 
 4179000   0.58983062   -4.2681271    2138.8242  0.042650238  0.041337894            7 
 4180000   0.57887602    -4.288957    2130.0956  0.042466021  0.041328314           16 
 4181000   0.56919964   -4.2628508    2133.9894  0.042533472  0.041318739           14 
 4182000    0.5805353   -4.2762758    2133.8332  0.042520189  0.041309205           12 
 4183000   0.57474943   -4.2689243    2127.7327  0.042388491  0.041299565            9 
 4184000    0.5951378   -4.2756722    2131.8736  0.042460834  0.041289967           20 
 4185000   0.58011541   -4.2517818    2133.1518   0.04247614  0.041280406           27 
 4186000    0.5935398   -4.2484214    2138.6919  0.042576285  0.041270894            8 
 4187000   0.58002455   -4.2651245    2127.8267  0.042349866   0.04126139            8 
 4188000   0.58701014   -4.2817788    2133.6797  0.042456217  0.041251798            8 
 4189000   0.58381164   -4.2796781    2128.2724  0.042338514  0.041242192           26 
 4190000   0.58408631   -4.2730567    2125.3775  0.042270834  0.041232583           11 
 4191000   0.56829425   -4.2707412    2131.7456   0.04238737  0.041222961            7 
 4192000   0.58123859   -4.2569616    2133.1822  0.042405816  0.041213421            7 
 4193000   0.57790619   -4.2712195    2133.7523  0.042407034  0.041203851           14 
 4194000   0.58405373   -4.2620322    2139.7909  0.042516908  0.041194243            8 
 4195000    0.5879602      -4.2609    2131.8832  0.042349686  0.041184673           10 
 4196000   0.58668996   -4.2728373    2128.5194  0.042272788    0.0411751           12 
 4197000   0.59053873   -4.2898445    2134.7353  0.042386134  0.041165499           12 
 4198000   0.58364919   -4.2763399    2129.9712  0.042281468  0.041155867           13 
 4199000   0.57379095   -4.2607445    2129.0467   0.04225305  0.041146265           23 
 4200000   0.57838061   -4.2576099    2135.8933  0.042378835  0.041136669           13 
 4201000   0.57035177   -4.2863643     2124.349  0.042139749  0.041127048           20 
 4202000   0.59128495    -4.249355    2129.9734  0.042241261  0.041117448           18 
 4203000   0.58045229    -4.268402    2132.9525  0.042290279  0.041107848           11 
 4204000   0.58398785   -4.2439157    2134.8278  0.042317393  0.041098273            9 
 4205000   0.57518446   -4.2860673    2126.9382  0.042150975  0.041088665           12 
 4206000   0.58847508   -4.2718918    2127.0732  0.042143629  0.041079109           11 
 4207000    0.5897771    -4.261718    2130.3032  0.042197592  0.041069582           11 
 4208000    0.5765981   -4.2613459    2137.0549   0.04232127  0.041060041            9 
 4209000   0.58870682   -4.2493818    2134.0163  0.042251055  0.041050495           10 
 4210000     0.590298   -4.2928971    2128.4999  0.042131827  0.041040888            8 
 4211000    0.5814113   -4.2754117    2134.7752  0.042246007    0.0410313            8 
 4212000   0.57250295   -4.2618924    2137.0249  0.042280486  0.041021706           10 
 4213000   0.57996155   -4.2738461    2127.7329  0.042086654  0.041012095            5 
 4214000   0.58183702   -4.2579462    2135.0687  0.042221735  0.041002497           18 
 4215000   0.57057265    -4.271693    2127.2073  0.042056292  0.040992914           12 
 4216000   0.57926347    -4.295725    2125.9644  0.042021751  0.040983295            6 
 4217000    0.5691149   -4.2610192    2133.2356  0.042155473  0.040973666           14 
 4218000   0.57105928   -4.2768274    2135.9151  0.042198417  0.040964005           14 
 4219000   0.58730009   -4.2889635    2130.5504  0.042082452  0.040954364           16 
 4220000   0.56835853   -4.2597876    2131.1727  0.042084769  0.040944778           11 
 4221000   0.59111679   -4.2629534    2141.1288  0.042271357  0.040935232           13 
 4222000   0.58030558   -4.2973207    2133.9332   0.04211932  0.040925639           11 
 4223000   0.57838904   -4.2665165     2127.288  0.041978215  0.040916029           10 
 4224000   0.58438662     -4.30816     2126.992  0.041962437  0.040906411           22 
 4225000   0.57708758    -4.273494    2130.1583  0.042014957  0.040896787           12 
 4226000   0.56700586   -4.2942939    2127.5905   0.04195438  0.040887147            9 
 4227000   0.58133691   -4.2840868    2129.3866  0.041979863   0.04087743            7 
 4228000   0.56093873   -4.2822909    2132.4047   0.04202942  0.040867836           16 
 4229000   0.56680343    -4.285458    2128.4045  0.041940659  0.040858225            9 
 4230000   0.56891337   -4.2826308    2130.0845   0.04196384   0.04084862            7 
 4231000   0.57230617   -4.2651053    2128.9746  0.041932061  0.040839041            5 
 4232000   0.57738092   -4.2973089    2129.8108  0.041938619  0.040829476            9 
 4233000   0.57209932   -4.2935713     2132.289  0.041977499  0.040819892            8 
 4234000   0.58082673   -4.2935186    2132.4054  0.041969874  0.040810349            7 
 4235000   0.57419394   -4.2820686    2127.0486  0.041854557  0.040800772            6 
 4236000   0.56674254   -4.2783127    2130.9252  0.041920939  0.040791171           15 
 4237000   0.56986285   -4.2805368    2133.0435  0.041952708  0.040781603           16 
 4238000   0.58162202   -4.2710788    2135.7911  0.041996836  0.040772043            4 
 4239000   0.58195592   -4.2822694    2135.1714  0.041974746  0.040762468           13 
 4240000   0.57545878   -4.2878897    2133.4278  0.041930578  0.040752934           11 
 4241000   0.56760417   -4.2703018    2132.2575  0.041897694  0.040743369            6 
 4242000   0.56187495   -4.2901846    2137.8543  0.041997767  0.040733791           15 
 4243000   0.57950329    -4.291078    2132.9998  0.041892526  0.040724241            6 
 4244000   0.56726099   -4.2842717    2138.2378  0.041985506  0.040714701           10 
 4245000   0.57183978   -4.2759586    2138.3074  0.041976981  0.040705152            6 
 4246000   0.57557195   -4.2649911    2138.8732  0.041978199  0.040695566           17 
 4247000   0.57089945   -4.3089344    2130.6553  0.041807065  0.040686013           24 
 4248000   0.56361231   -4.2860782    2133.1126   0.04184543  0.040676375            8 
 4249000   0.56807822   -4.2920685    2128.3853  0.041742867   0.04066676           11 
 4250000    0.5703692   -4.2813849    2127.1351  0.041708531  0.040657143           10 
 4251000    0.5732171    -4.275876    2128.5773  0.041726992   0.04064752           12 
 4252000   0.56595092   -4.2826746    2135.6262  0.041855327  0.040637928           14 
 4253000   0.55644386   -4.3010425    2133.2793  0.041799501  0.040628397            7 
 4254000   0.57647495   -4.3031707    2127.2386   0.04167134  0.040618853           12 
 4255000   0.56436151   -4.2848754     2133.545  0.041785056  0.040609255            9 
 4256000   0.57945949   -4.2999739    2130.3806  0.041713278  0.040599674            8 
 4257000   0.57109906   -4.2953786    2135.9518   0.04181254  0.040590093           18 
 4258000   0.57781333   -4.2825626    2131.5531  0.041716634  0.040580512           15 
 4259000   0.54963391   -4.2804295    2133.6363  0.041747599  0.040570953            8 
 4260000   0.57612439    -4.272563    2135.1193   0.04176681  0.040561439            6 
 4261000   0.56320073   -4.2681467    2137.5092  0.041803747    0.0405519           11 
 4262000    0.5733472   -4.2833144     2133.336  0.041712342  0.040542379            7 
 4263000   0.56534517   -4.2796799    2129.2489  0.041622662  0.040532806           16 
 4264000   0.57288833   -4.3100623    2129.9631  0.041626858  0.040523251            9 
 4265000   0.57436965   -4.2927529    2137.5001  0.041764364  0.040513631           22 
 4266000   0.57820361   -4.2850506    2129.4561  0.041597439  0.040504033           14 
 4267000   0.55841105   -4.2967647    2132.7433  0.041651889   0.04049441            9 
 4268000   0.56849764   -4.2649734    2137.5119  0.041735238  0.040484821            8 
 4269000   0.57356017   -4.2761998    2133.5043  0.041647229    0.0404753           14 
 4270000   0.57661642   -4.2841572    2131.1435  0.041591404  0.040465764            9 
 4271000   0.57073244    -4.321205    2130.3414  0.041566015  0.040456161           13 
 4272000   0.57068613   -4.2982087    2135.2722  0.041652469  0.040446574           15 
 4273000   0.55969384    -4.280383    2131.4225  0.041567643  0.040436979           12 
 4274000   0.57398797   -4.2994802    2129.4387  0.041519239  0.040427368            9 
 4275000   0.56619844   -4.3121593    2129.9694  0.041519871   0.04041772            6 
 4276000   0.56763419   -4.2812133    2129.9415  0.041509618  0.040408086           33 
 4277000   0.58253043   -4.2765625      2137.71  0.041651273  0.040398471           20 
 4278000   0.56149517   -4.2907212    2130.2114   0.04149547  0.040388902           42 
 4279000    0.5700291   -4.3048069    2131.9556  0.041519741  0.040379282           14 
 4280000   0.56980001   -4.2877035    2130.1313  0.041474518  0.040369667           18 
 4281000   0.57047017    -4.310471    2133.9447  0.041539061  0.040360069            9 
 4282000   0.56599741    -4.296939    2124.2047  0.041339809  0.040350428           11 
 4283000   0.56365347    -4.265402    2133.1931  0.041505041  0.040340848            6 
 4284000   0.56262897   -4.2717504    2132.7415  0.041486568  0.040331296            7 
 4285000   0.56724923   -4.2869273    2133.2357  0.041486498   0.04032171            8 
 4286000    0.5657067   -4.2927514     2134.464    0.0415007  0.040312128           30 
 4287000   0.56281654   -4.2769568    2131.1544  0.041426685   0.04030259            5 
 4288000   0.57843045   -4.2871127     2134.401  0.041480118  0.040293001            5 
 4289000   0.55122557   -4.2788808    2136.3036  0.041507413  0.040283437           17 
 4290000   0.56725815   -4.2911465     2133.247  0.041438365  0.040273833           17 
 4291000    0.5640322    -4.284892    2136.8114   0.04149793  0.040264248            9 
 4292000   0.56886377   -4.3128866    2130.6869  0.041369349  0.040254636           15 
 4293000   0.56944736   -4.2934795    2127.7942  0.041303561  0.040245001            7 
 4294000   0.56296407    -4.297848    2132.8347  0.041391762  0.040235404           13 
 4295000   0.55086464   -4.3055522    2135.7736  0.041439147  0.040225785           20 
 4296000   0.56938405   -4.3144847    2131.0802  0.041338458  0.040216177           11 
 4297000    0.5588085   -4.2851736    2137.5385  0.041454085  0.040206568           12 
 4298000   0.56055191   -4.3032964     2127.561  0.041250989  0.040196988           11 
 4299000   0.57208517    -4.292501    2130.1635  0.041291841  0.040187394            8 
 4300000   0.56076044   -4.3200929    2133.3392  0.041343784  0.040177783           13 
 4301000   0.55259414   -4.3054437    2128.5237  0.041240869  0.040168179           11 
 4302000   0.55477088   -4.2851095     2129.055  0.041241574  0.040158615            9 
 4303000   0.56479285   -4.3083456    2126.4716  0.041181958  0.040149016            6 
 4304000   0.56072477   -4.2959163    2135.4285  0.041345813  0.040139418           15 
 4305000   0.57870438   -4.2990569    2133.8511  0.041305673   0.04012981            9 
 4306000   0.55953125   -4.2799632    2131.9125  0.041258563  0.040120188            8 
 4307000    0.5559879    -4.304912    2132.1477  0.041253535  0.040110579            9 
 4308000   0.55531988   -4.3158594    2134.0911  0.041281551  0.040100941           21 
 4309000   0.56183186   -4.2992682    2129.3463  0.041180209  0.040091354           23 
 4310000   0.56486402   -4.3067602    2127.0302  0.041125874  0.040081772           23 
 4311000   0.56139316   -4.2996139     2135.121  0.041272732  0.040072153           10 
 4312000   0.56438121   -4.2880456    2137.3452  0.041306145  0.040062569           10 
 4313000   0.57876882   -4.2918287    2133.6228  0.041224646  0.040053022           13 
 4314000   0.55125541   -4.3084333    2133.1503  0.041205964  0.040043403           14 
 4315000   0.55835039   -4.2992759    2131.0595  0.041156034  0.040033802           10 
 4316000   0.57021293   -4.3074118    2127.9257  0.041085993  0.040024189           11 
 4317000   0.56656421   -4.3010092    2132.2748  0.041160428  0.040014586           14 
 4318000   0.55472714   -4.3080467    2130.6042  0.041118655   0.04000496            9 
 4319000   0.56353788   -4.3001993    2133.9311  0.041173325  0.039995382           13 
 4320000   0.56588118    -4.300906    2136.8653  0.041220396  0.039985842           15 
 4321000   0.55156681   -4.3042205    2135.2209  0.041179142  0.039976313           14 
 4322000   0.56117872   -4.3041022    2137.0176  0.041204258   0.03996673           10 
 4323000    0.5668533   -4.3097363     2128.221  0.041025156  0.039957144            7 
 4324000   0.56566854   -4.3008279    2129.9977   0.04104991  0.039947541            8 
 4325000   0.56686764   -4.3068895    2134.1178  0.041119803  0.039938008           15 
 4326000   0.56315725   -4.3216948     2127.871  0.040989964   0.03992847            9 
 4327000   0.55596135   -4.2865676    2134.4391  0.041106985  0.039918931           13 
 4328000   0.55753867   -4.3087151    2133.2367  0.041074335  0.039909342           15 
 4329000   0.55679429   -4.3062674     2126.828  0.040941479  0.039899777            9 
 4330000   0.57211601   -4.3026263    2131.6847  0.041025495  0.039890172            8 
 4331000   0.56212288   -4.3028668    2132.3238   0.04102832  0.039880617           18 
 4332000   0.56664309   -4.3090016    2136.2381  0.041094147  0.039871073            9 
 4333000   0.56210867   -4.3138206    2133.0872  0.041024064   0.03986152           10 
 4334000   0.56414126   -4.3185002    2133.6918  0.041026223  0.039851912           13 
 4335000   0.56483718   -4.3281291    2130.6491  0.040958268  0.039842319           13 
 4336000   0.56113637   -4.3030862    2133.3127  0.041000013  0.039832766            9 
 4337000   0.55688051   -4.3117277    2132.7953  0.040980617  0.039823167           12 
 4338000     0.546992   -4.2959535    2134.8764   0.04101115  0.039813566           15 
 4339000   0.55725403   -4.3381945    2134.8609    0.0410014  0.039803978           24 
 4340000   0.55293351    -4.303556    2127.6798  0.040854068  0.039794375            6 
 4341000   0.56540373   -4.3101676    2134.7443  0.040980271  0.039784799           11 
 4342000   0.55868343    -4.323175    2131.6011  0.040910507  0.039775209           11 
 4343000   0.55442854   -4.2936911    2130.6088  0.040882048  0.039765611            7 
 4344000   0.54335825   -4.3189266    2131.4831  0.040889409  0.039755997            5 
 4345000   0.57395684   -4.3238857    2131.5316  0.040880928  0.039746407           11 
 4346000   0.54793017   -4.3251213    2128.6181  0.040815656  0.039736857           14 
 4347000   0.55061392   -4.3311262    2135.8437  0.040944785  0.039727269           23 
 4348000   0.54519993   -4.3111428    2130.6068  0.040834996  0.039717632           24 
 4349000    0.5546501    -4.301581    2135.9262  0.040927535  0.039708079           14 
 4350000   0.55725441   -4.3099105    2136.0676  0.040920835  0.039698494           11 
 4351000   0.55219664   -4.3188353    2134.6533  0.040884342  0.039688898            6 
 4352000   0.56232194   -4.3188638    2126.6576  0.040721844  0.039679327            8 
 4353000    0.5671933   -4.3149398    2129.5506  0.040767873  0.039669742            9 
 4354000   0.55144124   -4.3356655    2134.3728  0.040850804  0.039660172           15 
 4355000   0.56177346   -4.3278793    2130.4552  0.040766459  0.039650543           12 
 4356000    0.5526267   -4.3228677    2130.8558  0.040764765  0.039640938           14 
 4357000    0.5588219   -4.3254409    2133.8024  0.040811766  0.039631354           12 
 4358000   0.56374152   -4.3270714    2132.1245  0.040770318  0.039621787           16 
 4359000   0.56658459   -4.3158981    2131.6607  0.040752097  0.039612252           15 
 4360000   0.55639791   -4.3234662    2136.2438  0.040830348  0.039602685           17 
 4361000   0.54755706   -4.3011822      2133.33  0.040765306  0.039593147           16 
 4362000   0.56439092   -4.3138808    2131.5567  0.040722082  0.039583592           18 
 4363000   0.56869416   -4.3320086    2133.2916  0.040745886  0.039574082           14 
 4364000   0.56307918   -4.3019617     2133.817  0.040746582  0.039564572            7 
 4365000   0.55193712   -4.3286807    2127.4205  0.040615129  0.039555014           13 
 4366000   0.55191218   -4.3197832    2130.9863  0.040673887  0.039545461           11 
 4367000   0.55413111   -4.3158443    2136.0501  0.040761203  0.039535911           13 
 4368000   0.55381989   -4.3004623    2133.0251   0.04069416  0.039526339           20 
 4369000   0.55320974   -4.3307123     2133.323  0.040690528  0.039516784           10 
 4370000   0.56039454   -4.3169098    2131.1786  0.040640325  0.039507212           12 
 4371000   0.56049209    -4.326111    2134.6413  0.040697043  0.039497634            6 
 4372000   0.54386413   -4.3335565    2135.1647   0.04069771  0.039488043           11 
 4373000    0.5463226   -4.3348061    2130.3739   0.04059711  0.039478443           10 
 4374000   0.55004662   -4.3293053    2128.6351  0.040554701  0.039468824           19 
 4375000    0.5657639   -4.3333251    2128.8171  0.040548897  0.039459235           12 
 4376000   0.55457671   -4.3091969    2130.8729  0.040578781  0.039449679           12 
 4377000   0.55112491   -4.3239166    2136.4813  0.040676287  0.039440131           18 
 4378000   0.55573294   -4.3381759    2134.2953  0.040625386  0.039430603           12 
 4379000   0.55575584   -4.3266691    2127.9556  0.040495463  0.039421033           27 
 4380000   0.54866654   -4.3484329     2125.174  0.040433296  0.039411416           20 
 4381000   0.57213359   -4.3353836    2135.3291  0.040617231  0.039401814            9 
 4382000    0.5424378   -4.3239041    2131.6181   0.04053739  0.039392279            9 
 4383000   0.55466291   -4.3355438     2136.196  0.040615181  0.039382708            6 
 4384000   0.55163977   -4.3155288    2131.6571  0.040519638  0.039373146            5 
 4385000   0.56390447    -4.335288     2133.591  0.040547148  0.039363642           15 
 4386000   0.56327715   -4.3284457    2128.6189  0.040443435  0.039354106           16 
 4387000    0.5462356   -4.3200307    2131.8502  0.040495597  0.039344571           12 
 4388000   0.55032978   -4.3243172    2128.6719  0.040426009  0.039334971            6 
 4389000     0.546112    -4.325738    2136.1528  0.040558836  0.039325432           18 
 4390000   0.53889279   -4.3201154    2130.2816  0.040438148   0.03931588           12 
 4391000   0.55486042   -4.3244959    2131.5526   0.04045306  0.039306351            8 
 4392000   0.55753152   -4.3421562    2129.1998  0.040399207  0.039296818            6 
 4393000   0.54380009   -4.3296979     2132.197  0.040446865  0.039287272           15 
 4394000   0.55767529   -4.3188397    2129.6045  0.040388493  0.039277711           13 
 4395000   0.54880368   -4.3257674    2133.4659   0.04045252  0.039268164            9 
 4396000   0.52818428   -4.3459666    2126.2455  0.040306444   0.03925858           12 
 4397000   0.55295418    -4.339532     2135.073  0.040464578  0.039248998           14 
 4398000   0.54266563   -4.3227548    2128.9342  0.040339059  0.039239472           10 
 4399000   0.55456791   -4.3372641    2130.5384   0.04036028  0.039229941           17 
 4400000   0.55061782   -4.3461036    2132.0581  0.040379889  0.039220402           14 
 4401000   0.54338258   -4.3499284    2128.2901  0.040299366  0.039210843           15 
 4402000   0.54031831   -4.3324088     2130.408  0.040330304  0.039201296           14 
 4403000   0.54837397   -4.3449211    2127.9356   0.04027435  0.039191716           11 
 4404000   0.55215909   -4.3380542     2133.902  0.040378104  0.039182171           16 
 4405000   0.55347635   -4.3417733    2133.5228  0.040361764  0.039172613           16 
 4406000   0.55659502   -4.3259114    2130.3454  0.040292506  0.039163059           11 
 4407000   0.54337822   -4.3257765    2135.8784  0.040387989  0.039153505            7 
 4408000   0.55027177   -4.3228404    2133.7883  0.040339314  0.039143983           11 
 4409000   0.54833099   -4.3362701    2131.3739  0.040284529  0.039134454           12 
 4410000   0.54544962   -4.3384602    2135.7901  0.040358846  0.039124927           14 
 4411000   0.54950623   -4.3347964    2127.9355  0.040201306  0.039115426           10 
 4412000   0.54254783   -4.3374585    2129.4799  0.040221365  0.039105914           26 
 4413000   0.55003407   -4.3327228    2130.8599   0.04023831  0.039096401            9 
 4414000   0.53740388   -4.3430633    2131.8204  0.040247326  0.039086835           11 
 4415000   0.53926822   -4.3427228      2130.94  0.040221594  0.039077263           17 
 4416000   0.53727982   -4.3393518    2129.8334  0.040191603  0.039067707           29 
 4417000   0.54204834   -4.3346469    2128.9596  0.040166018  0.039058191           30 
 4418000   0.56985927   -4.3423285    2136.8109  0.040305019    0.0390487           10 
 4419000   0.54870631   -4.3088531    2132.0752  0.040206593  0.039039218           14 
 4420000    0.5325743   -4.3499521    2129.9352  0.040157149  0.039029687           13 
 4421000   0.53594881   -4.3492159    2130.7328  0.040163101  0.039020196            7 
 4422000    0.5424874   -4.3438148    2130.8688   0.04015658  0.039010706           19 
 4423000    0.5553783   -4.3234271    2135.0692  0.040226642  0.039001227           14 
 4424000   0.54167765   -4.3290019    2135.0397  0.040216992  0.038991746           19 
 4425000   0.55403364   -4.3365862    2133.1168  0.040171692  0.038982267           10 
 4426000   0.54303283   -4.3410202    2134.6149  0.040190822  0.038972782           14 
 4427000   0.53945124   -4.3669966    2129.7837  0.040090801  0.038963283           11 
 4428000   0.54079923   -4.3394062    2129.7399  0.040080922    0.0389538            8 
 4429000   0.54620939   -4.3294102    2136.7075  0.040202971  0.038944353            8 
 4430000   0.54679117   -4.3352497     2135.014   0.04016204  0.038934883            7 
 4431000    0.5432659   -4.3446034    2129.8408  0.040055683  0.038925381           13 
 4432000   0.54416492    -4.319189    2129.3364  0.040037162  0.038915893            9 
 4433000    0.5363703   -4.3493009    2131.8628  0.040075622  0.038906427           16 
 4434000   0.53619793   -4.3347005    2133.7393  0.040101851  0.038896951            8 
 4435000   0.55333291   -4.3562177    2130.4721  0.040031418  0.038887477           14 
 4436000    0.5506242   -4.3410894    2135.1614  0.040110486   0.03887804           23 
 4437000    0.5448325   -4.3340083     2131.036  0.040023965  0.038868571           15 
 4438000   0.54020468   -4.3544284    2129.1094  0.039978771  0.038859128           21 
 4439000   0.53942668   -4.3352386    2138.9776   0.04015502  0.038849671           12 
 4440000   0.53254952   -4.3398698    2133.6813  0.040046571  0.038840256            9 
 4441000   0.52963983   -4.3542958    2130.3059  0.039974216  0.038830793           15 
 4442000   0.54717606   -4.3645923    2135.0113   0.04005349  0.038821308            7 
 4443000   0.53988942   -4.3438347    2132.2053  0.039991846    0.0388118           15 
 4444000   0.53662134   -4.3432083    2137.1856  0.040076237  0.038802325           23 
 4445000   0.53708966    -4.353802    2132.4223   0.03997792  0.038792889           13 
 4446000   0.55357538   -4.3558036    2131.9866  0.039960763  0.038783449           11 
 4447000   0.54662066   -4.3422043    2135.7268  0.040021864  0.038773998           14 
 4448000   0.53785748   -4.3546004    2136.4532  0.040026477  0.038764555           15 
 4449000    0.5336966   -4.3473218    2134.7486   0.03998555   0.03875515           21 
 4450000   0.53588354   -4.3238323    2135.1294  0.039983697  0.038745762           16 
 4451000   0.53718939   -4.3455615    2134.4896  0.039962735   0.03873634           42 
 4452000   0.54587219   -4.3445431    2137.4328   0.04000885  0.038726931           32 
 4453000   0.53978519   -4.3370958    2137.7589  0.040005969  0.038717582           13 
 4454000   0.52615533   -4.3422182    2132.8819  0.039905738  0.038708211           12 
 4455000   0.53887651   -4.3491628    2135.6325  0.039948233  0.038698791           10 
 4456000   0.54663187   -4.3600633    2134.8703  0.039925013  0.038689372           18 
 4457000   0.53403617   -4.3504484    2132.8548  0.039878371  0.038679971           16 
 4458000   0.54219984   -4.3391882    2135.5409  0.039919638   0.03867056           10 
 4459000   0.53099263   -4.3617572     2134.772  0.039896314  0.038661172           13 
 4460000   0.54313475   -4.3309299    2142.0454   0.04002327  0.038651811            6 
 4461000   0.54159743   -4.3488884    2133.3039  0.039851004  0.038642472            8 
 4462000   0.53967988   -4.3250663    2136.0368  0.039893113  0.038633134           14 
 4463000   0.53148834    -4.344987    2131.1207  0.039792379  0.038623801           17 
 4464000   0.54794675   -4.3580968    2137.3802  0.039900317  0.038614474            7 
 4465000   0.53973672   -4.3599437    2137.1065  0.039886273  0.038605124           11 
 4466000   0.53446463   -4.3612704    2136.8967  0.039873427   0.03859575           14 
 4467000   0.54765143   -4.3433966    2135.8106  0.039844238  0.038586402           11 
 4468000   0.53555947   -4.3608148    2133.7411  0.039796724  0.038577046           11 
 4469000   0.52663264   -4.3534212    2136.9319  0.039847317  0.038567684           16 
 4470000   0.54783523   -4.3472345    2137.3679  0.039846531  0.038558317           15 
 4471000   0.52764549   -4.3473895    2132.8301   0.03975304  0.038548962           12 
 4472000   0.53169793   -4.3787567    2134.0187  0.039766299  0.038539557           18 
 4473000   0.53836191    -4.357823    2135.4222  0.039783558  0.038530147           15 
 4474000    0.5330483   -4.3566546    2132.8004  0.039725831  0.038520764           19 
 4475000   0.54720181   -4.3609753    2134.0622  0.039740451  0.038511407           18 
 4476000   0.54007125   -4.3540027     2137.804  0.039801236  0.038502043           11 
 4477000   0.52786953   -4.3501486    2137.0272  0.039777887  0.038492682            8 
 4478000    0.5464853   -4.3557753    2136.5297  0.039759746  0.038483312           14 
 4479000   0.53359525   -4.3537537    2139.1263   0.03979918  0.038474011           13 
 4480000   0.53574752    -4.363521    2137.2123  0.039754693   0.03846472           12 
 4481000   0.53788595    -4.365084    2138.1536  0.039763327  0.038455368            8 
 4482000   0.54220372   -4.3828148    2137.7412  0.039746788  0.038446023           14 
 4483000   0.52598894   -4.3549954    2133.3131  0.039655609  0.038436667           12 
 4484000   0.54002067   -4.3497924    2132.5135  0.039631904   0.03842727            7 
 4485000   0.52911237   -4.3698968    2133.9537  0.039649828  0.038417916           13 
 4486000   0.52582646    -4.368434     2136.732    0.0396926  0.038408558           16 
 4487000   0.54587599    -4.372329    2136.3365  0.039676408  0.038399235           11 
 4488000   0.53533893   -4.3552721    2143.6874  0.039804059  0.038389933           22 
 4489000   0.52607595   -4.3480355    2138.9993  0.039708163  0.038380659           19 
 4490000   0.52235837   -4.3648002     2134.789  0.039621178  0.038371336            8 
 4491000   0.53717767    -4.367661     2137.293  0.039658818  0.038362013           18 
 4492000   0.52931931   -4.3646392    2140.6138  0.039711594  0.038352733           21 
 4493000   0.53323767   -4.3665766    2137.5274  0.039645511  0.038343453           17 
 4494000    0.5355353   -4.3602022    2140.5152  0.039692093  0.038334183           20 
 4495000   0.53290241   -4.3572511    2139.2768  0.039660305  0.038324916           17 
 4496000   0.53727664   -4.3720248    2134.5392  0.039563671   0.03831564           19 
 4497000   0.52359532   -4.3631763    2136.3508  0.039588445  0.038306348           15 
 4498000    0.5424809   -4.3642703    2140.1902  0.039650774  0.038297038           11 
 4499000   0.53835406   -4.3720747    2139.3756  0.039626872   0.03828774           13 
 4500000   0.53478997   -4.3760033    2134.2476  0.039523105  0.038278447           11 
 4501000    0.5257899   -4.3741464     2139.189   0.03960581  0.038269181           27 
 4502000   0.52631161   -4.3648913    2137.1906  0.039560022  0.038259916           22 
 4503000   0.52423202    -4.339848    2133.4478   0.03948197  0.038250643           13 
 4504000   0.53703702   -4.3671302    2139.8049  0.039590824  0.038241369           19 
 4505000   0.54434667   -4.3689942    2136.1685  0.039514772   0.03823209            8 
 4506000   0.53338594   -4.3626251    2140.0837  0.039578409  0.038222809            6 
 4507000   0.53634608   -4.3774494    2137.6911  0.039525388  0.038213539           18 
 4508000   0.51817717   -4.3646949    2139.9079    0.0395576  0.038204249           12 
 4509000    0.5329457    -4.360405    2130.5201  0.039375325  0.038194938           22 
 4510000   0.53124688   -4.3689672    2142.8969  0.039595286  0.038185665           18 
 4511000   0.52240891   -4.3613116    2136.8921  0.039475579  0.038176407           11 
 4512000    0.5215564   -4.3678132    2132.0504  0.039377409  0.038167128           14 
 4513000    0.5303994    -4.363379    2135.8943  0.039439661  0.038157821            6 
 4514000   0.53257102   -4.3577224    2137.2329  0.039455637  0.038148546           19 
 4515000   0.52370215   -4.3639202    2134.6731  0.039399652  0.038139294           14 
 4516000   0.53046311   -4.3910633    2138.2777  0.039457442  0.038130013           15 
 4517000   0.54156452   -4.3682209    2142.0747  0.039518756  0.038120718            5 
 4518000   0.52916905   -4.3528781     2139.903  0.039469954   0.03811143            8 
 4519000   0.54203629   -4.3647552    2134.3931  0.039359612  0.038102192           10 
 4520000   0.52855041   -4.3630344    2140.1705   0.03945742  0.038092911           13 
 4521000    0.5442143   -4.3596352     2141.391  0.039471191  0.038083669            8 
 4522000   0.53200032   -4.3724741    2135.8642  0.039360611  0.038074381            8 
 4523000   0.52419382   -4.4006289    2133.2958  0.039304588   0.03806506           11 
 4524000   0.53344824   -4.3887396    2134.0338  0.039309494  0.038055746           23 
 4525000   0.53364059    -4.368387    2135.0633  0.039319767  0.038046463           22 
 4526000   0.52622848   -4.3634111    2140.7563  0.039415899  0.038037195           13 
 4527000   0.52769723   -4.3627779    2136.6718  0.039332005  0.038027938           12 
 4528000   0.52917636   -4.3768022    2139.3616  0.039372821  0.038018648           15 
 4529000   0.52268834   -4.3735354    2138.3418  0.039345363  0.038009375           19 
 4530000   0.52475852   -4.3761858    2137.8414  0.039327473  0.038000047           13 
 4531000   0.51134303   -4.3823948    2134.1828  0.039251505   0.03799077           25 
 4532000   0.52955336   -4.3716287    2132.3153  0.039208504  0.037981442           23 
 4533000   0.52069273   -4.3724704    2138.2299  0.039308588  0.037972161           16 
 4534000   0.52447852   -4.3716983    2138.2451  0.039300197  0.037962901           13 
 4535000   0.52228438   -4.3851772    2134.2123  0.039217425  0.037953636           19 
 4536000   0.53294582   -4.3643825    2134.4313  0.039212802  0.037944352           11 
 4537000   0.53353933   -4.3831341    2138.2479  0.039274262  0.037935062           18 
 4538000   0.52099992   -4.3832368    2137.1892  0.039246165  0.037925744           25 
 4539000   0.52247727   -4.3717541    2139.7732  0.039284961  0.037916502           13 
 4540000   0.52495117   -4.3883176    2133.0177  0.039152308  0.037907234           29 
 4541000   0.51555846   -4.3812548    2132.4119  0.039132567  0.037897933           21 
 4542000   0.51847142   -4.3996865    2137.5443  0.039218117  0.037888621           17 
 4543000   0.52139248   -4.3896734    2134.7474  0.039158182  0.037879291            8 
 4544000   0.53533562   -4.3722881    2131.2816  0.039086004  0.037870012           13 
 4545000    0.5205412   -4.3511334    2136.3148  0.039169689  0.037860771           33 
 4546000   0.52277833   -4.3796635    2139.0879  0.039211906   0.03785152           16 
 4547000   0.52681713   -4.3676896    2138.3978  0.039190635  0.037842274           15 
 4548000   0.53781229   -4.3615735    2137.1841  0.039159779  0.037833044           13 
 4549000   0.52958808   -4.3576088    2136.7228  0.039142719  0.037823792           38 
 4550000   0.52690817    -4.350876    2138.6025  0.039168545  0.037814563           25 
 4551000   0.51888655    -4.390252     2135.496  0.039103054  0.037805308           25 
 4552000   0.51819669   -4.3917867    2135.0008  0.039085399  0.037796033           15 
 4553000   0.51353962   -4.3699529    2136.6757   0.03910747  0.037786785           25 
 4554000   0.51296523   -4.3834276    2136.8047  0.039101243  0.037777567           10 
 4555000   0.52676391   -4.3877659    2135.1674  0.039062705  0.037768309           20 
 4556000   0.53136004   -4.3719087    2134.2503  0.039037355  0.037759037           14 
 4557000   0.52749499   -4.3690383    2139.3686  0.039122386  0.037749775           16 
 4558000   0.52242684   -4.3879856     2134.445  0.039023786  0.037740534           38 
 4559000   0.52800464    -4.373073    2137.2771  0.039066994  0.037731265           14 
 4560000   0.51385816   -4.3739692    2133.6177  0.038991552  0.037722003           14 
 4561000   0.52099971   -4.3935244    2130.7644   0.03893087  0.037712763           14 
 4562000   0.52831702   -4.3812113    2142.3125  0.039133285  0.037703546           12 
 4563000    0.5302569   -4.3807331     2135.619  0.039002465  0.037694313            6 
 4564000   0.50661865   -4.3850627    2137.8698  0.039035017  0.037685054           18 
 4565000   0.52914219   -4.3761262    2134.9801  0.038973715  0.037675823            9 
 4566000   0.50672512    -4.384225    2137.5451  0.039011993  0.037666627           23 
 4567000   0.53206156   -4.3992753    2136.8625  0.038990994  0.037657391           18 
 4568000   0.52046036   -4.3957291    2136.1737  0.038969894  0.037648125           11 
 4569000    0.5189534   -4.3671273    2139.2445  0.039017372  0.037638902           29 
 4570000   0.52588597   -4.3767027     2135.947  0.038948706  0.037629683           21 
 4571000   0.51350654   -4.3720707     2139.223  0.038999909   0.03762048           19 
 4572000   0.51643989   -4.3688272     2136.945  0.038949857  0.037611273           15 
 4573000   0.51878871   -4.3719921    2136.2863  0.038929336  0.037602065            6 
 4574000   0.51274851    -4.391488    2134.4589  0.038887532  0.037592824           36 
 4575000   0.51377158   -4.3929229    2133.7498  0.038866117  0.037583603           20 
 4576000   0.52457467   -4.3985476     2135.046  0.038881228  0.037574372           11 
 4577000   0.52136554   -4.3772292    2138.0076  0.038926654  0.037565091           14 
 4578000   0.51433149   -4.3979505    2137.2647  0.038904629  0.037555847           18 
 4579000   0.51250644   -4.3999102    2132.7117  0.038813272  0.037546584           31 
 4580000   0.51996291   -4.3756465    2134.4774  0.038836925  0.037537318           16 
 4581000   0.52346622   -4.3957323      2138.23  0.038896711  0.037528042           53 
 4582000   0.51305587    -4.387306    2139.4208  0.038909879  0.037518823           26 
 4583000   0.52108806   -4.4028865    2137.7579  0.038871152  0.037509593           20 
 4584000   0.51419971    -4.389776     2137.784  0.038863148  0.037500401           22 
 4585000   0.51235528   -4.3884836     2133.178  0.038770956  0.037491195            8 
 4586000    0.5138608   -4.3730869    2137.4543  0.038840207  0.037481998           21 
 4587000   0.50377555   -4.3782172    2139.6041  0.038870797  0.037472812           18 
 4588000   0.51340678   -4.3783099    2138.1131  0.038835243   0.03746363           14 
 4589000   0.51076095   -4.3830866    2136.8069   0.03880306  0.037454451           15 
 4590000   0.50927289   -4.3809224    2135.2119  0.038765648  0.037445271           27 
 4591000   0.51188894   -4.3915023    2135.6894  0.038765873  0.037436064           18 
 4592000    0.5190635   -4.3841831    2136.6175  0.038774272   0.03742684           10 
 4593000   0.50958094   -4.3909498    2137.1245  0.038775029   0.03741762           11 
 4594000   0.52255978   -4.3939872    2142.3055  0.038860571   0.03740844           34 
 4595000   0.51600889   -4.4059781    2135.7959  0.038734057  0.037399214           30 
 4596000   0.51740107   -4.4000058    2138.9182  0.038782242  0.037390031           18 
 4597000   0.51089952      -4.3833    2136.5323  0.038730554  0.037380856           20 
 4598000   0.51201729   -4.3933477    2136.0936  0.038714181  0.037371651           39 
 4599000   0.52631663   -4.3867822    2137.3546  0.038728612   0.03736247           13 
 4600000   0.51106123   -4.3894604    2136.0245  0.038696096  0.037353266           13 
 4601000   0.51065508   -4.3909152    2134.7774  0.038665099  0.037344074           15 
 4602000   0.51421799   -4.3975742    2135.6952  0.038673315    0.0373349           15 
 4603000   0.50608785   -4.4007649    2140.5272  0.038752394  0.037325749           18 
 4604000    0.5115661   -4.4060497    2136.4751  0.038670632  0.037316572           21 
 4605000   0.51043048   -4.3830095    2136.8038  0.038668184  0.037307381           27 
 4606000   0.52095919   -4.4027802    2138.1754  0.038684604  0.037298201           19 
 4607000     0.506976   -4.4077722     2140.402  0.038716482  0.037288997           18 
 4608000   0.51144613   -4.4029955    2138.1872  0.038668026  0.037279795            8 
 4609000   0.51443987   -4.4067076     2134.193  0.038587419   0.03727057           16 
 4610000    0.5172515   -4.4073285    2135.0731  0.038594959  0.037261349           13 
 4611000   0.52454804    -4.405485    2131.8003   0.03852744  0.037252136           22 
 4612000   0.51408466   -4.4153864    2127.6096  0.038443366  0.037242884           35 
 4613000   0.51588838   -4.4087567    2136.6937  0.038599135  0.037233676           21 
 4614000   0.51137604   -4.3863628    2136.5004  0.038587278  0.037224499           17 
 4615000   0.49671741   -4.3900152    2134.5184  0.038543128  0.037215298           13 
 4616000   0.51043611   -4.3870234    2131.7827   0.03848539  0.037206128           19 
 4617000   0.51025907   -4.4073825    2132.7573  0.038494645  0.037196954            9 
 4618000   0.50685822    -4.415612     2138.724   0.03859398   0.03718778           10 
 4619000   0.51138286   -4.4024492    2134.4598  0.038508692  0.037178579           20 
 4620000   0.51529846   -4.4034661    2132.5777  0.038466408  0.037169386           51 
 4621000   0.51208539   -4.3956509    2140.7123  0.038604781  0.037160205           21 
 4622000   0.50506227   -4.3964277    2137.6597  0.038541391   0.03715104           19 
 4623000   0.50945237   -4.4053654    2128.4228  0.038366551  0.037141855           11 
 4624000   0.51713205   -4.4001095      2137.19  0.038516255  0.037132699           41 
 4625000   0.51598143   -4.4201042    2138.8348  0.038537564  0.037123544            6 
 4626000   0.50838646   -4.4116515    2137.8051  0.038510685  0.037114348           14 
 4627000   0.49918829   -4.4001509     2135.883  0.038467743  0.037105183           22 
 4628000   0.50969555   -4.4022803    2139.0773   0.03851695  0.037096019           17 
 4629000   0.51191157   -4.4211838    2136.9405  0.038470161  0.037086857           13 
 4630000    0.5110575   -4.3928489    2139.9242  0.038515555  0.037077671           12 
 4631000   0.52065858    -4.404537    2138.3554  0.038479007  0.037068502           10 
 4632000   0.51571322   -4.4030179    2134.9725   0.03840984  0.037059362           17 
 4633000   0.50787701   -4.4064922    2139.6132   0.03848502  0.037050216           31 
 4634000   0.52036721   -4.3982549    2139.2597  0.038470359  0.037041064           23 
 4635000    0.5099602   -4.4156571     2134.244  0.038371881  0.037031922            8 
 4636000   0.50679651   -4.3956529    2138.4308  0.038438862  0.037022747           14 
 4637000   0.49646614   -4.3966135    2136.5508  0.038396786  0.037013565           13 
 4638000   0.51020067   -4.4251164    2138.1946  0.038418042  0.037004404           27 
 4639000   0.50626592   -4.4082358    2131.6185  0.038291631  0.036995223           20 
 4640000   0.50318425   -4.4272817    2131.2306  0.038276413  0.036986013           13 
 4641000   0.50126521   -4.4198235    2137.1621   0.03837467  0.036976806           15 
 4642000   0.50866424   -4.3866174     2135.907  0.038343871  0.036967617           16 
 4643000   0.51272841   -4.3945969    2132.9677  0.038282857  0.036958462           12 
 4644000    0.5146802   -4.4085651    2136.7267  0.038342068  0.036949328           56 
 4645000   0.50437747   -4.4073001    2137.6688  0.038350715    0.0369402           13 
 4646000    0.5100427   -4.3960418    2135.9919  0.038312382   0.03693105           24 
 4647000   0.51582146   -4.4222019    2135.4402  0.038294244  0.036921907           24 
 4648000   0.50731777   -4.4160942     2142.586  0.038414121  0.036912774           16 
 4649000   0.50548414   -4.4062552    2134.2054  0.038255636  0.036903654           20 
 4650000   0.50289572   -4.3970827    2135.1872  0.038265003  0.036894556           23 
 4651000   0.50455865   -4.4061055    2138.6672  0.038319129  0.036885432            6 
 4652000    0.5053599   -4.3966914    2139.2228  0.038320845  0.036876313           14 
 4653000    0.5005431   -4.4070451    2136.2163  0.038258762  0.036867209           19 
 4654000    0.5095236   -4.4149717    2136.0937  0.038248347  0.036858077           13 
 4655000   0.50249366   -4.4213704    2134.5326  0.038212184  0.036848907           13 
 4656000   0.50818192    -4.428867    2133.8331  0.038191457  0.036839731           12 
 4657000   0.51114401   -4.4129977    2131.7411  0.038145822  0.036830583           11 
 4658000   0.51047369   -4.4258671    2140.3994  0.038292532  0.036821403           27 
 4659000   0.50313461   -4.4033378    2135.6837  0.038199966   0.03681224           20 
 4660000   0.50627481   -4.4175916     2134.843  0.038176734  0.036803098           28 
 4661000   0.50096647   -4.3976154    2137.1178  0.038209215  0.036793945           19 
 4662000   0.50158801   -4.4144509    2134.3318  0.038151218  0.036784826           18 
 4663000   0.50868487   -4.4237494    2138.4739  0.038217061  0.036775695           18 
 4664000   0.50353643   -4.4291956    2135.1589  0.038149638  0.036766563           28 
 4665000   0.50566903   -4.4043492      2137.18  0.038177564  0.036757428           17 
 4666000   0.50795878    -4.418051    2139.7766  0.038215756   0.03674829           14 
 4667000   0.50829002   -4.4195727    2135.8043  0.038136639  0.036739162           31 
 4668000   0.49193606   -4.4046255    2137.8226    0.0381645  0.036729998           14 
 4669000   0.50581648   -4.4456459    2132.1398  0.038054898  0.036720834            8 
 4670000   0.50895255   -4.4383802    2130.2103  0.038012318  0.036711657           12 
 4671000   0.50937506   -4.4251656    2133.3242  0.038059733  0.036702503           38 
 4672000   0.50285212   -4.4312651    2137.7243  0.038130071  0.036693344           18 
 4673000   0.48387234   -4.4306732    2134.3131   0.03806108  0.036684186           28 
 4674000   0.50490542   -4.4429927    2132.9833  0.038029227  0.036674995           27 
 4675000   0.50324174   -4.4332591    2129.4413  0.037957956  0.036665838           21 
 4676000   0.49712835   -4.4276287    2132.5369  0.038005007  0.036656667           17 
 4677000   0.51530957    -4.397411    2134.1146  0.038024991  0.036647548           18 
 4678000   0.49452273   -4.4155391    2132.8524  0.037994378  0.036638427           19 
 4679000    0.5059917   -4.4106427    2131.3099  0.037958786  0.036629304           38 
 4680000   0.50438194   -4.4166769    2133.9732  0.037998098  0.036620199           28 
 4681000   0.50012128   -4.4396912    2133.0084  0.037972805  0.036611054           47 
 4682000   0.50386755   -4.4315704    2133.5775  0.037974823  0.036601902           16 
 4683000   0.50607676   -4.4224858    2130.9628  0.037920187  0.036592754           52 
 4684000   0.50281313   -4.4249688    2132.0157  0.037930823  0.036583616           23 
 4685000   0.49321227   -4.4096946    2141.2568  0.038087101  0.036574491           37 
 4686000   0.49390412   -4.4172519    2132.0113  0.037914555  0.036565393           41 
 4687000   0.49640152   -4.4184421    2134.8705  0.037957303    0.0365563           36 
 4688000   0.50457499   -4.4328924    2131.1901  0.037883783  0.036547159           54 
 4689000   0.51227151   -4.4173717    2139.6121  0.038025381  0.036538019           43 
 4690000   0.48361391   -4.4354696    2134.8566  0.037932775  0.036528924           18 
 4691000   0.50044345   -4.4230296    2139.8231  0.038012917  0.036519834           26 
 4692000   0.50190855   -4.4297148    2136.7918  0.037950976  0.036510728           27 
 4693000   0.49864595   -4.4306429    2134.2872  0.037898415   0.03650162           16 
 4694000   0.49088813   -4.4277095    2132.9183   0.03786604  0.036492491           29 
 4695000   0.50233718   -4.4291739    2135.9493  0.037911773   0.03648344           63 
 4696000   0.48411836   -4.4401706    2139.1137  0.037959854  0.036474387           26 
 4697000   0.50849586   -4.4133034    2134.6126  0.037871914  0.036465324           40 
 4698000   0.49593857   -4.4237802    2138.6067  0.037934701  0.036456284           32 
 4699000    0.4988754   -4.4410021    2131.8426  0.037806671  0.036447204           23 
 4700000   0.48803465   -4.4219127    2131.9398  0.037800351  0.036438109           31 
 4701000   0.49794408   -4.4306975    2138.4327  0.037907407  0.036429023           18 
 4702000   0.50327556   -4.4392411    2134.9562  0.037837732  0.036419914           33 
 4703000   0.49576833   -4.4334899    2131.7984  0.037773733  0.036410807           83 
 4704000   0.49578478   -4.4106392    2133.7992  0.037801148  0.036401707           16 
 4705000   0.50216683   -4.4140658    2136.8311  0.037846813  0.036392619           17 
 4706000    0.4988301   -4.4145219    2131.1892  0.037738865  0.036383564           22 
 4707000   0.49659923   -4.4182736    2139.7564  0.037882522   0.03637451           15 
 4708000   0.50201328    -4.432545    2136.9699  0.037825154  0.036365415           43 
 4709000   0.50733768    -4.445619     2133.185  0.037750142  0.036356368           25 
 4710000   0.49907148   -4.4338851    2134.6322  0.037767731  0.036347291           13 
 4711000   0.49804979   -4.4213909    2138.0709  0.037820543  0.036338224           19 
 4712000   0.49841397   -4.4497139    2132.7296  0.037718053  0.036329146           24 
 4713000   0.50593837   -4.4217548     2134.775  0.037746216  0.036320101            9 
 4714000    0.5090179   -4.4100322     2134.044  0.037725286  0.036311029           17 
 4715000   0.50259839   -4.4238449    2131.3396  0.037669487  0.036301944           43 
 4716000   0.49374525   -4.4454595    2134.0113   0.03770871  0.036292865           32 
 4717000   0.49848818    -4.427147    2135.3843  0.037724972  0.036283775           42 
 4718000   0.48942375   -4.4254068    2134.3253  0.037698272  0.036274703           19 
 4719000    0.5035295   -4.4205595    2135.6603  0.037713857  0.036265638           34 
 4720000   0.50465713   -4.4365967    2135.4387  0.037701954  0.036256588           23 
 4721000   0.49891629   -4.4321133    2130.0255  0.037598417  0.036247541           27 
 4722000    0.5142667   -4.4471941     2133.271  0.037647731  0.036238452           24 
 4723000   0.49751461   -4.4388137    2129.2595   0.03756898  0.036229381           31 
 4724000   0.49738766   -4.4445629    2130.2695  0.037578845  0.036220297           28 
 4725000   0.48422923   -4.4413302    2130.2158  0.037569943  0.036211235           27 
 4726000   0.49765798    -4.417015    2132.1179  0.037595533  0.036202154           31 
 4727000   0.49108682    -4.448659    2136.5673  0.037666019    0.0361931           33 
 4728000   0.49787165   -4.4510544    2129.4182  0.037532047  0.036184018           18 
 4729000   0.49747986   -4.4480088    2134.7951   0.03761886   0.03617495           46 
 4730000   0.49396673   -4.4515455    2133.0446  0.037580066  0.036165871           28 
 4731000   0.49247111   -4.4414831    2131.8918  0.037551819  0.036156789           10 
 4732000    0.5052641   -4.4385657    2131.3248  0.037533896  0.036147716           33 
 4733000   0.48345005   -4.4315962    2136.6434  0.037619611  0.036138653           17 
 4734000   0.49127754   -4.4310019    2137.6556  0.037629482  0.036129668           26 
 4735000   0.48873373   -4.4444355    2139.1646  0.037648093  0.036120643           41 
 4736000   0.48562263   -4.4445398      2139.41  0.037644461  0.036111652           25 
 4737000   0.49795789   -4.4402587    2133.1325   0.03752608  0.036102659           14 
 4738000   0.49082914    -4.443445    2134.9479  0.037550089  0.036093654            9 
 4739000    0.4963912   -4.4418601    2133.3583  0.037514214  0.036084654           13 
 4740000   0.49531383    -4.440104    2140.2488  0.037627441  0.036075649           11 
 4741000   0.49989929   -4.4192534    2136.3818  0.037551533  0.036066664           10 
 4742000   0.49998604   -4.4367465     2133.896   0.03749993  0.036057659           15 
 4743000   0.49317254   -4.4297356    2131.2393  0.037445346  0.036048684           20 
 4744000   0.49387262   -4.4390758    2136.9961  0.037538576  0.036039729           20 
 4745000   0.49289728   -4.4452523    2133.9133  0.037476525  0.036030699           12 
 4746000   0.49450157   -4.4440678    2128.0231  0.037365205  0.036021707            8 
 4747000   0.49434315   -4.4332585    2134.9258   0.03747851  0.036012687           11 
 4748000     0.492185   -4.4367123    2135.6248  0.037482884  0.036003705           14 
 4749000   0.48500999   -4.4416177    2136.7699  0.037495085  0.035994712           20 
 4750000   0.50285286   -4.4371918    2130.5359  0.037377822  0.035985678           13 
 4751000   0.49232739   -4.4431836    2136.3913   0.03747266  0.035976652           20 
 4752000   0.48815549   -4.4347287    2132.6386  0.037398965  0.035967652           23 
 4753000   0.49552751   -4.4229254    2142.0097  0.037555398  0.035958659           18 
 4754000   0.49666159   -4.4330249    2136.9143  0.037458181  0.035949689           34 
 4755000   0.49170957   -4.4493755    2133.4721  0.037389977  0.035940707           10 
 4756000   0.50371942   -4.4499818    2135.8503  0.037423785  0.035931714           12 
 4757000   0.48638237   -4.4221435    2131.5404  0.037340417  0.035922713           50 
 4758000   0.49881884   -4.4421932    2139.7873   0.03747701  0.035913734           25 
 4759000   0.49724177   -4.4494082    2132.2963  0.037337961  0.035904742           24 
 4760000   0.48277333   -4.4664832    2131.3356  0.037313299  0.035895723           42 
 4761000   0.48654441   -4.4583101    2136.2927  0.037392227  0.035886702           25 
 4762000   0.48754054   -4.4571237     2133.026  0.037327208  0.035877713           25 
 4763000   0.49174298   -4.4520414    2132.0683  0.037302615  0.035868736           22 
 4764000   0.48054996   -4.4475673    2131.8903  0.037291671  0.035859705           13 
 4765000   0.48762651   -4.4434272    2124.9856  0.037163093  0.035850697           17 
 4766000   0.47706854   -4.4650224    2130.3059   0.03724832  0.035841676           20 
 4767000    0.4978498   -4.4469773    2133.7147  0.037300096  0.035832668           26 
 4768000   0.48489586    -4.434936    2134.7267   0.03730996   0.03582368           32 
 4769000   0.49179614   -4.4484779    2130.8506  0.037234406  0.035814717           19 
 4770000   0.48237767   -4.4650852    2138.0078  0.037351639  0.035805706           20 
 4771000    0.4825229   -4.4559479    2135.5231   0.03730041  0.035796683           35 
 4772000   0.47292514   -4.4470714    2131.6083  0.037224229  0.035787647           28 
 4773000   0.48378228   -4.4540102    2129.9459  0.037187406  0.035778632           16 
 4774000   0.49295922   -4.4403044    2130.1792  0.037183689  0.035769621           27 
 4775000   0.48193767   -4.4394825    2132.2263  0.037211629  0.035760619           16 
 4776000   0.49095353   -4.4631137    2136.2819    0.0372746  0.035751628           14 
 4777000   0.48770134   -4.4582376    2135.4605  0.037252469  0.035742661           27 
 4778000   0.49079113   -4.4549343    2131.7044  0.037179161  0.035733708           13 
 4779000   0.48458773   -4.4595832    2133.3443  0.037199977  0.035724716           34 
 4780000   0.48824891    -4.465151    2130.6877  0.037145881  0.035715743            9 
 4781000   0.48770897   -4.4461034    2135.9086  0.037229112  0.035706774            9 
 4782000   0.48044042   -4.4433258     2133.246  0.037174926  0.035697788           14 
 4783000   0.48615858   -4.4388971    2133.0489   0.03716372   0.03568882           18 
 4784000   0.49668438   -4.4627249    2134.0014  0.037172543   0.03567985           28 
 4785000   0.49066354   -4.4453071    2133.1403  0.037149779  0.035670874           32 
 4786000   0.49304685   -4.4571474    2129.1363    0.0370723  0.035661878           18 
 4787000   0.48568335   -4.4650858    2131.6065  0.037107558  0.035652875           36 
 4788000   0.48665736   -4.4611231    2132.6276  0.037117578  0.035643886           42 
 4789000   0.48632806    -4.467513    2131.9322  0.037097727  0.035634903           38 
 4790000   0.49037645   -4.4522626    2132.4284  0.037098615  0.035625901           10 
 4791000   0.48965355   -4.4583062    2131.1538  0.037068702  0.035616893           59 
 4792000   0.48247811    -4.458602     2131.751  0.037071351  0.035607885           49 
 4793000   0.48322566   -4.4650742    2132.4987  0.037076617  0.035598924           10 
 4794000   0.48506839   -4.4451441    2133.9062   0.03709335   0.03558997           21 
 4795000   0.48761734   -4.4517812    2132.4977  0.037061134  0.035581027           18 
 4796000   0.49682655   -4.4627767    2127.2246  0.036961784  0.035572071           15 
 4797000   0.48397166   -4.4606384    2133.3037  0.037059686  0.035563124            6 
 4798000   0.48671426   -4.4519815    2130.3682  0.037000977  0.035554184           13 
 4799000   0.49979213   -4.4500529    2141.1366  0.037180255   0.03554522           34 
 4800000   0.47245731   -4.4560039    2131.0983  0.036998234  0.035536248           36 
 4801000   0.48553681   -4.4642373    2130.0844   0.03697293  0.035527266           58 
 4802000   0.47771347   -4.4495211    2130.1116  0.036965702  0.035518278           41 
 4803000   0.49814249   -4.4753691    2133.6122  0.037018741  0.035509298           55 
 4804000   0.47500534   -4.4728056     2132.865  0.036998074  0.035500326           79 
 4805000   0.47770779   -4.4703151    2131.5613  0.036967764  0.035491362           28 
 4806000   0.48395668   -4.4645172    2129.1344  0.036917992  0.035482405           39 
 4807000   0.49283134   -4.4550494    2131.8969  0.036958202  0.035473438           38 
 4808000   0.47807176   -4.4680443    2135.8788   0.03701953  0.035464501           23 
 4809000   0.47788078   -4.4629916    2133.0082  0.036962088  0.035455569           21 
 4810000   0.48544391    -4.458099    2129.9108  0.036900741  0.035446639           16 
 4811000   0.48775361   -4.4584621    2131.0659   0.03691308  0.035437694           29 
 4812000   0.47901193   -4.4390414    2130.1029  0.036888732  0.035428733           40 
 4813000   0.48416274   -4.4674703     2128.207  0.036848241  0.035419797           18 
 4814000   0.49282161   -4.4634933    2133.4649  0.036931604  0.035410853           31 
 4815000   0.47232686   -4.4621268    2132.5205  0.036907588  0.035401917           25 
 4816000   0.47276428   -4.4749773    2131.1288  0.036875845  0.035392981           42 
 4817000   0.48183566   -4.4513086    2127.0291  0.036797264  0.035384068           58 
 4818000   0.47268716   -4.4819689     2127.475  0.036797341  0.035375114           59 
 4819000   0.48768985   -4.4559956    2132.8591  0.036882809   0.03536619           21 
 4820000   0.47377025   -4.4727941    2130.9184  0.036841605  0.035357273           60 
 4821000   0.47526894   -4.4763059    2130.8991  0.036833629  0.035348357           40 
 4822000   0.47893445   -4.4759328    2131.1818  0.036830876  0.035339438           51 
 4823000   0.47635821   -4.4711525    2136.7973  0.036920267  0.035330521           46 
 4824000   0.48579826   -4.4587669    2129.9784  0.036794818  0.035321614           36 
 4825000   0.48437155   -4.4637102    2131.7115  0.036817125  0.035312677           29 
 4826000    0.4711179   -4.4663967     2136.837     0.036898  0.035303779           15 
 4827000   0.48511524   -4.4816775    2134.0134  0.036841609  0.035294855           36 
 4828000   0.48515283   -4.4808316    2132.9955   0.03681641  0.035285936           28 
 4829000   0.49219101   -4.4834836    2133.4508  0.036816642  0.035277015           33 
 4830000   0.48863811   -4.4724784    2131.2468  0.036770994  0.035268109           26 
 4831000   0.48891747   -4.4662994    2131.8283  0.036773413  0.035259206           27 
 4832000   0.47559947   -4.4865037    2130.7409  0.036747049  0.035250279           24 
 4833000   0.46480424   -4.4764655    2132.7537  0.036774152  0.035241366           31 
 4834000   0.47453114   -4.4754193    2128.2486  0.036688882  0.035232436           73 
 4835000   0.48792725    -4.485185     2132.226  0.036749845  0.035223533           88 
 4836000    0.4924816   -4.4709336    2132.2953   0.03674344  0.035214631           64 
 4837000   0.48075566   -4.4897975     2130.502  0.036704948  0.035205732           27 
 4838000   0.46923178   -4.4685544    2134.4467  0.036765307  0.035196792           31 
 4839000   0.48400382    -4.481692    2131.9543  0.036714787   0.03518791           23 
 4840000   0.47645345   -4.4759651    2133.6268  0.036735999  0.035179016           30 
 4841000   0.47504042   -4.4839822    2127.6335  0.036625242  0.035170108           19 
 4842000   0.47034934   -4.4874401    2128.6127  0.036634529  0.035161195           22 
 4843000   0.46284331   -4.4719503    2129.0293  0.036634134  0.035152251            9 
 4844000   0.48299829   -4.4752142      2128.43  0.036616261   0.03514333           18 
 4845000   0.48312679   -4.4756263    2134.0879  0.036706018  0.035134401            9 
 4846000    0.4860558   -4.4752801     2131.601  0.036655678  0.035125495           37 
 4847000   0.47013153   -4.4672878    2131.5814  0.036647779  0.035116589           26 
 4848000   0.48530381   -4.4612604    2128.2991  0.036583799  0.035107727           17 
 4849000   0.47760749   -4.4698058     2129.579   0.03659825  0.035098855           33 
 4850000   0.48042901   -4.4575174    2134.1757  0.036669686  0.035089985           26 
 4851000   0.48028716   -4.4611229    2133.8231  0.036656069  0.035081118           26 
 4852000   0.47035779   -4.4645835    2137.2412  0.036707221  0.035072256           16 
 4853000   0.48167488   -4.4845426    2135.6994  0.036673181  0.035063394           15 
 4854000   0.47702593   -4.4855518    2130.7584  0.036580799   0.03505453           37 
 4855000   0.47573941   -4.4721657     2132.449  0.036602284  0.035045674           46 
 4856000   0.47412451   -4.4897489    2132.0515  0.036587924  0.035036831           20 
 4857000   0.47215755   -4.4799581    2129.5299  0.036537127  0.035027991           15 
 4858000   0.46286498   -4.4774133     2134.219  0.036610041   0.03501915           20 
 4859000   0.47202103   -4.4817336     2129.739  0.036525675  0.035010299           15 
 4860000    0.4648361   -4.4776389    2127.2661  0.036475757  0.035001425           16 
 4861000   0.47462122     -4.48322    2130.5924  0.036525276  0.034992539            8 
 4862000   0.48271739    -4.476618    2126.5946  0.036449243  0.034983662           20 
 4863000   0.47400818   -4.4761609    2128.0895  0.036467364  0.034974769           33 
 4864000   0.47747012   -4.4878519    2129.6299  0.036486257  0.034965895           39 
 4865000   0.46773182   -4.4677144    2131.8766  0.036517242  0.034956995           35 
 4866000   0.47510286   -4.4839025    2126.7291  0.036421583  0.034948114           39 
 4867000   0.46460206   -4.4818618    2130.6145  0.036480626  0.034939258           34 
 4868000   0.48381934   -4.4720984    2129.9286   0.03646139  0.034930394           50 
 4869000   0.47041103    -4.469939    2131.6415  0.036483219  0.034921553           54 
 4870000   0.46595879   -4.4764304    2130.4061  0.036454587  0.034912712           45 
 4871000   0.47861836   -4.4671803    2132.8585  0.036489059  0.034903907           24 
 4872000   0.47391807   -4.4773065    2132.2126  0.036470522  0.034895087           35 
 4873000   0.46740196   -4.4809046    2137.4754  0.036553038  0.034886246           11 
 4874000   0.47048304   -4.4752021    2130.4475  0.036425377  0.034877419           12 
 4875000   0.47634991   -4.4934137    2130.5645  0.036419906  0.034868615           17 
 4876000   0.48251078   -4.4795097    2133.5441   0.03646336  0.034859797           15 
 4877000   0.47831734   -4.4689247    2131.4683  0.036420414     0.034851           19 
 4878000   0.46523625   -4.4784693    2133.3853  0.036445696  0.034842189           22 
 4879000   0.47055904   -4.4679753    2131.5613  0.036407072  0.034833351           22 
 4880000   0.46991161   -4.4815896     2130.483  0.036381199  0.034824497           21 
 4881000   0.46750162   -4.4652757    2129.8324  0.036362638  0.034815671           16 
 4882000   0.47247646   -4.5017231    2128.9418  0.036339987   0.03480683           28 
 4883000   0.47263167   -4.4857302    2129.3944   0.03634027  0.034797987           11 
 4884000   0.47116666   -4.4867747    2132.4896  0.036385641  0.034789177           38 
 4885000   0.47816362   -4.4953123    2128.7677    0.0363147   0.03478036           32 
 4886000   0.47178777   -4.4976194    2130.6037  0.036338582  0.034771525           27 
 4887000   0.46549552   -4.4977713    2130.9606  0.036337231  0.034762693            8 
 4888000     0.470981   -4.4767626    2129.7358  0.036308916  0.034753882           15 
 4889000   0.46010442   -4.4907775    2135.1637  0.036394009  0.034745068           17 
 4890000   0.46494662   -4.4737212    2129.1322  0.036283779  0.034736244           19 
 4891000   0.47268223   -4.4988445    2131.7442  0.036320864  0.034727412           24 
 4892000   0.46160435   -4.4958758    2128.9834  0.036266411  0.034718597           17 
 4893000   0.47034854   -4.4936818    2129.2695  0.036263872  0.034709763           15 
 4894000   0.46594549    -4.490437    2134.3239  0.036342526  0.034700933           29 
 4895000   0.46031883   -4.4984693    2132.8379  0.036309804  0.034692108           52 
 4896000   0.46502292   -4.4899479    2130.6673  0.036265442  0.034683276           29 
 4897000   0.46769828   -4.4995809    2131.5594  0.036273219  0.034674454           34 
 4898000   0.47014628    -4.487791     2130.708  0.036251328  0.034665625           15 
 4899000   0.45350668   -4.4998392    2130.4984  0.036240363  0.034656806           28 
 4900000   0.46087292   -4.4840772    2132.5291  0.036267502  0.034648007           13 
 4901000   0.47566036   -4.5117257    2128.9796  0.036199748  0.034639186           41 
 4902000   0.46282231   -4.4904521    2126.5707  0.036151413  0.034630375           15 
 4903000   0.46237375   -4.4889722    2134.2367  0.036274333  0.034621556           18 
 4904000   0.46570467   -4.4904149    2128.1307  0.036163178   0.03461275           17 
 4905000   0.46827503   -4.4803157    2128.8985  0.036168851   0.03460393           10 
 4906000   0.46643019   -4.4832786    2129.7009  0.036175108  0.034595142           15 
 4907000   0.46871708   -4.4744064    2130.8786  0.036187735  0.034586362           20 
 4908000   0.47659781   -4.4855681    2124.9589   0.03607985  0.034577563           23 
 4909000   0.47685662   -4.4821015     2128.893  0.036139286  0.034568785           22 
 4910000   0.47071425   -4.4728629    2128.7657  0.036129765      0.03456           31 
 4911000   0.47573155   -4.4891639     2129.877  0.036141264  0.034551182           28 
 4912000   0.45071022   -4.4827865    2126.2829  0.036072933  0.034542357           18 
 4913000   0.46751301   -4.4841557    2127.6094   0.03608809   0.03453355           26 
 4914000   0.46392849   -4.4938791    2130.4502   0.03612892  0.034524725           17 
 4915000    0.4704932   -4.4789824    2127.8362   0.03607725  0.034515929           20 
 4916000   0.46479954   -4.4947459    2128.1145  0.036074629   0.03450711           17 
 4917000   0.46159436   -4.4978752     2123.564  0.035990169  0.034498273           37 
 4918000   0.45479321   -4.4894597    2125.4127  0.036014177  0.034489433           35 
 4919000   0.46766378   -4.4858203      2126.24  0.036020871  0.034480607           10 
 4920000   0.46683952    -4.487706    2128.4955  0.036051753  0.034471771           29 
 4921000   0.46439148   -4.4981957    2129.1353  0.036055262  0.034462934           22 
 4922000    0.4588468   -4.5098387     2129.524  0.036054518  0.034454109           28 
 4923000   0.46504916   -4.5003894    2125.6467  0.035981562   0.03444526           27 
 4924000   0.46105285   -4.5117937    2121.3312  0.035901219  0.034436416           37 
 4925000   0.45529152   -4.5028122    2125.5996  0.035966152  0.034427572           26 
 4926000   0.46955187   -4.5094904    2123.4482  0.035922455  0.034418707           24 
 4927000   0.46973617   -4.5049479    2124.1103  0.035926363  0.034409882           38 
 4928000   0.45509559   -4.5119854    2129.8004  0.036015294  0.034401058           22 
 4929000   0.45503959   -4.4988447    2129.8948  0.036009582  0.034392245           25 
 4930000   0.45905955   -4.5129805    2122.5377   0.03587792  0.034383393           23 
 4931000   0.45654705   -4.5142335    2122.3129  0.035866844  0.034374557           55 
 4932000   0.46641489   -4.4982387    2125.9594  0.035921185  0.034365723           33 
 4933000   0.46446042   -4.5274232    2125.6401   0.03590851  0.034356883           43 
 4934000   0.46698162    -4.497215    2125.1673  0.035893246   0.03434803           47 
 4935000   0.46107845   -4.4923029    2126.7028  0.035911901  0.034339212           56 
 4936000   0.46893427   -4.4873304    2128.5574  0.035935936  0.034330416           19 
 4937000   0.45889726   -4.4914268    2124.4061  0.035858587  0.034321609           29 
 4938000   0.45025658   -4.5067058    2128.1965  0.035915291  0.034312778           30 
 4939000   0.45544128    -4.509276    2123.1737  0.035823273  0.034303967           37 
 4940000   0.46686968   -4.5090008     2127.897  0.035895699  0.034295131           43 
 4941000   0.45728559   -4.4924523    2126.7069  0.035868362  0.034286315           46 
 4942000   0.46996287   -4.5153543    2127.2618   0.03587046  0.034277494           31 
 4943000   0.45322654    -4.511352    2121.3413  0.035763391  0.034268683           67 
 4944000   0.45950806   -4.4972128    2130.7214  0.035914264  0.034259855          103 
 4945000   0.46691615   -4.5234371    2126.4286  0.035834658  0.034251018           77 
 4946000    0.4634166   -4.5197424    2120.0249  0.035719519  0.034242184          190 
 4947000   0.45936854   -4.5287386    2125.2467  0.035800262  0.034233337           31 
 4948000   0.46409959   -4.5205031    2121.6566  0.035732562  0.034224498           34 
 4949000   0.46850179   -4.5075175    2127.6402  0.035826096  0.034215692           67 
 4950000   0.45943435   -4.5109061    2125.1425   0.03577681  0.034206865           34 
 4951000   0.45606871   -4.5187955    2119.8092  0.035679816   0.03419801           37 
 4952000   0.45992057   -4.5145145    2125.7187  0.035772057  0.034189189           24 
 4953000   0.44745975   -4.5083707    2122.5829  0.035712076  0.034180356           29 
 4954000   0.45810772   -4.5065616    2119.7393  0.035657033  0.034171516           20 
 4955000   0.45661325   -4.5162119    2127.2383  0.035775955  0.034162687           32 
 4956000    0.4585279   -4.5101384    2125.3964  0.035737766  0.034153872           20 
 4957000   0.47088767   -4.5193456    2125.7337  0.035736226  0.034145098           40 
 4958000   0.46056338   -4.5121321    2124.5135  0.035708509  0.034136344           21 
 4959000   0.45401359   -4.5126855    2124.6326  0.035703311  0.034127539           36 
 4960000   0.46629473   -4.5225986    2123.3848  0.035675149  0.034118741           58 
 4961000   0.46369228   -4.5114797    2126.0919   0.03571343  0.034109948           43 
 4962000   0.46625979   -4.5080947    2127.3424  0.035727234  0.034101151           66 
 4963000   0.45579709   -4.5132276    2125.1799  0.035683725   0.03409237           72 
 4964000   0.47595002    -4.510635    2126.9907  0.035706936  0.034083603           61 
 4965000   0.44925002   -4.5095662    2127.5379  0.035708928  0.034074828           69 
 4966000    0.4568986   -4.4995387    2121.5308  0.035600933  0.034066077          103 
 4967000   0.44813787   -4.5359718    2122.6259  0.035612139  0.034057274          128 
 4968000   0.45618591   -4.5223058    2125.7409  0.035657222   0.03404847          126 
 4969000   0.46370493   -4.5134229    2124.7244  0.035632999   0.03403966           98 
 4970000   0.45713631   -4.5093682    2125.2228  0.035634186  0.034030868           44 
 4971000   0.45429122   -4.5083475    2126.1396  0.035642386  0.034022094          123 
 4972000   0.45904837   -4.5205364    2123.7846  0.035595747  0.034013322          103 
 4973000   0.45732755   -4.5296222     2124.235  0.035596135  0.034004544          122 
 4974000   0.45330862   -4.5249261    2122.1849  0.035554632  0.033995759           59 
 4975000   0.46275039    -4.515975    2127.6079  0.035638323  0.033987004           87 
 4976000   0.45438345   -4.5106059      2129.14   0.03565682  0.033978261           37 
 4977000   0.45488915   -4.5098216    2124.5757  0.035573232  0.033969523           69 
 4978000   0.44829695    -4.529876    2123.2634  0.035544117  0.033960759           53 
 4979000   0.45678902   -4.5309073     2120.461  0.035490076  0.033951974           55 
 4980000    0.4517686   -4.5121244    2117.8516  0.035439285  0.033943181           96 
 4981000   0.46688291   -4.5267152    2118.4388  0.035441993  0.033934405           82 
 4982000    0.4465126   -4.5349097    2124.4966  0.035536208  0.033925634          120 
 4983000    0.4483325   -4.5283485    2126.6343  0.035564826  0.033916869          116 
 4984000   0.45796061   -4.5255793    2123.8586  0.035511279  0.033908095          208 
 4985000   0.46029981   -4.5253121    2122.3373  0.035478724  0.033899329          157 
 4986000   0.45003602   -4.5295222    2121.1043  0.035451001  0.033890565           88 
 4987000   0.45705929   -4.5275674    2121.1728  0.035445037  0.033881806           97 
 4988000   0.44983252   -4.5350641    2121.7859  0.035448173  0.033873062          205 
 4989000   0.46241018   -4.5205901    2124.7016   0.03548977  0.033864302          105 
 4990000    0.4504895   -4.5223029    2123.7587  0.035466911  0.033855565           68 
 4991000   0.46467843   -4.5238147    2129.5787  0.035556982  0.033846845           98 
 4992000   0.44857027   -4.5077202    2122.0696  0.035424506  0.033838123           41 
 4993000   0.44877078     -4.51921    2123.2079  0.035436408  0.033829395           82 
 4994000    0.4511821   -4.5241728    2124.3431  0.035448256  0.033820672           38 
 4995000   0.44971456    -4.504398    2123.5985  0.035428737   0.03381196           65 
 4996000   0.45856112   -4.5206734    2124.2327  0.035432225  0.033803241           84 
 4997000   0.45243017   -4.5084424     2119.565  0.035347291   0.03379449          106 
 4998000   0.44303562   -4.5180028    2125.9078  0.035445975   0.03378576           82 
 4999000   0.44893109   -4.5213417    2127.5495  0.035466251   0.03377705          100 
 5000000   0.44761851   -4.5137135    2123.9296  0.035398826  0.033768327          119 
 5001000   0.44935445   -4.5220243    2126.4594  0.035433903  0.033759621           38 
 5002000   0.45019069   -4.5187034    2126.8139  0.035432725  0.033750918           88 
 5003000   0.45068894   -4.5306818    2122.9128  0.035360664  0.033742217           36 
 5004000    0.4560876   -4.5309536    2125.5169  0.035396963   0.03373352           15 
 5005000   0.45014199   -4.5243229     2126.423  0.035404978  0.033724829           44 
 5006000   0.44303826   -4.5215522    2122.1087  0.035326088  0.033716153           74 
 5007000   0.45764527   -4.5321829    2125.3317  0.035372673  0.033707468          140 
 5008000   0.44409584   -4.5327127    2120.6954  0.035288462  0.033698766          138 
 5009000   0.45496331   -4.5272361    2124.2233  0.035340109  0.033690061          104 
 5010000   0.46283933   -4.5377186    2121.9937   0.03529597  0.033681353           70 
 5011000   0.45854682   -4.5417366    2121.3446  0.035278131   0.03367265          162 
 5012000   0.45175214   -4.5341587    2114.6976  0.035160574  0.033663921           69 
Loop time of 12357.6 on 48 procs for 5000000 steps with 4000 atoms

Performance: 69916.744 tau/day, 404.611 timesteps/s
99.4% CPU use with 48 MPI tasks x no OpenMP threads

MPI task timing breakdown:
Section |  min time  |  avg time  |  max time  |%varavg| %total
---------------------------------------------------------------
Pair    | 835.02     | 882.68     | 933.06     |  84.4 |  7.14
Neigh   | 83.344     | 86.472     | 89.703     |  18.0 |  0.70
Comm    | 798.27     | 852.99     | 910.61     |  90.6 |  6.90
Output  | 14.376     | 14.382     | 14.458     |   0.3 |  0.12
Modify  | 10388      | 10407      | 10429      |   9.2 | 84.21
Other   |            | 114.4      |            |       |  0.93

Nlocal:        83.3333 ave          92 max          77 min
Histogram: 4 3 12 1 12 3 3 6 3 1
Nghost:        2257.38 ave        2288 max        2229 min
Histogram: 1 2 4 9 12 8 7 2 1 2
Neighs:        15170.4 ave       17149 max       13495 min
Histogram: 2 6 4 10 5 8 6 3 1 3
FullNghs:      30341.1 ave       33880 max       27853 min
Histogram: 5 4 9 7 9 4 0 7 2 1

Total # of neighbors = 1456372
Ave neighs/atom = 364.09300
Neighbor list builds = 270456
Dangerous builds = 1

#clear
#
#next RN
#
#jump SELF
Total wall time: 3:26:01
