
units lj                  # Use reduced LJ style units
atom_style atomic         # Uncharged point particles
atom_modify map hash      # Needed for indexing of clusters etc
                          # Used to be able to find where atoms are in relation to each other.

lattice fcc 1.0 spacing 1 1 1
Lattice spacing in x,y,z = 1.5874011 1.5874011 1.5874011
region box block 0 10 0 10 0 10 units lattice
create_box 2 box
Created orthogonal box = (0.0000000 0.0000000 0.0000000) to (15.874011 15.874011 15.874011)
  3 by 4 by 4 MPI processor grid
create_atoms 1 box
Created 4000 atoms
  using lattice units in orthogonal box = (0.0000000 0.0000000 0.0000000) to (15.874011 15.874011 15.874011)
  create_atoms CPU = 0.014 seconds
set type 1 type/fraction 2 0.64 78393
Setting atom values ...
  2566 settings made for type/fraction
mass 1 1.0
mass 2 1.0
pair_style lj/cut  3.5
pair_modify tail  yes
pair_coeff 1  1  1.0  1.0   # Intearaction between 1 and 1 set with epsilon = 1 and sigma = 1
pair_coeff 1  2  1.5  0.8
pair_coeff 2  2  0.5  0.88

write_data data.0
System init for write_data ...
Neighbor list info ...
  update every 1 steps, delay 10 steps, check yes
  max neighbors/atom: 2000, page size: 100000
  master list distance cutoff = 3.8
  ghost atom cutoff = 3.8
  binsize = 1.9, bins = 9 9 9
  1 neighbor lists, perpetual/occasional/extra = 1 0 0
  (1) pair lj/cut, perpetual
      attributes: half, newton on
      pair build: half/bin/atomonly/newton
      stencil: half/bin/3d
      bin: standard
WARNING: Not all mixed pair coeffs generated from mixing. Use write_data with 'pair ij' option to store all pair coeffs. (../write_data.cpp:312)


#############################
#   M E L T   S Y S T E M   #
#############################

velocity all create 2.4 2750902 mom yes dist gaussian # Assign velocities
                                                    # Temperature 2.4, random number seed, zero linear momentum
                                                                                # Gaussian distribution

timestep 0.002   # simulation timestep
thermo 1000       # output thermodynamic data every 1000 steps bf 100

# Define a fix  in this case with index 1 applied to all
# particles in the simulation. This fix is for simulations
# in the anisotropic NPT ensemble. Note that we use the MTK
# correction.
fix 1 all npt temp 2.4 2.4 0.1 iso 5.68 5.68 0.5 mtk yes tchain 5 pchain 5 # Use NPT ensemble
                                                                         # Set temperature and pressure and damping
                                                                         # Numbers of thermostats in chain and in barostat
run 10000          # run for 10000 steps
Per MPI rank memory allocation (min/avg/max) = 3.642 | 3.644 | 3.648 Mbytes
Step Temp E_pair E_mol TotEng Press Volume 
       0          2.4   -4.5154638            0  -0.91636384   -3.9779215         4000 
    1000    2.4390422   -4.2397954            0  -0.58214664    5.5592785    3639.8764 
    2000     2.387601   -4.2736947            0  -0.69318849    5.6890959    3601.6161 
    3000    2.3661862   -4.2558194            0  -0.70742746    5.4873229    3621.2101 
    4000    2.3897163    -4.246865            0  -0.66318662    5.5222551     3616.161 
    5000    2.4111039   -4.3011836            0  -0.68543192    5.7066437    3577.5373 
    6000    2.4193814   -4.2774907            0  -0.64932593    5.7784654    3603.9043 
    7000    2.4281874   -4.2973639            0  -0.65599329    5.6568638     3590.481 
    8000    2.4191124   -4.2514307            0  -0.62366924    5.9618288    3590.0046 
    9000    2.4235119   -4.2409541            0  -0.60659503    5.4877641    3632.7106 
   10000    2.4116092   -4.2312882            0  -0.61477867    5.4282392    3636.6569 
Loop time of 2.65986 on 48 procs for 10000 steps with 4000 atoms

Performance: 649657.045 tau/day, 3759.589 timesteps/s
99.6% CPU use with 48 MPI tasks x no OpenMP threads

MPI task timing breakdown:
Section |  min time  |  avg time  |  max time  |%varavg| %total
---------------------------------------------------------------
Pair    | 1.2257     | 1.2786     | 1.3313     |   2.0 | 48.07
Neigh   | 0.21824    | 0.2234     | 0.23254    |   0.6 |  8.40
Comm    | 0.82803    | 0.88748    | 0.93152    |   2.6 | 33.37
Output  | 0.00024529 | 0.00025124 | 0.00031647 |   0.0 |  0.01
Modify  | 0.23804    | 0.25427    | 0.27333    |   2.1 |  9.56
Other   |            | 0.01588    |            |       |  0.60

Nlocal:        83.3333 ave          92 max          75 min
Histogram: 5 2 6 2 6 10 5 8 3 1
Nghost:        1756.27 ave        1780 max        1722 min
Histogram: 1 2 3 5 6 5 6 11 4 5
Neighs:        10495.7 ave       11889 max        9024 min
Histogram: 1 4 5 5 4 10 11 4 2 2

Total # of neighbors = 503794
Ave neighs/atom = 125.94850
Neighbor list builds = 900
Dangerous builds = 160

# Equilibrate just above the melting temperature to avoid step fn in T

fix 1 all npt temp 1.25 1.25 0.1 iso 5.68 5.68 0.5 mtk yes tchain 5 pchain 5
run 2000
Per MPI rank memory allocation (min/avg/max) = 3.644 | 3.646 | 3.650 Mbytes
Step Temp E_pair E_mol TotEng Press Volume 
   10000    2.4116092   -4.2312882            0  -0.61477867    5.4282392    3636.6569 
   11000    1.2435613   -6.2086163            0   -4.3437407    5.7063091    2769.9341 
   12000    1.2623805   -6.2860175            0   -4.3929201    5.6729647    2749.2874 
Loop time of 0.658551 on 48 procs for 2000 steps with 4000 atoms

Performance: 524788.124 tau/day, 3036.968 timesteps/s
99.6% CPU use with 48 MPI tasks x no OpenMP threads

MPI task timing breakdown:
Section |  min time  |  avg time  |  max time  |%varavg| %total
---------------------------------------------------------------
Pair    | 0.3104     | 0.32752    | 0.34753    |   1.6 | 49.73
Neigh   | 0.043143   | 0.044635   | 0.046724   |   0.4 |  6.78
Comm    | 0.21381    | 0.23569    | 0.25865    |   2.3 | 35.79
Output  | 5.0942e-05 | 5.5062e-05 | 0.00015782 |   0.0 |  0.01
Modify  | 0.041083   | 0.045778   | 0.050072   |   1.3 |  6.95
Other   |            | 0.004868   |            |       |  0.74

Nlocal:        83.3333 ave          88 max          79 min
Histogram: 4 4 6 5 2 7 10 8 0 2
Nghost:        2118.23 ave        2139 max        2091 min
Histogram: 1 0 4 7 3 8 11 9 3 2
Neighs:        13903.6 ave       15558 max       12306 min
Histogram: 1 3 3 8 11 10 6 3 1 2

Total # of neighbors = 667373
Ave neighs/atom = 166.84325
Neighbor list builds = 145
Dangerous builds = 15

#############################
# L I N E A R  Q U E N C H  #
#############################

# Define solid atoms. This closely follows ten Wolde  Ruiz-Montero and Frenkel  Faraday Discuss  1996  104  93-110
# Compute components of the per-atom q6 vector
compute q6 all orientorder/atom degrees 1 6 components 6 nnn NULL cutoff 1.3 # compute the Q6 parameter.
                                                                             # Use all neighbours within 1.3 unit cell.

# get number of connections
compute coord_number all coord/atom orientorder q6 0.5

# An atom is solid if it has 8 or more connections (of a possible 14)
variable is_solid atom c_coord_number>=8
group solid dynamic all var is_solid    # Must be dynamic to update
dynamic group solid defined

# do clustering
compute cluster solid cluster/atom 1.3 # Create a cluster where all atoms within are solid and max 1.3 units from another member

# define chunks one chunk per cluster
compute clus_chunks solid chunk/atom c_cluster nchunk every compress yes  # Says which atoms are in which chunk

# count the size of each chunk
compute size_chunks solid property/chunk clus_chunks count


# Find the maximum entry in the vector of chunk sizes
variable max_n equal max(c_size_chunks)


# Thermo style which includes this variable
# thermo_style custom step temp pe vol v_max_n

thermo ${N}  # Print the thermo information every 100 steps
thermo 1000  

# Reset the npt fix at a lower temperature (below freezing)
fix 1  all npt temp  ${temp} ${temp}  0.1  iso  5.68  5.68  0.5  mtk yes tchain  5  pchain  5
fix 1  all npt temp  0.45 ${temp}  0.1  iso  5.68  5.68  0.5  mtk yes tchain  5  pchain  5
fix 1  all npt temp  0.45 0.45  0.1  iso  5.68  5.68  0.5  mtk yes tchain  5  pchain  5

dump dmp2 all dcd ${N} traj.dcd
dump dmp2 all dcd 1000 traj.dcd


compute msd all msd com yes
variable twopoint equal c_msd[4]/6/(step*dt+1.0e-6)
fix 9 all vector 10 c_msd[4]
variable fit equal slope(f_9)/6/(10*dt)
thermo_style custom step temp pe c_msd[4] v_twopoint v_fit v_max_n

fix 1 all npt temp 1.25 ${temp} 0.1 iso 5.68 5.68 0.5 mtk yes tchain 5 pchain 5
fix 1 all npt temp 1.25 0.45 0.1 iso 5.68 5.68 0.5 mtk yes tchain 5 pchain 5
run 2000000 # 5000000  # Run for this many steps
Neighbor list info ...
  update every 1 steps, delay 10 steps, check yes
  max neighbors/atom: 2000, page size: 100000
  master list distance cutoff = 3.8
  ghost atom cutoff = 3.8
  binsize = 1.9, bins = 8 8 8
  4 neighbor lists, perpetual/occasional/extra = 1 3 0
  (1) pair lj/cut, perpetual
      attributes: half, newton on
      pair build: half/bin/atomonly/newton
      stencil: half/bin/3d
      bin: standard
  (2) compute orientorder/atom, occasional
      attributes: full, newton on
      pair build: full/bin/atomonly
      stencil: full/bin/3d
      bin: standard
  (3) compute coord/atom, occasional
      attributes: full, newton on
      pair build: full/bin/atomonly
      stencil: full/bin/3d
      bin: standard
  (4) compute cluster/atom, occasional
      attributes: full, newton on
      pair build: full/bin/atomonly
      stencil: full/bin/3d
      bin: standard
Per MPI rank memory allocation (min/avg/max) = 9.846 | 9.852 | 9.857 Mbytes
Step Temp PotEng c_msd[4] v_twopoint v_fit v_max_n 
   12000    1.2623805   -6.2860175 1.9640664e-30 1.363935e-32 8.3333333e+20            2 
   13000    1.2714167   -6.2713153     0.516988 0.0033140255  0.042439186            2 
   14000    1.2504926    -6.292115   0.97583768 0.0058085574  0.039920742            1 
   15000    1.2506612   -6.3093687    1.4190364 0.0078835352  0.038743492            2 
   16000    1.2628213   -6.3125165    1.8631383 0.0097038451  0.038096752            2 
   17000    1.2297203   -6.3291053    2.3470398  0.011505097  0.038153709            2 
   18000    1.2609783   -6.3258835    2.7791645  0.012866502  0.038083851            2 
   19000    1.2376893   -6.2896119    3.2778833  0.014376681  0.038143309            1 
   20000    1.2453706   -6.2869394    3.8292427  0.015955177  0.038525587            5 
   21000    1.2678502   -6.3447044    4.2747535  0.016963307  0.038988468            3 
   22000     1.261763    -6.316247     4.732364  0.017925621  0.039255053            1 
   23000    1.2333567   -6.3264489     5.174247  0.018747271  0.039216921            2 
   24000    1.2519656   -6.3220535    5.6157415  0.019499102  0.039184143            4 
   25000    1.2491454   -6.3366521    6.0548562  0.020182854  0.039038451            2 
   26000    1.2447356   -6.3267132    6.4894678  0.020799576  0.038810938            1 
   27000    1.2501529   -6.3097192    6.9978524  0.021598309  0.038713672            1 
   28000    1.2486025   -6.3467978    7.5373085  0.022432465  0.038734923            2 
   29000     1.209676   -6.3531596    8.0809159  0.023221022  0.038910588            2 
   30000    1.2411898   -6.2859526    8.5390134  0.023719481  0.039103908            4 
   31000    1.2027988   -6.3577522    8.9956738  0.024181919  0.039204278            2 
   32000    1.2701526   -6.3114062    9.6674924  0.025175761  0.039399563            1 
   33000     1.253342   -6.3037781    10.085441  0.025468286  0.039582655            3 
   34000    1.2322338   -6.2816025    10.661244    0.0261305  0.039765252            4 
   35000    1.2558113   -6.3142696    11.047404  0.026303342  0.039898468            2 
   36000    1.2325379    -6.306553    11.443964  0.026490657  0.039940049            3 
   37000    1.2695144   -6.3086613    11.944386  0.026901771  0.039941614            3 
   38000    1.2562911    -6.316563    12.435101  0.027269957  0.039938526            2 
   39000    1.2530782    -6.275452     12.81302  0.027378248  0.039914399            3 
   40000    1.2236144   -6.3633181    13.245745  0.027595303  0.039883194            1 
   41000    1.2243434    -6.325084    13.827158  0.028103978   0.03985836            2 
   42000    1.2630504   -6.3580257    14.433268  0.028637437  0.039878764            2 
   43000    1.2347929   -6.4001713    14.820504  0.028721907  0.039940545            2 
   44000    1.2360724   -6.2897592    15.436414  0.029235632  0.039985835            3 
   45000    1.2354968   -6.3542263    15.912276  0.029467178  0.040045478            2 
   46000    1.2225613   -6.3558146    16.354898  0.029628438  0.040096136            4 
   47000    1.2494212   -6.2713644    16.962437  0.030075242  0.040126315            1 
   48000    1.2289227   -6.3897616     17.23137  0.029915572  0.040153499            3 
   49000    1.2552744   -6.3516968    17.725143    0.0301448  0.040156672            7 
   50000    1.2391949   -6.3271133    18.286685  0.030477808  0.040163751            1 
   51000    1.2643894   -6.3156967    18.820449  0.030752367  0.040188631            3 
   52000    1.2192603   -6.3530752     19.25828  0.030862629  0.040215232            2 
   53000    1.2531751   -6.3652625    19.564383  0.030761608  0.040208603            3 
   54000    1.2119969   -6.3373356    20.113305  0.031039051   0.04018937            2 
   55000    1.2212342   -6.3520968    20.548414  0.031133961  0.040168776            2 
   56000    1.2541038   -6.3504287    20.954145  0.031181764   0.04013871            2 
   57000    1.2374475   -6.3635511    21.498171  0.031430075  0.040120609            2 
   58000    1.2589669   -6.3746453    22.064149  0.031701363  0.040111857            2 
   59000    1.2583849   -6.3045028     22.45891  0.031721624  0.040103216            3 
   60000    1.2477331   -6.3337404    22.758676  0.031609272  0.040069582            2 
   61000    1.2099283   -6.3404896    23.475612  0.032070508  0.040036129            5 
   62000    1.2168506   -6.3027729    24.081059  0.032367015  0.040040026            3 
   63000    1.2089244   -6.3575001    24.334257   0.03218817  0.040044919            3 
   64000    1.2211816    -6.321203    24.843873  0.032348793  0.040023596            2 
   65000    1.2358695   -6.3340833    25.463401  0.032645385  0.040006981            4 
   66000    1.2486935   -6.3364778    25.941148  0.032753974   0.04000858            2 
   67000     1.223241   -6.3930855    26.178134  0.032559868  0.039998262            2 
   68000      1.23665   -6.4159724     26.73538  0.032763945  0.039985734            3 
   69000    1.2358349   -6.3693846    27.027659  0.032642099  0.039957171            3 
   70000    1.2248398   -6.3744498    27.337446  0.032544579  0.039898368            4 
   71000    1.2353733   -6.3613937    27.866094  0.032706683  0.039827737            1 
   72000    1.2318595   -6.3469722    28.256324  0.032704078  0.039774677            3 
   73000     1.254316   -6.3654191    28.873979  0.032961163  0.039724219            5 
   74000    1.2058692   -6.3167549    29.258604  0.032948878  0.039685595            5 
   75000    1.2352792    -6.301678    29.641701  0.032935223  0.039634967            2 
   76000    1.2414626   -6.3436982    30.026355  0.032923635  0.039585937            2 
   77000    1.2427748   -6.3348669    30.640291  0.033160488  0.039541282            4 
   78000    1.2072642   -6.3402878    31.088468  0.033214175  0.039507006            3 
   79000    1.2057012   -6.3991809    31.611535    0.0333455  0.039491783            2 
   80000    1.2331691   -6.4015092    32.112625  0.033450651  0.039470224            2 
   81000    1.2346156   -6.3554886    32.448344   0.03338307   0.03943645            2 
   82000    1.2280826   -6.3702305    32.902932  0.033437939  0.039409991            3 
   83000    1.2007054   -6.4032575    33.416919  0.033551123  0.039393642            2 
   84000    1.2189026   -6.3969126    33.944403  0.033675002  0.039375761            3 
   85000     1.213047   -6.4090194    34.469481  0.033793608  0.039365831            2 
   86000    1.2166008   -6.3723666    35.063476  0.033976236  0.039362812            6 
   87000    1.1948571   -6.3982445    35.327706  0.033838799  0.039349553            2 
   88000    1.2239511   -6.3618652    35.782292  0.033884746  0.039331781            5 
   89000    1.2374441   -6.3484013     36.04497  0.033749971  0.039302042            2 
   90000    1.2229135   -6.3859407    36.553313   0.03384566  0.039273102            3 
   91000     1.185435   -6.3475508    37.103933  0.033977961  0.039253544            2 
   92000    1.2267302   -6.3034594    37.535715  0.033999742  0.039226545            3 
   93000    1.1868577   -6.3623774     37.80261  0.033873306  0.039188598            2 
   94000    1.2181567   -6.3625856    38.310472  0.033963184  0.039149373            5 
   95000    1.2220629   -6.3796217    38.821517  0.034053962  0.039123842            2 
   96000    1.2066514   -6.3301171    39.306055  0.034119839  0.039093719            1 
   97000    1.1991001   -6.4013771     39.57088  0.033995602  0.039064982            2 
   98000    1.2192866   -6.3624651    40.161782  0.034151175   0.03903718            4 
   99000    1.2246765   -6.3794799    40.547535  0.034130922  0.039009657            2 
  100000    1.2043774   -6.4267089    40.932554  0.034110461  0.038983315            2 
  101000    1.2100638   -6.3894587     41.43538  0.034187607  0.038958672            3 
  102000    1.1958838   -6.4123912    41.821414  0.034167822  0.038934746            2 
  103000    1.1970824   -6.4166425    42.273059  0.034201504  0.038909561            6 
  104000    1.2236104   -6.3994775    42.906564   0.03438026  0.038889779            1 
  105000    1.2089146   -6.4012713    43.325031  0.034384945  0.038880035            6 
  106000    1.2299423   -6.4150761    43.757803  0.034400788  0.038869867            2 
  107000    1.2032095   -6.3651834    44.534941  0.034684533  0.038865477            3 
  108000    1.1933547   -6.4104171    45.099335  0.034798869  0.038862795            2 
  109000    1.2036552   -6.4272516    45.656188  0.034905343  0.038870014            6 
  110000    1.2050529   -6.4107677    45.864628   0.03474593  0.038877436            1 
  111000    1.1695641   -6.4462433    46.302486  0.034761626  0.038875701            1 
  112000    1.2104453   -6.4218118     46.96701  0.034945692  0.038876981            2 
  113000    1.2144322   -6.3601389    47.546549  0.035063827  0.038879401            2 
  114000    1.2261315   -6.4170783     48.13942  0.035189635  0.038888773            2 
  115000    1.2162398   -6.4019432    48.148208  0.034890005  0.038892409            1 
  116000    1.2205307   -6.4327013    48.724614  0.035003315  0.038890307            7 
  117000    1.2243277   -6.4236602    49.045437  0.034932647  0.038886872            2 
  118000      1.20115   -6.4271562    49.505513   0.03496152  0.038882719            3 
  119000    1.1998971   -6.3919124    49.976388  0.034997471  0.038874865            3 
  120000    1.2045959   -6.3672309    50.602644  0.035140725  0.038872399            2 
  121000    1.2105515   -6.3897496    51.025626  0.035141616  0.038865077            7 
  122000    1.2085648   -6.3872411    51.761406  0.035356152  0.038867187            4 
  123000    1.1952773   -6.4006074    51.969213  0.035209493  0.038864745            2 
  124000    1.1829224   -6.4368721    52.005793  0.034950129  0.038853981            2 
  125000    1.1894314   -6.4068709    52.681736  0.035121157  0.038837778            3 
  126000     1.194667   -6.3977011    53.055245  0.035089448  0.038823112            1 
  127000    1.1828654   -6.3916939    53.729471  0.035255558  0.038811737            3 
  128000    1.1932842   -6.3886959    53.800984  0.035026682  0.038794892            1 
  129000    1.2327187   -6.3724716    54.525452   0.03522316  0.038774882            2 
  130000    1.2189863   -6.4223473    54.870195  0.035173202  0.038761394            2 
  131000    1.1907565   -6.4608055    55.200742  0.035114975  0.038748243            3 
  132000    1.2235972   -6.4392542    55.794871  0.035224034  0.038733301            4 
  133000    1.1905899   -6.4236639    56.281311  0.035263979  0.038718262            2 
  134000    1.2309489   -6.4298008     56.64889  0.035229409  0.038708099            3 
  135000     1.187205   -6.4383291    57.191138  0.035303172    0.0386952            4 
  136000    1.1919427   -6.4370799    57.236828  0.035071586  0.038679373            2 
  137000    1.2125712   -6.4347631    57.703928  0.035099713  0.038663805            2 
  138000    1.1744158   -6.3864798    58.308572   0.03521049   0.03864356            5 
  139000    1.2168055   -6.4360363    58.505862  0.035075457  0.038626914            1 
  140000    1.2053948   -6.4204584    59.047771  0.035147483  0.038605343            1 
  141000    1.2165018    -6.422733     59.43227  0.035125455  0.038582492            3 
  142000    1.1875289   -6.4683889    59.841626  0.035118325  0.038559884            3 
  143000    1.2055555   -6.4218257    60.436427  0.035219363  0.038537412            4 
  144000    1.2193564   -6.4266826    60.944757  0.035268956  0.038518404            2 
  145000    1.1850686   -6.4622369    61.278024  0.035217255  0.038500797            3 
  146000     1.202176   -6.4266379    62.079884  0.035433724  0.038487873            4 
  147000     1.204274   -6.4381924    62.409814  0.035379713  0.038479563            3 
  148000    1.1844769   -6.4510163    62.723866  0.035317492  0.038465597            2 
  149000    1.2044734   -6.4420312    63.073427  0.035275966  0.038448339            2 
  150000    1.1678225   -6.4086007     63.46277  0.035257094  0.038431785            2 
  151000    1.1902595   -6.3858357    64.220124  0.035441569  0.038415818            7 
  152000    1.1800602   -6.4028419    64.728929  0.035487352  0.038403577            2 
  153000    1.1917439   -6.4401012    64.766274  0.035275748  0.038385812            2 
  154000    1.1874553   -6.4376427    65.554566   0.03547325  0.038373875            3 
  155000    1.1975899   -6.4117258    65.820738  0.035387494  0.038359576            3 
  156000    1.1777661   -6.4334215    66.401712     0.035471  0.038347097            5 
  157000    1.1812631   -6.4528396    66.893175  0.035505931  0.038335909            4 
  158000    1.2126296   -6.4678305    67.206739  0.035446592  0.038326091            3 
  159000    1.1789758   -6.4520653    67.486413  0.035370237  0.038315812            2 
  160000    1.1633034   -6.4553185    67.771964  0.035297898  0.038301235            2 
  161000    1.1882841   -6.4282449    68.480751  0.035445523   0.03828489            1 
  162000     1.215381   -6.4784513    68.644598  0.035311007  0.038268385            4 
  163000    1.1627846   -6.4696636    69.208678   0.03538276  0.038250982            2 
  164000    1.1857094   -6.4724672    69.898576  0.035517569  0.038237138            2 
  165000    1.1717507   -6.4411279    70.224039  0.035466686  0.038226015            1 
  166000    1.1803162   -6.4549422    70.653609  0.035468679   0.03821405            3 
  167000    1.1801308   -6.4620027    70.741602  0.035300201  0.038200421            4 
  168000    1.1989735   -6.4817542    71.327665  0.035380786  0.038185143            3 
  169000    1.1690396   -6.4921868    71.572368  0.035292094  0.038169174            2 
  170000    1.2096173    -6.411129    72.072281   0.03532955   0.03814912            2 
  171000    1.1734265    -6.486727    72.327867  0.035247498  0.038128096            1 
  172000    1.1702247   -6.4321711     72.92208  0.035330465  0.038108889            3 
  173000    1.2131365   -6.4731372    73.285972  0.035301528  0.038090198            2 
  174000    1.1845544   -6.4838702    73.423386  0.035164457  0.038068091            4 
  175000    1.2038042   -6.4613432    74.288643  0.035375544  0.038047779            3 
  176000    1.1925927   -6.4787373    74.519948  0.035284066  0.038029229            1 
  177000    1.1898504   -6.4805306    74.894708  0.035261162  0.038008957            1 
  178000    1.1876869   -6.4683427    75.185934  0.035199407  0.037987409            2 
  179000    1.2043441     -6.45967    75.772671  0.035275917  0.037965942            2 
  180000    1.1708991   -6.4545543    75.853672  0.035117441  0.037943377            1 
  181000     1.186603     -6.50331    76.149777   0.03505975  0.037917355            3 
  182000    1.1853748   -6.4987928    76.325595  0.034947617  0.037889054            4 
  183000    1.2084665   -6.4735609    77.025324  0.035075284   0.03786172            2 
  184000    1.1584172   -6.4632803    77.208877  0.034967788  0.037835421            4 
  185000    1.2023619   -6.4836268    78.015374   0.03514206  0.037809977            2 
  186000    1.1697421   -6.5011847    78.301937  0.035081513  0.037788178            6 
  187000    1.1941194   -6.4392534    79.135205  0.035265243  0.037765623            3 
  188000    1.1918242   -6.5176217    79.123081  0.035072288  0.037742523            3 
  189000    1.1724962   -6.5257258     79.52582  0.035064295   0.03771668            1 
  190000    1.1684565   -6.4983451    79.949326  0.035065494  0.037689441            2 
  191000      1.19683   -6.5086579    80.209866  0.034995578  0.037663245            4 
  192000    1.1843938   -6.4937847    80.684062  0.035019124   0.03763872            2 
  193000    1.1711396     -6.51179    80.880448  0.034922473  0.037612823            3 
  194000    1.1733636     -6.46351    81.525193  0.035019413  0.037586588            3 
  195000    1.1583893   -6.4796929    81.553992  0.034852133  0.037556818            4 
  196000    1.1812614   -6.5288517    81.714671  0.034742632  0.037527046            6 
  197000    1.1868642   -6.4867152    82.520658  0.034907216  0.037498032            5 
  198000    1.1781973   -6.4785303    82.879161  0.034881802   0.03747136            3 
  199000    1.1855511   -6.4693624    83.472392  0.034954938  0.037446077            2 
  200000     1.153795    -6.490045    83.580209  0.034825087  0.037419294            3 
  201000    1.1359212   -6.4824708     84.08737  0.034862094  0.037392922            2 
  202000    1.1563521   -6.5161077    84.161217  0.034719974   0.03736467            3 
  203000    1.2066323   -6.4820221    85.072182  0.034922899  0.037333946            1 
  204000    1.1514347   -6.4807421    85.094024  0.034760631  0.037304403            3 
  205000    1.1703216   -6.4621492    85.216126  0.034640702  0.037273414            1 
  206000    1.1886711   -6.5311622    85.557396  0.034610597  0.037242955            3 
  207000    1.1691562   -6.4972196    86.397302  0.034781522  0.037211753            6 
  208000    1.1602088   -6.4615067    86.560232   0.03467958   0.03718121            4 
  209000    1.1789096   -6.5384256    86.784293  0.034602988  0.037150281            3 
  210000    1.1559582   -6.4578651    87.424711  0.034692346  0.037120459            2 
  211000    1.1578135   -6.4566382    87.770399  0.034664455  0.037091449            2 
  212000    1.1910991   -6.5331951    87.797044  0.034511417  0.037063428            4 
  213000    1.1305926   -6.4704986    88.561711  0.034648557  0.037034083            4 
  214000    1.1775486   -6.5130635    88.929467  0.034629855  0.037005779            2 
  215000    1.1869295   -6.4768797    89.432032  0.034663578  0.036979336            5 
  216000     1.151355   -6.5218186    89.865904  0.034670488  0.036953161            4 
  217000    1.1671008   -6.5332834    90.182772  0.034632401  0.036928415            3 
  218000    1.1519884   -6.4876295     90.83226  0.034721812  0.036902664            2 
  219000    1.1306241   -6.5117004    90.811682  0.034555434  0.036875355            2 
  220000    1.1674019   -6.5528458    90.772721  0.034383606  0.036846945            2 
  221000    1.1391568   -6.5236858    91.570189  0.034528729   0.03681772            3 
  222000    1.1491945   -6.5020034    91.767764  0.034447359  0.036788188            1 
  223000    1.1431195   -6.4859279    92.174049  0.034444712  0.036757253            6 
  224000     1.149648   -6.5025144    92.719317  0.034493793  0.036727206            2 
  225000    1.1503865    -6.515244    92.864388  0.034394218  0.036697113            3 
  226000    1.1517702   -6.5002152    93.561094  0.034498928  0.036668028            4 
  227000    1.1759761   -6.5361996    93.816026  0.034440538  0.036640271            3 
  228000    1.1721674    -6.528239    94.166597  0.034417616  0.036611729            2 
  229000    1.1485175   -6.5004969    94.342225  0.034331232  0.036582306            2 
  230000    1.1555181    -6.559853    94.151087  0.034112713  0.036551871            1 
  231000    1.1255974   -6.4913891    94.726108  0.034172477  0.036520224            2 
  232000    1.1554677   -6.5281798    95.380195  0.034260128  0.036489367            1 
  233000    1.1603335   -6.5334168    95.768793  0.034252072  0.036458492            1 
  234000    1.1537703   -6.5943649      95.7006   0.03408141  0.036426688            2 
  235000     1.146599   -6.4838553    96.745609  0.034306954  0.036395471            3 
  236000    1.1399401   -6.4883614    96.888396  0.034212004  0.036365463            4 
  237000    1.1534225   -6.5234571    97.402145  0.034248293  0.036336416            6 
  238000    1.1599905   -6.5430744    97.702948  0.034209715  0.036307807            2 
  239000    1.1724461   -6.5089433    98.214591  0.034244976  0.036281017            1 
  240000    1.1350137   -6.5630671     98.26323  0.034119177  0.036252367            2 
  241000    1.1535135   -6.5207639     99.17251  0.034292016  0.036223383            3 
  242000    1.1843542   -6.5449353    99.101969  0.034126022  0.036194781            3 
  243000    1.1544539   -6.5124629    99.339911  0.034067185  0.036163975            3 
  244000    1.1659904   -6.5284483    99.810513   0.03408829  0.036133287            6 
  245000    1.1318592    -6.530102    100.18539  0.034076663  0.036104045            4 
  246000    1.1785753    -6.536758     100.5703  0.034068529  0.036077868            2 
  247000    1.1492606   -6.5458219    100.69629  0.033973107  0.036051088            2 
  248000    1.1643151   -6.5288696    101.49861  0.034105715   0.03602295            5 
  249000    1.1649171   -6.5114842    101.48686  0.033964814   0.03599566            4 
  250000    1.1677801   -6.5603427    101.73446  0.033911488  0.035966261            2 
  251000    1.1748484   -6.5561377    101.78534  0.033793274  0.035935094            3 
  252000     1.158693   -6.5481381    102.29416  0.033827433  0.035904128            3 
  253000    1.1583683   -6.5649129    102.57057  0.033784772  0.035873424            2 
  254000     1.143871   -6.5850786    102.52184  0.033635776   0.03584243            7 
  255000    1.1757672   -6.5536099    103.40936  0.033793907  0.035811433            2 
  256000    1.1496893     -6.47084    103.81887  0.033795205  0.035780762            3 
  257000    1.1275318    -6.547725    103.58138    0.0335867  0.035750373            1 
  258000    1.1327019   -6.5458964    104.30525  0.033690325  0.035719236            2 
  259000    1.1545571   -6.5335577    105.05394  0.033801138  0.035688247            8 
  260000     1.147376   -6.5399173       105.03  0.033663461  0.035658589            2 
  261000    1.1354049   -6.5913823    105.18143  0.033582831  0.035629938            2 
  262000    1.1565614   -6.5499853    106.42139  0.033849044  0.035602164            3 
  263000    1.1444876   -6.5276866    106.35661  0.033699813  0.035574306            3 
  264000    1.1285523   -6.5723148    106.50671  0.033619541   0.03554492            3 
  265000    1.1358488   -6.5068821    107.20855  0.033713381  0.035515441            3 
  266000     1.153956   -6.5562786    107.14142  0.033565608  0.035486444            6 
  267000    1.1531845   -6.5738926    107.37529  0.033512887  0.035457652            3 
  268000    1.1611004   -6.5529237    108.14638  0.033627607  0.035427813            6 
  269000     1.155268   -6.5683157    108.20647   0.03352121  0.035397872            5 
  270000    1.1537983   -6.5494765    108.48467  0.033482924  0.035368827            1 
  271000    1.1462483   -6.5560497    109.07928  0.033542214  0.035338878            3 
  272000    1.1404455   -6.6089882    109.38119  0.033511395  0.035308663            2 
  273000    1.1553922   -6.5775473    109.49273  0.033422689  0.035280718            2 
  274000    1.1550473   -6.5538317    109.91311  0.033428561  0.035252327            1 
  275000    1.1408666   -6.5232622     110.8104   0.03357891  0.035223607            6 
  276000     1.151357   -6.5897711    110.04772  0.033226969  0.035194541            3 
  277000    1.1554456   -6.5957313    110.18878  0.033149452  0.035165341            1 
  278000    1.1422299   -6.6056539    110.95209   0.03325902  0.035134727            3 
  279000     1.144698   -6.5521807    111.95546  0.033439504  0.035104798            2 
  280000    1.1487645   -6.5846754    111.84998  0.033288685  0.035075089            4 
  281000    1.1442532   -6.5870569    112.40273  0.033334142  0.035045578            4 
  282000    1.1331102   -6.6050241    112.55465   0.03326083  0.035015427            2 
  283000    1.1830383   -6.5821981    112.45821  0.033114902  0.034984571            4 
  284000    1.1797043   -6.6002252    112.96596   0.03314729  0.034953402            2 
  285000    1.1300047   -6.5669942    113.05958  0.033058357  0.034921341            3 
  286000    1.1241186   -6.5806249    113.51033  0.033074106   0.03489143            3 
  287000    1.1555525   -6.5871459     114.1723  0.033151074   0.03486085            4 
  288000    1.1160812   -6.6241868    113.90683  0.032959153  0.034831168            2 
  289000    1.1408375   -6.5506012    115.11985  0.033194881  0.034802811            2 
  290000    1.1425581   -6.5897173    115.48389  0.033185025  0.034775436            2 
  291000    1.1548633   -6.5009677    116.20846  0.033278482  0.034749072            2 
  292000     1.147687   -6.5790035    116.40196  0.033219736  0.034723506            3 
  293000    1.1450293   -6.6094592    116.45398  0.033121154  0.034695999            3 
  294000    1.1341896   -6.5863986    116.35685  0.032980967  0.034667545            3 
  295000    1.1438965   -6.5793738    117.04024  0.033062213  0.034638748            2 
  296000    1.1491084   -6.5970964     117.3513   0.03303809   0.03460958            2 
  297000    1.1489587   -6.6076038    117.10548  0.032857878  0.034580814            1 
  298000    1.1343134   -6.5740256    117.89291  0.032967817  0.034552104            8 
  299000    1.1384737   -6.6326263    117.64862  0.032789471  0.034522792            3 
  300000    1.1389392   -6.5460639    118.73612  0.032982255  0.034493888            2 
  301000     1.140616    -6.610021    118.27953  0.032746271  0.034465399            3 
  302000    1.1312548   -6.5741717    119.14423  0.032876442  0.034437167            2 
  303000    1.1421943   -6.5948662    119.37538  0.032831512  0.034409859           12 
  304000    1.1476024   -6.5423682    120.01824  0.032899738  0.034384331            2 
  305000    1.1372918   -6.6230643    120.30602  0.032870499  0.034357968            2 
  306000    1.1416705    -6.582695    120.78775  0.032894268   0.03433184            2 
  307000     1.118938   -6.6374709    120.98483  0.032840617   0.03430531            2 
  308000    1.1222502   -6.6084362    121.55612   0.03288856  0.034279394            3 
  309000    1.1395953   -6.5709783    122.21368   0.03295946  0.034255216            4 
  310000    1.1079675     -6.55226    122.40435  0.032904395  0.034230429            2 
  311000    1.1043684   -6.6595652     121.8474  0.032649356  0.034204382            9 
  312000    1.1531874   -6.5885126    122.90226  0.032826458  0.034178022            4 
  313000     1.126323   -6.6057882    122.96687  0.032738784  0.034153085            4 
  314000    1.1202496   -6.5967548    123.44785  0.032762168  0.034127195            4 
  315000    1.1212447    -6.575699    124.11943  0.032835828  0.034100758            3 
  316000    1.1391109   -6.6097927    124.14749  0.032739318  0.034075712            2 
  317000    1.1189915   -6.5832066    124.32496  0.032682691  0.034049524            2 
  318000    1.1579913   -6.6121752     124.3818  0.032594812  0.034021669            4 
  319000    1.1204828   -6.6060311    124.63903  0.032559829  0.033994279            3 
  320000    1.1216928   -6.6145713    125.29696  0.032629417  0.033969748            2 
  321000    1.1194004   -6.6052505    125.65723  0.032621296  0.033944541            5 
  322000     1.120439     -6.58227     125.6487  0.032517781  0.033918831            2 
  323000    1.1144263   -6.5617036    126.67512  0.032681921    0.0338939            3 
  324000    1.1138531   -6.6121395    126.33847  0.032494462    0.0338682            4 
  325000    1.1270784   -6.6147179    127.12558  0.032596302  0.033842137            5 
  326000    1.1347015   -6.6204405    127.55191  0.032605294  0.033816968            4 
  327000    1.1018128   -6.6208218     127.5711  0.032510473  0.033792064            6 
  328000    1.1138701   -6.6123071    127.94914  0.032507403  0.033767495            4 
  329000    1.1307682    -6.636245    127.61408  0.032323728  0.033742955            3 
  330000     1.134045   -6.6440155     128.2118  0.032376718   0.03371625            2 
  331000     1.129775   -6.6181861    128.94677   0.03246394  0.033690601            3 
  332000    1.1118055   -6.6333391    128.97406  0.032373007  0.033666216            5 
  333000    1.1133081   -6.6557136    129.07446  0.032300917  0.033641972            2 
  334000    1.0905463   -6.6114556    129.94545  0.032421519  0.033617413            4 
  335000    1.1406734   -6.6365748    130.01054   0.03234093  0.033593128            2 
  336000    1.0950084   -6.6654687    130.74577  0.032427026  0.033568409            3 
  337000    1.1155843   -6.6557958    130.69652  0.032318626   0.03354515            2 
  338000    1.1178618   -6.6305036    131.78808  0.032492129  0.033521272            9 
  339000    1.1149601   -6.6366011    131.72584  0.032380984  0.033498857            2 
  340000    1.1121276   -6.6601731    132.15515  0.032390968  0.033476146            3 
  341000    1.1009074   -6.5951145    132.70111  0.032429402  0.033453986            3 
  342000    1.1235183   -6.6061548    133.30904  0.032482709  0.033432116            2 
  343000    1.0941289   -6.6188129    133.32257  0.032391295  0.033411328            2 
  344000    1.1380202   -6.6244565    133.64498  0.032375237  0.033391185            2 
  345000    1.1172801   -6.7016275     133.5713  0.032263599  0.033369406            3 
  346000    1.1092535   -6.6581223    134.23909  0.032331188  0.033347286            5 
  347000    1.1214809   -6.6504403    134.50705  0.032302365  0.033324837            1 
  348000     1.108444    -6.593454     135.1024  0.032352107  0.033301926            5 
  349000    1.0965713   -6.6308688    134.25912  0.032058052  0.033278765            4 
  350000    1.1079003   -6.6593899    135.14979  0.032178521  0.033255636            4 
  351000    1.1119536   -6.6301672    135.78845  0.032238472  0.033233397            5 
  352000    1.1024863     -6.64086    135.74035  0.032135499  0.033210881            3 
  353000    1.1066789   -6.5983253    136.70248  0.032271595  0.033189856            2 
  354000     1.088048   -6.6415018    136.45446  0.032122049  0.033167401            2 
  355000    1.1262716   -6.6461068    137.02125  0.032164612  0.033145286            5 
  356000     1.153663   -6.6294876    137.71122  0.032235773  0.033123789            5 
  357000    1.1314666   -6.6650361    137.19368   0.03202467  0.033101809            3 
  358000    1.1176877   -6.6380009    137.30448  0.031961005  0.033077855            4 
  359000    1.0868431   -6.6156447     137.9255  0.032016132  0.033053389            5 
  360000    1.1143826   -6.6205769    138.27254  0.032007533  0.033029022            3 
  361000    1.1169565   -6.6619199    138.53779  0.031980098   0.03300508            2 
  362000    1.1302201   -6.6247071    138.91225  0.031977958  0.032980759            3 
  363000    1.1122749   -6.6536983    138.88733  0.031884144  0.032956929            2 
  364000    1.0865047   -6.6153597     139.5729  0.031953503  0.032934311            4 
  365000    1.1179501   -6.7024101    139.70989  0.031897235  0.032911605            4 
  366000    1.0847058   -6.6662234    140.12286  0.031904112  0.032889715            2 
  367000    1.1303476   -6.6602112    140.84182  0.031980432  0.032868664            4 
  368000    1.1214368   -6.6665674    140.69431  0.031860124  0.032847501            1 
  369000    1.1047868   -6.6788492    141.16378  0.031879805  0.032826044            2 
  370000    1.1149672   -6.6612714    140.96503  0.031748881  0.032804058            2 
  371000    1.1283381   -6.6186783    142.33797  0.031971692  0.032782185            3 
  372000    1.1057501   -6.6532128    141.99066  0.031807945  0.032760329            3 
  373000     1.145394   -6.6730221    142.20606  0.031770792  0.032737528            2 
  374000    1.1065729   -6.6403252    142.43964  0.031737888  0.032714935            3 
  375000    1.1235148   -6.6932475    142.32263   0.03162725  0.032692179            7 
  376000    1.0958149   -6.7042064    142.74717  0.031637227  0.032668358            2 
  377000    1.0998029   -6.6815518     143.0276  0.031615297  0.032643986            2 
  378000    1.0916537   -6.6829692    143.51045  0.031638107  0.032619198            3 
  379000    1.0963022   -6.6531001    143.05406  0.031454279   0.03259529            4 
  380000    1.1086873   -6.6764764    143.44426  0.031457076  0.032569918            2 
  381000    1.1096124   -6.6341282    144.43583  0.031591389  0.032544473            4 
  382000    1.1227971   -6.6380466    144.13766  0.031443644  0.032519557            2 
  383000    1.1069976   -6.6946618    144.16015  0.031366438   0.03249504            3 
  384000    1.1076278   -6.6708636    144.68445  0.031398535  0.032469816            6 
  385000    1.1098175   -6.6777647     145.2388  0.031436969  0.032445095            4 
  386000    1.0888002   -6.6691369     145.6192   0.03143765  0.032420421            2 
  387000    1.0927344   -6.6838135    145.55615   0.03134284  0.032395862            5 
  388000    1.1056485   -6.6649074    146.10516  0.031379974  0.032371354            3 
  389000    1.1040553   -6.6769765    146.35647  0.031353143  0.032346969            2 
  390000     1.093743    -6.723458    146.25984  0.031252102  0.032322697            2 
  391000     1.119335   -6.6667652    147.09576  0.031350332  0.032298095            2 
  392000    1.0850833   -6.6504681    147.21238  0.031295149  0.032274377            1 
  393000    1.0982992    -6.685465    146.98743  0.031167819  0.032249582            2 
  394000    1.1050027   -6.7042218    147.38972  0.031173798  0.032225096            3 
  395000      1.10597   -6.6632546    147.46921  0.031111648  0.032200476            5 
  396000    1.1009154   -6.6737965    148.45308  0.031240126  0.032175358            5 
  397000     1.139664   -6.7031998    148.16327  0.031100603  0.032151313            4 
  398000    1.1023295   -6.6998509    148.65448  0.031125309  0.032127436            6 
  399000    1.1052631   -6.7141309    149.15763  0.031152387  0.032103069            5 
  400000    1.1196628   -6.7255598    149.29758  0.031103663  0.032079683            2 
  401000    1.1234913   -6.7036328    149.53238  0.031074892  0.032056057            3 
  402000    1.1011728   -6.7264322     149.6902  0.031030307  0.032032901            3 
  403000    1.1031618   -6.6985739    150.32943   0.03108549  0.032009944            3 
  404000    1.1099429    -6.665705    151.05388  0.031157979  0.031987553            5 
  405000     1.111327   -6.7049705    151.43682  0.031159839  0.031965454            3 
  406000    1.1058334   -6.6488144    152.22038   0.03124392  0.031943162            4 
  407000    1.0771399   -6.7008269    151.35422  0.030989808   0.03192011            3 
  408000    1.0866834   -6.7273845    151.72405  0.030989389  0.031896703            8 
  409000    1.1055004   -6.6905775    152.46656  0.031064907  0.031874066            4 
  410000    1.0891194   -6.7141521    151.98139  0.030890526  0.031851065            4 
  411000     1.082321   -6.6788856     152.5224   0.03092506  0.031827637            2 
  412000    1.0976059   -6.7019906     153.0365  0.030953984  0.031805263            2 
  413000    1.0858228   -6.6899883    153.45922  0.030964329  0.031781902            4 
  414000    1.0552404   -6.7013248     153.5318  0.030904146  0.031758233            2 
  415000    1.0761003   -6.7076146    153.92027  0.030907685  0.031734596            2 
  416000    1.0790986   -6.7218245    154.56116  0.030961771  0.031711966            2 
  417000    1.0881002    -6.700784    155.12533  0.031000267  0.031690581            4 
  418000    1.1221695   -6.7151291    155.53921  0.031008615  0.031669607            3 
  419000    1.0633626   -6.7149105    155.55895  0.030938535  0.031648605            3 
  420000    1.1096264    -6.712598    156.28185  0.031008303  0.031628095            3 
  421000    1.0721988   -6.7505317    156.05316  0.030889383  0.031607396            5 
  422000    1.0766597   -6.6984727    157.01214  0.031005557  0.031586726            6 
  423000    1.0468035   -6.6967201     156.5469  0.030840602  0.031566715            4 
  424000    1.0724256   -6.7103506    156.73126    0.0308041  0.031545952            4 
  425000    1.0898201   -6.7293039    156.89155  0.030763049   0.03152374            4 
  426000     1.087644   -6.7078873    157.67232  0.030843568  0.031502012            3 
  427000     1.072732   -6.6871431    157.65388  0.030767735  0.031480065            3 
  428000    1.0945067   -6.7149422    158.16814  0.030795978  0.031458186            5 
  429000    1.0817362    -6.739797    158.43474  0.030775979  0.031437678            5 
  430000    1.0665482   -6.7369053    158.61414  0.030739174  0.031417283            3 
  431000    1.0697386   -6.7591159    158.00606  0.030550282  0.031396176            8 
  432000    1.0580467   -6.7351428    159.36602  0.030741902   0.03137451            7 
  433000    1.0743387   -6.6946654     159.2465  0.030647902  0.031352963            7 
  434000    1.0873021   -6.7234014    159.51549  0.030628935  0.031331553            4 
  435000    1.0789645   -6.7360656    159.89325   0.03063089  0.031310225            5 
  436000    1.0813711   -6.7002036    160.23186  0.030625356  0.031289445            3 
  437000     1.110811   -6.7568622    160.74904  0.030653898  0.031269643            3 
  438000    1.0485584   -6.7373005    160.51162  0.030538741  0.031249129            2 
  439000    1.0839859   -6.6943711    161.13545  0.030587596  0.031228195            3 
  440000    1.0765227    -6.753495    161.25438  0.030540602  0.031207494            5 
  441000    1.0893496    -6.737231     160.7487  0.030375795  0.031185972            3 
  442000    1.0857561   -6.7603776    161.01824  0.030357889  0.031163833            3 
  443000    1.0666568   -6.7444393    161.26663  0.030336085  0.031141447            2 
  444000    1.0788697   -6.7602335    162.06799  0.030418166  0.031119272            3 
  445000    1.0620984   -6.7712001    162.35598  0.030403742  0.031097057            2 
  446000    1.0862355   -6.7564787     162.4132  0.030346262  0.031074953            4 
  447000    1.0886613    -6.734613    163.03876  0.030394997   0.03105305            4 
  448000    1.0878959   -6.7461189     162.8231  0.030287036  0.031031366            3 
  449000    1.1026095   -6.7628198    163.06029  0.030263603  0.031009167            2 
  450000    1.0680682   -6.7854358    163.36012  0.030251874  0.030987128            3 
  451000    1.0945745   -6.7334875    164.13959  0.030328823   0.03096558            2 
  452000    1.0692904   -6.7482511    164.21528  0.030275678  0.030944604            3 
  453000    1.0692362   -6.7523945    164.37422  0.030238083  0.030923579            4 
  454000    1.0716885   -6.7325289    164.69678  0.030230686  0.030902686            2 
  455000     1.049269   -6.7591898    164.71433   0.03016746   0.03088063            3 
  456000    1.0876368   -6.7790271    165.06932  0.030166176  0.030858633            4 
  457000    1.0829548   -6.7515783    165.96709  0.030263874  0.030837699            2 
  458000     1.048113   -6.7527068    166.00667  0.030204997  0.030817086            3 
  459000    1.0740056   -6.7568101     166.1927  0.030172967  0.030796062            2 
  460000    1.0528601    -6.783187    166.32773  0.030131835  0.030775282           10 
  461000    1.0617565   -6.7824735    166.80806  0.030153301  0.030754467            3 
  462000    1.0557634   -6.7253362    167.37123  0.030189615  0.030733896            3 
  463000    1.0743008   -6.7485092    167.06685  0.030069628  0.030712559            2 
  464000    1.0720212   -6.7619907    167.83461  0.030142711  0.030692113            9 
  465000    1.0786853   -6.8084856    167.04128  0.029935714  0.030671309            6 
  466000    1.0740042   -6.8019035    167.00573  0.029865116  0.030649725            6 
  467000    1.0627358   -6.7662067    167.30927   0.02985533  0.030627434            5 
  468000     1.049278   -6.7949196    168.17062  0.029944911  0.030605532            7 
  469000    1.0757952   -6.7559784     168.3413  0.029911389  0.030583684            4 
  470000     1.084734   -6.7512388    168.41771  0.029861296  0.030561904            2 
  471000    1.0621378   -6.7900125    168.40795  0.029796169  0.030539631            4 
  472000    1.0558891   -6.7515282     168.9292   0.02982507  0.030517068            2 
  473000    1.0648442   -6.7719057    169.22724  0.029814523  0.030494726            3 
  474000    1.0500134   -6.7686118    169.33263  0.029770154  0.030472061            7 
  475000    1.0600038   -6.7496765    169.71887  0.029775241  0.030449722            4 
  476000    1.0697027   -6.7707763     169.8605  0.029737483  0.030427271            2 
  477000    1.0606477   -6.7737708    170.05307  0.029708782  0.030404979            8 
  478000    1.0403819   -6.8033915    169.91147  0.029621943  0.030381999            4 
  479000     1.067202   -6.7911762    170.02792  0.029580363  0.030358872            5 
  480000    1.0516599   -6.7306642    170.84283  0.029660214  0.030336051            3 
  481000    1.0585552   -6.7396847    171.60261  0.029730182  0.030313051            2 
  482000    1.0645029   -6.7955135    171.27365  0.029611628  0.030290242            2 
  483000    1.0447039   -6.7460316    172.01264  0.029677818  0.030268013            3 
  484000    1.0672743   -6.7647025    171.88292  0.029594166  0.030245957            6 
  485000     1.059642   -6.7604948    172.03423  0.029559146  0.030224059            6 
  486000    1.0539309   -6.7969521    172.23194  0.029532226  0.030201915            2 
  487000    1.0696247   -6.7668461    172.61204  0.029536625  0.030179879            2 
  488000    1.0781902   -6.8137313    172.90376  0.029525915  0.030157615            3 
  489000    1.0469089   -6.8080135    173.01752  0.029484922   0.03013481            6 
  490000     1.051236   -6.7504887    174.03038  0.029597004  0.030113114            5 
  491000     1.030996   -6.7727816    173.05295  0.029370833  0.030091263            3 
  492000    1.0624646   -6.7720777    173.86005   0.02944784  0.030069362            2 
  493000    1.0645417   -6.7768603    174.31677  0.029465308  0.030047761            4 
  494000    1.0512598   -6.7603894    174.31883  0.029406011  0.030025447            3 
  495000    1.0601019   -6.8269072    174.73961  0.029417443  0.030003779            2 
  496000    1.0500824   -6.8328164     174.5156  0.029320498  0.029981991            6 
  497000    1.0560854    -6.807195    175.21442  0.029378676  0.029960415            3 
  498000    1.0540728    -6.814832     176.0153  0.029453698  0.029938777            5 
  499000    1.0574295   -6.7851464    175.60917  0.029326848  0.029917628            9 
  500000    1.0628972   -6.7240521    176.80595  0.029467659  0.029896256            3 
  501000    1.0504661    -6.786241    176.24014  0.029314727  0.029875462            4 
  502000    1.0472158   -6.8072175    176.67527  0.029328564   0.02985444            5 
  503000    1.0592894   -6.7562276    177.16211  0.029350914  0.029833013            2 
  504000    1.0303527   -6.8137371    176.72937  0.029221126  0.029811702            2 
  505000    1.0523085   -6.8132971    176.63078  0.029146994  0.029790566            6 
  506000    1.0499241   -6.7725047    176.94923  0.029141837   0.02976916            4 
  507000    1.0425483   -6.7929251    177.63233  0.029196635   0.02974746            4 
  508000    1.0413967   -6.8060673    177.60983   0.02913547  0.029726017            3 
  509000    1.0454092   -6.8504596    177.56992  0.029071696  0.029703943            3 
  510000    1.0325192   -6.7798158    178.62141  0.029186504  0.029682727            2 
  511000    1.0596824   -6.8405505    178.07784  0.029040743  0.029661107            3 
  512000    1.0211523   -6.7950141    179.15594  0.029159495   0.02963944            3 
  513000     1.053267   -6.8189965    178.59022  0.029010756  0.029618086            5 
  514000    1.0451907   -6.8126764    179.28814  0.029067468  0.029596836            5 
  515000    1.0723718   -6.8418314     179.3724  0.029024661  0.029575918            4 
  516000    1.0296935   -6.8471236     179.3559  0.028965745  0.029554709            3 
  517000    1.0669202   -6.8110482     180.1954  0.029045035  0.029533858            3 
  518000    1.0458227   -6.8086069    180.26076  0.028999478  0.029513093            4 
  519000    1.0423209   -6.7969121    180.94498  0.029053466  0.029492408            4 
  520000    1.0528284   -6.7765911    181.03468  0.029011968  0.029471608            4 
  521000    1.0258937   -6.8160414    181.26049    0.0289924  0.029450997            3 
  522000    1.0413919   -6.8274997    181.45642  0.028968139  0.029429981            2 
  523000    1.0411182   -6.8315334    181.64356  0.028942569  0.029409018            3 
  524000    1.0382819   -6.8553368     181.6857  0.028894036  0.029388092            6 
  525000    1.0507522   -6.8425831    181.97345  0.028884674  0.029367167            2 
  526000    1.0355501    -6.848157     182.1187  0.028852773  0.029346377            5 
  527000    1.0554967   -6.8199848    182.85732  0.028914819  0.029325681            1 
  528000    1.0404685   -6.8171936    182.92502  0.028870742  0.029305377            2 
  529000    1.0438908   -6.8142443    183.23951  0.028865707  0.029285966            3 
  530000    1.0349767   -6.7875045    183.53703  0.028858024  0.029265837            4 
  531000    1.0463923    -6.806477    183.41769  0.028784949  0.029245732            6 
  532000    1.0596454   -6.8182174     183.6523   0.02876759  0.029225366            8 
  533000    1.0403439   -6.7838457    183.95729  0.028761302  0.029205184            5 
  534000    1.0416668   -6.8087009    184.41537  0.028778928  0.029184479            3 
  535000    1.0337328   -6.7990732    184.47505  0.028734432  0.029164079            5 
  536000    1.0441639   -6.8262459    184.37909  0.028665903  0.029143266            4 
  537000    1.0410805   -6.8560612    184.43272  0.028620845  0.029122366            5 
  538000    1.0415167   -6.8237541    184.64182  0.028600035  0.029101906            4 
  539000    1.0261224   -6.8572884    184.72751  0.028560222  0.029080488            7 
  540000    1.0377197   -6.8301781     185.0122  0.028551266  0.029058969            4 
  541000    1.0556964   -6.8263812    184.90452  0.028481904  0.029037998            2 
  542000    1.0593825   -6.8319783    185.93222  0.028587365  0.029016942            7 
  543000    1.0317228   -6.8350366    185.83367  0.028519594  0.028996118            6 
  544000    1.0513589   -6.8305714    186.25034  0.028530996  0.028975467            3 
  545000    1.0494851   -6.8148762    186.66146  0.028541508  0.028955005            2 
  546000    1.0311593   -6.8448351    186.79575   0.02850973  0.028934717            3 
  547000    1.0255145   -6.8408297    187.33797  0.028540214   0.02891475            3 
  548000    1.0111004   -6.8419617    186.83069  0.028410993  0.028894624            3 
  549000    1.0335925   -6.8741839    186.86827  0.028364947  0.028874172            3 
  550000    1.0446111   -6.8346182    187.79914  0.028454414  0.028853565            5 
  551000    1.0217559   -6.8416336    187.52122  0.028360742  0.028832349            6 
  552000    1.0403083    -6.839889    188.35307  0.028434944  0.028811733            4 
  553000     1.041944   -6.9007165     187.2975  0.028224457  0.028790991            5 
  554000    1.0277695   -6.8504085    187.70116   0.02823423  0.028770044            5 
  555000    1.0286964   -6.8556222    188.37119  0.028283962  0.028748619            4 
  556000    1.0278362   -6.8894317    188.30849  0.028223694  0.028727615            3 
  557000    1.0124896   -6.8359861    189.04157    0.0282827  0.028707016            6 
  558000      1.03214     -6.85924    189.15064  0.028248304  0.028686607            4 
  559000     1.036683   -6.8891832    189.56458  0.028259479  0.028665223            2 
  560000      1.01473   -6.8812454    190.11193  0.028290465  0.028644134            3 
  561000    1.0279918   -6.8616308    190.10721  0.028239336  0.028623537            5 
  562000   0.98527513   -6.8756938    189.97739  0.028169839  0.028603151            2 
  563000    1.0177103   -6.8594116    190.83628  0.028246933   0.02858273            3 
  564000    1.0305472    -6.871371    190.78481  0.028189245  0.028561902            6 
  565000    1.0170253   -6.9441371     189.9332  0.028013746  0.028541237            5 
  566000    1.0243027   -6.9178784     190.1734  0.027999617  0.028520485            3 
  567000    1.0152127   -6.9088929    190.54005  0.028004123  0.028499664            3 
  568000    1.0127555   -6.8956967     190.7896  0.027991432  0.028478516            7 
  569000    1.0273673   -6.9337231    190.27959  0.027867544  0.028457153            7 
  570000    1.0132649   -6.8699938    191.42956  0.027986778  0.028436027            3 
  571000    1.0147796   -6.8696441    191.37041  0.027929131  0.028414914            6 
  572000    1.0119619   -6.8918336    192.02483  0.027975646  0.028394122            4 
  573000    1.0052087   -6.8482131    192.36414  0.027976169  0.028373001            3 
  574000    1.0392566   -6.8610897    192.37306  0.027928726  0.028352179            6 
  575000     1.023353    -6.870394    192.64179    0.0279191  0.028331625            3 
  576000    1.0310511   -6.8748794    193.11758  0.027939465  0.028311025            3 
  577000    1.0317447   -6.8556534      193.375   0.02792822  0.028290128            2 
  578000    1.0161542   -6.8893677    192.94559  0.027817991  0.028269155            7 
  579000    1.0330714   -6.8939442    193.00251  0.027778139   0.02824844            5 
  580000    1.0238463   -6.8842668    193.53522  0.027806784  0.028227593            7 
  581000    1.0122684   -6.8818954    193.96806  0.027821007  0.028206301            3 
  582000    1.0175877   -6.9006819     193.4562  0.027699914  0.028185408            3 
  583000     1.015791   -6.9286026     193.4138  0.027646341  0.028164157            5 
  584000    1.0459748   -6.8870294    194.09706  0.027696498  0.028143146            3 
  585000     0.999719   -6.8847402     194.7375  0.027740384  0.028122516            5 
  586000     1.015452   -6.8966435     195.0026  0.027730746  0.028102198            7 
  587000    1.0226012   -6.8930885    195.42636  0.027743662  0.028082266            5 
  588000    1.0060103    -6.921415     195.8964  0.027763095  0.028062539            3 
  589000    1.0154507   -6.9300337    195.38264   0.02764327  0.028042007            6 
  590000    1.0161305   -6.8733046    196.68056   0.02777974  0.028022121            3 
  591000    1.0419118   -6.8852208    195.97884  0.027633791  0.028002549            5 
  592000    1.0148028   -6.9256363    195.95793  0.027584168  0.027982364            4 
  593000    1.0187486   -6.9150808    196.29639  0.027585216  0.027962547            5 
  594000    1.0178475   -6.8789594    197.08193   0.02764898  0.027942845            5 
  595000    1.0198803   -6.9332474    197.13627  0.027610122  0.027923198            6 
  596000    1.0195406   -6.8911275    197.27603  0.027583338  0.027903115            5 
  597000    1.0293602   -6.9308984     196.9496  0.027491569  0.027883178            6 
  598000    1.0170453   -6.9151898    197.00342  0.027453096  0.027863004            3 
  599000    1.0413189   -6.8708329     197.2143  0.027436602  0.027842789            3 
  600000    1.0124865   -6.9352949    197.35553   0.02741049  0.027823055            4 
  601000    1.0134521   -6.8730659    198.72528  0.027554809  0.027802966            4 
  602000     1.016196   -6.8883994    198.55009  0.027484785  0.027783272            5 
  603000    1.0129069   -6.9648796    197.98285  0.027360813  0.027763492            4 
  604000    1.0219194   -6.9060964    198.77662  0.027425031  0.027743128            5 
  605000    1.0040332   -6.9319154    198.79171  0.027381778  0.027722494            6 
  606000    1.0023528    -6.934117    198.63944  0.027315655  0.027701667            4 
  607000    1.0143026    -6.943853    198.67924  0.027276118  0.027680938            6 
  608000    1.0241382   -6.9153888    199.86953  0.027394398  0.027660476            4 
  609000   0.98600241   -6.9012925    199.93007    0.0273577  0.027640598            4 
  610000    1.0062219   -6.8995079    199.89476  0.027308027  0.027620593            2 
  611000    1.0232377   -6.9477262    199.45396  0.027203214  0.027600532            3 
  612000    1.0173424   -6.8911743    200.51964  0.027303873  0.027580384            7 
  613000    1.0036138    -6.924114    200.65264  0.027277411  0.027560323            7 
  614000    1.0035543   -6.9148342      200.658  0.027233713   0.02754004            3 
  615000     1.003784   -6.9471744    200.36943   0.02715033   0.02752006            8 
  616000    1.0029977    -6.940595    200.34215  0.027102564  0.027499951            6 
  617000    1.0199225   -6.9061953    201.57147  0.027224672    0.0274798            3 
  618000    1.0274557   -6.9341949    201.52825  0.027174791  0.027459719            3 
  619000     1.012439   -6.9067721    201.37771  0.027110623    0.0274399            4 
  620000    1.0013931   -6.9028681    201.82804  0.027127425  0.027419483            2 
  621000    1.0159658   -6.9824255    201.23682  0.027004404  0.027398936            5 
  622000   0.99413916   -6.9381673    201.42662  0.026986417  0.027378136            6 
  623000    1.0091601   -6.9479058    202.51239  0.027088334  0.027357928            5 
  624000   0.99675258   -6.9375358    202.09621  0.026989344  0.027337989            8 
  625000    1.0096032   -6.9308968    202.95533  0.027060711  0.027317894            6 
  626000     1.002585   -6.9191589    202.59263  0.026969199  0.027297604            6 
  627000    1.0153156    -6.930081    203.26285  0.027015264  0.027277484            3 
  628000    1.0069872   -6.9690878     202.9507  0.026930825  0.027257762            7 
  629000    1.0137003   -6.9353538    203.43864  0.026952655  0.027238114            5 
  630000    1.0284031   -6.9587068    203.87109  0.026967075  0.027218347            3 
  631000    1.0132098   -6.9374961     203.9409  0.026933558  0.027198665            4 
  632000    1.0147735   -6.9391539    204.00388  0.026899245  0.027178892            5 
  633000   0.99087311   -6.9705532    203.57925  0.026800849  0.027158835            4 
  634000   0.99622423   -6.9215718     204.5575  0.026887158  0.027138684            5 
  635000    0.9947114   -7.0000289    203.18206  0.026664313   0.02711835            4 
  636000   0.99912669   -6.9475104    205.02735  0.026864171  0.027097897            4 
  637000    1.0067983   -6.9687959    204.24944   0.02672023  0.027077517            6 
  638000    1.0000897   -6.9336212     204.8985  0.026763127  0.027056951            4 
  639000   0.99753357    -6.966337    204.97848  0.026731675   0.02703645            2 
  640000   0.97368864   -6.9795976    204.57391  0.026637227  0.027015683            5 
  641000   0.98757957   -6.9689036    204.54369  0.026591743  0.026995202            4 
  642000   0.97574743   -6.9575246    205.15859  0.026630139  0.026974517            6 
  643000   0.99257592   -6.9519352    205.37216  0.026616403    0.0269541           10 
  644000   0.98239953   -6.9350889    206.30347  0.026695584  0.026933607            4 
  645000   0.98768672   -6.9400422    205.59053  0.026562084  0.026913414            3 
  646000    1.0047303   -6.9520163    206.12049   0.02658933  0.026893263            4 
  647000    1.0015939    -6.947841    205.79981   0.02650693  0.026872731            2 
  648000   0.98241276   -6.9532395    205.96986  0.026487894   0.02685204            5 
  649000   0.98814605   -6.9632859    205.98127  0.026448546  0.026831475            7 
  650000   0.97144147   -6.9609224    206.13158  0.026427125  0.026810571            5 
  651000   0.98929365   -6.9180194    206.73635  0.026463946  0.026789482            7 
  652000    1.0017906   -6.9539099    206.54643  0.026399084  0.026768661            3 
  653000   0.98278565   -6.9821077    206.73492   0.02638271  0.026747866            5 
  654000   0.99043493   -6.9756714    206.56199  0.026320335  0.026726833            3 
  655000   0.95420395   -6.9861785    207.24945  0.026367615  0.026706111            8 
  656000    1.0137494   -6.9827895    208.25362  0.026454983  0.026685599            6 
  657000    0.9919464   -6.9699582    207.60551   0.02633251  0.026665493           17 
  658000   0.99587795   -6.9608097    208.15666  0.026362292  0.026645339            3 
  659000   0.99136567   -7.0023076    207.84989  0.026283497  0.026624979            3 
  660000   0.96984656    -6.959254    208.85186  0.026370184  0.026604676            2 
  661000   0.99053629   -6.9913434    208.49192  0.026284912  0.026584557            2 
  662000    1.0158131   -6.9761207     208.9051  0.026297218  0.026564274            4 
  663000   0.97695436   -6.9831996    208.79059  0.026243161  0.026544026            6 
  664000   0.97037699   -6.9613184    209.15683  0.026249602  0.026523732            5 
  665000   0.99625798   -7.0222361    208.54883  0.026133939  0.026503294            4 
  666000   0.97491647   -6.9183249    209.82069   0.02625384  0.026482873            4 
  667000   0.97311554   -6.9625655    209.53075  0.026178254  0.026462523            6 
  668000   0.97609911   -6.9360488    209.88209  0.026182895  0.026442376            3 
  669000    0.9881909   -7.0333954     208.9836  0.026031838  0.026422117            4 
  670000   0.99499152   -7.0052299    209.42362  0.026047714  0.026401564            3 
  671000   0.98467555   -7.0178571    208.85486  0.025938259  0.026380632            3 
  672000   0.97939941   -7.0365699    209.15966  0.025937458  0.026359372            7 
  673000   0.98442381   -6.9916911    209.62443  0.025956467  0.026338441            2 
  674000   0.98198826   -6.9908675    210.26085  0.025996643  0.026317783            7 
  675000   0.99956081   -6.9900754    210.42134  0.025977944  0.026297333            6 
  676000   0.97479939   -6.9959633    210.82121  0.025988807  0.026276538            5 
  677000    1.0004546   -6.9948056    210.78986  0.025946561  0.026255287            3 
  678000   0.96369878   -7.0133138    210.19972  0.025835757  0.026233947            7 
  679000    1.0006362   -6.9969525    210.35612  0.025816902  0.026212357            2 
  680000    0.9925063   -6.9683963    210.09064  0.025746402  0.026190738            5 
  681000   0.98981196   -7.0072218    210.64091  0.025775931  0.026169184            4 
  682000   0.97857786   -7.0349922    210.59642    0.0257327  0.026147665            4 
  683000   0.96408452    -7.010871    210.70444  0.025708204  0.026126325            8 
  684000   0.97253318   -6.9836549    211.44774  0.025761177  0.026105425            2 
  685000   0.96930299   -7.0109137    211.28112  0.025703299  0.026084268            3 
  686000   0.97844965   -7.0262435    211.09946  0.025643763  0.026062952            4 
  687000   0.97735274   -6.9974451    211.92583  0.025706675  0.026041969            5 
  688000   0.98681957   -6.9984229    211.86006  0.025661345  0.026021165            8 
  689000   0.97652093   -7.0380046    211.78839  0.025615432  0.026000034            4 
  690000   0.98323899    -6.999231    212.00665  0.025604668  0.025979113            8 
  691000   0.98652999   -7.0343828    211.73748  0.025535152  0.025958245            4 
  692000   0.96702947   -7.0034542    213.56765  0.025718648  0.025937577            2 
  693000   0.98453586   -6.9834998    212.84259  0.025594347  0.025917152            2 
  694000   0.97109602   -7.0374254    212.47238  0.025513013  0.025896365            5 
  695000   0.99557479    -7.018944    212.81353   0.02551721  0.025875651            8 
  696000    1.0065116   -7.0343519    212.88855  0.025489529   0.02585497            4 
  697000   0.98640385   -7.0297704    213.47788   0.02552342  0.025834698            7 
  698000   0.94204417   -7.0101192    213.80666  0.025526106  0.025814138            3 
  699000   0.98427216   -7.0407494    213.70703   0.02547771   0.02579343            4 
  700000   0.97461531   -7.0436108    214.02462  0.025479121  0.025772351            4 
  701000   0.96987617    -7.046284     213.6705  0.025400678  0.025751809            4 
  702000   0.94786941   -7.0682977     213.6842   0.02536612  0.025731079            4 
  703000   0.95862711   -6.9700002    214.82017  0.025464696  0.025710422            5 
  704000   0.97418414   -7.0142877    214.52519  0.025393606  0.025689699            5 
  705000   0.97068469   -7.0958123    213.37003  0.025221043  0.025668483            8 
  706000   0.98119713   -7.0374551    214.28386  0.025293185  0.025647219            6 
  707000   0.98499733   -7.0561831    214.35622  0.025265939  0.025626129            2 
  708000    0.9838668   -7.0173672    215.13016  0.025321347  0.025605312            5 
  709000   0.99018571   -7.0167477    215.05845  0.025277204  0.025584607            4 
  710000   0.97688572   -6.9975733     216.3767  0.025396327  0.025564233            4 
  711000   0.98521891   -7.0101613    215.97617  0.025313662  0.025543925            5 
  712000   0.95471031   -7.0278111    216.20679  0.025305102   0.02552324            4 
  713000   0.97841396    -7.047933    216.00996  0.025246606  0.025502757            4 
  714000   0.98104851    -7.053222    216.49079  0.025267365  0.025482203            4 
  715000   0.94833869   -7.0280938    216.19277  0.025197293  0.025461566            6 
  716000    0.9704484   -7.0745114    216.51898  0.025200068  0.025441176            8 
  717000   0.95930426   -7.0701637    216.46423  0.025158557  0.025420678           11 
  718000    0.9658775   -7.0512766    217.00306  0.025186056  0.025400238            5 
  719000   0.96949292     -7.03544    217.47132  0.025205299  0.025379908            6 
  720000   0.96791433   -7.0625439     216.7049  0.025081585  0.025359672           10 
  721000    0.9779206   -7.0549262    216.60138  0.025034834  0.025339229            8 
  722000   0.97902743   -7.0001716    217.28945  0.025079576  0.025318962            6 
  723000   0.95614758   -7.0078112    217.73425  0.025096156  0.025299032            4 
  724000   0.96506319   -7.0419092    217.87117  0.025077252  0.025279194            4 
  725000   0.97628866   -7.0423653    218.15374  0.025075143  0.025259197            5 
  726000   0.96612317   -7.0480083    217.87742  0.025008887   0.02523892           10 
  727000   0.96853601   -7.0499448     218.1874  0.025010018   0.02521877            3 
  728000   0.96519236   -7.0726851     218.7209  0.025036733  0.025198799            6 
  729000   0.98319967   -7.0511046    218.99487  0.025033707  0.025179056            2 
  730000   0.94857811   -7.0787265    219.40244  0.025045941  0.025159577            5 
  731000   0.97015317   -7.0640966    219.33465  0.025003951  0.025139822            8 
  732000   0.94047755   -7.0781259    219.17142  0.024951209   0.02512001            3 
  733000   0.93533482   -7.0380509    219.07874  0.024906632  0.025100489            3 
  734000   0.95680079   -7.0636102    219.02916   0.02486707  0.025080944            5 
  735000   0.95359172   -7.0733053    219.96571  0.024939422  0.025061445            6 
  736000   0.97126995   -7.0580177    219.75251  0.024881398  0.025041834            4 
  737000   0.94957591   -7.0741008    219.44803   0.02481321  0.025021944            5 
  738000   0.95698503   -7.0539801    219.77099  0.024816056  0.025001651            4 
  739000   0.94607583   -7.0422205    219.88408  0.024795227  0.024981677           12 
  740000   0.94619603   -7.0404399    220.43421  0.024823672  0.024961664            8 
  741000   0.95793526   -7.0790259    220.09806  0.024752368  0.024941662            6 
  742000   0.93983125   -7.0788253    219.93637  0.024700851  0.024921578            8 
  743000    0.9445428   -7.0753588    220.38954  0.024718432  0.024901658            4 
  744000   0.96720355   -7.0798867    220.23132  0.024667486  0.024881609            6 
  745000   0.94739808   -7.0916003    220.22755  0.024633955  0.024861534            6 
  746000   0.96269773   -7.0933296    220.81942  0.024667049  0.024841511            5 
  747000   0.95998427   -7.0613341    220.72085  0.024623031  0.024821633           12 
  748000   0.95311973    -7.032255    221.85508  0.024716475  0.024801997            3 
  749000   0.94317168    -7.070682    220.64477  0.024548817  0.024782206            3 
  750000   0.94329322   -7.0870986    220.81309  0.024534788  0.024761981            3 
  751000   0.95199049   -7.0638923    221.69422  0.024599891  0.024741981            6 
  752000   0.95242673   -7.0794342    221.65064  0.024562349  0.024722039           16 
  753000    0.9387072   -7.0504928    222.76943  0.024653544  0.024702165           13 
  754000   0.96244073   -7.0688269    222.04919  0.024541246  0.024682537            5 
  755000   0.94100874   -7.0801097    222.27697  0.024533881  0.024662791            5 
  756000   0.96483144   -7.1125456    221.83359  0.024452556  0.024643126            3 
  757000   0.95094979   -7.1064481    221.72596  0.024408406  0.024623421            6 
  758000   0.95252509   -7.0930052    222.11516  0.024418993  0.024603667            8 
  759000   0.94038748   -7.1000057    222.08777  0.024383813  0.024583824            3 
  760000   0.93185865    -7.070477    223.13295  0.024466332  0.024564161            4 
  761000   0.94259405   -7.0811279    222.89558  0.024408189  0.024544626            8 
  762000    0.9373288   -7.0953582    223.22503  0.024412186  0.024524791           14 
  763000   0.95065108   -7.1072551    222.78764   0.02433242   0.02450513            5 
  764000   0.96871058   -7.0670182     223.7064  0.024400785   0.02448573            5 
  765000   0.94847854    -7.063873    224.18537  0.024421064  0.024466427            8 
  766000   0.95026093   -7.1219281    223.47569  0.024311976  0.024447211           11 
  767000   0.94735507   -7.0876459    224.16211  0.024354858  0.024427838            8 
  768000   0.95875827   -7.0918801      224.001  0.024305664  0.024408422           10 
  769000   0.93620169    -7.118164    224.14251  0.024289392  0.024389005            5 
  770000   0.94843103   -7.1135327    224.32762  0.024277881  0.024369486            7 
  771000   0.96638766   -7.0943439    224.35284  0.024249118  0.024350183            4 
  772000   0.91823794   -7.0991796    224.37024  0.024219585  0.024330727            4 
  773000   0.94869532   -7.1482058    223.60725  0.024105999  0.024311352            6 
  774000   0.94158799   -7.1100733      224.644  0.024186477   0.02429175            4 
  775000   0.93249042   -7.0915128    224.90412  0.024183238  0.024272366            9 
  776000    0.9470367   -7.1004522    224.90104  0.024151744  0.024253045            7 
  777000   0.95294209   -7.1790735    224.11314  0.024036159  0.024233445            7 
  778000   0.93627545   -7.1133825    225.85802  0.024192161  0.024214131            3 
  779000   0.91935418   -7.1071556    225.27443  0.024098677  0.024195093            3 
  780000   0.98138416    -7.094593    225.56255  0.024098563  0.024176113            3 
  781000   0.93533773   -7.0873625    226.00475   0.02411489  0.024157107            5 
  782000   0.94124063   -7.1054595    226.52925  0.024139945  0.024138055            6 
  783000     0.941152    -7.100447    226.24019  0.024078352  0.024118993            9 
  784000   0.96108728   -7.1399672     225.1369  0.023930368  0.024099656            4 
  785000   0.92276626   -7.1450138    225.91257  0.023982226  0.024080337           10 
  786000   0.94554445   -7.1155838    226.73878   0.02403931  0.024061053            4 
  787000   0.97684991    -7.100009    226.63455  0.023997729  0.024041926            3 
  788000   0.96062854   -7.1272777    226.31473  0.023933453  0.024022701            9 
  789000   0.95976493   -7.1286179    226.51559  0.023924333  0.024003605           11 
  790000   0.93022415   -7.1388494    227.00351  0.023945518  0.023984704            8 
  791000    0.9312463   -7.1462307    227.00145  0.023915029  0.023965824            4 
  792000    0.9394214   -7.1497672    227.16153  0.023901676  0.023947067            6 
  793000   0.93526107    -7.149185    227.28736  0.023884758  0.023928293            3 
  794000   0.93964359     -7.08582    227.96429  0.023925723  0.023909549            5 
  795000   0.93317168   -7.1087927    227.65542  0.023863252  0.023890635           14 
  796000   0.94800283   -7.1473331    227.25674  0.023791534   0.02387192            9 
  797000   0.92583312   -7.1271728    227.06589  0.023741728  0.023852802            3 
  798000   0.92286834   -7.1212669    228.48674  0.023860353  0.023833817            4 
  799000   0.92518773   -7.1383802    228.08655  0.023788751   0.02381477            5 
  800000   0.92772199   -7.1328968    227.19556  0.023666204  0.023795521            4 
  801000   0.92736122   -7.1363569    228.19411  0.023740545  0.023776267            7 
  802000   0.93661347   -7.1687305    227.65844  0.023655283  0.023756918            4 
  803000   0.92624089   -7.1498389     228.4204  0.023704898  0.023737611            5 
  804000    0.9196676   -7.1521711    228.06081  0.023638143  0.023718243            5 
  805000   0.92254839   -7.1507146    228.75904   0.02368106  0.023699187            4 
  806000   0.94467932   -7.1539299    228.11072  0.023584649  0.023680251            7 
  807000    0.9167314   -7.1783762    227.96994  0.023540886  0.023661232            8 
  808000   0.93175448   -7.1226994    229.12565  0.023630946  0.023642208            6 
  809000   0.94383603   -7.1554183    228.90926  0.023579446  0.023623019            6 
  810000   0.93292459   -7.1588552    228.05145  0.023462083  0.023603939            5 
  811000   0.92564896   -7.1893286     228.4677  0.023475925  0.023584544            5 
  812000   0.93854455   -7.1826943    229.05762  0.023507556  0.023565333            2 
  813000    0.9316337    -7.187706    229.83161  0.023557976   0.02354626            9 
  814000   0.92739746   -7.1706279    229.51377  0.023496496  0.023527346            2 
  815000   0.92678934    -7.126277    230.07415  0.023524964  0.023508422            4 
  816000   0.93307016   -7.1511808    230.08653  0.023497399  0.023489677            5 
  817000   0.94372559   -7.1438798    229.84978   0.02344449   0.02347077            4 
  818000   0.90777734   -7.1272125    230.33212  0.023464967  0.023451924            6 
  819000   0.91779712   -7.1175342     230.3763  0.023440812  0.023433206            6 
  820000   0.93467762   -7.1533017    230.73426  0.023448603  0.023414388            9 
  821000   0.90938033   -7.1617157    230.16905  0.023362673  0.023395605           15 
  822000   0.92460935   -7.1732122    230.07945  0.023325167  0.023376626            5 
  823000   0.91019385   -7.1893628    229.65179  0.023253522  0.023357518            6 
  824000   0.89812171   -7.1588524    230.07062   0.02326766  0.023338297            3 
  825000   0.91771221   -7.1479879    230.48424  0.023281237  0.023319239            3 
  826000   0.93295074   -7.1713043    230.52912  0.023257579  0.023300184            4 
  827000   0.90958311   -7.2044243    230.02486  0.023178643  0.023281143            5 
  828000   0.93076868   -7.1965611    230.03591  0.023151762  0.023262078            7 
  829000   0.90882401   -7.2237569    230.08668  0.023128939  0.023242746            5 
  830000   0.93027295   -7.1597489    230.72289  0.023164948  0.023223384            4 
  831000   0.93673239   -7.1921011    230.79222  0.023144025   0.02320387            5 
  832000   0.91081891   -7.1839096     230.8997  0.023126973  0.023184484            3 
  833000   0.89825615   -7.2087376    230.40593  0.023049813  0.023165157           12 
  834000   0.93608967   -7.1913745     230.8069   0.02306224   0.02314577            6 
  835000    0.9252773   -7.1776041    231.62416  0.023116184  0.023126382            5 
  836000   0.91699621    -7.183266    231.04958  0.023031258  0.023107198            7 
  837000   0.91916413   -7.2051144     231.4787  0.023046466  0.023087971            8 
  838000   0.91085648   -7.1932105    231.28858  0.023000057  0.023068616            5 
  839000   0.94099193   -7.2259179    231.41875  0.022985573  0.023049519            9 
  840000   0.92540497   -7.1867628    231.83544  0.022999547  0.023030454            3 
  841000   0.92848839   -7.1703376     231.6396  0.022952794  0.023011342            8 
  842000   0.91183149   -7.1925225    232.37354  0.022998173  0.022992403            9 
  843000   0.90476742   -7.1850156    232.51345  0.022984722  0.022973355            7 
  844000   0.90111476   -7.1936581    232.15637  0.022922232  0.022954334            7 
  845000   0.91702514   -7.1647577    233.11752  0.022989893  0.022935318            3 
  846000   0.91020967   -7.1507552    232.75927   0.02292743  0.022916348            8 
  847000   0.91418416   -7.1751126    232.61621  0.022886285  0.022897477            7 
  848000    0.9211094   -7.2113882    231.92373  0.022791247   0.02287839            7 
  849000   0.90972065   -7.2281767    232.53932  0.022824825   0.02285937            3 
  850000   0.90889635   -7.1832838    232.88732   0.02283209  0.022840553            8 
  851000   0.92804118    -7.190436     232.3331  0.022750989  0.022821635            6 
  852000   0.92240599   -7.2186185    232.89439  0.022779185  0.022802695            6 
  853000   0.91329846   -7.2354652    233.27323  0.022789491  0.022783901           11 
  854000   0.92052493   -7.2441971    233.01547  0.022737653  0.022764948            5 
  855000    0.9176857   -7.2034887    233.16513  0.022725646  0.022746072            4 
  856000   0.91647154   -7.2219189    233.29846  0.022712078   0.02272738            5 
  857000   0.90415925   -7.2155915    234.25484  0.022778573  0.022708652            4 
  858000   0.91045886   -7.2263398    234.34343  0.022760628  0.022690003            6 
  859000   0.89188282   -7.1719652    234.23194  0.022723316  0.022671605            6 
  860000   0.89480644   -7.2250897    233.28598  0.022605231  0.022653043            9 
  861000   0.92997511   -7.1846323    234.91081  0.022736238  0.022634594           11 
  862000   0.91612618   -7.1994985    234.33298     0.022654  0.022616237           10 
  863000   0.88958086   -7.2021938    233.83969  0.022580117  0.022597757            4 
  864000   0.88843239   -7.2381565    234.83494  0.022649975  0.022579283           10 
  865000   0.87549991    -7.233029    234.85834  0.022626044  0.022560767           14 
  866000   0.90425019   -7.2160688    235.18228  0.022631089  0.022542375            8 
  867000     0.908394   -7.1702923    235.35371  0.022621464  0.022524067           10 
  868000   0.91910937   -7.2100222    235.85336  0.022643371  0.022505792            8 
  869000   0.90266916   -7.2097308    235.86866  0.022618782  0.022487681            7 
  870000   0.88781744   -7.2418411    235.07663  0.022516919  0.022469576            5 
  871000   0.90689744   -7.2377505     234.9694  0.022480808  0.022451314            6 
  872000   0.93235873   -7.2401583    234.68715  0.022428054  0.022433198           10 
  873000   0.91355454   -7.2227546    235.96696  0.022524529  0.022414832            5 
  874000   0.90518863   -7.2239404    235.48098   0.02245242  0.022396591            5 
  875000   0.90074219   -7.2071113    236.07281  0.022483125  0.022378298            5 
  876000   0.89995678   -7.2313014    236.27983  0.022477153  0.022360172            6 
  877000   0.91562102   -7.2115047     236.0233  0.022427147  0.022341861            4 
  878000   0.92163774   -7.2474266    235.62607  0.022363902  0.022323579            5 
  879000   0.89777301   -7.2385517    235.58989  0.022335029  0.022305142            4 
  880000   0.90663316    -7.225038    236.21443  0.022368791  0.022286693            7 
  881000    0.9274158   -7.2275322    236.08644  0.022331294  0.022268525            6 
  882000   0.89487626   -7.2780554    235.71727  0.022271095  0.022250261            7 
  883000   0.89571633   -7.2257049    236.26076  0.022297165  0.022232171            4 
  884000   0.89662564   -7.2416025    237.15463  0.022356205  0.022214176            7 
  885000   0.89112786   -7.2474008       237.28  0.022342749  0.022196291            3 
  886000    0.8833679   -7.2189236     237.2431  0.022314061  0.022178297            5 
  887000   0.90078277    -7.243375    236.23353  0.022194055  0.022160041            9 
  888000   0.90610699   -7.2102125    237.10125  0.022250493  0.022141804            9 
  889000   0.87386939   -7.1749547    237.59997  0.022272213  0.022123923            6 
  890000   0.91811405   -7.2441292    237.83302   0.02226901  0.022105992            5 
  891000   0.89151911   -7.2613982    237.42573  0.022205923  0.022087962           16 
  892000    0.8968247   -7.2451608    237.18599  0.022158632  0.022069771            9 
  893000   0.90260617   -7.2754163    237.25702  0.022140446  0.022051697           11 
  894000   0.90342827   -7.2864435    237.03362  0.022094857  0.022033525           22 
  895000   0.90164778   -7.2305801    238.51389  0.022207997  0.022015547            5 
  896000   0.88088653   -7.2535466    238.03518  0.022138688   0.02199771            9 
  897000   0.89930464    -7.257202    238.07258  0.022117482  0.021979689           13 
  898000   0.89328471   -7.2500527    238.35497  0.022119058  0.021961657            8 
  899000   0.89677992    -7.276331    238.25752  0.022085421  0.021943787            4 
  900000   0.91250189   -7.2281965    239.01865  0.022131356  0.021926014           11 
  901000    0.8776469   -7.2824337    238.58244  0.022066448  0.021908209           10 
  902000   0.88090816   -7.2380192    238.91463  0.022072675  0.021890522            6 
  903000   0.88693718   -7.2571305    239.22053  0.022076461  0.021872775            5 
  904000   0.89899739   -7.2839003    238.99843  0.022031566  0.021855411            4 
  905000    0.8853225   -7.2569323    239.44072  0.022047948  0.021837866            5 
  906000   0.88131886   -7.2526796    239.82464  0.022058926  0.021820303            4 
  907000   0.89187201   -7.2587724    239.27577  0.021984176  0.021802724            7 
  908000    0.8813703   -7.2596296    239.31667  0.021963718  0.021785271            4 
  909000   0.89419106    -7.272894    239.55806  0.021961685  0.021767978           10 
  910000   0.87845926   -7.2754958    239.39005  0.021922166  0.021750481            6 
  911000   0.89373094   -7.2720733    239.95443  0.021949728  0.021733164            8 
  912000   0.88566946    -7.238521    240.22445  0.021950333  0.021715853            7 
  913000   0.85873021   -7.2556911    240.23727  0.021927462  0.021698525           15 
  914000   0.89079026   -7.2663005    240.17687  0.021897964  0.021681246            8 
  915000   0.90093835   -7.2918907    239.86092  0.021845257  0.021663918            6 
  916000   0.87639029   -7.2730147     239.8993    0.0218249   0.02164639            5 
  917000   0.89306406   -7.2589212    240.20816  0.021829167  0.021629179            7 
  918000   0.88966068   -7.2734398    240.92226  0.021870213  0.021611961           20 
  919000   0.90235955   -7.2945696    240.83192  0.021838223  0.021594631            7 
  920000   0.89661651   -7.2981738    240.35536  0.021771319  0.021577198           15 
  921000   0.88657783   -7.2912403    240.59797  0.021769632  0.021559728            5 
  922000   0.88192767   -7.2673123    240.35204  0.021723792   0.02154224            7 
  923000   0.89410634   -7.2698669    240.85217  0.021745411  0.021524744           11 
  924000    0.9117806   -7.3061319    241.08203  0.021742607  0.021507287           17 
  925000   0.88560524   -7.2821595    240.72074  0.021686553   0.02148984           11 
  926000   0.87516862   -7.2925043    241.21117  0.021707269  0.021472399            6 
  927000   0.88635978   -7.3072647    241.20321  0.021683137  0.021455103            6 
  928000   0.87871044   -7.2806488    241.81108  0.021714357  0.021437845            9 
  929000   0.86244932   -7.2575977    241.47884   0.02166118  0.021420685            8 
  930000   0.88894272    -7.267594    242.02861  0.021687151  0.021403731           10 
  931000    0.8981419   -7.3022681    241.59185  0.021624763  0.021386783            6 
  932000   0.90641026   -7.3197516    242.03536  0.021641216  0.021369608            8 
  933000   0.86731769   -7.2902898    242.19754  0.021632506  0.021352612            6 
  934000   0.88577272   -7.2764193      242.481  0.021634636  0.021335498            8 
  935000   0.88471952   -7.2820032    242.82238  0.021641923  0.021318636            4 
  936000   0.87758546   -7.2974667    242.26935  0.021569565  0.021301675           17 
  937000   0.87915874   -7.2999167    242.10147  0.021531614  0.021284627            4 
  938000   0.88970681   -7.2882923    242.86571  0.021576555  0.021267632            7 
  939000   0.87801418    -7.268454    242.94043  0.021560209  0.021250713            5 
  940000   0.86697932   -7.2821775    242.59121  0.021506313  0.021233757           15 
  941000   0.89852493   -7.2944124    242.55476   0.02148023  0.021216942            9 
  942000   0.86181023    -7.308539    242.09983  0.021417183  0.021200182            9 
  943000   0.88366825   -7.3072441    242.61669  0.021440146  0.021183228            8 
  944000   0.87136474   -7.2944642     243.1009  0.021460178  0.021166338           16 
  945000   0.87548799    -7.299571    243.82779  0.021501569  0.021149634            8 
  946000    0.9114939   -7.3013765    242.98657  0.021404737  0.021133081           11 
  947000   0.89652426   -7.3455059    243.32317  0.021411754   0.02111643            7 
  948000   0.87252774   -7.3374025    243.20567  0.021378839  0.021099686           11 
  949000   0.86202936   -7.3408023    243.36019   0.02136988  0.021082889            5 
  950000   0.86861935   -7.3551729    243.14037  0.021328103  0.021066012           14 
  951000   0.87602081    -7.295548    243.39035  0.021327581  0.021049202           11 
  952000   0.87539859   -7.3029335    244.05583  0.021363431  0.021032276           10 
  953000   0.86831432   -7.2948219     244.5155  0.021381208   0.02101552           12 
  954000   0.85952517   -7.3169296    244.00008  0.021313773  0.020998814            8 
  955000   0.87843404   -7.3449709    243.85237  0.021278566  0.020982026            8 
  956000   0.85077228   -7.3311637    243.91661  0.021261909  0.020965178           12 
  957000   0.87062043   -7.3461856    243.70975  0.021221678  0.020948386           13 
  958000   0.86781012    -7.328612     244.1861  0.021240962  0.020931553            5 
  959000   0.88340952   -7.3352443    244.35884  0.021233823  0.020914847            8 
  960000   0.89256322   -7.3415855    244.66294  0.021238103  0.020898223            8 
  961000   0.87581418   -7.3240138    245.08526  0.021252624  0.020881657           11 
  962000   0.86348435   -7.2922565    245.22001  0.021242205  0.020865273            8 
  963000    0.8820176   -7.3622428    244.31952  0.021142222  0.020848819            4 
  964000   0.86219776    -7.329583    245.03152  0.021181839  0.020832283            7 
  965000   0.85483716   -7.2948712    245.38022  0.021190001  0.020815986            9 
  966000   0.87017704   -7.3261994    245.21936  0.021154189  0.020799808            9 
  967000   0.88586436   -7.3369993    245.86655  0.021188086  0.020783589            9 
  968000   0.86801346   -7.3380493    245.63323  0.021146111  0.020767511            9 
  969000    0.8772402   -7.3491375    245.75989  0.021135181  0.020751342            6 
  970000   0.87559275   -7.3062945     246.4356  0.021171444  0.020735188           11 
  971000   0.85567047   -7.3444652    246.09211  0.021120161  0.020719037            8 
  972000   0.88864041   -7.3681817    246.28746   0.02111518  0.020702843            8 
  973000   0.85932811   -7.3618198    245.42754  0.021019831  0.020686572            6 
  974000   0.87646426   -7.3551464    245.62132  0.021014829  0.020670221            5 
  975000   0.84709024   -7.3442749    246.92027  0.021104296  0.020653918            9 
  976000   0.87220632   -7.3524899    246.76183  0.021069145  0.020637771           11 
  977000   0.84495163   -7.3498386    245.56783  0.020945738  0.020621612           12 
  978000   0.87881208   -7.3693364    245.95151  0.020957013  0.020605407            7 
  979000   0.85785025   -7.3670947    246.18496  0.020955478  0.020589213           12 
  980000   0.83711805   -7.3580045     246.5403  0.020964312  0.020572949            7 
  981000   0.85298992    -7.356846    246.56347  0.020944909  0.020556738            6 
  982000   0.86083392   -7.3362811    246.10747  0.020884884  0.020540629            5 
  983000   0.87730101   -7.3541579    246.46187  0.020893681  0.020524422            2 
  984000   0.86531621   -7.3334176    246.84873  0.020905211  0.020508144            3 
  985000    0.8714904   -7.3323448    246.84812  0.020883936  0.020491944            9 
  986000   0.84706452   -7.3933719    246.45848  0.020829824   0.02047574            4 
  987000   0.87062554   -7.3593635     246.6127  0.020821741  0.020459368            8 
  988000   0.85528394   -7.3808375     247.1813  0.020848625  0.020443054            9 
  989000   0.85499468   -7.3623414    246.57476  0.020776437  0.020426675           16 
  990000   0.84223398   -7.3852563    246.79996  0.020774407  0.020410339           16 
  991000    0.8620411   -7.3466683    247.28767  0.020794456  0.020394147            4 
  992000   0.86746894   -7.3335683    247.39666   0.02078265  0.020377944           43 
  993000   0.87496572   -7.3467114    247.95134  0.020808269    0.0203619           14 
  994000   0.84820802   -7.3437451    247.54478  0.020753251  0.020345856           12 
  995000   0.85467656   -7.3861535    246.95511  0.020683007  0.020329762            8 
  996000   0.85213294   -7.3833376    247.83218  0.020735624  0.020313574           12 
  997000   0.86360426    -7.414138    247.30851  0.020671056  0.020297256           15 
  998000   0.86433476   -7.4022999    248.04034  0.020711451  0.020280893           10 
  999000   0.85256543   -7.3851252     247.5822  0.020652503  0.020264642           14 
 1000000   0.85571905   -7.3649825    247.09619  0.020591349  0.020248309           10 
 1001000   0.85937432   -7.3934504    247.83881  0.020632602  0.020231962           11 
 1002000   0.85099698   -7.3647191    247.56794  0.020589482   0.02021568            9 
 1003000    0.8452142   -7.3913693    247.41186  0.020555987  0.020199364           26 
 1004000   0.87060564   -7.3506689    247.37203  0.020532207   0.02018316            5 
 1005000    0.8547389   -7.4169447    247.72925  0.020541397  0.020166974           12 
 1006000   0.86141443   -7.3664409    248.02455   0.02054544  0.020150875           10 
 1007000   0.85855237   -7.3929856    247.96542  0.020520144  0.020134687            7 
 1008000   0.83907155   -7.4006552    247.86519  0.020491501  0.020118317           10 
 1009000   0.85859194    -7.403951    247.98313  0.020480933  0.020102126            4 
 1010000   0.83090066   -7.4058492    247.62395  0.020431019  0.020085797           10 
 1011000   0.85963212   -7.4110091    248.44132  0.020478183  0.020069493           10 
 1012000   0.87747566   -7.3708417    248.89571  0.020495365  0.020053366            5 
 1013000   0.83325715   -7.3921326    247.91627   0.02039456  0.020037231            6 
 1014000   0.85800231    -7.399024    248.16241  0.020394675  0.020020967           11 
 1015000   0.84049744   -7.3808789    249.05906  0.020448199  0.020004723           15 
 1016000   0.84217186   -7.3701002    248.47751  0.020380373  0.019988532            6 
 1017000   0.82813166   -7.3779403    247.83416  0.020307618   0.01997227           16 
 1018000   0.86053043    -7.423219    248.74866  0.020362529  0.019956102           16 
 1019000   0.85871386    -7.360511    248.72009   0.02034021  0.019939913            5 
 1020000    0.8608446   -7.3887931    248.91951  0.020336561  0.019923877            7 
 1021000   0.85200232   -7.4146485     248.5044  0.020282762  0.019907736           10 
 1022000   0.82722355   -7.3981131    248.16746  0.020235442    0.0198916           14 
 1023000   0.82437758   -7.4006499    248.54685  0.020246567  0.019875424           23 
 1024000   0.84177776    -7.399606    248.75207  0.020243495  0.019859275           12 
 1025000   0.83878878    -7.421292    248.55649  0.020207845  0.019843083            5 
 1026000    0.8305047   -7.4488787      248.477  0.020181693  0.019826867           10 
 1027000   0.83171073   -7.3826851    249.82583  0.020271489  0.019810705           16 
 1028000   0.85344294   -7.4289114    248.12921  0.020114235  0.019794614           22 
 1029000   0.84206501   -7.4253383    248.86111  0.020153961  0.019778386           11 
 1030000   0.82646991   -7.4624485    248.68423  0.020120083  0.019762075            7 
 1031000   0.84187725    -7.411066    249.07892   0.02013247  0.019745964            7 
 1032000   0.82664615   -7.4102167    249.73446  0.020165896  0.019729899           10 
 1033000   0.85204872   -7.4214257    249.53935  0.020130635  0.019713854           10 
 1034000   0.84475053   -7.4395909    249.10223  0.020075937  0.019697907            4 
 1035000   0.83104829    -7.457564    248.47869  0.020006336  0.019681881            9 
 1036000   0.83676875   -7.4089326    249.93246  0.020103962  0.019665974            9 
 1037000   0.85347474   -7.4139214    250.00636  0.020090514  0.019650143            4 
 1038000   0.81491535   -7.4601308    249.92093  0.020064301  0.019634287            7 
 1039000   0.83780491   -7.4594863    250.30609  0.020075881  0.019618345           17 
 1040000    0.8269029   -7.4242765    249.73425  0.020010757  0.019602517           11 
 1041000   0.83670181   -7.4458786    250.23413  0.020031551  0.019586628            9 
 1042000   0.82921112   -7.3931174    250.77604  0.020055665  0.019570834            7 
 1043000   0.82314257   -7.4649456    250.05624  0.019978926  0.019555011           19 
 1044000     0.837128   -7.4092995    251.13283  0.020045724  0.019539299           15 
 1045000   0.83396178   -7.4321004     250.4287   0.01997039  0.019523578            5 
 1046000   0.83375218   -7.4509933    249.92783  0.019911395  0.019507738            7 
 1047000    0.8536838   -7.4651462    250.26852  0.019919494  0.019491856            7 
 1048000   0.83819336   -7.4494008    250.64001  0.019930027   0.01947598           10 
 1049000    0.8291828   -7.4647807    249.50745  0.019821056  0.019460102           11 
 1050000   0.83095314    -7.435748    250.16884   0.01985467  0.019444137            5 
 1051000   0.83421919   -7.4379814    250.36449  0.019851291  0.019428168            6 
 1052000   0.84678056   -7.4495849    250.26956  0.019824902  0.019412289           16 
 1053000   0.82782758   -7.4618913    249.98777  0.019783774  0.019396375           12 
 1054000   0.83742972   -7.4224732    250.75495   0.01982566  0.019380502            8 
 1055000   0.84959143   -7.4477159     250.8872  0.019817315  0.019364653            7 
 1056000   0.83811314   -7.4448516    250.91778  0.019800961  0.019348731           16 
 1057000   0.82035761   -7.4679122    249.77589  0.019692202  0.019332824            8 
 1058000   0.85041497   -7.4765503     249.4314  0.019646456  0.019316853           54 
 1059000   0.83470713   -7.4844749     250.7034  0.019727998  0.019300775           16 
 1060000   0.83437025   -7.4720766    250.42139  0.019687216  0.019284778           20 
 1061000    0.8403533   -7.4476642    251.02327  0.019715934  0.019268941            5 
 1062000   0.84077029    -7.464414    251.06555  0.019700687  0.019253192           17 
 1063000   0.82240577   -7.4750351    250.80182  0.019661478  0.019237435           15 
 1064000   0.83036249   -7.4367766    250.94009  0.019653829  0.019221655           14 
 1065000   0.83928055   -7.4658554    250.85088  0.019628394  0.019205909           26 
 1066000   0.83691989   -7.4731843    251.17623  0.019635415  0.019190066           25 
 1067000   0.83293022   -7.4365408    251.50162  0.019642426  0.019174302           15 
 1068000   0.82399534   -7.4540962    251.67944  0.019637909  0.019158644            9 
 1069000   0.82694335   -7.4860702    250.50078  0.019527657  0.019142951           10 
 1070000   0.81704236   -7.4652647     251.4792  0.019585608  0.019127233            9 
 1071000   0.83048039   -7.4761382    251.40816  0.019561793  0.019111517           23 
 1072000   0.81161045   -7.4575411     252.0278  0.019591713  0.019095838           20 
 1073000   0.81593886   -7.4297562     251.8187  0.019557215  0.019080235           11 
 1074000   0.81976938   -7.4484766    251.98008  0.019551527  0.019064676            7 
 1075000    0.8036719   -7.4562553    251.84493  0.019522862   0.01904904           12 
 1076000   0.83906824   -7.4462745    252.31401  0.019541048  0.019033474            5 
 1077000   0.84297042   -7.4299262    252.54052  0.019540431  0.019018044            7 
 1078000   0.82505397   -7.4403971    251.99783  0.019480352   0.01900261            5 
 1079000   0.81804988   -7.4730827    252.38994  0.019492581  0.018987132           11 
 1080000   0.80617271   -7.4988238    251.73453  0.019423961  0.018971615            7 
 1081000   0.83671403   -7.4920368    251.68581  0.019402237  0.018955999           14 
 1082000   0.81006924   -7.5048535    251.69281  0.019384843  0.018940337            9 
 1083000   0.82633396   -7.4459617    252.76249  0.019449253  0.018924761            3 
 1084000   0.81403403   -7.4962276    252.10546  0.019380801  0.018909295            7 
 1085000   0.80728851   -7.4876314    252.29201  0.019377267  0.018893698           13 
 1086000   0.81715312   -7.5134287     251.7424   0.01931725  0.018878078           22 
 1087000    0.8029868   -7.5103334    251.26949  0.019263223  0.018862304           14 
 1088000   0.80811691   -7.4979744    251.36216  0.019252617  0.018846538           22 
 1089000   0.83733727   -7.5187778    251.23887  0.019225503   0.01883083           13 
 1090000   0.81457087   -7.5265435    251.30022  0.019212555  0.018814999           16 
 1091000   0.80350467   -7.5207099    251.56351  0.019215055  0.018799168           20 
 1092000   0.82094636   -7.5798329    250.82904   0.01914141  0.018783386           21 
 1093000    0.8152475   -7.5379665    252.10898  0.019221484  0.018767592           20 
 1094000   0.83110613   -7.5155671    252.63809  0.019244218  0.018751875           13 
 1095000   0.80199191   -7.5743043    251.71196  0.019156161  0.018736136           15 
 1096000    0.8260137   -7.5340511    252.10565  0.019168617  0.018720391           10 
 1097000   0.81742054   -7.5502859     251.5952  0.019112367  0.018704649           11 
 1098000   0.81208879   -7.5379341    251.80514  0.019110894  0.018688869            5 
 1099000   0.81408331   -7.5321167    253.13866  0.019194621  0.018673139            6 
 1100000   0.82902063   -7.5198634     252.5815  0.019134962  0.018657607           15 
 1101000   0.80896884   -7.5301276    252.68732  0.019125592  0.018642031            6 
 1102000   0.82724841   -7.5313711    252.27981  0.019077421  0.018626382           17 
 1103000   0.82616797   -7.5298916    253.21208  0.019130559  0.018610841            8 
 1104000   0.80832324   -7.5263012      252.614  0.019068086   0.01859531           17 
 1105000   0.81114359   -7.5536982    251.96961  0.019002233  0.018579827           19 
 1106000   0.79967423   -7.5378732     252.6678  0.019037658  0.018564288            7 
 1107000   0.80250639   -7.5389316    252.78522    0.0190293  0.018548773           25 
 1108000   0.79953916   -7.5159367    252.39037  0.018982429  0.018533342            9 
 1109000   0.80332849   -7.5344329    253.14574  0.019022072  0.018517941            9 
 1110000   0.81439119   -7.5793493    252.01133   0.01891977   0.01850255           24 
 1111000   0.80640176   -7.5293546    253.56642  0.019019383  0.018487183           14 
 1112000   0.79935141   -7.5631948    252.97548  0.018957994  0.018471777           17 
 1113000   0.81313913   -7.5368359    252.91673  0.018936563  0.018456477           16 
 1114000   0.81185167   -7.5181362    253.92306  0.018994843  0.018441114           29 
 1115000   0.80186074   -7.5167645    253.52205  0.018947836  0.018425789           12 
 1116000   0.80588629    -7.531322    253.23742  0.018909604  0.018410499           30 
 1117000     0.805579   -7.5528069    253.27522  0.018895495  0.018395162           20 
 1118000   0.80951972   -7.5508842    253.08431  0.018864364   0.01837977           10 
 1119000   0.81560653   -7.5268098    253.19886  0.018856037  0.018364295           12 
 1120000   0.81085929   -7.5463288    253.64211  0.018872181  0.018349003            6 
 1121000   0.80330552    -7.526781    253.29123  0.018829262  0.018333763            9 
 1122000   0.80162279   -7.5245069    253.37645  0.018818809   0.01831848            6 
 1123000   0.80384263   -7.5302486    253.20699  0.018789477  0.018303231           16 
 1124000   0.79278829   -7.5777968    253.28952  0.018778879  0.018287908            7 
 1125000   0.78715004   -7.5726149    254.12708  0.018824228  0.018272621            6 
 1126000   0.81677665   -7.5465402    253.83269  0.018785723  0.018257331           34 
 1127000    0.7997146   -7.5442886    254.46372  0.018815714  0.018242124            9 
 1128000   0.79301563   -7.5534046     253.7716  0.018747902  0.018226973            7 
 1129000   0.80858296    -7.551677     253.9097   0.01874149   0.01821177           17 
 1130000   0.79237345   -7.5383403    253.98741  0.018730635  0.018196604            9 
 1131000   0.80728833   -7.5489109    254.10066  0.018722419  0.018181471           15 
 1132000   0.80642036   -7.5502164    253.86552  0.018688569  0.018166263           23 
 1133000    0.8190369   -7.5623577    254.31501  0.018705135   0.01815111            8 
 1134000   0.81069196   -7.5572178     254.2135   0.01868118   0.01813597           15 
 1135000   0.79219319    -7.576003    254.14875  0.018659967  0.018120881           14 
 1136000   0.79460343   -7.5520532    253.36765  0.018586242  0.018105764           12 
 1137000   0.80722688   -7.5473507    254.16836  0.018628581  0.018090636           11 
 1138000   0.79850695   -7.5465711    253.95315  0.018596452  0.018075436           10 
 1139000   0.80264224   -7.5503034    254.36776   0.01861046  0.018060266           11 
 1140000    0.7787916   -7.5473526    254.32652   0.01859112  0.018045211           12 
 1141000   0.79945354   -7.5750782    254.50435  0.018587814  0.018030183            8 
 1142000   0.79279568   -7.5232917     254.0648  0.018539463  0.018015097           27 
 1143000   0.81037194   -7.5673226    253.49608  0.018481779  0.017999977           14 
 1144000   0.78907467   -7.5805531    253.73386  0.018482945  0.017984803           14 
 1145000   0.78309741   -7.5973642    253.31301  0.018436173    0.0179695            9 
 1146000   0.81400511   -7.5522412     254.4565  0.018503236  0.017954338            9 
 1147000   0.79834517   -7.5643695    253.43023  0.018412542  0.017939209            4 
 1148000   0.79763982   -7.5783923    253.64904  0.018412387  0.017923986           14 
 1149000   0.79023412     -7.54886    254.58147  0.018463989  0.017908879            7 
 1150000   0.80127876   -7.5535136    254.69782  0.018456364   0.01789377           11 
 1151000    0.7842872   -7.5839104    253.83411  0.018377796  0.017878653           12 
 1152000   0.79476209   -7.5904134    253.91073  0.018367385  0.017863531            7 
 1153000    0.7772144   -7.5651726    254.07193  0.018363106   0.01784838            8 
 1154000   0.77810605   -7.5899178    253.72822  0.018322373  0.017833221           18 
 1155000   0.79137177   -7.6038453    254.27947  0.018346282  0.017817981           16 
 1156000   0.80003318   -7.5759711    254.20427  0.018324991  0.017802732           16 
 1157000   0.78685853   -7.5834302    254.47323  0.018328524  0.017787523           27 
 1158000   0.78676896   -7.5919759    254.35119  0.018303914  0.017772377           16 
 1159000   0.78533104   -7.5714198    254.17641  0.018275554   0.01775721           25 
 1160000   0.79496935   -7.5922613    254.03657  0.018249754  0.017742039           23 
 1161000   0.80618681   -7.5900313    254.48546  0.018266255  0.017726913           27 
 1162000   0.79938077   -7.6134526    254.38534  0.018243355  0.017711743           27 
 1163000   0.78008969   -7.6040999    254.11728  0.018208461  0.017696501           25 
 1164000   0.77482257   -7.6191495    253.24921  0.018130671   0.01768132           61 
 1165000   0.78383482   -7.5851399    254.30243  0.018190446  0.017666127           18 
 1166000   0.78428718   -7.6204492    254.68577  0.018202242   0.01765101           43 
 1167000    0.7807343   -7.5684171    254.68593  0.018186656  0.017635854           17 
 1168000   0.77499155   -7.6013571    254.40536  0.018151068  0.017620749           21 
 1169000   0.78842836    -7.605816    254.51387  0.018143275  0.017605625           18 
 1170000   0.76700667   -7.6137481    254.90432  0.018155578  0.017590574           33 
 1171000   0.78813136   -7.5821584    255.29984  0.018168221  0.017575486           44 
 1172000   0.78988035    -7.596275    254.53038  0.018098008  0.017560481           19 
 1173000   0.78554628   -7.5920751    255.20422   0.01813045   0.01754544           12 
 1174000   0.78631231   -7.6070053    254.88785   0.01809255  0.017530432           20 
 1175000   0.78197132   -7.6391807    254.73671  0.018066433  0.017515523           28 
 1176000   0.78940081   -7.5710184    255.17415  0.018082068  0.017500566           25 
 1177000   0.78780436   -7.5900131    254.95697  0.018051329  0.017485678           20 
 1178000   0.77036315   -7.5885373    254.90229  0.018032137  0.017470711            7 
 1179000   0.77589463     -7.59987    255.37286  0.018050103  0.017455766           12 
 1180000   0.77891048   -7.6029841    254.92951  0.018003496  0.017440866           19 
 1181000   0.77978013   -7.5875769    254.63085  0.017967178   0.01742599           10 
 1182000   0.77817849   -7.6169073    254.57874  0.017948304  0.017411131            9 
 1183000   0.79260621   -7.6331106    254.92892    0.0179578  0.017396284           21 
 1184000   0.77389497   -7.6248148    255.41039  0.017976519  0.017381365           15 
 1185000   0.77956837    -7.649428    255.07241  0.017937582  0.017366386           29 
 1186000   0.78738903   -7.6384901    254.80404    0.0179036  0.017351375           12 
 1187000   0.79193934   -7.6552276    254.76267  0.017885613  0.017336457           22 
 1188000   0.79453258   -7.6312413    255.07968  0.017892795  0.017321506           17 
 1189000   0.76708924    -7.617453    255.00769    0.0178727  0.017306556           15 
 1190000   0.77759574   -7.5903278    255.36936  0.017883009  0.017291738           14 
 1191000   0.77827514   -7.6290995     254.6557  0.017818059  0.017276932           12 
 1192000   0.78101818   -7.6389387    255.10514  0.017834531  0.017262083            8 
 1193000    0.7749154   -7.6528525     255.2852   0.01783216    0.0172472           20 
 1194000   0.77580372   -7.6102677    255.16205   0.01780863  0.017232317           10 
 1195000   0.77478029   -7.6493102    254.84084  0.017771328  0.017217435            8 
 1196000   0.77286364   -7.6272698    255.30806  0.017789023  0.017202587           13 
 1197000   0.76591691   -7.6508041    255.02348   0.01775435  0.017187739           18 
 1198000   0.76437493   -7.6432514    254.95586  0.017734826  0.017172946           23 
 1199000   0.76385731   -7.6630192    254.60344  0.017695541  0.017158099           18 
 1200000   0.78081878   -7.6486759    254.80864  0.017695045  0.017143294           38 
 1201000   0.77291445   -7.6574093    254.73546  0.017675233  0.017128469           13 
 1202000   0.76791674   -7.6420804    255.53292  0.017715815   0.01711367           31 
 1203000   0.78479761   -7.6375628    254.46711  0.017627259  0.017098893           17 
 1204000   0.78450415    -7.658686    255.37761  0.017675637   0.01708409           32 
 1205000   0.77297724   -7.6907458    255.22818  0.017650635  0.017069243           26 
 1206000   0.78240813   -7.6679971    254.94479  0.017616417  0.017054414           12 
 1207000   0.78316837   -7.6698675    255.11847  0.017613813  0.017039614           15 
 1208000   0.78063032   -7.6684191    255.45126   0.01762219  0.017024826            8 
 1209000   0.76918483   -7.6754435    255.48648  0.017610041  0.017010009           24 
 1210000   0.76551779   -7.6773106    254.81174  0.017549018  0.016995166           25 
 1211000   0.77721306   -7.6688919    255.52289  0.017583464  0.016980371           14 
 1212000   0.77677284   -7.6813881     255.1536  0.017543564   0.01696551           10 
 1213000   0.77150129   -7.6893646    255.12077  0.017526846  0.016950725           21 
 1214000   0.76233683    -7.684444    254.69108  0.017482913  0.016935916           14 
 1215000   0.77791173     -7.70062    254.77428   0.01747423  0.016921094           15 
 1216000   0.75835536   -7.6758126    255.51944  0.017510926  0.016906265           23 
 1217000   0.77910604   -7.6865609    255.24361   0.01747765  0.016891492           25 
 1218000   0.76328044    -7.680017    255.07761  0.017451944  0.016876722           14 
 1219000   0.77623434   -7.6849156    254.93742  0.017428043  0.016861942           13 
 1220000   0.76840193   -7.6612796     254.9107  0.017411933  0.016847128           16 
 1221000   0.76079216   -7.7119944     254.5081  0.017370195  0.016832306           40 
 1222000   0.74696901   -7.7443857    254.36014  0.017345891  0.016817483           20 
 1223000   0.75754016   -7.6645912    255.52311  0.017410951  0.016802618           26 
 1224000   0.76477814    -7.708225    254.60564  0.017334262  0.016787821           15 
 1225000   0.76921229   -7.7027791    255.28085  0.017366044  0.016773034           35 
 1226000   0.76397721   -7.6515942    255.69128  0.017379777  0.016758372           39 
 1227000   0.75352593   -7.6756177    255.14191  0.017328301   0.01674366           22 
 1228000   0.78665353   -7.6797673     255.9559  0.017369428  0.016728994           20 
 1229000   0.76427267   -7.6873389    255.26978  0.017308772  0.016714349           35 
 1230000   0.78526337   -7.6698289    255.27339  0.017294945   0.01669973           39 
 1231000   0.75504377   -7.6628201    255.63484  0.017305364  0.016685052           30 
 1232000   0.77036456   -7.7123125    254.91623   0.01724271  0.016670385           25 
 1233000    0.7571138   -7.7033082    255.43359  0.017263692  0.016655654           49 
 1234000   0.74898266   -7.7001643    254.54056  0.017189395  0.016640937           26 
 1235000   0.77992184   -7.7030009    254.80805  0.017193526   0.01662616           43 
 1236000   0.74972586   -7.6850319    254.32445   0.01714701  0.016611392           49 
 1237000   0.77196557   -7.7299051    254.93521  0.017174293  0.016596678           39 
 1238000   0.75230165   -7.7452017    254.66988  0.017142561  0.016581965           55 
 1239000   0.74763312   -7.7167049    255.20824  0.017164934  0.016567227           70 
 1240000   0.76832712   -7.6780228    255.30199  0.017157392  0.016552546           50 
 1241000   0.75818545   -7.7472865    254.57983  0.017095073  0.016537791           27 
 1242000   0.75501479   -7.7015247    255.17717  0.017121388  0.016523078           38 
 1243000   0.74398919   -7.7170034    255.18879  0.017108393  0.016508424           36 
 1244000   0.75892624    -7.713732    254.74541  0.017064939  0.016493778           58 
 1245000     0.751522   -7.7208501    255.06241   0.01707245  0.016479171           64 
 1246000   0.75337923   -7.6974951    255.72539   0.01710309  0.016464591           18 
 1247000   0.76868655   -7.6767218    255.47935  0.017072931  0.016450014           37 
 1248000   0.78379664   -7.7176534    255.11709  0.017035062  0.016435461           41 
 1249000   0.74335511   -7.7148414    255.41593  0.017041362  0.016420799           50 
 1250000    0.7568241   -7.7193471    254.28739  0.016952493   0.01640614           44 
 1251000   0.75141678   -7.7429012    255.30214  0.017006537   0.01639148           22 
 1252000   0.74786907    -7.711123    254.98272  0.016971693   0.01637691           57 
 1253000   0.77611942   -7.7138084    255.08582  0.016965005  0.016362299           42 
 1254000   0.75703345    -7.721718    255.05498  0.016949427  0.016347739           14 
 1255000    0.7570636   -7.7271637    255.64148  0.016974866  0.016333167           33 
 1256000   0.76005044   -7.7385277    255.15034  0.016928765  0.016318517           40 
 1257000   0.75327594   -7.7390799    254.50538  0.016872539  0.016303881           14 
 1258000   0.74042317   -7.7058076    254.91819  0.016886472  0.016289214           52 
 1259000   0.76501071   -7.7427128    254.65253  0.016855476  0.016274588           72 
 1260000   0.75511168   -7.7278162    254.89394  0.016858065  0.016259973           49 
 1261000   0.73703866   -7.7115893    255.38259  0.016876989  0.016245363           30 
 1262000   0.73164401   -7.7230047    254.80381  0.016825397  0.016230793           50 
 1263000   0.74314731   -7.7498874    255.17104  0.016836305  0.016216174           81 
 1264000   0.76927368   -7.7202806    255.68099  0.016856605  0.016201608           26 
 1265000   0.75038393   -7.7073993    255.31197  0.016818971  0.016187034           53 
 1266000   0.76083139   -7.7339068    254.19807  0.016732364  0.016172478           37 
 1267000   0.75041912   -7.7220547    255.13217  0.016780595  0.016157975           26 
 1268000   0.75640483   -7.7099427    254.61856  0.016733607  0.016143527           74 
 1269000   0.72755512   -7.7327997    255.08433  0.016751007  0.016129041           28 
 1270000   0.74396222   -7.6989891    255.49494   0.01676476  0.016114515           63 
 1271000   0.73281614   -7.7482884    255.00128  0.016719203  0.016100059           36 
 1272000    0.7368862   -7.7260743    254.99972  0.016705957  0.016085623           47 
 1273000   0.75507992   -7.7318319    255.06945  0.016697398  0.016071237           35 
 1274000   0.75038968   -7.7159106    255.36397  0.016703556  0.016056797           29 
 1275000   0.74257467   -7.7402526    254.64468  0.016643443  0.016042327           27 
 1276000   0.75644808   -7.7315442    255.26352  0.016670815  0.016027865           44 
 1277000   0.72741294   -7.7592001    254.47909  0.016606571  0.016013395           59 
 1278000   0.76159482   -7.7386319    254.83014  0.016616467  0.015998942           35 
 1279000   0.73471021   -7.7348995    254.65549  0.016592096  0.015984467           34 
 1280000    0.7452513   -7.7599595      254.675  0.016580403  0.015969967           36 
 1281000   0.73794763   -7.7683869    254.67751  0.016567624  0.015955518           66 
 1282000   0.75196399   -7.7514418    254.73598  0.016558501  0.015941066           32 
 1283000   0.74960449   -7.7429122    255.31621  0.016583282  0.015926613           48 
 1284000   0.72657223   -7.7741644    254.33034  0.016506382  0.015912167           69 
 1285000   0.73973369   -7.7793765     254.9232  0.016531984  0.015897727           54 
 1286000   0.72767336   -7.7634296    254.55433  0.016495226  0.015883286           65 
 1287000   0.74234001   -7.7661284    255.18712  0.016523382  0.015868831           66 
 1288000   0.73427532   -7.7640213    254.48385  0.016465053   0.01585439           38 
 1289000   0.72687905   -7.7842131     254.8281  0.016474535  0.015839942           49 
 1290000   0.74329291   -7.7962099    254.27537  0.016426057  0.015825449           37 
 1291000    0.7363222   -7.8079556    254.22696  0.016410209  0.015811001           58 
 1292000   0.74948955   -7.7625275    254.30897  0.016402798  0.015796522           45 
 1293000   0.72843762    -7.801772     254.1534  0.016380085   0.01578205           93 
 1294000   0.72999621   -7.7893956    254.12413  0.016365542  0.015767579          108 
 1295000   0.73336728   -7.7751215    254.87409  0.016401164  0.015753176           59 
 1296000   0.73977558   -7.7877479    254.59209  0.016370376  0.015738779           55 
 1297000    0.7269585   -7.8121192    254.87344  0.016375832  0.015724397           96 
 1298000   0.73270611   -7.8049897     254.3356  0.016328685  0.015710045          137 
 1299000   0.73684852   -7.7825402    254.51688  0.016327744  0.015695656           91 
 1300000   0.73001071   -7.7881262    254.23951  0.016297404  0.015681344           78 
 1301000   0.72316838   -7.7797503    254.91283  0.016328006  0.015666998          100 
 1302000   0.74498754   -7.8108406    253.81931  0.016245475  0.015652623          103 
 1303000    0.7348141   -7.8146051    254.35901  0.016267524  0.015638221           96 
 1304000   0.74985551   -7.7648747    254.89604  0.016289369  0.015623899           89 
 1305000   0.73154465   -7.7936569    254.65911  0.016261756  0.015609593          107 
 1306000   0.73272329   -7.7793862    254.68799  0.016251148  0.015595294          100 
 1307000   0.71869242   -7.7885013    254.65213  0.016236427   0.01558098          110 
 1308000   0.72986178   -7.7817974    254.72311  0.016228537  0.015566674          104 
 1309000   0.72590127   -7.7984935     254.4106  0.016196244  0.015552346           96 
 1310000   0.73723057   -7.8182382    254.47314  0.016187858  0.015538014           88 
 1311000   0.73349908   -7.7925779    254.25876  0.016161884   0.01552367          118 
 1312000   0.72504801   -7.7964924    254.42539  0.016160149  0.015509346           73 
 1313000   0.72659497    -7.805644      254.416  0.016147245  0.015494997           80 
 1314000   0.74035921   -7.8094603    254.26802  0.016125572  0.015480647           78 
 1315000   0.71459407   -7.8393767    254.26764  0.016113285  0.015466307          101 
 1316000    0.7227211   -7.8118937    254.44524  0.016112287  0.015452005           98 
 1317000   0.74064519   -7.8206641    253.59267  0.016046106  0.015437714           96 
 1318000    0.7320014   -7.8270998    254.34866  0.016081731  0.015423442           85 
 1319000    0.7425771    -7.791836    254.56058  0.016082927  0.015409147           69 
 1320000   0.72761395   -7.8382507    253.78247   0.01602162  0.015394856           80 
 1321000   0.72437465   -7.8179437    253.91467  0.016017832  0.015380531           84 
 1322000   0.72853922   -7.8249115    253.95528  0.016008275   0.01536626           90 
 1323000   0.72639746   -7.8285492    253.74311  0.015982811  0.015351983           82 
 1324000   0.72220298   -7.8388238    253.87142  0.015978816  0.015337668          213 
 1325000   0.72927383   -7.8365468    253.40666  0.015937526  0.015323362           64 
 1326000   0.74314135    -7.837912    253.78029  0.015948988  0.015309098           97 
 1327000   0.71018668   -7.8302314    253.68526  0.015931001  0.015294838           78 
 1328000   0.71686491   -7.8824436    253.28016  0.015893584  0.015280575           62 
 1329000   0.72441488   -7.8523978    253.74014  0.015910468    0.0152663           90 
 1330000   0.70298023   -7.8474706    253.56252  0.015887376  0.015251972           92 
 1331000    0.7268994   -7.8373271    254.01146  0.015903548  0.015237679           84 
 1332000    0.7207855   -7.8468118     254.0101  0.015891523  0.015223451           97 
 1333000   0.71958266   -7.8428425      254.122  0.015886597  0.015209257           82 
 1334000   0.71550548   -7.8426304    253.52327  0.015837286  0.015195061           98 
 1335000   0.73508365   -7.8195604     253.5193  0.015825175  0.015180804          191 
 1336000   0.72172588   -7.8720199    253.41204  0.015806639  0.015166594          136 
 1337000   0.72049901   -7.8280729    253.95816  0.015828856  0.015152427           83 
 1338000   0.71858969   -7.8281661    254.02483  0.015821178  0.015138282          108 
 1339000   0.71189456   -7.8484114    253.70666   0.01578956  0.015124134          103 
 1340000   0.71893383    -7.822398    253.45645  0.015762217  0.015109994           89 
 1341000   0.71397471   -7.8700201    253.47838  0.015751826  0.015095894           77 
 1342000   0.70921361    -7.847181    254.14965  0.015781772  0.015081781           77 
 1343000   0.72472387   -7.8643794    253.19438  0.015710746  0.015067652          134 
 1344000   0.72004054   -7.8397352    254.35498  0.015771018  0.015053554          130 
 1345000   0.71812174    -7.856192    253.17031  0.015685893  0.015039498          161 
 1346000   0.70767708   -7.8186554    254.31298  0.015744984  0.015025451          109 
 1347000   0.71731836   -7.8554184    253.81862  0.015702711  0.015011376          179 
 1348000   0.72869492   -7.8568941    253.93419  0.015698207  0.014997294          259 
 1349000   0.70894916   -7.8552852    253.50648  0.015660148  0.014983258          100 
 1350000   0.72066408   -7.8694621    253.53163  0.015650101  0.014969245           92 
 1351000   0.71642018   -7.8813238    253.70984  0.015649509  0.014955227           79 
 1352000   0.70857964   -7.8460477    253.78347  0.015642472  0.014941236           98 
 1353000   0.70748175   -7.8803032    253.51693  0.015614494  0.014927236          138 
 1354000   0.71592015   -7.8485057    253.28656  0.015588784  0.014913272          108 
 1355000   0.71091916   -7.8769109    253.83073  0.015610746  0.014899348          130 
 1356000   0.72775402    -7.890057    253.68749  0.015590431  0.014885449           82 
 1357000   0.70776079   -7.8840423    253.76093  0.015583452  0.014871529           97 
 1358000   0.70732958   -7.9000147    253.40758  0.015550293  0.014857605          144 
 1359000   0.69757188   -7.8929647     253.6991  0.015556727  0.014843702          134 
 1360000   0.72143439   -7.8561901    253.98554  0.015562839  0.014829842          107 
 1361000   0.71629859   -7.8797665    253.67219  0.015532218  0.014815991           68 
 1362000    0.7003237   -7.8875773    254.00474  0.015541161  0.014802142          103 
 1363000   0.71154168   -7.8665234    253.88589  0.015522493  0.014788282           96 
 1364000    0.7140122   -7.8727821    253.66637  0.015497701  0.014774453          105 
 1365000   0.68488567   -7.8746627    254.12757  0.015514504  0.014760644          130 
 1366000   0.70019077   -7.8923676    253.51089  0.015465525  0.014746814           92 
 1367000    0.7157761   -7.8658571    253.64809  0.015462575  0.014732996          130 
 1368000     0.700432   -7.8797581    253.54312  0.015444878  0.014719193          141 
 1369000   0.70604825   -7.8677895    253.26259   0.01541652  0.014705412          106 
 1370000   0.69755859   -7.9164487     253.5274  0.015421374  0.014691657          119 
 1371000   0.71139814   -7.8717502     254.1511  0.015448037  0.014677892          153 
 1372000   0.70834754   -7.8835801    253.18167  0.015377895   0.01466416          182 
 1373000   0.70160328   -7.8978786    253.76927  0.015402359  0.014650408          105 
 1374000   0.70090847    -7.889629    254.18422  0.015416316  0.014636653          109 
 1375000   0.70102478   -7.9050812    253.12512  0.015340917  0.014622932          140 
 1376000   0.69657844   -7.8684773     253.2733  0.015338742  0.014609227          140 
 1377000   0.70448815   -7.8965316    253.74915  0.015356399  0.014595538          247 
 1378000   0.70646805   -7.8812683    253.52514  0.015331709   0.01458185          149 
 1379000   0.70970108   -7.8997212    253.41954   0.01531421  0.014568157          140 
 1380000   0.70369686   -7.9001533      253.457  0.015305374  0.014554486          153 
 1381000   0.70048747   -7.8845713    253.77817  0.015313672  0.014540773          141 
 1382000   0.69257501   -7.8960443    253.34527  0.015276488  0.014527085          178 
 1383000   0.69151594    -7.898637    253.81505  0.015293748  0.014513432          110 
 1384000   0.69854739   -7.9018092    253.61715  0.015270782  0.014499829           94 
 1385000   0.69571125   -7.8866204    254.06029  0.015286419  0.014486216          147 
 1386000   0.68813195   -7.9200876    253.59461  0.015247391  0.014472621           97 
 1387000   0.70237601   -7.9022947    253.79215  0.015248267  0.014458997          171 
 1388000   0.70907809   -7.8996711    253.57668  0.015224344  0.014445426          104 
 1389000   0.71645736   -7.8979912     253.6007  0.015214825  0.014431823          152 
 1390000   0.71157257   -7.9332854    253.34041  0.015188274  0.014418251          139 
 1391000   0.70408859   -7.9185335    253.79636   0.01520467  0.014404675          117 
 1392000   0.70187385   -7.9308024    253.28351  0.015163045  0.014391142          162 
 1393000   0.70863842   -7.8952067    253.29784  0.015153017  0.014377623          120 
 1394000   0.68361357   -7.9085182    253.47064  0.015152477  0.014364119          116 
 1395000   0.70204762   -7.9184626    253.43176  0.015139292  0.014350618          126 
 1396000   0.69257596    -7.908572    253.53074  0.015134357   0.01433715          118 
 1397000   0.68631347   -7.9101923    253.25302  0.015106957  0.014323706          136 
 1398000   0.70289301   -7.9223288    253.66731  0.015120846  0.014310242          296 
 1399000   0.69370469   -7.9003706    253.60857  0.015106539  0.014296738          122 
 1400000   0.69178689   -7.9249319    253.23685  0.015073622  0.014283276          107 
 1401000    0.6929997   -7.9260021    253.62421  0.015085904  0.014269857          158 
 1402000   0.69431726    -7.937578    253.43407  0.015063841  0.014256461          170 
 1403000   0.69495937   -7.8998386    253.73377  0.015070906  0.014243038          177 
 1404000   0.70906014   -7.9191096    253.43122  0.015042214  0.014229671          213 
 1405000   0.70113603   -7.9398921    252.77155  0.014992382  0.014216281          109 
 1406000   0.68752633   -7.9492536    253.03998  0.014997628    0.0142029          116 
 1407000   0.67948711     -7.92724    253.66129  0.015023768  0.014189552          171 
 1408000   0.68757052   -7.9305916     253.1599  0.014983422  0.014176204          180 
 1409000   0.68633659   -7.9210732    253.68415  0.015003794  0.014162857          129 
 1410000   0.67376893   -7.9178894      253.266   0.01496844  0.014149546          162 
 1411000   0.69291744     -7.92148    253.62767  0.014979191  0.014136265          119 
 1412000   0.66933133   -7.9435525    253.03048  0.014933338  0.014122976          182 
 1413000   0.69156072   -7.9176764    253.24346   0.01493533  0.014109672          163 
 1414000   0.68655193   -7.9045844    253.56139  0.014943505  0.014096384          144 
 1415000   0.68465701   -7.9428842    253.37786  0.014922135  0.014083097          159 
 1416000   0.69296596   -7.9289197    253.62616   0.01492621  0.014069805          249 
 1417000   0.70215461   -7.9385459    253.37526  0.014900921  0.014056508          166 
 1418000   0.68801871   -7.9465153    253.39697  0.014891688  0.014043232          147 
 1419000   0.68593114   -7.9382426    253.02078  0.014859101  0.014029981          101 
 1420000   0.70167695   -7.9704401    253.05612  0.014850711  0.014016715          226 
 1421000   0.67828601    -7.962524     252.8747  0.014829621  0.014003465          181 
 1422000   0.67808943   -7.9424265    252.97588  0.014825122  0.013990248          164 
 1423000   0.66999765   -7.9501201    253.00648  0.014816496  0.013977026          244 
 1424000   0.69988965   -7.9758239    252.70269  0.014788313  0.013963816          167 
 1425000   0.69255565   -7.9609435    253.55619  0.014827847  0.013950625          340 
 1426000   0.69359385   -7.9548021    252.79264  0.014772828  0.013937473          422 
 1427000   0.68499676      -7.9589    253.01698  0.014775577  0.013924343          243 
 1428000   0.67029028   -7.9494182    253.40135  0.014787661  0.013911223          341 
 1429000   0.68419362   -7.9513625    252.88701  0.014747318    0.0138981          176 
 1430000   0.68720815   -7.9643164    252.65531  0.014723503  0.013884985          231 
 1431000   0.69649662   -7.9424266    253.15498  0.014742312  0.013871889          178 
 1432000   0.68860766   -7.9666595    252.94054  0.014719538  0.013858849          216 
 1433000   0.68758436    -7.958575     253.0765  0.014717172  0.013845781          133 
 1434000   0.68346821   -7.9666697    252.66254  0.014682854  0.013832712          154 
 1435000   0.67832106   -7.9692049    252.74047  0.014677147  0.013819655          145 
 1436000   0.66248078   -7.9588983     252.4641  0.014650888  0.013806577          171 
 1437000   0.68509709   -7.9578405    252.72488  0.014655815  0.013793534          162 
 1438000   0.68172168   -7.9675064    252.88428  0.014654861  0.013780483          153 
 1439000    0.6918693   -7.9691965    252.77575  0.014638392  0.013767462          169 
 1440000   0.67648252   -7.9564639    252.86127  0.014633175  0.013754512          296 
 1441000    0.6902281   -7.9722602    253.22314  0.014643947  0.013741544          144 
 1442000   0.67018903   -7.9414607    253.71073   0.01466197  0.013728572          128 
 1443000   0.67284088   -7.9740137    252.88325  0.014604022  0.013715636          242 
 1444000   0.69285957   -7.9886153    252.89359  0.014594505  0.013702689          155 
 1445000   0.67865523   -7.9279213    252.70311  0.014573421  0.013689757          160 
 1446000   0.67604254   -7.9600603     253.4541  0.014606622  0.013676848          180 
 1447000    0.6747733   -7.9745168    253.21284  0.014582633  0.013663963          223 
 1448000   0.67288865   -7.9541784    252.71698  0.014544025  0.013651079          227 
 1449000   0.66021506   -7.9774656     252.5968  0.014527076  0.013638179          402 
 1450000   0.67856887   -8.0006993    252.84498  0.014531321  0.013625285          339 
 1451000   0.67266408   -7.9555026    253.17014   0.01453998  0.013612408          296 
 1452000   0.67455229   -7.9682599    253.43855  0.014545371  0.013599561          167 
 1453000    0.6680681   -7.9636686    252.62246  0.014488556  0.013586737          215 
 1454000   0.68020204    -7.974356     252.8896  0.014493902  0.013573922          242 
 1455000   0.67259817   -7.9585664    252.98077  0.014489162    0.0135611          476 
 1456000   0.66909668   -7.9885522    252.52249  0.014452981  0.013548286          394 
 1457000    0.6673399   -7.9820732    253.26293  0.014485411  0.013535481          391 
 1458000    0.6693003   -7.9776128    252.53644  0.014433953  0.013522696          135 
 1459000   0.67352118   -7.9705459    252.60353  0.014427892  0.013509913          320 
 1460000   0.68230452   -7.9826688    253.11409  0.014447151  0.013497128          171 
 1461000   0.66379874   -7.9695125    252.68554  0.014412819  0.013484363          198 
 1462000   0.66713848   -7.9917406     253.0486  0.014423655  0.013471619          348 
 1463000   0.66009118   -8.0206319    252.40059  0.014376885  0.013458874          405 
 1464000   0.65143488   -7.9856394    252.90983  0.014396051  0.013446122          378 
 1465000   0.67235101   -7.9936826    252.50396  0.014363138   0.01343337          424 
 1466000   0.65997076   -7.9858994    252.52063  0.014354288  0.013420632          184 
 1467000   0.66997178   -7.9714604    252.62013  0.014350155  0.013407915          324 
 1468000   0.67294803   -8.0003648    252.89883  0.014356201  0.013395213          242 
 1469000   0.67252057   -7.9784123    252.60871   0.01432997  0.013382532          381 
 1470000   0.65193254   -8.0263501    252.74844  0.014328143  0.013369862          309 
 1471000   0.66923101   -8.0111535    252.66666   0.01431377  0.013357224          156 
 1472000   0.65706311   -8.0058405    252.39163  0.014288475   0.01334455          238 
 1473000   0.65865451    -7.996594     252.8681  0.014305731  0.013331897          448 
 1474000   0.67812759   -7.9998361    252.67868  0.014285317  0.013319257          489 
 1475000   0.66660297   -8.0120945    252.42789  0.014261463  0.013306632          551 
 1476000    0.6629771   -7.9950296    252.12523  0.014234712  0.013294008          406 
 1477000   0.67045451   -8.0258131    252.23123  0.014231056  0.013281384          541 
 1478000   0.65974594   -8.0031028    252.45643  0.014234124  0.013268761          278 
 1479000    0.6610836   -7.9855462    252.59551  0.014232337  0.013256156          216 
 1480000   0.66307474   -8.0231159    252.19904  0.014200396  0.013243598          448 
 1481000   0.65446125   -8.0168897    252.50515  0.014208032  0.013231029          516 
 1482000    0.6612804   -8.0138124    252.78251  0.014214041   0.01321848          351 
 1483000   0.66997119   -8.0220162    252.54765  0.014191259  0.013205967          590 
 1484000   0.66036487   -7.9971507    252.54062  0.014181302  0.013193438          290 
 1485000   0.66070172   -8.0055967    252.63059  0.014176801  0.013180926          411 
 1486000   0.64818762   -8.0107082     252.3451  0.014151251   0.01316843          432 
 1487000   0.65639162   -8.0218556    252.68612  0.014160845  0.013155959          554 
 1488000   0.65737467   -8.0118652    252.56193  0.014144374  0.013143483          352 
 1489000   0.66602666   -8.0012682    253.02901  0.014161015  0.013131043          261 
 1490000    0.6470731   -7.9991885    252.93784  0.014146412  0.013118643          509 
 1491000   0.65162773   -8.0392236    252.25252   0.01409862  0.013106251          356 
 1492000   0.65361358   -8.0279404    251.63647  0.014054763  0.013093832          408 
 1493000   0.65512274   -8.0185542    252.53111  0.014095284  0.013081438          356 
 1494000   0.65696622   -8.0186185    252.64287  0.014092083  0.013069081          295 
 1495000    0.6398645   -8.0097596    252.47547  0.014073326  0.013056734          486 
 1496000   0.65877806    -8.013498    252.80147  0.014082078  0.013044368          405 
 1497000   0.65276073   -8.0053159    252.37642   0.01404901  0.013032016          176 
 1498000   0.66248692   -8.0343807    251.76999  0.014005896   0.01301968          436 
 1499000   0.65425949   -8.0512101    251.80532  0.013998517  0.013007353          364 
 1500000   0.64608118   -8.0344183    251.81561  0.013989756  0.012995058          269 
 1501000   0.65432603   -8.0341643    252.24598  0.014004329  0.012982781          648 
 1502000   0.64297254   -8.0290365    251.87777  0.013974577  0.012970518          351 
 1503000   0.66210242   -8.0648595    252.41416  0.013995019  0.012958246          254 
 1504000   0.64809632   -8.0352694    251.89026  0.013956686  0.012945981          560 
 1505000   0.65330952   -8.0274174    252.04559  0.013956013  0.012933765          254 
 1506000   0.63460588   -8.0099931    253.16383  0.014008623  0.012921558          271 
 1507000   0.65041769   -8.0211278    252.12924  0.013942117  0.012909383          341 
 1508000   0.66148799   -8.0457825    252.16009  0.013934576    0.0128972          345 
 1509000    0.6531627   -8.0499696    252.17068  0.013925927  0.012885034          602 
 1510000   0.65440796   -8.0480818    252.73198  0.013947681  0.012872852          637 
 1511000   0.65977536   -8.0434724    252.37076  0.013918528  0.012860674          521 
 1512000   0.63763749    -8.035988    252.34486  0.013907896  0.012848534          269 
 1513000   0.65355041   -8.0438297    252.21627  0.013891621  0.012836407          201 
 1514000   0.64089731   -8.0429736    252.18087  0.013880497  0.012824274          262 
 1515000   0.64200328   -8.0386744    252.23639  0.013874389  0.012812191          547 
 1516000    0.6461825   -8.0546751    252.04672  0.013854811  0.012800085          593 
 1517000   0.64871663    -8.043651    252.34868  0.013862266   0.01278796          651 
 1518000   0.65635962   -8.0445456    252.51602   0.01386232  0.012775884          578 
 1519000   0.62893234   -8.0523712    252.25693   0.01383898  0.012763817          246 
 1520000   0.63756848   -8.0336756    252.21762  0.013827721  0.012751756          286 
 1521000   0.64331621   -8.0315006     252.4539  0.013831574  0.012739712          547 
 1522000   0.65439984   -8.0401041    252.50993  0.013825554  0.012727685          297 
 1523000   0.63454786   -8.0698465    251.84444  0.013780063  0.012715663          453 
 1524000   0.64114479   -8.0534938     252.0089  0.013780014  0.012703653          363 
 1525000   0.64308158    -8.051359    252.62239  0.013804502   0.01269164          347 
 1526000   0.63615699   -8.0567818    252.11746  0.013767882  0.012679638          221 
 1527000   0.65705565    -8.038778    251.87883  0.013745843  0.012667661          256 
 1528000   0.64217844   -8.0745043    252.09749  0.013748773  0.012655691          523 
 1529000   0.64527635   -8.0568854    252.00163  0.013734556  0.012643716          381 
 1530000   0.63955781    -8.069158    251.69507  0.013708882  0.012631747          391 
 1531000   0.65120627   -8.0867471    251.46883  0.013687613  0.012619784          209 
 1532000   0.64160139    -8.071966    252.33006  0.013725525  0.012607832          465 
 1533000   0.64041741   -8.0725413    251.67928  0.013681196  0.012595888          310 
 1534000   0.63538393   -8.0687878    251.99251  0.013689293  0.012583979          303 
 1535000   0.63719434   -8.0731745    251.73694  0.013666501  0.012572054          326 
 1536000   0.64368744   -8.0580593     251.4531  0.013642204  0.012560151          493 
 1537000    0.6403296   -8.0506916    252.03682  0.013664976  0.012548251          494 
 1538000   0.62771223   -8.0560359     252.5064  0.013681535  0.012536375          190 
 1539000   0.64630308   -8.0682169    251.84194  0.013636665  0.012524509          555 
 1540000   0.63729366   -8.0726467    251.53295   0.01361109  0.012512647          209 
 1541000   0.63697217   -8.0855725    251.07338  0.013577405  0.012500779          317 
 1542000   0.63673815   -8.0828997    251.94977  0.013615963  0.012488946          251 
 1543000   0.64046871   -8.0639073    251.65188   0.01359105  0.012477127          530 
 1544000   0.62706092   -8.0618707    252.09189  0.013605996  0.012465332          382 
 1545000   0.64143313   -8.0558057    251.82798  0.013582955  0.012453541          468 
 1546000   0.63767839   -8.0798791     252.1077  0.013589247  0.012441757          648 
 1547000   0.63588788   -8.0961248     251.2732   0.01353551  0.012429976          598 
 1548000   0.63641525   -8.0779028    251.59443  0.013544058  0.012418212          398 
 1549000   0.64024889   -8.0856655    251.37935  0.013523744  0.012406453          426 
 1550000   0.64571753    -8.080839    252.02473  0.013549717   0.01239473          215 
 1551000   0.64081326   -8.0936844    251.76179  0.013526853  0.012383015          517 
 1552000   0.64194731   -8.0740075    251.52359  0.013505347  0.012371298          655 
 1553000   0.65112481   -8.1023705     251.4343   0.01349186  0.012359611          576 
 1554000    0.6333496   -8.0916476    251.67826   0.01349626  0.012347956          336 
 1555000   0.61893478   -8.0798471    251.58407  0.013482533  0.012336301          411 
 1556000   0.62991198   -8.0810419    251.98056  0.013495103  0.012324654          518 
 1557000   0.62049814   -8.0716243    251.31813  0.013450981  0.012313019          588 
 1558000   0.62847111   -8.1092939    251.57627  0.013456155  0.012301394          597 
 1559000   0.62600788   -8.0948965    251.95048  0.013467526  0.012289785          462 
 1560000   0.63411351   -8.0760752    252.02745  0.013463005  0.012278159          560 
 1561000   0.63097313    -8.090248    251.39418  0.013420574   0.01226654          657 
 1562000    0.6234024   -8.0964574    251.29657  0.013406774  0.012254959          542 
 1563000   0.63053409   -8.1024127    251.35633  0.013401382  0.012243391          595 
 1564000   0.63433615   -8.0753806    251.40062  0.013395174  0.012231823          615 
 1565000    0.6253808   -8.0872342    251.11654  0.013371488  0.012220288          725 
 1566000   0.63280292   -8.1055116     251.5068  0.013383717  0.012208739          568 
 1567000   0.62779267   -8.1040913    251.57809  0.013378967  0.012197202          654 
 1568000   0.62130457   -8.0795504    251.60305  0.013371761  0.012185683          492 
 1569000   0.63182173   -8.0872527    251.59505  0.013362814  0.012174176          397 
 1570000   0.64249871   -8.1007381    251.20515  0.013333607  0.012162682          361 
 1571000   0.62785513   -8.1039227    251.63945  0.013348157  0.012151178          214 
 1572000   0.63022316   -8.1021745    251.38377  0.013326111  0.012139698          618 
 1573000   0.63611675   -8.1102521    251.20779  0.013308317  0.012128223          592 
 1574000   0.61925655   -8.1093633    251.75803  0.013328993  0.012116761          372 
 1575000   0.61967999   -8.1122098    251.18976  0.013290463   0.01210533          345 
 1576000   0.62679083   -8.1102349    251.23996  0.013284685    0.0120939          620 
 1577000   0.62396887   -8.1310488    251.04626  0.013266025  0.012082471          691 
 1578000   0.61519418   -8.1154904    251.40885  0.013276766  0.012071042          496 
 1579000   0.61196531   -8.0891988    251.48994  0.013272638  0.012059661          632 
 1580000   0.62214721   -8.1152016    251.20573  0.013249247  0.012048285          358 
 1581000   0.61399305   -8.0935841    251.22815  0.013242049  0.012036928          657 
 1582000   0.62383383   -8.1214564    251.16263  0.013230227  0.012025564          632 
 1583000   0.62390175   -8.1317275    251.03655  0.013215232  0.012014203          686 
 1584000   0.61779967   -8.1193865    250.70491  0.013189442  0.012002875          562 
 1585000   0.60882737   -8.1375599    251.51822  0.013223881  0.011991556          595 
 1586000   0.63144659    -8.101133    251.51655  0.013215456  0.011980231          455 
 1587000   0.61838894   -8.1120871    251.41845  0.013201977   0.01196893          754 
 1588000   0.61926456   -8.1210037     250.8799  0.013165402  0.011957637          670 
 1589000   0.60716835   -8.1165362    251.28391  0.013178304  0.011946348          699 
 1590000   0.60542338   -8.1195948    250.84872  0.013147208  0.011935084          729 
 1591000   0.61108721    -8.099207    250.99364  0.013146534  0.011923827          737 
 1592000   0.61657519   -8.1363616    251.43188  0.013161216  0.011912601          705 
 1593000   0.62074137   -8.1355487    250.95578  0.013128049  0.011901389          725 
 1594000   0.60736614    -8.128684    251.09585  0.013127136  0.011890198          691 
 1595000   0.62106567   -8.1394629     251.0301   0.01311547  0.011878993          748 
 1596000   0.61941238   -8.1092377    251.63955  0.013139074  0.011867805          621 
 1597000   0.63210265   -8.1249562    250.85246  0.013089776  0.011856619          694 
 1598000   0.61521831    -8.130032    251.06571  0.013092705  0.011845453          519 
 1599000   0.61117432   -8.1457656    250.99243  0.013080698  0.011834299          600 
 1600000   0.60561824   -8.1339653    251.07551  0.013076849  0.011823147          669 
 1601000    0.6279232   -8.1211318    250.83274  0.013056045  0.011812022          764 
 1602000   0.61451715   -8.1207643    250.86318  0.013049479  0.011800898          683 
 1603000   0.61422592   -8.1481083    250.59285  0.013027285  0.011789804          374 
 1604000   0.61402734   -8.1502658     250.9673  0.013038617  0.011778716          691 
 1605000   0.61715574   -8.1464239     250.9652  0.013030384  0.011767637          701 
 1606000   0.61383823   -8.1196601    250.73529  0.013010341  0.011756578          682 
 1607000   0.61474216   -8.1426795    251.00424  0.013016191  0.011745523          729 
 1608000   0.61352808   -8.1563335    251.25681  0.013021186  0.011734476          630 
 1609000   0.61329025   -8.1268015    250.98873  0.012999209  0.011723461          613 
 1610000    0.6088179    -8.137491    251.22491   0.01300336  0.011712459          656 
 1611000   0.61991434   -8.1482012    250.68939  0.012967587  0.011701467          698 
 1612000   0.60923006   -8.1447946    251.18577  0.012985203  0.011690451          729 
 1613000    0.6007144   -8.1552297    250.55025  0.012944319  0.011679452          604 
 1614000   0.61384579   -8.1247473    250.73339  0.012945756  0.011668463          553 
 1615000   0.60085965     -8.13857    251.41252  0.012972782  0.011657487          721 
 1616000   0.61427454   -8.1351221    250.64905  0.012925384  0.011646537          636 
 1617000    0.6242456   -8.1371247    250.76644  0.012923441  0.011635591          619 
 1618000   0.60362966   -8.1502655    250.52825  0.012903185   0.01162465          796 
 1619000   0.60965445   -8.1409381    251.19359  0.012929462  0.011613725          681 
 1620000   0.61861495   -8.1400732    250.66714    0.0128944  0.011602821          660 
 1621000   0.60268077   -8.1285201    251.11643  0.012909543  0.011591936          667 
 1622000   0.61292693   -8.1357614    251.13073  0.012902319  0.011581062          355 
 1623000   0.61178544   -8.1405275    251.08592  0.012892068  0.011570198          738 
 1624000   0.60698489    -8.159955     250.8472   0.01287188  0.011559337          604 
 1625000   0.60574716   -8.1591974    250.71587  0.012857224  0.011548503          607 
 1626000    0.6009287   -8.1578926    250.55339   0.01284099  0.011537672          636 
 1627000   0.60992092   -8.1601924    250.94343  0.012853074  0.011526853          383 
 1628000   0.60247001   -8.1379349    250.65933  0.012830637  0.011516051          683 
 1629000   0.59079006   -8.1524304    250.61079  0.012820278  0.011505254          668 
 1630000   0.59441556      -8.1669    250.65264  0.012814552  0.011494468          736 
 1631000   0.60427096   -8.1440348    250.54212  0.012801048  0.011483703          525 
 1632000   0.58515721   -8.1500694    251.02405  0.012817813  0.011472949          641 
 1633000   0.59616557   -8.1585939    251.05648  0.012811619  0.011462211          597 
 1634000   0.59926469   -8.1453608    250.94842  0.012798267  0.011451505          660 
 1635000   0.60967467   -8.1524096    250.33234  0.012759039  0.011440782          731 
 1636000   0.59271199   -8.1611814    250.54025   0.01276183  0.011430059          691 
 1637000   0.60681329   -8.1505816    251.03832  0.012779389  0.011419351          466 
 1638000    0.6031309   -8.1773743      250.523   0.01274537  0.011408649          723 
 1639000   0.60231933   -8.1584532    250.73972  0.012748613  0.011397955          421 
 1640000   0.61081451   -8.1476255    250.63148  0.012735339  0.011387281          450 
 1641000   0.60268153   -8.1581867    251.06318  0.012749501  0.011376624          695 
 1642000   0.60221767   -8.1545773    251.03982  0.012740551   0.01136598          639 
 1643000   0.58560851   -8.1355567    250.97542   0.01272953  0.011355348          625 
 1644000   0.59843649    -8.147749    250.23525  0.012684269  0.011344734          712 
 1645000   0.61458599   -8.1534886    250.53767  0.012691878  0.011334111          625 
 1646000   0.60658043   -8.1695433    250.29017  0.012671637  0.011323509          675 
 1647000   0.59067802   -8.1471602    250.33149  0.012666034   0.01131292          278 
 1648000   0.59122607    -8.164866    250.34275  0.012658917  0.011302348          538 
 1649000   0.60670947   -8.1515792    250.80068  0.012674383  0.011291785          691 
 1650000   0.58945531   -8.1452383    250.73515  0.012663391  0.011281235          598 
 1651000    0.5917175   -8.1816789    250.55598  0.012646678  0.011270681          712 
 1652000   0.60583039   -8.1744895     250.3468   0.01262847  0.011260139          616 
 1653000    0.6052172   -8.1673736    250.94492  0.012650984  0.011249609          716 
 1654000   0.59924994    -8.158949    250.19729  0.012605668   0.01123908          532 
 1655000   0.59087902   -8.1769056    250.57597  0.012617118  0.011228571          302 
 1656000   0.58603537    -8.175475    250.26556  0.012593879   0.01121807          676 
 1657000   0.59653414   -8.1655278    250.26398  0.012586199  0.011207582          364 
 1658000   0.58787043   -8.1667458    250.51655  0.012591302  0.011197111          630 
 1659000   0.61171787   -8.1603912    250.92602  0.012604281   0.01118665          715 
 1660000   0.58692985   -8.1884306    250.16386  0.012558427  0.011176214          701 
 1661000   0.58944984   -8.1715021    250.97331  0.012591477  0.011165775          777 
 1662000   0.58677063   -8.1848144    250.17797  0.012544022  0.011155341          730 
 1663000   0.57678714   -8.1859151    250.53979   0.01255461  0.011144927          636 
 1664000    0.5816458   -8.1934747    250.46931  0.012543535   0.01113452          633 
 1665000   0.60553757    -8.185961    250.23635  0.012524342  0.011124123          677 
 1666000   0.58970633   -8.1627474    250.88031  0.012549035  0.011113741          607 
 1667000   0.58795435   -8.1888591    250.44686  0.012519839  0.011103378          720 
 1668000   0.59507003   -8.1597129    250.59026  0.012519498  0.011093025          726 
 1669000    0.5870726   -8.1648044    250.45165  0.012505076  0.011082692          737 
 1670000   0.58648021   -8.1708445    249.88701  0.012469412  0.011072373          637 
 1671000   0.58788129   -8.2073396    250.23597  0.012479352  0.011062052          691 
 1672000   0.58283743   -8.1734202    250.28798  0.012474481  0.011051747          708 
 1673000   0.59233745   -8.1685039    250.38984  0.012472098   0.01104147          689 
 1674000   0.59050579   -8.1699387    250.57933   0.01247408  0.011031194          631 
 1675000   0.56997853   -8.1731488    250.42182  0.012458797  0.011020934          353 
 1676000   0.59486755   -8.1918112    250.44365  0.012452449  0.011010692          729 
 1677000    0.5854165     -8.17694    249.97136  0.012421554  0.011000479          676 
 1678000   0.58242391   -8.1842727    250.13158  0.012422108   0.01099026          658 
 1679000    0.5726324   -8.1856905    250.14712  0.012415482  0.010980044          290 
 1680000   0.58880539   -8.1744931    250.70476  0.012435752  0.010969849          657 
 1681000   0.57498864   -8.1914858    250.43817  0.012415138  0.010959657          678 
 1682000   0.58055371   -8.2042193    250.26585  0.012399219  0.010949474          693 
 1683000   0.59500961   -8.2028678     250.4291  0.012399935  0.010939297          438 
 1684000   0.58548847   -8.2091569    250.05017  0.012373821   0.01092915          728 
 1685000   0.58584998   -8.1858765     250.3876  0.012383165  0.010919015          723 
 1686000   0.58555812   -8.1610398    250.20698  0.012366893  0.010908911          664 
 1687000   0.57276936   -8.1602502    250.49877  0.012373976  0.010898794          622 
 1688000   0.58454562   -8.1944393    250.42399  0.012362954   0.01088869          569 
 1689000   0.57547464   -8.1904336    250.42409  0.012355639  0.010878603          756 
 1690000   0.58640771   -8.1853156    250.52001  0.012353057  0.010868535          774 
 1691000   0.57159361   -8.1940513    250.18792  0.012329387  0.010858473          715 
 1692000   0.57178532   -8.1899111    250.21849  0.012323606  0.010848413          446 
 1693000    0.5653144   -8.2033494    250.21628  0.012316218  0.010838375          740 
 1694000   0.58159007   -8.1850347    250.52435  0.012324102  0.010828343          690 
 1695000   0.56517836   -8.2093045    250.09463  0.012295705  0.010818342          704 
 1696000   0.57476298   -8.1741447    250.42424   0.01230465  0.010808341          698 
 1697000   0.57736924   -8.1888216    250.48673  0.012300468   0.01079835          776 
 1698000   0.58328851   -8.1909289    250.01983   0.01227031  0.010788362          701 
 1699000   0.57195127   -8.1842789    250.18205  0.012271044  0.010778386          692 
 1700000    0.5744045   -8.2023712    250.07094   0.01225838  0.010768419          644 
 1701000   0.58351255   -8.1893965    250.47328  0.012270884   0.01075847          721 
 1702000   0.56672171   -8.2123235    250.12519  0.012246631   0.01074854          717 
 1703000   0.57632086   -8.2170295    250.25925     0.012246  0.010738623          724 
 1704000   0.57096132   -8.2062284    250.23104  0.012237433  0.010728704          687 
 1705000   0.57290875   -8.2252049    249.97918  0.012217946  0.010718803          681 
 1706000   0.57098268   -8.1994022    250.20991  0.012222055  0.010708897          642 
 1707000   0.56917854   -8.2050998    250.10275  0.012209664   0.01069901          474 
 1708000   0.56505146   -8.2004989    250.33496  0.012213845  0.010689128          677 
 1709000   0.58747866   -8.2025047    250.02161  0.012191418  0.010679267          771 
 1710000   0.57153297   -8.1965025     250.5398  0.012209542  0.010669422          663 
 1711000   0.56520839   -8.2236345    249.67987  0.012160523  0.010659568          663 
 1712000   0.57769715   -8.2208268    250.35085  0.012186081  0.010649734          365 
 1713000   0.57434946   -8.2027327    250.37273  0.012180032   0.01063991          459 
 1714000   0.55899192     -8.20491    250.16864  0.012163003  0.010630099          686 
 1715000   0.56862881   -8.2250273     250.0312  0.012149232  0.010620291          434 
 1716000   0.56984199   -8.2118039    250.47013  0.012163468  0.010610508          623 
 1717000   0.57602481   -8.1995454    250.23899  0.012145165  0.010600736          668 
 1718000   0.56623334   -8.2079015    250.57357  0.012154325  0.010590976          730 
 1719000   0.56433857   -8.2199618    249.67987   0.01210393  0.010581221          723 
 1720000   0.55820497   -8.2235419     250.0549  0.012115063  0.010571479          695 
 1721000   0.56608262   -8.2272922    249.55977  0.012084048  0.010561734          700 
 1722000    0.5628826   -8.2170676    249.70256  0.012083941  0.010552005          274 
 1723000   0.55515475   -8.1949797    250.67802  0.012124106  0.010542285          732 
 1724000   0.56950571   -8.2072198     250.1767  0.012092841  0.010532587          648 
 1725000   0.55979101   -8.2171244    249.84198  0.012069661  0.010522894          541 
 1726000    0.5587985   -8.2094801    250.16526  0.012078276   0.01051322          674 
 1727000   0.56727672   -8.2141352    250.05151  0.012065794  0.010503547          742 
 1728000    0.5556196   -8.2125433    249.78809  0.012046108  0.010493877          735 
 1729000   0.56604641   -8.2455149    249.82035  0.012040695  0.010484222          420 
 1730000   0.55330473   -8.2193479    249.33102  0.012010164  0.010474576          420 
 1731000   0.55048905    -8.225421    250.02727  0.012036745  0.010464943          788 
 1732000   0.55233793   -8.2140341    249.51423  0.012005111  0.010455334          656 
 1733000   0.56078791   -8.2359397    249.70663  0.012007435  0.010445717          720 
 1734000   0.56247426   -8.2251146    249.42057  0.011986763  0.010436117          711 
 1735000   0.55615274   -8.2090974    250.00022  0.012007695  0.010426524          731 
 1736000   0.55987502   -8.2495542    249.81695  0.011991981  0.010416931          787 
 1737000   0.55083857    -8.238767    249.57318  0.011973382  0.010407364          800 
 1738000   0.54961357   -8.2262272    250.13964  0.011993654  0.010397802          754 
 1739000   0.55923843   -8.2200474    249.75947  0.011968539  0.010388253          661 
 1740000   0.55643217   -8.2204759    249.54964  0.011951611  0.010378712          762 
 1741000   0.56031112   -8.2297267    249.75113  0.011954391  0.010369178          737 
 1742000   0.56357016   -8.2238104    249.67977  0.011944115  0.010359667          766 
 1743000   0.55138874    -8.244557    249.32673  0.011920383  0.010350163          770 
 1744000   0.54301228   -8.2458617    249.48403  0.011921064  0.010340658          683 
 1745000   0.55983582   -8.2309696    249.76141  0.011927479  0.010331164          704 
 1746000   0.55798028    -8.235325    249.44591  0.011905589  0.010321685          689 
 1747000   0.55029513   -8.2276631    249.75867  0.011913693  0.010312216          684 
 1748000   0.55380429   -8.2247231    250.15381  0.011925715  0.010302764          632 
 1749000   0.55278655   -8.2398008    249.78937  0.011901533  0.010293322          479 
 1750000   0.54589366   -8.2475605    249.65177   0.01188818  0.010283886          731 
 1751000   0.56442261     -8.23609    249.62039  0.011879897  0.010274461          528 
 1752000   0.55593871   -8.2318191    249.47149  0.011866033  0.010265044          707 
 1753000   0.55559881   -8.2422296    249.51889  0.011861518  0.010255657          300 
 1754000   0.55850436   -8.2396741    249.59754  0.011858492  0.010246276          738 
 1755000   0.55241626   -8.2491924    249.80694  0.011861678  0.010236903          781 
 1756000   0.56348747   -8.2207825    249.55946  0.011843179  0.010227549          732 
 1757000   0.56220267   -8.2381898    249.94537  0.011854741    0.0102182          647 
 1758000   0.55980429   -8.2344739    249.90001  0.011845848  0.010208864          652 
 1759000   0.56004463   -8.2438645    249.41661  0.011816212  0.010199536          757 
 1760000   0.54030909   -8.2165785    250.03879  0.011838958  0.010190223          725 
 1761000   0.55480796   -8.2373989    249.70949  0.011816652  0.010180914          654 
 1762000     0.550815   -8.2459386    249.90091  0.011818999  0.010171612          628 
 1763000    0.5379459   -8.2510502    249.61704  0.011798877   0.01016232          692 
 1764000   0.55092394   -8.2360619     249.7049  0.011796339  0.010153035          410 
 1765000   0.54779345   -8.2516642    249.55217  0.011782444  0.010143766          705 
 1766000   0.53536123   -8.2591966    249.85082  0.011789865  0.010134514          573 
 1767000   0.54932033   -8.2476495    249.71469  0.011776773  0.010125269          477 
 1768000   0.54568396   -8.2507108    249.56393  0.011763006  0.010116037          405 
 1769000   0.54608357   -8.2362737    249.44178  0.011750602   0.01010682          746 
 1770000   0.54898507   -8.2331316    249.82609  0.011762057  0.010097617          427 
 1771000   0.53739143   -8.2563726    249.64087    0.0117467  0.010088412          717 
 1772000   0.54348137   -8.2502594    249.23798  0.011721124  0.010079225          731 
 1773000   0.53970289   -8.2480227    249.54044  0.011728729  0.010070051          696 
 1774000    0.5372799   -8.2559589    249.52397  0.011721344  0.010060886          759 
 1775000   0.53119832   -8.2452454    250.01247  0.011737675  0.010051735          632 
 1776000   0.54187924   -8.2405053    249.75265  0.011718874  0.010042595          726 
 1777000   0.54359412   -8.2545611    249.77326  0.011713246  0.010033458          762 
 1778000   0.55035595   -8.2455772    249.61208  0.011699104  0.010024328          644 
 1779000   0.54603256    -8.248955    249.55296  0.011689758  0.010015203          577 
 1780000   0.53690203    -8.249165    249.45915  0.011678799  0.010006078          590 
 1781000   0.53787022   -8.2427316    249.03132  0.011652224 0.0099969751          690 
 1782000   0.53805608   -8.2638977    249.31576  0.011658986 0.0099878721          756 
 1783000   0.53965461    -8.254152    249.15869  0.011645106 0.0099787917          568 
 1784000   0.53752129   -8.2414362     249.9569  0.011675864 0.0099697298          698 
 1785000    0.5336502   -8.2579055    249.19259  0.011633641 0.0099606731          621 
 1786000   0.54471373   -8.2503925    249.40656  0.011637111 0.0099516169          806 
 1787000   0.53416625   -8.2396242    249.50099  0.011635002 0.0099425725          609 
 1788000   0.53388973   -8.2659708    249.52206  0.011629477 0.0099335343          367 
 1789000   0.53675478   -8.2472675    249.69561  0.011631061 0.0099245101          655 
 1790000   0.53449634   -8.2681039    248.93298  0.011589059 0.0099154925          746 
 1791000   0.54438492   -8.2421673    248.88814  0.011580502 0.0099064775          698 
 1792000   0.53107556   -8.2733631    249.20516  0.011588781 0.0098974894          689 
 1793000   0.54079514   -8.2524119    249.18373  0.011581322 0.0098885062          705 
 1794000   0.53549032   -8.2486592    249.44202  0.011586864 0.0098795242          651 
 1795000   0.54818225   -8.2614326    248.85694  0.011553247 0.0098705488          661 
 1796000   0.52880287   -8.2554751    249.08478  0.011557386 0.0098615881          727 
 1797000   0.54568824   -8.2693376    249.35526  0.011563497 0.0098526393          807 
 1798000   0.52880398   -8.2651845    248.98435  0.011539875  0.009843702          654 
 1799000   0.53382539   -8.2697891    249.42562  0.011553901 0.0098347779          715 
 1800000   0.53753055   -8.2628176    249.18507  0.011536346 0.0098258691          765 
 1801000   0.54353635   -8.2870508    248.82953  0.011513489  0.009816957          713 
 1802000     0.531655   -8.2674966    249.10581  0.011519876 0.0098080676          394 
 1803000   0.53839573   -8.2700883    249.14703  0.011515392 0.0097991858          726 
 1804000   0.52468394   -8.2826323    249.00748  0.011502563 0.0097903101          673 
 1805000   0.53965439   -8.2758892    248.71381  0.011482632  0.009781441          749 
 1806000   0.52528306   -8.2796614    248.88879  0.011484348 0.0097725758          769 
 1807000   0.53462342   -8.2633029    249.23279  0.011493857 0.0097637267          637 
 1808000    0.5257864   -8.2786886    249.28207  0.011489771 0.0097548935          618 
 1809000   0.52331048   -8.2576241    249.29471  0.011484002 0.0097460753          315 
 1810000    0.5408437   -8.2750022    249.13895  0.011470486 0.0097372556          715 
 1811000   0.54002334   -8.2902476    248.76092  0.011446757 0.0097284576          310 
 1812000   0.54026875   -8.2707454    249.16512  0.011459029  0.009719663          698 
 1813000   0.53146936   -8.2843879    248.94732  0.011442697 0.0097108772          723 
 1814000   0.52859076   -8.2903352    248.94393  0.011436233  0.009702101          453 
 1815000   0.52691324    -8.257839     249.4197  0.011451777  0.009693338          587 
 1816000   0.51562622   -8.2745848    249.19019  0.011434939 0.0096845821          626 
 1817000   0.53293828   -8.2730164    249.26652  0.011432146 0.0096758402          740 
 1818000   0.52149852   -8.2733941    248.73597  0.011401539 0.0096671103          434 
 1819000   0.51902894   -8.2839369    249.18114  0.011415665 0.0096583825          750 
 1820000   0.52804217   -8.2820852    248.80754  0.011392287   0.00964967          683 
 1821000   0.51226298   -8.2741275    249.02472  0.011395969 0.0096409626          682 
 1822000   0.52422833   -8.2895878     249.2459  0.011399831 0.0096322713          350 
 1823000   0.53109243   -8.2824155    249.31838  0.011396891 0.0096235926          623 
 1824000   0.50829238   -8.2964038    249.06264  0.011378958 0.0096149119          362 
 1825000   0.53082609   -8.2882624    249.08288  0.011373648  0.009606251          218 
 1826000   0.52168884   -8.2781525    249.18762  0.011372199 0.0095976073          549 
 1827000   0.51593785   -8.3001415     249.0405  0.011359264 0.0095889635          479 
 1828000   0.53122464   -8.2818524     249.3212  0.011365846 0.0095803271          681 
 1829000    0.5202837   -8.2962692    249.12968  0.011350906 0.0095717039          719 
 1830000   0.51754803   -8.3010453    249.00481  0.011339017 0.0095630887          463 
 1831000   0.52539988   -8.3106849    249.07885  0.011336194 0.0095544618          696 
 1832000   0.51879779   -8.2844531    249.51073  0.011349651 0.0095458647          707 
 1833000    0.5295672   -8.2940668    248.74951  0.011308852 0.0095372742          424 
 1834000   0.52248627   -8.2867281    248.91947  0.011310409 0.0095286811          650 
 1835000   0.51895788   -8.2785757    248.69036   0.01129384 0.0095201091          733 
 1836000   0.52180603    -8.280138    249.06329  0.011304615 0.0095115537          704 
 1837000   0.51350808   -8.3002399    248.87753  0.011290035  0.009503012          696 
 1838000   0.51626244   -8.2911091    248.96551  0.011287881 0.0094944702          743 
 1839000   0.51425652   -8.2780417    248.80132  0.011274303 0.0094859401          423 
 1840000   0.51655618   -8.3039411    249.06801  0.011280254 0.0094774191          710 
 1841000   0.52592751   -8.2723744    249.18136  0.011279257 0.0094689132          469 
 1842000   0.51516342   -8.2949255    249.08408  0.011268733 0.0094604147          708 
 1843000   0.51677664   -8.2783725    248.53552  0.011237815 0.0094519241          661 
 1844000   0.51801166   -8.2836684    248.88497  0.011247513 0.0094434359          234 
 1845000   0.52435657    -8.280713    248.86891  0.011240691 0.0094349661          656 
 1846000   0.51141151   -8.3034051     248.6316   0.01122389  0.009426495          762 
 1847000   0.51561937   -8.3035065    248.82379  0.011226484  0.009418038          686 
 1848000     0.511366   -8.3004343    249.02447  0.011229459 0.0094096008          660 
 1849000   0.52437574    -8.306441    248.59596  0.011204072 0.0094011715          700 
 1850000   0.51923953   -8.3057669    248.48208  0.011192887 0.0093927474          725 
 1851000   0.52263684   -8.2868702    248.66655  0.011195144 0.0093843295          675 
 1852000   0.51014058   -8.3019462    248.51686  0.011182364 0.0093759263          712 
 1853000   0.51786648   -8.2934197    248.75588  0.011187078 0.0093675201          669 
 1854000   0.51605539   -8.3038597    248.84483  0.011185043 0.0093591299          734 
 1855000   0.52093903   -8.3112742    248.81028  0.011177461 0.0093507535          534 
 1856000   0.49746796   -8.2999238    248.82713  0.011172195 0.0093423798          400 
 1857000   0.50905783   -8.3056194    248.58339  0.011155241 0.0093340185          694 
 1858000   0.50313312   -8.3099939    248.75796  0.011157067 0.0093256625          396 
 1859000   0.50582626   -8.3120829    248.75605   0.01115098 0.0093173259          690 
 1860000   0.50215201   -8.2946608    249.30412  0.011169539 0.0093089947          745 
 1861000   0.51725715    -8.297927    248.48264  0.011126752 0.0093006741          397 
 1862000   0.51422706   -8.3196138     248.9077    0.0111398 0.0092923538          726 
 1863000   0.50113851   -8.3073217    248.81332  0.011129599  0.009284048          765 
 1864000   0.50149944   -8.3114833    248.49105  0.011109221  0.009275766          432 
 1865000   0.50988212   -8.3030362    248.81016  0.011117523  0.009267496          679 
 1866000   0.51506532   -8.3052762    248.96933  0.011118673 0.0092592208          741 
 1867000   0.50542353   -8.3094907    248.85532  0.011107629 0.0092509588          734 
 1868000   0.51027751   -8.3002207    248.72329  0.011095793 0.0092427018          721 
 1869000   0.51437903   -8.2980775     248.8165  0.011094012 0.0092344719          602 
 1870000   0.51296158   -8.3294174    248.61425  0.011079067 0.0092262495          705 
 1871000   0.50592943   -8.3208947    248.52314  0.011069087 0.0092180346          642 
 1872000   0.50302913   -8.3131294    248.67018   0.01106972 0.0092098341          616 
 1873000   0.51159965   -8.3091561    248.57829  0.011059721 0.0092016297          789 
 1874000   0.50344914   -8.2968199    248.51995  0.011051225 0.0091934408          751 
 1875000   0.49832914   -8.2986642    248.53476  0.011045989 0.0091852551          708 
 1876000   0.50724008   -8.3272891    248.25101  0.011027497 0.0091770797          496 
 1877000   0.50126648   -8.3174341    248.56201  0.011035429  0.009168907          773 
 1878000   0.51045028   -8.3317687    248.62611  0.011032397 0.0091607482          790 
 1879000   0.50622783    -8.314746    248.77835  0.011033278  0.009152601          722 
 1880000   0.49316954   -8.3024416    249.17833  0.011045139 0.0091444586          710 
 1881000   0.50974534   -8.3258024    248.69883  0.011018024 0.0091363238          715 
 1882000   0.50980371   -8.3379631    247.90999   0.01097724  0.009128198          732 
 1883000   0.50318728   -8.3198593    248.40388  0.010993268  0.009120078          726 
 1884000   0.50586555   -8.3342755    248.34964  0.010985034 0.0091119714          837 
 1885000   0.50350072   -8.3343709    248.63335  0.010991748 0.0091038698          759 
 1886000   0.48577031   -8.3161544    248.78149  0.010992466 0.0090957799          737 
 1887000   0.49764608   -8.3497625    248.53928  0.010975944 0.0090876939          758 
 1888000   0.50168481    -8.328747    248.62012  0.010973699 0.0090796203          768 
 1889000   0.50589297   -8.3218247    248.41943  0.010959036 0.0090715548          769 
 1890000   0.50081902   -8.3253284    248.65372  0.010963568 0.0090634982          753 
 1891000   0.50322923   -8.3295728    248.31058  0.010942649 0.0090554598          364 
 1892000   0.50378413   -8.3306104    248.33802  0.010938073 0.0090474233          718 
 1893000   0.49645189   -8.3420529    248.47872  0.010938489  0.009039394          577 
 1894000   0.48793216   -8.3477308    248.31626  0.010925566 0.0090313682          824 
 1895000   0.48507689   -8.3316018    248.19448  0.010914445 0.0090233553          628 
 1896000   0.49133607   -8.3376309     248.2303  0.010910263 0.0090153511          570 
 1897000    0.4929763    -8.331272     248.0557  0.010896842 0.0090073574          771 
 1898000   0.48907603   -8.3266369    248.79557  0.010923585 0.0089993729          699 
 1899000    0.4987043   -8.3293346    248.20057  0.010891723 0.0089913977          748 
 1900000   0.50282679   -8.3248749    248.26007    0.0108886 0.0089834307          798 
 1901000   0.49293695   -8.3376914    248.33231  0.010886038  0.008975461          713 
 1902000   0.48866774   -8.3286086    248.46137   0.01088597 0.0089675093          820 
 1903000    0.4965775   -8.3373158    248.13303  0.010865871 0.0089595696          734 
 1904000   0.49741419   -8.3438413    248.18057  0.010862245 0.0089516441          658 
 1905000   0.50548858   -8.3336328    248.03162  0.010850027 0.0089437198          666 
 1906000   0.49861891   -8.3430255    248.34812  0.010858173 0.0089358024          763 
 1907000   0.49780409   -8.3239373    248.85126  0.010874465 0.0089279009          581 
 1908000   0.48722025   -8.3276342    248.22736  0.010841517 0.0089200007          745 
 1909000   0.48672596   -8.3328877    248.01665  0.010826639 0.0089121092          464 
 1910000    0.4945055   -8.3492455    248.45047  0.010839898 0.0089042379          773 
 1911000   0.48843465   -8.3373757    248.69139  0.010844732 0.0088963753          832 
 1912000   0.49823383   -8.3437477     248.6026   0.01083519 0.0088885195          710 
 1913000   0.48405779   -8.3370335    248.60334  0.010829558 0.0088806745          748 
 1914000   0.47969969   -8.3413866    248.53302  0.010820839  0.008872837          729 
 1915000   0.49362139   -8.3273858    248.62327  0.010819115 0.0088650057          776 
 1916000   0.50599825   -8.3386667    248.56108  0.010810764 0.0088571847          766 
 1917000   0.49384102   -8.3402909     248.6021  0.010806908 0.0088493729          678 
 1918000   0.49553611   -8.3553649    248.09211  0.010779115  0.008841568          784 
 1919000   0.48726676   -8.3584742    247.83052  0.010762138 0.0088337732          680 
 1920000   0.48520839   -8.3508736     248.2377  0.010774206 0.0088259769          800 
 1921000   0.48648823   -8.3503677    248.59514  0.010784103 0.0088181944          649 
 1922000   0.49367723   -8.3700306    247.89878  0.010748299 0.0088104227          671 
 1923000    0.4830155   -8.3609929    248.04679  0.010749124 0.0088026585          750 
 1924000   0.47865234   -8.3426438    248.24597  0.010752164 0.0087949083          663 
 1925000   0.47671265   -8.3469067    247.88212  0.010730828 0.0087871566          714 
 1926000   0.47479699   -8.3651121    248.09759  0.010734579 0.0087794191          667 
 1927000   0.47351255   -8.3516169    248.07717  0.010728125 0.0087716869          626 
 1928000   0.49051502   -8.3620979    247.94188  0.010716713 0.0087639632          747 
 1929000   0.48355211   -8.3530637    248.05391  0.010715997 0.0087562493          773 
 1930000   0.48513811   -8.3518245    248.06425  0.010710892 0.0087485571          722 
 1931000   0.48312499   -8.3595272    248.05972  0.010705149 0.0087408671          755 
 1932000   0.47366273   -8.3501975    248.28947  0.010709518 0.0087331813          546 
 1933000   0.48492764   -8.3466435    248.05922  0.010694052 0.0087255097          768 
 1934000   0.47806492   -8.3630845    247.87794  0.010680711 0.0087178478          731 
 1935000   0.47637934   -8.3661771    248.16084  0.010687375 0.0087101959          778 
 1936000    0.4890899   -8.3557205    248.29256  0.010687524 0.0087025516          761 
 1937000   0.47910597   -8.3640683     248.2313  0.010679371 0.0086949217          758 
 1938000   0.47971202   -8.3655832     247.8839  0.010658922 0.0086872938          502 
 1939000   0.48131467   -8.3494594    247.87718  0.010653136 0.0086796734          458 
 1940000   0.47712236   -8.3775128    248.04212   0.01065473 0.0086720655          743 
 1941000   0.47759926   -8.3452062    247.74179  0.010636347 0.0086644627          800 
 1942000   0.48169451   -8.3679862    248.03891  0.010643619 0.0086568652          799 
 1943000   0.47943413   -8.3582171    248.33149   0.01065069 0.0086492724          761 
 1944000   0.48216186   -8.3685546    247.79691  0.010622296 0.0086416926          834 
 1945000   0.48427223   -8.3558355     247.9995  0.010625514 0.0086341234          758 
 1946000    0.4826849   -8.3705415    247.52539  0.010599751 0.0086265586          742 
 1947000   0.47278897   -8.3630017    247.98279  0.010613884 0.0086190082          506 
 1948000   0.47407421    -8.376619    248.00348   0.01060932 0.0086114684          781 
 1949000   0.47394347   -8.3744006    247.95485  0.010601798 0.0086039301          727 
 1950000    0.4706169   -8.3649753    247.69418  0.010585221 0.0085964052          789 
 1951000   0.47098531   -8.3772457    248.33565  0.010607195  0.008588888          832 
 1952000   0.47551885   -8.3604288    248.09024  0.010591284 0.0085813796          544 
 1953000    0.4702736   -8.3787821    247.91738  0.010578485  0.008573875          808 
 1954000   0.45771308   -8.3592535    247.73729  0.010565391 0.0085663774          769 
 1955000    0.4757749   -8.3754113    247.92296  0.010567901 0.0085588823          710 
 1956000   0.46488429   -8.3575989    247.92965  0.010562783 0.0085514086          673 
 1957000   0.47400191   -8.3826383     247.6408  0.010545086 0.0085439353          749 
 1958000   0.47141524   -8.3530705    247.81092  0.010546941  0.008536477          773 
 1959000   0.46793511   -8.3649736    247.80271  0.010541208 0.0085290292          615 
 1960000   0.46641708    -8.374791     248.0138  0.010544805 0.0085215937          781 
 1961000   0.47138464   -8.3705808    247.91633  0.010535285 0.0085141565          799 
 1962000   0.46467172   -8.3700415    247.63488  0.010517961 0.0085067338          801 
 1963000   0.46853277   -8.3871147    247.39969  0.010502619 0.0084993146          688 
 1964000   0.46390454    -8.366474    247.49924  0.010501495 0.0084919028          787 
 1965000   0.46428968   -8.3781831     247.6702  0.010503401 0.0084845031          751 
 1966000   0.46813883   -8.3730612    247.81585  0.010504232 0.0084771161          375 
 1967000   0.46078192   -8.3702571    247.98315   0.01050598 0.0084697321          412 
 1968000   0.46627032   -8.3720863     247.6887  0.010488173 0.0084623484          711 
 1969000   0.47894192   -8.3626293    247.68043  0.010482496 0.0084549848          802 
 1970000   0.46959521   -8.3786917    248.06263  0.010493343 0.0084476211          766 
 1971000   0.46597152   -8.3649582    247.73452  0.010474147 0.0084402674          682 
 1972000   0.46079022   -8.3760939    247.65338  0.010465407 0.0084329207          780 
 1973000   0.46472831   -8.3809567    247.38023  0.010448565 0.0084255787          831 
 1974000   0.46452141   -8.3851566    247.80464  0.010461189 0.0084182514          452 
 1975000   0.46605615   -8.3773638    247.60484  0.010447462  0.008410932          645 
 1976000   0.44857667    -8.371991    248.00402  0.010459009 0.0084036255          792 
 1977000   0.45792482   -8.3801963    247.94683  0.010451308 0.0083963164          776 
 1978000   0.44660815   -8.3615719    247.85343  0.010442089 0.0083890216          740 
 1979000    0.4574174   -8.3889216    247.43003  0.010418984 0.0083817355          883 
 1980000   0.46230007   -8.3890392    247.66021  0.010423409 0.0083744569          638 
 1981000    0.4600074   -8.3935254    247.46431  0.010409907 0.0083671807          809 
 1982000   0.46406084   -8.3884017    247.62642  0.010411471 0.0083599148          755 
 1983000   0.46038886   -8.3829933    248.07596  0.010425112 0.0083526557          823 
 1984000   0.46646484   -8.3906695    247.67436  0.010402989 0.0083454066          830 
 1985000   0.46270194   -8.4078455    247.62377  0.010395624 0.0083381649          673 
 1986000   0.45798158   -8.3741612    247.55073  0.010387325 0.0083309285          623 
 1987000    0.4632149   -8.3883145    247.43149  0.010377097 0.0083237111          688 
 1988000   0.46026386   -8.4011566    247.67776    0.0103822 0.0083164984          773 
 1989000    0.4523665   -8.3810997    247.61075  0.010374173 0.0083092945          736 
 1990000   0.45814153    -8.399182    247.11929  0.010348379 0.0083020928          813 
 1991000   0.45793122   -8.4051652    247.29382  0.010350486 0.0082949022          790 
 1992000   0.45663919   -8.3915528    247.21888  0.010342155 0.0082877164          814 
 1993000   0.45887217   -8.3879661    247.69535  0.010356889 0.0082805453          772 
 1994000   0.45850284   -8.3900196    247.81405  0.010356655 0.0082733838          727 
 1995000   0.45082097   -8.3875871    247.75274  0.010348903 0.0082662316          772 
 1996000   0.45537301   -8.3984988    247.55565   0.01033549 0.0082590806          822 
 1997000   0.46867453   -8.3775969    247.53955  0.010329643 0.0082519408          788 
 1998000    0.4461703   -8.3943335    247.85804  0.010337756  0.008244807          848 
 1999000   0.45886009   -8.3900937    247.49786   0.01031757 0.0082376913          662 
 2000000   0.46153652    -8.405233    247.16846  0.010298686  0.008230574          807 
 2001000   0.45455081   -8.3805509    247.65301  0.010313719 0.0082234669          835 
 2002000   0.45981502   -8.3919473    247.38777  0.010297526 0.0082163677          801 
 2003000   0.45118674   -8.3973915    247.82373  0.010310523 0.0082092744          769 
 2004000   0.45551165   -8.4015506    247.52961  0.010293148 0.0082021918          822 
 2005000    0.4428855   -8.4001478    247.26934  0.010277196 0.0081951215          801 
 2006000   0.45086933   -8.3900406    247.63365  0.010287207 0.0081880518          762 
 2007000   0.45412474   -8.4027309    247.33461  0.010269665 0.0081809929          748 
 2008000   0.45396482   -8.4076098    247.46451  0.010269942 0.0081739413          801 
 2009000   0.45449204   -8.4004233    247.31688  0.010258706 0.0081668991          689 
 2010000   0.44248328   -8.4043712    247.28338  0.010252213 0.0081598616          744 
 2011000   0.45213129   -8.3875167    247.71624  0.010265052 0.0081528415          800 
 2012000   0.45220119   -8.3952739    247.49629   0.01025084 0.0081458208          808 
Loop time of 5269.01 on 48 procs for 2000000 steps with 4000 atoms

Performance: 65591.046 tau/day, 379.578 timesteps/s
99.4% CPU use with 48 MPI tasks x no OpenMP threads

MPI task timing breakdown:
Section |  min time  |  avg time  |  max time  |%varavg| %total
---------------------------------------------------------------
Pair    | 397.47     | 429        | 463.09     |  85.0 |  8.14
Neigh   | 36.756     | 38.277     | 39.395     |  10.9 |  0.73
Comm    | 338.43     | 372.12     | 408.96     |  92.5 |  7.06
Output  | 5.3024     | 5.3047     | 5.3543     |   0.3 |  0.10
Modify  | 4363.8     | 4377.2     | 4390.5     |   8.9 | 83.07
Other   |            | 47.14      |            |       |  0.89

Nlocal:        83.3333 ave          90 max          74 min
Histogram: 1 0 0 5 10 11 8 4 8 1
Nghost:        2429.08 ave        2445 max        2413 min
Histogram: 2 6 6 5 2 8 5 8 4 2
Neighs:        16825.6 ave       19417 max       13597 min
Histogram: 1 1 4 7 5 9 9 5 3 4
FullNghs:      33650.8 ave       36581 max       29778 min
Histogram: 1 0 0 5 16 6 7 5 7 1

Total # of neighbors = 1615236
Ave neighs/atom = 403.80900
Neighbor list builds = 106585
Dangerous builds = 0

#clear
#
#next RN
#
#jump SELF
Total wall time: 1:27:52
