
units lj                  # Use reduced LJ style units
atom_style atomic         # Uncharged point particles
atom_modify map hash      # Needed for indexing of clusters etc
                          # Used to be able to find where atoms are in relation to each other.

lattice fcc 1.0 spacing 1 1 1
Lattice spacing in x,y,z = 1.5874011 1.5874011 1.5874011
region box block 0 10 0 10 0 10 units lattice
create_box 2 box
Created orthogonal box = (0.0000000 0.0000000 0.0000000) to (15.874011 15.874011 15.874011)
  3 by 4 by 4 MPI processor grid
create_atoms 1 box
Created 4000 atoms
  using lattice units in orthogonal box = (0.0000000 0.0000000 0.0000000) to (15.874011 15.874011 15.874011)
  create_atoms CPU = 0.002 seconds
set type 1 type/fraction 2 0.83 78393
Setting atom values ...
  3314 settings made for type/fraction
mass 1 1.0
mass 2 1.0
pair_style lj/cut  3.5
pair_modify tail  yes
pair_coeff 1  1  1.0  1.0   # Intearaction between 1 and 1 set with epsilon = 1 and sigma = 1
pair_coeff 1  2  1.5  0.8
pair_coeff 2  2  0.5  0.88

write_data data.0
System init for write_data ...
Neighbor list info ...
  update every 1 steps, delay 10 steps, check yes
  max neighbors/atom: 2000, page size: 100000
  master list distance cutoff = 3.8
  ghost atom cutoff = 3.8
  binsize = 1.9, bins = 9 9 9
  1 neighbor lists, perpetual/occasional/extra = 1 0 0
  (1) pair lj/cut, perpetual
      attributes: half, newton on
      pair build: half/bin/atomonly/newton
      stencil: half/bin/3d
      bin: standard
WARNING: Not all mixed pair coeffs generated from mixing. Use write_data with 'pair ij' option to store all pair coeffs. (../write_data.cpp:312)


#############################
#   M E L T   S Y S T E M   #
#############################

velocity all create 2.4 6583654 mom yes dist gaussian # Assign velocities
                                                    # Temperature 2.4, random number seed, zero linear momentum
                                                                                # Gaussian distribution

timestep 0.002   # simulation timestep
thermo 1000       # output thermodynamic data every 1000 steps bf 100

# Define a fix  in this case with index 1 applied to all
# particles in the simulation. This fix is for simulations
# in the anisotropic NPT ensemble. Note that we use the MTK
# correction.
fix 1 all npt temp 2.4 2.4 0.1 iso 5.68 5.68 0.5 mtk yes tchain 5 pchain 5 # Use NPT ensemble
                                                                         # Set temperature and pressure and damping
                                                                         # Numbers of thermostats in chain and in barostat
run 10000          # run for 10000 steps
Per MPI rank memory allocation (min/avg/max) = 3.642 | 3.644 | 3.648 Mbytes
Step Temp E_pair E_mol TotEng Press Volume 
       0          2.4   -3.5381599            0  0.060940148   -3.0801753         4000 
    1000    2.4401761   -2.7822267            0   0.87712235    5.6831682    3866.8402 
    2000    2.4308431   -2.8506872            0   0.79466598    5.9587676    3790.2791 
    3000    2.3793912   -2.7195019            0   0.84869266    5.6916581    3900.8999 
    4000    2.3958816   -2.8153658            0   0.77755822    5.4224556    3869.0511 
    5000    2.4112358   -2.8191057            0   0.79684372    5.5177928    3852.8932 
    6000    2.4342642   -2.8011864            0   0.84929701    5.7490151    3852.2876 
    7000    2.4845074   -2.8255632            0   0.90026624     6.250622    3779.2509 
    8000    2.4569578   -2.7948878            0   0.88962753    5.9703266    3833.5087 
    9000    2.4228835   -2.8615055            0   0.77191114    5.6038932    3818.7398 
   10000    2.3803838   -2.8639159            0   0.70576714    5.1925702    3877.5733 
Loop time of 2.60404 on 48 procs for 10000 steps with 4000 atoms

Performance: 663583.964 tau/day, 3840.185 timesteps/s
99.7% CPU use with 48 MPI tasks x no OpenMP threads

MPI task timing breakdown:
Section |  min time  |  avg time  |  max time  |%varavg| %total
---------------------------------------------------------------
Pair    | 1.151      | 1.201      | 1.3125     |   3.4 | 46.12
Neigh   | 0.2095     | 0.21967    | 0.25121    |   1.4 |  8.44
Comm    | 0.7713     | 0.89133    | 0.96971    |   4.6 | 34.23
Output  | 0.00024711 | 0.00025318 | 0.00032511 |   0.0 |  0.01
Modify  | 0.24813    | 0.27651    | 0.32711    |   4.7 | 10.62
Other   |            | 0.01527    |            |       |  0.59

Nlocal:        83.3333 ave          90 max          70 min
Histogram: 1 0 1 3 5 1 10 13 6 8
Nghost:        1670.19 ave        1697 max        1635 min
Histogram: 2 3 3 3 4 11 6 7 6 3
Neighs:        9843.67 ave       10809 max        8233 min
Histogram: 1 1 3 4 5 5 9 7 7 6

Total # of neighbors = 472496
Ave neighs/atom = 118.12400
Neighbor list builds = 910
Dangerous builds = 213

# Equilibrate just above the melting temperature to avoid step fn in T

fix 1 all npt temp 1.25 1.25 0.1 iso 5.68 5.68 0.5 mtk yes tchain 5 pchain 5
run 2000
Per MPI rank memory allocation (min/avg/max) = 3.643 | 3.645 | 3.649 Mbytes
Step Temp E_pair E_mol TotEng Press Volume 
   10000    2.3803838   -2.8639159            0   0.70576714    5.1925702    3877.5733 
   11000     1.255225   -4.1633473            0   -2.2809805    5.5961901    2964.1549 
   12000     1.261111   -4.1754217            0   -2.2842281    5.2917468    2977.1201 
Loop time of 0.617812 on 48 procs for 2000 steps with 4000 atoms

Performance: 559393.166 tau/day, 3237.229 timesteps/s
99.7% CPU use with 48 MPI tasks x no OpenMP threads

MPI task timing breakdown:
Section |  min time  |  avg time  |  max time  |%varavg| %total
---------------------------------------------------------------
Pair    | 0.26974    | 0.30407    | 0.32561    |   2.1 | 49.22
Neigh   | 0.038932   | 0.042532   | 0.044719   |   0.5 |  6.88
Comm    | 0.19947    | 0.22299    | 0.263      |   2.8 | 36.09
Output  | 4.9812e-05 | 5.1785e-05 | 6.8696e-05 |   0.0 |  0.01
Modify  | 0.039999   | 0.04346    | 0.046584   |   0.9 |  7.03
Other   |            | 0.004709   |            |       |  0.76

Nlocal:        83.3333 ave          92 max          74 min
Histogram: 2 2 3 7 6 9 11 2 3 3
Nghost:        2005.23 ave        2026 max        1979 min
Histogram: 3 3 2 2 7 9 5 9 4 4
Neighs:        12829.6 ave       14774 max       10400 min
Histogram: 2 1 2 5 7 11 7 7 4 2

Total # of neighbors = 615822
Ave neighs/atom = 153.95550
Neighbor list builds = 144
Dangerous builds = 16

#############################
# L I N E A R  Q U E N C H  #
#############################

# Define solid atoms. This closely follows ten Wolde  Ruiz-Montero and Frenkel  Faraday Discuss  1996  104  93-110
# Compute components of the per-atom q6 vector
compute q6 all orientorder/atom degrees 1 6 components 6 nnn NULL cutoff 1.3 # compute the Q6 parameter.
                                                                             # Use all neighbours within 1.3 unit cell.

# get number of connections
compute coord_number all coord/atom orientorder q6 0.5

# An atom is solid if it has 8 or more connections (of a possible 14)
variable is_solid atom c_coord_number>=8
group solid dynamic all var is_solid    # Must be dynamic to update
dynamic group solid defined

# do clustering
compute cluster solid cluster/atom 1.3 # Create a cluster where all atoms within are solid and max 1.3 units from another member

# define chunks one chunk per cluster
compute clus_chunks solid chunk/atom c_cluster nchunk every compress yes  # Says which atoms are in which chunk

# count the size of each chunk
compute size_chunks solid property/chunk clus_chunks count


# Find the maximum entry in the vector of chunk sizes
variable max_n equal max(c_size_chunks)


# Thermo style which includes this variable
# thermo_style custom step temp pe vol v_max_n

thermo ${N}  # Print the thermo information every 100 steps
thermo 1000  

# Reset the npt fix at a lower temperature (below freezing)
fix 1  all npt temp  ${temp} ${temp}  0.1  iso  5.68  5.68  0.5  mtk yes tchain  5  pchain  5
fix 1  all npt temp  0.45 ${temp}  0.1  iso  5.68  5.68  0.5  mtk yes tchain  5  pchain  5
fix 1  all npt temp  0.45 0.45  0.1  iso  5.68  5.68  0.5  mtk yes tchain  5  pchain  5

dump dmp2 all dcd ${N} traj.dcd
dump dmp2 all dcd 1000 traj.dcd


compute msd all msd com yes
variable twopoint equal c_msd[4]/6/(step*dt+1.0e-6)
fix 9 all vector 10 c_msd[4]
variable fit equal slope(f_9)/6/(10*dt)
thermo_style custom step temp pe c_msd[4] v_twopoint v_fit v_max_n

fix 1 all npt temp 1.25 ${temp} 0.1 iso 5.68 5.68 0.5 mtk yes tchain 5 pchain 5
fix 1 all npt temp 1.25 0.45 0.1 iso 5.68 5.68 0.5 mtk yes tchain 5 pchain 5
run 500000 # 5000000  # Run for this many steps
Neighbor list info ...
  update every 1 steps, delay 10 steps, check yes
  max neighbors/atom: 2000, page size: 100000
  master list distance cutoff = 3.8
  ghost atom cutoff = 3.8
  binsize = 1.9, bins = 8 8 8
  4 neighbor lists, perpetual/occasional/extra = 1 3 0
  (1) pair lj/cut, perpetual
      attributes: half, newton on
      pair build: half/bin/atomonly/newton
      stencil: half/bin/3d
      bin: standard
  (2) compute orientorder/atom, occasional
      attributes: full, newton on
      pair build: full/bin/atomonly
      stencil: full/bin/3d
      bin: standard
  (3) compute coord/atom, occasional
      attributes: full, newton on
      pair build: full/bin/atomonly
      stencil: full/bin/3d
      bin: standard
  (4) compute cluster/atom, occasional
      attributes: full, newton on
      pair build: full/bin/atomonly
      stencil: full/bin/3d
      bin: standard
Per MPI rank memory allocation (min/avg/max) = 9.829 | 9.837 | 9.843 Mbytes
Step Temp PotEng c_msd[4] v_twopoint v_fit v_max_n 
   12000     1.261111   -4.1754217            0            0 8.3333333e+20            2 
   13000    1.2483366   -4.0892227   0.83991934 0.0053840981  0.070576945            4 
   14000    1.2394619   -4.1483379    1.7158271  0.010213256  0.072127155            2 
   15000    1.2719556   -4.1908055    2.6088332  0.014493517   0.07260182            2 
   16000    1.2351973   -4.1673593    3.5324152  0.018397995  0.074016166            2 
   17000    1.2472719   -4.1572953    4.3870632  0.021505211  0.074029964            1 
   18000    1.2389905   -4.1585679    5.2606338  0.024354785  0.073881677            3 
   19000    1.2479743   -4.1738753    6.2519112  0.027420663  0.074414437            2 
   20000    1.2384192   -4.1573043    7.2596686  0.030248619  0.075274299            2 
   21000    1.2407709   -4.1731615    8.1624679  0.032390745  0.075941384            2 
   22000    1.2284592   -4.1621537    8.9728077  0.033987907  0.076061582            6 
   23000    1.2455372   -4.1667168    9.7187083  0.035212711  0.075676589            3 
   24000     1.237731   -4.1616287    10.472651  0.036363372  0.074870928            3 
   25000     1.247052   -4.2264366    11.257146  0.037523818  0.074115628            5 
   26000    1.2246398    -4.162168    12.161879  0.038980379  0.073453081            2 
   27000    1.2040847   -4.1854704    12.845368  0.039646195  0.072773398            3 
   28000    1.2046302   -4.2198384    13.693702  0.040755066  0.072076684            1 
   29000    1.2343304   -4.1976942    14.557902  0.041833051  0.071682678            2 
   30000    1.1925554   -4.2094135    15.340493   0.04261248  0.071301518            2 
   31000     1.232651   -4.1885564    16.020015  0.043064556   0.07089983            3 
   32000    1.2347895   -4.2211806      16.9547  0.044152865  0.070494694            4 
   33000    1.1947663   -4.2335214    17.706961  0.044714547  0.070255813            6 
   34000    1.2211341   -4.1849138    18.433812  0.045180911  0.069951027            3 
   35000     1.184694   -4.2184272    19.268706   0.04587787  0.069669578            1 
   36000    1.1954505   -4.1999188    20.088242  0.046500559  0.069456207            1 
   37000    1.2106308   -4.1843626    20.861703  0.046985817  0.069265121            1 
   38000    1.1801788   -4.1950137    21.668708  0.047519095  0.069079705            3 
   39000    1.2280486   -4.2068277    22.677337  0.048455848  0.068974999            2 
   40000    1.1889544   -4.2140552    23.498593  0.048955401  0.068969178            4 
   41000    1.1996816   -4.2240418    24.267246  0.049323671  0.068942803            3 
   42000    1.2196779   -4.2392152    25.026473  0.049655699  0.068870701            5 
   43000    1.2008602   -4.2607126    25.852718  0.050102166  0.068806607            3 
   44000    1.1807669   -4.2527736    26.741343  0.050646482   0.06878408            2 
   45000    1.2019195   -4.2387692    27.473001  0.050875928  0.068777478            1 
   46000    1.1881991   -4.2293613    28.379256  0.051411694  0.068755905            2 
   47000    1.1960222    -4.230075    29.100526  0.051596677  0.068698127            4 
   48000    1.1724098    -4.271848    29.491035  0.051199714  0.068564765            4 
   49000    1.2062806    -4.246667    30.386428  0.051677598  0.068425076            1 
   50000    1.1974774   -4.2292617    31.154622   0.05192437  0.068287233            1 
   51000    1.1765318   -4.2339461    31.799453   0.05195989  0.068123736            2 
   52000    1.1985184   -4.2127221    32.810426  0.052580811  0.067961991            3 
   53000    1.1989682   -4.2708223    33.234734   0.05225587  0.067807553            3 
   54000    1.1854547   -4.2272169    34.123165  0.052659205  0.067629114            2 
   55000    1.2178334   -4.2652354    34.985915  0.053008962  0.067496809            2 
   56000    1.1840508   -4.2789663     35.75393  0.053205253  0.067392637            4 
   57000    1.1807127   -4.2585125    36.781766  0.053774511  0.067337007            1 
   58000    1.1845461   -4.2614607    37.606864  0.054032849  0.067304256            2 
   59000    1.1619551   -4.2926666    38.152765  0.053888086  0.067242166            4 
   60000    1.1825923   -4.2745693    38.903721  0.054032946  0.067172197            2 
   61000    1.1594992   -4.2715684    39.940005  0.054562847  0.067103879            2 
   62000    1.1561473   -4.2988314    40.723202  0.054735486  0.067055699            2 
   63000    1.1766122   -4.2888194     41.49108  0.054882381  0.067024413            2 
   64000    1.1546028   -4.2700253    42.166123  0.054903805   0.06697658            2 
   65000    1.1641642   -4.3027494    42.741104  0.054796287  0.066891523            5 
   66000    1.1312092   -4.3109754    43.412488  0.054813747   0.06681842            5 
   67000    1.1468906    -4.309551    44.130106  0.054888191  0.066727223            3 
   68000    1.1401367   -4.2862403    44.946426  0.055081404  0.066614262            3 
   69000    1.1641951   -4.2989527    45.702894  0.055196731   0.06650758            2 
   70000    1.1561225   -4.2542694    46.500697  0.055357972   0.06640521            5 
   71000    1.1650668   -4.2969939    47.457858  0.055701711  0.066335787            2 
   72000    1.1696495   -4.2938461    47.811667  0.055337577  0.066253389            3 
   73000    1.1462881   -4.3106555    48.188066  0.055009207  0.066147357            1 
   74000    1.1644071   -4.2989439    49.263181  0.055476555  0.066031138            2 
   75000     1.146813   -4.3640665    49.642267  0.055158074  0.065908892            3 
   76000    1.1348826   -4.3243544    50.529718  0.055405393  0.065785918            5 
   77000    1.1569881   -4.3044265    51.137474  0.055343587  0.065654834            2 
   78000    1.1425869   -4.3044101    51.554859  0.055079977  0.065496024            4 
   79000    1.1466817   -4.3605626    51.960701  0.054810865  0.065324381            3 
   80000    1.1510909   -4.3306314     52.81292  0.055013458  0.065148741            2 
   81000    1.1262518   -4.3556488     53.46613  0.055006307  0.064978616            2 
   82000    1.1510815   -4.3556358    54.146625  0.055027057  0.064817439            2 
   83000    1.1595371   -4.3373423    54.638236  0.054857666  0.064666739            1 
   84000    1.1426704   -4.3354888    55.651709  0.055210028  0.064516453            1 
   85000    1.1158602     -4.35333    56.137215  0.055036485  0.064377781            2 
   86000    1.1213505   -4.3527358    56.469879  0.054718874  0.064225174            1 
   87000    1.1374278   -4.3338245    57.310735  0.054895339  0.064071345            3 
   88000    1.1232193   -4.3581383    58.065884  0.054986633    0.0639285            3 
   89000    1.1259016   -4.3636869    59.011375  0.055254096  0.063789342            2 
   90000    1.1369301   -4.3460532    59.537702  0.055127502  0.063649648            1 
   91000    1.1365482   -4.3353445    60.195062  0.055123683  0.063516708            3 
   92000    1.1177991    -4.348522    60.987251  0.055242075  0.063402679            2 
   93000    1.1242995   -4.3940601    61.477256  0.055087147  0.063286681            2 
   94000    1.1126491   -4.3598731    62.159372  0.055105826  0.063161439            2 
   95000    1.1212538   -4.3705759     62.53223  0.054852833  0.063027345            3 
   96000    1.1353283   -4.3720722    63.263165  0.054915941  0.062878375            2 
   97000    1.0979653   -4.3819605    63.966283  0.054953851  0.062747062            3 
   98000    1.1094881   -4.3634489    64.883873  0.055173361  0.062627632            6 
   99000    1.1101507   -4.3767246    65.519127   0.05515078   0.06250164            3 
  100000    1.1068795   -4.4154467    65.999711  0.054999759  0.062391659            2 
  101000    1.1090284   -4.3750703    66.810104  0.055123848  0.062287339            2 
  102000    1.0890792   -4.3657164    67.301981  0.054985278  0.062168089            3 
  103000    1.0803523   -4.4124733     67.49514  0.054607718  0.062051909            6 
  104000    1.0833762   -4.3760611    68.327383  0.054749506  0.061926027            2 
  105000    1.0803524   -4.3736376    69.061799  0.054810952  0.061803852            2 
  106000      1.11765   -4.3851465    70.102326  0.055111892   0.06169353            2 
  107000    1.0937073   -4.4132324    70.403353  0.054831271  0.061583724            2 
  108000    1.0872455   -4.3963604    71.240472    0.0549695  0.061477473            2 
  109000    1.0649934   -4.3800354    72.249023  0.055236256   0.06138445            3 
  110000    1.1007161   -4.4248105    72.370057    0.0548258  0.061284838            3 
  111000    1.0906306   -4.4252625    73.197979  0.054953437  0.061185328            4 
  112000    1.0839419   -4.4296968    73.798168  0.054909351  0.061094215            4 
  113000     1.102488   -4.4358957    74.444872  0.054900348  0.061000797            3 
  114000    1.0892427   -4.4030817    75.278644  0.055028248  0.060910922            2 
  115000    1.0888286   -4.4323353    75.737509  0.054882252  0.060823826            7 
  116000     1.080003   -4.4547053    75.979326  0.054582849  0.060731271            2 
  117000    1.0899798   -4.4318713    76.518086  0.054500061  0.060629781            4 
  118000    1.0829891   -4.3949581    77.133317  0.054472681  0.060516511            2 
  119000    1.0991409   -4.4443251    77.742656  0.054441636  0.060403172            2 
  120000    1.0569181   -4.4358681    78.549467  0.054548241  0.060294687            3 
  121000    1.0888332   -4.4203137    79.273941  0.054596378  0.060197327            2 
  122000    1.0509125    -4.452235    79.552984   0.05433947  0.060099373            2 
  123000    1.0751452    -4.429645    80.421674  0.054486228  0.059999441            4 
  124000    1.0480542    -4.444326    80.781422   0.05428859  0.059892713            4 
  125000    1.0863601   -4.4703881    81.058435  0.054038957  0.059781959            6 
  126000    1.0577396   -4.4248667    81.855637  0.054137326   0.05967135            2 
  127000     1.063292   -4.4432279    82.339903  0.054028808  0.059564795            2 
  128000    1.0854015   -4.4716957    82.997111  0.054034577  0.059460185            4 
  129000    1.0714323   -4.4484006    83.499145  0.053940016  0.059351443            2 
  130000    1.0546327    -4.465278    83.604623  0.053592707  0.059233615            2 
  131000    1.0749017   -4.4560765    84.703635  0.053882719  0.059118851            2 
  132000    1.0774613   -4.4688742    85.462371  0.053953517   0.05900719            4 
  133000     1.045483   -4.4798076    85.817978  0.053770662  0.058896805            2 
  134000    1.0486951   -4.4775906    86.373057  0.053714588  0.058789067            3 
  135000    1.0448992   -4.4860923    86.630038  0.053475332  0.058679085            4 
  136000    1.0328062   -4.4918682    87.431279  0.053573087  0.058568612            4 
  137000    1.0347803   -4.4648228    87.790339  0.053400449  0.058456442            3 
  138000    1.0640468   -4.4974665    87.972263  0.053123347  0.058340171            3 
  139000    1.0708425   -4.4986876    88.636147  0.053139177  0.058220393            5 
  140000    1.0507273   -4.4786852    89.336205  0.053176313  0.058101244            3 
  141000    1.0391828   -4.5138601    90.281778  0.053358025  0.057993608            3 
  142000    1.0251427   -4.5149265    90.305385  0.052996118  0.057885603            1 
  143000    1.0516484   -4.5168769    91.130118  0.053106129  0.057778571            2 
  144000    1.0434209   -4.5179226    91.438502    0.0529158  0.057671689            3 
  145000    1.0418704   -4.5116511    92.128457  0.052947389  0.057564549            3 
  146000    1.0217277   -4.4814925    92.871244    0.0530087  0.057460631            4 
  147000    1.0256139   -4.4817279    93.462542    0.0529833   0.05735383            2 
  148000    1.0457964   -4.5387021    93.433982  0.052609224   0.05725045            3 
  149000    1.0197822   -4.5114639    94.236657  0.052705065  0.057139811            5 
  150000    1.0261511   -4.5193106    94.838518  0.052688065  0.057031261            2 
  151000     1.021931   -4.4962427    95.853673  0.052899378  0.056928059            1 
  152000    1.0353151   -4.5361475    95.880782  0.052566218  0.056820132            3 
  153000    1.0299869    -4.532367     95.74255  0.052147358  0.056707627            4 
  154000    1.0417738   -4.4973055    96.314781  0.052118388  0.056589517            4 
  155000    1.0413575   -4.5657071    96.407564  0.051832024   0.05647069            7 
  156000     1.025404   -4.5372625    97.204561  0.051925513  0.056352356            3 
  157000    1.0274727   -4.5372923    97.777796  0.051899042  0.056231532            1 
  158000    1.0072228   -4.5290416    98.613718  0.052011454  0.056117109            3 
  159000    1.0015569   -4.5459776     98.88007  0.051823936  0.056006423            2 
  160000    1.0480081   -4.5669223    99.117081   0.05162348  0.055897561            9 
  161000     1.011135    -4.540356    99.775932  0.051643857  0.055786573            4 
  162000   0.99250131   -4.5550576     100.6332  0.051766047  0.055678318            1 
  163000    1.0038902   -4.5519496    101.15729  0.051716405  0.055570236            3 
  164000    1.0059203   -4.5295077     101.3302  0.051488924  0.055461755            2 
  165000   0.99171046   -4.5497584    101.90282  0.051466069  0.055350416            4 
  166000   0.99173479   -4.5329332     102.2832  0.051346988  0.055241128            5 
  167000    1.0263215   -4.5688048    102.93053  0.051362542  0.055133516            3 
  168000    1.0084558   -4.5681007     103.2766  0.051228474  0.055023774            2 
  169000    1.0012547   -4.5595908    103.56381  0.051066969  0.054911707            1 
  170000    1.0031156   -4.5894549    103.96557  0.050963515   0.05479898            6 
  171000   0.99374126   -4.5724887    104.85293   0.05109792  0.054693274            4 
  172000   0.99781271   -4.5692341    105.21885  0.050978125  0.054588734            6 
  173000   0.99700548   -4.6163411    105.57186  0.050853497  0.054480955            2 
  174000   0.98075493   -4.5919503    106.00969  0.050770925  0.054370804            5 
  175000   0.98087916   -4.5508833     106.6284  0.050775426  0.054258621            5 
  176000   0.97021249   -4.5729932     107.3618  0.050834186  0.054149025            2 
  177000   0.99359572   -4.5679902    107.11701  0.050431736   0.05403836            2 
  178000   0.99727844   -4.6045529    107.49258   0.05032424  0.053926696            3 
  179000   0.98800099    -4.587218    108.16272  0.050355084  0.053818429            4 
  180000   0.98397179   -4.6162161    108.31197   0.05014443  0.053703848            2 
  181000   0.95958401   -4.6525133    108.27507  0.049850398  0.053588811            3 
  182000   0.96221171   -4.6335829    109.17981  0.049990755  0.053474915            2 
  183000   0.96570071   -4.6013039    109.38292  0.049810074  0.053360179            2 
  184000   0.95780627   -4.6679676     109.6901  0.049678489  0.053245809            1 
  185000   0.96091657   -4.5735073    110.71933  0.049873574  0.053135026            3 
  186000   0.96576489    -4.629101    110.79098  0.049637536  0.053023039            4 
  187000   0.95433389   -4.6306334    111.27193  0.049586421  0.052908747            3 
  188000   0.97067651   -4.6266274    111.70945  0.049516599  0.052795117            3 
  189000   0.95851355     -4.64653    111.85964   0.04932083  0.052681861            5 
  190000   0.96325335   -4.6288835     112.5797   0.04937706  0.052570082            3 
  191000   0.96442114   -4.6677011     112.7153  0.049177705  0.052460545            3 
  192000   0.95947973   -4.5958513    113.98855  0.049474196  0.052354016            4 
  193000   0.95921688   -4.6484033    114.05538   0.04924671  0.052250107            1 
  194000   0.96836657   -4.6280166    114.45408  0.049164126  0.052145349            2 
  195000   0.96413214   -4.6796661    114.47632  0.048921503  0.052037617            4 
  196000   0.97133307   -4.6453113    115.70438  0.049194038  0.051928733            5 
  197000   0.94100399   -4.6791641    115.05009  0.048667552  0.051819471            3 
  198000   0.96435139   -4.6658983    115.59987  0.048653145  0.051706109            4 
  199000   0.97276303   -4.6609046    116.12668  0.048629264  0.051595571            3 
  200000   0.95823312   -4.6522245    116.16495  0.048402061   0.05148504            2 
  201000   0.93370942   -4.6872765    116.57065  0.048329457  0.051373487            4 
  202000   0.96910125   -4.6657666    117.44155  0.048449482  0.051264652            3 
  203000   0.93695168    -4.675114    117.76113  0.048342008  0.051156641            4 
  204000   0.94749055   -4.6867165    117.71471  0.048086074  0.051046604            6 
  205000   0.94325284   -4.6820574    118.44416  0.048148032  0.050937891            2 
  206000   0.93335391   -4.6853973    119.01133  0.048143741   0.05082818            6 
  207000   0.93680697   -4.6947535    118.65892   0.04776929  0.050722834            2 
  208000   0.93848407   -4.7020428    119.49121  0.047873082  0.050617807           10 
  209000   0.92425262   -4.6910043    120.25923   0.04795025  0.050512576            3 
  210000    0.9496303   -4.6751168    120.98045  0.048008117  0.050410299            2 
  211000   0.94170215   -4.6902722    120.94245   0.04776558  0.050308576            4 
  212000   0.93618115   -4.6864256     121.7202  0.047845989  0.050209057            4 
  213000   0.93235469   -4.6660313    121.85927   0.04767577  0.050106596            3 
  214000   0.91633038   -4.7062062    122.31614  0.047630895  0.050006506            3 
  215000   0.92972514   -4.7034979    121.93767  0.047262662  0.049905413            4 
  216000   0.91556762   -4.7077787    122.68196  0.047331002  0.049803181            3 
  217000   0.92731312    -4.713101    122.94296  0.047213119  0.049699984            4 
  218000   0.93541261   -4.6787179    123.75275  0.047306098  0.049597382            4 
  219000   0.90906353   -4.7184724    123.72068  0.047077883  0.049496511            3 
  220000   0.91550343   -4.7262448    123.69387   0.04685374  0.049394346            8 
  221000   0.90981149   -4.7389672    124.26155  0.046855788   0.04929224            3 
  222000   0.90255265    -4.723693    124.71143  0.046813601   0.04919205            4 
  223000   0.91549086    -4.708116    125.40044  0.046861151  0.049091675            5 
  224000   0.91041711   -4.7305968    125.64558  0.046743148  0.048989116            6 
  225000   0.93044389   -4.7355324    125.99733  0.046665676  0.048887436            4 
  226000   0.91768773   -4.7187541     127.0421  0.046844434  0.048788669            5 
  227000   0.91014646   -4.7524976    127.02724  0.046632615  0.048690925            3 
  228000    0.9065419   -4.7494049    126.89746   0.04638065  0.048594374            4 
  229000   0.91348279   -4.7255057    127.79943  0.046506342  0.048498983            3 
  230000   0.91228992   -4.7695612    127.80906   0.04630763  0.048403209            3 
  231000   0.92253334   -4.7559092    128.13056  0.046223145  0.048306648            3 
  232000   0.88807832   -4.7980081    128.53436  0.046168953  0.048208227            7 
  233000   0.89164154   -4.7600123    128.78373   0.04605999  0.048110181            8 
  234000     0.916506   -4.7651882    128.79779  0.045868157  0.048010815            5 
  235000    0.8820957   -4.7496309    129.29879  0.045850635  0.047911166            4 
  236000   0.88824289   -4.7483886    129.69883   0.04579761   0.04781409            6 
  237000   0.89352346    -4.785344    129.86525  0.045662888  0.047713828            5 
  238000   0.89493321   -4.8013603    130.57539  0.045719673  0.047615359            5 
  239000   0.88456517   -4.7667817    131.05832  0.045696763  0.047519565            5 
  240000   0.89595745   -4.7810104    131.55519  0.045678884  0.047424277            5 
  241000   0.88884809   -4.8030052    131.62671  0.045514076  0.047330764           11 
  242000   0.87978731     -4.81421    132.33017   0.04556824    0.0472379            3 
  243000   0.89222978   -4.8151054    132.25775  0.045355882   0.04714511            4 
  244000   0.86068598   -4.8161006    132.76321  0.045342625  0.047051519            3 
  245000     0.870963   -4.8070574    133.79931  0.045509968  0.046960997            2 
  246000   0.87519702   -4.8091515    134.14329  0.045441495  0.046871905            7 
  247000   0.87753212   -4.8252111    134.00733   0.04521165  0.046784837            2 
  248000   0.88478071   -4.8434157    134.23941  0.045107328  0.046695333            3 
  249000   0.86821546   -4.8343643      134.848  0.045129854  0.046606234            3 
  250000   0.86851786   -4.8211708    135.46801  0.045156004   0.04651858            5 
  251000    0.8841819   -4.8014507    135.74419  0.045067792  0.046432453            2 
  252000   0.86186893   -4.8343452    135.99045  0.044970388  0.046346656            6 
  253000   0.86560134   -4.8356838    136.27056  0.044884902   0.04626036            5 
  254000   0.86244986   -4.8155458    136.69357  0.044846971  0.046173283            4 
  255000   0.84986273   -4.8193486    136.82505  0.044714068  0.046086588            5 
  256000   0.88243522   -4.8138222    137.20687  0.044663695  0.046000505            4 
  257000   0.86205776   -4.8222457    137.65869  0.044636412  0.045913794            3 
  258000   0.83860757   -4.8336856    138.14129  0.044619279   0.04582875            3 
  259000   0.85295783   -4.8426725    138.58309  0.044589155  0.045742863            8 
  260000   0.85471885   -4.8435593    138.65377   0.04444031  0.045657375            9 
  261000   0.84824003    -4.853645    138.09969  0.044093131    0.0455691            4 
  262000   0.85934689   -4.8643572    138.71382  0.044120171  0.045481292            2 
  263000    0.8376883   -4.8705363    138.79495   0.04397812  0.045393838            6 
  264000   0.84023376   -4.8295122    139.20569  0.043941191  0.045304299            3 
  265000   0.85296451   -4.8750257    139.25669  0.043791411  0.045216103            3 
  266000   0.84472966   -4.8753165    138.66788  0.043442319  0.045124303            5 
  267000   0.82977774   -4.8780125    139.73896  0.043613908   0.04503226            4 
  268000   0.84278967   -4.8827852    140.63727  0.043730495   0.04494081            2 
  269000   0.84671341   -4.8727776    140.59184  0.043553853  0.044851972            3 
  270000   0.86468121   -4.8664386    140.53704  0.043375628  0.044763909            3 
  271000   0.84908219   -4.8770968    141.57466  0.043534643  0.044676118            7 
  272000   0.84402096   -4.9369395     141.1734  0.043251654  0.044588204            3 
  273000     0.807254   -4.8951169    141.62953  0.043232459  0.044499011            3 
  274000   0.81721993   -4.8843407    141.71367  0.043100264  0.044408532            4 
  275000    0.8315312   -4.8973316     141.8798  0.042993879   0.04431778            5 
  276000   0.83207155   -4.9092163    141.85773  0.042831439  0.044226852            7 
  277000   0.82901264   -4.9410588    142.32056  0.042816053  0.044135201            7 
  278000   0.81968219   -4.9030664     142.5021  0.042716457  0.044042175            4 
  279000   0.83331564   -4.8872856    143.11174  0.042745442  0.043951714            4 
  280000   0.82547326   -4.9276645    142.62439  0.042447736  0.043861287            5 
  281000    0.8230006   -4.9110282    143.01046  0.042411169  0.043770597            6 
  282000   0.80095482   -4.8904003    144.02334  0.042560089  0.043680503            6 
  283000   0.81913828   -4.9326566    143.30662   0.04219865  0.043590128            3 
  284000   0.80000003   -4.9367862    143.29737  0.042047351  0.043499163            4 
  285000   0.82136748   -4.9283009    144.04381  0.042118073  0.043407213            7 
  286000    0.8153531   -4.9596167    143.79837  0.041899292  0.043315485            7 
  287000   0.79216067   -4.9188421    144.32153  0.041905206   0.04322304            3 
  288000    0.8007338    -4.923635    144.08036  0.041689919  0.043131112            5 
  289000   0.79515949   -4.9297128    144.89241  0.041779817  0.043038842            8 
  290000   0.81032725   -4.9276716    145.27441  0.041745519  0.042947409            7 
  291000   0.78690101   -4.9717033    145.65452  0.041710917  0.042856925            4 
  292000   0.81217177   -4.9406877    145.86556  0.041628299  0.042766861            3 
  293000   0.79805158   -4.9499159    145.86085  0.041484884  0.042676538            6 
  294000   0.80491943   -4.9401582    145.85066   0.04134089  0.042585083            3 
  295000   0.79354402   -4.9283676    146.12983  0.041279612  0.042493189            7 
  296000   0.77102294   -4.9588746    146.28131    0.0411828  0.042401631            5 
  297000   0.77911509   -4.9564469    146.72874  0.041169679  0.042308633            7 
  298000   0.79539675   -4.9359697    146.87598  0.041072701  0.042216014            4 
  299000   0.77933364   -4.9726464    146.98198  0.040964878  0.042125298            7 
  300000     0.802075   -4.9972456    147.16124  0.040878121  0.042033273            9 
  301000   0.79315915   -4.9920395    147.10959  0.040728016  0.041941464            9 
  302000   0.76421919   -4.9549724    147.53474  0.040710468   0.04185039            7 
  303000    0.7954823   -4.9819423    147.73131  0.040630172  0.041758242            7 
  304000   0.76799406   -4.9781635    147.63775  0.040470875  0.041666229            7 
  305000   0.79189459   -5.0140896    147.92207  0.040415866   0.04157516            6 
  306000   0.77161283   -5.0068785     148.4972  0.040440414  0.041484305            5 
  307000   0.76861049   -4.9806278    148.82478  0.040397605  0.041393941           19 
  308000   0.77194997   -5.0206054    148.69195  0.040230507  0.041302822            4 
  309000   0.75673556   -5.0076303    148.92926  0.040164309  0.041211665            4 
  310000   0.76576535    -5.006621    148.99002   0.04005108  0.041121296            8 
  311000   0.77243003   -5.0367381     148.8978  0.039897588  0.041029631            5 
  312000   0.78177744   -5.0264536    148.87649   0.03976402  0.040937607            4 
  313000   0.77533973    -5.010193     149.3441  0.039761475  0.040845518           11 
  314000   0.75691946   -5.0288766     149.4615  0.039666002  0.040753692           10 
  315000   0.75851257   -5.0258376    150.17343   0.03972842  0.040662009            6 
  316000   0.76196737   -5.0365168    149.79401   0.03950264  0.040571374            9 
  317000   0.76308433   -5.0026745    150.38107  0.039532352  0.040481692            5 
  318000   0.77859644   -5.0455648    150.27163  0.039379358  0.040390528            8 
  319000   0.73717959   -5.0129105     150.0976  0.039210449   0.04029886            5 
  320000   0.75903255   -5.0411865    150.65766  0.039233767  0.040207646            5 
  321000   0.77405239   -5.0430851    150.81039  0.039151191  0.040117471            4 
  322000   0.74073497   -5.0758477    151.25194  0.039143876  0.040027617            6 
  323000   0.74201832   -5.0444229    151.27293  0.039028102  0.039936475            7 
  324000   0.74654042   -5.0607946    151.23818   0.03889871  0.039846853            5 
  325000   0.74425639   -5.0501757    152.14622  0.039011852   0.03975705            7 
  326000   0.76354668   -5.0670901    151.19391   0.03864875  0.039668204            7 
  327000   0.74411209   -5.0591202    151.91762  0.038714991  0.039578106            5 
  328000   0.74864299     -5.04831    152.08624  0.038639796   0.03948957            5 
  329000   0.73279022   -5.0714971    152.06759  0.038517627  0.039400431            6 
  330000   0.73793188   -5.0831573    151.84556  0.038344839  0.039310713           10 
  331000   0.74366795   -5.0736013    152.03984  0.038277905  0.039221409            4 
  332000   0.74899164   -5.1014848    152.11354   0.03818111  0.039131084           14 
  333000   0.72657731   -5.1194667     152.3933  0.038136463  0.039040412           11 
  334000   0.75166423   -5.0728379    153.17777  0.038218007  0.038950326            9 
  335000   0.72902705   -5.0991401    152.90055  0.038034962  0.038861629           16 
  336000   0.74626666   -5.1129971    152.76778  0.037888834  0.038772972            5 
  337000   0.73920916   -5.0639095    153.86363  0.038047386  0.038685202            5 
  338000    0.7252396   -5.1036482     153.3709  0.037813339  0.038597014           10 
  339000   0.73243054   -5.1055703    153.21806  0.037664224  0.038507959           10 
  340000   0.72726375   -5.1108857    153.43455  0.037606508  0.038418738            7 
  341000   0.71255029   -5.1218321    153.91944   0.03761472  0.038330113            5 
  342000   0.73586737   -5.1264651    153.87407  0.037493681  0.038241142            7 
  343000     0.717288   -5.1076267    154.10472  0.037440408  0.038152665            7 
  344000   0.71514575   -5.1350135    153.72118  0.037238659  0.038063981           10 
  345000   0.72295035   -5.1197371    154.38495   0.03729105  0.037975089            5 
  346000   0.73461461   -5.1355732    154.18828  0.037135905  0.037885478            9 
  347000   0.71440058   -5.1393587    153.64454  0.036898305  0.037796155            4 
  348000   0.70743566   -5.1472667    153.73287  0.036813426  0.037706758           12 
  349000   0.72419412   -5.1142194    154.18444  0.036815768  0.037617315           12 
  350000    0.7226789   -5.1188039    154.17811  0.036709074  0.037527627           10 
  351000   0.70784096   -5.1299357    154.36891   0.03664979   0.03743766            9 
  352000   0.69309739   -5.1341741    154.78445  0.036644047  0.037347811           15 
  353000   0.71286008   -5.1636853    154.60524  0.036497931  0.037257237           14 
  354000   0.69920921   -5.1740616    154.37565  0.036340785  0.037167496            7 
  355000   0.70576368   -5.1565546    154.85249  0.036350349  0.037078029           12 
  356000   0.68413058   -5.1583856    155.23714  0.036338282  0.036988835           11 
  357000    0.7083291   -5.1967192    154.89985  0.036157761  0.036900942            6 
  358000   0.69776825   -5.1639167    155.65535  0.036232623  0.036812817           17 
  359000   0.69975333   -5.1680987    155.65989  0.036132751   0.03672479            8 
  360000   0.70095058   -5.1842445    155.53515  0.036003507  0.036637033            9 
  361000   0.68339269   -5.2124507    155.00963  0.035782463  0.036548858            7 
  362000   0.69312511   -5.1959782    155.32595  0.035756433  0.036460012           10 
  363000   0.70242592   -5.1696002    156.23328  0.035866227  0.036372769            6 
  364000    0.6938569   -5.2059923     155.3485  0.035565132  0.036284355            6 
  365000   0.68291976   -5.2021195    155.85769  0.035583948    0.0361953            5 
  366000   0.68309951   -5.1877836     155.9459  0.035506808  0.036106573            5 
  367000   0.68421555   -5.1927442    156.00134  0.035422648  0.036018272           16 
  368000   0.68491599   -5.2157833    156.10126  0.035349017  0.035929836           10 
  369000   0.67428176   -5.2091501    156.02719  0.035236492  0.035841245            6 
  370000   0.68793679   -5.2049322     156.0755   0.03515214  0.035752167           10 
  371000   0.68670473   -5.2302477    155.45091  0.034917096  0.035663238           23 
  372000   0.66807764    -5.205344    155.63335  0.034864102  0.035574193            4 
  373000   0.66200308   -5.2308713    156.17253  0.034891092  0.035485256            5 
  374000   0.67616168   -5.2093978     155.8653  0.034729345  0.035396189            8 
  375000   0.67125581   -5.2212198    156.06314  0.034680698  0.035307655            8 
  376000   0.66665619   -5.2537957    156.16711  0.034611504  0.035219371            9 
  377000    0.6608869   -5.2447942    156.24656   0.03453726  0.035131167            7 
  378000   0.66161326   -5.2652027    155.83501  0.034355162  0.035042653            5 
  379000   0.64537623   -5.2549368    156.23486  0.034352432  0.034954051           12 
  380000    0.6780816   -5.2519933    156.21277  0.034257187  0.034866331           10 
  381000   0.66162145   -5.2465967    156.94857  0.034328209  0.034778735           11 
  382000   0.65773634   -5.2557992    156.66624  0.034176754  0.034691131           11 
  383000   0.66256369   -5.2581459    157.22368  0.034208807  0.034604295            6 
  384000   0.64251466    -5.281359    156.84731  0.034038045  0.034517135           16 
  385000   0.66541139   -5.2741553    156.90136  0.033961333  0.034430138           11 
  386000   0.63652648   -5.2773693     157.0605  0.033907707  0.034343804           10 
  387000   0.65163872   -5.2841261    157.22858  0.033856283  0.034257416           10 
  388000   0.63970868    -5.269864    157.22823   0.03376895   0.03417131           14 
  389000   0.65754054    -5.305369    156.88975   0.03360963  0.034085493           14 
  390000   0.63423991    -5.283206    157.62178  0.033679867  0.033999716            7 
  391000   0.64855309   -5.2856467    157.80765  0.033633345  0.033914228            7 
  392000   0.63616871   -5.2926407    157.53621  0.033489841  0.033829133            6 
  393000   0.62893327   -5.2974456    157.33258  0.033361445  0.033744143           26 
  394000   0.64471589   -5.2890555    157.69288  0.033352978   0.03365936           22 
  395000   0.64571788   -5.2817307    157.59023  0.033246883   0.03357423           12 
  396000   0.64017514   -5.3091805    157.78717   0.03320437    0.0334897           11 
  397000   0.63134347   -5.3043553    157.51811  0.033064255  0.033404648           22 
  398000   0.62830908   -5.3196997    157.89043  0.033059136  0.033320013           13 
  399000   0.62151714   -5.2893592    157.85292  0.032968446  0.033235381           13 
  400000   0.61936089   -5.3278099    157.94775  0.032905782  0.033151285           10 
  401000   0.64058367   -5.3566966     157.5641  0.032743995  0.033067027           11 
  402000   0.62716449   -5.3405819    157.93351  0.032739119  0.032982926           16 
  403000   0.62708569   -5.3421689    158.56658  0.032788789  0.032898862           22 
  404000   0.60987725   -5.3404081     157.9733  0.032585251  0.032815202           11 
  405000   0.62236123   -5.3295482    157.62073  0.032432248   0.03273141           10 
  406000   0.61070412    -5.365544    158.01564  0.032433424  0.032647348           15 
  407000   0.62858984   -5.3722138    158.07181  0.032365236  0.032563223           12 
  408000   0.61756744    -5.329433    158.28095  0.032328624  0.032479744           13 
  409000   0.61427511   -5.3536715    158.12114   0.03221702  0.032396245           20 
  410000   0.61793521   -5.3628731    158.11256    0.0321367  0.032312477           11 
  411000   0.61161991   -5.3841675    158.22996  0.032082312  0.032228536           23 
  412000   0.61153876   -5.3552487    158.33729  0.032026152  0.032145006           16 
  413000   0.61132431   -5.3809913    158.16271   0.03191338  0.032061463           10 
  414000   0.60100207   -5.3833347    158.19416  0.031842624  0.031977808           31 
  415000   0.59861093   -5.3862514    158.29265  0.031785672  0.031894799           18 
  416000   0.60298739   -5.3880618    158.03992  0.031658638  0.031812179           24 
  417000   0.59761018   -5.3839423    158.23861  0.031622424  0.031729726           17 
  418000   0.60246036   -5.3876643    158.06342  0.031511846   0.03164694           11 
  419000   0.59880343   -5.3975444    158.04339  0.031432656  0.031564133           16 
  420000   0.57840696   -5.3840599    158.58663  0.031465601  0.031481488           13 
  421000   0.59874382   -5.4172162    157.98516  0.031271805  0.031398531           12 
  422000   0.59757722   -5.4110696    158.15886  0.031232003  0.031315563           21 
  423000   0.59100125    -5.417475    158.35719  0.031197241  0.031233317           10 
  424000   0.58755693   -5.4055963      158.273  0.031107115  0.031150904           16 
  425000   0.59410221   -5.4208864    158.38327  0.031055542  0.031068833           11 
  426000   0.58856526   -5.3974156    158.18039  0.030942956  0.030987098           22 
  427000    0.5958338   -5.4048784     158.1922  0.030872796  0.030905094           17 
  428000   0.57913307   -5.3953877    158.18106  0.030798492  0.030823451           21 
  429000   0.59381649   -5.4212576    158.41023  0.030771218  0.030741811           32 
  430000   0.57140452   -5.4193047    158.29758  0.030677825  0.030660203           19 
  431000   0.57044602   -5.4353183    158.09803  0.030568064  0.030579027           11 
  432000   0.57741333   -5.4512367    158.04832  0.030487715  0.030497434           19 
  433000   0.57780133   -5.4451485    157.80024  0.030369561  0.030416039           30 
  434000   0.57398338   -5.4258955    158.01922  0.030341633  0.030334735           17 
  435000   0.57603649    -5.441971    158.06281  0.030280232  0.030253289           62 
  436000   0.56309458   -5.4699233    157.86864   0.03017367  0.030171894           38 
  437000   0.57272593   -5.4468205    157.84012  0.030099184  0.030090767           38 
  438000   0.56383594   -5.4589146    157.98522  0.030058072  0.030009839           27 
  439000   0.57058257   -5.4578227    158.01489  0.029995234  0.029929525           20 
  440000   0.56985206   -5.4426361    157.99852  0.029923962   0.02984942           28 
  441000   0.55126673   -5.4577458    158.30123   0.02991331  0.029768883           31 
  442000   0.57207602    -5.477262    158.10731  0.029809071  0.029688544           22 
  443000   0.57539625   -5.4894429    158.49181   0.02981411  0.029608574           28 
  444000   0.56584642    -5.486314    158.01794  0.029658023  0.029528846           12 
  445000   0.55800342   -5.4919364    158.26113  0.029636916  0.029449104           18 
  446000   0.54821373    -5.502523    158.07412  0.029535523  0.029369483           40 
  447000   0.55508973   -5.4876022     158.1788  0.029488963  0.029290002           21 
  448000   0.54370235   -5.4963806    158.42952  0.029469777  0.029210586           26 
  449000   0.54461759   -5.5145482     158.1726  0.029356458  0.029131654           16 
  450000   0.55244309   -5.4978056    158.20109  0.029296499  0.029052779           10 
  451000   0.55355364    -5.503834     158.2847  0.029246988  0.028974299           18 
  452000   0.55051579   -5.5076395    158.14752  0.029156991  0.028896038           23 
  453000   0.55019271   -5.5017122    158.09105   0.02908224  0.028817675           21 
  454000   0.54140959   -5.5176365    158.06694  0.029013755  0.028739488           17 
  455000    0.5442112   -5.5212196    158.37235  0.029005925  0.028661531           27 
  456000   0.53661918   -5.5219254    158.24427  0.028918909  0.028583684           31 
  457000   0.54635931   -5.5113534    158.43251  0.028889954  0.028506466           21 
  458000   0.53156612   -5.4944685    158.35802  0.028813323  0.028429288           22 
  459000   0.53818621   -5.5313554    157.64941  0.028621898   0.02835163           38 
  460000   0.53172975   -5.5322188    158.43421   0.02870185  0.028274364           34 
  461000   0.53410178   -5.5215788     158.0356  0.028567535  0.028197329           47 
  462000   0.51610143   -5.5362199     158.0092  0.028500938  0.028120502           72 
  463000   0.52818594   -5.5438474    157.85539  0.028411697   0.02804386           30 
  464000   0.51803974   -5.5287708    158.49442  0.028465234  0.027967342           88 
  465000   0.52502725   -5.5500951    158.00728  0.028316717  0.027891012           99 
  466000   0.52776213   -5.5608768    158.12368  0.028276767  0.027814856           75 
  467000   0.52581426   -5.5681711     158.2972  0.028247181  0.027738887          112 
  468000   0.52502221   -5.5474242    157.89324  0.028114893  0.027662908          106 
  469000   0.51985454   -5.5841241    158.02613  0.028078558  0.027587214           78 
  470000   0.50461406   -5.5793144    158.31915  0.028070772  0.027511791          100 
  471000   0.52614674   -5.5615361    158.00411  0.027955434  0.027436554           69 
  472000   0.51546791   -5.5818004    158.13916  0.027920049  0.027361384          124 
  473000   0.50651418    -5.592514    157.91682   0.02782185  0.027286264           90 
  474000   0.51995831    -5.585672    158.14263  0.027802853  0.027211389           50 
  475000   0.49543216   -5.5967567    157.91432  0.027704267  0.027136418           58 
  476000   0.50674534   -5.5808063    157.83155  0.027631574  0.027061566          114 
  477000   0.49597095   -5.6127723    157.93725  0.027592112  0.026986589          106 
  478000   0.50222099    -5.615073    157.29164  0.027421834  0.026911598           52 
  479000   0.49017237   -5.6251399    157.54022  0.027407832   0.02683685           77 
  480000   0.51072058   -5.6109356    157.65269  0.027370259  0.026762199           89 
  481000   0.50610075   -5.6215638    157.69839  0.027321273  0.026688016           26 
  482000   0.48020594   -5.6347236    157.10642  0.027162244  0.026613731           42 
  483000   0.50073981   -5.6251568    157.47939  0.027170357  0.026539565           72 
  484000   0.49121072   -5.6323289    157.41162  0.027102551  0.026465841           81 
  485000   0.48183431   -5.6373863    157.67614  0.027092121  0.026392146           44 
  486000   0.48681236   -5.6442222    156.91219  0.026905382  0.026318325           74 
  487000   0.49526395   -5.6367886    157.37009   0.02692849  0.026244633           95 
  488000   0.49526123   -5.6311457    157.38298  0.026875509   0.02617135          104 
  489000   0.48294683   -5.6355646    157.37715  0.026819556   0.02609834           88 
  490000   0.48948642   -5.6401141    157.20805  0.026736063  0.026025583           68 
  491000   0.48231166    -5.634696    157.19237   0.02667895  0.025952958          134 
  492000   0.48510066   -5.6572379    157.17208  0.026621288  0.025880459          156 
  493000    0.4941712   -5.6612075    157.41407  0.026608192  0.025808244           84 
  494000   0.48325246   -5.6614074    156.94274  0.026474821   0.02573607           80 
  495000   0.47684909   -5.6583768    157.13607  0.026453885  0.025664091          109 
  496000   0.47352596   -5.6685978      156.977  0.026373825  0.025592128          137 
  497000   0.47590937   -5.6587653    157.11756  0.026344325  0.025520342           90 
  498000   0.47774192   -5.6706667    157.02977  0.026276736  0.025448734          101 
  499000   0.47717279   -5.6901798    156.83477  0.026191511   0.02537739          111 
  500000   0.47289695   -5.6782409    156.55904  0.026093174  0.025305977           78 
  501000   0.47962689   -5.6822827    156.77371  0.026076797  0.025234927          100 
  502000   0.46733981   -5.6862584    156.89364  0.026044761  0.025164091           96 
  503000   0.46136757   -5.6758295    156.83367  0.025983047  0.025093351           55 
  504000   0.46130508    -5.690893    156.58229  0.025889929  0.025022731           72 
  505000   0.45918104   -5.6908474    156.79299  0.025873431  0.024952298          124 
  506000    0.4565029   -5.6867368    156.50042  0.025774113  0.024882015           97 
  507000   0.45280406   -5.7264741    156.68283   0.02575326  0.024811829          120 
  508000   0.46082069   -5.6944583    156.57794  0.025685357  0.024741888          129 
  509000   0.44547045   -5.7002672    156.68671  0.025652703  0.024672342           92 
  510000   0.46005467    -5.702029    156.75473  0.025613518  0.024602961           76 
  511000   0.45185271    -5.715391    156.53922  0.025528248  0.024533761          146 
  512000   0.44652324   -5.7178773    156.61577  0.025490847  0.024464791          170 
Loop time of 1278.74 on 48 procs for 500000 steps with 4000 atoms

Performance: 67566.709 tau/day, 391.011 timesteps/s
99.4% CPU use with 48 MPI tasks x no OpenMP threads

MPI task timing breakdown:
Section |  min time  |  avg time  |  max time  |%varavg| %total
---------------------------------------------------------------
Pair    | 88.345     | 92.571     | 97.43      |  23.3 |  7.24
Neigh   | 8.6144     | 8.9337     | 9.3372     |   5.4 |  0.70
Comm    | 83.094     | 87.137     | 92.854     |  27.0 |  6.81
Output  | 0.90751    | 0.90834    | 0.9324     |   0.4 |  0.07
Modify  | 1073.6     | 1077.6     | 1081.4     |   6.7 | 84.27
Other   |            | 11.61      |            |       |  0.91

Nlocal:        83.3333 ave          89 max          79 min
Histogram: 1 8 3 4 7 11 6 4 2 2
Nghost:        2335.08 ave        2346 max        2322 min
Histogram: 1 4 5 3 9 3 6 10 3 4
Neighs:        15896.7 ave       17185 max       14164 min
Histogram: 2 2 1 5 6 8 10 7 4 3
FullNghs:      31792.6 ave       34017 max       29911 min
Histogram: 2 7 4 6 8 10 4 3 1 3

Total # of neighbors = 1526043
Ave neighs/atom = 381.51075
Neighbor list builds = 26938
Dangerous builds = 0

#clear
#
#next RN
#
#jump SELF
Total wall time: 0:21:22
