
units lj                  # Use reduced LJ style units
atom_style atomic         # Uncharged point particles
atom_modify map hash      # Needed for indexing of clusters etc
                          # Used to be able to find where atoms are in relation to each other.

lattice fcc 1.0 spacing 1 1 1
Lattice spacing in x,y,z = 1.5874011 1.5874011 1.5874011
region box block 0 10 0 10 0 10 units lattice
create_box 2 box
Created orthogonal box = (0.0000000 0.0000000 0.0000000) to (15.874011 15.874011 15.874011)
  3 by 4 by 4 MPI processor grid
create_atoms 1 box
Created 4000 atoms
  using lattice units in orthogonal box = (0.0000000 0.0000000 0.0000000) to (15.874011 15.874011 15.874011)
  create_atoms CPU = 0.002 seconds
set type 1 type/fraction 2 0.81 78393
Setting atom values ...
  3229 settings made for type/fraction
mass 1 1.0
mass 2 1.0
pair_style lj/cut  3.5
pair_modify tail  yes
pair_coeff 1  1  1.0  1.0   # Intearaction between 1 and 1 set with epsilon = 1 and sigma = 1
pair_coeff 1  2  1.5  0.8
pair_coeff 2  2  0.5  0.88

write_data data.0
System init for write_data ...
Neighbor list info ...
  update every 1 steps, delay 10 steps, check yes
  max neighbors/atom: 2000, page size: 100000
  master list distance cutoff = 3.8
  ghost atom cutoff = 3.8
  binsize = 1.9, bins = 9 9 9
  1 neighbor lists, perpetual/occasional/extra = 1 0 0
  (1) pair lj/cut, perpetual
      attributes: half, newton on
      pair build: half/bin/atomonly/newton
      stencil: half/bin/3d
      bin: standard
WARNING: Not all mixed pair coeffs generated from mixing. Use write_data with 'pair ij' option to store all pair coeffs. (../write_data.cpp:312)


#############################
#   M E L T   S Y S T E M   #
#############################

velocity all create 2.4 6583654 mom yes dist gaussian # Assign velocities
                                                    # Temperature 2.4, random number seed, zero linear momentum
                                                                                # Gaussian distribution

timestep 0.002   # simulation timestep
thermo 1000       # output thermodynamic data every 1000 steps bf 100

# Define a fix  in this case with index 1 applied to all
# particles in the simulation. This fix is for simulations
# in the anisotropic NPT ensemble. Note that we use the MTK
# correction.
fix 1 all npt temp 2.4 2.4 0.1 iso 5.68 5.68 0.5 mtk yes tchain 5 pchain 5 # Use NPT ensemble
                                                                         # Set temperature and pressure and damping
                                                                         # Numbers of thermostats in chain and in barostat
run 10000          # run for 10000 steps
Per MPI rank memory allocation (min/avg/max) = 3.642 | 3.644 | 3.648 Mbytes
Step Temp E_pair E_mol TotEng Press Volume 
       0          2.4   -3.6458899            0 -0.046789881   -3.2123361         4000 
    1000    2.4001371   -2.9187842            0   0.68052139     5.789304    3832.6491 
    2000    2.3787687   -2.9699618            0   0.59729924     5.812463    3793.9666 
    3000    2.3933651   -2.9990464            0   0.59010376    5.6357586    3793.5856 
    4000    2.4111014   -2.9969888            0   0.61875918    5.6674483    3792.5587 
    5000     2.431699   -2.9928279            0   0.65380876    5.4122646    3843.6987 
    6000    2.4082227   -2.9436658            0   0.66776523    5.5112236    3845.1518 
    7000    2.3047016   -2.9599377            0   0.49625041    5.3608638    3842.6865 
    8000    2.4304494   -3.0010333            0   0.64372929    5.6654457    3807.6831 
    9000    2.3906056   -2.9702547            0   0.61475728    5.6328786    3830.7967 
   10000    2.4035086   -3.0025922            0    0.6017694    5.5945757    3809.9945 
Loop time of 2.75636 on 48 procs for 10000 steps with 4000 atoms

Performance: 626914.582 tau/day, 3627.978 timesteps/s
99.4% CPU use with 48 MPI tasks x no OpenMP threads

MPI task timing breakdown:
Section |  min time  |  avg time  |  max time  |%varavg| %total
---------------------------------------------------------------
Pair    | 1.141      | 1.2039     | 1.2797     |   2.6 | 43.68
Neigh   | 0.21203    | 0.2188     | 0.22844    |   0.8 |  7.94
Comm    | 0.77479    | 0.87709    | 0.9461     |   3.9 | 31.82
Output  | 0.00024624 | 0.00025168 | 0.00033983 |   0.0 |  0.01
Modify  | 0.37092    | 0.44097    | 0.47383    |   3.8 | 16.00
Other   |            | 0.01536    |            |       |  0.56

Nlocal:        83.3333 ave          94 max          72 min
Histogram: 1 1 5 6 11 8 7 5 2 2
Nghost:        1695.92 ave        1727 max        1663 min
Histogram: 5 4 2 3 8 7 4 8 4 3
Neighs:        10027.0 ave       11824 max        8643 min
Histogram: 2 6 8 6 7 6 8 2 0 3

Total # of neighbors = 481297
Ave neighs/atom = 120.32425
Neighbor list builds = 907
Dangerous builds = 191

# Equilibrate just above the melting temperature to avoid step fn in T

fix 1 all npt temp 1.25 1.25 0.1 iso 5.68 5.68 0.5 mtk yes tchain 5 pchain 5
run 2000
Per MPI rank memory allocation (min/avg/max) = 3.644 | 3.645 | 3.649 Mbytes
Step Temp E_pair E_mol TotEng Press Volume 
   10000    2.4035086   -3.0025922            0    0.6017694    5.5945757    3809.9945 
   11000    1.2441399   -4.4334075            0   -2.5676642    5.6519692    2914.8079 
   12000    1.2725344   -4.4406738            0   -2.5323494    5.3613338    2931.6414 
Loop time of 0.741682 on 48 procs for 2000 steps with 4000 atoms

Performance: 465967.810 tau/day, 2696.573 timesteps/s
99.3% CPU use with 48 MPI tasks x no OpenMP threads

MPI task timing breakdown:
Section |  min time  |  avg time  |  max time  |%varavg| %total
---------------------------------------------------------------
Pair    | 0.28485    | 0.30611    | 0.32335    |   1.7 | 41.27
Neigh   | 0.039763   | 0.042138   | 0.04433    |   0.6 |  5.68
Comm    | 0.20588    | 0.22899    | 0.27495    |   3.3 | 30.87
Output  | 5.0827e-05 | 5.2823e-05 | 6.8406e-05 |   0.0 |  0.01
Modify  | 0.12719    | 0.15952    | 0.165      |   2.4 | 21.51
Other   |            | 0.004868   |            |       |  0.66

Nlocal:        83.3333 ave          89 max          78 min
Histogram: 5 3 5 7 7 5 5 4 0 7
Nghost:        2029.12 ave        2051 max        2001 min
Histogram: 1 0 4 4 9 9 8 6 3 4
Neighs:        13024.1 ave       14619 max       11757 min
Histogram: 2 4 6 5 17 3 3 5 1 2

Total # of neighbors = 625156
Ave neighs/atom = 156.28900
Neighbor list builds = 142
Dangerous builds = 9

#############################
# L I N E A R  Q U E N C H  #
#############################

# Define solid atoms. This closely follows ten Wolde  Ruiz-Montero and Frenkel  Faraday Discuss  1996  104  93-110
# Compute components of the per-atom q6 vector
compute q6 all orientorder/atom degrees 1 6 components 6 nnn NULL cutoff 1.3 # compute the Q6 parameter.
                                                                             # Use all neighbours within 1.3 unit cell.

# get number of connections
compute coord_number all coord/atom orientorder q6 0.5

# An atom is solid if it has 8 or more connections (of a possible 14)
variable is_solid atom c_coord_number>=8
group solid dynamic all var is_solid    # Must be dynamic to update
dynamic group solid defined

# do clustering
compute cluster solid cluster/atom 1.3 # Create a cluster where all atoms within are solid and max 1.3 units from another member

# define chunks one chunk per cluster
compute clus_chunks solid chunk/atom c_cluster nchunk every compress yes  # Says which atoms are in which chunk

# count the size of each chunk
compute size_chunks solid property/chunk clus_chunks count


# Find the maximum entry in the vector of chunk sizes
variable max_n equal max(c_size_chunks)


# Thermo style which includes this variable
# thermo_style custom step temp pe vol v_max_n

thermo ${N}  # Print the thermo information every 100 steps
thermo 1000  

# Reset the npt fix at a lower temperature (below freezing)
fix 1  all npt temp  ${temp} ${temp}  0.1  iso  5.68  5.68  0.5  mtk yes tchain  5  pchain  5
fix 1  all npt temp  0.45 ${temp}  0.1  iso  5.68  5.68  0.5  mtk yes tchain  5  pchain  5
fix 1  all npt temp  0.45 0.45  0.1  iso  5.68  5.68  0.5  mtk yes tchain  5  pchain  5

dump dmp2 all dcd ${N} traj.dcd
dump dmp2 all dcd 1000 traj.dcd


compute msd all msd com yes
variable twopoint equal c_msd[4]/6/(step*dt+1.0e-6)
fix 9 all vector 10 c_msd[4]
variable fit equal slope(f_9)/6/(10*dt)
thermo_style custom step temp pe c_msd[4] v_twopoint v_fit v_max_n

fix 1 all npt temp 1.25 ${temp} 0.1 iso 5.68 5.68 0.5 mtk yes tchain 5 pchain 5
fix 1 all npt temp 1.25 0.45 0.1 iso 5.68 5.68 0.5 mtk yes tchain 5 pchain 5
run 2000000 # 5000000  # Run for this many steps
Neighbor list info ...
  update every 1 steps, delay 10 steps, check yes
  max neighbors/atom: 2000, page size: 100000
  master list distance cutoff = 3.8
  ghost atom cutoff = 3.8
  binsize = 1.9, bins = 8 8 8
  4 neighbor lists, perpetual/occasional/extra = 1 3 0
  (1) pair lj/cut, perpetual
      attributes: half, newton on
      pair build: half/bin/atomonly/newton
      stencil: half/bin/3d
      bin: standard
  (2) compute orientorder/atom, occasional
      attributes: full, newton on
      pair build: full/bin/atomonly
      stencil: full/bin/3d
      bin: standard
  (3) compute coord/atom, occasional
      attributes: full, newton on
      pair build: full/bin/atomonly
      stencil: full/bin/3d
      bin: standard
  (4) compute cluster/atom, occasional
      attributes: full, newton on
      pair build: full/bin/atomonly
      stencil: full/bin/3d
      bin: standard
Per MPI rank memory allocation (min/avg/max) = 9.834 | 9.839 | 9.843 Mbytes
Step Temp PotEng c_msd[4] v_twopoint v_fit v_max_n 
   12000    1.2725344   -4.4406738 1.8658533e-30 1.2957314e-32 8.3333333e+20            2 
   13000     1.235009   -4.4062509   0.80419512 0.0051550967  0.069073514            2 
   14000    1.2213201   -4.4018762    1.6345541 0.0097294886  0.067652016            3 
   15000    1.2498208   -4.4059129     2.447181   0.01359545  0.068568989            5 
   16000    1.2605638    -4.457618     3.300349  0.017189317  0.069043626            2 
   17000     1.234285    -4.397392    4.1225275  0.020208467  0.069258642            1 
   18000    1.2250297   -4.3802699    4.9910601  0.023106759  0.069501433            3 
   19000    1.2101463   -4.4154436    5.8251501  0.025548903  0.069682694            1 
   20000    1.2347643   -4.4171856    6.7778283  0.028240951   0.07015933            2 
   21000    1.2372801   -4.3993185    7.6617379  0.030403721   0.07061352            3 
   22000    1.2594137   -4.4274823     8.507881  0.032226821  0.070996815            2 
   23000    1.2648018   -4.4146804    9.4058565  0.034079189  0.071270581            1 
   24000    1.2358336   -4.3927355    10.094165  0.035049183  0.071380836            3 
   25000    1.2162849   -4.4105986    10.783754  0.035945848  0.071035031            1 
   26000    1.2240157   -4.4214513    11.544946  0.037003033  0.070453808            1 
   27000    1.2240127   -4.3720777    12.348813  0.038113621   0.06990642            1 
   28000    1.2551618   -4.3933161    13.168483  0.039191913   0.06946209            3 
   29000    1.2651367   -4.4318313    14.112742  0.040553856  0.069248248            2 
   30000    1.2483454   -4.4446701     14.87139  0.041309415  0.069149776            1 
   31000    1.2180584   -4.4360437    16.027665   0.04308512  0.069249347            1 
   32000    1.2322417   -4.3992815     16.89196  0.043989478  0.069437119            2 
   33000     1.213303   -4.4280279     17.55032   0.04431899  0.069564537            2 
   34000    1.2222204   -4.4209993    18.362112  0.045005177  0.069576077            2 
   35000    1.2456788   -4.4789501    19.191428  0.045693875  0.069566217            2 
   36000    1.2422103   -4.4497154    19.952133  0.046185493   0.06957669            5 
   37000    1.2111368   -4.4438701    20.707141  0.046637705  0.069526866            2 
   38000    1.2423301   -4.4253276     21.50025  0.047149671  0.069351426            2 
   39000    1.2747384   -4.3914021    22.466549  0.048005447  0.069320386            2 
   40000    1.2357996   -4.4290034    23.085082  0.048093919  0.069244656            4 
   41000    1.2438748   -4.4162251    23.848927  0.048473428  0.069113187            1 
   42000    1.2445617   -4.4231737    24.533804  0.048678182  0.068936975            5 
   43000    1.2212674   -4.4278296      25.3638   0.04915465  0.068711144            2 
   44000    1.2251079   -4.4153787    26.040182  0.049318527  0.068506765            4 
   45000    1.2393032   -4.4586963    26.558991  0.049183316  0.068300102            3 
   46000    1.2483507   -4.4649021    27.506864  0.049831274  0.068078538            2 
   47000    1.2369271    -4.409642    28.396314  0.050348075  0.067892531            2 
   48000    1.2537179   -4.4348227     29.20626  0.050705313   0.06774594            3 
   49000     1.235644   -4.4132927    30.055045  0.051114022  0.067632087            2 
   50000     1.244884   -4.4326042    30.849097  0.051415161  0.067555603            2 
   51000    1.2256328   -4.4193008    31.965348   0.05223096  0.067532025            2 
   52000    1.2399276   -4.4595171    32.728433  0.052449412  0.067530625            3 
   53000    1.2554411   -4.4053706    33.574337  0.052789837  0.067543276            4 
   54000    1.2371765   -4.4152818    34.317815   0.05295959  0.067536092            2 
   55000    1.2339992   -4.4390642    35.095833  0.053175504  0.067520673            6 
   56000    1.2381194   -4.4322069    35.809886   0.05328852  0.067522895            3 
   57000    1.2235066   -4.4289493    36.708853  0.053667914  0.067520072            3 
   58000     1.239104   -4.4285374    37.568244  0.053977361   0.06753373            1 
   59000    1.2291112   -4.4545109    38.375016     0.054202  0.067546279            1 
   60000    1.2409291   -4.4686217    39.298549  0.054581318  0.067562496            2 
   61000    1.2288917   -4.4278631    39.753151  0.054307583  0.067566256            2 
   62000    1.2462315   -4.4725993    40.481648  0.054410816  0.067552747            2 
   63000    1.2277152   -4.4065413    41.908855  0.055434993  0.067561183            2 
   64000      1.23279   -4.4757374    42.607087  0.055477977   0.06761546            3 
   65000    1.2036232   -4.4595037    43.339968  0.055564061  0.067669961            3 
   66000    1.2494598    -4.431759    44.465246  0.056142987  0.067694529            2 
   67000     1.184573   -4.4427664    45.304133  0.056348424  0.067759091            2 
   68000    1.2615899   -4.4217681    45.648111  0.055941312  0.067783202            2 
   69000    1.2423841   -4.4783803     46.59462  0.056273695  0.067767918            2 
   70000    1.2398652   -4.4493677    47.347603  0.056366193  0.067747308            4 
   71000    1.2153576   -4.4431405    48.031503  0.056375003  0.067749168            3 
   72000     1.206592   -4.4305097    49.165974  0.056905062  0.067736135            4 
   73000    1.2356254    -4.435293    49.663135  0.056693077  0.067720527            3 
   74000    1.1797269   -4.4315275     50.57917  0.056958524  0.067689786            2 
   75000    1.1971631   -4.4187884    51.343074  0.057047859    0.0676589            1 
   76000    1.1947746   -4.4621562    52.003459  0.057021336  0.067632427            2 
   77000    1.2175149   -4.4481466    52.683074  0.057016314  0.067609836            2 
   78000    1.2255593   -4.4314997    53.763074  0.057439181  0.067593347            1 
   79000    1.2308504   -4.4242566    54.480447  0.057468825  0.067578638            3 
   80000    1.1996284   -4.4673723     55.20575  0.057505989  0.067558224            1 
   81000    1.2074139   -4.4762724    55.756484  0.057362638  0.067531985            3 
   82000    1.1994235   -4.4356228    56.879551  0.057804421  0.067508546            2 
   83000    1.2207058   -4.4549531    57.738237  0.057970117  0.067503068            2 
   84000    1.2196785   -4.4626712    58.212615   0.05775061  0.067477477            2 
   85000     1.250712   -4.4762367    59.049759   0.05789192  0.067450063            1 
   86000    1.2133117   -4.4548643    59.754702  0.057901842  0.067409192            2 
   87000    1.2189577   -4.4431732    60.439727  0.057892459  0.067370323            2 
   88000    1.1967168   -4.4565297    61.425324   0.05816792  0.067313151            3 
   89000    1.2260831   -4.4228641    61.798626  0.057863882  0.067269248            6 
   90000     1.211522   -4.4582968    62.698848  0.058054488  0.067215868            1 
   91000     1.211786   -4.4554075    63.264921  0.057934909  0.067161473            2 
   92000    1.2078348   -4.4866449     63.98313  0.057955733  0.067105459            3 
   93000    1.2126441   -4.4564798    64.902021  0.058155932  0.067050388            1 
   94000     1.212099   -4.4671139     65.79163  0.058325913  0.067000639            1 
   95000    1.2034588   -4.4562314     66.90674  0.058690122  0.066975581            5 
   96000    1.1982826   -4.4447113    67.806366  0.058859692  0.066960326            1 
   97000    1.2290056    -4.475698    68.687691  0.059010044  0.066955228            2 
   98000    1.2274775   -4.4563451    69.316126  0.058942284  0.066955467            2 
   99000     1.198806   -4.4427981    70.384038  0.059245823  0.066954348            5 
  100000    1.2001644   -4.4990145    70.783776  0.058986479  0.066949256            2 
  101000    1.2356065   -4.4327984    71.435996  0.058940591  0.066922624            3 
  102000    1.2225317   -4.4740559    72.402653  0.059152494  0.066896117            2 
  103000    1.2147041   -4.4604439    72.892937  0.058974868  0.066868111            2 
  104000    1.2046293   -4.4339097     73.52764  0.058916378  0.066821732            1 
  105000    1.2368694    -4.479233    74.710901  0.059294365  0.066783458            4 
  106000    1.2185323   -4.4798531    75.222809  0.059137428  0.066758484            3 
  107000    1.2082038   -4.4561029    76.089184  0.059259489  0.066725962            2 
  108000    1.2343505   -4.4847999    76.390089   0.05894297  0.066680338            1 
  109000    1.1967779   -4.4705689    77.044272  0.058902349  0.066610018            2 
  110000    1.2176862   -4.4864843    77.327732  0.058581615   0.06653728            3 
  111000    1.2059235   -4.4576298    78.340021   0.05881383  0.066463236            1 
  112000    1.2003899   -4.4730382    79.337369   0.05903078  0.066406427            2 
  113000    1.1825716   -4.4631945    79.914297  0.058933847    0.0663483            2 
  114000    1.2195905   -4.4802367    80.886668  0.059127681  0.066300253            2 
  115000    1.2083789   -4.4693165     81.48302  0.059045666  0.066247377            4 
  116000    1.1884788   -4.5217898    82.191662  0.059045734  0.066202732            2 
  117000    1.2374493   -4.5047958    82.647135   0.05886548  0.066158605            2 
  118000    1.2331517   -4.5113321    83.541636   0.05899833  0.066117762            1 
  119000    1.2196533   -4.4990718      84.3991  0.059103011   0.06606889            1 
  120000    1.2012864   -4.4970935    85.059463  0.059069071  0.066016695            3 
  121000    1.1971314   -4.4898337    85.991181  0.059222576  0.065963278            1 
  122000    1.1917941   -4.5020003    86.727772  0.059240281  0.065917804            8 
  123000    1.2158052   -4.4956542    87.519884  0.059295314  0.065873229            2 
  124000    1.2246975   -4.4821917    88.375369  0.059392049  0.065836579            2 
  125000     1.199074    -4.542219    89.165391  0.059443594   0.06579685            3 
  126000    1.2175354   -4.4823433    89.912937  0.059466228  0.065759055            3 
  127000    1.1957738   -4.4879169    90.768052  0.059559089  0.065727309            2 
  128000    1.1874771   -4.4798851    91.370189    0.0594858  0.065691844            2 
  129000    1.2033476   -4.4828569    92.369463  0.059670196  0.065657815            4 
  130000    1.2109734   -4.4844059    93.198711  0.059742763  0.065627619            2 
  131000    1.1782466   -4.5188921    93.490217  0.059472148  0.065595516            1 
  132000     1.228712   -4.4959986    94.285688  0.059523793  0.065563735            2 
  133000      1.21016   -4.4819627    94.827851  0.059415947  0.065517395            1 
  134000    1.1904426   -4.4881167    95.419847  0.059340701  0.065470657            2 
  135000    1.2029104    -4.519163    96.016594  0.059269502  0.065427588            3 
  136000    1.1966329   -4.4714504    97.534832   0.05976399  0.065396829            2 
  137000    1.1953243   -4.5127613    97.677962  0.059414818  0.065365547            3 
  138000    1.1906688   -4.4660043    98.697523  0.059599953  0.065319667            2 
  139000    1.2029205   -4.5429117    98.784319  0.059223213  0.065273454            3 
  140000    1.2182999   -4.5008084    100.25392  0.059674952  0.065227475            2 
  141000    1.2047224   -4.5042746    100.41323  0.059345879  0.065178103            2 
  142000    1.2329134   -4.5141805    101.08651   0.05932307  0.065126263            2 
  143000    1.1952403    -4.475343    101.85935  0.059358594  0.065077864            3 
  144000    1.1970556   -4.5079073    102.70024  0.059433012  0.065032762            1 
  145000    1.2119079   -4.5018392    103.48561  0.059474488   0.06498659            3 
  146000    1.2189226   -4.5115279    104.23909    0.0594972   0.06494527            2 
  147000    1.2003171   -4.5267641    104.73115  0.059371403  0.064904401            2 
  148000    1.2029448   -4.5162042    105.55771  0.059435648  0.064862679            4 
  149000    1.2093768    -4.505556    106.40387  0.059509993  0.064821202            2 
  150000    1.1656711    -4.494449    106.79942  0.059333008  0.064777312            3 
  151000    1.2065789   -4.5168257    108.14852  0.059684613  0.064742948            1 
  152000    1.2031297   -4.5108441    108.44046  0.059452006  0.064706214            2 
  153000     1.177425   -4.5057936    109.49032   0.05963525  0.064674145            2 
  154000    1.1837069   -4.4903505    110.71552  0.059910994  0.064647131            1 
  155000    1.2013921   -4.5032987    111.43402  0.059910761  0.064621453            1 
  156000    1.2044417   -4.5215127     112.2204  0.059946792   0.06459181            2 
  157000    1.1698092   -4.5034823    112.76631  0.059854732  0.064566188            3 
  158000     1.189561   -4.4994013    112.92133  0.059557663  0.064542918            5 
  159000    1.1881565    -4.516798    114.02213  0.059760028  0.064515353            1 
  160000    1.2137448   -4.4924269    114.72119  0.059750622  0.064484755            1 
  161000    1.1982947   -4.5090924    116.04071   0.06006248  0.064455052            1 
  162000    1.1690395   -4.5057538    115.90298  0.059620876  0.064424533            6 
  163000    1.1959829   -4.5317752    116.73968  0.059682865  0.064399477            3 
  164000    1.1718316   -4.5414933    117.17897  0.059542161  0.064367748            2 
  165000    1.1919211    -4.485829    117.95233  0.059571882   0.06432954            2 
  166000    1.1601124   -4.5038524    118.31115  0.059393146  0.064288951            1 
  167000    1.2178119   -4.5126647    118.93242  0.059347514  0.064244672            2 
  168000      1.19864   -4.4994206    119.46087  0.059256385  0.064196452            2 
  169000    1.1817718   -4.4990577    119.73908  0.059042937  0.064147405            4 
  170000    1.1883426   -4.4922561    120.72156  0.059177238  0.064093189            2 
  171000    1.1830885   -4.4752574    121.52003  0.059220289  0.064037685            5 
  172000    1.1696225   -4.5080936    122.26496  0.059236901  0.063987378            3 
  173000    1.1808975   -4.5120208    122.88855  0.059194867  0.063935924            3 
  174000     1.186968   -4.5326204     123.4337  0.059115757  0.063889099            2 
  175000    1.2002956   -4.4884165    124.73597  0.059398083    0.0638449            3 
  176000    1.1771182   -4.5493099     125.3295   0.05934162  0.063801411            3 
  177000    1.1363052   -4.5067776     126.1693  0.059401742  0.063766934            1 
  178000    1.2193675   -4.5104725    127.35274  0.059622068  0.063736052            6 
  179000    1.2082356   -4.5575324    128.19828  0.059682627  0.063710226            2 
  180000    1.1703678   -4.5156678    128.97974  0.059712841  0.063682541            2 
  181000    1.1592062    -4.547869    129.50306  0.059623877  0.063652226            2 
  182000    1.1819662    -4.540913    130.08658  0.059563454   0.06362143            3 
  183000    1.1907742   -4.5100644    130.80343  0.059564401  0.063591166            2 
  184000    1.1597925   -4.5393174    131.37632  0.059500146   0.06355943            2 
  185000    1.2095462    -4.533766    132.24096  0.059568002  0.063527433            2 
  186000     1.164304   -4.5199109    133.09305  0.059629503  0.063497228            6 
  187000     1.180603   -4.5086972    134.22391  0.059814576  0.063472043            3 
  188000    1.1716611   -4.5287571    134.98277  0.059832786  0.063441967            2 
  189000    1.1682597   -4.5640668    135.21778   0.05961983  0.063408371            4 
  190000    1.1941796   -4.5207106    136.72829  0.059968549  0.063385149            2 
  191000    1.1820793   -4.5294487    136.70795  0.059645704  0.063359648            3 
  192000    1.1944554   -4.5461843    137.14076  0.059522899   0.06333433            2 
  193000    1.1767965   -4.5404247    138.16343  0.059656059  0.063306935            3 
  194000     1.193786   -4.5275999    138.19305  0.059361274  0.063281131            4 
  195000    1.1714348   -4.5402914    139.53874  0.059631938  0.063257069            3 
  196000    1.1954126   -4.5288742    139.66765  0.059382506  0.063232735            2 
  197000    1.1666568   -4.5225251    141.23483  0.059744005  0.063206495            1 
  198000    1.1774528   -4.5360127     141.5736  0.059584848   0.06318034            3 
  199000    1.1843881    -4.531387    142.17938  0.059539105  0.063156046            1 
  200000    1.1890983   -4.5028258    143.21072  0.059671132  0.063127695            3 
  201000    1.1776928   -4.5266625    143.71903  0.059585004  0.063101101            1 
  202000    1.1683265   -4.5414818    144.14514  0.059465818  0.063073602            4 
  203000    1.1651685   -4.5083277    144.40074  0.059277807  0.063046902            2 
  204000    1.1585113    -4.555772    145.70599  0.059520422  0.063017137            4 
  205000    1.2015825   -4.4807126    146.60721  0.059596425  0.062990635            5 
  206000     1.173478   -4.5485982    147.72076   0.05975759  0.062964933            1 
  207000    1.1948957   -4.5526014     147.6974    0.0594595  0.062938383            1 
  208000    1.1577574   -4.5218128    148.68892   0.05957088  0.062913411            7 
  209000    1.1532203    -4.545782    149.53909  0.059624837  0.062887921            3 
  210000    1.1772423   -4.5685648    149.90555  0.059486329  0.062862249            2 
  211000    1.1622221   -4.5617448    150.48167  0.059431937  0.062835194            2 
  212000    1.1652422    -4.580461    151.57694  0.059582131  0.062807934            1 
  213000    1.1543785   -4.5472746    151.96033  0.059452399  0.062782175            3 
  214000    1.1645119   -4.5372116    153.00268  0.059580482   0.06275174            3 
  215000    1.1714123   -4.5897895    153.18496  0.059374016  0.062724613            4 
  216000    1.1676306   -4.5350777     154.7358  0.059697455  0.062699102            3 
  217000    1.1640519   -4.5549292    155.43581  0.059691171  0.062672571            1 
  218000    1.1857131   -4.5328264    155.32006  0.059373113  0.062645903            4 
  219000    1.1688006   -4.5342492    156.24815  0.059455156  0.062616287            2 
  220000    1.1712096   -4.5263987    157.10474  0.059509372  0.062588992            4 
  221000    1.1611243   -4.5693819    157.02507  0.059210057  0.062561513            2 
  222000    1.1410277   -4.5738821    157.86686  0.059259333  0.062530688            3 
  223000     1.166413   -4.4913227    159.05791   0.05943868  0.062498772            3 
  224000    1.1485459   -4.5608229     159.0952  0.059187203  0.062468646            4 
  225000     1.174624   -4.5834149    159.39017  0.059033396   0.06243831            3 
  226000    1.1497959   -4.5906295    161.09965  0.059402525  0.062411839            2 
  227000    1.1598032   -4.5315129    162.68749  0.059723748  0.062385859            2 
  228000    1.1745506   -4.5374127    163.20583  0.059651253  0.062361952            4 
  229000    1.1427008   -4.5539267    162.85065  0.059261518  0.062336032            2 
  230000    1.1636916   -4.5573585    163.75143  0.059330227  0.062310364            3 
  231000    1.1535511   -4.5352214     164.4798  0.059336147  0.062286827            2 
  232000    1.1675136    -4.536719     165.5969  0.059481643  0.062262199            3 
  233000    1.1748355   -4.5356127    166.63953  0.059599259  0.062239876            2 
  234000    1.1551126   -4.5427979    166.65524  0.059350158  0.062217878            2 
  235000    1.1433496   -4.5155545    168.91269  0.059898116  0.062198524            2 
  236000    1.1583735   -4.5864142    167.79024  0.059247965  0.062174617            3 
  237000    1.1616833   -4.5768297    168.51256  0.059251954  0.062150611            8 
  238000    1.1459681   -4.5649942    169.20572  0.059245701  0.062126155            3 
  239000    1.1525384   -4.5834825    169.63417  0.059147202  0.062099783            4 
  240000    1.1435008   -4.5925343    169.83246  0.058969606  0.062074985            1 
  241000    1.1659424   -4.5899924    171.02477  0.059137195  0.062049567            2 
  242000    1.1582651   -4.5406568    172.36141  0.059353102  0.062024422            4 
  243000    1.1605381   -4.5486062    172.61843  0.059196992  0.062003194            3 
  244000    1.1759525   -4.6036898    172.97543  0.059076307  0.061977182            1 
  245000    1.1626214   -4.5579016    173.63224  0.059058584  0.061950682            1 
  246000    1.1417081   -4.5419444    175.38134  0.059411022  0.061922823            1 
  247000    1.1636489   -4.5406222    175.36331  0.059164409  0.061896703            3 
  248000    1.1413282   -4.5704338    176.53236  0.059318668  0.061874282            2 
  249000    1.1634743   -4.6006688    177.05897  0.059256684  0.061853192            1 
  250000    1.1247621   -4.5518032    177.36943  0.059123143  0.061831146            4 
  251000    1.1370176   -4.5571726    178.51988  0.059269548  0.061810786            3 
  252000    1.1878305   -4.5743159    178.81925  0.059133351  0.061788543            4 
  253000    1.1605073   -4.5589627    178.88402  0.058920955  0.061763231            1 
  254000    1.1899626   -4.5376447    180.06046  0.059074953  0.061739729            2 
  255000    1.1385681   -4.5683682    181.00491  0.059151931   0.06171388            2 
  256000    1.1819693   -4.5907866    181.41571  0.059054593  0.061688138            3 
  257000    1.1397108   -4.5879926    181.98057  0.059007966  0.061663491            2 
  258000    1.1591978   -4.5288445    182.78771  0.059039957  0.061637644            2 
  259000    1.1593785   -4.5918629    183.34553  0.058991483  0.061609418            1 
  260000     1.169586   -4.5798566    182.89266  0.058619443  0.061579791            6 
  261000    1.1562061   -4.6053093     183.7521  0.058669252  0.061551018            2 
  262000    1.1449282   -4.5312834    185.01815  0.058848012  0.061521937            4 
  263000    1.1485884   -4.5368489    184.87899  0.058580161  0.061492158            7 
  264000     1.160488   -4.5529473    186.12407  0.058751284  0.061460745            2 
  265000    1.1462167   -4.5975473    186.42316  0.058623636  0.061428362            3 
  266000    1.1696187   -4.5738355    186.15832  0.058320276  0.061394469            8 
  267000    1.1588625   -4.6072892    187.47441  0.058512614  0.061360271            4 
  268000    1.1391292    -4.595615    188.98632  0.058764402  0.061328713            6 
  269000    1.1360768   -4.5472311    189.94275   0.05884224  0.061301949            7 
  270000    1.1405068   -4.6010291    190.28919  0.058731231  0.061273828            5 
  271000    1.1344682   -4.5843264    191.06532  0.058753173  0.061248183            3 
  272000    1.1410843    -4.577694    191.74064  0.058744068  0.061226216            1 
  273000    1.1478382   -4.5638793    194.24347  0.059292878  0.061206434            2 
  274000     1.135341    -4.570051    194.26667  0.059083537  0.061189186            7 
  275000    1.1545861   -4.5888204    194.26936  0.058869503  0.061166518            3 
  276000    1.1691284   -4.5619766    195.83271  0.059128234  0.061147643            5 
  277000    1.1284611   -4.6085783    195.42132   0.05879101  0.061127695            2 
  278000    1.1520731   -4.5935394    197.30329  0.059143671  0.061107745            5 
  279000    1.1314411   -4.5934624    198.05717  0.059156861  0.061090176            3 
  280000    1.1416503   -4.5689637    198.25037  0.059003086  0.061072443            2 
  281000    1.1358129   -4.5887561    198.72725  0.058934535  0.061054247            3 
  282000    1.1313745   -4.5507218    200.37483   0.05921242  0.061037425            3 
  283000    1.1809896   -4.6010671    200.11494   0.05892666  0.061021053            3 
  284000    1.1612141   -4.6078887     199.4601  0.058527023   0.06100142            2 
  285000    1.1529397    -4.624063    200.36879  0.058587365  0.060979119            5 
  286000    1.1515577   -4.5583134    201.44724  0.058696748  0.060954889            2 
  287000    1.1445697   -4.5934535    201.60241  0.058537285  0.060930253            3 
  288000     1.109588   -4.5907286    201.74567  0.058375483  0.060904314            3 
  289000    1.1424689   -4.5922943    203.05315  0.058550505  0.060876974            3 
  290000     1.132973   -4.6246526    203.99364  0.058618862  0.060852363            2 
  291000    1.1433946   -4.6166844    204.88582  0.058672915  0.060828954            3 
  292000    1.1183168   -4.5930553     205.5796  0.058669976  0.060806848            2 
  293000    1.1487272   -4.6011296    207.11462  0.058906318  0.060786085            1 
  294000    1.1408366   -4.5975503    207.48403  0.058810665  0.060766661            1 
  295000    1.1179614   -4.5834577    208.47284  0.058890633   0.06074822            2 
  296000    1.1398766   -4.5912882    208.63358  0.058736931  0.060731204            2 
  297000    1.1075055   -4.6241126    210.02483  0.058929526  0.060713088            3 
  298000    1.1527242   -4.5810569     210.5684   0.05888378  0.060692666            4 
  299000    1.1257508   -4.6419645    210.17156  0.058576242  0.060671645            2 
  300000     1.127088   -4.6050552    211.22603  0.058673896  0.060649364            2 
  301000     1.140917   -4.6004392    211.21498  0.058475909  0.060627419            2 
  302000    1.1042864   -4.5831941    212.15992  0.058543024  0.060603131            4 
  303000    1.1377955   -4.6250467    212.76582  0.058516451  0.060580285            3 
  304000    1.0949542   -4.5879678    214.37992  0.058766424  0.060560374            2 
  305000    1.1190859   -4.5749555    214.31892  0.058557081  0.060539168            3 
  306000    1.1297852   -4.5983986    214.83212   0.05850548  0.060515786            2 
  307000    1.1251988   -4.6360942    215.01898   0.05836563  0.060494298            3 
  308000    1.1343957   -4.5927597     216.1501  0.058482171  0.060473988            1 
  309000    1.1225706   -4.6309441     216.4387  0.058370738  0.060453415            2 
  310000    1.1512724   -4.6182881    217.72669   0.05852868   0.06043249            8 
  311000    1.1261597   -4.6275107       218.48  0.058542335  0.060412552            4 
  312000    1.0989892   -4.6306552     218.7592  0.058429275  0.060392247            2 
  313000    1.1275103    -4.581963     219.8682   0.05853786  0.060370674            3 
  314000    1.0975424   -4.6416781    219.89787  0.058359308  0.060349717            4 
  315000    1.1247642   -4.6108247    220.58569  0.058356004   0.06032763            1 
  316000    1.1144165   -4.6089655    221.91635  0.058522244  0.060308058            4 
  317000    1.1115955   -4.5897563    221.91886  0.058338291  0.060286829            2 
  318000    1.1219582   -4.6436885    222.50581  0.058308649  0.060264228            3 
  319000    1.1353327    -4.593567    223.70752  0.058439791  0.060242726            1 
  320000    1.1073791   -4.6044441    224.28657   0.05840796   0.06022066            3 
  321000    1.1384448   -4.6094101    225.11338  0.058440649  0.060199126            3 
  322000    1.1303569   -4.6089374    225.79502  0.058435563  0.060179355            3 
  323000    1.1471671   -4.5796715    226.63005  0.058470086  0.060161257            2 
  324000    1.1251437    -4.610629    227.79405  0.058589006   0.06014041            3 
  325000    1.1521216   -4.6361307    226.88377  0.058175324  0.060116702            2 
  326000    1.1130665   -4.6125991    227.05653  0.058041036  0.060091908            2 
  327000    1.1182023   -4.6295757    227.66456  0.058018492  0.060067688            2 
  328000     1.107841   -4.6160364    228.39338  0.058026772  0.060042905            3 
  329000    1.0935173   -4.5995828      228.175  0.057795087  0.060017769            4 
  330000     1.117582    -4.614594    229.40824  0.057931373  0.059991122           14 
  331000    1.1069517   -4.6140142    231.16395  0.058198377  0.059965744            2 
  332000    1.1229067   -4.6482156    230.30284  0.057806938   0.05993931            2 
  333000    1.1087605   -4.6178623    229.94212  0.057543072   0.05991202            5 
  334000    1.1046422    -4.652989    230.99591  0.057633711  0.059884769            3 
  335000    1.1264763   -4.6421873    231.21122  0.057515229  0.059855397            2 
  336000    1.1238052   -4.6298714    232.87308  0.057756221  0.059826064            1 
  337000    1.1068121   -4.6585251    232.99379  0.057614686   0.05979818            2 
  338000    1.1172346   -4.6194783    233.18948  0.057492476  0.059770202            2 
  339000    1.1361094   -4.6440884    233.53114  0.057406867  0.059741056            2 
  340000    1.1280602    -4.597558     234.3292  0.057433626  0.059711466            1 
  341000    1.1149239   -4.6767347    234.39714  0.057281803   0.05968231            4 
  342000    1.1242209    -4.639916    236.12066  0.057534274  0.059651873            2 
  343000    1.1017513   -4.6332375    237.15538  0.057617924  0.059621377            4 
  344000    1.1240233   -4.6083566    236.31519  0.057246896  0.059591892            2 
  345000    1.1230806   -4.6149087     237.8182  0.057444009   0.05956071            4 
  346000    1.1182361    -4.608648    238.65828  0.057480319  0.059531459            2 
  347000    1.1039372   -4.6595074     238.8104    0.0573512  0.059504949            3 
  348000    1.1161971   -4.6328168    239.57319  0.057369058  0.059476024            4 
  349000    1.1013097   -4.6195353    241.72007  0.057717304  0.059451086            2 
  350000     1.121138   -4.6307213    241.27635  0.057446749  0.059424335            3 
  351000    1.1058371   -4.6628506    241.62865  0.057366725  0.059396916            4 
  352000    1.1308671    -4.632367    243.29308  0.057597795  0.059369858            5 
  353000    1.1181389   -4.6298436    243.12868  0.057395816  0.059341851            5 
  354000    1.1079779   -4.6203358    244.08112  0.057457891  0.059314745            2 
  355000    1.1049682   -4.6648894    244.89084  0.057486112  0.059287888            3 
  356000    1.1120327   -4.6383906    245.56351  0.057482096  0.059261308            3 
  357000    1.1443018   -4.6393125    246.43788  0.057525182  0.059235924            4 
  358000     1.131099   -4.6228361    246.30973  0.057334667  0.059210275            4 
  359000    1.1205584   -4.6920946    247.48972  0.057448866  0.059185842            3 
  360000    1.1131539   -4.6598986    248.38433  0.057496373  0.059161358            2 
  361000     1.129402   -4.6484865    247.81263  0.057205131  0.059135655            3 
  362000    1.0894654    -4.691073     248.8141  0.057277647  0.059112627            1 
  363000    1.1166783   -4.6900089    249.43586  0.057262594   0.05908811            3 
  364000     1.117999     -4.67475    249.47951  0.057115272   0.05906091            3 
  365000    1.0814976   -4.6257618    250.86185  0.057274395  0.059033865            2 
  366000    1.1023988   -4.6621375    251.01596  0.057152997  0.059007537            2 
  367000    1.1066952    -4.633282    250.56741  0.056895416  0.058977869            6 
  368000    1.1157599   -4.6393678    251.86953  0.057035673  0.058949506            1 
  369000    1.1009941   -4.6185339    252.51183  0.057026158  0.058920797            3 
  370000    1.0914248    -4.653769    252.29982  0.056824283  0.058891663            4 
  371000    1.0827901   -4.6464653    253.34882  0.056906743  0.058864187            3 
  372000    1.0950115   -4.6660045    253.46342   0.05677944  0.058835627            4 
  373000    1.1086213   -4.7043854    253.35816  0.056603699  0.058806722            2 
  374000    1.1372166   -4.6825735    254.30488  0.056663298  0.058777536            3 
  375000     1.095855   -4.6445076     255.5242  0.056783155  0.058746556            3 
  376000    1.0825735   -4.6171325    255.67446  0.056665439  0.058715131            2 
  377000    1.1079486    -4.640351    255.66281  0.056512556  0.058682149            6 
  378000    1.0804276   -4.6889655    255.50884  0.056329109  0.058649016            3 
  379000    1.0809911   -4.6631169     257.3604    0.0565876  0.058615499            4 
  380000    1.1210581   -4.6689171    258.08355  0.056597271  0.058584315            5 
  381000    1.1030697   -4.6688206     258.8873  0.056624518  0.058554652            4 
  382000    1.0940595   -4.6587249    260.60131  0.056850199  0.058525052            4 
  383000    1.0859217   -4.6207049    261.74634    0.0569509  0.058497995            3 
  384000    1.1274479   -4.6451744    260.69496  0.056574427  0.058472017            3 
  385000    1.0811798   -4.6590611    262.34611  0.056784873  0.058446705            4 
  386000     1.095274   -4.6863538    263.01614  0.056782414  0.058420546            4 
  387000    1.1134158   -4.6644084    263.20134  0.056675568  0.058392434            2 
  388000    1.0979791   -4.6416011    263.49633  0.056592854  0.058364842            4 
  389000    1.0947194    -4.660699    264.69598  0.056704365  0.058338078            4 
  390000    1.0904299   -4.6617769    264.13745  0.056439627  0.058312654            4 
  391000    1.0967309   -4.6709241    265.93576  0.056678552  0.058287799            3 
  392000    1.0838202   -4.6713731    266.22341  0.056595113  0.058263047            3 
  393000    1.1019168   -4.6846581    266.82412  0.056578481  0.058237285            3 
  394000    1.1027282   -4.6617999    267.58571  0.056595962  0.058211379            2 
  395000    1.1042985   -4.6577796    268.04698  0.056549995  0.058185507            6 
  396000    1.0905006   -4.6703792    267.49484  0.056291002  0.058157922            6 
  397000    1.1221715   -4.6829554    267.72514  0.056197552  0.058129971            2 
  398000    1.1009692   -4.6549639    269.78758  0.056488187  0.058102691            1 
  399000     1.099979   -4.6891648    269.70832  0.056330058  0.058075684            5 
  400000     1.144986   -4.6454174     271.0112  0.056460666  0.058049025            2 
  401000    1.1050274   -4.6381334    270.99949  0.056317433  0.058022183            3 
  402000    1.0880901   -4.6885264    271.34441  0.056248842  0.057995147            4 
  403000    1.0526272    -4.692845     272.7473  0.056399359  0.057967656            2 
  404000    1.1003929   -4.6530877    273.60904  0.056437507  0.057940212            4 
  405000    1.0885162   -4.6747599     274.0928  0.056397696  0.057914137            2 
  406000    1.1208746    -4.665133    275.95902  0.056641835  0.057888563            2 
  407000    1.1127827   -4.6773217    274.50471  0.056204895  0.057864322            2 
  408000    1.1029133    -4.676686    275.67979  0.056307147  0.057838074            2 
  409000    1.0921956    -4.689931    276.71282  0.056379956  0.057811766            6 
  410000    1.0696644   -4.6993482    277.21828  0.056345178  0.057786264            5 
  411000    1.0750362   -4.6421429    278.61522  0.056491326   0.05776174            3 
  412000    1.0850985   -4.6726967    278.61426  0.056354016  0.057737349            2 
  413000    1.0947126   -4.7209164    278.10094  0.056113991  0.057712236            5 
  414000    1.0748304   -4.6611614    279.57993  0.056276153  0.057688216            3 
  415000    1.0757766   -4.6528142    280.87699  0.056401001  0.057664499            6 
  416000    1.0716644   -4.6971883    280.51194  0.056192296  0.057640041            1 
  417000    1.0947119   -4.7172029    280.81139  0.056117384  0.057616156            2 
  418000    1.1035091   -4.6925143    281.12724  0.056046101  0.057591748            3 
  419000    1.0773968   -4.6793594    281.74325  0.056034854    0.0575668            2 
  420000    1.0650259   -4.6982174    282.30202  0.056012306  0.057542219            2 
  421000    1.1024149   -4.7071528    282.44914  0.055908381  0.057516478            3 
  422000    1.0816077   -4.6696166    284.71965   0.05622426  0.057490834            1 
  423000     1.087297   -4.6989816    283.55223  0.055861354  0.057465666            2 
  424000    1.0526136   -4.6727505    284.47371  0.055910713  0.057438399            2 
  425000    1.0710249   -4.7141346    283.59643  0.055607144    0.0574108            1 
  426000    1.0742697   -4.7510219     283.6074  0.055478755  0.057381736            9 
  427000    1.0929339   -4.6978422    286.09252  0.055833824  0.057353403            2 
  428000    1.0840807   -4.6707813     287.4161  0.055961079  0.057326569            1 
  429000     1.077506   -4.7090379     285.4973  0.055457905  0.057299215            4 
  430000    1.1000675   -4.7126888    286.10851  0.055447385  0.057270529            2 
  431000    1.0916423   -4.6898899    288.36295   0.05575463  0.057242909            4 
  432000    1.0823263    -4.703184    288.07671  0.055570352   0.05721575            3 
  433000    1.0756964   -4.6740104    289.75803  0.055765595  0.057188687            5 
  434000    1.0686102   -4.7006477    289.24662  0.055538906  0.057161006            2 
  435000    1.0627803   -4.7360504    289.14997  0.055392715  0.057132181            3 
  436000    1.0780272   -4.7373987    289.40197  0.055313832  0.057103536            5 
  437000     1.072969   -4.7132279    290.50604  0.055397796  0.057073913            3 
  438000    1.0740015   -4.6933822    290.67855  0.055304138   0.05704459            3 
  439000    1.0913025   -4.7285209    291.68795   0.05536977  0.057016587            2 
  440000    1.0881344   -4.7254077    291.87448  0.055279258   0.05698861            3 
  441000    1.0610434   -4.7182166    292.14681  0.055205369  0.056960167            4 
  442000    1.0957415   -4.7325948    294.21771   0.05547091     0.056933            1 
  443000    1.0718982   -4.7069671    295.06546  0.055505165  0.056905433            2 
  444000    1.0826882   -4.7088653     295.2663   0.05541785  0.056878131            2 
  445000    1.0869537   -4.6772502    295.90382  0.055412701  0.056850325            3 
  446000    1.0893092   -4.7054412    295.60896  0.055233363  0.056823248            5 
  447000    1.0954182   -4.7248205    296.50666  0.055277154  0.056795098            4 
  448000    1.0601573   -4.7226324     296.3411  0.055122972  0.056765825            6 
  449000    1.0652623   -4.7122125    298.32578  0.055368556  0.056739009            1 
  450000    1.0960208    -4.711689    298.03235  0.055191175  0.056711001            3 
  451000    1.0982457   -4.6954016    297.92452  0.055048876  0.056682008            4 
  452000     1.072506   -4.7148121    299.26055  0.055173405  0.056653449            2 
  453000    1.0858531   -4.7219132    300.16351  0.055217717  0.056625759            4 
  454000    1.0770505   -4.7175195    301.19012  0.055284529  0.056598934            3 
  455000    1.0950816   -4.7025378    301.44084  0.055208944  0.056571909            2 
  456000    1.0630416   -4.7081391    302.19425  0.055225557  0.056544072            4 
  457000      1.06418   -4.7161171    301.90174  0.055051375  0.056516565            4 
  458000    1.0660974   -4.7036462    302.13867  0.054974284  0.056489307            3 
  459000    1.0422887    -4.733415    304.09454  0.055209611  0.056462226            3 
  460000    1.0613214   -4.7137776    303.68065  0.055014611  0.056435301            2 
  461000    1.0908749   -4.6683265    304.36889  0.055019684   0.05640988            3 
  462000    1.0496319    -4.723861    303.67038    0.0547746  0.056383629            3 
  463000    1.0618594   -4.7484027    303.86474  0.054691279  0.056357224            3 
  464000    1.0788739   -4.7065377    306.08133  0.054971503  0.056330922           10 
  465000    1.0766336   -4.7115803    307.18707  0.055051446  0.056304897            4 
  466000    1.0864461   -4.7492599    306.56713  0.054822448  0.056278507            4 
  467000    1.0560817   -4.7226868    307.48002  0.054867956  0.056252803            2 
  468000    1.0668129   -4.7085109    308.26778  0.054890986  0.056226384            2 
  469000    1.0588259   -4.7117893    308.62177  0.054836847  0.056200978            6 
  470000     1.039435   -4.7309277    309.19658  0.054822089   0.05617463            5 
  471000    1.0472012   -4.7273522    308.97054  0.054665701  0.056147827            4 
  472000    1.0617452   -4.7183153    309.42469  0.054630065  0.056120738            6 
  473000     1.072822   -4.7213632     309.7163  0.054565944  0.056093201            3 
  474000    1.0422556   -4.7340129    310.15491  0.054527937  0.056065342            4 
  475000    1.0588209   -4.7040002    311.33811   0.05462072  0.056037177            1 
  476000    1.0618216   -4.7234793    312.21973  0.054660316  0.056009753            3 
  477000    1.0647072   -4.7434513    312.19798  0.054541925  0.055979936            1 
  478000    1.0543657   -4.7507445    311.30444  0.054272043  0.055951539            2 
  479000     1.053176   -4.7470331    312.82654  0.054423545  0.055921291            3 
  480000    1.0595351   -4.7326677    313.34482  0.054400143  0.055892294            8 
  481000    1.0747626   -4.7336717    313.51097   0.05431583  0.055863893            5 
  482000    1.0590106   -4.7581429    313.24018  0.054156325  0.055834828            3 
  483000    1.0658569   -4.7308357    313.76854  0.054135358  0.055806918            3 
  484000    1.0594028   -4.7633778    315.45644  0.054314125  0.055777706            1 
  485000    1.0669193   -4.7361635    316.04334   0.05430298  0.055748503            2 
  486000    1.0502947    -4.709422    315.48456  0.054095432   0.05571861            7 
  487000    1.0542374   -4.7492721     316.0817  0.054086533  0.055687302            2 
  488000    1.0378264   -4.7330112    316.71413  0.054083698  0.055655972            3 
  489000    1.0835537   -4.7599272     317.1749   0.05405162  0.055625038            5 
  490000    1.0633398    -4.770414    316.25897   0.05378554  0.055593973            2 
  491000    1.0826374   -4.8023918    315.86518  0.053609162  0.055562526            2 
  492000    1.0544987   -4.7501354    318.25523  0.053905019  0.055531855            2 
  493000    1.0663294   -4.7518672    319.33551   0.05397828  0.055500449            2 
  494000    1.0514749   -4.7327374    319.13157  0.053834611  0.055470409            2 
  495000    1.0437285   -4.7376618    319.54066  0.053794724  0.055440165            4 
  496000    1.0637648   -4.7686935    319.69074  0.053711482  0.055409274            5 
  497000    1.0600031   -4.7332616    321.29325  0.053872108   0.05537788            3 
  498000    1.0662761   -4.7771439    321.10725  0.053732806  0.055346745            3 
  499000    1.0382292   -4.7496439    322.78997  0.053906141  0.055316056            3 
  500000    1.0440349   -4.7568695    322.27143  0.053711905  0.055285109            2 
  501000    1.0451945   -4.7772578    321.62447  0.053497084  0.055253926            2 
  502000     1.056001   -4.7803089    322.43227  0.053524613  0.055223018            6 
  503000    1.0711219   -4.7427471    323.58579  0.053609309  0.055191956            4 
  504000    1.0564964   -4.7664023    323.38569  0.053469856  0.055159933            2 
  505000    1.0531995   -4.7494032    324.94475  0.053621247  0.055129672            3 
  506000    1.0692559   -4.7081554    325.45268  0.053598927  0.055098232            3 
  507000    1.0397889   -4.7453281    325.50654  0.053502061  0.055067741            3 
  508000    1.0661352   -4.7570577    326.48904  0.053557913  0.055035819            2 
  509000    1.0435005   -4.7633794     326.7431  0.053494286  0.055003842            2 
  510000    1.0515057   -4.7422708    325.69395  0.053217966   0.05497182            3 
  511000    1.0724559   -4.7699559    326.53909  0.053251645  0.054939826            4 
  512000    1.0825998   -4.7484023    327.70606  0.053337575  0.054908425            2 
  513000    1.0446702   -4.7851884    329.58617  0.053539014  0.054878373            2 
  514000    1.0447179   -4.7711814    328.65621  0.053284081  0.054847643            6 
  515000    1.0486742    -4.765989    329.48824  0.053315249  0.054816688            4 
  516000    1.0647182   -4.7735618    329.07913  0.053145855  0.054784877            4 
  517000     1.025683   -4.7616628    332.03338  0.053519242  0.054753391            3 
  518000    1.0425017   -4.7998373    330.26188  0.053130933  0.054722707            5 
  519000    1.0228479   -4.7666293    331.61406  0.053245674  0.054691093            4 
  520000    1.0643142   -4.7762945    332.15622  0.053230163  0.054661037            3 
  521000    1.0804908   -4.7856389     332.1901  0.053133413   0.05462937            5 
  522000    1.0631323   -4.7753303     333.4959  0.053240086  0.054599274            3 
  523000    1.0682294    -4.758925    334.07604  0.053230726  0.054568785            3 
  524000     1.032276   -4.7575634    333.31807  0.053008598  0.054538116            4 
  525000    1.0557923   -4.7850486    333.96249  0.053009919   0.05450697            4 
  526000    1.0447115   -4.7774152    334.19135  0.052945397  0.054475517            3 
  527000    1.0175837   -4.7578381    335.16577  0.052999015  0.054444028            3 
  528000    1.0445488   -4.7218198    337.00083  0.053188262  0.054413424            5 
  529000    1.0298859   -4.7639989    335.00793  0.052773775  0.054383191            2 
  530000    1.0440795   -4.8063592    335.40231  0.052736212  0.054351917            2 
  531000    1.0461455   -4.7718362    337.12333  0.052906988  0.054321075            3 
  532000    1.0316206   -4.7657576     336.7945  0.052756031  0.054290129            3 
  533000    1.0374581   -4.7854951    337.80171  0.052814526  0.054258483            4 
  534000    1.0285838   -4.8102325    338.56826  0.052835246  0.054227344            4 
  535000    1.0590424   -4.7721159    338.12525  0.052667485  0.054195827            3 
  536000    1.0647628   -4.7781589    339.66683  0.052808897  0.054164546            3 
  537000    1.0167521   -4.7580989    340.97474  0.052913522  0.054133786            5 
  538000    1.0161113   -4.7977117    338.39865  0.052416148  0.054102035            2 
  539000    1.0369183   -4.7894019    340.21194  0.052599248  0.054070153            2 
  540000    1.0197463   -4.7672778    339.94567  0.052460751   0.05403775            4 
  541000    1.0486749   -4.7321313    341.50961  0.052604684  0.054005752            5 
  542000    1.0143438   -4.7447603    341.37681  0.052487209  0.053973612            7 
  543000    1.0461274   -4.8022389    341.53119   0.05241424  0.053941834            5 
  544000    1.0458308   -4.7669251    342.45022  0.052458673  0.053909769            5 
  545000    1.0236498    -4.803942    342.78141   0.05241306  0.053877679            6 
  546000    1.0498483   -4.7869982    342.74526  0.052311547  0.053846199            4 
  547000    1.0245473   -4.7735018    343.80327  0.052377097  0.053813955            5 
  548000    1.0281348   -4.7854552    343.50563  0.052236257  0.053782582            2 
  549000    1.0386576   -4.7799831    344.99443  0.052367095  0.053750359           12 
  550000    1.0435185   -4.7879143    342.76858  0.051934633  0.053717901            5 
  551000    1.0403904   -4.7540278    345.09159   0.05219171   0.05368405            3 
  552000    1.0289115   -4.7534083    345.19537  0.052112827  0.053652163            6 
  553000    1.0422287   -4.8328617    344.10511  0.051854296  0.053619542            3 
  554000    1.0358616    -4.800021    346.37255  0.052101767  0.053587525            3 
  555000    1.0290327   -4.7711706    346.71767  0.052059711   0.05355654            4 
  556000    1.0413537   -4.8069863     347.6637  0.052107868   0.05352406            4 
  557000    1.0421543   -4.7758992    348.98389  0.052211833  0.053492092            2 
  558000    1.0319832   -4.7875155    350.57257  0.052355521  0.053460457            2 
  559000   0.99907553   -4.8073335    348.77431  0.051993785  0.053429382            2 
  560000    1.0010726   -4.8143227    350.01137  0.052085026  0.053398747            3 
  561000    1.0513493     -4.80687    350.07106  0.052001049  0.053368395            3 
  562000    1.0148789   -4.8121726    351.29588  0.052090137  0.053338442            2 
  563000    1.0377682   -4.8427736    351.47119  0.052023562  0.053309637            2 
  564000    1.0113984    -4.783752    353.10482  0.052172698  0.053281045            3 
  565000    1.0344174   -4.8015889    352.88526  0.052047973  0.053252392            2 
  566000    1.0441726   -4.7917337    353.45291  0.052039593  0.053223105            3 
  567000    1.0270264   -4.7904412    354.93886  0.052166205  0.053194352            2 
  568000    1.0233404   -4.7970592     355.1152  0.052100234   0.05316453            4 
  569000    1.0081805   -4.8323352    354.55962  0.051927302  0.053136058            4 
  570000    1.0247978   -4.8226359    355.40893   0.05196037  0.053106433            3 
  571000    1.0358222   -4.8107071    354.98679  0.051807763  0.053077911            3 
  572000    1.0436886   -4.8247562    356.75459  0.051974737  0.053049129            2 
  573000    1.0347129   -4.7839598    357.18667  0.051946869  0.053020793            6 
  574000    1.0035944   -4.8103138    358.68781  0.052074305  0.052992848            5 
  575000    1.0258087   -4.7686673    358.68331  0.051983088  0.052964486            3 
  576000    1.0253418   -4.7817293     358.6708  0.051891031   0.05293669            5 
  577000    1.0362819   -4.8138927    359.52695  0.051924748  0.052909146            3 
  578000    1.0159833   -4.8240895     359.8242  0.051877768  0.052880626            5 
  579000    1.0075672   -4.7909658    359.62743  0.051759849  0.052851428            3 
  580000    1.0267464   -4.8385257    360.10697  0.051739507  0.052822529            2 
  581000    1.0124863   -4.7937616    360.49932   0.05170673  0.052793661            3 
  582000    1.0253211   -4.8114824    361.39789  0.051746548  0.052765226            1 
  583000    1.0223337   -4.8038011     361.8988  0.051729388  0.052736398            3 
  584000    1.0142153   -4.8470503     360.9564  0.051506336  0.052708226            5 
  585000    1.0275866   -4.7691524     363.5031  0.051781068  0.052679397            4 
  586000   0.99383412   -4.8037958    363.27712  0.051660568  0.052651621            2 
  587000    1.0170626   -4.8088082    362.55302  0.051469765  0.052624598            2 
  588000    1.0302717   -4.8029768    365.07071  0.051739046  0.052597094            2 
  589000    1.0165226   -4.8412495    364.86008  0.051621404  0.052569512            8 
  590000    1.0165629   -4.8003003    365.23459  0.051586806  0.052542106            4 
  591000    1.0205704   -4.8180615    366.08571   0.05161953  0.052513883            3 
  592000     1.037283   -4.8156749    365.98847  0.051518647  0.052486666            3 
  593000    1.0112719   -4.8374731    367.40341  0.051630609  0.052460355            2 
  594000   0.99279807   -4.8262301    367.10039  0.051501177   0.05243357            2 
  595000    1.0198679   -4.8510531    367.87391  0.051522957  0.052407264            4 
  596000    1.0056396   -4.8293783     368.1952  0.051481432  0.052381018            9 
  597000    1.0229593   -4.8383991    369.23223  0.051539955  0.052354826            4 
  598000    1.0175017   -4.8441752    369.02948  0.051425512  0.052328769            3 
  599000    1.0121817   -4.8226271    370.88653  0.051598015  0.052303345            4 
  600000    1.0195325   -4.8443007    369.80342  0.051361585  0.052277724            3 
  601000    1.0205171   -4.8033247    372.36546  0.051631373  0.052252526            4 
  602000    1.0411152   -4.8243805    371.68953   0.05145204   0.05222694            3 
  603000    1.0088866    -4.824969    370.71963  0.051232674  0.052201567            2 
  604000    1.0233216   -4.8167393    371.01991  0.051189282   0.05217522            5 
  605000    1.0312678   -4.8548499    373.77916  0.051484733  0.052149147            2 
  606000   0.99554042   -4.8487781     374.2871  0.051469624  0.052122918            3 
  607000   0.99847741   -4.8514509    373.63762  0.051295664  0.052096669            2 
  608000    1.0219064   -4.8184885    374.25058  0.051295309  0.052070156            3 
  609000    1.0172384   -4.7848255    374.04281  0.051182651   0.05204389            3 
  610000    1.0244961   -4.8356544     375.3418  0.051276202  0.052017509            8 
  611000    1.0186998    -4.863986    374.76952  0.051114228  0.051990927            4 
  612000    1.0036899   -4.8555161    374.57658  0.051004436  0.051964672            2 
  613000    1.0008162   -4.8663058    376.22266  0.051145005  0.051938575            3 
  614000    1.0083972   -4.8234686    378.30297  0.051344051  0.051913093            4 
  615000    1.0174994    -4.828919    377.62813  0.051169123    0.0518877            2 
  616000   0.98798976   -4.8586778    378.11719  0.051152217  0.051863127            8 
  617000    1.0112042   -4.8101807    380.55021  0.051397921  0.051838368            3 
  618000    1.0126131   -4.8239714    379.86224  0.051221985  0.051813436            2 
  619000    0.9995642   -4.8011435    381.12201  0.051308833  0.051788533            9 
  620000    1.0137964   -4.8191241    379.43645  0.050999523  0.051763709            5 
  621000   0.99556555   -4.8792487    379.64679  0.050945624  0.051738644            2 
  622000    1.0226851   -4.8564777    380.83056  0.051022315  0.051713344            5 
  623000    1.0038578    -4.846898    381.22106  0.050992651  0.051687729            6 
  624000   0.98818659    -4.835131    382.35032  0.051061741  0.051661959            3 
  625000   0.99984681   -4.8491422    381.85535  0.050914047  0.051636623            2 
  626000    1.0025322   -4.8493181    383.47012  0.051047673  0.051611059            3 
  627000    1.0416988   -4.8575779    382.14764  0.050790489  0.051585261            4 
  628000   0.99260949    -4.840923     383.9134  0.050943923  0.051559857            2 
  629000   0.99946228    -4.872044    381.92474  0.050599462  0.051534336            7 
  630000    1.0071159   -4.8304667    384.14051  0.050812237  0.051508727            2 
  631000    1.0058659   -4.8552706    383.97768  0.050710206  0.051483127            2 
  632000   0.98965764   -4.8588742    384.44597  0.050691716  0.051457829            6 
  633000    1.0107075   -4.8359523    386.19653  0.050842092  0.051432129            9 
  634000    1.0112139   -4.8467485     386.4557  0.050795965  0.051407205            5 
  635000   0.99911163   -4.8621592     385.4814   0.05058811  0.051382292            5 
  636000     1.006226   -4.8380058    385.85542  0.050557576  0.051356958            3 
  637000    1.0148057   -4.8333197    386.93051  0.050618853  0.051330589            2 
  638000    1.0007875   -4.8575853    385.88165  0.050402514  0.051303787            4 
  639000    0.9920786   -4.8423391    386.56376  0.050412592  0.051276383            5 
  640000   0.98714832   -4.8674753    386.69643  0.050351098  0.051249315            2 
  641000    1.0038903    -4.884227    386.88505  0.050297068  0.051222633            4 
  642000   0.98821066   -4.8475214     387.7614  0.050332477  0.051195744            4 
  643000   0.98063087   -4.8353813     389.2314  0.050444712  0.051169698            3 
  644000   0.98647843   -4.8657136    388.05801  0.050214546   0.05114243            3 
  645000   0.97753984   -4.8625008    389.47065  0.050319205  0.051115265            3 
  646000    1.0056105   -4.8321587    390.31781  0.050350595    0.0510891            2 
  647000   0.99964212   -4.8487723    391.02531  0.050363898  0.051063117            3 
  648000   0.97257151    -4.842902     389.5755   0.05009973  0.051036878            6 
  649000    1.0187927   -4.8739196    390.17905  0.050100032  0.051010283            1 
  650000    1.0057853   -4.8791371    391.02237  0.050131073   0.05098302            3 
  651000   0.97582631   -4.8530007    393.71151  0.050398299  0.050956376            2 
  652000   0.98160294   -4.8614299    391.84471  0.050082401  0.050930435            2 
  653000    0.9837059   -4.8621888    392.88637  0.050138639  0.050903736            4 
  654000    1.0058127   -4.8700793    394.15708  0.050223888  0.050877327            2 
  655000   0.99150367   -4.8800128    392.29775  0.049910655  0.050850952            4 
  656000   0.99696816    -4.866898    394.61942  0.050129499  0.050824218            3 
  657000   0.99590267   -4.8921606    393.56382  0.049919308  0.050797203            3 
  658000   0.99937124   -4.8804601    394.26292  0.049931981  0.050770614            2 
  659000   0.99180205   -4.8763819    396.36534  0.050122071  0.050744619            5 
  660000    1.0018753   -4.8595053    396.97759  0.050123433  0.050718957            4 
  661000   0.99916168   -4.8604086    395.89089  0.049910602  0.050692363            4 
  662000   0.98142843   -4.8385309     397.5392  0.050042699  0.050665514            3 
  663000   0.97087068   -4.8791367    396.97784  0.049896662   0.05063919            3 
  664000   0.99361807   -4.8873213    398.23303  0.049979045    0.0506126            6 
  665000    0.9917592   -4.8733587    396.60933  0.049700418  0.050586245            2 
  666000   0.98904629    -4.883464    398.86765  0.049908364  0.050560099            2 
  667000   0.97533038   -4.8864407    399.23292  0.049879175  0.050533971            4 
  668000   0.97759242   -4.8596189    401.09912  0.050037316  0.050508329            4 
  669000   0.99613926   -4.8739618    399.13255  0.049717557  0.050482041            8 
  670000   0.97788593   -4.8646826    400.49088  0.049812298  0.050456351            3 
  671000   0.99266184   -4.8509715    399.70145  0.049640021   0.05043116            3 
  672000   0.96935092   -4.8887871    399.49596  0.049540669  0.050405112            3 
  673000   0.98074924   -4.9115525    400.71237  0.049617678  0.050378502            2 
  674000    1.0078493   -4.8847421    401.01104  0.049580989  0.050352411            4 
  675000   0.97412285   -4.8591041    401.17129  0.049527319   0.05032688            6 
  676000   0.98773742   -4.8514349    402.80421  0.049655351  0.050300861            3 
  677000   0.98452119    -4.895382     403.1578   0.04962553  0.050274939            3 
  678000    0.9735211   -4.8662528    403.76172  0.049626564  0.050248869            7 
  679000   0.99420131   -4.9131463    404.29494  0.049618918  0.050222418            2 
  680000   0.98657393   -4.8931766    403.42238  0.049439018  0.050195991            2 
  681000   0.99360804   -4.8673806    405.29804  0.049595943  0.050169061            4 
  682000   0.97781205   -4.8912981    404.57011  0.049434275  0.050142527            5 
  683000   0.97131946   -4.8935445    404.81773  0.049392109  0.050115766            3 
  684000   0.96838442   -4.9117306    405.48987  0.049401787  0.050088235            8 
  685000   0.95994296   -4.9023427    403.80867  0.049125143  0.050061125            1 
  686000    0.9719396   -4.9112393    406.14267  0.049337059  0.050034253            2 
  687000   0.97680075   -4.9055575    406.02913  0.049251472  0.050007819            5 
  688000   0.98035761   -4.8898517    407.43126  0.049349717  0.049982277            5 
  689000   0.98059482   -4.8991604    405.92631   0.04909607  0.049956773            3 
  690000   0.97732928   -4.9049112    407.88562  0.049261548  0.049930547            1 
  691000   0.98945256   -4.9238887    407.71851  0.049170105  0.049904935            8 
  692000   0.99602746   -4.9144747    407.50404  0.049073223  0.049878718            2 
  693000    0.9647027   -4.9149562    409.23672  0.049210765  0.049853023            4 
  694000   0.97180968   -4.9261513    409.77396  0.049204366  0.049827696            4 
  695000   0.96796784    -4.901571    410.43228  0.049212504  0.049801761            4 
  696000   0.96759205   -4.8728337    409.55241  0.049036448  0.049775884            4 
  697000   0.97194218   -4.8649304    410.34605  0.049060982  0.049750299            3 
  698000   0.99332158   -4.9242074    410.20522   0.04897388  0.049725275            4 
  699000   0.95870313   -4.9097531    411.56072  0.049065417  0.049699091            7 
  700000   0.97902145   -4.8939608    412.79279  0.049141998  0.049673156            3 
  701000   0.96140316   -4.8955324    411.72154  0.048944548   0.04964661            4 
  702000   0.95867744   -4.8837808    412.64861  0.048984878  0.049620143            4 
  703000   0.95812372   -4.9168505     412.9129  0.048946526  0.049594159            2 
  704000   0.96875128   -4.9027255    414.15767  0.049024346  0.049568031            2 
  705000   0.96155053   -4.8721042    415.02232  0.049057012  0.049542212            2 
  706000   0.95336365   -4.9158888    414.59384   0.04893695  0.049516622            4 
  707000   0.95978591   -4.8886928    414.54979   0.04886254  0.049491251            6 
  708000   0.95514539   -4.9406951    414.12305  0.048743297  0.049464595            5 
  709000   0.97171874   -4.8977127    415.99736  0.048894847  0.049438463            6 
  710000    0.9705507   -4.9076521    415.94051  0.048819309   0.04941241           12 
  711000   0.98086609   -4.9425287    415.71822  0.048724592  0.049386002            2 
  712000   0.97448905   -4.9366591    416.37095  0.048732555  0.049360059            5 
  713000   0.97560927   -4.9407393    416.23928  0.048648817  0.049333224            4 
  714000   0.97491574   -4.9199484    416.66427  0.048630284  0.049307214            7 
  715000    0.9566893   -4.9183481    416.20001  0.048508159  0.049280914            3 
  716000   0.98382152   -4.9190097    419.14747  0.048783458   0.04925482            3 
  717000   0.94956608   -4.9066055    417.03912  0.048470376  0.049228818            3 
  718000   0.96202338   -4.9023148     418.1911  0.048536571  0.049202012            2 
  719000   0.96038713   -4.9107115    418.12516  0.048461423  0.049175505           12 
  720000   0.98019698   -4.9192124    419.18019  0.048516226  0.049148453            3 
  721000    0.9763503    -4.921596    418.02918  0.048315902  0.049121386            3 
  722000   0.94452073   -4.9105611    419.03968  0.048365614  0.049094364            3 
  723000   0.96427567   -4.9079484    419.24235  0.048322078  0.049068265            2 
  724000   0.95956881    -4.921905    420.19288  0.048364743  0.049041294            2 
  725000   0.95163341   -4.9272299    418.67362  0.048123404  0.049015169            3 
  726000   0.96716768   -4.9086964    420.02243  0.048211941  0.048988199            4 
  727000    0.9594521    -4.950559    420.97546  0.048254868  0.048961028            8 
  728000   0.97538907   -4.9320555    420.72322  0.048159709  0.048933619            5 
  729000   0.95527226   -4.9266521    421.22147  0.048150602  0.048906213            4 
  730000   0.96057685   -4.9541263    421.72953  0.048142641  0.048878526            3 
  731000   0.96518025   -4.9665413      420.836   0.04797492  0.048850993            6 
  732000   0.97091933   -4.9525786    422.92428  0.048147118  0.048823419            4 
  733000   0.96461121   -4.9340985     423.1433  0.048106332   0.04879637            2 
  734000    0.9692073   -4.9285421    422.63924  0.047983565  0.048769242            4 
  735000   0.97118761   -4.9173281    422.89985  0.047947829   0.04874156            6 
  736000   0.95163162   -4.9743304    422.03297   0.04778453  0.048713915            3 
  737000   0.97160675   -4.9389151    423.62493  0.047899698  0.048686156            2 
  738000    0.9252993   -4.8964418    424.50325  0.047933972   0.04865908            5 
  739000   0.95413838   -4.9498506    423.75216  0.047784411  0.048631382            3 
  740000   0.97039818   -4.9009502    425.42656  0.047908396  0.048603779            3 
  741000   0.96114796   -4.9409401    425.32395  0.047832203  0.048576017            3 
  742000   0.94634601   -4.9331776    424.25816  0.047648041  0.048548114            9 
  743000   0.95462517   -4.9288755    425.01007  0.047668245  0.048520021            1 
  744000   0.94591803   -4.9054775    425.98363   0.04771322  0.048492212            2 
  745000   0.94697611   -4.9672231     426.2942  0.047683915   0.04846391            3 
  746000   0.95620681   -4.9724313    425.44111    0.0475247  0.048436118            7 
  747000   0.95047403   -4.8872969    428.40743  0.047791993  0.048408838            6 
  748000   0.94898056   -4.9487024    428.20936  0.047706034  0.048381891            4 
  749000   0.95994357    -4.953597     427.7626  0.047592635   0.04835502            6 
  750000     0.963344   -4.9302903    428.98626   0.04766514  0.048327711            4 
  751000   0.94819971    -4.928367    429.61974  0.047671964  0.048301257            3 
  752000   0.97748854   -4.9974811     427.5495  0.047379155  0.048274283            3 
  753000   0.94892367   -4.9516521    431.40023  0.047742389  0.048246895            3 
  754000   0.94493766   -4.9342773    429.24727  0.047441122  0.048220005            2 
  755000   0.95585995   -4.9448556    430.14283  0.047477134  0.048192971            4 
  756000   0.94148736   -4.9450419    428.62232  0.047246729  0.048165543            6 
  757000   0.97261386   -4.9729065    431.52022  0.047503327   0.04813779           10 
  758000   0.95433122   -4.9314638    431.02225  0.047385911  0.048110544            3 
  759000   0.96431419   -4.9100117    433.33079  0.047576943  0.048083687            2 
  760000   0.95077289   -4.9339497    432.45215  0.047417999  0.048057267            3 
  761000   0.94158814   -4.9257348    433.87307  0.047511287  0.048031034            4 
  762000   0.92357576   -4.9304678    435.47178  0.047623772  0.048004709            4 
  763000   0.97925811   -4.9582181    433.88811  0.047388391  0.047978123            2 
  764000   0.94185964   -5.0045539    431.72566  0.047090495  0.047951393            3 
  765000   0.95551686   -4.8970582    434.53069  0.047334498  0.047925145            3 
  766000   0.92441889   -4.9366636    435.08105  0.047332577  0.047898718            7 
  767000   0.94215439   -4.9379223    433.51379  0.047100586  0.047871778            2 
  768000    0.9445414   -4.9417037    434.10324  0.047103217   0.04784469            1 
  769000   0.92706974   -4.9410117    435.72947  0.047218191  0.047818074            3 
  770000   0.93407958   -4.9516933    434.91723  0.047068964  0.047791341            1 
  771000   0.95186393   -4.9566432    436.33589  0.047161251  0.047764205            2 
  772000    0.9476984   -4.9616979    436.81291  0.047151653  0.047737769            4 
  773000   0.94385713   -4.9623548    438.10504  0.047229953  0.047711719            2 
  774000   0.95248447   -4.9723271    438.03427  0.047161313  0.047685371            5 
  775000   0.94600783   -4.9636522    438.04409  0.047101515  0.047658479            4 
  776000   0.94918903   -4.9268221    438.13243  0.047050304  0.047631575            3 
  777000   0.91144183   -4.9608891    437.94663  0.046969822  0.047604901            2 
  778000   0.94143895   -4.9642781    438.24382  0.046941284  0.047578143            4 
  779000   0.94006678   -4.9694224    437.98585  0.046853428   0.04755137            5 
  780000   0.96602159   -4.9496013    439.94794  0.047002985   0.04752476            4 
  781000   0.92577659   -4.9840466    439.65714  0.046911773  0.047498285            6 
  782000   0.93574167   -4.9774592    439.71757  0.046858224  0.047471889            4 
  783000   0.94952741   -4.9276828     441.1846  0.046954513  0.047446302            7 
  784000    0.9397923   -4.9430469    441.47961  0.046925979  0.047420455            3 
  785000   0.94555734    -4.942025    441.38007  0.046855634  0.047394697            7 
  786000   0.93005082   -4.9715043    441.88764  0.046849834  0.047368656            4 
  787000   0.95038103   -4.9701233    443.49133  0.046960115  0.047342889            5 
  788000   0.92501406   -4.9625418    442.23125  0.046767264  0.047317313            2 
  789000   0.94534247    -4.974076    443.39138  0.046830522  0.047291947            2 
  790000   0.93543392   -4.9766368    444.97188  0.046937962   0.04726644            2 
  791000   0.96098079   -4.9224229    445.29596  0.046912764  0.047241855            3 
  792000   0.94736598   -4.9873066    445.54035  0.046879246  0.047217301            3 
  793000   0.93677517   -4.9757348    446.39931  0.046910394  0.047192375            9 
  794000   0.93867827   -4.9882021    444.13715  0.046613891  0.047167532            7 
  795000   0.95242569   -4.9840303     445.2223  0.046669005  0.047142626            8 
  796000   0.91232634   -4.9706562    446.88345  0.046784281  0.047117693            2 
  797000   0.92272353   -4.9756017    447.84196    0.0468258  0.047093011            5 
  798000   0.93899645    -4.974832    447.28596   0.04670906  0.047068462            3 
  799000    0.9201338   -4.9458686    448.93106   0.04682218   0.04704405            4 
  800000   0.91966985   -4.9686484    448.83466  0.046753611  0.047019217            4 
  801000   0.92879865   -4.9860625    449.01964  0.046714486  0.046994524            5 
  802000   0.90444498   -5.0052011    448.48535  0.046600722  0.046969584            4 
  803000   0.94636351   -4.9484388    449.89364  0.046688837  0.046945256            3 
  804000   0.95442576   -4.9824836    449.24869  0.046563919  0.046920757            3 
  805000   0.94081926   -5.0077381    450.50929  0.046636573  0.046896303            4 
  806000    0.9512083   -4.9915323    450.00956  0.046527043  0.046871661            3 
  807000   0.92450809   -4.9400646    451.40667  0.046613659  0.046847116            5 
  808000   0.94007732   -4.9797031    452.24313  0.046642237  0.046822954            7 
  809000   0.93644894   -5.0429128    450.99404  0.046455916  0.046798746           10 
  810000   0.93420871   -4.9864918     451.3044  0.046430493   0.04677442            5 
  811000   0.93636903   -5.0037702      452.387  0.046484484  0.046750041            4 
  812000   0.92591372   -5.0163501    452.27395  0.046415635   0.04672576            2 
  813000   0.92034243   -4.9937138    452.11109   0.04634185  0.046701054            2 
  814000   0.90692166   -4.9745287    452.35203  0.046309585  0.046677206           10 
  815000   0.93436593   -4.9950886    454.23482  0.046445278  0.046652343            3 
  816000   0.92100664   -5.0219612    452.53324  0.046214587  0.046627503            8 
  817000   0.92956771   -4.9793907    454.66138  0.046375089  0.046602944            3 
  818000   0.93114375   -4.9979533    455.32963  0.046386474   0.04657858            3 
  819000   0.90600338   -4.9949187    456.47071  0.046445941   0.04655437            2 
  820000   0.92890955   -5.0162798    453.75534  0.046113347  0.046529937            1 
  821000   0.92146238   -4.9840204     456.3046  0.046315936  0.046505838            2 
  822000   0.93920531    -5.004229    455.56157  0.046184263  0.046482138            2 
  823000   0.90055553   -4.9820332     455.4892  0.046120818  0.046457654            5 
  824000   0.92997312   -5.0001625    457.25691   0.04624362  0.046433784            8 
  825000   0.94222069   -4.9793884    459.33862  0.046397841   0.04640996            6 
  826000   0.91819653   -5.0022789    457.70619  0.046176977  0.046386743            3 
  827000   0.92349072   -4.9718795    460.24425   0.04637689  0.046363572            7 
  828000    0.9200111   -5.0012301    459.46431  0.046242383  0.046340589            6 
  829000   0.90894689    -5.021324    458.33573  0.046073153  0.046317109            4 
  830000   0.92410282   -4.9802721    459.16264  0.046100667  0.046293717            3 
  831000   0.92475578   -5.0181693    458.53712  0.045982463  0.046270033            8 
  832000   0.91246972   -4.9906202    460.18916  0.046092664  0.046246367            7 
  833000   0.93941588   -4.9849627    459.43772  0.045962157  0.046222561            6 
  834000   0.93966527   -5.0048815    460.32177   0.04599538  0.046198406            6 
  835000   0.92294743   -5.0045829    461.14162  0.046022118  0.046174488            4 
  836000   0.91770621   -5.0090843    461.20911  0.045973795  0.046150565            6 
  837000   0.91776566     -5.02069    459.88849  0.045787384  0.046126304            3 
  838000   0.92039927   -5.0186819    462.71605  0.046013927  0.046102585            4 
  839000   0.89608078   -4.9912643     461.7921  0.045867312  0.046078762            3 
  840000   0.93307643   -5.0241959    461.45442  0.045779208  0.046055091            7 
  841000   0.91213446    -5.028201      463.396  0.045917162  0.046030811            7 
  842000   0.92041846   -5.0345922    461.89925  0.045714495  0.046005958            4 
  843000   0.91906378   -4.9752867    462.97243  0.045766353  0.045981903            3 
  844000   0.90889632   -5.0297161     462.6781  0.045683066  0.045957993            3 
  845000   0.90905754   -5.0595456    462.61271  0.045622556  0.045933699            3 
  846000   0.91794085   -5.0332992    463.51598  0.045657602   0.04590921            5 
  847000   0.93980522   -5.0041017    464.02322  0.045653603  0.045884903            8 
  848000   0.90645856   -5.0171239    463.36051  0.045534641  0.045860682           12 
  849000   0.91339179   -5.0300928     464.9087  0.045632971  0.045835934            4 
  850000     0.919607   -4.9966593    465.71721   0.04565855  0.045811432            4 
  851000   0.91853931   -5.0255576    465.27711    0.0455618  0.045786986            6 
  852000   0.93247564   -5.0049972    466.63989  0.045641617  0.045762897            4 
  853000   0.92068271   -5.0212491    466.10244  0.045535603  0.045738831            6 
  854000   0.90730931   -5.0513239    465.24322   0.04539844  0.045714545            6 
  855000   0.90688742   -5.0341696    466.37539  0.045455691  0.045690008            6 
  856000   0.91173794   -4.9983015    467.41699   0.04550399    0.0456658            1 
  857000   0.91588679    -5.004816    466.01776  0.045314834  0.045642048            4 
  858000   0.89421978   -5.0142502    467.17294  0.045374217  0.045618207            1 
  859000   0.91868279   -5.0374729    469.29857  0.045527607  0.045594577            5 
  860000   0.90911058   -5.0220873    468.51293   0.04539854   0.04557097            3 
  861000   0.90887001    -5.020117    469.78599  0.045469027  0.045547422            2 
  862000   0.87833267   -5.0296902    469.25418  0.045364867  0.045524085            8 
  863000   0.88808159   -5.0152992    471.45788  0.045525095  0.045500904            7 
  864000   0.91172279   -5.0423717       471.32  0.045459105  0.045478219            2 
  865000   0.90265607   -5.0372569    470.22106   0.04530068  0.045455435            2 
  866000   0.92025922   -5.0433678    472.71334  0.045488197  0.045433017            4 
  867000   0.89692161   -5.0414929    471.80025  0.045347967  0.045410611            3 
  868000   0.90909722   -5.0643484    473.01213  0.045412071  0.045388644            4 
  869000   0.90794069   -5.0126298    473.81023  0.045436348  0.045366658            6 
  870000   0.91476419   -5.0281774    474.00237  0.045402525  0.045344416            5 
  871000   0.89300137   -5.0351293     474.7461  0.045421556  0.045322091            3 
  872000   0.90888807   -5.0431895    473.56791  0.045256872  0.045299803            5 
  873000   0.90117433   -5.0561878    474.66165  0.045309436  0.045277691            3 
  874000   0.90771504   -5.0421018    475.55643  0.045342909  0.045255633            3 
  875000   0.92693817   -5.0166085    474.39259  0.045180246  0.045233299            5 
  876000   0.89505422   -5.0200139    474.45203  0.045134326  0.045211176            6 
  877000   0.88228933   -5.0354221    476.59399  0.045286392   0.04518895            5 
  878000   0.91024126   -5.0307558    475.73781  0.045153551  0.045166752            4 
  879000   0.90330086   -5.0433278    477.58733  0.045277525  0.045144446            4 
  880000   0.90204447   -5.0244406    477.14487  0.045184173   0.04512215            3 
  881000   0.91002979   -5.0193377    476.16342  0.045040051  0.045099646            4 
  882000   0.92834774   -5.0295988     477.4695  0.045112387  0.045077702            3 
  883000   0.88548377   -5.0307985     478.0629  0.045117299  0.045055579            2 
  884000   0.89452469   -5.0536799    477.60391  0.045022993  0.045032943            3 
  885000   0.88439527   -5.0456929    479.00785  0.045104318  0.045010398            4 
  886000   0.89257487   -5.0401317    478.79291  0.045033193  0.044987977            4 
  887000    0.8891359   -5.0391171    478.65384  0.044969357  0.044965487            4 
  888000   0.89662305   -5.0437356    479.22794  0.044972592  0.044942824            4 
  889000   0.90441925   -5.0568105    479.71821  0.044967961  0.044920394            5 
  890000   0.90916592   -5.0570127    478.83732  0.044834955  0.044897997            4 
  891000   0.91263752   -5.0608923    478.88931  0.044789497  0.044876002            3 
  892000   0.89512041   -5.0514724    482.27528  0.045055613  0.044853683            3 
  893000   0.92049315   -5.0917567    480.62745  0.044851386   0.04483172            3 
  894000   0.87814645    -5.098872    480.46858  0.044786407  0.044809557            5 
  895000   0.92156919   -5.0393393    483.80428  0.045046953   0.04478808            9 
  896000    0.8781947   -5.0658453    481.76574  0.044807082  0.044766439            7 
  897000   0.91062784   -5.0429173     481.7422  0.044754942  0.044744796            7 
  898000   0.88769297   -5.0738884    483.06138  0.044827522  0.044722817            6 
  899000   0.88598894   -5.0669071     482.9322  0.044765684  0.044700976            3 
  900000   0.88350199   -5.0648937    483.12481  0.044733778  0.044679424            3 
  901000   0.89958803   -5.0785252    484.38077  0.044800293   0.04465825           12 
  902000    0.9040093   -5.0701698    485.70936   0.04487337   0.04463665            6 
  903000    0.9123669   -5.0633124     484.2201   0.04468624  0.044614952            6 
  904000   0.91278516    -5.039975    485.61889  0.044765753   0.04459341            3 
  905000    0.8966838   -5.0577806    486.19582  0.044769413  0.044571962            4 
  906000   0.88364177   -5.0480951    486.06923  0.044708354  0.044550498            4 
  907000   0.89055314   -5.0924444    486.04202  0.044656562  0.044528813            1 
  908000   0.88951682   -5.0859616     484.9544  0.044507562  0.044506975            6 
  909000   0.90383234   -5.0669606    484.38728  0.044406608  0.044484953           11 
  910000   0.90853505   -5.0635443    486.73001  0.044572345  0.044463285            3 
  911000   0.88874515   -5.0459353    488.26759  0.044664068  0.044441742            7 
  912000    0.8731119    -5.069892    488.69884    0.0446545   0.04442044            3 
  913000   0.87428354   -5.0870472    488.84343  0.044618787   0.04439889            8 
  914000    0.9037221   -5.0781235    488.32773  0.044522951  0.044376988            3 
  915000   0.87982483   -5.1112367    487.40628  0.044390371  0.044355171            3 
  916000   0.88603917   -5.0543251     487.7855   0.04437641  0.044333478            5 
  917000   0.87678999    -5.076611    490.95908   0.04461642  0.044311728            9 
  918000   0.89586228    -5.060632    491.11054  0.044581567  0.044290248            6 
  919000     0.885143   -5.0756449    489.34033  0.044372536  0.044268704            3 
  920000   0.88742396   -5.0618832    489.16616  0.044308529  0.044246738            5 
  921000   0.87889205   -5.0586524    489.47697  0.044288542  0.044225236            4 
  922000   0.86865723   -5.0912981    489.42106  0.044235454  0.044203414            8 
  923000   0.90682376   -5.0708038    489.33783  0.044180013  0.044181466            5 
  924000   0.88215018   -5.0568668    491.56307  0.044332889  0.044159394            7 
  925000   0.88466988   -5.0648644    489.50297  0.044099367   0.04413746            2 
  926000   0.87132924   -5.0893569    490.09803  0.044105294  0.044115424            3 
  927000    0.8794324   -5.0993103    491.25933  0.044162112  0.044093141            3 
  928000   0.89710454   -5.0887974    490.78926  0.044072311  0.044071041            4 
  929000   0.86776208   -5.0628726    493.08289  0.044230615  0.044048871            2 
  930000   0.88474182   -5.0952759    491.22792  0.044016839  0.044026723            5 
  931000   0.88399754   -5.0772743    492.42067  0.044076322  0.044004475            5 
  932000   0.86211269   -5.0805769    494.29343   0.04419648  0.043982564            8 
  933000   0.87873294   -5.0750747    491.63538  0.043911699   0.04396084            8 
  934000    0.8777893   -5.1191624    491.33737  0.043838095  0.043938587            5 
  935000   0.88559005   -5.0963622    493.19916  0.043957144  0.043916427            7 
  936000   0.86737999   -5.0836758     494.9916  0.044069765  0.043894569            4 
  937000   0.88650664   -5.1117381    494.78362  0.044004235  0.043872454            5 
  938000   0.86259079   -5.1162914    493.70952  0.043861897  0.043850485            5 
  939000   0.87830332   -5.0870837    495.98071  0.044016748  0.043828975            8 
  940000   0.87057601   -5.0933417    496.54817  0.044020228  0.043807255            7 
  941000   0.87562163   -5.0987969    495.84137  0.043910854  0.043785473            5 
  942000   0.87368137   -5.1016813    496.24245  0.043899721  0.043763788            6 
  943000   0.89582741   -5.1119305    495.97417   0.04382946  0.043741798            7 
  944000   0.87715392   -5.0963071    498.16058   0.04397604   0.04372003            3 
  945000   0.87062957   -5.1105252    496.25875  0.043761795  0.043698278           11 
  946000   0.88450019   -5.0825664    496.84429  0.043767115  0.043676201            3 
  947000   0.87912411   -5.0925764    496.18697  0.043663056  0.043654459            5 
  948000   0.87714368   -5.1143384    497.04186  0.043692147  0.043632678            5 
  949000   0.87326087   -5.1080224    496.76623  0.043621903  0.043610581            5 
  950000   0.85708732   -5.1003924    499.77952  0.043840309  0.043589206            5 
  951000   0.87730546    -5.111261    499.13627  0.043737844  0.043567878            6 
  952000   0.89537691   -5.1193224    498.39674  0.043627165  0.043546363            6 
  953000   0.87213121    -5.081254    500.95259  0.043804878   0.04352519            4 
  954000   0.88954916   -5.1124122    500.85811  0.043750708  0.043504485            5 
  955000   0.83793821   -5.0971572    501.64723  0.043773755  0.043483555            8 
  956000   0.88082993   -5.1391331    500.88247  0.043661304  0.043462709            5 
  957000   0.84695367   -5.1246047    501.05053  0.043630314  0.043441641            3 
  958000   0.90534701   -5.1234886    502.51866  0.043712479    0.0434207            6 
  959000   0.83617771   -5.1156854    502.83572  0.043694449  0.043399732            6 
  960000   0.88013813   -5.1082421    502.52096  0.043621611  0.043379097            3 
  961000     0.831801   -5.0916516    504.35764  0.043735488  0.043358586            7 
  962000    0.8691493   -5.1288081    503.89671  0.043650096  0.043337979            4 
  963000   0.87177928   -5.1354133    503.59234   0.04357843  0.043317234            4 
  964000   0.87657413    -5.133768    504.41743   0.04360455  0.043296653            4 
  965000   0.85296634   -5.1259389    505.77657  0.043676733  0.043275968            2 
  966000   0.85003791   -5.1274408    504.80529   0.04354773  0.043255368            4 
  967000   0.87245082   -5.1277731    504.20922  0.043451329  0.043234966            5 
  968000    0.8647692    -5.108071    505.89647  0.043551693  0.043214511            5 
  969000   0.85838574   -5.1412464    507.02266    0.0436036  0.043194051            7 
  970000   0.87633965   -5.1106252    504.67417  0.043356887   0.04317375            8 
  971000   0.87612216   -5.1005565    506.72558  0.043488292  0.043153084            8 
  972000   0.86715775   -5.1342499    506.54426  0.043428006  0.043132485            7 
  973000   0.85399768   -5.1178562    506.34267  0.043366107  0.043111782            8 
  974000   0.84802763   -5.1445905     506.1981  0.043309215  0.043090796            7 
  975000   0.84795972   -5.0934917    507.43528  0.043370536   0.04306955            3 
  976000    0.8661825   -5.1044897    507.19681  0.043305739  0.043048608            7 
  977000   0.86203311   -5.1204034    507.66591  0.043301425  0.043028021            5 
  978000   0.88028117     -5.12927    507.71246  0.043261117  0.043007634            5 
  979000   0.87933326   -5.0925081    509.06614  0.043332154  0.042986549            8 
  980000   0.86573334   -5.1072963    506.70575  0.043087224  0.042965796            4 
  981000   0.84860992   -5.1392569    507.69936  0.043127707   0.04294476            5 
  982000   0.85373626   -5.1197878     508.8054  0.043177648  0.042923646           11 
  983000   0.86934482   -5.1353519    509.44491  0.043187937  0.042902583            4 
  984000   0.85769933    -5.124367    508.78754  0.043088376  0.042881653            6 
  985000   0.87109556   -5.1470859    509.62068  0.043115117  0.042860436            8 
  986000   0.85935344   -5.1571604    509.49267  0.043060571  0.042839443            8 
  987000   0.86445986   -5.1204563      509.061  0.042980497  0.042818282            3 
  988000   0.84095037   -5.1482436    508.52705  0.042891957  0.042796722           11 
  989000   0.85486102   -5.1188125    509.29029  0.042912899  0.042775144            4 
  990000   0.86798025   -5.1434248    508.57619  0.042809444  0.042753313           10 
  991000   0.83970143   -5.1609351     509.4172  0.042836966  0.042731381            6 
  992000   0.85939763   -5.0992394    510.14849  0.042855216  0.042709569            9 
  993000   0.86190395   -5.1391146     510.2609  0.042821492  0.042687841            3 
  994000   0.86183786   -5.1117878    511.66987  0.042896535  0.042666299            4 
  995000   0.83154112   -5.1131974    510.72843  0.042774575  0.042644974            4 
  996000    0.8409163   -5.1426793     510.4345  0.042707037  0.042623095            5 
  997000   0.85469122   -5.1230403    510.69047  0.042685596  0.042601349            3 
  998000   0.86312324   -5.1594323    510.05587  0.042589835   0.04257964            5 
  999000    0.8633192   -5.1422107    512.42015  0.042744424  0.042557935           10 
 1000000   0.86073715   -5.1236495    512.33872  0.042694894  0.042536371            4 
 1001000   0.84860064   -5.1399012    511.68247  0.042597608  0.042514514            4 
 1002000   0.85518727   -5.1276972       512.93  0.042658849  0.042492916            5 
 1003000   0.86978661   -5.1671614    510.19186  0.042388822  0.042471218            3 
 1004000   0.87332346   -5.1440097    512.88215    0.0425699  0.042449243            5 
 1005000   0.86371114   -5.1589288    513.90307  0.042612195  0.042427357            3 
 1006000   0.88133501   -5.1581941    513.65441  0.042549239  0.042405796            7 
 1007000   0.85470774   -5.1564643    511.84835  0.042357527  0.042384158            6 
 1008000   0.85440311   -5.1435709    515.76117  0.042638985   0.04236269            6 
 1009000   0.85846379   -5.1638617    514.34368  0.042479656  0.042341266           14 
 1010000   0.84080543   -5.1727694    513.84765  0.042396671  0.042319776            4 
 1011000   0.85539902   -5.1525416    513.84234  0.042354297  0.042298202           12 
 1012000   0.85528633   -5.1578455    515.97956  0.042488435  0.042276665            2 
 1013000   0.82408691   -5.1654488    516.01277  0.042449224  0.042255075            5 
 1014000   0.84242863   -5.1769314     515.8437  0.042393466   0.04223329            4 
 1015000   0.84628767   -5.1661267     513.7552   0.04218023  0.042211423            4 
 1016000   0.84391853   -5.1829561    515.57585  0.042288045  0.042189254            6 
 1017000   0.84680213   -5.1594804    515.95637  0.042277644  0.042167391            4 
 1018000   0.86138952   -5.1307733    515.41914  0.042192137  0.042145157           10 
 1019000   0.86886845   -5.1699381    515.18522  0.042131601  0.042123089            4 
 1020000   0.84944403   -5.1568976     515.4054  0.042108284  0.042100707            5 
 1021000   0.83919712   -5.0949843    518.18265   0.04229372  0.042078779            4 
 1022000   0.85073488    -5.150395    518.30434  0.042262259  0.042056865            4 
 1023000   0.85991461   -5.1657398    516.40505  0.042066231  0.042034696           14 
 1024000   0.86780708   -5.1606966    516.47564  0.042030896  0.042012505            5 
 1025000   0.84884001   -5.1792397    518.35001  0.042142277   0.04199052            7 
 1026000   0.84908895   -5.1911568    516.62909  0.041961427  0.041968486            8 
 1027000   0.83973377   -5.1603343    517.31201  0.041975982  0.041946447            4 
 1028000   0.86278147    -5.178437    517.97702  0.041989058  0.041924521            3 
 1029000   0.83752099   -5.1768467    516.68878  0.041843925  0.041902664            8 
 1030000   0.86871589   -5.1656409    518.90075  0.041982262  0.041880738            4 
 1031000   0.84161722   -5.2182149     517.4542   0.04182462  0.041858624            4 
 1032000   0.84604908    -5.173603    519.41915  0.041942761  0.041836489           10 
 1033000   0.84703933   -5.1895318    519.57005  0.041914332  0.041814479            7 
 1034000   0.84796948   -5.1816174    517.61062  0.041715878  0.041792954            7 
 1035000   0.83869694   -5.1786622    521.22739  0.041966779   0.04177121            5 
 1036000   0.85136926   -5.2261791    520.51847  0.041869246  0.041749559            7 
 1037000   0.85945987   -5.1778128    521.32027  0.041893304   0.04172816            3 
 1038000   0.83438779   -5.1845056    520.74019  0.041806373  0.041706402            3 
 1039000   0.83898069   -5.1755259    522.27451  0.041889197  0.041684767            5 
 1040000   0.82523529    -5.170486     520.8382   0.04173383    0.0416632            6 
 1041000   0.83541443   -5.1804349    523.40147  0.041898933  0.041641511            9 
 1042000   0.84520499   -5.2092804    519.38331  0.041537373  0.041619755            6 
 1043000   0.83408021   -5.1584869    522.16753  0.041720001  0.041597443            5 
 1044000   0.82821007   -5.1779277    520.84849  0.041574752  0.041575138            6 
 1045000   0.83912272   -5.1735266    522.15979  0.041639537  0.041553128            9 
 1046000   0.86008259   -5.1766106    522.30098  0.041610977  0.041530524            4 
 1047000   0.82196577   -5.1857141    521.52573   0.04150953  0.041508356            5 
 1048000   0.82756504    -5.179289    521.74751  0.041487557  0.041485962            2 
 1049000   0.84905198   -5.1422224    523.38585  0.041578157   0.04146382            6 
 1050000   0.85437681   -5.2025645    521.63725  0.041399782   0.04144149            3 
 1051000   0.84439852   -5.1980673     521.4441  0.041345076   0.04141907            5 
 1052000   0.86071193   -5.1862268    523.16563  0.041442145  0.041396248            5 
 1053000   0.83973396    -5.184456    522.39765  0.041342011  0.041373775            4 
 1054000   0.83681387   -5.1833996    525.05621  0.041512983  0.041351355            4 
 1055000   0.82947925   -5.1966143    522.74283  0.041290903  0.041328965            9 
 1056000   0.82403072   -5.1783575    523.70627   0.04132783  0.041306399            8 
 1057000   0.82135266   -5.1923319    524.81156  0.041375872  0.041283668            5 
 1058000   0.83352891   -5.1909442    523.56986  0.041238962  0.041261065            4 
 1059000   0.82343893   -5.1926211    524.30978  0.041258245  0.041238839           11 
 1060000   0.83222056   -5.2066433    523.86342  0.041184231  0.041216519            5 
 1061000   0.80889206   -5.1694159    526.54888  0.041356337  0.041194329            5 
 1062000    0.8388956   -5.1530392    527.81504  0.041416748  0.041172684            7 
 1063000   0.82800639   -5.1719995    526.21086  0.041252027  0.041150594            6 
 1064000   0.81047589   -5.1774053        527.6  0.041322055  0.041128896            7 
 1065000   0.82737259   -5.1854089    526.44754  0.041193079  0.041107029            7 
 1066000   0.83155389   -5.2146811    525.39011  0.041071772  0.041085265            4 
 1067000   0.82804186   -5.2176249     527.3283  0.041184653  0.041063246            3 
 1068000   0.82943471   -5.1898887    527.61242   0.04116826  0.041041348           12 
 1069000   0.81342731   -5.2306907    528.26926  0.041180952  0.041019401            4 
 1070000   0.84183775   -5.2037579    527.81267  0.041106906  0.040997549           10 
 1071000   0.82471223   -5.2054038    527.25696  0.041025285  0.040975445            4 
 1072000   0.82363783   -5.1916491    526.88632  0.040958203  0.040953425            3 
 1073000   0.84136464    -5.206759    527.88686  0.040997737  0.040931339            6 
 1074000   0.83659664   -5.2138375    529.34909  0.041073021   0.04090922           11 
 1075000   0.82350756   -5.1881906    527.36779  0.040881224  0.040886934            4 
 1076000   0.82896932   -5.2297151    528.54625  0.040934499  0.040864815           12 
 1077000   0.84042632   -5.2313731    527.05848  0.040781374  0.040842667           10 
 1078000   0.83829566   -5.2005128    529.73318  0.040950308  0.040820381            3 
 1079000   0.81274835   -5.2044881     528.3558  0.040805978  0.040798198            3 
 1080000   0.83087422   -5.2135325    528.34532  0.040767386  0.040775935            5 
 1081000   0.82372358   -5.2258846    528.86907  0.040770049  0.040753622           14 
 1082000   0.83806022   -5.2230257    528.51744  0.040705287   0.04073141            7 
 1083000    0.8257404   -5.2559708    529.21655  0.040721495  0.040708933            5 
 1084000   0.81517722   -5.2294398    531.01487  0.040822176  0.040686432            5 
 1085000   0.83613839   -5.2010636    529.61946  0.040677378  0.040664301            5 
 1086000   0.81633801    -5.193833    532.88783  0.040890717   0.04064215            8 
 1087000    0.8137867   -5.2087244    528.77357  0.040537685  0.040619793            4 
 1088000   0.80126593   -5.1913963      530.961  0.040667968  0.040597691            6 
 1089000   0.82206556   -5.2233854    530.68656  0.040609623  0.040575378            6 
 1090000    0.8151236   -5.2123077    529.56474  0.040486601   0.04055294            4 
 1091000   0.80274121    -5.190602    531.42904  0.040591891  0.040530465            4 
 1092000   0.84293388   -5.1964008    532.27127  0.040618992  0.040508088            3 
 1093000   0.82484632   -5.2077582    530.48866  0.040445918  0.040485742            9 
 1094000   0.81639341   -5.2369042    531.32598  0.040472729  0.040463298           11 
 1095000   0.83164772   -5.2091816    531.39912  0.040441333  0.040440901            6 
 1096000   0.82793512   -5.2194526    532.30376  0.040473218  0.040418348            5 
 1097000   0.81614437   -5.2291162    531.70126  0.040390554  0.040396003            6 
 1098000   0.81066395   -5.2310455    531.31404  0.040324381  0.040373745            5 
 1099000   0.82163387   -5.2448084    531.49494  0.040301406  0.040351192            3 
 1100000   0.81624808   -5.2281573    533.75888  0.040436279  0.040328794            7 
 1101000    0.8129772   -5.2276914    533.76396  0.040399936  0.040306579           13 
 1102000   0.81641663   -5.2084009    534.33558  0.040406502  0.040284362            4 
 1103000   0.79106856   -5.2247697    532.71526  0.040247451  0.040262141            3 
 1104000   0.80003259   -5.2154075    534.53337  0.040348232  0.040239679            7 
 1105000   0.80430447   -5.2195457    534.91821   0.04034074  0.040217299            7 
 1106000   0.82443065   -5.2633354    533.22502  0.040176689  0.040194586            4 
 1107000   0.81345832   -5.2355772    533.25637  0.040142756  0.040171761           10 
 1108000   0.81049259   -5.2414668    533.76687  0.040144921  0.040149155            3 
 1109000   0.81754934   -5.2390173    533.07484  0.040056721  0.040126541            6 
 1110000   0.81700293   -5.2824311    534.01439   0.04009117  0.040103598            6 
 1111000   0.80245425   -5.2568584    533.85596  0.040043201  0.040080953            8 
 1112000   0.80739099   -5.2331189    534.86828  0.040083055  0.040058272            4 
 1113000   0.82105788   -5.2213328    535.83563  0.040119469  0.040035795           10 
 1114000    0.8117022   -5.2193421    535.77867  0.040079194  0.040013334            8 
 1115000   0.80543773   -5.2407026    537.03703  0.040137297  0.039990882            5 
 1116000   0.79211666   -5.2675206    534.61313  0.039920335  0.039968635            3 
 1117000   0.80488907   -5.2325895    536.87727  0.040053511   0.03994637            5 
 1118000   0.79887983   -5.2285535     536.9479   0.04002295  0.039923853            4 
 1119000   0.78594656    -5.217551     536.1064  0.039924516  0.039901547            6 
 1120000   0.81158466   -5.2376009    537.37701  0.039983408  0.039879117           11 
 1121000   0.80517205   -5.2092342    537.41958  0.039950905  0.039857064            3 
 1122000    0.8147586   -5.2572162    537.51372  0.039922291   0.03983478            4 
 1123000   0.81766659   -5.2565577    538.60816  0.039967955  0.039812524            5 
 1124000   0.82708497   -5.2484063    537.80939  0.039873176  0.039790455            3 
 1125000    0.7961913   -5.2438429    539.61889   0.03997177  0.039768231            9 
 1126000    0.8161699    -5.251578    536.01805  0.039669779  0.039746004            5 
 1127000   0.80492376   -5.2725546    538.34943  0.039806968  0.039723792            4 
 1128000   0.80395935   -5.2357177    539.41865  0.039850669  0.039701489            4 
 1129000    0.8108106   -5.2278598    540.14577  0.039869041   0.03967927            6 
 1130000   0.79510408   -5.2234711    539.12937  0.039758803  0.039657406            6 
 1131000   0.80064465   -5.2437448     539.4405  0.039746573  0.039635353            5 
 1132000   0.79090608   -5.2293574    537.56676  0.039573525  0.039613208            9 
 1133000   0.81310995   -5.2152256    539.43327   0.03967588  0.039591025            3 
 1134000   0.79481323   -5.2526607    538.46611   0.03956982  0.039568534            3 
 1135000   0.82150756   -5.2708649    537.92114  0.039494944  0.039545928            4 
 1136000   0.80475489   -5.2570703    538.25787  0.039484879  0.039523346            7 
 1137000   0.81281987   -5.2465836    540.11688  0.039586403  0.039501047            4 
 1138000   0.81559693   -5.2568753    539.66833  0.039518771  0.039478721            9 
 1139000   0.77888578   -5.2472566    539.87993  0.039499556  0.039456634            4 
 1140000   0.81149793   -5.2432376    540.62738  0.039519545  0.039434419            4 
 1141000   0.79764895   -5.2624932    540.91899  0.039506207  0.039411992            5 
 1142000   0.80785289    -5.272613     539.7124  0.039383567  0.039389629            6 
 1143000   0.79899705   -5.2821485     538.9018  0.039290011   0.03936711            9 
 1144000   0.78872602   -5.2409727    541.05369  0.039412419  0.039344605            3 
 1145000   0.80354637   -5.2540211    540.74457    0.0393555   0.03932211           10 
 1146000   0.79564561   -5.2381757    541.66143   0.03938783  0.039299793            3 
 1147000   0.79825897   -5.2314211    542.58413  0.039420527  0.039277702            6 
 1148000   0.80141538   -5.2902047    539.92319  0.039193031  0.039255205            7 
 1149000   0.78963593   -5.2659357    542.43012   0.03934074  0.039232618            8 
 1150000   0.77739395   -5.2735963    540.37171  0.039157371   0.03920999            6 
 1151000   0.78440602   -5.2846981    539.67793   0.03907312  0.039187296            6 
 1152000    0.7908964   -5.2503875    541.70161  0.039185591  0.039164604            5 
 1153000   0.79088076   -5.2861567    542.02538  0.039175006  0.039142133            3 
 1154000   0.78371189   -5.2749424    543.00194  0.039211578  0.039119822            5 
 1155000    0.7883806   -5.2553335      542.213  0.039120707  0.039097287            5 
 1156000   0.79816058   -5.2632273    543.35814  0.039169416  0.039074863            7 
 1157000   0.78061929   -5.2734085    542.18961  0.039051398  0.039052192            5 
 1158000   0.77441562   -5.2474341    543.77905  0.039132056  0.039029658            3 
 1159000   0.80163323   -5.2835003    542.05267  0.038974164  0.039007168            5 
 1160000   0.79496283   -5.2751041     542.5689  0.038977651  0.038984569            5 
 1161000   0.78587235     -5.29463    542.44346  0.038935075  0.038962207            6 
 1162000   0.79548358   -5.2706177    544.73713   0.03906606  0.038939929            4 
 1163000   0.81492462   -5.2640632    543.90081  0.038972543  0.038917617            4 
 1164000   0.79435238   -5.2680382    546.57166  0.039130274  0.038895217            2 
 1165000   0.78156831   -5.2532038    544.91467   0.03897816  0.038872831            6 
 1166000   0.81781532   -5.2848306    543.05516  0.038811832  0.038850386           17 
 1167000   0.79321616    -5.254193    545.22258  0.038933346  0.038828046            7 
 1168000   0.78215661    -5.288352    544.26413   0.03883163  0.038805643            4 
 1169000   0.79460355   -5.2847005    543.26405  0.038727121  0.038782893            4 
 1170000   0.78139717   -5.3019867    543.78298  0.038730981  0.038760373           14 
 1171000   0.80753848   -5.2804577    544.15156  0.038724136  0.038737904           12 
 1172000   0.79987206   -5.2825731    545.71525  0.038802279  0.038715405           11 
 1173000   0.78460745   -5.2999639    545.04733  0.038721749  0.038692954            9 
 1174000   0.78204954   -5.3107449    544.58706  0.038656095  0.038670567           11 
 1175000   0.79192468   -5.2929187    545.31839  0.038675063   0.03864826            2 
 1176000    0.7730381   -5.3010461    546.77167  0.038745158  0.038626134            5 
 1177000   0.79700114    -5.267514    547.56677  0.038768534     0.038604            4 
 1178000   0.79937703   -5.2881616    546.69414  0.038673892  0.038581857           16 
 1179000   0.79819559   -5.2791664    548.08758   0.03873958  0.038559718            5 
 1180000   0.77584144   -5.2785228    545.89713  0.038552057  0.038537553            9 
 1181000   0.77170703   -5.2902588    546.16272  0.038538154  0.038514938            8 
 1182000   0.79356146   -5.3302335    546.65213  0.038540054   0.03849261            5 
 1183000    0.7862975    -5.290274     547.7134  0.038582235  0.038470365            7 
 1184000    0.7698529   -5.3153778    546.79484  0.038484997  0.038447883            7 
 1185000   0.80362881    -5.307994    547.02684  0.038468835  0.038425539            4 
 1186000   0.78752693   -5.3116301    548.00129  0.038504869  0.038403298           12 
 1187000   0.78593872   -5.2952944    547.95726  0.038469339  0.038381143            4 
 1188000    0.7712279   -5.2930049    546.58066  0.038340394  0.038358912           12 
 1189000   0.76582123   -5.3021992    548.52123  0.038444157  0.038336736            8 
 1190000   0.76740598     -5.28332      548.421  0.038404832  0.038314665           10 
 1191000   0.77971153    -5.328241    548.87303  0.038404215   0.03829275           10 
 1192000   0.76845138   -5.2992355    548.68984  0.038359189  0.038270692            4 
 1193000   0.78765881   -5.3012378    549.00955  0.038349368  0.038248839            7 
 1194000   0.77254557   -5.2895838    550.04876   0.03838978  0.038226865            9 
 1195000   0.78275395   -5.3022417    549.11787  0.038292738  0.038204842           12 
 1196000   0.77608568   -5.3224145    550.39134  0.038349453  0.038182682            4 
 1197000   0.79243257   -5.3123806    551.48828  0.038393781   0.03816075            7 
 1198000   0.78133096   -5.3010775    549.00233   0.03818881  0.038138978           12 
 1199000   0.77461262   -5.2825139    550.05497   0.03823012  0.038116919            7 
 1200000   0.75953798   -5.3023061    550.54643  0.038232391  0.038095166            9 
 1201000   0.78183169   -5.2920495    549.98432  0.038161554  0.038073453            8 
 1202000    0.7664691    -5.318546    550.69089  0.038178791  0.038051563            5 
 1203000    0.7753327   -5.2987484    550.94162  0.038164424  0.038029725           12 
 1204000   0.77666264   -5.3015995    552.72708  0.038256304  0.038008019            4 
 1205000   0.76863107   -5.3387812    552.20466  0.038188427  0.037986426            6 
 1206000    0.7646982   -5.3341156    553.15117  0.038222165  0.037964644            4 
 1207000   0.77843056   -5.3306372    549.75411  0.037955959  0.037942834            5 
 1208000   0.76644393   -5.3097049    552.61379  0.038121812  0.037920757            5 
 1209000   0.77671646   -5.3335447    551.50667   0.03801397   0.03789886            5 
 1210000   0.77020199   -5.2972119    552.63512   0.03806027  0.037876902           14 
 1211000   0.77349679   -5.3284671    553.64837  0.038098566  0.037855083            4 
 1212000    0.7664758    -5.320088    553.24384  0.038039318  0.037833491            5 
 1213000   0.77887733   -5.3418157    553.80453  0.038046478  0.037811861            6 
 1214000   0.77194117   -5.3333896    552.65924  0.037936521  0.037789916           11 
 1215000   0.75767391   -5.3215545    552.28483  0.037879618   0.03776805           14 
 1216000   0.76042535   -5.3240613    552.15049   0.03783926  0.037746287           13 
 1217000   0.76901604   -5.2923492    556.62105  0.038114287  0.037724587            9 
 1218000   0.75372311   -5.3284969    552.60631  0.037808314  0.037702952            7 
 1219000     0.783521   -5.3086269    553.66804  0.037849879  0.037681206            7 
 1220000   0.76002703   -5.3293838    554.21994  0.037856553  0.037659465            5 
 1221000   0.76509172   -5.3559633    553.47253  0.037774538  0.037637907            5 
 1222000   0.76707872   -5.3099553    554.34981  0.037803451  0.037616102            8 
 1223000   0.76279213   -5.3536379    554.76269  0.037800674   0.03759431            7 
 1224000   0.77568948   -5.3434237    553.34877  0.037673527  0.037572649            8 
 1225000   0.77052535   -5.3384764    555.09058  0.037761264   0.03755095            4 
 1226000   0.74489167   -5.3498774    555.12432  0.037732757  0.037529294            6 
 1227000   0.75972455   -5.3227407    555.66282  0.037738578  0.037507572            7 
 1228000   0.77368045   -5.3540691    555.46402  0.037694355  0.037485646            7 
 1229000    0.7691681   -5.3181563    554.14685  0.037574373   0.03746379            3 
 1230000    0.7546932     -5.33175    556.03538  0.037671774  0.037442109            7 
 1231000   0.77445637   -5.3276784    554.92047  0.037565696  0.037420407            6 
 1232000   0.77047703   -5.3500236    554.73869  0.037522909  0.037398557            5 
 1233000   0.75176476   -5.3588723    553.13667  0.037384203  0.037376308           51 
 1234000   0.76118043   -5.3382493     553.9584    0.0374094  0.037354221            8 
 1235000    0.7455138   -5.3304301    555.20916  0.037463506  0.037332482            5 
 1236000   0.73913764   -5.3437123    557.00172  0.037554053  0.037310573            5 
 1237000   0.76846706   -5.3461366     556.0145  0.037457188  0.037288772            3 
 1238000   0.76367457   -5.3663775    554.31133  0.037312287  0.037266768            5 
 1239000   0.76232058   -5.3471416    556.64781   0.03743932  0.037244935            5 
 1240000   0.74776149   -5.3509265    555.76061  0.037349503  0.037223141            9 
 1241000   0.76005029    -5.332328     558.1187  0.037477753  0.037201571            5 
 1242000   0.77523132   -5.3370444     557.2885  0.037391874  0.037179952            6 
 1243000   0.76148386   -5.3588924    559.45627  0.037507125  0.037158459            4 
 1244000   0.76913693   -5.3680366    557.23439  0.037328134  0.037137016            2 
 1245000   0.78342165   -5.3424566     559.3422  0.037439237  0.037115623            5 
 1246000   0.76318033   -5.3737476    558.40763  0.037346685  0.037094089            4 
 1247000   0.75572862   -5.3607961    557.07795  0.037227877  0.037072559            4 
 1248000   0.74867337   -5.3793284    557.22916  0.037208144  0.037051109           11 
 1249000   0.74806362   -5.3592647     557.8461  0.037219515  0.037029622            5 
 1250000    0.7415998   -5.3815273    558.37891  0.037225261  0.037008064            6 
 1251000   0.76096149   -5.3418603    559.95067  0.037300205  0.036986707            5 
 1252000   0.76123195     -5.36114    558.77934  0.037192448  0.036965298            7 
 1253000   0.76511678   -5.3596535    559.20224  0.037190891  0.036943876            6 
 1254000   0.75084286   -5.3621492    557.40057  0.037041505  0.036922196            3 
 1255000   0.75622772   -5.3582405    559.75669  0.037168439  0.036900629            6 
 1256000   0.76261509   -5.3771899    558.71313  0.037069608  0.036879162            5 
 1257000   0.76320472   -5.3268089    559.89644  0.037118565  0.036857696            5 
 1258000   0.76245863   -5.3649913    559.50015  0.037062808  0.036836497            7 
 1259000   0.74077733   -5.3434986    558.89112  0.036993058  0.036815152            8 
 1260000   0.72617803   -5.3512343    560.75638  0.037087062  0.036793835            7 
 1261000   0.75193656   -5.3665557    559.47621  0.036973051  0.036772381            8 
 1262000   0.75441995   -5.3797609    559.28086  0.036930854  0.036750774            5 
 1263000    0.7600734   -5.3709785    560.83905  0.037004424  0.036729231           13 
 1264000   0.73701602   -5.3484701    561.70141  0.037032002  0.036707864           13 
 1265000   0.72567703   -5.3594979    561.53286  0.036991624  0.036686407           11 
 1266000   0.74874331   -5.4002504    559.73732  0.036844215  0.036665045            8 
 1267000    0.7520255    -5.332983    560.77321  0.036883268  0.036643694            7 
 1268000    0.7414497   -5.3831846    559.47948  0.036769156  0.036622341            3 
 1269000   0.74748877   -5.3756548    561.38792  0.036865506  0.036601035           10 
 1270000   0.74214026   -5.3730831     560.4646  0.036775893  0.036579634           19 
 1271000   0.74667655   -5.3702408    560.63914  0.036758401   0.03655817            8 
 1272000   0.74532108   -5.4003279    560.00107  0.036687701  0.036536671            5 
 1273000   0.74843687   -5.3718196    562.08201  0.036795104  0.036515224            9 
 1274000   0.75380905   -5.3797026    562.38471  0.036786022  0.036493881            6 
 1275000   0.73287641   -5.3712701    561.41131   0.03669355  0.036472606            7 
 1276000   0.74078575   -5.3323776    563.60526  0.036808076  0.036451412            8 
 1277000   0.73767481   -5.3970767    562.78737  0.036725879  0.036430179            8 
 1278000   0.75479673   -5.3831584    564.12403    0.0367843  0.036409016            7 
 1279000   0.76384598   -5.3775388    564.13512  0.036756263  0.036388119            8 
 1280000   0.74015952   -5.3804386    563.86702  0.036710093  0.036367194           12 
 1281000   0.73914543   -5.3473094    564.22617  0.036704799  0.036346268            3 
 1282000   0.77299413   -5.3850187    562.06825  0.036535898  0.036325321            8 
 1283000   0.72985848   -5.3871623      563.674  0.036611717  0.036304199            5 
 1284000   0.75342211   -5.3511448      563.245  0.036555361  0.036283222            6 
 1285000   0.72688173   -5.3813063     563.9798  0.036574565  0.036262219            5 
 1286000   0.73907403   -5.3747894    564.55625  0.036583479  0.036241246            9 
 1287000   0.74661725   -5.3697273    564.45833  0.036548713  0.036220173            6 
 1288000   0.74096073   -5.3977434    564.15037  0.036500412  0.036199029           10 
 1289000   0.72876696   -5.3610076    564.00905  0.036462959  0.036177878           10 
 1290000   0.74353422    -5.368106    564.00924  0.036434706  0.036156548            4 
 1291000   0.72466517   -5.3927474    564.23515  0.036421066  0.036135298            8 
 1292000   0.72949142    -5.401083    563.52333  0.036346964  0.036114025            6 
 1293000   0.73515299    -5.430821    563.23109  0.036300018  0.036092491            8 
 1294000    0.7367652   -5.4107163    564.21149  0.036335104  0.036070953            7 
 1295000   0.73039901   -5.3927191    564.50435  0.036325891   0.03604959            4 
 1296000   0.74358855   -5.3818641    564.19713  0.036278107  0.036028454            7 
 1297000   0.74017103   -5.3964061    565.50439   0.03633413  0.036007367            7 
 1298000   0.74412708   -5.3740691    565.05378  0.036277207  0.035986219           10 
 1299000   0.71982074   -5.4100792    565.71161  0.036291481   0.03596513            8 
 1300000   0.74632116   -5.3955655    565.35037  0.036240408  0.035944099           11 
 1301000   0.74466222   -5.4007641    566.09547  0.036260278  0.035922831            6 
 1302000   0.74001011   -5.3993967    565.23575  0.036177403  0.035901642            4 
 1303000   0.72713166   -5.4544794    565.05575  0.036138127  0.035880269            9 
 1304000   0.73643132   -5.4029479    565.42062  0.036133731  0.035858676           11 
 1305000   0.74503538   -5.4120783    565.73905  0.036126376  0.035837261           13 
 1306000   0.73052391   -5.3928591    565.65792  0.036093538  0.035815859            6 
 1307000   0.74367585   -5.3528072    567.11661  0.036158927   0.03579483            6 
 1308000   0.71222536    -5.416985    564.49176  0.035964052  0.035773607            7 
 1309000   0.72500602   -5.4071393    564.15886  0.035915384  0.035752148            5 
 1310000   0.73516399   -5.3754597    566.03328  0.036007206   0.03573079           10 
 1311000   0.74191684   -5.4232748    565.77136  0.035963092  0.035709457            4 
 1312000   0.72478941   -5.4244195     565.3862  0.035911217  0.035688005            7 
 1313000     0.739811   -5.4009276    564.92257  0.035854441   0.03566653            8 
 1314000   0.72635368   -5.3961446    565.92432  0.035890685  0.035645262           14 
 1315000   0.74061052   -5.4242117    564.48822  0.035772384  0.035623871            4 
 1316000   0.74056553   -5.4197005    566.93085  0.035899876  0.035602676           10 
 1317000   0.73099021   -5.3932692    567.86737  0.035931876  0.035581354           10 
 1318000   0.73221913   -5.3838924    567.50004  0.035881388  0.035560049           15 
 1319000    0.7444728    -5.390481    565.87443   0.03575148  0.035538708            8 
 1320000   0.73241228   -5.4089402    567.13279  0.035803838  0.035517225            8 
 1321000   0.71850659   -5.4182971    566.44945  0.035733626  0.035495888           10 
 1322000   0.72744486    -5.429506    565.96829  0.035676266  0.035474309            3 
 1323000   0.73635868   -5.4236956    567.48075  0.035744567  0.035452789           10 
 1324000   0.73108564   -5.4363115    565.22925  0.035575859   0.03543107            6 
 1325000   0.69997587   -5.4088926    565.96423  0.035595235  0.035409446           21 
 1326000    0.7216804   -5.4221137    566.00509  0.035570958  0.035387818            9 
 1327000   0.72389812   -5.4498016    564.61235  0.035456691  0.035366184           30 
 1328000   0.72810159   -5.4432419    566.14265  0.035526019   0.03534442           12 
 1329000   0.72690925    -5.433964    565.59495  0.035464945  0.035322843            6 
 1330000   0.74531015    -5.435398    566.86445  0.035517823  0.035301299            6 
 1331000   0.72173286   -5.4260409    566.05205  0.035440274  0.035279826            8 
 1332000   0.73692025   -5.4511069    566.89244  0.035466244   0.03525832           21 
 1333000   0.72048187   -5.4168685    567.57668  0.035482413  0.035236681           16 
 1334000   0.72822022   -5.4231137    567.88842  0.035475288  0.035215259            3 
 1335000   0.71916577   -5.4501357    567.62435  0.035432232   0.03519381           11 
 1336000   0.70665802   -5.3940864    568.83006  0.035480917  0.035172507            5 
 1337000   0.72118336   -5.4260081    566.93229  0.035336094  0.035150997            6 
 1338000   0.72086033    -5.430626    568.02042  0.035377455  0.035129598            7 
 1339000   0.72479191   -5.4308534    568.15971  0.035359703  0.035108416           12 
 1340000   0.72367799   -5.4280269    567.98926  0.035322715  0.035087137            7 
 1341000   0.72695701   -5.4450833    569.75203  0.035405918  0.035065783            7 
 1342000   0.71894688    -5.421245    571.22428  0.035470956  0.035044526            7 
 1343000   0.70146182    -5.441799    568.02552  0.035246061  0.035023146            8 
 1344000   0.70680318   -5.4031994    570.45497  0.035370472  0.035001792            7 
 1345000   0.72842872     -5.44604    568.54159  0.035225625  0.034980477           13 
 1346000   0.71892325    -5.459763     568.8243  0.035216958  0.034959247            8 
 1347000   0.71074507   -5.4441374    569.82194  0.035252533  0.034937802            8 
 1348000   0.72223946   -5.4519715    568.89032  0.035168788  0.034916578            5 
 1349000   0.71258096   -5.4290222    569.85141  0.035202088  0.034895311            7 
 1350000   0.69984784   -5.4438159    567.57817  0.035035689  0.034873914           13 
 1351000    0.7119994   -5.4545171    568.23782  0.035050446  0.034852311            4 
 1352000   0.72077289   -5.4616592    569.73704  0.035116928   0.03483096           24 
 1353000   0.71388564   -5.4321634    569.60756  0.035082998  0.034809834           14 
 1354000   0.70410775   -5.4363355    569.17619  0.035030538  0.034788548           10 
 1355000   0.70068398    -5.451767    569.35925  0.035015944  0.034767302            5 
 1356000   0.69452849   -5.4330106     568.8442  0.034958469  0.034746002           13 
 1357000   0.70988639   -5.4429202    569.13577  0.034950612  0.034724741            8 
 1358000   0.73127251   -5.4225991    570.29585  0.034996064  0.034703506            7 
 1359000   0.69656745   -5.4731447    569.23352  0.034905171  0.034682191            5 
 1360000   0.71684069   -5.4638043    568.50277  0.034834729  0.034660842            8 
 1361000   0.71617732   -5.4424738    570.25222  0.034916252  0.034639386            4 
 1362000   0.69092969   -5.4627863      570.993   0.03493594  0.034617951            8 
 1363000   0.71435358    -5.445008    569.11258   0.03479534   0.03459675           10 
 1364000   0.71288123   -5.4376657    570.32077  0.034843645  0.034575503           10 
 1365000   0.71733343    -5.462381    568.76856  0.034723355  0.034553997            7 
 1366000   0.71084484   -5.4492679     570.0964  0.034778941  0.034532556           19 
 1367000   0.69865338   -5.4336372    569.43021  0.034712888  0.034511086            9 
 1368000   0.70885902   -5.4602324    572.53259  0.034876498  0.034489649            7 
 1369000   0.71828666    -5.441923    570.75566  0.034742857   0.03446833            6 
 1370000   0.71663096   -5.4510137    571.88338  0.034786093  0.034447096            7 
 1371000   0.70772903    -5.466266    570.25399  0.034661682  0.034425877           10 
 1372000   0.71072447   -5.4453495     571.1926  0.034693428  0.034404443            5 
 1373000    0.7020022   -5.4578643     569.2482  0.034550146  0.034382985           10 
 1374000   0.70003125   -5.4504432    569.98182  0.034569494  0.034361357            7 
 1375000   0.71124525   -5.4592821    570.14492  0.034554238  0.034339789           17 
 1376000   0.69145517   -5.4748709    569.97336  0.034518735  0.034318263           19 
 1377000   0.68741924   -5.4843984    570.01205  0.034496009  0.034296588           11 
 1378000   0.70591563   -5.4558621    569.57071  0.034444286   0.03427505           20 
 1379000   0.70634763   -5.4615154    571.51085  0.034536552  0.034253599            8 
 1380000    0.7124979   -5.4554962    571.36142  0.034502501  0.034232292           12 
 1381000   0.69594124   -5.4627268    570.91855  0.034450793  0.034210965           13 
 1382000   0.70022639    -5.456591    571.60788  0.034467431  0.034189574           18 
 1383000   0.69721414   -5.4749975    572.14722  0.034475007  0.034168419           20 
 1384000   0.69773051   -5.4787121      572.018  0.034442317  0.034147087            7 
 1385000   0.70657447    -5.463039    572.35224  0.034437559  0.034125828           23 
 1386000   0.71458027   -5.4757194    571.16917  0.034341581  0.034104555            8 
 1387000   0.70486393   -5.4799314    571.36855    0.0343288  0.034083399            5 
 1388000   0.70578157    -5.506749    570.42047  0.034247147  0.034062023            9 
 1389000   0.71821931   -5.4886806    572.26954  0.034333426  0.034040805           11 
 1390000   0.70144831   -5.4743241    572.23898  0.034306893   0.03401966            6 
 1391000   0.68315835   -5.4883191    573.79746  0.034375597  0.033998646            8 
 1392000   0.69632933   -5.4687754    572.76539  0.034289116  0.033977557            5 
 1393000   0.69957533    -5.496838     570.1425  0.034107592  0.033956388            8 
 1394000   0.68409337   -5.4917359    572.95436  0.034251217  0.033935153            8 
 1395000   0.71001669   -5.4918538    573.09413  0.034235014  0.033913998            3 
 1396000   0.69741155   -5.4773499    573.38625  0.034227928  0.033892695           10 
 1397000   0.70650481   -5.4999152     570.6197  0.034038398  0.033871556            9 
 1398000   0.69405433   -5.4910164    571.79421  0.034084061  0.033850166           13 
 1399000    0.6986234    -5.498279    572.63297   0.03410966  0.033828792            6 
 1400000   0.68831272   -5.4883174    573.50778  0.034137368  0.033807468           11 
 1401000   0.68767614   -5.4738094      573.015   0.03408369  0.033786187           16 
 1402000   0.69293968   -5.4792049    571.41937  0.033964537  0.033764969            8 
 1403000   0.68488493   -5.4664947    573.90033  0.034087689  0.033743699           14 
 1404000   0.71120302   -5.5130752     571.9853  0.033949745  0.033722559           11 
 1405000    0.6781946    -5.453727    575.99835  0.034163603  0.033701419           10 
 1406000   0.69352146    -5.511919    573.24203  0.033975938  0.033680445           13 
 1407000   0.67937969   -5.4755327    573.27885  0.033953971  0.033659285           13 
 1408000   0.68475271   -5.4858718    574.72871  0.034015667  0.033638048           13 
 1409000   0.68917884   -5.4787913    573.83515  0.033938677  0.033616968           23 
 1410000   0.69321502   -5.4927952    572.99701  0.033865071  0.033595921            3 
 1411000   0.68644942   -5.4972303    574.23241  0.033914033  0.033574815            3 
 1412000   0.70147637   -5.5167656    573.48856  0.033846115  0.033553545            8 
 1413000   0.68275031   -5.5065009     572.2249  0.033747635  0.033532369           20 
 1414000   0.67602386   -5.4793856    573.76663   0.03381463  0.033511288            8 
 1415000   0.68059399   -5.4894512    574.64637  0.033842542   0.03349024            8 
 1416000   0.69331279   -5.5025332    573.23328   0.03373548  0.033469085            7 
 1417000   0.69512444   -5.5104195    572.42893  0.033664369  0.033447937           15 
 1418000   0.67520171   -5.4949788    573.22912  0.033687654  0.033426757           19 
 1419000   0.68360618   -5.5124235    573.79865   0.03369736  0.033405407            6 
 1420000    0.6862053    -5.515053    572.07651  0.033572565  0.033384083            9 
 1421000   0.68108966   -5.5050704     574.5393  0.033693367  0.033362812           12 
 1422000   0.69363438   -5.4964296    575.30814  0.033714729  0.033341673           17 
 1423000   0.70001103   -5.4879986    573.68007  0.033595694  0.033320416            9 
 1424000    0.6822112   -5.5038281    574.87572  0.033642072  0.033299144           12 
 1425000   0.68078365   -5.4910373    572.99338  0.033508385  0.033277949            5 
 1426000   0.68183676   -5.5129472    572.27264  0.033442768  0.033256675            9 
 1427000   0.67507352   -5.5243527    574.42364  0.033544945  0.033235318           14 
 1428000   0.70864117   -5.5124143    573.69489  0.033478927  0.033214057            7 
 1429000   0.67771231   -5.5064106    573.42855  0.033439967    0.0331927           10 
 1430000   0.69033697   -5.5402801    573.27482  0.033407624  0.033171444            6 
 1431000   0.69343903   -5.5186604     574.2327  0.033440059  0.033150164           12 
 1432000   0.68596856   -5.5391556    575.10665  0.033467566  0.033128937           15 
 1433000   0.67135922   -5.5227789    574.35188  0.033400319  0.033107887           14 
 1434000   0.68818018   -5.5005932     573.9597  0.033354236   0.03308678           10 
 1435000   0.67726604   -5.5173428    575.55133  0.033423422  0.033065785           13 
 1436000   0.69515637   -5.5006614    575.82579  0.033416074   0.03304488           14 
 1437000   0.67866314    -5.511125    573.85894   0.03327876  0.033023961           28 
 1438000   0.67985468   -5.5187362    575.04866  0.033324563  0.033003022            7 
 1439000    0.6741074   -5.5059229    575.27367  0.033314435  0.032982056            4 
 1440000   0.68716386   -5.5185503    575.17099  0.033285358  0.032961071           10 
 1441000   0.68138266   -5.5008158    575.75814  0.033296214   0.03294009           10 
 1442000   0.68349554   -5.5036635    575.13544  0.033237138  0.032919114            8 
 1443000   0.68673729   -5.5226046     576.1871  0.033274838  0.032898191            5 
 1444000   0.67037439   -5.5271134     574.8469  0.033174452  0.032877223            5 
 1445000   0.68197982   -5.5404101     574.0356  0.033104706  0.032856203           12 
 1446000   0.69917779   -5.5390184    575.45029  0.033163341  0.032835254           14 
 1447000   0.66509518   -5.5179575     574.8495  0.033105822  0.032814376           13 
 1448000   0.68620053   -5.5241968    574.87352  0.033084341  0.032793474            8 
 1449000   0.66906755   -5.5443657    575.08527  0.033073687   0.03277257            7 
 1450000   0.67959886   -5.5198089    574.81532  0.033035363  0.032751662           15 
 1451000   0.66789182   -5.5464897    576.28177  0.033096817  0.032730703           13 
 1452000   0.66108778   -5.5603429    575.35451  0.033020805  0.032709588           19 
 1453000   0.67613274   -5.5316978    576.77186  0.033079368  0.032688602            7 
 1454000    0.6730251   -5.5136915    575.53501   0.03298573  0.032667647            8 
 1455000   0.66100662    -5.526702    575.84278  0.032980686  0.032646684            7 
 1456000   0.66880048   -5.5629575    573.53614  0.032826015  0.032625615           20 
 1457000   0.66686632   -5.5607966    574.32203  0.032848435  0.032604515           17 
 1458000   0.67159024   -5.5571583    576.37742  0.032943382  0.032583413           13 
 1459000   0.67439767   -5.5521916    575.65117  0.032879322  0.032562408           36 
 1460000   0.67701207   -5.5525464    575.17976  0.032829895  0.032541445           19 
 1461000   0.65982869   -5.5401091    576.61821  0.032889471  0.032520501           21 
 1462000   0.66557992   -5.5495737    576.16581  0.032841188  0.032499566           21 
 1463000   0.66830273   -5.5287174    576.13363  0.032816908  0.032478525            9 
 1464000   0.67189612   -5.5511731    576.45755   0.03281293  0.032457546            7 
 1465000   0.66353336   -5.5322435    576.31879  0.032782639  0.032436648            7 
 1466000   0.65924604   -5.5322378    575.75122  0.032728014  0.032415601           23 
 1467000   0.66454709   -5.5468755    577.40067  0.032799402  0.032394657           12 
 1468000   0.66172428   -5.5413152    578.13625  0.032818815  0.032373752            7 
 1469000   0.64993694   -5.5584043    576.81197  0.032721351  0.032352888            7 
 1470000   0.66338344     -5.56012    577.54951  0.032740902  0.032332129            9 
 1471000    0.6801674   -5.5380074    577.08482  0.032692319  0.032311277            9 
 1472000   0.66925858   -5.5637747    579.73331  0.032820047  0.032290605            6 
 1473000   0.67178608   -5.5349748    577.39585  0.032665527  0.032269959           10 
 1474000   0.67697468   -5.5614842    576.63454  0.032600324  0.032249246           16 
 1475000   0.65219224   -5.5451854    579.69007  0.032750851  0.032228488            9 
 1476000   0.67872728   -5.5764505    577.28067  0.032592631  0.032207813           13 
 1477000   0.67103681   -5.5527985     578.5718   0.03264341  0.032187219            5 
 1478000   0.66469332     -5.56792    578.57879  0.032621718  0.032166709           10 
 1479000    0.6698598   -5.5616528    577.68476  0.032549288   0.03214617           12 
 1480000   0.64975829   -5.5343544     578.1984  0.032556216  0.032125633            8 
 1481000    0.6464831   -5.5396573    579.45581  0.032604986  0.032105102            9 
 1482000   0.65781351   -5.5289904    579.23039   0.03257031  0.032084649           19 
 1483000    0.6845627   -5.5844838    578.36117  0.032499504  0.032064005            6 
 1484000   0.65237833   -5.5603687    578.11338  0.032463689  0.032043269            9 
 1485000   0.65180329   -5.5490743    578.63649  0.032471183  0.032022588            7 
 1486000   0.66917751   -5.5813055    577.58044   0.03239011  0.032001979           14 
 1487000   0.65654832   -5.5653299    580.37981  0.032525208  0.031981431            6 
 1488000   0.64944766   -5.5928326    578.16618  0.032379378  0.031960844           19 
 1489000   0.65280809   -5.5680934    579.82681  0.032450571  0.031940286            9 
 1490000   0.64675252    -5.558725    578.22342  0.032339117  0.031919711            6 
 1491000   0.64731066    -5.587255    578.29858  0.032321629  0.031899122            3 
 1492000   0.66628476   -5.5855289     577.9691  0.032281563  0.031878429            6 
 1493000   0.65015923   -5.5744809    578.86644  0.032310027  0.031857807           14 
 1494000   0.65899565   -5.5819419    577.59672  0.032217577  0.031837198            8 
 1495000   0.67489602    -5.565023    578.00478  0.032218773  0.031816596           11 
 1496000   0.66247318   -5.5453908     578.6988  0.032235896  0.031796118           13 
 1497000   0.66109559   -5.5777727    576.90829   0.03211469  0.031775571           10 
 1498000   0.65248719   -5.5858901    579.95401  0.032262684  0.031755062            6 
 1499000   0.65589511   -5.5715944    579.01743  0.032189094   0.03173455            5 
 1500000   0.65469834   -5.5845045    578.75112   0.03215284  0.031713966            8 
 1501000   0.65579703   -5.5767057    578.21642  0.032101733  0.031693287            7 
 1502000   0.65564803   -5.5907921    578.69476    0.0321069  0.031672571           18 
 1503000    0.6542339   -5.5750074    577.99595  0.032046792  0.031652015            9 
 1504000   0.63397662   -5.5737722    579.43931  0.032105458  0.031631365            8 
 1505000    0.6598484    -5.578786    578.22116  0.032016675   0.03161078           12 
 1506000   0.65019357   -5.5762069    578.34552  0.032002297  0.031590112            5 
 1507000   0.66178203   -5.6030736    578.15518  0.031970536   0.03156952           15 
 1508000    0.6497659   -5.6049497    578.68394  0.031978556   0.03154886           11 
 1509000   0.64364272    -5.579616    578.04206  0.031921916  0.031528233            7 
 1510000   0.65001736   -5.6170042    577.93316  0.031894766  0.031507689            6 
 1511000   0.64719584    -5.583368    578.94854  0.031929657   0.03148715            8 
 1512000   0.64450492   -5.6029556    578.01382  0.031857023  0.031466562           22 
 1513000   0.64717752   -5.5896627    578.53583  0.031864719  0.031445951           44 
 1514000   0.64611887   -5.5941948    578.43293  0.031838008  0.031425298           16 
 1515000   0.64184059   -5.6042621    577.77128  0.031780598   0.03140447           15 
 1516000   0.65318277   -5.6295689    576.84871  0.031708922   0.03138371           11 
 1517000   0.65689892   -5.6144825    579.17866  0.031816011  0.031362882           20 
 1518000   0.64609555   -5.5847546    578.96276  0.031783199  0.031342212           43 
 1519000   0.63479209   -5.6002974    578.47902  0.031735737  0.031321563           22 
 1520000   0.63960345   -5.5977667    579.28933  0.031759283   0.03130102           13 
 1521000   0.65802532   -5.6070764    576.78755  0.031601334  0.031280444           22 
 1522000   0.64028351   -5.6080518    578.13163  0.031654163  0.031259795            7 
 1523000   0.63850651    -5.548947    580.38515  0.031756684  0.031239224           14 
 1524000   0.64897023   -5.6108737    578.89223  0.031654212  0.031218679           10 
 1525000   0.64858939   -5.6139249    579.27466  0.031654353   0.03119811           12 
 1526000    0.6397905    -5.598485    578.64348  0.031599142  0.031177611           17 
 1527000    0.6365417    -5.615629    578.04539  0.031545808  0.031157053            7 
 1528000   0.65088771   -5.6138551    579.81196  0.031621507  0.031136554            7 
 1529000   0.65026431   -5.5912106    579.78399  0.031599302   0.03111607           12 
 1530000   0.64444943   -5.6239337    578.02727  0.031482967  0.031095572           11 
 1531000   0.63134645    -5.617942    579.37751  0.031535897  0.031075047           13 
 1532000   0.63396025   -5.6165436    579.56686  0.031525613  0.031054529            9 
 1533000   0.65375538   -5.6034217    578.27658  0.031434909  0.031033978           15 
 1534000   0.63868541   -5.6025535    580.90556  0.031557234  0.031013552           14 
 1535000   0.64280801   -5.6097436    579.10126  0.031438722  0.030993159           14 
 1536000   0.62892124   -5.6186886    579.41312  0.031435174  0.030972774           10 
 1537000   0.62640185   -5.5888394    580.99495  0.031500485  0.030952418           11 
 1538000   0.64057852   -5.5942721    579.22002  0.031383833  0.030932151            8 
 1539000   0.63973494    -5.633851    578.62094  0.031331001  0.030911848           13 
 1540000   0.63734697   -5.5992967    580.44501  0.031409362  0.030891514            7 
 1541000   0.64185056   -5.6209554     578.8021  0.031300135  0.030871294            4 
 1542000   0.63207045   -5.6155538    579.25497  0.031304311  0.030850984            8 
 1543000   0.63748924   -5.6192509     579.8559  0.031316478  0.030830684           10 
 1544000   0.64289343   -5.6252946    580.47289  0.031329495  0.030810388           10 
 1545000   0.64335929   -5.6200251    578.90439  0.031224616  0.030790018           15 
 1546000   0.63535993   -5.6158757     579.0441   0.03121195  0.030769634           11 
 1547000   0.63911088    -5.620136    581.06615  0.031300698  0.030749233           21 
 1548000   0.63381145   -5.6315327    580.38494  0.031243806  0.030728915            9 
 1549000   0.63632093    -5.633534    578.39981  0.031116839  0.030708517            7 
 1550000   0.62890557   -5.6253615    579.79923  0.031172002  0.030688157           10 
 1551000   0.64255066   -5.6260529    579.87166  0.031155795  0.030667825           25 
 1552000   0.62783833   -5.6151007    580.15396  0.031150878  0.030647469           12 
 1553000   0.64874317   -5.6428729    579.87893  0.031116062  0.030627119           19 
 1554000   0.62172862   -5.6410289    580.01619  0.031103399  0.030606817            7 
 1555000   0.63531715   -5.6429503    580.16583  0.031091416  0.030586474           11 
 1556000   0.64047414   -5.6227073    579.96732  0.031060803  0.030566199           21 
 1557000   0.63116111   -5.6635697    578.15616  0.030943918  0.030545796           23 
 1558000   0.62381997   -5.6824955    579.16844    0.0309782  0.030525461           23 
 1559000   0.62517357   -5.6438358    580.70203  0.031040305  0.030505147           17 
 1560000   0.63211882   -5.6349888    581.73664  0.031075675  0.030484911           22 
 1561000   0.65197846   -5.6608773    579.01923    0.0309107  0.030464636            9 
 1562000    0.6159857   -5.6282655    580.68695  0.030979884  0.030444371            9 
 1563000   0.62630734   -5.6546878    579.92344  0.030919356   0.03042411           11 
 1564000   0.62671063   -5.6180951    581.30911  0.030973418  0.030403812            9 
 1565000   0.61619471   -5.6366099     581.8504  0.030982449  0.030383699           44 
 1566000   0.61519694   -5.6296029    581.57228  0.030947865  0.030363508           54 
 1567000   0.64668133   -5.6424134    580.42594  0.030867153  0.030343398           45 
 1568000   0.63591052   -5.6268732    581.72614  0.030916568  0.030323253            8 
 1569000   0.63312565   -5.6191038    581.30924   0.03087472  0.030303103           59 
 1570000   0.62484302   -5.6301702    580.72381  0.030823982  0.030283055           29 
 1571000    0.6280811   -5.6349587    580.67943  0.030802006  0.030262959           28 
 1572000   0.62151725   -5.6424091      579.834  0.030737595  0.030242805           17 
 1573000   0.62439067   -5.6400967    581.78501  0.030821414   0.03022274           21 
 1574000   0.62344185   -5.6556925    580.23983  0.030720025  0.030202567           10 
 1575000   0.61891526   -5.6394531    581.89519  0.030788105  0.030182521           20 
 1576000   0.62538872   -5.6236095    580.93331  0.030717709  0.030162434           17 
 1577000    0.6120333   -5.6655558    582.58797  0.030785667  0.030142455           30 
 1578000   0.62532641    -5.665604    580.47191   0.03065441  0.030122429           14 
 1579000   0.62316885   -5.6533728    579.34325   0.03057543  0.030102385           15 
 1580000   0.62139352   -5.6786507    580.36996   0.03061023  0.030082411           33 
 1581000   0.63014244   -5.6531814    581.43427  0.030646968  0.030062373           21 
 1582000   0.62052075   -5.6498882    582.22754  0.030669381  0.030042444           22 
 1583000   0.61324111   -5.6445205    581.88957  0.030632216  0.030022653            7 
 1584000   0.60767689   -5.6596379    582.16282  0.030627253  0.030002753            8 
 1585000   0.61457959   -5.6538092    581.57445  0.030576995   0.02998285           27 
 1586000    0.6123218   -5.6721843    582.09088  0.030584851  0.029963007           49 
 1587000   0.62812679   -5.6584081    581.92549  0.030556894  0.029943052           14 
 1588000   0.63254738   -5.6598055    582.18445  0.030551241  0.029923153           30 
 1589000   0.62167444    -5.660353    581.69096  0.030506134   0.02990334           20 
 1590000   0.62566452   -5.6712904    581.83328  0.030494407  0.029883536           31 
 1591000   0.61913001   -5.6649158    581.37199  0.030451078  0.029863678            9 
 1592000   0.60623707   -5.6798363    580.80345   0.03040219  0.029843821            7 
 1593000   0.61236357   -5.6559973    583.46139  0.030522149  0.029823963           28 
 1594000   0.61300236    -5.673118    581.41314  0.030395919  0.029804139           22 
 1595000   0.62034788    -5.673957    581.16607  0.030363953   0.02978432           11 
 1596000   0.62362453   -5.6843308    582.90322  0.030435632  0.029764466           19 
 1597000   0.60837213   -5.7028507     580.9858   0.03031652  0.029744559           20 
 1598000   0.62074457   -5.6866851    580.79525  0.030287612  0.029724698           20 
 1599000   0.62721661   -5.6734895    580.66308  0.030261783  0.029704787           16 
 1600000   0.60948263   -5.6919858    581.29666  0.030275868  0.029684912           33 
 1601000   0.61499011   -5.6876336    581.39011  0.030261821   0.02966505           23 
 1602000   0.61803993   -5.6836017    580.52548  0.030197955  0.029645261           35 
 1603000   0.61599433   -5.6842766    582.46863  0.030280132  0.029625563           14 
 1604000   0.59935386   -5.6584819    583.63231  0.030321712  0.029605896           11 
 1605000   0.61166763   -5.6703418    581.73322  0.030204217  0.029586211           42 
 1606000   0.61292041   -5.6794054    583.09227  0.030255929  0.029566492           30 
 1607000   0.62700841     -5.67802    582.17903  0.030189744  0.029546822           20 
 1608000   0.60350243   -5.6841249    582.50129   0.03018767  0.029527195           18 
 1609000   0.60755033   -5.6781617    582.56316  0.030172113  0.029507581            9 
 1610000   0.60031083   -5.7062329    582.16983  0.030133014  0.029487985           16 
 1611000   0.62231214   -5.7042944    580.95436  0.030051436  0.029468369           13 
 1612000    0.6115754   -5.6923434    581.55843  0.030064021  0.029448749           22 
 1613000   0.60923908    -5.698384     582.6783  0.030103239  0.029429096           12 
 1614000   0.60686038   -5.6843247      584.155  0.030160832   0.02940955           12 
 1615000   0.62083944   -5.6588617    584.41175  0.030155405  0.029390133           21 
 1616000   0.59581593   -5.6843296    584.25093  0.030128452   0.02937071           21 
 1617000   0.60335661   -5.6885564    582.41159  0.030015027  0.029351268           11 
 1618000   0.61338743    -5.684905    581.58574  0.029953942  0.029331772           26 
 1619000   0.60656629    -5.678973     582.4832  0.029981635  0.029312289           31 
 1620000   0.61465529   -5.6966812    583.19111  0.029999543  0.029292768           25 
 1621000    0.6191201   -5.6863087     582.3195  0.029936227  0.029273277           13 
 1622000   0.61949281   -5.6602673    583.76614  0.029992095  0.029253821           23 
 1623000    0.6041967   -5.7087155    582.54104  0.029910712  0.029234409           53 
 1624000   0.59393461   -5.6950637    583.33973  0.029933278  0.029214933           34 
 1625000   0.59759939   -5.6964579    583.13033  0.029904119  0.029195384           49 
 1626000   0.60153992   -5.6825014    582.06636  0.029831199  0.029175861           24 
 1627000   0.60316025   -5.6821456    583.71789  0.029897454  0.029156451           11 
 1628000   0.60610027    -5.693039    582.61925  0.029822853  0.029137054           11 
 1629000   0.61256782   -5.6881378    583.79139  0.029864507  0.029117636           11 
 1630000    0.5981084    -5.705837    582.66661  0.029788681  0.029098305           17 
 1631000     0.604862   -5.6865486     584.7591   0.02987733  0.029079039            9 
 1632000   0.61255043   -5.6845467    583.04456  0.029771475  0.029059773           12 
 1633000    0.5926904   -5.7124275    583.69984  0.029786683  0.029040505            8 
 1634000   0.59934186   -5.7188888    583.38449  0.029752371  0.029021261            9 
 1635000   0.60108338   -5.7303895    580.75753  0.029600282   0.02900189            7 
 1636000   0.60836715    -5.698933    582.55087  0.029673536  0.028982477           22 
 1637000   0.59883457   -5.7167905    583.65101  0.029711414  0.028963095           28 
 1638000   0.59717531   -5.7102617    582.99396  0.029659847  0.028943714           34 
 1639000   0.61232836   -5.7128681    583.80265  0.029682868  0.028924419           24 
 1640000   0.60667853   -5.6978007     584.1423  0.029682027  0.028905167           15 
 1641000   0.59186741   -5.7080327    583.22793  0.029617506  0.028885955           10 
 1642000    0.6054079    -5.726403    583.70144    0.0296235  0.028866695           20 
 1643000   0.59358191   -5.7187969    582.09569  0.029524026  0.028847404           16 
 1644000   0.59549936   -5.7231939    582.81836  0.029542698  0.028828099           16 
 1645000   0.59443965   -5.7198173    583.65676  0.029567212  0.028808817            9 
 1646000   0.60279973   -5.7313734    582.91633  0.029511762  0.028789463            7 
 1647000   0.58535047   -5.7286677    584.16633   0.02955709  0.028770102           16 
 1648000   0.60070058   -5.7251501    582.79214  0.029469667  0.028750768           22 
 1649000   0.58454642   -5.6985596    583.70956  0.029498159  0.028731524           13 
 1650000   0.57862513   -5.7079548    584.54398  0.029522423  0.028712312            6 
 1651000   0.59308102   -5.7417969    583.47263  0.029450466  0.028693114           15 
 1652000    0.6007156   -5.7214944    583.35451   0.02942668  0.028673932           19 
 1653000   0.58960477    -5.721209     583.3924  0.029410788  0.028654809           15 
 1654000    0.5875645     -5.73109    583.10849  0.029378703  0.028635748           14 
 1655000    0.5899501   -5.7104292    583.84573  0.029398073  0.028616608           11 
 1656000   0.59163233    -5.719714    582.98881  0.029337198  0.028597465           16 
 1657000   0.58724349   -5.7210285      583.055  0.029322822  0.028578405           34 
 1658000   0.57814796   -5.7301822    583.40544   0.02932275  0.028559328           23 
 1659000   0.59427197   -5.7301076    581.94279  0.029231605  0.028540241           14 
 1660000   0.59516267   -5.7550143     583.9258  0.029313544  0.028521091           22 
 1661000    0.5974553   -5.7563139    582.76678  0.029237747  0.028501925           41 
 1662000    0.5836925    -5.714947     584.3175  0.029297909  0.028482868            7 
 1663000   0.58672249   -5.7293254       584.74  0.029301463  0.028463804           15 
 1664000    0.5892316    -5.739728    585.16275  0.029305026  0.028444733           17 
 1665000   0.59810522   -5.7368313    584.05221  0.029231842   0.02842572            4 
 1666000   0.57695532   -5.7070113    585.16365   0.02926989  0.028406822           12 
 1667000   0.57965795   -5.7263463      584.067   0.02919751   0.02838793            8 
 1668000   0.59146319   -5.7439122    584.24468  0.029188883  0.028368891            9 
 1669000   0.58475985   -5.7298189    583.90497  0.029154432  0.028349928           17 
 1670000   0.56600902   -5.7260546    585.46362  0.029214752  0.028331074           29 
 1671000   0.58030929     -5.73471    585.03875   0.02917608  0.028312226           41 
 1672000   0.58965039   -5.7330657     584.4468  0.029129127  0.028293315           18 
 1673000   0.58733441   -5.7464292    584.24552  0.029101689  0.028274406           25 
 1674000   0.57440816   -5.7546395    583.50162  0.029047273  0.028255419           22 
 1675000   0.57987077   -5.7403974     583.9171  0.029050602  0.028236476           39 
 1676000   0.57750764   -5.7563351    583.73525  0.029024227  0.028217576           20 
 1677000   0.57766052   -5.7325559    583.89152  0.029014685  0.028198668           20 
 1678000   0.58242791   -5.7400226    583.88266  0.028996954  0.028179847           17 
 1679000   0.57624799   -5.7372337    583.80811  0.028975983  0.028161044           30 
 1680000   0.58112964    -5.724509     584.1659  0.028976483  0.028142155           20 
 1681000   0.58060635   -5.7248572    584.13293  0.028957611   0.02812332           10 
 1682000    0.5778316   -5.7552218    584.55484  0.028961298  0.028104439           11 
 1683000   0.57114668   -5.7417137    585.12419  0.028972281  0.028085629           12 
 1684000   0.57723928   -5.7404742    584.26425  0.028912522  0.028066893           13 
 1685000   0.58147755   -5.7467157    584.86576  0.028925112  0.028048091           19 
 1686000   0.59098416    -5.766094     584.5293  0.028891326  0.028029269            7 
 1687000   0.58320914   -5.7521041    584.30045  0.028862895  0.028010414            6 
 1688000   0.57209382   -5.7612651    583.57598  0.028810031  0.027991598           16 
 1689000    0.5789451   -5.7627518    583.27472   0.02877811  0.027972781           17 
 1690000   0.59354231   -5.7552282    584.78272   0.02883544   0.02795391           35 
 1691000   0.58033544   -5.7565223    584.63677  0.028811195  0.027935157           20 
 1692000   0.56686336   -5.7610702    583.76973  0.028751464  0.027916352           32 
 1693000   0.59671364   -5.7500823    585.24394  0.028807046  0.027897632           46 
 1694000   0.57413975   -5.7450274    584.90835  0.028773532  0.027878944           22 
 1695000   0.57426481   -5.7591962    586.11009  0.028815639   0.02786032           54 
 1696000   0.57102705   -5.7588772    585.19024  0.028753451  0.027841688           44 
 1697000   0.57203862   -5.7873773    584.43708  0.028699523  0.027823059           12 
 1698000   0.57564654   -5.7686759    584.08448  0.028665316  0.027804462           15 
 1699000   0.56626252   -5.7697154    584.43276  0.028665527  0.027785828           12 
 1700000   0.56779573   -5.7777633     583.7775  0.028616544  0.027767112           11 
 1701000   0.57192969    -5.767545    585.02773   0.02866097  0.027748423           16 
 1702000   0.58091819   -5.7634073    583.80513   0.02858427  0.027729724           40 
 1703000   0.56279432   -5.7752087    583.77411  0.028565968  0.027711047           29 
 1704000   0.56737293   -5.7805906    584.10091  0.028565185  0.027692353           13 
 1705000   0.55898775   -5.7796658    585.09359   0.02859695  0.027673695           13 
 1706000   0.57010607   -5.7578238    585.72323  0.028610943   0.02765507           11 
 1707000   0.56863897   -5.8041976    584.07519  0.028513727   0.02763639           22 
 1708000   0.58685933   -5.7897885    584.87076  0.028535849  0.027617749           19 
 1709000   0.56695798   -5.7961177    584.52792  0.028502434  0.027599126           14 
 1710000   0.57902733   -5.7809353    585.78495  0.028547025  0.027580474           10 
 1711000     0.564915   -5.7857793    585.32987  0.028508176  0.027561829           14 
 1712000   0.57986886    -5.776465    584.35535  0.028444088  0.027543191            8 
 1713000   0.57280466   -5.7756702    583.96258  0.028408376  0.027524578           16 
 1714000   0.57532568   -5.7641005    583.18822  0.028354153  0.027505944           12 
 1715000   0.56450455   -5.7636715    584.64155  0.028408238  0.027487329           19 
 1716000   0.57631104   -5.7819811    584.40148  0.028380025  0.027468809           39 
 1717000   0.56930553    -5.758967    583.81683  0.028335121   0.02745019            9 
 1718000   0.56717037   -5.7747749    584.33728  0.028343873  0.027431625           38 
 1719000    0.5717081    -5.793845    583.08221  0.028266541  0.027412967           26 
 1720000   0.57108235   -5.7878371    583.38252  0.028264657   0.02739436           26 
 1721000   0.56325542   -5.7640906      583.605  0.028259006  0.027375862           29 
 1722000   0.57260725   -5.7790272     583.4426  0.028234737  0.027357331           13 
 1723000   0.56118645   -5.7802531    583.54223  0.028223169  0.027338817           35 
 1724000   0.56260339   -5.8031419    583.43343  0.028201539  0.027320302           38 
 1725000   0.56334706   -5.7889382     583.6845  0.028197319  0.027301777           13 
 1726000   0.56024877   -5.7818941    584.75153  0.028232499  0.027283312           15 
 1727000   0.55914376   -5.7804851    584.81149  0.028219045    0.0272648           21 
 1728000   0.56144925   -5.7821215    583.72407  0.028150274   0.02724629           14 
 1729000   0.56602053   -5.8150282    584.16564  0.028155275  0.027227819           23 
 1730000   0.57719869   -5.8046263    585.09272  0.028183657  0.027209333           23 
 1731000   0.55847372   -5.8364311    583.79853  0.028105071   0.02719086           26 
 1732000    0.5723831   -5.8035089    582.90698  0.028045948  0.027172341           15 
 1733000   0.56010363   -5.7857495     584.3469  0.028099004  0.027153872           14 
 1734000   0.56233208   -5.8226497    582.33364  0.027986046  0.027135336           39 
 1735000   0.56618359   -5.7968747     584.7839  0.028087603  0.027116844           15 
 1736000    0.5712293    -5.809599    583.90192  0.028029086  0.027098334           34 
 1737000   0.55598473   -5.8049883    583.85951  0.028010915  0.027079902           12 
 1738000   0.54910692   -5.8063646    583.10378  0.027958563  0.027061469           32 
 1739000   0.55839701   -5.7840564    584.24298  0.027997076  0.027043074           12 
 1740000   0.56638042   -5.7816056    585.90194  0.028060438  0.027024712           23 
 1741000   0.55693239   -5.7949021    584.48759  0.027976622  0.027006357           14 
 1742000   0.56043422   -5.7947897    584.51981  0.027962103  0.026988042           13 
 1743000   0.56089413   -5.7864084    582.18675  0.027834517  0.026969692           25 
 1744000   0.55812682    -5.800781    584.14667  0.027912207  0.026951421           18 
 1745000   0.56201686   -5.8146734    583.48258  0.027864498  0.026933068           23 
 1746000   0.54401317   -5.7747729    583.70308  0.027859063  0.026914728           52 
 1747000   0.57618434   -5.8371908    582.72845  0.027796625  0.026896354           34 
 1748000   0.54986088   -5.8138545    583.47262    0.0278162   0.02687795           48 
 1749000   0.55016332   -5.8251467    583.49852   0.02780153  0.026859568           41 
 1750000   0.55966741    -5.820548    583.43331  0.027782538  0.026841193           51 
 1751000   0.55322431   -5.8247298    583.25452  0.027758163  0.026822894           77 
 1752000   0.54713071   -5.8067343     583.8658  0.027771395  0.026804594           52 
 1753000   0.56310984   -5.8069361    584.33456  0.027777836   0.02678628           52 
 1754000   0.54498445   -5.8227216    582.85822  0.027691858  0.026767911           24 
 1755000   0.54467853   -5.8109515    582.80011  0.027673319  0.026749626           95 
 1756000   0.56104993   -5.8182912    584.02974  0.027715914  0.026731328           57 
 1757000   0.54522674   -5.8311045    583.01491  0.027652007   0.02671306           47 
 1758000   0.55512593   -5.8234381    584.13097  0.027689181  0.026694762           67 
 1759000   0.54743353   -5.8203907    584.28491  0.027680733  0.026676529           21 
 1760000   0.54689571   -5.7948939    585.46624  0.027720939  0.026658345           36 
 1761000   0.55577749   -5.8026406    585.03133  0.027684617  0.026640234           18 
 1762000   0.55303751   -5.8289932    583.69475  0.027605692  0.026622061           29 
 1763000   0.55687876   -5.8224116    584.09458  0.027608933  0.026603862           27 
 1764000   0.55903922   -5.8341413    583.60747   0.02757027  0.026585692           56 
 1765000   0.55231527   -5.8501681    584.04836  0.027575466  0.026567478           23 
 1766000   0.54590655   -5.8387359    583.36962  0.027527823   0.02654924           24 
 1767000   0.54341347   -5.8520726    583.61506  0.027523819  0.026530995           31 
 1768000   0.55253296   -5.8534381    583.97482  0.027525208  0.026512817           43 
 1769000   0.54324391   -5.8268931    584.18958  0.027519766  0.026494652           29 
 1770000   0.54646108   -5.8501331    583.32776  0.027463642  0.026476421           29 
 1771000   0.55164849   -5.8403117    583.38898  0.027451016  0.026458301           33 
 1772000   0.53824036   -5.8670087    582.99754  0.027417116  0.026440124           50 
 1773000    0.5433583   -5.8503177     584.2665  0.027461294  0.026421993           23 
 1774000   0.54497438   -5.8532575    584.71105  0.027466697  0.026403873           14 
 1775000    0.5443852   -5.8443011    584.25317  0.027429726  0.026385784           35 
 1776000   0.54868385    -5.838409    584.59371   0.02743026  0.026367679           39 
 1777000   0.55903183   -5.8445695    584.17384  0.027395134  0.026349593           48 
 1778000   0.54283384   -5.8257175    583.97123   0.02737023  0.026331564           42 
 1779000   0.54224266   -5.8611983    583.63918  0.027339291  0.026313519           33 
 1780000   0.53836289    -5.834926     583.6475  0.027324321   0.02629553           16 
 1781000   0.54424908   -5.8599102    584.52653  0.027350109  0.026277556           25 
 1782000   0.53874037   -5.8526795    584.21204  0.027320054  0.026259569           50 
 1783000   0.55215492    -5.845577    583.89606  0.027289963  0.026241605           25 
 1784000   0.55183218   -5.8633051     585.2598  0.027338369  0.026223623           44 
 1785000    0.5453822   -5.8774698    583.06433  0.027220557   0.02620566           36 
 1786000    0.5527716   -5.8518491    584.12572  0.027254839  0.026187688           30 
 1787000   0.53187452   -5.8563236    584.63582  0.027263375  0.026169789           41 
 1788000    0.5340331   -5.8424663    584.28189  0.027231632  0.026151913           45 
 1789000   0.53574412   -5.8610012    583.54682   0.02718217  0.026134015           29 
 1790000   0.54072235    -5.868442    583.24063   0.02715273  0.026116126           18 
 1791000   0.54980424   -5.8554502    584.99797  0.027219336  0.026098261           21 
 1792000   0.53497343   -5.8597948    584.08173  0.027161539  0.026080416           18 
 1793000   0.53672952   -5.8517973    584.41296  0.027161785  0.026062566           26 
 1794000   0.52752672   -5.8715362    584.46677  0.027149144  0.026044738           19 
 1795000   0.54375232   -5.8726616    584.14773  0.027119208  0.026026934           66 
 1796000    0.5326065   -5.8529788    584.88175  0.027138166  0.026009186           32 
 1797000   0.55035525   -5.8632035    584.13263  0.027088325  0.025991423           23 
 1798000   0.53708426   -5.8560331    584.87861  0.027107833  0.025973702           30 
 1799000   0.52540086   -5.8608583    585.05197  0.027100795  0.025955951           38 
 1800000    0.5447433   -5.8571286    584.57035  0.027063442  0.025938249           45 
 1801000   0.53745661   -5.8626521    584.16674   0.02702974  0.025920498           40 
 1802000   0.53876268   -5.8534802    585.53026  0.027077796  0.025902816           40 
 1803000   0.53475512   -5.8641482    584.46082  0.027013349  0.025885179           24 
 1804000   0.54761705   -5.8623938    585.19279  0.027032187  0.025867511           16 
 1805000   0.53238085   -5.8845619    584.70912  0.026994881  0.025849859           51 
 1806000   0.53467036   -5.8564337    584.80865  0.026984526  0.025832195           26 
 1807000   0.53402434   -5.8594928     584.6407  0.026961848  0.025814525           41 
 1808000   0.52230019   -5.8501511    585.00625  0.026963784  0.025796874           26 
 1809000   0.53545728   -5.8890347    584.32923  0.026917691  0.025779246           21 
 1810000   0.53249453   -5.8882083    583.68862  0.026873325  0.025761603           30 
 1811000   0.53564097   -5.8698721    585.10757  0.026923779  0.025743988           37 
 1812000    0.5362917   -5.8706124    585.23417  0.026914743  0.025726378           27 
 1813000   0.52732169   -5.8822403    584.87551  0.026883412  0.025708734           46 
 1814000   0.53708454   -5.8835509    584.25795  0.026840222  0.025691099           25 
 1815000   0.53000861   -5.8833029    583.31101  0.026781956  0.025673485           23 
 1816000   0.54077286   -5.8738614    584.53655  0.026823446   0.02565589           18 
 1817000   0.52268209   -5.8773749    584.35482  0.026800349   0.02563832           22 
 1818000   0.52049031   -5.8894287     583.0063  0.026723794  0.025620689           59 
 1819000   0.53125353   -5.8854421    584.00699  0.026754947  0.025603044           23 
 1820000   0.52763403   -5.8708479    584.99553   0.02678551   0.02558546           22 
 1821000    0.5288488   -5.8623317     584.3979  0.026743451  0.025567924           26 
 1822000   0.53612889   -5.8711511      583.785  0.026700741  0.025550383           39 
 1823000   0.53760993   -5.8697301    585.03296  0.026743141  0.025532831           43 
 1824000    0.5243477   -5.8846703    583.68381  0.026666841  0.025515347           53 
 1825000   0.52125368   -5.8844561    584.54808  0.026691693  0.025497922           51 
 1826000   0.52324748   -5.8690527    584.27613  0.026664665    0.0254805           99 
 1827000   0.52335849   -5.9036807    585.14748  0.026689814  0.025463054           67 
 1828000   0.52655965   -5.8923445      584.742  0.026656729  0.025445635           46 
 1829000   0.52652973   -5.8763221    585.12012  0.026659382  0.025428213           46 
 1830000   0.52332406   -5.9008726    583.02921    0.0265496  0.025410797           50 
 1831000   0.51467106   -5.8935407    583.80052  0.026570204  0.025393353           29 
 1832000   0.52344015   -5.9004788    584.88981   0.02660525   0.02537596           65 
 1833000   0.50406303    -5.897941    583.75909   0.02653933  0.025358562           36 
 1834000   0.53361537   -5.8943878    583.79496  0.026526488  0.025341158           52 
 1835000   0.52680972    -5.900037    584.47936  0.026543113  0.025323785           35 
 1836000   0.50885457   -5.8801222    585.64761  0.026581682  0.025306395           37 
 1837000   0.53311416   -5.9185351    583.11439  0.026452295  0.025289001           47 
 1838000   0.52507446   -5.8923285    583.68787  0.026463904  0.025271616           79 
 1839000   0.53083005   -5.8977373    583.33193  0.026433385  0.025254249           66 
 1840000    0.5173984   -5.9065165    582.82246  0.026395945  0.025236875           75 
 1841000   0.51869634   -5.8949944    584.48716   0.02645696  0.025219588           43 
 1842000   0.52633033   -5.8922421    583.09898  0.026379795  0.025202247           31 
 1843000   0.51278799   -5.9077642    583.06762  0.026364063  0.025184905           35 
 1844000   0.51837386   -5.8996037    584.51772  0.026415298   0.02516759           40 
 1845000   0.50727425   -5.8908506    583.85081  0.026370859  0.025150315           70 
 1846000   0.52298975   -5.9005466    583.37002  0.026334869  0.025133043           16 
 1847000   0.50853345   -5.9063532    584.44361  0.026369049   0.02511581           50 
 1848000    0.5128143   -5.9076905    584.64374  0.026363805  0.025098602           42 
 1849000   0.51947481    -5.901339    583.25623  0.026287012  0.025081379           42 
 1850000   0.51947539   -5.8999897    583.58181  0.026287469  0.025064192           19 
 1851000   0.51639015   -5.9006495    584.76226  0.026326412  0.025047012           29 
 1852000   0.51747557   -5.8911966    584.58063  0.026304024  0.025029857           37 
 1853000   0.51948396   -5.9142498    584.73776  0.026296895  0.025012705           46 
 1854000   0.52241785   -5.8903066    584.59331  0.026276219  0.024995595           14 
 1855000   0.50485924   -5.9227348    583.74049  0.026223742  0.024978472           18 
 1856000   0.50705369   -5.9106227    584.68914  0.026252206  0.024961333           27 
 1857000   0.50843595   -5.9041111    583.82774  0.026199414  0.024944238           22 
 1858000   0.50050791   -5.9170699    583.30348  0.026161799  0.024927156           61 
 1859000   0.50391836   -5.9026283    584.67964  0.026209416  0.024910043           25 
 1860000   0.49678779   -5.9203309    583.97911  0.026163938  0.024892927           14 
 1861000   0.50891779   -5.8935721    585.16674   0.02620306   0.02487587           14 
 1862000   0.50583924   -5.9005817    584.81635  0.026173306   0.02485884           27 
 1863000   0.51010063   -5.9258563    583.19751  0.026086845  0.024841793           27 
 1864000   0.50915654   -5.9099954    584.24977  0.026119893  0.024824765           34 
 1865000   0.50267616   -5.9146144    584.03431   0.02609626  0.024807761           43 
 1866000   0.51428375   -5.9264951    583.99106  0.026080344   0.02479074           20 
 1867000   0.51974145   -5.9132264    583.57624  0.026047859  0.024773743           49 
 1868000   0.50975705   -5.9186626     583.6356  0.026036563  0.024756758           31 
 1869000   0.51325502   -5.9199366    583.11116  0.025999249  0.024739774           38 
 1870000   0.50356514   -5.9236052    584.10253  0.026029525  0.024722806           25 
 1871000   0.50090292   -5.9421796    583.97589  0.026009972  0.024705833           18 
 1872000   0.51115274   -5.9309885    583.55189  0.025977203   0.02468886           25 
 1873000   0.49964137   -5.9255684    583.14118  0.025945061  0.024671892           29 
 1874000   0.51128989    -5.925962    584.05956  0.025972055  0.024654915           31 
 1875000   0.52038356   -5.9318176    583.59381  0.025937503  0.024637926           19 
 1876000   0.50042174   -5.9501495    583.28216  0.025909833  0.024620964           19 
 1877000   0.51336776   -5.9239595    584.74086  0.025960791  0.024604001           32 
 1878000   0.50425797   -5.9407257    582.57337  0.025850788  0.024587018           22 
 1879000   0.50434801   -5.9330143    582.45064  0.025831588  0.024570053           48 
 1880000   0.50758394   -5.9487462    582.63289  0.025825926  0.024553032           27 
 1881000   0.49782389   -5.9454286    582.47588   0.02580524   0.02453599           42 
 1882000   0.50653463   -5.9564997    582.31415  0.025784367   0.02451895           74 
 1883000   0.50931825   -5.9514116    582.14092  0.025763008  0.024501919           32 
 1884000   0.50046817    -5.928472    582.00464  0.025743305  0.024484909           85 
 1885000   0.50050339   -5.9410966    583.28454  0.025786231  0.024467926           60 
 1886000   0.50593993   -5.9449095    582.68308  0.025745983  0.024450952           46 
 1887000   0.49712173   -5.9426071    583.20578  0.025755422  0.024434024           66 
 1888000   0.49397724   -5.9460125    582.35884  0.025704398  0.024417084          100 
 1889000   0.50582273   -5.9467717     583.1662  0.025726407   0.02440014           83 
 1890000   0.49673427   -5.9534436    582.50776  0.025683763  0.024383205          114 
 1891000   0.50380537   -5.9432482      582.043    0.0256497  0.024366317           57 
 1892000   0.49879121    -5.932417    582.12288  0.025639662  0.024349415           76 
 1893000   0.50625281   -5.9437304    581.70005  0.025607503   0.02433251           79 
 1894000   0.50288383   -5.9654281     582.3373  0.025622021  0.024315632           62 
 1895000   0.48906398    -5.949248    582.16103  0.025600749   0.02429875           66 
 1896000   0.48824952   -5.9368352    581.68038  0.025566121   0.02428188           87 
 1897000   0.49456479   -5.9518016    582.36731   0.02558282  0.024264987           86 
 1898000    0.4919021   -5.9519679    583.36321  0.025613067  0.024248106           43 
 1899000   0.49782582   -5.9504579    583.00761  0.025583975  0.024231263           71 
 1900000   0.49498357   -5.9520453    582.05348  0.025528662  0.024214413          129 
 1901000   0.50070893   -5.9558338    582.09432  0.025517023  0.024197587          132 
 1902000   0.49400791   -5.9698872    582.01801  0.025500263  0.024180713           97 
 1903000   0.49763715   -5.9664165    581.92601  0.025482834  0.024163857          155 
 1904000   0.48850671   -5.9735268    582.29503  0.025485602  0.024147001           77 
 1905000   0.48246905   -5.9677706    581.76935  0.025449228  0.024130134           43 
 1906000   0.48622779   -5.9580508    581.68514  0.025432194  0.024113297          170 
 1907000   0.48962622   -5.9539247    583.00418  0.025476498  0.024096491          108 
 1908000   0.48948258   -5.9412168    582.40911  0.025437155  0.024079749          116 
 1909000   0.48338942   -5.9681557    581.59277  0.025388195  0.024062979          136 
 1910000   0.49194258   -5.9577517    582.36417  0.025408559  0.024046238          107 
 1911000   0.49516287   -5.9561996    582.28421  0.025391776  0.024029485           48 
 1912000   0.48492044   -5.9511872    582.04995  0.025368286   0.02401274           31 
 1913000   0.48989414   -5.9679821    583.82214  0.025432224  0.023996021           44 
 1914000   0.48372597   -5.9515171    582.76564  0.025372938  0.023979299           47 
 1915000   0.48400265   -5.9451868    581.91998  0.025322888  0.023962688           61 
 1916000   0.49671555   -5.9613074    582.98219  0.025355871  0.023946103           24 
 1917000   0.49072323   -5.9508478    583.82517  0.025379289  0.023929485           81 
 1918000   0.47681035   -5.9631372    581.98407  0.025286065  0.023912863           31 
 1919000   0.48308399   -5.9385074     582.8941  0.025312407  0.023896241           48 
 1920000    0.4865753   -5.9512082    581.71178  0.025247907  0.023879627          113 
 1921000   0.48465544   -5.9564283    582.41236  0.025265155  0.023863037           61 
 1922000   0.48796543   -5.9574885    582.00741  0.025234452  0.023846453           44 
 1923000   0.48980694   -5.9734046    582.48747  0.025242133  0.023829889           94 
 1924000   0.48459059   -5.9744182    582.62586  0.025235008  0.023813283           71 
 1925000   0.48174223   -5.9764323    582.84645  0.025231448  0.023796699           61 
 1926000   0.47986848   -5.9738173    581.97293  0.025180552  0.023780108           51 
 1927000   0.47904064   -5.9620594    582.96137   0.02521023  0.023763543           56 
 1928000   0.49038839   -5.9712985    582.22562  0.025165354  0.023746982           54 
 1929000   0.49042848    -5.972289     581.9867  0.025141986  0.023730433           56 
 1930000   0.47994571   -5.9683834    581.81441   0.02512152   0.02371389           71 
 1931000   0.49789734   -5.9737412    581.75557  0.025105971  0.023697318           43 
 1932000   0.47897457   -5.9649839    580.04863  0.025019351  0.023680771          133 
 1933000   0.48175232    -5.977427    580.88226  0.025042346  0.023664165           83 
 1934000   0.48538615   -5.9706157    579.88905  0.024986601  0.023647594          182 
 1935000    0.4864965   -5.9912468    581.37512  0.025037688   0.02363105          144 
 1936000   0.48693607   -5.9909408    580.89023  0.025003884  0.023614523           65 
 1937000   0.48040186   -5.9663618    581.21837  0.025005092  0.023597982          154 
 1938000   0.47159274     -5.96663    582.19534  0.025034199  0.023581446           87 
 1939000   0.47776182   -5.9847982    580.61901  0.024953542  0.023564897          106 
 1940000   0.48125093    -5.991106     580.4852  0.024934931  0.023548382          153 
 1941000    0.4688254    -6.002082    580.96761  0.024942796  0.023531857          108 
 1942000   0.47980627   -5.9901029    580.13492  0.024894221  0.023515365           79 
 1943000   0.47717287   -5.9903161    582.06772  0.024964304  0.023498883           98 
 1944000   0.48006892   -6.0135904    581.60588  0.024931665  0.023482379           73 
 1945000   0.47920842   -5.9957883       581.91  0.024931877  0.023465884          118 
 1946000    0.4826059    -6.004699    580.48008  0.024857832  0.023449405           86 
 1947000   0.48404049    -6.004245    580.42243  0.024842597  0.023432914          101 
 1948000   0.46986678   -5.9863824     580.2375  0.024821933  0.023416455           81 
 1949000   0.48233163    -5.994281    580.88515  0.024836888   0.02340002           67 
 1950000   0.46460812   -5.9865051    581.07375  0.024832212  0.023383599          161 
 1951000   0.48581918   -6.0042645    580.85138  0.024809986  0.023367141          169 
 1952000   0.48643593   -5.9826839    580.65733  0.024788991  0.023350695          108 
 1953000   0.47849803   -5.9829817     580.0273  0.024749415  0.023334282          148 
 1954000   0.48104198   -5.9785984    580.41672  0.024753357  0.023317889          103 
 1955000   0.47947838   -5.9767031    580.32988  0.024736994  0.023301504          173 
 1956000   0.47384085   -5.9964883    580.62965  0.024737119  0.023285113          170 
 1957000   0.46568406   -6.0056926    581.32267  0.024753989  0.023268733          121 
 1958000   0.47005267   -6.0047314    580.74774  0.024716877  0.023252353          127 
 1959000   0.47430399   -6.0234157    579.95902  0.024670709  0.023235998          114 
 1960000   0.46697666    -5.997225    580.59957  0.024685356  0.023219631          122 
 1961000   0.46952821   -6.0079496    579.88447  0.024642379  0.023203274           88 
 1962000   0.47357168   -6.0151992    579.28765   0.02460447  0.023186903          244 
 1963000   0.47060462   -6.0120227    580.26934  0.024633611  0.023170576          138 
 1964000   0.46763726   -5.9996853    580.28097  0.024621562  0.023154233          193 
 1965000   0.46235697   -6.0029843    579.77773   0.02458769  0.023137878          130 
 1966000   0.47913758   -5.9998267     579.9859  0.024584007  0.023121532          172 
 1967000   0.46929222   -6.0429188    579.25284  0.024540452  0.023105183           80 
 1968000   0.46791695   -6.0220556    579.61649  0.024543381  0.023088863          197 
 1969000   0.46616959    -6.014136    578.57942  0.024487025  0.023072559          242 
 1970000   0.46277793   -6.0044864    578.06912  0.024453009  0.023056273          136 
 1971000   0.47522454   -6.0190169    579.65243  0.024507544  0.023040011          138 
 1972000   0.47485937   -6.0029594    580.19437  0.024518018  0.023023757          139 
 1973000    0.4635201   -6.0150965    579.29637  0.024467662  0.023007492          116 
 1974000   0.46075801   -6.0292898    579.65319  0.024470331   0.02299119          311 
 1975000   0.46772108   -6.0479845    578.89209  0.024425827  0.022974882          216 
 1976000   0.45661416   -6.0077796    579.50154  0.024439168  0.022958622          192 
 1977000   0.46336937   -6.0122979    579.64783  0.024432972  0.022942367           95 
 1978000   0.47010139   -6.0228668    578.70037  0.024380703  0.022926129          103 
 1979000   0.45833908   -5.9999976    579.36931  0.024396552  0.022909916          294 
 1980000   0.45802521   -6.0127414    579.69193  0.024397808  0.022893721          220 
 1981000   0.45996416   -6.0169282    579.32732  0.024370155  0.022877503          271 
 1982000   0.45672145    -6.030304    579.57769  0.024368386  0.022861301          276 
 1983000   0.46229603   -6.0200901      578.693  0.024318919  0.022845115          212 
 1984000    0.4675627    -6.022529    579.86092  0.024355717  0.022828929          296 
 1985000    0.4520865   -6.0165491    579.69041  0.024336289  0.022812791          358 
 1986000   0.44933141   -6.0354222    579.22914   0.02430468  0.022796629          302 
 1987000   0.45945133   -6.0194201    578.73966   0.02427192  0.022780476          305 
 1988000    0.4601247   -6.0299878    578.79328  0.024261959  0.022764321          287 
 1989000   0.46094066   -6.0272751    578.49569  0.024237292  0.022748178          350 
 1990000   0.47022125   -6.0431535    578.02136   0.02420525   0.02273203          291 
 1991000    0.4617105   -6.0309647    578.05366  0.024194444  0.022715915          326 
 1992000   0.45400877    -6.037752    579.16693  0.024228871  0.022699793          273 
 1993000   0.45405793   -6.0429441    577.44202   0.02414459  0.022683669          427 
 1994000   0.44991731   -6.0372303     579.0994  0.024201747  0.022667578          303 
 1995000   0.46352478   -6.0370068    579.34273   0.02419978  0.022651482          391 
 1996000   0.45804547   -6.0384027    578.60525  0.024156866  0.022635427          359 
 1997000   0.46020722   -6.0269972    577.76361  0.024109648  0.022619374          384 
 1998000   0.45910424   -6.0504432    577.83462  0.024100543  0.022603326          423 
 1999000   0.46167974   -6.0586457    578.90827  0.024133245  0.022587272          341 
 2000000   0.45876948    -6.030519    578.35396  0.024098082  0.022571251          339 
 2001000   0.45501047   -6.0247458    577.91932  0.024067938  0.022555244          268 
 2002000    0.4457131   -6.0539477    577.55345  0.024040686  0.022539206          446 
 2003000   0.45569171   -6.0442757    577.63271  0.024031981  0.022523201          359 
 2004000   0.45551345   -6.0470915    577.60585  0.024018873  0.022507194          372 
 2005000   0.45569597    -6.029742     578.0813  0.024026654  0.022491197          358 
 2006000   0.44412939   -6.0450055    577.67332  0.023997729  0.022475212          375 
 2007000   0.45043625   -6.0581763    577.57835  0.023981828  0.022459239          363 
 2008000   0.44773626   -6.0479258    577.65671  0.023973137  0.022443267          375 
 2009000   0.44414161    -6.035239    578.17995  0.023982908   0.02242732          428 
 2010000   0.45012741   -6.0687056    577.51576   0.02394344  0.022411359          498 
 2011000   0.45451135    -6.044874    578.43006  0.023969421  0.022395416          461 
 2012000   0.46068766   -6.0516255    577.06723  0.023901062  0.022379491          524 
Loop time of 5078.17 on 48 procs for 2000000 steps with 4000 atoms

Performance: 68055.970 tau/day, 393.842 timesteps/s
99.4% CPU use with 48 MPI tasks x no OpenMP threads

MPI task timing breakdown:
Section |  min time  |  avg time  |  max time  |%varavg| %total
---------------------------------------------------------------
Pair    | 353.13     | 373.9      | 397.56     |  53.1 |  7.36
Neigh   | 34.283     | 35.842     | 38.27      |  12.9 |  0.71
Comm    | 315.13     | 343.01     | 373.27     |  68.3 |  6.75
Output  | 4.286      | 4.2879     | 4.323      |   0.2 |  0.08
Modify  | 4254.2     | 4274       | 4290.6     |  14.2 | 84.16
Other   |            | 47.18      |            |       |  0.93

Nlocal:        83.3333 ave          90 max          77 min
Histogram: 1 2 6 7 6 10 12 2 0 2
Nghost:        2347.98 ave        2356 max        2337 min
Histogram: 2 3 5 3 6 2 11 5 4 7
Neighs:        16121.5 ave       17693 max       14210 min
Histogram: 1 0 5 3 13 8 4 7 4 3
FullNghs:      32243.8 ave       34655 max       29360 min
Histogram: 1 1 6 3 6 9 14 5 1 2

Total # of neighbors = 1547700
Ave neighs/atom = 386.92500
Neighbor list builds = 107519
Dangerous builds = 0

#clear
#
#next RN
#
#jump SELF
Total wall time: 1:24:42
