
units lj                  # Use reduced LJ style units
atom_style atomic         # Uncharged point particles
atom_modify map hash      # Needed for indexing of clusters etc
                          # Used to be able to find where atoms are in relation to each other.

lattice fcc 1.0 spacing 1 1 1
Lattice spacing in x,y,z = 1.5874011 1.5874011 1.5874011
region box block 0 10 0 10 0 10 units lattice
create_box 2 box
Created orthogonal box = (0.0000000 0.0000000 0.0000000) to (15.874011 15.874011 15.874011)
  3 by 4 by 4 MPI processor grid
create_atoms 1 box
Created 4000 atoms
  using lattice units in orthogonal box = (0.0000000 0.0000000 0.0000000) to (15.874011 15.874011 15.874011)
  create_atoms CPU = 0.029 seconds
set type 1 type/fraction 2 0.5 78393
Setting atom values ...
  2004 settings made for type/fraction
mass 1 1.0
mass 2 1.0
pair_style lj/cut  3.5
pair_modify tail  yes
pair_coeff 1  1  1.0  1.0   # Intearaction between 1 and 1 set with epsilon = 1 and sigma = 1
pair_coeff 1  2  1.5  0.8
pair_coeff 2  2  0.5  0.88

write_data data.0
System init for write_data ...
Neighbor list info ...
  update every 1 steps, delay 10 steps, check yes
  max neighbors/atom: 2000, page size: 100000
  master list distance cutoff = 3.8
  ghost atom cutoff = 3.8
  binsize = 1.9, bins = 9 9 9
  1 neighbor lists, perpetual/occasional/extra = 1 0 0
  (1) pair lj/cut, perpetual
      attributes: half, newton on
      pair build: half/bin/atomonly/newton
      stencil: half/bin/3d
      bin: standard
WARNING: Not all mixed pair coeffs generated from mixing. Use write_data with 'pair ij' option to store all pair coeffs. (../write_data.cpp:312)


#############################
#   M E L T   S Y S T E M   #
#############################

velocity all create 2.4 3143649 mom yes dist gaussian # Assign velocities
                                                    # Temperature 2.4, random number seed, zero linear momentum
                                                                                # Gaussian distribution

timestep 0.002   # simulation timestep
thermo 1000       # output thermodynamic data every 1000 steps bf 100

# Define a fix  in this case with index 1 applied to all
# particles in the simulation. This fix is for simulations
# in the anisotropic NPT ensemble. Note that we use the MTK
# correction.
fix 1 all npt temp 2.4 2.4 0.1 iso 5.68 5.68 0.5 mtk yes tchain 5 pchain 5 # Use NPT ensemble
                                                                         # Set temperature and pressure and damping
                                                                         # Numbers of thermostats in chain and in barostat
run 10000          # run for 10000 steps
Per MPI rank memory allocation (min/avg/max) = 3.642 | 3.644 | 3.648 Mbytes
Step Temp E_pair E_mol TotEng Press Volume 
       0          2.4   -5.2939675            0   -1.6948675   -4.2078901         4000 
    1000    2.4058936   -4.9355212            0   -1.3275831    5.5870563    3688.1392 
    2000    2.3331037   -4.8650172            0   -1.3662366    5.7122651    3699.9644 
    3000    2.4092494   -4.8977456            0   -1.2847749    5.8540954    3681.9693 
    4000    2.3446254   -4.9825487            0   -1.4664899    5.2588907     3684.894 
    5000    2.4268123   -4.8266014            0    -1.187293    5.7064203    3720.9158 
    6000    2.3828347   -4.8419416            0   -1.2685831     6.185394    3678.9223 
    7000    2.3505889   -4.8769959            0    -1.351994    5.9476061    3686.2727 
    8000     2.437746   -4.8670948            0   -1.2113899    5.6723842    3715.1699 
    9000    2.4112696   -4.9753374            0   -1.3593373    5.6052257     3670.596 
   10000    2.4164769   -4.9179704            0   -1.2941613    5.5178247     3704.458 
Loop time of 2.74471 on 48 procs for 10000 steps with 4000 atoms

Performance: 629574.643 tau/day, 3643.372 timesteps/s
99.6% CPU use with 48 MPI tasks x no OpenMP threads

MPI task timing breakdown:
Section |  min time  |  avg time  |  max time  |%varavg| %total
---------------------------------------------------------------
Pair    | 1.194      | 1.2654     | 1.4752     |   3.8 | 46.10
Neigh   | 0.21276    | 0.22272    | 0.25466    |   1.3 |  8.11
Comm    | 0.75659    | 0.9419     | 1.0456     |   5.8 | 34.32
Output  | 0.00024703 | 0.00025674 | 0.00031785 |   0.0 |  0.01
Modify  | 0.23457    | 0.29846    | 0.38906    |   8.5 | 10.87
Other   |            | 0.01594    |            |       |  0.58

Nlocal:        83.3333 ave          91 max          75 min
Histogram: 3 2 5 1 5 15 9 1 4 3
Nghost:        1729.83 ave        1753 max        1706 min
Histogram: 4 4 1 6 5 12 5 4 5 2
Neighs:        10299.9 ave       11549 max        9025 min
Histogram: 3 1 6 5 9 12 3 2 1 6

Total # of neighbors = 494396
Ave neighs/atom = 123.59900
Neighbor list builds = 899
Dangerous builds = 156

# Equilibrate just above the melting temperature to avoid step fn in T

fix 1 all npt temp 1.25 1.25 0.1 iso 5.68 5.68 0.5 mtk yes tchain 5 pchain 5
run 2000
Per MPI rank memory allocation (min/avg/max) = 3.644 | 3.646 | 3.649 Mbytes
Step Temp E_pair E_mol TotEng Press Volume 
   10000    2.4164769   -4.9179704            0   -1.2941613    5.5178247     3704.458 
   11000    1.2301287   -6.9779973            0   -5.1332656    5.8302016    2881.8802 
   12000    1.2391561   -7.0570216            0   -5.1987522    5.7136153     2866.078 
Loop time of 0.666073 on 48 procs for 2000 steps with 4000 atoms

Performance: 518861.686 tau/day, 3002.672 timesteps/s
99.6% CPU use with 48 MPI tasks x no OpenMP threads

MPI task timing breakdown:
Section |  min time  |  avg time  |  max time  |%varavg| %total
---------------------------------------------------------------
Pair    | 0.2873     | 0.31955    | 0.38333    |   2.8 | 47.98
Neigh   | 0.040481   | 0.043083   | 0.051335   |   0.8 |  6.47
Comm    | 0.18647    | 0.25215    | 0.28305    |   3.3 | 37.86
Output  | 5.208e-05  | 5.3407e-05 | 6.8185e-05 |   0.0 |  0.01
Modify  | 0.039413   | 0.046244   | 0.052587   |   1.9 |  6.94
Other   |            | 0.004984   |            |       |  0.75

Nlocal:        83.3333 ave          90 max          74 min
Histogram: 1 1 1 6 4 14 8 4 4 5
Nghost:        2061.08 ave        2079 max        2038 min
Histogram: 1 1 5 6 7 9 3 5 7 4
Neighs:        13318.7 ave       14688 max       11106 min
Histogram: 1 1 2 4 5 5 14 5 5 6

Total # of neighbors = 639297
Ave neighs/atom = 159.82425
Neighbor list builds = 141
Dangerous builds = 7

#############################
# L I N E A R  Q U E N C H  #
#############################

# Define solid atoms. This closely follows ten Wolde  Ruiz-Montero and Frenkel  Faraday Discuss  1996  104  93-110
# Compute components of the per-atom q6 vector
compute q6 all orientorder/atom degrees 1 6 components 6 nnn NULL cutoff 1.3 # compute the Q6 parameter.
                                                                             # Use all neighbours within 1.3 unit cell.

# get number of connections
compute coord_number all coord/atom orientorder q6 0.5

# An atom is solid if it has 8 or more connections (of a possible 14)
variable is_solid atom c_coord_number>=8
group solid dynamic all var is_solid    # Must be dynamic to update
dynamic group solid defined

# do clustering
compute cluster solid cluster/atom 1.3 # Create a cluster where all atoms within are solid and max 1.3 units from another member

# define chunks one chunk per cluster
compute clus_chunks solid chunk/atom c_cluster nchunk every compress yes  # Says which atoms are in which chunk

# count the size of each chunk
compute size_chunks solid property/chunk clus_chunks count


# Find the maximum entry in the vector of chunk sizes
variable max_n equal max(c_size_chunks)


# Thermo style which includes this variable
# thermo_style custom step temp pe vol v_max_n

thermo ${N}  # Print the thermo information every 100 steps
thermo 1000  

# Reset the npt fix at a lower temperature (below freezing)
fix 1  all npt temp  ${temp} ${temp}  0.1  iso  5.68  5.68  0.5  mtk yes tchain  5  pchain  5
fix 1  all npt temp  0.45 ${temp}  0.1  iso  5.68  5.68  0.5  mtk yes tchain  5  pchain  5
fix 1  all npt temp  0.45 0.45  0.1  iso  5.68  5.68  0.5  mtk yes tchain  5  pchain  5

dump dmp2 all dcd ${N} traj.dcd
dump dmp2 all dcd 1000 traj.dcd


compute msd all msd com yes
variable twopoint equal c_msd[4]/6/(step*dt+1.0e-6)
fix 9 all vector 10 c_msd[4]
variable fit equal slope(f_9)/6/(10*dt)
thermo_style custom step temp pe c_msd[4] v_twopoint v_fit v_max_n

fix 1 all npt temp 1.25 ${temp} 0.1 iso 5.68 5.68 0.5 mtk yes tchain 5 pchain 5
fix 1 all npt temp 1.25 0.45 0.1 iso 5.68 5.68 0.5 mtk yes tchain 5 pchain 5
run 5000000 # 5000000  # Run for this many steps
Neighbor list info ...
  update every 1 steps, delay 10 steps, check yes
  max neighbors/atom: 2000, page size: 100000
  master list distance cutoff = 3.8
  ghost atom cutoff = 3.8
  binsize = 1.9, bins = 8 8 8
  4 neighbor lists, perpetual/occasional/extra = 1 3 0
  (1) pair lj/cut, perpetual
      attributes: half, newton on
      pair build: half/bin/atomonly/newton
      stencil: half/bin/3d
      bin: standard
  (2) compute orientorder/atom, occasional
      attributes: full, newton on
      pair build: full/bin/atomonly
      stencil: full/bin/3d
      bin: standard
  (3) compute coord/atom, occasional
      attributes: full, newton on
      pair build: full/bin/atomonly
      stencil: full/bin/3d
      bin: standard
  (4) compute cluster/atom, occasional
      attributes: full, newton on
      pair build: full/bin/atomonly
      stencil: full/bin/3d
      bin: standard
Per MPI rank memory allocation (min/avg/max) = 9.837 | 9.845 | 9.850 Mbytes
Step Temp PotEng c_msd[4] v_twopoint v_fit v_max_n 
   12000    1.2391561   -7.0570216 3.9178777e-30 2.7207483e-32 8.3333333e+20            1 
   13000    1.2496144   -7.0855971    0.4455673 0.0028562006  0.036399788            2 
   14000    1.2466361    -7.074443   0.84629934 0.0050374959   0.03402959            3 
   15000    1.2569125   -7.0669528     1.278439 0.0071024388  0.034179768            3 
   16000    1.2627925   -7.0739663    1.6822965 0.0087619609  0.034276174            3 
   17000    1.2363927   -7.1104496    2.0607051  0.010101495  0.033871367            4 
   18000    1.2315095   -7.0511378    2.4442047  0.011315762   0.03359548            1 
   19000    1.2320923   -7.0964931    2.8407821   0.01245957  0.033215344            3 
   20000    1.2559716     -7.08563    3.2404642  0.013501934  0.033229462            1 
   21000    1.2735058   -7.0835309    3.6139553  0.014341092   0.03314816            1 
   22000    1.2408674   -7.0998452    3.9834262  0.015088735  0.033023521            2 
   23000    1.2520777   -7.0808177    4.4090031  0.015974648  0.032895561            3 
   24000    1.2446264   -7.1278757    4.8420382  0.016812632  0.032941176            3 
   25000    1.2327733   -7.0867902    5.2359864  0.017453288  0.033102105            2 
   26000    1.2542342   -7.0832777    5.5777795  0.017877498  0.033088116            3 
   27000    1.2545255   -7.0977614    5.9533718  0.018374604  0.032962205            1 
   28000    1.2709748   -7.1023604    6.3948446  0.019032275  0.032892064            2 
   29000    1.2515862   -7.1170936    6.7236701  0.019320891  0.032864129            1 
   30000    1.2427859   -7.1119316    7.1500286   0.01986119  0.032794918            1 
   31000    1.2530729   -7.1112795     7.509376  0.020186494  0.032753874            3 
   32000    1.2391917   -7.0643621     8.010669  0.020861117  0.032749627            1 
   33000    1.2682436   -7.0827058    8.4432287  0.021321284  0.032832686            1 
   34000    1.2210553   -7.1295585    8.8059151  0.021583125  0.032930461            1 
   35000    1.2527817   -7.1311926     9.180654    0.0218587  0.033006938            2 
   36000    1.2452817   -7.0956832    9.6229581  0.022275366  0.033050904            1 
   37000    1.2315905   -7.1051237    9.9502173  0.022410399  0.033061679            2 
   38000    1.2639243   -7.0843312    10.409524  0.022827904  0.033053007            2 
   39000    1.2283808   -7.1188111    10.773523  0.023020348  0.033068537            3 
   40000    1.2489909   -7.1011152    11.168448  0.023267599  0.033074406            1 
   41000    1.2205105   -7.1096043    11.593687  0.023564405  0.033095047            1 
   42000    1.2580622   -7.1181186    11.966454  0.023742963  0.033097481            6 
   43000    1.2337067   -7.1270563    12.192281  0.023628451  0.033053132            4 
   44000    1.2427943   -7.0996572    12.699359  0.024051815  0.032997516            1 
   45000    1.2691002   -7.1518167    13.038208  0.024144829  0.032978237            1 
   46000    1.2318741   -7.1498776    13.526698  0.024504887   0.03297735            1 
   47000    1.2561062   -7.0600814    13.945885  0.024726746  0.032976674            2 
   48000    1.2337344   -7.1139783    14.324745  0.024869348  0.032994174            1 
   49000    1.2587332   -7.1583505    14.754721  0.025093063  0.033009136            2 
   50000     1.256748   -7.1411422     15.21777  0.025362949  0.033034886            1 
   51000    1.2701667   -7.1179361    15.697699  0.025649835  0.033082333            3 
   52000    1.2527697   -7.1439079    16.095161  0.025793527  0.033128132            1 
   53000    1.2605663   -7.0980301    16.541137  0.026008077  0.033189033            1 
   54000    1.2147125   -7.1564085    16.904312  0.026086901   0.03323772            4 
   55000    1.2436117   -7.0795065    17.389468  0.026347678   0.03328461            2 
   56000    1.2150812    -7.121676    17.893893  0.026627817  0.033347061            2 
   57000    1.2415661   -7.1425922    18.133875  0.026511513  0.033406023            4 
   58000    1.2635021   -7.0826539    18.588231  0.026707228  0.033447828            2 
   59000    1.2371157   -7.1026245    18.853899  0.026629801  0.033460695            4 
   60000    1.2835586   -7.1336568    19.314978  0.026826357  0.033473359            4 
   61000    1.2349972   -7.1090084    19.800385  0.027049706  0.033492862            2 
   62000    1.2793641   -7.1076792     20.19704  0.027146559  0.033512311            2 
   63000     1.238424   -7.1675265    20.489057  0.027101927  0.033518617            1 
   64000    1.2604767   -7.0910207     20.93797  0.027262982  0.033525464            2 
   65000    1.2194954   -7.1502943    21.362508  0.027387831  0.033536587            1 
   66000    1.2500599   -7.0695091    21.901943  0.027653968  0.033560392            2 
   67000    1.2654626   -7.1233466    22.302318  0.027739201  0.033584845            2 
   68000    1.2747719   -7.1391338     22.62631  0.027728321  0.033605005            1 
   69000    1.2295465   -7.1064497    23.102067  0.027901047  0.033628028            4 
   70000    1.2395568   -7.1331983    23.544962  0.028029717  0.033658476            2 
   71000    1.2584611   -7.1573477    23.899617  0.028051193  0.033682101            2 
   72000    1.2420672   -7.1769279    24.273595  0.028094439  0.033693384            1 
   73000    1.2463049   -7.0774631    24.776799  0.028284016  0.033710967            2 
   74000    1.2392058   -7.1460876    24.885175  0.028023845  0.033711692            1 
   75000    1.2400142    -7.151987     25.28073    0.0280897  0.033701333            4 
   76000    1.2686671    -7.130299    25.768548  0.028254987  0.033691368            1 
   77000    1.2475694   -7.1745327    26.118533  0.028266811  0.033687592            5 
   78000    1.2294293   -7.1160008    26.432814  0.028240186  0.033671306            1 
   79000     1.242671   -7.1456996    26.726468  0.028192477  0.033643946            2 
   80000    1.2592401   -7.0952488    27.084136  0.028212642  0.033608215            2 
   81000    1.2316971   -7.1367391    27.326017  0.028113186  0.033565576            3 
   82000    1.2378826   -7.1327486    27.597219  0.028045954   0.03351335            2 
   83000    1.2533018    -7.129809    28.042567  0.028155188  0.033458874            3 
   84000    1.2276184   -7.1795017    28.224558  0.028000554  0.033399027            2 
   85000    1.2483983   -7.1665897    28.629681  0.028068315  0.033337845            4 
   86000    1.2335012   -7.1039247    28.961893   0.02806385  0.033280924            2 
   87000    1.2327048   -7.1089234    29.401767  0.028162612  0.033226932            1 
   88000    1.2046363   -7.1678302     29.68029  0.028106335  0.033173327            3 
   89000    1.2198805   -7.1710072    30.029865  0.028117851  0.033123029            4 
   90000    1.2378437   -7.1661909    30.526795  0.028265551  0.033073385            1 
   91000    1.2182549   -7.1442222     30.74084  0.028150952  0.033024643            6 
   92000    1.2632209    -7.060437    31.245557  0.028302135  0.032978299            1 
   93000    1.2579418   -7.1273531    31.543645  0.028264915  0.032933082            1 
   94000    1.2258371   -7.1668461    31.804859  0.028195797  0.032889138            3 
   95000    1.2390113   -7.1657324     32.18727  0.028234448  0.032843627            1 
   96000    1.2250675   -7.0595239    32.940996  0.028594614  0.032811231            2 
   97000    1.2361001   -7.1534298    33.410486  0.028703166  0.032787409            2 
   98000    1.2372654   -7.1295541    33.883316  0.028812343  0.032773169            4 
   99000    1.2307019    -7.109332    34.386034  0.028944473  0.032769413            1 
  100000    1.2604919   -7.1521091    34.542241  0.028785201  0.032761213            2 
  101000    1.2288294   -7.1362315    34.996038  0.028874619  0.032747561            2 
  102000    1.2646803    -7.153276    35.454719  0.028966273  0.032737469            2 
  103000    1.2216368   -7.1139772    35.941368  0.029078776   0.03273458            2 
  104000    1.2264318   -7.1678707     36.06179  0.028895665  0.032729832            2 
  105000    1.2322881   -7.1451307    36.520316  0.028984377  0.032716754            4 
  106000    1.2124329   -7.1260807    36.780037  0.028915123  0.032701006            3 
  107000    1.2508764   -7.1263627    37.194112  0.028967377   0.03268358            1 
  108000    1.2395504   -7.1398271    37.693935  0.029084826   0.03267015            2 
  109000    1.2181105   -7.1040191    37.938157  0.029004707  0.032651532            1 
  110000    1.2223369   -7.1554261    38.182536  0.028926163  0.032630064           10 
  111000     1.234447   -7.1357218    38.581925  0.028965409  0.032605966            2 
  112000    1.2354045   -7.1024152    39.027921  0.029038632  0.032585639            2 
  113000    1.2459502   -7.1327466    39.260742   0.02895335  0.032561418            1 
  114000    1.2465474   -7.1441659    39.958907  0.029209727  0.032545646            2 
  115000    1.2363807   -7.1406087    40.342512  0.029233704  0.032535593            1 
  116000    1.2267093   -7.1514742    40.655185  0.029206311   0.03252369            1 
  117000    1.2094602   -7.0981112    41.191626  0.029338765  0.032514887            2 
  118000    1.2214079   -7.1583206    41.496557  0.029305478  0.032510642            3 
  119000    1.2340861   -7.1385264    42.054099  0.029449649  0.032508867            2 
  120000    1.2142316   -7.1484766    42.353407  0.029412088    0.0325072            6 
  121000    1.2340172    -7.124425    43.013739  0.029623787   0.03251031            1 
  122000    1.2201152   -7.1274188    43.379108  0.029630538  0.032513134            1 
  123000    1.2360438   -7.1360125      43.5517  0.029506572  0.032507036            2 
  124000    1.2315827   -7.1091535    43.713797  0.029377552  0.032496082            2 
  125000    1.2191301   -7.1071874    44.251792  0.029501195  0.032488742            7 
  126000    1.2144256   -7.1554371    44.181499  0.029220568  0.032478986            3 
  127000    1.2682417   -7.1833779    44.582393  0.029253538  0.032461061            2 
  128000    1.2019244   -7.1640062    45.149981  0.029394519  0.032447461            4 
  129000    1.2156018   -7.1698028    45.497657  0.029391251  0.032433608            1 
  130000    1.2369643   -7.2028103     45.67806  0.029280808  0.032417435            2 
  131000    1.2269935   -7.1433886    46.159898  0.029363803  0.032398658            1 
  132000    1.2320355   -7.1912722    46.341438  0.029255958  0.032376974            1 
  133000    1.2268091   -7.1276126     46.85333  0.029356723  0.032356141            1 
  134000     1.220746   -7.1666463    47.233451  0.029374037  0.032342757            1 
  135000    1.2183635   -7.1871028      47.6141   0.02939142  0.032328504            4 
  136000    1.2375511   -7.2155491    47.693597  0.029224017  0.032312907            1 
  137000    1.2362004   -7.1384655    48.299179  0.029379062   0.03229203            2 
  138000     1.221824   -7.1941223    48.477042  0.029273576  0.032270425            2 
  139000    1.2335602   -7.1582472    48.965031  0.029355534  0.032249751            2 
  140000    1.2098537   -7.1237099    49.376242   0.02939062   0.03223073            4 
  141000    1.2325123   -7.1849021    49.684566    0.0293644  0.032215329            2 
  142000     1.233222   -7.1321311    50.158012  0.029435453  0.032199264            1 
  143000    1.2412618   -7.1272138    50.614812  0.029495811  0.032184314            1 
  144000    1.2350599   -7.1569061    51.162705  0.029608047  0.032168548            2 
  145000    1.2368635   -7.1103166     51.44825   0.02956796  0.032153065            1 
  146000    1.1922562    -7.157281    51.623561  0.029465503  0.032136682            1 
  147000    1.1991537   -7.1870145    51.822342  0.029377745  0.032118669            1 
  148000    1.2304439   -7.1786517    52.187705  0.029384969  0.032098237            3 
  149000    1.2264121   -7.1044284    52.572918  0.029403198  0.032075581            2 
  150000    1.2370413   -7.1143407    52.758823  0.029310457  0.032054107            1 
  151000    1.2437257   -7.1329437    53.274737  0.029401069  0.032033456            4 
  152000    1.2291523   -7.1530315    53.570093  0.029369568  0.032013267            2 
  153000    1.2294883   -7.1486639    53.960161  0.029390066  0.031993976            1 
  154000    1.2194861   -7.1914212    54.195612   0.02932663  0.031972838            1 
  155000    1.2211179   -7.1278598    54.648406  0.029380864   0.03195129            1 
  156000    1.2004052   -7.2620126    55.081056  0.029423641  0.031934421            2 
  157000    1.2354545   -7.1853926    55.388986  0.029399674  0.031922131            1 
  158000    1.2157526    -7.136702    56.421963  0.029758419  0.031913037            3 
  159000    1.2297818   -7.1259047    56.898368  0.029820948  0.031907574            1 
  160000    1.2471468   -7.1326027    57.061678  0.029719624  0.031901289            3 
  161000    1.2098242   -7.1548964    57.486253  0.029754789  0.031895002            3 
  162000    1.2077614   -7.1365556    57.871689  0.029769387  0.031888817            6 
  163000    1.2730486   -7.1353063    58.294042   0.02980268  0.031884504            6 
  164000    1.2213235   -7.1604634    58.439434  0.029694834  0.031880732            1 
  165000    1.2168174   -7.1269534    58.970604  0.029783133  0.031875654            2 
  166000    1.2160391   -7.1739026    59.040645  0.029638878  0.031869643            1 
  167000    1.2221884   -7.1365018    59.625925  0.029753455    0.0318633            1 
  168000    1.2166473   -7.1835397    59.991601  0.029757739  0.031856707            2 
  169000    1.2180728   -7.1793096    60.656115  0.029909327  0.031852407            2 
  170000    1.1870966    -7.204622     61.06393  0.029933299  0.031854137            2 
  171000    1.2428112    -7.213419    61.411118  0.029927445  0.031855808            1 
  172000    1.2089781   -7.1638585     61.81536  0.029949302  0.031855425            1 
  173000    1.2514537   -7.1374026     62.27726   0.02999868  0.031856106            2 
  174000    1.2354301   -7.1878848    62.295532  0.029835025  0.031852926            6 
  175000    1.2215115   -7.1903917    62.590715  0.029805102  0.031849062            3 
  176000    1.2112187    -7.189682    63.241587  0.029943933  0.031843967            1 
  177000    1.2475033   -7.2470935    63.346523  0.029824163  0.031837793            2 
  178000    1.2335706   -7.2029547    63.656225  0.029801603  0.031831841            1 
  179000    1.1986945    -7.177533    63.869725  0.029734509  0.031826509            3 
  180000    1.2159109    -7.140847     64.35651   0.02979468  0.031819666            2 
  181000    1.2247389   -7.1984979    64.599837  0.029742098  0.031811562            2 
  182000    1.2396248   -7.1548919     64.99857   0.02976125  0.031802047            2 
  183000    1.2170144   -7.1382565    65.165418  0.029674598  0.031791309            3 
  184000    1.2189743    -7.173682    65.863698  0.029829573  0.031781036            2 
  185000    1.2250043   -7.1828902    66.013584  0.029735848  0.031773537            1 
  186000    1.2137695   -7.1717472    66.325206  0.029715594  0.031763684            2 
  187000    1.2336262   -7.1832449     66.73337  0.029738578   0.03175375            2 
  188000    1.2226935   -7.1957272    67.164653  0.029771566  0.031740943            2 
  189000    1.2333231   -7.1451117    67.768112   0.02988012  0.031730131            2 
  190000    1.2177584   -7.1317505    68.072464  0.029856344  0.031719934            2 
  191000    1.2216847   -7.1478468    68.331081  0.029812862   0.03171047            3 
  192000    1.2283544   -7.1928433    68.490341  0.029726711  0.031702557            3 
  193000    1.2299798   -7.1684098    68.898626  0.029748975  0.031691317            2 
  194000    1.2592612    -7.163008    69.032667  0.029653208  0.031680278            1 
  195000    1.2417179   -7.2113982    69.275494  0.029604912  0.031666379            3 
  196000    1.2313456   -7.1452357     69.84304   0.02969517  0.031652042            3 
  197000    1.2026422   -7.2013943    70.188818  0.029690701  0.031636911            2 
  198000    1.2188388   -7.1658755    70.794235  0.029795553  0.031624647            1 
  199000     1.215904   -7.1830208    71.004231  0.029733765  0.031613723            2 
  200000    1.2440858   -7.1953469    71.262285  0.029692619  0.031600451            2 
  201000    1.2485854   -7.2033422    71.563472  0.029669764  0.031588343            2 
  202000    1.2024784   -7.1935803    72.020137  0.029711278   0.03157664            1 
  203000    1.1884856   -7.2090592    72.465774  0.029747855  0.031566219            3 
  204000    1.2088575   -7.1604758    72.856808  0.029761768  0.031555475            3 
  205000    1.1882428   -7.1710005    73.209115  0.029759803  0.031545543            2 
  206000    1.2489461   -7.1923875    73.351119  0.029672783  0.031534584            3 
  207000    1.2337392   -7.1252708    74.332275  0.029924426  0.031524532            3 
  208000    1.2400778   -7.2021337    74.117122   0.02969436  0.031513096            1 
  209000    1.2140769    -7.139442    74.707956  0.029787861  0.031502318            3 
  210000    1.2179379   -7.2074674    74.876905  0.029713058  0.031491132            1 
  211000    1.2202903   -7.1918466    74.957696  0.029604145  0.031478611            1 
  212000    1.2021773     -7.19646    75.043525  0.029498241  0.031461676            3 
  213000    1.2477212   -7.2222967    75.089112  0.029377587  0.031445162            3 
  214000    1.2050867   -7.1428127    75.939753  0.029571555   0.03142804            4 
  215000    1.1924597   -7.1749242    76.029784  0.029468908  0.031411014            2 
  216000    1.2440306   -7.2069895    76.307015  0.029439435  0.031394034            4 
  217000    1.2001442   -7.1423635    77.064076  0.029594499  0.031376537            2 
  218000    1.2173667   -7.1680093    77.287261   0.02954406  0.031360381            1 
  219000    1.1931616   -7.1980537    77.293049  0.029411358  0.031342675            1 
  220000    1.2318537   -7.1626609    77.735152  0.029445133  0.031326836            2 
  221000    1.2066867   -7.2334754    78.094181  0.029447278  0.031309565            2 
  222000    1.2372795   -7.1616902    78.678245  0.029533876  0.031293754            1 
  223000     1.234337    -7.131692    79.054169  0.029541917  0.031279977            3 
  224000    1.2340823   -7.2052486    79.247377  0.029481911  0.031266654            2 
  225000    1.2218636   -7.1786582    79.865678  0.029579881  0.031252458            3 
  226000    1.2276713   -7.2216372    80.084132  0.029529547  0.031238793            2 
  227000    1.2267693   -7.1679464    80.580419  0.029581652  0.031225644            2 
  228000    1.1870675   -7.1713182    80.728238  0.029505935  0.031212109            1 
  229000    1.1948277   -7.1736504    81.246683  0.029565751  0.031197596            2 
  230000    1.2127684   -7.1205387    81.569209  0.029554061  0.031183915            1 
  231000    1.2228912   -7.1604395    81.739162  0.029487432  0.031169597            3 
  232000    1.2321358   -7.2246703    81.899078  0.029417772   0.03115512            5 
  233000    1.2537241   -7.2099287    82.435442  0.029483348  0.031139528            3 
  234000    1.2251852   -7.2076394    82.867116  0.029511081  0.031126096            2 
  235000    1.2111923   -7.1684966    83.057651  0.029453068  0.031112144            2 
  236000    1.2024726   -7.1993579    83.383545  0.029443342  0.031096873            2 
  237000    1.2095975   -7.2220596     83.54728  0.029376681  0.031080661            2 
  238000    1.1950785   -7.1321421    84.471803  0.029576962   0.03106661            2 
  239000    1.1794134   -7.2097351    84.544904  0.029478697  0.031053051            1 
  240000    1.2007694   -7.1929566    85.145486  0.029564405  0.031041521            1 
  241000    1.2525826   -7.1810308    85.725912  0.029642431  0.031032757            2 
  242000    1.2095054   -7.1777336    86.298203  0.029717012  0.031025649            2 
  243000    1.2073299   -7.1891431     86.68741  0.029728193  0.031020524            4 
  244000    1.2338134   -7.1593408    87.452792  0.029867757  0.031016393            3 
  245000    1.1861037   -7.1777662    87.631363  0.029806586  0.031012251            2 
  246000    1.2315258   -7.2106105     87.95072  0.029793604  0.031007817            1 
  247000    1.2051363   -7.1922515    87.921858  0.029663245  0.031003287            1 
  248000    1.2388913   -7.2075976     88.89873  0.029871885  0.030998245            2 
  249000    1.2062753   -7.1951153    89.006092  0.029787849  0.030994487            2 
  250000    1.2323368   -7.1930137    89.320221  0.029773407   0.03099015            2 
  251000    1.2274456   -7.2502305    89.527515  0.029723611  0.030987263            2 
  252000    1.1868193   -7.1900747    90.341319  0.029874775  0.030984322            2 
  253000    1.1957755   -7.1917555    90.533708  0.029820062  0.030980642            2 
  254000    1.2074137   -7.2207944    90.970654  0.029846015  0.030975119            3 
  255000    1.1950467   -7.1476111    91.478503  0.029894935  0.030971455            1 
  256000    1.2244162   -7.1749679    91.896624  0.029914265    0.0309679            2 
  257000    1.1846324   -7.1807865    92.090162  0.029860623   0.03096361            1 
  258000     1.227469      -7.1525    91.986452  0.029711386  0.030958094            2 
  259000    1.1987868    -7.188571    92.346004  0.029712357  0.030950808            1 
  260000    1.1981212   -7.1710703    92.687194  0.029707434  0.030943912            1 
  261000    1.2007304   -7.1959175    92.533955  0.029544686  0.030936237            2 
  262000    1.2138491   -7.2109468    92.874982  0.029540389  0.030925938            1 
  263000     1.211445   -7.1855616    93.464404   0.02961483  0.030916817            3 
  264000    1.2143294   -7.2053555    93.510422  0.029517179  0.030907813            3 
  265000    1.2267038   -7.2511442    93.493501  0.029400472  0.030896708            1 
  266000    1.1881293   -7.1982209    94.418148   0.02957962  0.030885844            1 
  267000    1.1938573   -7.2283328    94.426096  0.029471316  0.030875625            2 
  268000    1.1995471   -7.1794932    95.180342  0.029595878  0.030865743            1 
  269000    1.2162072   -7.2102293    95.212942  0.029495955   0.03085462            1 
  270000    1.1961449   -7.2522955    95.176892  0.029375584  0.030842801            1 
  271000    1.1902884   -7.1799625    96.168928  0.029572241  0.030831789            1 
  272000    1.2007645   -7.2288948     96.09944   0.02944223  0.030821617            1 
  273000    1.2226927   -7.2262713    96.320949  0.029401999  0.030809853            1 
  274000     1.203723   -7.1612888    97.061523  0.029519928  0.030799065            1 
  275000    1.2338505   -7.2663699    96.727566  0.029311384  0.030786896            2 
  276000    1.2280603     -7.24589    97.043512  0.029300577  0.030773929            3 
  277000    1.1971027   -7.2459038    97.841417  0.029434843  0.030763115            1 
  278000    1.2141391   -7.1970718    98.209169  0.029439199  0.030751622            2 
  279000    1.2215453   -7.2011726    98.680165  0.029474362  0.030741898            1 
  280000    1.2005268   -7.2269414    98.674761  0.029367488  0.030730275            1 
  281000    1.1935691   -7.1760822    99.302432   0.02944912  0.030718905            1 
  282000    1.2435173   -7.1971886    99.487398  0.029399349  0.030706608            2 
  283000    1.2305396   -7.1611851    100.10243  0.029476571  0.030694736            2 
  284000    1.1932213   -7.1904762    100.07781  0.029365555  0.030683581            6 
  285000     1.195324   -7.1587972    100.78158  0.029468299  0.030673008            1 
  286000    1.2039065   -7.2094681    101.19082  0.029484505   0.03066295            1 
  287000    1.1928791   -7.1947414    101.41808  0.029447758  0.030653615            4 
  288000    1.2183088   -7.1804029    101.63172  0.029407327  0.030643253            2 
  289000     1.221337   -7.2032164    101.73915  0.029336549  0.030632579            2 
  290000    1.1803077   -7.1971594    102.26584  0.029386735  0.030622471            1 
  291000    1.2048291   -7.2392246    102.65302  0.029396628  0.030613314            2 
  292000    1.2119377   -7.1924699    103.08585  0.029419477  0.030604878            5 
  293000      1.23472   -7.2056838    103.92145  0.029556728  0.030596611            1 
  294000    1.1910662   -7.2235763    104.21851  0.029540394  0.030588204            2 
  295000    1.2078524   -7.2473412    103.98704   0.02937487  0.030580403            4 
  296000    1.1973629   -7.1892651    104.24467   0.02934816  0.030571714            2 
  297000     1.221046   -7.1895101    105.21364  0.029521223  0.030563135            1 
  298000    1.1912236    -7.195823    105.47517  0.029495293  0.030554608            3 
  299000    1.2067583   -7.2378569    105.50602  0.029405245  0.030547243            2 
  300000    1.2035742   -7.2204364    106.16083   0.02948912  0.030538237            2 
  301000    1.1678964   -7.2264975    106.42717  0.029464887  0.030529719            3 
  302000    1.2010894   -7.2488876    106.97745  0.029519164  0.030521825            3 
  303000     1.217938   -7.2247361    107.12675  0.029462804   0.03051648            1 
  304000    1.1844147   -7.2397649    107.63711  0.029505788  0.030510854            3 
  305000    1.1709281   -7.1983559    108.92703  0.029761485  0.030506325            7 
  306000    1.2161798   -7.1923697    109.14796  0.029724391  0.030501946            2 
  307000    1.2244362   -7.2089899    108.98179  0.029582462  0.030498367            1 
  308000    1.1890195   -7.2419127    109.55911  0.029642615  0.030494728            2 
  309000    1.1963425   -7.2200679    109.90916  0.029641089  0.030491469            1 
  310000    1.1892003   -7.2128985    110.62201  0.029737099  0.030488205            1 
  311000     1.198742   -7.2611983    110.60772  0.029637652  0.030485159            2 
  312000    1.2026114   -7.2296767    110.82409  0.029600453  0.030482115            2 
  313000    1.1565549   -7.2331551    111.03235  0.029561328   0.03047867            2 
  314000    1.2061637   -7.1940758    112.00343  0.029724902  0.030474786            3 
  315000    1.2027086   -7.2337373    112.06903  0.029647891  0.030471936            1 
  316000    1.2264612   -7.2258568     112.4873  0.029664372  0.030469333            4 
  317000    1.1935305   -7.2325779    112.98824  0.029702482  0.030466595            2 
  318000    1.1884827   -7.1942908    113.57459  0.029762732  0.030464176            6 
  319000       1.2149   -7.1665164    114.10895  0.029809026  0.030462205            2 
  320000    1.1981244   -7.1944548     113.8461  0.029647423  0.030460904            3 
  321000    1.2002539   -7.2242973    114.37456  0.029692253  0.030458729            4 
  322000    1.1990994   -7.2214963    114.91272  0.029739317  0.030456096            2 
  323000    1.1966548   -7.2054345    114.98773  0.029666596  0.030453219            1 
  324000    1.1918933   -7.2663005    115.02985  0.029585867  0.030449498            2 
  325000    1.2197831   -7.2404267    115.36613  0.029581058  0.030446272            4 
  326000    1.2033219   -7.2541432    115.56651  0.029541542  0.030442366            2 
  327000    1.2173427   -7.2140855    116.34629  0.029649921  0.030439041            2 
  328000    1.1925664   -7.2503999    116.49343  0.029596908  0.030435373            2 
  329000    1.1822683   -7.2146889     117.2992  0.029711045  0.030431323            1 
  330000     1.219184   -7.2264542    117.62801  0.029704044   0.03042874            2 
  331000    1.1743478   -7.2127054    117.89414  0.029681304  0.030425912            3 
  332000    1.1845179   -7.2022652    118.06077  0.029633727  0.030422077            3 
  333000    1.2017004   -7.2869869     118.1025  0.029555181  0.030418325            2 
  334000    1.1928227   -7.2238045    118.80292  0.029641448   0.03041401            2 
  335000    1.2032883   -7.2454668    118.67339  0.029520745  0.030409464            2 
  336000    1.2144849   -7.2250265    119.55196  0.029650783  0.030406186            2 
  337000     1.203106   -7.1744649    120.27642  0.029741942  0.030403829            2 
  338000    1.1826109   -7.2411459    120.77671  0.029777294  0.030401177            1 
  339000    1.1948334   -7.2067125    121.24541  0.029804672   0.03039956            3 
  340000    1.1944133    -7.190225    121.90302  0.029878192  0.030398218            1 
  341000    1.1782241   -7.2275963    121.77081  0.029758263  0.030397563            3 
  342000    1.2169755   -7.2475855    121.66454  0.029645355  0.030396123            2 
  343000    1.2301428   -7.2220756     122.7491  0.029822425  0.030393977            1 
  344000    1.2048121   -7.2288739    122.77106  0.029741051  0.030392663            2 
  345000     1.195954   -7.2497624    123.22741  0.029765075   0.03039159            4 
  346000    1.1740414   -7.2229001    124.00456  0.029866224  0.030390594            2 
  347000    1.1769364   -7.2413432    123.73121  0.029714508  0.030389507            2 
  348000    1.1955123   -7.2436955    124.38827  0.029786464  0.030387342            3 
  349000    1.2214191    -7.250563    124.59364  0.029750154  0.030385413            4 
  350000    1.2074637   -7.2297756     125.2048  0.029810666  0.030384592            5 
  351000    1.2046967   -7.2330248    125.37936  0.029767179  0.030383193            2 
  352000    1.2004407   -7.1964091    126.35001  0.029912409  0.030381677            2 
  353000    1.1987188   -7.2065014    125.94387  0.029731791  0.030381339            2 
  354000    1.1691588   -7.2222916    126.68967   0.02982337  0.030380085            5 
  355000    1.1801338    -7.232888    126.39776  0.029670835  0.030377804            4 
  356000    1.1574279   -7.2487156    126.33115  0.029571898  0.030374877            2 
  357000    1.2161569   -7.2242707    126.78353  0.029594661  0.030370906            2 
  358000    1.2125383   -7.2047649    126.91468  0.029542523  0.030366349            4 
  359000    1.1913015   -7.2244837    127.19595  0.029525522  0.030360554            4 
  360000    1.1894328   -7.2448848    127.53519  0.029522035  0.030356285            5 
  361000    1.1960871   -7.2754837    127.62873  0.029461848  0.030350293            2 
  362000    1.1697241   -7.2261179    128.15171  0.029500853  0.030345652            3 
  363000    1.1841954   -7.2478712    128.71732   0.02954943  0.030341076            2 
  364000      1.19403   -7.2097253    129.78165  0.029711917   0.03033718            3 
  365000    1.1941704   -7.2887345    129.10741  0.029476578  0.030333288            4 
  366000    1.1975935   -7.2456506     129.9804  0.029594808  0.030329584            1 
  367000    1.1983115    -7.326964    129.88169  0.029491754  0.030324929            1 
  368000    1.1767496   -7.2354106     130.4811  0.029547352  0.030320683            2 
  369000    1.2148261   -7.2372983    131.09834  0.029606672  0.030316718            5 
  370000    1.1961845   -7.2680051    131.26194  0.029563499  0.030313213            3 
  371000    1.1968876   -7.2091414    132.05295   0.02966149   0.03030954            5 
  372000    1.2021366   -7.2755094     131.4783  0.029453025  0.030306033            2 
  373000    1.2243203   -7.2521108    132.15663  0.029525609  0.030302152            2 
  374000    1.1785933   -7.2364025    133.09304  0.029655311  0.030298061            1 
  375000    1.2163623   -7.2282799    133.04093  0.029564652   0.03029381            1 
  376000    1.1852266   -7.2501886    133.01373  0.029479994  0.030288957            3 
  377000    1.1864412    -7.223889    133.45716  0.029499815  0.030284525            1 
  378000    1.2073822   -7.2525083    134.02242   0.02954639   0.03027973            2 
  379000    1.1991288   -7.2343738    134.75844  0.029630264  0.030275735            2 
  380000    1.2001529   -7.2489353    134.72539  0.029545041  0.030271945            1 
  381000    1.1881387   -7.2441108    135.03503  0.029535221  0.030267322            2 
  382000    1.1860247   -7.1906925     135.5178  0.029563221  0.030262598            4 
  383000    1.1892165   -7.2307218    135.48829  0.029479611  0.030257974            1 
  384000    1.1600964   -7.2542089    135.74849  0.029459308  0.030253453            6 
  385000    1.1759971   -7.2660474    136.31334  0.029505052  0.030247779            2 
  386000    1.2260081   -7.2429474    136.50952  0.029470968  0.030241985            5 
  387000    1.1897058   -7.3096495    136.41263  0.029373951  0.030236456            2 
  388000    1.1720801   -7.2229614    137.70506   0.02957583  0.030230784            2 
  389000    1.1968921   -7.2710166    137.28447  0.029409697  0.030226257            1 
  390000    1.1741586   -7.2622101    137.82456  0.029449692  0.030220939            1 
  391000    1.1885313   -7.2779327    138.20578  0.029455622  0.030216399            6 
  392000    1.1995846   -7.2323814    138.68215   0.02948175   0.03021203            3 
  393000    1.1974727   -7.2278922    139.26756  0.029530864  0.030208109            4 
  394000    1.1903619   -7.3054966    139.26017  0.029454352  0.030203702            4 
  395000     1.187281   -7.2339696    139.93087  0.029521281  0.030198731            2 
  396000    1.1818683   -7.2448515    140.26213  0.029516441  0.030194391            3 
  397000    1.1882097   -7.2249525    140.55624   0.02950383  0.030190202            2 
  398000    1.1634248   -7.2828474    140.74396  0.029469004  0.030186396            3 
  399000     1.191129   -7.3166485    140.45283  0.029334343  0.030182463            2 
  400000    1.1826656   -7.2550698    142.27318  0.029640245  0.030178914            1 
  401000    1.2024236   -7.2404255    142.17016  0.029544922  0.030176668            1 
  402000    1.1879327   -7.2644439    142.84845  0.029612033   0.03017385            3 
  403000    1.1665167   -7.2049705    142.56696  0.029480347  0.030170992            1 
  404000    1.1934573   -7.2241441     143.8416  0.029670297  0.030168163            2 
  405000    1.2017557   -7.2622175    143.81502  0.029591568  0.030165844            3 
  406000    1.1912247   -7.2526435    144.04146   0.02956516  0.030163189            2 
  407000    1.2008275   -7.2722748    144.01982  0.029488087  0.030159814            3 
  408000    1.1914288   -7.2649659    144.19722  0.029452046  0.030155642            1 
  409000    1.1864434   -7.2462773    144.59007   0.02946008  0.030151356            3 
  410000    1.1829835   -7.2491269    145.05861  0.029483458  0.030146635            2 
  411000    1.2055711   -7.2331938    145.50933  0.029503107  0.030142006            2 
  412000     1.171363   -7.2674566    145.52737  0.029435147  0.030136951            3 
  413000    1.1838767   -7.2549991    146.28005  0.029515749  0.030132585            1 
  414000     1.189469    -7.285389    146.21851  0.029432068  0.030127992            2 
  415000    1.1732886   -7.2900159    146.62197  0.029442162  0.030123244            3 
  416000    1.1667295   -7.2915666    146.68151  0.029383314  0.030118017            2 
  417000      1.18627   -7.2653229    147.36765  0.029449971  0.030113286            2 
  418000     1.181825    -7.271697    147.05226  0.029316639  0.030108627            3 
  419000    1.1833302   -7.2820207    147.64945  0.029365444  0.030102882            2 
  420000    1.1543771   -7.2874653    147.74082  0.029313655  0.030097018            3 
  421000    1.1692346   -7.2865171    147.87592  0.029270768  0.030089987            3 
  422000    1.1785003   -7.3120731    147.76193  0.029178897  0.030082975            2 
  423000    1.1733943   -7.3207446    147.99539  0.029155909  0.030074299            1 
  424000    1.1787978   -7.2964529    148.55004  0.029196155   0.03006608            4 
  425000    1.1741656   -7.3069215    148.99422  0.029214553  0.030058645            2 
  426000    1.1963581   -7.2743099    149.12808   0.02917216  0.030050778            2 
  427000    1.1767275   -7.2993152    149.42288  0.029161374  0.030042829            5 
  428000    1.1420765   -7.2943398    149.39818  0.029088431  0.030034441            2 
  429000    1.1696544   -7.2873421    149.71225  0.029081635   0.03002624            2 
  430000    1.1548991   -7.2345471    149.96043  0.029062099  0.030018174            2 
  431000     1.172065   -7.2590828    151.02105  0.029199739  0.030010076            4 
  432000    1.1887934   -7.2768351    150.72847  0.029075708  0.030001718            2 
  433000    1.1642464   -7.2309347    151.62923  0.029181915  0.029993907            1 
  434000    1.1743419   -7.2730251    151.69241  0.029126806  0.029986549            1 
  435000    1.2036124   -7.2714714    151.98389  0.029115687  0.029978428            3 
  436000    1.1728125   -7.2671362    152.32698  0.029114484  0.029970715            1 
  437000    1.2299038   -7.2505461    152.89421  0.029156028  0.029962846            2 
  438000    1.1530247   -7.2236476    153.18689  0.029145146  0.029954444            2 
  439000     1.186906   -7.2406703    152.80715  0.029006673  0.029945541            3 
  440000    1.1872756   -7.2992512    152.98252  0.028973962  0.029936563            1 
  441000    1.1701838   -7.2712954     153.3108  0.028970295   0.02992803            3 
  442000      1.19746   -7.2760547    153.93307  0.029022072  0.029919449            3 
  443000    1.1963779   -7.2867432    154.07197  0.028982689  0.029910692            3 
  444000    1.1829124   -7.2026064     155.1577   0.02912119  0.029901416            1 
  445000    1.1701577   -7.2620367    154.67934  0.028966169  0.029892681            2 
  446000    1.1982984   -7.3073511    154.66926  0.028899339  0.029883478            1 
  447000    1.2003394   -7.2471223    155.61786  0.029011532  0.029874077            1 
  448000    1.1751358   -7.2885305    155.71315  0.028964499  0.029865389            2 
  449000    1.1722498   -7.2660173    155.68039   0.02889391  0.029856739            3 
  450000    1.2085926   -7.2957651    156.09541  0.028906557  0.029847946            3 
  451000    1.1888679   -7.2757421    156.02287   0.02882906  0.029838837            1 
  452000    1.1758552   -7.3153062    156.80532  0.028909535  0.029829433            1 
  453000    1.1768786   -7.2736586    157.43522  0.028961593  0.029820449            2 
  454000    1.1690496   -7.2974003    157.64607  0.028936504  0.029811485            2 
  455000    1.1843599   -7.2820441    157.95805  0.028930046  0.029803277            2 
  456000    1.1508216   -7.2496425    158.59589  0.028983167  0.029794739            1 
  457000    1.1959148   -7.2252686    159.77011  0.029133864  0.029786484            3 
  458000    1.1697872   -7.2843682    159.36016  0.028995662  0.029778385            2 
  459000    1.1582723    -7.224603    160.26191  0.029096207  0.029770542            2 
  460000    1.1764125   -7.3183559    159.82565  0.028953921  0.029763256            1 
  461000    1.1770498     -7.28183    160.48925  0.029011071  0.029756334            1 
  462000    1.1638542   -7.3230913    159.90314  0.028842557  0.029748638            3 
  463000    1.1793413   -7.3107911    160.77648  0.028937452  0.029740588            3 
  464000     1.178902   -7.2412343    161.31439  0.028971693  0.029732652            3 
  465000    1.1706878   -7.2626117    161.61218  0.028962756  0.029725139            2 
  466000    1.1510509   -7.3206915    161.19304  0.028825652  0.029717171            6 
  467000    1.1634303   -7.2659061    162.28972  0.028959622  0.029708848            2 
  468000    1.2237716   -7.2678195    162.49519  0.028934328  0.029701366            2 
  469000    1.1907382   -7.2494158    163.16721  0.028992041  0.029693796            6 
  470000     1.175502    -7.230384    164.02602  0.029082628  0.029686887            2 
  471000    1.1929488    -7.254043    163.72929  0.028968381  0.029679843            2 
  472000    1.1778741   -7.2928483    163.77386  0.028914876  0.029672321            2 
  473000    1.1800561   -7.2843952    164.29856  0.028946187  0.029664374            2 
  474000    1.1640147   -7.2823284    164.43424  0.028908973  0.029656734            3 
  475000     1.175788   -7.2660963    164.68119  0.028891436  0.029648907            2 
  476000    1.1940946   -7.3060057     164.9708  0.028881442  0.029641433            2 
  477000    1.1958905   -7.2741006    165.94583  0.028991235  0.029634623            3 
  478000    1.1784742   -7.2557156    165.95148  0.028931569  0.029628074            4 
  479000    1.1694965   -7.3071403    166.52429  0.028970823  0.029621501            2 
  480000    1.1801462    -7.273899    166.98039   0.02898965  0.029614229            3 
  481000    1.1717331   -7.2959178    166.60231  0.028863879  0.029607154            7 
  482000    1.1623517   -7.3536908    166.27989  0.028748252  0.029599328            3 
  483000    1.1855586   -7.3039639     166.9536  0.028804968  0.029591129            3 
  484000    1.1609987    -7.297624    167.55553  0.028849093  0.029583106            3 
  485000    1.1748425   -7.2891874    167.58517  0.028794704  0.029575232            2 
  486000    1.1826866   -7.2668723    168.41645  0.028877992  0.029567508            2 
  487000    1.1734076   -7.2991478    168.68079  0.028863928  0.029560139            2 
  488000    1.1891425   -7.2910271    168.48102  0.028770665  0.029552287            1 
  489000    1.1628454   -7.2329368    168.96663  0.028794585  0.029545098            1 
  490000    1.1633862   -7.3065656    169.38296  0.028806626  0.029537112            2 
  491000    1.1808785   -7.2743498    170.08351  0.028866855  0.029529747            2 
  492000    1.1860532   -7.2807103    170.08412  0.028808285  0.029522528            3 
  493000     1.154582   -7.2632192    170.33583  0.028792398  0.029514944            1 
  494000    1.1806127   -7.3143287    170.79454  0.028811495  0.029507133            3 
  495000    1.1768313   -7.3000473    170.54287  0.028710921  0.029498864            3 
  496000    1.1721502    -7.280381    171.56614  0.028824956  0.029490948            1 
  497000    1.1665411   -7.2376508    172.02498  0.028843893  0.029483775            3 
  498000    1.1484924   -7.2901322      172.206  0.028816265  0.029476975            3 
  499000    1.1848333   -7.3117849      172.145   0.02874833  0.029469845            2 
  500000    1.1814372   -7.2616985    172.71412  0.028785687  0.029462496            3 
  501000    1.1718402    -7.307572    172.74476  0.028733326  0.029455041            2 
  502000    1.1710878   -7.3024292    172.85643  0.028694627  0.029447641            1 
  503000    1.1917813   -7.2712331    173.35694    0.0287205  0.029439775            2 
  504000    1.1481135   -7.3128492    172.58807  0.028536387  0.029431005            4 
  505000    1.2051831   -7.3002596    173.21072  0.028582628  0.029421758            1 
  506000    1.1852961   -7.3160544    172.88222   0.02847204  0.029411505            3 
  507000    1.1713537   -7.3611945    173.22291  0.028471878  0.029400739            3 
  508000    1.1967954   -7.3054491    173.77852  0.028506975   0.02938973            2 
  509000    1.1892666   -7.3231472    173.50604  0.028406359  0.029378847            2 
  510000    1.1517816   -7.3138914    174.34132  0.028487144  0.029367652            2 
  511000     1.193098   -7.2762111    174.65723  0.028482915  0.029357331            3 
  512000    1.1768942   -7.3091092    173.94672  0.028311641  0.029347032            3 
  513000    1.1648799   -7.3071111    174.75344  0.028387499  0.029337065            3 
  514000    1.1799567   -7.3644128    175.44135  0.028443799  0.029327056            2 
  515000    1.1815354   -7.2853629    176.10448  0.028495871  0.029317261            2 
  516000    1.1538921   -7.2836722     175.9545  0.028416424  0.029306964            2 
  517000    1.1886457   -7.3424122    176.40607  0.028434248   0.02929651            1 
  518000    1.1542498     -7.30821    177.06522  0.028485396  0.029286815            1 
  519000     1.157338   -7.3140866    176.81146  0.028389766  0.029276792            1 
  520000    1.1816578   -7.2838795    177.19822  0.028397151  0.029267243            4 
  521000    1.1888934   -7.3095025     177.6516  0.028415163  0.029257188            1 
  522000    1.1707968   -7.3215637    177.43247  0.028325746  0.029247159            1 
  523000    1.1899492   -7.3098644    178.35039  0.028417845  0.029237371            6 
  524000     1.168594   -7.3372261    178.56388  0.028397564  0.029227547            2 
  525000    1.1648171   -7.3471648    178.61765  0.028352007  0.029217487            2 
  526000    1.1726626   -7.3180645    179.37137  0.028417517  0.029208019            3 
  527000     1.174665   -7.3389947    179.11021  0.028322298  0.029198163            1 
  528000    1.1558276   -7.3297235    179.66491  0.028356204   0.02918792            5 
  529000    1.1763786   -7.3663555    178.83441  0.028171773    0.0291774            6 
  530000    1.1688921   -7.2723203    180.06561  0.028312203  0.029167477            3 
  531000    1.1648606   -7.3214429    180.32424  0.028299473   0.02915739            5 
  532000    1.1854277   -7.3046412    180.34892  0.028250144   0.02914691            6 
  533000    1.1890274   -7.3378219       180.57  0.028231707  0.029136445            3 
  534000      1.14821    -7.314435    180.71252   0.02820108  0.029126115            4 
  535000    1.1735085   -7.3132672    181.21512  0.028226654  0.029115583            3 
  536000    1.1817773   -7.2807943    182.03156  0.028300926  0.029105347            3 
  537000    1.1734658   -7.3180532    182.26333  0.028284192  0.029095787            1 
  538000     1.184128   -7.3160794    182.53062   0.02827302  0.029085724            2 
  539000    1.1691247   -7.3470888    182.54698  0.028223095  0.029075792            3 
  540000    1.1571785   -7.2818638    183.34606  0.028294145  0.029065993            2 
  541000    1.1696443   -7.2887015    183.85269  0.028319884  0.029056547            2 
  542000    1.1799699   -7.3311124    183.08848  0.028150135  0.029047359            1 
  543000    1.1750281   -7.2995969    184.62918  0.028334742  0.029038032            2 
  544000    1.1766116   -7.3310576    184.75868  0.028302494   0.02902899            2 
  545000    1.1754204   -7.3514347    184.86569  0.028266925  0.029019289            2 
  546000    1.1552462   -7.3093329    184.82623  0.028209131  0.029010271            1 
  547000     1.178818   -7.3531309    184.65354  0.028131252  0.029000855            3 
  548000    1.1812354   -7.3428533    185.62073  0.028226997  0.028991385            2 
  549000    1.1754057   -7.3295249    186.44154  0.028300173  0.028982371            3 
  550000    1.1499409   -7.3757021    186.00312  0.028182292   0.02897326            3 
  551000    1.1511312   -7.3188762    186.84175  0.028257978  0.028964357            6 
  552000    1.1607424   -7.3410101    187.13155  0.028250536  0.028955929            2 
  553000    1.1735633   -7.2986889    188.05339  0.028338365  0.028947351            2 
  554000    1.1459496   -7.3016778    187.80065  0.028249195  0.028938981            2 
  555000    1.1576312   -7.3095046    188.59322    0.0283173  0.028930739            3 
  556000    1.1639106   -7.3613991    188.26833  0.028217676  0.028922183            2 
  557000     1.150795   -7.3212404    188.40895  0.028188054  0.028913391            2 
  558000    1.1486046   -7.3108328    189.00042  0.028225869  0.028904981            1 
  559000    1.1540907   -7.2912373    189.17133  0.028200854  0.028896483            3 
  560000    1.1434305   -7.3071228    190.16973  0.028299067  0.028887937            2 
  561000    1.1721321   -7.3388725    190.52905  0.028301998  0.028879155            3 
  562000    1.1624695   -7.3606599    190.34032  0.028223654  0.028871176            3 
  563000    1.2001156   -7.3312948    190.81469  0.028243737  0.028862656            4 
  564000     1.163207   -7.3500547    190.95553   0.02821447  0.028854246            3 
  565000    1.1532107   -7.3252982    191.77473  0.028285359  0.028845922            1 
  566000    1.1458594   -7.3149826    191.32627  0.028169357  0.028837699            2 
  567000    1.1532254   -7.3574149    191.86541  0.028198914  0.028829394            2 
  568000    1.1599817   -7.3653429    192.05316  0.028176813  0.028821552            2 
  569000    1.1709841   -7.3279221    192.44742  0.028185036  0.028814105            2 
  570000    1.1549042   -7.2768377    193.50087    0.0282896  0.028806366            3 
  571000    1.1326799   -7.3365006    193.34888  0.028217875  0.028798324            1 
  572000    1.1686056   -7.3464757    193.41956   0.02817884  0.028789852            2 
  573000    1.1612821   -7.3568977     193.7569  0.028178723    0.0287814            2 
  574000    1.1632256   -7.3505097    193.98209  0.028162324  0.028773467            3 
  575000    1.1725365   -7.3204862    194.08381  0.028128088  0.028764972            2 
  576000      1.18944   -7.3161623    194.58286  0.028151455  0.028757259            1 
  577000    1.1878563   -7.3342771    195.19423  0.028190963  0.028749756            3 
  578000    1.1558785   -7.3401829    195.37101  0.028167677   0.02874196            3 
  579000    1.1396625   -7.2921985    195.71722  0.028168857  0.028734006            2 
  580000    1.1658995   -7.3045744    196.37933  0.028215421  0.028726384            3 
  581000    1.1589873    -7.347554    195.47309  0.028036874  0.028717938            1 
  582000    1.1675502   -7.3374236    195.72847  0.028025268  0.028709592            2 
  583000    1.1795419   -7.3613611    196.11506  0.028032455  0.028701139            1 
  584000    1.1351002    -7.362523    196.61618  0.028055961  0.028692701            3 
  585000     1.172793   -7.3528991     197.1276  0.028080854  0.028684153            3 
  586000    1.1408981   -7.3466863    196.88526  0.027998473  0.028675288            2 
  587000    1.1754103   -7.3328122    197.06381  0.027976123  0.028666923            2 
  588000    1.1690509   -7.3572352    197.25276  0.027955323  0.028658393            4 
  589000    1.1713527   -7.2904537    198.46374  0.028079194  0.028649936            2 
  590000    1.1326966   -7.3347532    198.77369   0.02807538  0.028642011            2 
  591000    1.1754356   -7.3323759     199.3525  0.028109489  0.028634486            4 
  592000    1.1446631   -7.3171777    199.12662  0.028030211  0.028626868            6 
  593000      1.16194   -7.3447409    200.34984  0.028154839  0.028619206            7 
  594000    1.1328786   -7.2685976    201.33224  0.028245264  0.028612284            2 
  595000    1.1871925   -7.3391293    201.35186  0.028200541  0.028605447            2 
  596000    1.1847473   -7.3541911    201.17133  0.028127983  0.028598598            2 
  597000    1.1706405    -7.348205     201.0592  0.028065215  0.028591699            1 
  598000    1.1581692   -7.2845862    202.87617  0.028271484  0.028584978            3 
  599000    1.1686158   -7.3269232    202.70363  0.028200282  0.028578865            2 
  600000    1.1650017   -7.3154665    203.07186  0.028204425  0.028572999            2 
  601000    1.1674399    -7.335228    203.35997  0.028197444  0.028566858            2 
  602000    1.1665892   -7.3169937    203.73277   0.02820221  0.028560728            3 
  603000    1.1133246   -7.3345012     204.3498  0.028240713  0.028555044            3 
  604000    1.1735786   -7.3439892    205.18769  0.028309559   0.02854984            6 
  605000    1.1354674   -7.3447881     204.9518  0.028230276  0.028544554            4 
  606000    1.1623773   -7.3557524    205.16528  0.028213047  0.028539158            3 
  607000    1.1854484   -7.3608021    205.13727  0.028162723  0.028533936            2 
  608000    1.1462509   -7.3400486     205.5031  0.028166543  0.028528769            2 
  609000    1.1586801   -7.3874301    205.87436  0.028171095  0.028523209            1 
  610000    1.1542056   -7.3697472    206.43144  0.028201016  0.028517638            1 
  611000    1.1445388   -7.3704399    206.54763  0.028170709  0.028512267            2 
  612000    1.1389919   -7.3497085    207.12385  0.028203139    0.0285068            5 
  613000    1.1323069   -7.3505741    206.67505  0.028096118  0.028501623            2 
  614000    1.1360084   -7.3117665    206.97249  0.028090729  0.028495751            3 
  615000    1.1685941   -7.3651225     207.1534  0.028069567  0.028489533            1 
  616000    1.1857384   -7.3918612     206.9743  0.027999771  0.028483259            3 
  617000     1.130858   -7.3656717    207.74201  0.028058077  0.028477157            2 
  618000    1.1655201   -7.3677509    207.37671  0.027963418  0.028470293            2 
  619000     1.147646    -7.349056    208.29716  0.028042159  0.028463079            4 
  620000    1.1430303   -7.3940906    208.05444  0.027964307  0.028456031            1 
  621000    1.1439498   -7.3781932    207.80822  0.027886235  0.028448662            3 
  622000    1.1767071   -7.3957686    207.97512  0.027863762  0.028441015            1 
  623000    1.1589292   -7.3353002    209.35725  0.028003913  0.028433912            2 
  624000    1.1598639   -7.3466074    209.29862  0.027951204  0.028426939            1 
  625000    1.1660098   -7.3700261    209.22348  0.027896465  0.028419643            2 
  626000    1.1440655   -7.3571023    209.51184  0.027890288  0.028412071            4 
  627000    1.1854357    -7.314585    210.51806   0.02797954  0.028404794            3 
  628000    1.1349672   -7.2891781    211.47373  0.028061801  0.028398088            2 
  629000    1.1520555   -7.3280989    210.87621  0.027938025  0.028390925            2 
  630000    1.1394761   -7.3566252    211.12167  0.027926147  0.028383802            3 
  631000    1.1765276   -7.3464337    211.48207  0.027929486   0.02837681            3 
  632000    1.1405728   -7.3386727    212.24462  0.027985841  0.028369561            2 
  633000     1.151237   -7.3564017    212.22623  0.027939209   0.02836297            2 
  634000    1.1470264   -7.3401331    213.03702  0.028001711  0.028356589            2 
  635000    1.1498348   -7.3800378    211.89099  0.027807216  0.028350185            2 
  636000    1.1551112   -7.3881431    212.73407  0.027873961  0.028343299            2 
  637000     1.144646   -7.3918521    213.07696  0.027875061   0.02833634            3 
  638000       1.1585   -7.3351394    213.71709   0.02791498  0.028329195            2 
  639000    1.1772535   -7.3064127    214.49614  0.027972893  0.028322871            2 
  640000    1.1456411   -7.3276401    214.95717  0.027989215  0.028316292            3 
  641000    1.1612567   -7.3672215     214.0064  0.027821945  0.028309242            2 
  642000    1.1589322   -7.3386491    213.98445  0.027775759  0.028301894            3 
  643000    1.1489157   -7.3861581     214.7024  0.027825609  0.028294621            2 
  644000    1.1413139   -7.4229414    214.57335  0.027765703  0.028287357            2 
  645000    1.1514914   -7.3916044    214.52832  0.027716838  0.028280334            2 
  646000    1.1616588   -7.3996704    215.46373  0.027794599  0.028273021            2 
  647000    1.1275181   -7.3982106    215.52852  0.027759984  0.028266081            2 
  648000    1.1087077      -7.4073     216.2098  0.027804758  0.028259007            3 
  649000    1.1517917   -7.3477576    216.55887  0.027806737  0.028251869            4 
  650000    1.1533579   -7.3584902    217.38136  0.027869405  0.028244561            4 
  651000    1.1629963   -7.3366607     217.6344  0.027858986  0.028237972            3 
  652000    1.1490713   -7.3221494    217.72779  0.027828194  0.028231422            3 
  653000     1.146184   -7.3712806    218.26069  0.027853585  0.028225023            3 
  654000    1.1623516   -7.2920534     218.0239  0.027780824  0.028218549            2 
  655000    1.1350333    -7.415542    217.55502  0.027678755   0.02821172            3 
  656000    1.1423862   -7.3085448    218.43656  0.027748547  0.028204768            6 
  657000    1.1482002   -7.3300063    219.55685  0.027848408  0.028197578            2 
  658000    1.1415948   -7.3587191    218.92764  0.027726398  0.028190864            2 
  659000    1.1028881   -7.3575456    219.73307  0.027786174  0.028184534            1 
  660000    1.1681527   -7.3378072     219.6918  0.027738864  0.028177728            3 
  661000    1.1317021   -7.3261232    220.28275  0.027771401   0.02817089            2 
  662000    1.1420739   -7.3418803    220.89402  0.027806397  0.028164184            3 
  663000    1.1571069   -7.3728205    220.55063  0.027721296  0.028157514            2 
  664000    1.1393808   -7.3974191    221.18254  0.027758853  0.028150882            1 
  665000    1.1339059   -7.3855038    221.76312  0.027789865  0.028144497            1 
  666000    1.1558247   -7.3467492    221.81566  0.027754712  0.028137952            3 
  667000     1.151398   -7.3632418    222.91444   0.02785038  0.028132147            2 
  668000    1.1406427   -7.3421857    222.47622   0.02775402  0.028125958            2 
  669000    1.1428215   -7.3560123    223.65223  0.027859022  0.028119479            2 
  670000     1.183411   -7.3729751    222.93947   0.02772879  0.028113039            2 
  671000     1.168805   -7.3461441    223.91202  0.027808249  0.028106725            2 
  672000    1.1413769    -7.360329    224.33534  0.027819363  0.028100534            1 
  673000    1.1580831   -7.3396953    224.61304  0.027812412  0.028094304            4 
  674000    1.1507135    -7.360904    224.40642  0.027745601  0.028087872            1 
  675000    1.1711684   -7.3597122    224.98352  0.027775744  0.028081814            3 
  676000    1.1548039   -7.3337355    225.64969  0.027816776  0.028075771            1 
  677000    1.1538014   -7.3334007    225.54526  0.027762834  0.028070117            2 
  678000    1.1383248   -7.3937733    225.45112  0.027710315   0.02806424            1 
  679000    1.1405922   -7.3609219    226.19536  0.027760844  0.028058071            2 
  680000    1.1297972   -7.4048229    225.99706  0.027695718  0.028052216            3 
  681000    1.1365332   -7.4037326    226.70706  0.027741931  0.028046026            2 
  682000    1.1152111   -7.4095802    226.03035  0.027618567  0.028039755            2 
  683000    1.1271736   -7.3301242    227.92625   0.02780945   0.02803366            1 
  684000    1.1639327   -7.3597941    227.19836  0.027680112  0.028027855            4 
  685000    1.1343341   -7.3448756    227.29844  0.027651879  0.028021806            3 
  686000     1.129419   -7.3872628    227.51554  0.027637943  0.028015548            1 
  687000    1.1320699   -7.3719027     227.9053   0.02764499  0.028008909            3 
  688000    1.1391307   -7.3805184    228.30677  0.027653436  0.028002904            3 
  689000    1.1424618   -7.3720769    228.72615  0.027664024  0.027996924            4 
  690000     1.152191   -7.3743127    228.78849   0.02763146  0.027990542            4 
  691000    1.1527108   -7.4710303    228.36491  0.027540389  0.027984486            3 
  692000    1.1562737   -7.4176482    229.65383  0.027655808  0.027978035            2 
  693000    1.1324312   -7.3832795     229.2952  0.027572775  0.027971504            3 
  694000    1.1417624   -7.3764365     230.2644  0.027649423  0.027965481            4 
  695000    1.1641816   -7.3334335    230.60344  0.027650293  0.027959439            1 
  696000    1.1571355    -7.421065    230.57202  0.027606803  0.027953434            5 
  697000    1.0978179   -7.3411991    231.38451  0.027664337  0.027947351            1 
  698000    1.1659038   -7.3365412    232.42825  0.027749313  0.027941384            2 
  699000    1.1305114   -7.4132234    231.25977  0.027570311   0.02793532            2 
  700000    1.1436861   -7.3889975    231.48601  0.027557858  0.027929488            3 
  701000    1.1266979    -7.381794      232.092  0.027590585  0.027923628            3 
  702000    1.1182556   -7.3557549    232.64254  0.027616636  0.027917649            4 
  703000    1.1345681   -7.3701295    232.57542  0.027569395  0.027911516            2 
  704000    1.1321552   -7.3897464    232.87784  0.027566032  0.027905308            3 
  705000    1.1431712   -7.3603853    233.46977    0.0275969  0.027898754            2 
  706000    1.1266325   -7.3514515    233.71097  0.027586281  0.027892552            3 
  707000    1.1047987   -7.3622135    234.27061  0.027613227  0.027886487            1 
  708000    1.1483776   -7.4034104    233.99123   0.02754134  0.027880272            2 
  709000    1.1332402   -7.4216943    234.27737  0.027536127  0.027873995            2 
  710000    1.1473807   -7.3861638    234.18893  0.027486963  0.027867555            4 
  711000    1.1575944   -7.3768724     233.7896    0.0274015  0.027860544            1 
  712000    1.1325772   -7.4241732    234.50266  0.027446473  0.027853266            1 
  713000    1.1438902    -7.357351    234.65961  0.027426322  0.027846143            3 
  714000    1.1322588   -7.3536721    235.32714  0.027465819  0.027838952            3 
  715000    1.1400099   -7.4238197    233.74352  0.027242835  0.027831556            4 
  716000    1.1337624   -7.3781609    235.01955  0.027353299  0.027823892            3 
  717000    1.0969374   -7.4154497    235.12591  0.027327512  0.027816391            4 
  718000     1.107634   -7.4268509    234.24483   0.02718719  0.027808292            2 
  719000    1.1375194   -7.4030459    235.59008  0.027305295  0.027800514            3 
  720000    1.1428791   -7.4138749     235.5621  0.027264132  0.027792674            2 
  721000     1.120777   -7.3799144    236.72781  0.027361051  0.027784785            1 
  722000    1.1261024   -7.3744057    237.14464  0.027371265  0.027777194            2 
  723000    1.1397066   -7.3675293     237.6742  0.027394444  0.027769482            3 
  724000    1.1250794   -7.4207717    236.70095  0.027244584  0.027761928            4 
  725000    1.1090263   -7.3926582    237.88808  0.027343458  0.027754512            2 
  726000    1.1326076   -7.3981346    237.97825  0.027316145   0.02774723            4 
  727000    1.1116097   -7.4092823    237.61818  0.027237297  0.027739677            2 
  728000    1.1311314   -7.4377035    237.69617   0.02720881  0.027732252            2 
  729000    1.1548991   -7.3491721    239.47195  0.027374479  0.027725145            1 
  730000    1.1294954   -7.3308116    239.95068   0.02739163  0.027718215            2 
  731000    1.1324912   -7.3603546    239.53938  0.027307271  0.027711214            1 
  732000    1.1530625   -7.4616394    239.15788  0.027226535  0.027703866            4 
  733000    1.1216836   -7.3845871    239.58102  0.027237497  0.027696464            3 
  734000    1.1404705   -7.3638688    240.31638  0.027283876  0.027689176            3 
  735000    1.1485944   -7.3861405    240.36286  0.027252025  0.027682167            2 
  736000    1.1533842   -7.3913835    241.29522  0.027320564  0.027675373            2 
  737000    1.1138264   -7.3913451    240.74686  0.027221491  0.027668245            1 
  738000    1.1340413   -7.4141522    241.34439  0.027252076  0.027660995            1 
  739000    1.1122494   -7.3916434    242.15023   0.02730607  0.027654066            2 
  740000    1.1352081   -7.3828753    241.73777  0.027222722  0.027647104            3 
  741000     1.122394    -7.418908    242.61869  0.027285053  0.027639902            4 
  742000    1.1525875   -7.4141516     241.9458  0.027172709  0.027632651            3 
  743000    1.1518829   -7.3949305    242.81187  0.027233274   0.02762556            4 
  744000    1.1403426   -7.4492271    242.02991  0.027109085  0.027618257            5 
  745000    1.1252989   -7.4283746    243.14438  0.027197358  0.027610859            1 
  746000    1.1266119   -7.4078536    243.67442  0.027220109  0.027603514            1 
  747000    1.1433133   -7.3922842    243.84779   0.02720301  0.027596218            1 
  748000     1.135099   -7.3507648    243.78996    0.0271602  0.027589063            9 
  749000    1.1345269   -7.4053596    244.05781  0.027153739     0.027582            4 
  750000    1.1090906   -7.3825531     245.4494  0.027272155  0.027574726            1 
  751000    1.1159367   -7.3692035    244.55557  0.027136659  0.027567604            1 
  752000    1.1553972   -7.4387707    245.14693  0.027166105  0.027560417            2 
  753000     1.156048   -7.4221168    245.06299  0.027120738  0.027553191            3 
  754000    1.1326559    -7.381142    246.05614  0.027194534  0.027546105            2 
  755000    1.1376453   -7.3836131    245.82517  0.027133021  0.027539339            2 
  756000    1.1427852   -7.4358205    246.21558  0.027140166  0.027531977            4 
  757000    1.1452641      -7.4164    246.17372  0.027099705  0.027524676            2 
  758000    1.1176707   -7.3524601    247.85557  0.027248853  0.027517649            3 
  759000    1.1393522   -7.4070263    246.84338   0.02710182  0.027510628            3 
  760000    1.1353928   -7.3966077    247.71956  0.027162232  0.027503615            2 
  761000    1.1127388   -7.4064766    247.89371  0.027145609  0.027496795            3 
  762000    1.1249475   -7.4024606    247.84762  0.027104945  0.027489979            3 
  763000    1.1309135   -7.4061271    249.18217  0.027215178  0.027482872            1 
  764000    1.1351375   -7.3916191    248.39575  0.027093778  0.027475841            2 
  765000    1.1733608   -7.3707073     249.0266  0.027127081  0.027469218            4 
  766000    1.1235223   -7.4354421    248.50927  0.027035386  0.027462318            2 
  767000     1.128123   -7.3803041    248.38043   0.02698614  0.027455183            2 
  768000    1.1079409   -7.4376094    250.11227  0.027138918  0.027448465            6 
  769000    1.1470011   -7.3938077     249.6562  0.027054204  0.027441441            3 
  770000     1.103654   -7.4332668    249.69341  0.027023096  0.027434238            2 
  771000    1.1321317   -7.3959083    250.20596  0.027043446  0.027427346            3 
  772000    1.1210302   -7.4040542     250.2355  0.027011604  0.027420181            2 
  773000    1.1264722   -7.3823769    250.58392  0.027014222   0.02741298            2 
  774000    1.1130624   -7.4158401    250.46928  0.026966976  0.027405441            4 
  775000    1.1347425   -7.4344781    250.07068   0.02688932  0.027397763            5 
  776000    1.1218327   -7.3790384    251.51858  0.027010157  0.027390404            3 
  777000    1.1300768   -7.4182972    251.20004  0.026941231  0.027382816            3 
  778000     1.125398   -7.4790637     250.1844  0.026797815  0.027374994            4 
  779000    1.1355867   -7.4311764    251.93088  0.026950244  0.027367262            1 
  780000    1.1239624   -7.4590515    251.61406  0.026881844   0.02735954            2 
  781000    1.1293947   -7.4182034    251.69351  0.026855902  0.027351358            3 
  782000    1.1146441      -7.4062    252.51045  0.026908615  0.027343153            2 
  783000    1.1289493   -7.3803728    252.90115  0.026915831  0.027334979            2 
  784000    1.1275945   -7.4134928     252.0165  0.026787468  0.027326756            1 
  785000    1.1233292   -7.4449693    251.57916  0.026706917  0.027318307            3 
  786000    1.1045217   -7.4132605    252.70755  0.026792573  0.027309931            3 
  787000    1.1213131   -7.4184365    252.73114  0.026761027  0.027301743            2 
  788000     1.132892    -7.377315    253.90428   0.02685113  0.027293387            3 
  789000    1.1272821   -7.4046273    252.87563  0.026708453  0.027285079            2 
  790000    1.1343782   -7.4267466    253.65903  0.026757281  0.027276585            4 
  791000    1.1380571    -7.376911    253.80919  0.026739274  0.027268382            4 
  792000    1.1365866   -7.4085612    255.02739   0.02683369  0.027260056            1 
  793000    1.1467957   -7.4106105    254.63945  0.026759085    0.0272516            2 
  794000    1.1165263     -7.39189    254.66804  0.026728383  0.027242965            2 
  795000    1.1337776   -7.4283302    254.75466  0.026703843  0.027234307            3 
  796000    1.1563935   -7.3829681    255.10307   0.02670677  0.027225573            1 
  797000     1.130642   -7.4536457    254.26732  0.026585876  0.027216714            4 
  798000    1.1177897   -7.4278364    254.57072  0.026584243   0.02720753            3 
  799000    1.1206919   -7.3989658    255.59812  0.026658127  0.027198658            3 
  800000    1.1196843   -7.4260481    255.60012  0.026625012  0.027189939            2 
  801000    1.1459531   -7.3787853    257.32412  0.026771131  0.027181469            2 
  802000    1.1198798   -7.3878366    257.11596  0.026716122  0.027172985            1 
  803000    1.1050829   -7.4218789    256.68954  0.026638599  0.027164447            3 
  804000    1.1318377   -7.4163556     256.3292  0.026568118  0.027155949            2 
  805000    1.1249617   -7.3984752    257.22313  0.026627654  0.027147469            3 
  806000    1.1235673   -7.4034513    257.15643   0.02658772  0.027138998            4 
  807000     1.116821   -7.4271684    257.38306  0.026578176  0.027130437            4 
  808000     1.144428     -7.46244     257.4456  0.026551732  0.027121684            2 
  809000    1.1306226   -7.4350107    257.54657  0.026529313  0.027113048            4 
  810000    1.1199755   -7.4069067     258.4022  0.026584589  0.027104345            1 
  811000    1.1264464   -7.3803822     257.8804  0.026498191   0.02709554            3 
  812000     1.148117   -7.4099877    258.87569  0.026567703  0.027086877            2 
  813000     1.150265   -7.4568136    258.38722  0.026484955  0.027077988            5 
  814000    1.1224966   -7.4452101    258.12517  0.026425591  0.027069053            2 
  815000    1.1394086   -7.4526808    258.05389  0.026385879   0.02705986            3 
  816000    1.1402544   -7.3758044    259.31913  0.026482755  0.027051089            3 
  817000    1.1151951   -7.4442594    259.51605  0.026470425  0.027041968            3 
  818000    1.1219169   -7.4305868    260.26318  0.026514179  0.027032825            6 
  819000    1.1282853   -7.4334548    260.00072    0.0264551  0.027023972            2 
  820000    1.1156632   -7.4470469    260.31405   0.02645468  0.027015115            7 
  821000    1.1082587   -7.4041609    260.97881  0.026489932  0.027006249            2 
  822000    1.1221932   -7.4728899     260.1216  0.026370803  0.026997311            2 
  823000    1.1325128   -7.4326106    260.18286  0.026344963  0.026988202            4 
  824000    1.1223476   -7.4317813    261.48374  0.026444553   0.02697952            4 
  825000    1.1225557   -7.3873736    262.14315  0.026479106  0.026970898            2 
  826000    1.1076046   -7.4502903    261.71538  0.026403892  0.026961872            2 
  827000    1.1282089    -7.442719     261.4417  0.026344388  0.026952865            1 
  828000    1.1279501   -7.4295807    262.84105  0.026453406  0.026943615            2 
  829000     1.104409   -7.4077132     262.0961  0.026346612   0.02693448            3 
  830000    1.1259658    -7.445402    262.98607  0.026404224   0.02692551            3 
  831000    1.1134451   -7.4316127    261.72035  0.026245522   0.02691653            2 
  832000    1.0922943   -7.4556555    263.17999  0.026360175  0.026907872            1 
  833000    1.1261267   -7.4178656    263.71276  0.026381829  0.026899197            4 
  834000    1.1213966   -7.4344705    263.30794  0.026309746   0.02689036            1 
  835000     1.114299   -7.4183635    263.33532   0.02628097  0.026881417            1 
  836000     1.155953   -7.4418591    264.09836  0.026325594  0.026872527            3 
  837000    1.1273918   -7.4432353    263.83191  0.026267614  0.026863391            4 
  838000    1.0995586   -7.4569067    263.72138  0.026225277  0.026854154            2 
  839000    1.1237663   -7.4768684    263.75338  0.026197197  0.026844814            2 
  840000     1.098827   -7.4568822    264.19352  0.026209674  0.026835505            2 
  841000    1.1059597   -7.4128639    264.52259  0.026211117  0.026826253            1 
  842000    1.1200938   -7.4136711    264.75858  0.026203343  0.026816822            3 
  843000     1.097883    -7.433392    264.83492  0.026179806  0.026807205            2 
  844000     1.122596   -7.4270049    264.51595  0.026117294   0.02679756            2 
  845000    1.1262707   -7.4530695    265.28516  0.026162245  0.026787779            2 
  846000    1.1204392    -7.407125    265.35977  0.026138669  0.026777998            3 
  847000    1.1056713   -7.4679322    265.28262  0.026100218   0.02676798            2 
  848000     1.140643   -7.4262913    266.06964  0.026146781   0.02675799            2 
  849000    1.1230896   -7.5055479    264.04269  0.025917028  0.026747624            3 
  850000    1.1089434   -7.4009221    265.49646  0.026029065  0.026737506            2 
  851000    1.1216759   -7.4383128    266.94737  0.026140558  0.026727562            2 
  852000     1.104442   -7.4684316    265.64441  0.025982435  0.026717631            1 
  853000     1.120559   -7.4628958    266.07251  0.025993797  0.026707683            2 
  854000    1.1197127   -7.4499308    266.77287  0.026031701  0.026697826            2 
  855000    1.1336327   -7.4607333    266.20429  0.025945837  0.026688001            3 
  856000    1.1182626    -7.464528    267.04118  0.025996999  0.026677968            2 
  857000    1.1070275   -7.4548158    267.83203  0.026043566   0.02666816            1 
  858000    1.1078528   -7.4161294    267.69933  0.026000324  0.026658404            2 
  859000    1.1058212   -7.4122733    268.52112  0.026049779  0.026648574            1 
  860000     1.118676   -7.4552039     268.3882  0.026006609  0.026639002            2 
  861000    1.1266056   -7.4572641     267.8957  0.025928736  0.026628974            1 
  862000    1.1295597   -7.4697416    267.62059   0.02587206  0.026618784            5 
  863000    1.1173584   -7.4856614     267.3866  0.025819486  0.026608674            2 
  864000    1.1246215   -7.4521557    268.08368  0.025856836  0.026598524            3 
  865000    1.0950591   -7.4842087    267.94987  0.025814053   0.02658835            2 
  866000    1.1356676   -7.4224986    268.38991  0.025826589   0.02657833            1 
  867000    1.0899877   -7.4276599    269.61983  0.025915016  0.026568059            2 
  868000    1.1471483   -7.4240813    268.64514  0.025791584  0.026557812            2 
  869000    1.1189442   -7.4716845    269.13176  0.025808569  0.026547524            3 
  870000    1.0883361   -7.5226261    268.73852  0.025741238  0.026536929            1 
  871000    1.1182662   -7.4474488    269.28869  0.025764322  0.026526158            4 
  872000    1.1000049   -7.4261169    270.15467  0.025817533  0.026515647            2 
  873000    1.1038343   -7.4563266    269.96131  0.025769503  0.026505219            3 
  874000    1.1375394   -7.4319896    270.68372  0.025808898  0.026494966            3 
  875000    1.1052847   -7.4710513    270.46814   0.02575887  0.026484865            5 
  876000    1.1057578   -7.4426225    271.62922  0.025839919  0.026474546            4 
  877000    1.0742723   -7.4547426    271.17991   0.02576776  0.026464299            1 
  878000    1.1155063    -7.452978    270.96621  0.025718129  0.026453667            2 
  879000    1.1053347   -7.4654516    271.10667  0.025702187  0.026443225            4 
  880000    1.1141316   -7.4608302    271.73255  0.025732249  0.026432669            2 
  881000    1.1051698   -7.4608212    272.62342  0.025787308  0.026422232            2 
  882000    1.0914288   -7.4431018    272.44731  0.025741432  0.026411765            2 
  883000    1.1195427    -7.460363    272.39118  0.025706981  0.026401487            3 
  884000    1.1337019   -7.4535087    272.96554  0.025732045  0.026391385            3 
  885000     1.095214   -7.4695314    272.65742  0.025673957  0.026381334            2 
  886000    1.0952618   -7.4153165    273.35099  0.025710214  0.026371345            2 
  887000    1.1157109   -7.4606118    273.42824  0.025688485  0.026361357            4 
  888000     1.122428   -7.4620984     273.5591  0.025671838  0.026350934            2 
  889000    1.1359678   -7.4897733    273.65537  0.025651984  0.026340835            4 
  890000    1.1256594   -7.4538507    274.31833  0.025685236  0.026330861            3 
  891000    1.1109419   -7.4675006    274.57373  0.025680296  0.026320771            4 
  892000    1.0705297   -7.5086933    273.96375  0.025594521  0.026310616            4 
  893000    1.0995334   -7.4904981     274.4731  0.025613391  0.026300694            2 
  894000    1.1197813   -7.5288615    274.49913  0.025587167  0.026290731            2 
  895000    1.0747729   -7.4380386    276.02412   0.02570057  0.026280826            2 
  896000    1.1075037   -7.4786301     275.8516  0.025655841  0.026271165            4 
  897000     1.084602   -7.4432073    275.94118  0.025635561  0.026261626            2 
  898000    1.1258154   -7.4825989    276.25217  0.025635873  0.026251992            4 
  899000    1.0998532   -7.4608943    276.28919  0.025610789  0.026242225            4 
  900000    1.1220419   -7.4997464    277.10889  0.025658231  0.026232397            3 
  901000    1.1165002   -7.4590703    277.95558  0.025708063   0.02622309            5 
  902000      1.09685   -7.4730195    277.79012  0.025664276  0.026213605            5 
  903000    1.1220022   -7.4788883    277.77096  0.025634087  0.026203938            3 
  904000    1.1208336   -7.5029857    277.31628  0.025563817   0.02619444            4 
  905000    1.1043501   -7.4631324    278.21085  0.025617942  0.026184827            2 
  906000    1.1110012   -7.4736903    278.13254  0.025582463  0.026175214            2 
  907000    1.1343223   -7.4469137      278.345  0.025573778  0.026165648            2 
  908000    1.1086753    -7.457867    279.55985  0.025657108  0.026156185            2 
  909000    1.0809521   -7.4761609    279.16794  0.025592954  0.026146608            1 
  910000    1.0950898   -7.4743689    280.29666  0.025668192  0.026137148            2 
  911000    1.0936453   -7.4976357    279.07566  0.025528326  0.026127929            1 
  912000     1.090771   -7.4429431    280.80397  0.025658257  0.026118596            1 
  913000    1.1256677   -7.4292078    279.90207  0.025547834  0.026109439            2 
  914000    1.1034318   -7.4890443    279.82938  0.025513255   0.02610016            3 
  915000    1.1168548   -7.4911258    280.71692  0.025566204  0.026090867            4 
  916000    1.1331864   -7.4778726    281.05148   0.02556873  0.026081608            3 
  917000    1.0891791   -7.4929147    279.88966  0.025435265  0.026072267            6 
  918000    1.1027001   -7.4531267    281.73799  0.025575344  0.026062976            4 
  919000    1.1027374   -7.4665651    281.24535  0.025502843  0.026053753            2 
  920000    1.1168123   -7.4882287    280.92696  0.025446282  0.026044479            1 
  921000    1.0951977   -7.5006982    281.44545  0.025465567  0.026034937            2 
  922000    1.0963117   -7.4630617    281.91359   0.02548026  0.026025193            1 
  923000    1.0848611   -7.4574985    282.98195   0.02554911  0.026015737            2 
  924000    1.0973316   -7.4680564    282.14301  0.025445798  0.026006494           10 
  925000    1.1116483   -7.4943009    282.57552  0.025457254  0.025997142            1 
  926000    1.1083741   -7.4655101    282.93634  0.025462233  0.025987755            2 
  927000    1.1276516   -7.4583522    283.29767  0.025467248  0.025978335            4 
  928000    1.1042814   -7.4984852     281.8671  0.025311342   0.02596896            2 
  929000    1.1208023   -7.4652172    283.69106  0.025447709   0.02595932            2 
  930000    1.1121553   -7.4781878    282.92931  0.025352089  0.025949845            5 
  931000    1.1038914   -7.4471905    284.39218  0.025455799  0.025940755            3 
  932000    1.1042051    -7.475109    283.21148  0.025322915  0.025931676            4 
  933000     1.107162   -7.4663883    284.24915  0.025388455  0.025922425            6 
  934000    1.1038537   -7.5052538    284.38174  0.025373103  0.025913042            3 
  935000    1.1103539   -7.4741477    284.51412  0.025357765    0.0259036            3 
  936000    1.0827482   -7.5068506    283.96673  0.025281938  0.025893911            3 
  937000    1.0973499   -7.5239283    284.56353  0.025308034  0.025884374            2 
  938000    1.1075117   -7.5050396    284.87406  0.025308641  0.025874614            3 
  939000    1.1061006   -7.4633159    285.13339  0.025304702   0.02586501            3 
  940000    1.1098078   -7.4767369     285.1244  0.025276986  0.025855472            3 
  941000    1.1119068   -7.4888211    285.45772  0.025279642  0.025845713            3 
  942000    1.0660583   -7.4772364    285.87991  0.025290155  0.025836205            2 
  943000    1.0953348   -7.5024425    286.21922  0.025293321  0.025826891            4 
  944000    1.0990459   -7.4499253    286.75442  0.025313773  0.025817458            8 
  945000    1.1036208   -7.4918128    287.60312  0.025361827  0.025807811            4 
  946000    1.0996289    -7.501346    286.08688  0.025201452  0.025798241            3 
  947000     1.093268   -7.4599634    286.68423  0.025227405  0.025788671            3 
  948000    1.1169004   -7.4675269    287.16563  0.025243111  0.025779072            3 
  949000    1.0826355   -7.5403896    286.39947  0.025149233  0.025769601            2 
  950000    1.0890804   -7.4957312     287.1167  0.025185676  0.025759824            3 
  951000    1.0793853   -7.4403013     287.9865   0.02523541  0.025750083            3 
  952000    1.0780561   -7.5152755    287.78602  0.025191353  0.025740495            4 
  953000    1.0993431   -7.4678147    287.63347   0.02515158  0.025730879            3 
  954000    1.0851581   -7.5385249    286.94689  0.025065242  0.025721053            3 
  955000    1.0748975    -7.472378    289.04909  0.025222433  0.025711299            5 
  956000    1.1093999   -7.4380635    288.75837  0.025170709  0.025701732            4 
  957000    1.0873811   -7.5011317    288.73058  0.025141987  0.025692283            2 
  958000    1.0841924   -7.4813622    288.82947  0.025124345   0.02568285            1 
  959000    1.1150226   -7.4887601    288.68639  0.025085713  0.025673163            2 
  960000    1.0988832   -7.4571801    290.15764  0.025187295  0.025663649            3 
  961000    1.1185057   -7.5010419       288.63  0.025028616  0.025654118            5 
  962000    1.0678117   -7.4950143    289.90409  0.025112967  0.025644446            3 
  963000    1.0974736   -7.4554041    291.67983  0.025240553  0.025635039            4 
  964000    1.1002951   -7.4933148    290.35642  0.025099967   0.02562589            1 
  965000    1.0792445   -7.4729014    291.28483   0.02515413  0.025616638            2 
  966000    1.1004609   -7.5135693    291.00033  0.025103548  0.025607251            3 
  967000    1.0824558   -7.4906799    291.26813  0.025100666  0.025597835            3 
  968000    1.0692206   -7.5209153    291.72565  0.025114123  0.025588409            2 
  969000    1.1073823   -7.4985001    291.36474  0.025057167  0.025578993            1 
  970000    1.0913319   -7.5266834    290.68541  0.024972974  0.025569459            2 
  971000     1.058661    -7.503077    291.42314  0.025010568  0.025559738            4 
  972000    1.0936232    -7.492331    291.31089  0.024975214  0.025550084            3 
  973000    1.0746334    -7.439548    292.59062  0.025059149  0.025540605            2 
  974000    1.0903132   -7.4930247    292.02015  0.024984612  0.025531223            3 
  975000    1.0851164   -7.5150086    291.57731  0.024921138  0.025521683            2 
  976000    1.0958376   -7.4781156    294.06359  0.025107888  0.025512278            1 
  977000     1.117212   -7.4585006    292.60022  0.024957371   0.02550301            5 
  978000    1.1108526   -7.5179024    293.47238  0.025006168  0.025493443            2 
  979000    1.0841339    -7.487792    293.75822  0.025004956  0.025483967            2 
  980000    1.0917031   -7.4695283    292.61922  0.024882586  0.025474556            1 
  981000    1.1117074   -7.4734413    294.53813  0.025020228  0.025464973            3 
  982000    1.1173484   -7.5201359     292.9151  0.024857018  0.025455749            2 
  983000    1.1149365   -7.5204882      294.941  0.025003476  0.025446242            2 
  984000    1.1031534   -7.5302866    292.46523  0.024768397  0.025436691            5 
  985000    1.0895838   -7.5171816    293.98705  0.024872001  0.025426893            1 
  986000    1.1034064    -7.495671    293.98641  0.024846722  0.025417508            2 
  987000    1.0676833   -7.4671315    295.13858  0.024918827  0.025408237            2 
  988000    1.0928607    -7.499281    295.82165  0.024951218  0.025398974            3 
  989000    1.0795009   -7.5087019    295.80937  0.024924955  0.025389705            4 
  990000    1.0718608   -7.4768235    296.24947  0.024936824  0.025380496            4 
  991000    1.0921257   -7.4898755    296.59187  0.024940453  0.025371471            2 
  992000    1.1020341    -7.491441    296.36017  0.024895848   0.02536233            3 
  993000    1.0927511   -7.5089344    296.71101  0.024900219  0.025352838            2 
  994000    1.0926035   -7.4865234    296.72427   0.02487628  0.025343453            2 
  995000    1.0863179   -7.5396084    296.15276  0.024803414  0.025334044            2 
  996000    1.0852989   -7.5413158    297.26895    0.0248719  0.025324603            4 
  997000    1.0920764    -7.491065    297.62837  0.024876995  0.025315275            2 
  998000    1.0860373    -7.521927    296.83563  0.024785874  0.025306173            3 
  999000    1.0881188   -7.4789995    297.76662  0.024838724  0.025296987            2 
 1000000    1.1000002   -7.5203782    298.01248  0.024834373  0.025287717            2 
 1001000     1.084594   -7.5498926     297.7676  0.024789178  0.025278444            4 
 1002000    1.1151791   -7.4946606    298.92574  0.024860757  0.025269292            2 
 1003000     1.115374   -7.5225989    299.00218  0.024842322   0.02526024            7 
 1004000    1.0998228   -7.4970331    299.18524  0.024832772   0.02525139            2 
 1005000    1.0784033   -7.4820517     299.5476  0.024838109  0.025242591            2 
 1006000    1.0682275   -7.5304823    300.22488  0.024869523  0.025233508            4 
 1007000    1.0949502   -7.4976259    299.83998  0.024812974  0.025224607            1 
 1008000    1.0895268   -7.5221328    299.67545  0.024774756  0.025215724            1 
 1009000    1.0954609   -7.4991429    300.77653   0.02484114  0.025206941            4 
 1010000     1.061481   -7.5092148    299.45571  0.024707567  0.025198118            2 
 1011000    1.0803349   -7.5139227    300.98612  0.024809275  0.025189279            2 
 1012000    1.0916542   -7.5596705    300.15056  0.024715955  0.025180478            2 
 1013000     1.077173   -7.5451431    300.65415  0.024732983  0.025171557            2 
 1014000    1.0896455   -7.5346809    301.31823  0.024763168  0.025162504            3 
 1015000    1.0885517   -7.5003945    303.00807   0.02487751  0.025153723            3 
 1016000     1.059905   -7.5195967    301.30312  0.024713182  0.025144787            4 
 1017000    1.1004185   -7.5210206    301.78987  0.024728767  0.025135792            4 
 1018000    1.0960447   -7.5228226    302.63501  0.024773658   0.02512691            2 
 1019000     1.104196   -7.5405813      302.663  0.024751636  0.025118098            3 
 1020000    1.1158219   -7.5637768    302.11314  0.024682446  0.025109241            5 
 1021000    1.1023794   -7.4992993    303.23924  0.024750183  0.025100495            5 
 1022000    1.1034484   -7.4558183    303.51153  0.024748168  0.025091713            2 
 1023000      1.07999   -7.4952705    303.30059  0.024706793  0.025083173            1 
 1024000    1.0863857   -7.5213906    303.23456  0.024677291  0.025074377            2 
 1025000    1.0861853   -7.5241333    303.67526  0.024689045  0.025065646            3 
 1026000    1.1109062   -7.5321785      303.724  0.024668941  0.025056976            5 
 1027000    1.0785325   -7.5409646    303.77693  0.024649215  0.025048099            2 
 1028000    1.0923567   -7.5596126    302.83247  0.024548676  0.025039112            4 
 1029000    1.0635531   -7.5225996    303.69091   0.02459434   0.02503001            2 
 1030000     1.083242   -7.5284166    303.05019  0.024518624  0.025021029            3 
 1031000     1.088565   -7.5297743    304.72517  0.024630227  0.025011903            3 
 1032000       1.0853   -7.5385413    304.22636  0.024566082  0.025002775            3 
 1033000    1.0851389   -7.5469633    304.67772  0.024578713  0.024993675            3 
 1034000    1.0715095    -7.493229    305.75684  0.024641911   0.02498472            6 
 1035000    1.0981224   -7.5035179    305.36241  0.024586345  0.024975757            1 
 1036000    1.0866726   -7.5230117    304.62798  0.024503538  0.024966961            2 
 1037000    1.0860129    -7.521249    306.25215  0.024610427  0.024958193            1 
 1038000    1.0946402    -7.525624     305.7093  0.024543136   0.02494923            1 
 1039000    1.0942648   -7.5249853    305.58983  0.024509931  0.024940225            2 
 1040000    1.0986543    -7.502357     305.8738  0.024509119  0.024931251            2 
 1041000    1.0957553   -7.5323699    306.84212   0.02456309  0.024922502            2 
 1042000    1.1248024   -7.5222792     306.3766  0.024502287  0.024913618            2 
 1043000    1.0693606   -7.5297017    307.23289  0.024547211  0.024904944            2 
 1044000    1.0736913   -7.5281627    307.27645  0.024527175  0.024896173            4 
 1045000    1.0819696   -7.5550464    306.75002  0.024461724  0.024887367            3 
 1046000    1.1004357   -7.5853759    306.58831  0.024425455  0.024878462            2 
 1047000    1.0793736   -7.6027774    307.11022  0.024443666  0.024869505            1 
 1048000    1.0667398   -7.5576514    306.84263  0.024399064  0.024860689            3 
 1049000    1.0848711   -7.5036797    308.24221  0.024486989  0.024852025            1 
 1050000    1.0892935   -7.5371598    308.57381  0.024489985  0.024843328            2 
 1051000    1.0894632   -7.5295137    308.89335  0.024492019  0.024834489            4 
 1052000     1.087389    -7.531581    308.70663  0.024453947  0.024825535            2 
 1053000    1.0831834   -7.5669763    309.14344  0.024465293  0.024816442            3 
 1054000     1.091529   -7.5191593     309.4626  0.024467315  0.024807686            3 
 1055000    1.0740353   -7.5712762    308.38863  0.024359292  0.024798869            3 
 1056000      1.08917   -7.5211041    310.01602  0.024464648  0.024789957            2 
 1057000     1.080578   -7.5149979    309.97171  0.024438009  0.024781159            3 
 1058000    1.0552675   -7.4955206    310.76546  0.024477431  0.024772527            3 
 1059000    1.1086482   -7.5130321    310.70625  0.024449658  0.024763905            2 
 1060000    1.0784965   -7.5223126    310.69842  0.024425976   0.02475495            2 
 1061000    1.0786585   -7.5245648    310.09784  0.024355784  0.024746107            1 
 1062000    1.0666123   -7.5313867    310.55525  0.024368742  0.024737109            2 
 1063000    1.0766014   -7.4975356    311.12403  0.024390407  0.024728293            1 
 1064000    1.0817718   -7.5349017    311.26351  0.024378408  0.024719383            4 
 1065000    1.0516916   -7.5382561    310.81059  0.024320078  0.024710513            2 
 1066000    1.0720518   -7.5730783    310.86644  0.024301629  0.024701501            1 
 1067000     1.089328   -7.5615408    311.21643  0.024306188  0.024692595            3 
 1068000    1.0744698   -7.5118308    311.79302  0.024328419  0.024683574            2 
 1069000    1.0584005   -7.5658307    311.87428  0.024311996  0.024674628            3 
 1070000    1.0486882   -7.5936683    310.79887   0.02420552  0.024665426            2 
 1071000    1.0931603    -7.579791    310.15089    0.0241325  0.024656276            2 
 1072000    1.0543261    -7.604481    311.22928  0.024193819  0.024647219            2 
 1073000    1.0705573   -7.5299177    311.71341   0.02420887   0.02463815            3 
 1074000    1.0700847   -7.5055239        313.2  0.024301676  0.024629325            3 
 1075000    1.0713874   -7.5448112    312.89745  0.024255616  0.024620527            3 
 1076000    1.0759697   -7.5023255    313.71954  0.024296742  0.024611817            1 
 1077000    1.0750184   -7.5316786    312.79388  0.024202559  0.024603053            6 
 1078000    1.0844403   -7.5385555    314.06874   0.02427866  0.024594215            3 
 1079000    1.0754782   -7.5443252    312.91928  0.024167383  0.024585379            2 
 1080000    1.0733567   -7.5278436    314.06575  0.024233468  0.024576491            2 
 1081000    1.0928706   -7.5318612    314.12416  0.024215554  0.024567604            4 
 1082000    1.0880368   -7.5540773    314.70005  0.024237527  0.024558775            4 
 1083000    1.0808146   -7.5519884    314.13892   0.02417197  0.024549903            3 
 1084000     1.075938   -7.5368687    314.67383  0.024190793  0.024541098            4 
 1085000    1.0685156   -7.5920456     314.0791  0.024122818  0.024532239            6 
 1086000    1.0991913   -7.5597667    315.26992  0.024191983  0.024523436            2 
 1087000    1.0606775   -7.5692701    314.78489  0.024132543  0.024514587            1 
 1088000    1.0697818   -7.6013014    315.52856  0.024167323  0.024505685            3 
 1089000    1.0954738   -7.5638085    315.47997  0.024141412  0.024496757            5 
 1090000    1.0781532   -7.5366398    315.66168  0.024133156  0.024487871            2 
 1091000    1.0661911   -7.6195729    314.24644  0.024002936  0.024478915            2 
 1092000     1.097096   -7.5313951    316.31448  0.024138773  0.024470024            3 
 1093000    1.0933572   -7.5729424    315.91851  0.024086498  0.024461328            3 
 1094000    1.1049882   -7.5959783    315.10116  0.024002221  0.024452347            4 
 1095000    1.0788406    -7.513089    316.53827   0.02408967  0.024443541            1 
 1096000    1.0670663   -7.5733111    316.66072  0.024077001  0.024434689            1 
 1097000      1.08857   -7.5404498    316.78005  0.024064118  0.024425911            2 
 1098000    1.0839076   -7.5654762    317.81567  0.024120801   0.02441708            3 
 1099000    1.0906593   -7.5187606    317.96724  0.024110346  0.024408458            4 
 1100000    1.0881868   -7.5558236    317.10765  0.024023307  0.024399987            3 
 1101000    1.0776102   -7.5592295    318.13897  0.024079547  0.024391331            3 
 1102000    1.0945601   -7.5780731    317.87949  0.024038074  0.024382439            1 
 1103000    1.0504113   -7.5881948    317.32112  0.023974095  0.024373482            3 
 1104000     1.069193   -7.5476256    317.79659  0.023988269  0.024364577            5 
 1105000    1.0721517   -7.5346268    319.79595  0.024117342  0.024355761            3 
 1106000    1.0769197   -7.5708656     318.7855  0.024019402   0.02434721            2 
 1107000    1.0915676   -7.5692509     318.7549    0.0239954  0.024338475            5 
 1108000    1.0697519   -7.5458682    320.47425  0.024103057  0.024329615            1 
 1109000    1.0704988   -7.5436127    318.94149  0.023966148  0.024320877            2 
 1110000    1.0746452   -7.5704683     319.4969  0.023986254  0.024312134            1 
 1111000    1.0764826   -7.5388765    320.24401  0.024020703  0.024303461            1 
 1112000    1.0800745   -7.5241239    321.01642  0.024056986   0.02429483            2 
 1113000    1.0733017    -7.589976    319.95713  0.023956059  0.024286129            4 
 1114000    1.0675432   -7.6072188    318.83324  0.023850482  0.024277409            3 
 1115000    1.0694255   -7.5727182    320.07332  0.023921773  0.024268662            2 
 1116000    1.0800838   -7.5397582    321.00075   0.02396959  0.024259923            1 
 1117000    1.0691265   -7.5550037    320.83961  0.023936109  0.024251303            2 
 1118000    1.0675854   -7.5564267     320.5866  0.023895841  0.024242653            4 
 1119000     1.050572   -7.5738754    320.06143  0.023835376  0.024233881            6 
 1120000    1.0724181   -7.6186884    320.62092  0.023855723  0.024225062            2 
 1121000    1.0914321   -7.5657228    322.01972  0.023938427  0.024216335            5 
 1122000    1.0832447   -7.5536248    321.38705  0.023870102  0.024207529            1 
 1123000    1.0855507   -7.5715051    322.14058  0.023904763  0.024198816            6 
 1124000    1.0698974    -7.581092     322.2067  0.023888397  0.024190293            3 
 1125000    1.1043864   -7.5801434    322.56016  0.023893345  0.024181722            2 
 1126000    1.0650458   -7.5483402    323.68602  0.023955449  0.024173158            4 
 1127000    1.0690766   -7.6064643    322.86482  0.023873471  0.024164586            2 
 1128000    1.0824217   -7.5162174    323.76517  0.023918822  0.024156099            3 
 1129000    1.0757648   -7.5960813    322.32836  0.023791583  0.024147583            3 
 1130000    1.0733367    -7.568581    323.29052  0.023841484   0.02413897            4 
 1131000    1.0776043   -7.6141243    322.08612  0.023731663  0.024130237            2 
 1132000    1.0668699   -7.5730381    323.70333   0.02382975  0.024121597            2 
 1133000    1.0719363   -7.5637428    324.39272  0.023859423   0.02411319            4 
 1134000    1.0811764   -7.5926718    324.47608  0.023844509  0.024104787            1 
 1135000    1.0785529   -7.5790636    324.80171  0.023847409  0.024096245            1 
 1136000    1.0621859   -7.5144686    325.55377  0.023881585   0.02408785            4 
 1137000    1.0653096   -7.5927824    325.44087  0.023852307  0.024079398            4 
 1138000    1.0633493   -7.5756326    325.58177  0.023841665  0.024070892            3 
 1139000    1.0883967   -7.5619583    326.00336  0.023851578  0.024062408            6 
 1140000    1.0598507   -7.5479047    325.62031  0.023802655  0.024054009            4 
 1141000    1.0893071   -7.5434367    325.56613  0.023777836  0.024045783            2 
 1142000    1.0707998   -7.5483608    326.28995  0.023809833  0.024037493            5 
 1143000    1.0816879   -7.5753893    326.46496  0.023801762  0.024029198            3 
 1144000    1.0573267   -7.5855844     326.6312  0.023793065  0.024021077            4 
 1145000    1.0736176   -7.6293001    326.51887   0.02376411  0.024012818            3 
 1146000    1.0734541   -7.5851477    327.35937  0.023804492  0.024004602            3 
 1147000     1.049442   -7.5607167    328.13041  0.023839756  0.023996485            3 
 1148000    1.0780445   -7.5544275    328.17657  0.023822341  0.023988369            5 
 1149000    1.0712761    -7.553813    327.57057  0.023757656  0.023980201            6 
 1150000    1.0690438   -7.5328147    329.27224  0.023860307  0.023972133            2 
 1151000    1.0518176   -7.5374019    330.37399  0.023919345   0.02396427            1 
 1152000    1.0823962   -7.5679979    329.19055  0.023812974  0.023956501            5 
 1153000    1.0550639   -7.5770413    328.58618   0.02374864   0.02394861            1 
 1154000    1.0719229   -7.5747116    329.41648  0.023788019  0.023940718            2 
 1155000     1.050532   -7.5867844     328.2617  0.023684105  0.023932874            5 
 1156000     1.079181   -7.5443066    330.48647  0.023823996  0.023925021            3 
 1157000    1.0451795   -7.5795255    329.52459  0.023734125  0.023917138            4 
 1158000    1.0591586   -7.5800795    329.27923  0.023695972  0.023909313           14 
 1159000    1.0676626   -7.5641301    330.75372  0.023781544  0.023901518            3 
 1160000    1.0483378   -7.5784035     329.6968  0.023685115  0.023893594            4 
 1161000    1.0544321   -7.5970418    330.30695  0.023708509  0.023885839            3 
 1162000    1.0562631   -7.5732347     330.4534  0.023698609  0.023877955            3 
 1163000    1.0680079   -7.5559276    331.81948  0.023776117  0.023870234            4 
 1164000    1.0894334   -7.5781968    331.96073  0.023765803  0.023862479            2 
 1165000    1.0566812   -7.5528721    331.96462  0.023745681  0.023854862            1 
 1166000    1.0689423   -7.5963706    332.49159  0.023762978  0.023847147            3 
 1167000    1.0692899   -7.5567097    332.53436   0.02374567  0.023839441            4 
 1168000    1.0387013   -7.6268311    332.15104  0.023697991  0.023831766            6 
 1169000    1.0524786   -7.5916853    332.53515  0.023705101  0.023824131            4 
 1170000    1.0455139    -7.568904    332.58675  0.023688515  0.023816489            3 
 1171000    1.0552363    -7.622636    332.13721  0.023636294  0.023808865            3 
 1172000    1.0551183   -7.5767157    334.67126  0.023796307  0.023801308            1 
 1173000    1.0773237   -7.5910726    333.08746  0.023663503  0.023793721            3 
 1174000    1.0595339    -7.592736    333.53691  0.023675249  0.023786022            2 
 1175000    1.0729021   -7.5843927    333.18885  0.023630415  0.023778367            2 
 1176000    1.0678758   -7.5575809    334.53201  0.023705499  0.023770706            3 
 1177000    1.0592693   -7.6139344    333.92562  0.023642425  0.023763124            4 
 1178000    1.0960567   -7.5265747    334.35486  0.023652721  0.023755631            4 
 1179000    1.0571633   -7.5670546    334.17869  0.023620207  0.023748013            2 
 1180000    1.0673732   -7.5986131    333.03979  0.023519759  0.023740252            2 
 1181000    1.0488706   -7.5991254    334.56135  0.023607208   0.02373247            2 
 1182000    1.0675677   -7.6354405    333.38184  0.023504078  0.023724617            2 
 1183000    1.0714646   -7.5871252    335.52173  0.023634948  0.023716962            2 
 1184000    1.0759178   -7.6309275    335.39182  0.023605843  0.023709296           10 
 1185000    1.0456729   -7.6179819    335.56645  0.023598203  0.023701541            2 
 1186000    1.0669051    -7.603183    335.81812  0.023595989  0.023693927            9 
 1187000    1.0402082   -7.6075184    336.66062  0.023635258  0.023686378            4 
 1188000    1.0727205   -7.6028348    335.88657  0.023561067  0.023678741            2 
 1189000    1.0595978   -7.6031787    336.17452  0.023561433  0.023671147            2 
 1190000    1.0709243   -7.5858472    336.54192  0.023567362   0.02366356            3 
 1191000    1.0806731   -7.6074769    336.40074  0.023537695  0.023655846            1 
 1192000    1.0237961   -7.5918068    337.88678  0.023621839  0.023648296            9 
 1193000    1.0753422   -7.5663675    337.09055   0.02354642  0.023640718            2 
 1194000     1.084253   -7.5807476    336.94329  0.023516422  0.023633129            2 
 1195000    1.0592215   -7.5773228    337.45487  0.023532417  0.023625677            3 
 1196000    1.0804556   -7.6206112     337.9393  0.023546495  0.023618194            3 
 1197000    1.0601904   -7.6316522    337.51056  0.023496976  0.023610706            3 
 1198000    1.0374633   -7.6709763    337.36304  0.023467101  0.023603238            6 
 1199000    1.0816744   -7.6293247     337.5882  0.023463178  0.023595724            5 
 1200000    1.0681466   -7.6118215    338.16734  0.023483843  0.023588251            2 
 1201000      1.06685   -7.5839934    339.39633  0.023549565  0.023580752            6 
 1202000    1.0618584   -7.5731418    339.80074   0.02355801  0.023573388            3 
 1203000    1.0445054   -7.5701087     340.6515   0.02359736  0.023566158            5 
 1204000     1.065674   -7.5617902    340.74907  0.023584515  0.023559101            3 
 1205000    1.0601409   -7.6206968    340.07198  0.023518118  0.023552009            4 
 1206000    1.0826211   -7.6519353      340.632  0.023537313  0.023544748            3 
 1207000    1.0154763    -7.607634     341.1301  0.023552202  0.023537574            1 
 1208000    1.0562023   -7.5780183    341.55113   0.02356175  0.023530536            2 
 1209000    1.0508309    -7.614789    341.25398   0.02352178  0.023523502            6 
 1210000    1.0603281   -7.6020687    341.44052  0.023515188  0.023516391            3 
 1211000    1.0654206   -7.6402697      341.143  0.023475296  0.023509236            6 
 1212000    1.0499523   -7.5895266    341.86718  0.023505719  0.023502219            7 
 1213000    1.0401824    -7.650286    341.34725  0.023450621  0.023495182            2 
 1214000    1.0441691   -7.5750912    342.14012  0.023485731  0.023488119            3 
 1215000    1.0638552    -7.605583    342.33688  0.023479896  0.023481078            2 
 1216000    1.0615537   -7.5744947    343.14708   0.02351611  0.023474134            3 
 1217000    1.0464824   -7.5713106    343.22679  0.023502245  0.023467229            2 
 1218000    1.0474138   -7.6431718    343.47285  0.023499784  0.023460293            3 
 1219000    1.0508351    -7.611297    344.60384  0.023557823  0.023453434            2 
 1220000    1.0886466   -7.5312837    345.63793  0.023609148  0.023446653            3 
 1221000    1.0448715   -7.5987812    344.49607   0.02351188  0.023439989            2 
 1222000    1.0451328   -7.5972989    344.94501  0.023523255  0.023433222            4 
 1223000    1.0313925   -7.5922824    345.43938  0.023537707  0.023426502            2 
 1224000     1.096937   -7.5909808    346.15215  0.023567004    0.0234199            3 
 1225000    1.0340016   -7.5817822    345.87148  0.023528672  0.023413385            3 
 1226000    1.0562969   -7.6093242     346.3173  0.023539784  0.023406796            4 
 1227000    1.0658407   -7.6101181    346.43126  0.023528339  0.023400051            6 
 1228000    1.0590177   -7.6022072      345.695  0.023459216  0.023393474            2 
 1229000     1.047729   -7.6495665    344.93852  0.023388834  0.023386715            6 
 1230000    1.0477304   -7.5564677    347.50489  0.023543692  0.023380113            2 
 1231000    1.0682959   -7.6240717    346.07953  0.023428075  0.023373559            2 
 1232000    1.0628396   -7.6308933    347.25241  0.023488393  0.023366882            3 
 1233000     1.058814   -7.6022791    347.19041  0.023465153  0.023360362            5 
 1234000    1.0296799   -7.5871192    347.64856  0.023477077  0.023353737            4 
 1235000    1.0501829   -7.5903661     347.5197  0.023449373  0.023347159            2 
 1236000    1.0619131   -7.6290098     346.9461  0.023391727  0.023340487            3 
 1237000    1.0612908   -7.6292049    346.92957  0.023371703  0.023333818            2 
 1238000    1.0554022   -7.6399409    348.12754  0.023433464  0.023326959            2 
 1239000    1.0511415   -7.6357631    347.88983  0.023398562   0.02332015            2 
 1240000    1.0281386   -7.6270709     347.2327  0.023335531  0.023313407            1 
 1241000    1.0724525   -7.6359592    348.31348  0.023389301  0.023306538            2 
 1242000    1.0779421   -7.6324711    348.30303  0.023369768  0.023299842            6 
 1243000    1.0327401   -7.6483246    348.87522  0.023389328  0.023293115            3 
 1244000    1.0583275    -7.599255     349.3708  0.023403725  0.023286338            5 
 1245000    1.0616892   -7.6433934    348.59674  0.023333115  0.023279744            2 
 1246000    1.0531765   -7.6499155    348.87579  0.023333052  0.023273054            4 
 1247000    1.0327248   -7.6012526    349.70931  0.023370042  0.023266506            2 
 1248000    1.0325819   -7.6230181    349.46134  0.023334758   0.02326007            5 
 1249000     1.064731    -7.600956    350.98467  0.023417712  0.023253557            2 
 1250000    1.0637275   -7.5701741    352.10309  0.023473539  0.023247022            1 
 1251000    1.0391165   -7.6329557    349.86943  0.023305984  0.023240542            5 
 1252000    1.0464063   -7.6410304     351.9388  0.023425106  0.023233985            2 
 1253000    1.0677422   -7.6263736    351.01895  0.023345235  0.023227589            6 
 1254000    1.0762525   -7.5986699    352.28436   0.02341071   0.02322129            2 
 1255000    1.0654731   -7.5973351    352.64082  0.023415725  0.023214978            3 
 1256000     1.038276   -7.5901219    352.95896   0.02341819  0.023208761            1 
 1257000    1.0406432    -7.578048     353.5451  0.023438418   0.02320265            2 
 1258000     1.059282   -7.5762369    353.70116  0.023430124  0.023196531            2 
 1259000    1.0511113   -7.6285224    353.65774  0.023408641  0.023190429            3 
 1260000    1.0575188   -7.6269963    353.09525   0.02335286  0.023184361            4 
 1261000    1.0516801   -7.5719099    355.11399   0.02346775  0.023178396            2 
 1262000    1.0616703   -7.6163758    353.97543  0.023373972  0.023172381            3 
 1263000    1.0777435   -7.5787637    356.02359  0.023490603  0.023166302            2 
 1264000    1.0469471   -7.6102472    355.28451  0.023423293  0.023160294            4 
 1265000    1.0432103   -7.6284467     354.1436  0.023329618  0.023154093            4 
 1266000    1.0376789   -7.5302125    355.54805  0.023403637  0.023147947            5 
 1267000    1.0569251   -7.6060429    355.33535  0.023371175  0.023142005            3 
 1268000    1.0457089   -7.6330114    355.08612  0.023336364  0.023135776            5 
 1269000    1.0452431   -7.6090099    354.36781  0.023270805  0.023129475            1 
 1270000    1.0593346   -7.6175567    355.37607   0.02331864  0.023123132            7 
 1271000    1.0180927   -7.6062233    353.98919  0.023209362  0.023116738            1 
 1272000    1.0443038   -7.6245888     354.6591  0.023235004  0.023110418            2 
 1273000    1.0415068   -7.6109906    356.33872  0.023326703  0.023104276            3 
 1274000    1.0373043   -7.6260246    356.12884  0.023294665  0.023097871            5 
 1275000    1.0455755   -7.6212627    355.04609  0.023205627  0.023091505            3 
 1276000    1.0380139   -7.6204475     356.8898   0.02330785  0.023085102            1 
 1277000    1.0372274   -7.6714685    355.33989  0.023188456  0.023078675            3 
 1278000    1.0515881   -7.6225337    356.27682  0.023231404  0.023072426            3 
 1279000    1.0276072   -7.6299794    355.91086  0.023189396  0.023066147            2 
 1280000    1.0583124   -7.6372714    357.17351  0.023253483  0.023059942            3 
 1281000     1.063109   -7.5953076    357.10367  0.023230788  0.023053728            4 
 1282000    1.0633559   -7.6068605    357.37286  0.023230165  0.023047406            6 
 1283000    1.0641197   -7.6228959    357.58857   0.02322607  0.023041017            1 
 1284000    1.0447627   -7.5960131    358.15146  0.023244513  0.023034736            3 
 1285000    1.0575394   -7.6049248    356.70396  0.023132553  0.023028323            2 
 1286000    1.0547627   -7.6184193    357.14398  0.023143078   0.02302186            2 
 1287000    1.0321994   -7.6461396    356.37747  0.023075464  0.023015329            4 
 1288000    1.0610217   -7.6794976    357.53429  0.023132395   0.02300875            6 
 1289000     1.044434    -7.621632    358.01959  0.023145823  0.023002266            3 
 1290000    1.0449761   -7.5955059    358.65119  0.023168681  0.022995839            1 
 1291000    1.0315749   -7.6950141     357.3244  0.023065092  0.022989473            4 
 1292000    1.0590596   -7.6574048    357.76902  0.023075917  0.022983038            2 
 1293000    1.0279381   -7.6772459    357.52902  0.023042603  0.022976497            3 
 1294000     1.044262    -7.636028    359.96835  0.023181888  0.022970155            4 
 1295000    1.0317939   -7.6355082    359.21293  0.023115375  0.022963773            2 
 1296000    1.0588947    -7.644951    359.60231  0.023122577  0.022957561            4 
 1297000    1.0553196   -7.6145051    359.88448  0.023122878  0.022951353            2 
 1298000    1.0504016   -7.6196563    359.93145   0.02310808  0.022945086            2 
 1299000    1.0469424   -7.6206819    360.57738  0.023131728  0.022938992            3 
 1300000    1.0335845   -7.6132183    361.80713  0.023192765  0.022932817            6 
 1301000    1.0505245   -7.6165563    360.41924  0.023086039   0.02292659            3 
 1302000    1.0556546   -7.5826293    361.62433  0.023145438  0.022920405            3 
 1303000    1.0151827   -7.6394513    361.34578  0.023109861  0.022914276            3 
 1304000    1.0236962   -7.6845688    359.28526  0.022960459  0.022907908            4 
 1305000    1.0428629   -7.6962614    360.21637  0.023002322  0.022901463            4 
 1306000    1.0446065   -7.6373089    360.96288  0.023032343  0.022895088            3 
 1307000    1.0438519   -7.6732716    361.25314  0.023033228  0.022888687            4 
 1308000    1.0387303   -7.6658169    361.81316  0.023051297  0.022882325            4 
 1309000    1.0371391   -7.6897389    361.16562  0.022992463   0.02287595            2 
 1310000    1.0299681   -7.6629957    362.07665  0.023032866  0.022869535            2 
 1311000    1.0503307    -7.670859    361.23724   0.02296194  0.022863013            5 
 1312000    1.0330537   -7.6273109    361.89089  0.022985956  0.022856435            6 
 1313000    1.0364423    -7.665489    360.62069  0.022887832  0.022849878            2 
 1314000    1.0434053   -7.7112363    360.77243  0.022880037  0.022843287            1 
 1315000    1.0263064   -7.6480484    361.92935  0.022935954  0.022836553            3 
 1316000    1.0369517   -7.6710873    361.85062   0.02291354  0.022829836            9 
 1317000    1.0392673   -7.6338603    362.25179  0.022921526  0.022823239            2 
 1318000    1.0664525   -7.6579116    362.08956  0.022893877  0.022816543            2 
 1319000    1.0385124   -7.6234438    362.42817  0.022897913  0.022809906            2 
 1320000     1.057492   -7.6154217    363.71865  0.022962036  0.022803372            2 
 1321000    1.0360075   -7.6449823    363.27698  0.022916791   0.02279689            4 
 1322000    1.0351644   -7.6549858    363.36095   0.02290475  0.022790379            2 
 1323000    1.0363374   -7.6277225    363.53463  0.022898377  0.022783575            1 
 1324000    1.0351884   -7.6253028    364.15548  0.022920159  0.022776939            3 
 1325000     1.041616   -7.6951226    362.51099  0.022799433  0.022770306            2 
 1326000    1.0651721   -7.6679912    362.78039   0.02279917  0.022763533            3 
 1327000    1.0326441   -7.6343024    363.83217  0.022848039  0.022756789            4 
 1328000    1.0403842   -7.6552827    363.81718  0.022829893  0.022750139            4 
 1329000    1.0397443   -7.6746067    364.77148  0.022872554  0.022743423            5 
 1330000    1.0453059   -7.6536901    365.24676  0.022885136  0.022736797            3 
 1331000    1.0468233   -7.6050297    364.99579  0.022852228  0.022730201            2 
 1332000      1.06039   -7.6274002    365.00199   0.02283546  0.022723694            5 
 1333000    1.0332176   -7.6353619    365.52927  0.022851292  0.022717146            2 
 1334000    1.0217661   -7.6064183     366.2911  0.022881753  0.022710633            5 
 1335000    1.0622823   -7.6720725    364.40111  0.022746636  0.022704101            3 
 1336000    1.0265541    -7.669546    365.49275  0.022797701  0.022697425            4 
 1337000     1.039421   -7.6670973    365.22911  0.022764218   0.02269082            3 
 1338000    1.0285518   -7.6209955    366.28392    0.0228129  0.022684331            2 
 1339000    1.0410275   -7.6226797    365.77196  0.022764001  0.022677694            2 
 1340000     1.043032    -7.651876    364.88461  0.022691829  0.022671004            3 
 1341000    1.0346289    -7.682018    364.94169  0.022678455  0.022664137            4 
 1342000    1.0051385   -7.6603729    364.95699  0.022662506   0.02265719            3 
 1343000    1.0286577   -7.6632944    365.86165  0.022701765  0.022650282            6 
 1344000      1.04006   -7.6886688    365.86465   0.02268506  0.022643426            1 
 1345000    1.0358576   -7.6653277     365.4299  0.022641257  0.022636408            3 
 1346000    1.0385638   -7.6233482    367.14297  0.022730496  0.022629571            2 
 1347000    1.0495766   -7.6265366    367.13306  0.022713008  0.022622782            2 
 1348000     1.030351   -7.6584793    366.48112  0.022655856  0.022615987            3 
 1349000    1.0407575   -7.6867418    365.73988  0.022593272   0.02260917            4 
 1350000    1.0322668   -7.6808365     367.2418  0.022669247  0.022602286            5 
 1351000    1.0157806   -7.6871922    366.27578  0.022592881  0.022595352            3 
 1352000    1.0289971   -7.6966929    366.73964  0.022604761  0.022588578            2 
 1353000    1.0533921   -7.6911934    367.72719  0.022648878  0.022581755            2 
 1354000    1.0407231   -7.6701907    367.30833  0.022606372  0.022574932            2 
 1355000    1.0341463   -7.6297187     368.5194   0.02266417  0.022568202            4 
 1356000    1.0358701   -7.6714104     368.7388  0.022660939   0.02256145            7 
 1357000    1.0554076   -7.6560802    368.13329  0.022607055  0.022554555            4 
 1358000    1.0376519   -7.6726786    367.85171  0.022573129  0.022547655            5 
 1359000    1.0302924   -7.6714106    368.57231  0.022600706  0.022540862            3 
 1360000    1.0399868   -7.6466074    368.01581  0.022549988  0.022534029            2 
 1361000    1.0334971   -7.6750188    369.17523   0.02260441  0.022527271            5 
 1362000    1.0403188   -7.6526776    368.91799  0.022572075  0.022520523            5 
 1363000     1.032315   -7.6883172    367.79357  0.022486768  0.022513679            5 
 1364000    1.0339516   -7.6665454    368.91777  0.022538965  0.022506655            2 
 1365000    1.0249534   -7.6606376    369.01759  0.022528547  0.022499768            6 
 1366000    1.0262454   -7.6810552    369.77291  0.022558132  0.022492959            4 
 1367000    1.0415634   -7.6665533    369.65478   0.02253443  0.022486109            2 
 1368000    1.0172132    -7.674577    370.50748    0.0225699  0.022479307            1 
 1369000     1.032707   -7.7081178    369.09099   0.02246719  0.022472428            5 
 1370000    1.0262331   -7.6919113    369.96632  0.022504034  0.022465649            5 
 1371000    1.0303481   -7.7019886    370.88255  0.022543311  0.022458856            2 
 1372000    1.0430153   -7.6619839    371.01065   0.02253466  0.022452111            6 
 1373000    1.0109319   -7.6704424    370.72143  0.022500694  0.022445351            5 
 1374000    1.0539057   -7.6933181    370.32448  0.022460243  0.022438691            3 
 1375000     1.014421   -7.6750933    371.95186  0.022542537   0.02243194            5 
 1376000    1.0396049   -7.6765181    372.04682  0.022531905   0.02242513            2 
 1377000    1.0143773   -7.7026293    370.25243  0.022406949  0.022418322            2 
 1378000    1.0160675   -7.6935778    370.98353  0.022434902  0.022411509            3 
 1379000     1.031027   -7.6821634    370.83722  0.022409791  0.022404717            2 
 1380000    1.0378425   -7.7127401    371.84612  0.022454476  0.022397943            1 
 1381000    1.0158359   -7.6492636    372.54742  0.022480535  0.022391206            3 
 1382000    1.0570466   -7.7260341    371.08517  0.022376096  0.022384468            2 
 1383000    1.0402244   -7.7297588    372.48711  0.022444391  0.022377714            1 
 1384000      1.04439   -7.6750213    372.60224  0.022435106  0.022371137            1 
 1385000    1.0082841    -7.663688    373.54168  0.022475432  0.022364512            2 
 1386000    1.0359346   -7.6833859    373.54983  0.022459706  0.022357949            5 
 1387000    1.0338026   -7.7154332    371.88909  0.022343733  0.022351255            2 
 1388000    1.0332426   -7.6836656    374.03532  0.022456491  0.022344629            4 
 1389000    1.0202904   -7.6945815    373.57297  0.022412585  0.022337973            4 
 1390000    1.0264818   -7.6512355    374.61622  0.022459006   0.02233134            2 
 1391000    1.0356007   -7.6854308    374.09346  0.022411542  0.022324653            2 
 1392000    1.0424047   -7.6606089    373.72082  0.022373134  0.022318034            4 
 1393000     1.035491   -7.6723852    375.34231  0.022454075  0.022311415            2 
 1394000    1.0578418   -7.6645448    374.30546  0.022375984  0.022304867            4 
 1395000    1.0474572   -7.6603805    375.63505  0.022439369  0.022298303            2 
 1396000    1.0231983   -7.6902099    374.76653   0.02237145  0.022291678            2 
 1397000    1.0021905   -7.6821964    375.95695  0.022426446  0.022285021            2 
 1398000    1.0509131   -7.6880961    375.71869  0.022396202  0.022278464            3 
 1399000     1.028632   -7.6828802    375.73469  0.022381147  0.022272025            2 
 1400000    1.0133839   -7.7060206    377.29824  0.022458229  0.022265577            4 
 1401000    1.0533411   -7.6791748    376.46874  0.022392859  0.022259128            6 
 1402000    1.0250497   -7.7183163    377.24773  0.022423189   0.02225274            6 
 1403000    1.0297462   -7.7081024    376.76005   0.02237824  0.022246329            3 
 1404000    1.0297065   -7.6495605    378.62285  0.022472866  0.022239905            2 
 1405000    1.0429268   -7.6654386    378.31149  0.022438404  0.022233659            2 
 1406000     1.034284   -7.6916863    378.41341  0.022428485   0.02222733            3 
 1407000    1.0410006   -7.6965582    378.26081  0.022403507  0.022221096            4 
 1408000    1.0122799   -7.6946288    378.18864  0.022383324  0.022214853            4 
 1409000    1.0355496    -7.715945    378.65781  0.022395186  0.022208666            8 
 1410000    1.0293498   -7.7000236    379.19281  0.022410922  0.022202472            5 
 1411000    1.0322055   -7.6790726    379.21776  0.022396513  0.022196344            1 
 1412000    1.0179838   -7.6773958    379.21041  0.022380218  0.022190303            2 
 1413000    1.0189566   -7.6978526    378.97554  0.022350527  0.022184168            5 
 1414000    1.0341695   -7.6875478     378.8152  0.022325271  0.022178029            3 
 1415000    1.0193546   -7.6858629    380.24667  0.022393797  0.022171948            3 
 1416000    1.0141864   -7.6691438    380.10031  0.022369368  0.022165899            2 
 1417000    1.0302122   -7.6401977    379.05763  0.022292263  0.022159636            2 
 1418000    1.0273018   -7.7268362     379.8497   0.02232309  0.022153339            3 
 1419000    1.0214892   -7.7119023    379.36668  0.022278992  0.022146942            3 
 1420000    1.0200882   -7.6869395    379.63321  0.022278944  0.022140456            3 
 1421000    1.0383801   -7.7486434    379.32292  0.022245069  0.022134022            4 
 1422000     1.021733   -7.6943391    380.13372  0.022276941  0.022127596            5 
 1423000    1.0320235   -7.7099936    380.27761  0.022269713  0.022121211            3 
 1424000    1.0306138   -7.7258869    379.81358  0.022226918  0.022114802            5 
 1425000    1.0325617   -7.7379395    379.83785   0.02221274  0.022108399            2 
 1426000    1.0451894   -7.6962151    381.60836  0.022300629  0.022102094            2 
 1427000     1.020694   -7.6450591    381.03197  0.022251341  0.022095886            2 
 1428000    1.0471583   -7.6763976    380.78569  0.022221387  0.022089635            3 
 1429000    1.0337395   -7.7106926    381.55345  0.022250609  0.022083314            1 
 1430000    1.0318804    -7.711679    381.50093  0.022231989  0.022076986            4 
 1431000    1.0072455   -7.7194417    381.74209  0.022230497  0.022070459            3 
 1432000    1.0145885   -7.6966074    381.51805  0.022201935  0.022063924            2 
 1433000    1.0054234   -7.6968788    382.35203   0.02223494  0.022057417            2 
 1434000    1.0240559   -7.6879783    381.41937  0.022165236  0.022051008            8 
 1435000    1.0230183   -7.6832443    381.88303  0.022176715  0.022044598            3 
 1436000    1.0201135   -7.6905667     382.0943  0.022173532  0.022038238            7 
 1437000    1.0076198    -7.695515    381.83535  0.022143085  0.022031749            5 
 1438000    1.0433772   -7.7462857     381.6958  0.022119599  0.022025257            4 
 1439000    1.0451169   -7.7151355    382.66472  0.022160338  0.022018793            5 
 1440000    1.0160231    -7.724138    382.91521  0.022159445  0.022012436            5 
 1441000    1.0122388   -7.6930415    383.03187  0.022150814  0.022006038            3 
 1442000    1.0131886   -7.6969814    382.81713  0.022123043  0.021999654            4 
 1443000    1.0225865   -7.6694348     384.2758   0.02219195  0.021993399            3 
 1444000    1.0213745   -7.7053587    383.55124  0.022134767   0.02198709            3 
 1445000    1.0105682   -7.7150358      382.302  0.022047405  0.021980665            3 
 1446000    1.0139219   -7.6958449    383.61636  0.022107904  0.021974229            3 
 1447000    1.0052461   -7.6816268    384.70413  0.022155271  0.021967774            5 
 1448000    1.0040447   -7.6555282    385.67605  0.022195905  0.021961515            2 
 1449000     1.009984   -7.7153093    383.86428  0.022076391  0.021955228            4 
 1450000    1.0194906   -7.7371075    383.43309  0.022036384   0.02194893            7 
 1451000   0.99822226   -7.6856732    385.43556  0.022136203   0.02194258            2 
 1452000   0.98185701   -7.7023164    384.36553  0.022059546  0.021936285            4 
 1453000    1.0209644   -7.7071166    385.30869  0.022098457  0.021929868            4 
 1454000    1.0285297   -7.7041119    384.85076  0.022057013  0.021923488            2 
 1455000    1.0064638   -7.7001763    384.50475  0.022022036  0.021917035            2 
 1456000    1.0148709   -7.6842484    385.13361  0.022042904  0.021910455            2 
 1457000    1.0115752    -7.697442    384.59628  0.021997042  0.021903804            3 
 1458000     1.003034   -7.6713265    384.81781  0.021994616  0.021897148            3 
 1459000    1.0413309   -7.7227075    384.85606  0.021981726  0.021890377            8 
 1460000    1.0295255   -7.7625296    383.45648  0.021886785  0.021883505            2 
 1461000    1.0186277   -7.7105612    385.45895  0.021986023  0.021876675            2 
 1462000    1.0188217   -7.7036225      384.991  0.021944311  0.021869904            2 
 1463000    1.0252974   -7.6972935    384.25566  0.021887426  0.021863116            3 
 1464000    1.0238995    -7.733476    385.26017  0.021929655  0.021856229            3 
 1465000    1.0367354   -7.7261875    384.86141  0.021892003  0.021849282            3 
 1466000    1.0078104   -7.6992062     386.0137   0.02194257  0.021842489            3 
 1467000    1.0379377   -7.6938983    386.12313  0.021933829  0.021835837            2 
 1468000   0.98504738   -7.6899716    386.27405  0.021927455  0.021829199            2 
 1469000    1.0364627   -7.7095253    386.07366  0.021901161   0.02182229            4 
 1470000     1.009288   -7.7069566    385.07666  0.021829743  0.021815485            5 
 1471000    1.0045954   -7.7574004    385.54878  0.021841648  0.021808709            2 
 1472000    1.0271608   -7.7635742    385.63142  0.021831489  0.021801794            8 
 1473000    1.0239414   -7.6650846    387.03859  0.021896277  0.021795015            2 
 1474000   0.98063571   -7.7099624    386.47704  0.021849674  0.021788296            4 
 1475000   0.99098002   -7.6852669    387.06081  0.021867842  0.021781557            5 
 1476000    1.0038943   -7.7178681    387.38068  0.021871086  0.021774925            5 
 1477000    1.0326712   -7.7318976    386.56349  0.021810172  0.021768148            3 
 1478000    1.0247798   -7.7098651    387.89438  0.021870455  0.021761544            3 
 1479000     1.017715   -7.6979238    387.89034   0.02185544  0.021754969            5 
 1480000    1.0072924   -7.7157073    387.97371  0.021845366  0.021748314            2 
 1481000    1.0266362    -7.734568    387.95239  0.021829417  0.021741735            2 
 1482000    1.0292023   -7.7555788    387.84876   0.02180886  0.021735016            2 
 1483000    1.0245068   -7.7154567    389.60291  0.021892724  0.021728419            2 
 1484000     1.021472   -7.7384892     388.1569  0.021796771  0.021721734            5 
 1485000    1.0102599    -7.736657    387.37287  0.021738096  0.021714989           13 
 1486000    1.0497438   -7.7115346    389.48977  0.021842181  0.021708273           13 
 1487000    1.0060844   -7.7301357    388.42051   0.02176757  0.021701703            2 
 1488000    1.0039668   -7.7477798    388.32127  0.021747383  0.021695082            2 
 1489000    1.0155433   -7.7383589    389.07703  0.021775074  0.021688408            5 
 1490000    1.0029267   -7.7496245    389.23805  0.021769466  0.021681768            5 
 1491000    1.0395589   -7.6957236    389.85559   0.02178938   0.02167516            4 
 1492000   0.98500463   -7.7054381    389.85653  0.021774829  0.021668631            5 
 1493000    1.0243597   -7.6965113    389.94638  0.021765259  0.021662147            9 
 1494000    1.0036039   -7.7540226    389.72907  0.021738569  0.021655585            6 
 1495000    1.0288668   -7.7316895     389.6022  0.021716957  0.021648972            2 
 1496000    1.0182556    -7.691326    390.07258  0.021728642  0.021642367            5 
 1497000    1.0131786    -7.716182    391.30571  0.021782772  0.021635822            8 
 1498000    1.0073619   -7.7238372    390.67846  0.021733337  0.021629225            2 
 1499000     1.024414   -7.7519736    390.60103  0.021714533  0.021622695            2 
 1500000     1.012657   -7.7271148    391.10428  0.021728015  0.021616167            3 
 1501000     1.003127   -7.7170976    390.77649  0.021695342  0.021609775            2 
 1502000    1.0244485    -7.766964     391.1504  0.021701642  0.021603315            5 
 1503000    1.0247541   -7.7319878    391.77309  0.021721728  0.021596863            4 
 1504000    1.0072182   -7.7226875    391.19776  0.021675408  0.021590381            4 
 1505000    1.0123475   -7.7479409    392.82718  0.021751228  0.021583919            2 
 1506000   0.99900179   -7.7279704     392.6475  0.021726842  0.021577565            3 
 1507000    1.0267331   -7.7511831    392.68499  0.021714498  0.021571103            3 
 1508000    1.0134123   -7.7221408    392.15705  0.021670925  0.021564727            3 
 1509000    1.0305826   -7.7638625    391.00901  0.021593164  0.021558158            2 
 1510000    1.0130964    -7.733466    392.08783  0.021638401  0.021551567            4 
 1511000   0.99896148   -7.7335292    392.01492   0.02162006  0.021545021            4 
 1512000    1.0197304   -7.7718549    392.27559  0.021620128  0.021538478            5 
 1513000    1.0119848   -7.7228269    392.44974   0.02161543   0.02153192            2 
 1514000   0.99535101   -7.7341295    392.68442   0.02161407  0.021525328            8 
 1515000    1.0278266   -7.7468703    392.24154  0.021575442  0.021518828            2 
 1516000    1.0224594   -7.7327119    392.34197  0.021566731  0.021512356            4 
 1517000   0.99754055    -7.743632    393.78351  0.021631702  0.021505899            3 
 1518000   0.99511315   -7.7283304    393.51628  0.021602782  0.021499274            2 
 1519000    1.0095175   -7.7193657    393.49371  0.021587322  0.021492721            8 
 1520000   0.99856414   -7.7488987    393.71572  0.021585291   0.02148616            4 
 1521000    1.0184002   -7.7210556    393.26342  0.021546319  0.021479575            6 
 1522000   0.98044743   -7.7561977    393.93143  0.021568738  0.021473005            4 
 1523000    0.9834462   -7.7488621    393.27224  0.021518507  0.021466356            2 
 1524000    1.0031679   -7.7569781    394.43263  0.021567839  0.021459732            2 
 1525000    1.0059615    -7.744864    393.79318  0.021518753  0.021453052            2 
 1526000    1.0035314    -7.754909    394.25261  0.021529741  0.021446472            1 
 1527000   0.99589618   -7.7803523    394.07932  0.021506184   0.02143978            6 
 1528000    1.0001926   -7.7269981    395.93506  0.021593317  0.021433173            7 
 1529000    1.0075143    -7.714884    394.65576   0.02150947   0.02142664            3 
 1530000    1.0288073   -7.7382444    394.94367  0.021511093  0.021420113            6 
 1531000    1.0155007   -7.7207995     396.1206  0.021561104  0.021413626            2 
 1532000    1.0084422   -7.7583769    394.43989  0.021455607  0.021407062            3 
 1533000    1.0185472   -7.7076269    396.08348  0.021530956  0.021400587            4 
 1534000    1.0142862   -7.6873977    397.01092  0.021567304  0.021394094            2 
 1535000    1.0168086    -7.740361    396.06344  0.021501815  0.021387643            2 
 1536000    1.0328269   -7.7211434    395.86129   0.02147685  0.021381216            3 
 1537000    1.0019601   -7.7038954    397.69961  0.021562547  0.021374829            2 
 1538000    1.0044252   -7.7211884    396.70433  0.021494599  0.021368492            2 
 1539000    1.0132113   -7.7337094    396.93339  0.021493036  0.021362088            8 
 1540000    1.0005527   -7.7606119     396.6908  0.021465952  0.021355597            2 
 1541000    1.0063536   -7.7178772    397.05381  0.021471653  0.021349053            2 
 1542000   0.99981047    -7.735465    397.19955  0.021465605  0.021342554            2 
 1543000   0.99484872   -7.7233227    397.99818  0.021494825  0.021336163            4 
 1544000     1.013526   -7.7411861    396.66577   0.02140899  0.021329664            3 
 1545000    1.0105376   -7.7620701     398.4088  0.021489148  0.021323082            4 
 1546000    1.0166133   -7.7616025    397.77338  0.021440997  0.021316587            8 
 1547000    1.0193149   -7.7210318    398.48098  0.021465254  0.021310101            2 
 1548000   0.98471903   -7.7935236    396.95486  0.021369232  0.021303497            2 
 1549000   0.98699567   -7.7566566    397.83552  0.021402815  0.021296898            4 
 1550000    1.0127038   -7.7573047    398.15887  0.021406391  0.021290349            3 
 1551000    1.0179088   -7.7348242    397.11757  0.021336641  0.021283717            3 
 1552000    1.0143084   -7.7783761    397.20871  0.021327787  0.021277087            3 
 1553000    1.0130462   -7.7594148    397.17566   0.02131228  0.021270379            2 
 1554000   0.99129853    -7.758865    398.08022  0.021347073  0.021263696            3 
 1555000    1.0194185   -7.7633966    398.84351   0.02137425  0.021257036            2 
 1556000    1.0033793     -7.74526     399.8382  0.021413786  0.021250454            5 
 1557000    1.0368861   -7.7547535    398.52087  0.021329526  0.021243764           11 
 1558000   0.98840858   -7.7693518    398.05108  0.021290708  0.021237108            7 
 1559000   0.98410235    -7.776479    398.73197  0.021313447  0.021230427            5 
 1560000     1.005143   -7.7694696    397.69809  0.021244556  0.021223734            3 
 1561000   0.98745777   -7.8271904    398.12459  0.021253715  0.021217009            2 
 1562000    1.0020363   -7.7647107    400.64017  0.021374315   0.02121036            3 
 1563000    1.0215706    -7.793131    397.85797  0.021212304  0.021203698            3 
 1564000    1.0043424   -7.7725742    398.54624  0.021235413  0.021197005            3 
 1565000   0.98555096   -7.7700656    398.72509  0.021231368    0.0211903            3 
 1566000     1.009086    -7.762526    399.51922  0.021260069  0.021183568            2 
 1567000   0.99154308   -7.7771031    398.34696  0.021184161  0.021176803            2 
 1568000   0.99088666   -7.7948984    397.95253  0.021149688  0.021170046            6 
 1569000    1.0168109   -7.8104369    398.35233  0.021157443  0.021163097            2 
 1570000     1.015055   -7.7881954    399.72993  0.021217088  0.021156281            4 
 1571000    1.0093594   -7.7755571    397.80846  0.021101658  0.021149407            4 
 1572000    1.0108477   -7.7520896    399.86961  0.021197498   0.02114256            5 
 1573000   0.99229841   -7.7921174    398.25087  0.021098266  0.021135625            3 
 1574000   0.99273703   -7.7205599    400.81179  0.021220446  0.021128754            2 
 1575000    1.0105314   -7.7640315    399.96345  0.021162087  0.021121879            2 
 1576000    1.0080441   -7.7783863    400.48244  0.021176102  0.021115013            2 
 1577000    1.0129593   -7.7545426    399.67013  0.021119749  0.021108191            2 
 1578000   0.99365307   -7.7428204    400.60596  0.021155786   0.02110133            4 
 1579000   0.99898284   -7.7593131    398.88132  0.021051368   0.02109449            4 
 1580000   0.98912268   -7.7655488    400.15123  0.021105023  0.021087694            1 
 1581000    0.9878095   -7.7962527    399.63174  0.021064292  0.021080964            4 
 1582000    0.9906977   -7.8288605    398.52692  0.020992779  0.021074066            2 
 1583000    1.0047038   -7.7530701    400.74512   0.02109629  0.021067181            4 
 1584000    1.0186304   -7.7213509    400.68141   0.02107962  0.021060403            2 
 1585000   0.99923371   -7.7773538    400.86382   0.02107591   0.02105355            3 
 1586000   0.98700451   -7.7741222    400.13902  0.021024539  0.021046707            3 
 1587000   0.98642356   -7.7647677    401.92302  0.021104968  0.021039899            4 
 1588000   0.98890956   -7.7453682     402.5481  0.021124481  0.021033203            3 
 1589000    1.0005028   -7.7530908    401.37164  0.021049488  0.021026541            4 
 1590000    1.0039466   -7.7807203    401.39601  0.021037527  0.021019808            4 
 1591000   0.98336294   -7.7518646    402.99597  0.021108107  0.021013065            5 
 1592000    1.0060458   -7.8078075    401.02343  0.020991595  0.021006264            2 
 1593000     0.988335   -7.7398303    402.56681  0.021059155  0.020999553            3 
 1594000   0.99932014   -7.7775979    402.17753  0.021025592  0.020992844            2 
 1595000    1.0010962   -7.7599157    403.00704  0.021055749  0.020986108            4 
 1596000    0.9937404   -7.7638436    404.60115  0.021125791  0.020979358            4 
 1597000    0.9834582   -7.7939311    402.01263  0.020977491  0.020972665            3 
 1598000   0.99707747   -7.7760595    402.90122  0.021010702  0.020965869           10 
 1599000   0.98731236   -7.7624393    403.79256  0.021044015  0.020959185            2 
 1600000   0.98460907    -7.772552    402.89724  0.020984231  0.020952435            2 
 1601000    1.0025654   -7.8024398    403.48396  0.021001664  0.020945687            5 
 1602000   0.98731455   -7.7920309    402.44946  0.020934741  0.020938876            6 
 1603000   0.99013693   -7.7838464    404.61046  0.021034023  0.020932176            2 
 1604000   0.98574253   -7.7744809    404.12958  0.020995926  0.020925465            3 
 1605000   0.98379925   -7.7849296    403.70946  0.020961031  0.020918763            3 
 1606000   0.98187251   -7.7975087     403.3935  0.020931585  0.020912046            5 
 1607000   0.98842399   -7.7695654    404.36288  0.020968828  0.020905269            5 
 1608000    1.0205118    -7.791247    403.10109  0.020890396  0.020898561            4 
 1609000   0.97423148    -7.760821    404.38479  0.020943898   0.02089187            3 
 1610000    1.0014016   -7.7183167    404.76102  0.020950364  0.020885128            4 
 1611000   0.99302265   -7.7336096    405.31836  0.020966189  0.020878414            4 
 1612000   0.98388733   -7.8078022    403.94397  0.020882133  0.020871674            5 
 1613000    1.0130518   -7.8296395    403.68055  0.020855577  0.020864812            3 
 1614000   0.98679621   -7.8072696    404.25693  0.020872415  0.020858018            5 
 1615000    1.0184118    -7.775602    406.22356  0.020960968  0.020851306            5 
 1616000   0.97887124   -7.7742385    405.38345  0.020904675  0.020844572            2 
 1617000   0.98477032   -7.7949324    404.68547  0.020855776  0.020837803            4 
 1618000     1.009687   -7.7659591    406.49478  0.020936072  0.020831185            5 
 1619000   0.98706631   -7.8064152    406.23166  0.020909597  0.020824539            8 
 1620000    0.9814045   -7.8060031    405.86691  0.020877927  0.020817787            5 
 1621000    1.0066214   -7.7893333    405.81464   0.02086236  0.020811038            2 
 1622000   0.99841759   -7.8161386    406.50268  0.020884848  0.020804301            8 
 1623000   0.96288873   -7.8141779    406.97317  0.020896137  0.020797528            6 
 1624000    1.0105523   -7.7888121    406.42669  0.020855228  0.020790791            3 
 1625000   0.99456918   -7.7673051    407.77569  0.020911574  0.020784124           13 
 1626000    1.0032786    -7.810988    406.63998  0.020840508  0.020777484            2 
 1627000   0.97925331   -7.8292583    406.53182  0.020822158  0.020770773            6 
 1628000    1.0029399   -7.8160672    406.83317  0.020824794  0.020764122            1 
 1629000   0.98628038   -7.7866793    407.09886  0.020825601  0.020757496            2 
 1630000    1.0012832   -7.8352554    407.48207  0.020832417  0.020750842            2 
 1631000   0.99538882   -7.8139551     407.7089  0.020831233  0.020744157            3 
 1632000    1.0005914   -7.8253165    406.75289  0.020769653  0.020737521            7 
 1633000    1.0017375   -7.7865677    408.69469  0.020856026  0.020730881            3 
 1634000   0.97922694   -7.7988631    407.80422  0.020797849  0.020724279            5 
 1635000   0.99532541   -7.7990687    408.49541  0.020820357  0.020717683            5 
 1636000   0.97205048    -7.798257     408.6845  0.020817262  0.020711067            7 
 1637000   0.98463474    -7.806318    408.85704  0.020813329  0.020704438            4 
 1638000   0.99351114   -7.7565858    407.97829  0.020755916  0.020697841            3 
 1639000   0.98800073   -7.8125791    409.23773  0.020807287  0.020691233            2 
 1640000    0.9978748   -7.8293652    408.37199  0.020750609    0.0206846            3 
 1641000    1.0245391   -7.8048992    407.92088  0.020715056   0.02067797            5 
 1642000   0.98139948   -7.7738532    411.08687  0.020863118  0.020671265            3 
 1643000    1.0102421   -7.8025028     408.3337  0.020710778  0.020664681            4 
 1644000   0.97940493   -7.7749947    409.89739  0.020777443  0.020658092            4 
 1645000    1.0038094   -7.8016072    409.33865  0.020736507  0.020651463            2 
 1646000   0.98537164   -7.8227649    409.62401  0.020738356    0.0206448            5 
 1647000   0.96007106    -7.799275    411.39189  0.020815214  0.020638288            3 
 1648000    1.0142322   -7.7733689     410.8263  0.020773984  0.020631853            3 
 1649000   0.99809298   -7.8334867    410.62624  0.020751275  0.020625348            3 
 1650000   0.99590835   -7.7860145    410.44863  0.020729729  0.020618807            2 
 1651000   0.97759808   -7.7929451     412.0368  0.020797335   0.02061222            2 
 1652000   0.99102347   -7.7910999    410.17747  0.020690954  0.020605637            3 
 1653000   0.98571916   -7.7908941    411.39232  0.020739682  0.020599123            3 
 1654000   0.97912555   -7.7942473    410.86877  0.020700764  0.020592627            2 
 1655000    1.0196116   -7.7919142    410.78912  0.020684246  0.020586123            2 
 1656000   0.95600555   -7.7658837    412.82433  0.020774171  0.020579575            3 
 1657000    1.0013002    -7.781966    411.69706  0.020704942  0.020573076            2 
 1658000    0.9848075   -7.7991614    411.79321  0.020697286  0.020566539            3 
 1659000   0.97096045   -7.8080868     411.2745  0.020658755  0.020559916            4 
 1660000    1.0024716   -7.8104045    410.39205   0.02060201  0.020553233            4 
 1661000    0.9722438    -7.776203    410.66797   0.02060345  0.020546545            5 
 1662000   0.97954187   -7.8186951    411.34501  0.020625001  0.020539921            5 
 1663000   0.99147314    -7.787068    411.57291  0.020624018  0.020533354            5 
 1664000    0.9973445   -7.7916637    412.58211  0.020662165  0.020526836            4 
 1665000   0.99172867   -7.7925624    412.00657  0.020620949  0.020520369            5 
 1666000   0.98692783   -7.8121912    412.27578  0.020622038  0.020513892            4 
 1667000   0.98634692   -7.7470412    412.25369  0.020608563  0.020507428            2 
 1668000   0.98837483   -7.8153624    411.95224  0.020581147  0.020500878            5 
 1669000   0.99676594   -7.8338756    411.80945  0.020561686  0.020494211            5 
 1670000   0.98731731   -7.8406586    411.75041  0.020546428  0.020487582            3 
 1671000   0.98222486   -7.8145067    412.06536  0.020549838  0.020481058            4 
 1672000    0.9926982   -7.7784293    413.29435  0.020598801  0.020474518            4 
 1673000   0.97855885   -7.7946113     413.5408  0.020598764  0.020467932            2 
 1674000   0.98025413   -7.7663001    414.46532  0.020632483  0.020461442            5 
 1675000   0.99773079   -7.7832221    412.82375  0.020538495  0.020454905            1 
 1676000   0.99222286   -7.8110632    412.48027  0.020509162  0.020448314            8 
 1677000   0.99754568   -7.7980793    412.56143  0.020500965   0.02044166            4 
 1678000   0.97826423    -7.807277    412.79442  0.020500319  0.020435045            3 
 1679000    0.9947953   -7.8129426    414.32188  0.020563921  0.020428441            6 
 1680000   0.99798931   -7.8139727    413.82728  0.020527147  0.020421852            4 
 1681000   0.99738544   -7.8292586    413.12311  0.020480027  0.020415335            5 
 1682000   0.97242453     -7.78886    414.22465  0.020522426  0.020408764            3 
 1683000    0.9818644   -7.8478547    413.03347  0.020451251   0.02040216            7 
 1684000   0.97627241   -7.7745406     414.3804   0.02050576  0.020395609            4 
 1685000   0.98146336   -7.8276342    413.77676  0.020463737  0.020388996            6 
 1686000   0.96014997   -7.8207077    415.17624  0.020520771  0.020382471            3 
 1687000   0.98153414   -7.8274466    414.50504  0.020475452   0.02037593            3 
 1688000   0.98548932   -7.8268302    414.15622  0.020446101  0.020369383            4 
 1689000   0.99704794   -7.8259522    414.82857  0.020467168  0.020362681            6 
 1690000   0.99150543   -7.8039782    414.47151  0.020437451   0.02035604            6 
 1691000   0.97984535    -7.790077    415.01902  0.020452347   0.02034941            4 
 1692000   0.98710714   -7.7763525    414.84207  0.020431544  0.020342816            5 
 1693000   0.98104336   -7.8000982    415.60388  0.020456974  0.020336241            3 
 1694000   0.97678336   -7.8377816    414.04033  0.020367982  0.020329572            9 
 1695000   0.96114611   -7.8196083    415.74897  0.020439969  0.020322933            5 
 1696000   0.98458534   -7.8631711    414.79267  0.020380929  0.020316307            5 
 1697000   0.97957123   -7.8126451    416.33037   0.02044443  0.020309745            3 
 1698000   0.97896156   -7.8322635    415.62309  0.020397678  0.020303175            2 
 1699000   0.97456178    -7.809743    415.54208  0.020381699  0.020296577            3 
 1700000   0.97203642   -7.8245954    415.32643  0.020359139  0.020290117            5 
 1701000   0.99510856   -7.8207387    415.91479  0.020375994  0.020283557            5 
 1702000   0.98059906   -7.8296034    415.79272  0.020358046  0.020276962            2 
 1703000   0.97673017   -7.8336066    416.12529  0.020362365  0.020270312            2 
 1704000   0.96249945   -7.8259193    417.50525  0.020417901  0.020263711            6 
 1705000    0.9662142   -7.7954676    417.37803  0.020399708   0.02025718            2 
 1706000   0.96359154    -7.801031    417.98034  0.020417172  0.020250697            5 
 1707000   0.98118686   -7.7988832    418.01092  0.020406704  0.020244295            3 
 1708000    0.9897408   -7.8260618    417.71573  0.020380354  0.020237829            3 
 1709000    0.9785207    -7.771157    418.10495  0.020387407  0.020231376            3 
 1710000   0.98180215   -7.7662044    419.44986  0.020441026  0.020224983            3 
 1711000   0.96994778   -7.8097447    418.59354  0.020387373  0.020218628            4 
 1712000   0.97537172   -7.7958823    418.54421  0.020373063  0.020212211            5 
 1713000   0.98833296   -7.7980237    419.15565  0.020390915  0.020205843            2 
 1714000   0.99155605   -7.8474151    418.90457  0.020366811  0.020199434            4 
 1715000   0.97826033   -7.8179762    419.03773  0.020361406  0.020193073            6 
 1716000   0.99100609    -7.841465    418.23312  0.020310466   0.02018665            4 
 1717000   0.98970277   -7.8426527    417.43215  0.020259763  0.020180114            2 
 1718000   0.96467861   -7.8092668    418.44053  0.020296882  0.020173683            4 
 1719000   0.98657708   -7.7770626    419.03993  0.020314133  0.020167302            3 
 1720000    0.9751536   -7.8275083    419.30718  0.020315271  0.020160872            5 
 1721000   0.96329447   -7.8324948    418.64977  0.020271633  0.020154302            3 
 1722000   0.96985177   -7.8406063    419.00728  0.020277162  0.020147717            4 
 1723000   0.96981247    -7.833602    418.38569   0.02023533  0.020141147            4 
 1724000   0.96265574   -7.8347874    419.19046  0.020262493  0.020134599            6 
 1725000   0.97964872    -7.815584    419.05136  0.020244027   0.02012811            3 
 1726000   0.98707677   -7.8133183    420.24602  0.020289978  0.020121634            2 
 1727000   0.96891734   -7.8061448    419.68059  0.020250945  0.020115201            2 
 1728000   0.96564728   -7.8116124     420.3077  0.020269469  0.020108823            7 
 1729000   0.99864256   -7.8313284    420.81805  0.020282343  0.020102398            3 
 1730000   0.99334219   -7.7965024     420.7954  0.020269528  0.020096019            3 
 1731000   0.98090706   -7.8246173    420.74575  0.020255428  0.020089613            3 
 1732000   0.98019017    -7.835675    420.83812  0.020248177  0.020083187            3 
 1733000   0.99099843   -7.8335142    419.55048  0.020174576   0.02007673            6 
 1734000   0.96820987   -7.8226087    420.90661  0.020228115  0.020070266            9 
 1735000    1.0001608    -7.847222    420.77063  0.020209925  0.020063801            4 
 1736000   0.96825255   -7.8509703     421.3657  0.020226848  0.020057301            3 
 1737000   0.97023474   -7.8438999    420.74426   0.02018539  0.020050795            7 
 1738000   0.98457075   -7.8662026    419.53336  0.020115715   0.02004422           10 
 1739000   0.97026562    -7.836434    420.99959   0.02017441  0.020037728            6 
 1740000   0.96805234   -7.7744339    422.04535    0.0202129  0.020031351            3 
 1741000   0.95239872   -7.7791912    422.52032  0.020224024  0.020024999           10 
 1742000   0.96395755   -7.8159099    420.72897  0.020126721  0.020018614            4 
 1743000   0.98908447   -7.8562386    420.93917  0.020125223   0.02001211           10 
 1744000   0.96193924   -7.8519224    420.89165  0.020111413  0.020005625            3 
 1745000   0.97339801   -7.8381021    420.71333  0.020091372  0.019999088            2 
 1746000   0.97923356   -7.8371728    421.67081  0.020125563   0.01999255            1 
 1747000   0.96340466    -7.862527    420.69909  0.020067692  0.019986003            5 
 1748000   0.97018033   -7.8651305    421.44138  0.020091599  0.019979461            2 
 1749000   0.95825821   -7.8586293    421.74755  0.020094699  0.019972944            1 
 1750000   0.96815251   -7.8214133    421.94003  0.020092382  0.019966396            3 
 1751000   0.98436587    -7.837206     421.4918  0.020059575  0.019959944            5 
 1752000   0.98127428   -7.8255815    421.86273  0.020065769  0.019953471            6 
 1753000   0.95443132   -7.8193912    422.67845    0.0200931  0.019947031            3 
 1754000   0.97852078    -7.813111    423.65066  0.020127834  0.019940573            5 
 1755000   0.95794077   -7.8491367    421.83654  0.020030225  0.019934154            5 
 1756000   0.97949334   -7.8867266     421.7769  0.020015988  0.019927639            7 
 1757000   0.96178213   -7.8767423     422.0904  0.020019465  0.019921085            6 
 1758000   0.98602942   -7.8410816    422.19136  0.020012863  0.019914533            4 
 1759000   0.95530776   -7.8587382    423.24398  0.020051354  0.019908042            2 
 1760000   0.96911681   -7.8742659    421.83248  0.019973129  0.019901503            3 
 1761000   0.98961704   -7.8294883    425.06349  0.020114683  0.019895006            4 
 1762000   0.96254705   -7.8686829    423.48165  0.020028455  0.019888464            4 
 1763000   0.95463901   -7.8655701     422.3305  0.019962682  0.019881891            8 
 1764000   0.95863735   -7.8621207    423.49526   0.02000639  0.019875374            4 
 1765000    0.9847863   -7.8669408    423.13362   0.01997798  0.019868882            2 
 1766000    1.0053032   -7.8267613    424.01546   0.02000828  0.019862384            4 
 1767000   0.98463735   -7.8694523    423.15959  0.019956593  0.019855912            3 
 1768000   0.96913476   -7.8520837    423.58172  0.019965202  0.019849445            2 
 1769000   0.98994811   -7.8523161    423.77356  0.019962953  0.019842996            3 
 1770000   0.96380793   -7.8622502    423.80022   0.01995293  0.019836513            3 
 1771000   0.96589832   -7.8533072    422.76598  0.019892997  0.019830013            5 
 1772000    0.9426825   -7.8542012    424.79557  0.019977218  0.019823473            2 
 1773000    0.9744546   -7.8447461    424.54946  0.019954383  0.019816925            6 
 1774000   0.97319472   -7.8654798    424.07469  0.019920833  0.019810388            3 
 1775000   0.98103321   -7.8519586    425.35905  0.019969908  0.019803908           10 
 1776000   0.96157381   -7.8556714    424.63014  0.019924462   0.01979741            6 
 1777000   0.95637932   -7.8655455    422.66963  0.019821311  0.019790889            2 
 1778000   0.96322309   -7.8382455    424.82083  0.019910988  0.019784348            2 
 1779000   0.96257877   -7.8823879    424.49895  0.019884718  0.019777828            5 
 1780000   0.98221372   -7.8603578    426.17718  0.019952115  0.019771332            5 
 1781000   0.96276674   -7.8942926    423.29508  0.019806058  0.019764821            3 
 1782000   0.96064721   -7.8886583    424.13902   0.01983441   0.01975832            7 
 1783000   0.98716832   -7.8716683     424.2286  0.019827472  0.019751803            9 
 1784000   0.95030648   -7.8006901    425.93696  0.019896158  0.019745442            2 
 1785000   0.98348859   -7.8525953    427.14685  0.019941496  0.019739064            5 
 1786000   0.98424074   -7.8974244    424.67483  0.019814988   0.01973265            3 
 1787000   0.97441026   -7.8675413    425.04922  0.019821359  0.019726229            4 
 1788000    0.9740162   -7.8464694    426.49802  0.019877797  0.019719886            4 
 1789000   0.96633275   -7.8610738    425.72238  0.019830556  0.019713486            4 
 1790000   0.97629048   -7.8250709    426.58513  0.019859643    0.0197071            8 
 1791000   0.96780979   -7.8175208    426.13906  0.019827799  0.019700695            5 
 1792000   0.95196489   -7.8656794    426.19164   0.01981918  0.019694286            4 
 1793000   0.97984034   -7.8498782     426.4894  0.019821965  0.019687848            7 
 1794000   0.94190908   -7.8657681    426.18487   0.01979677  0.019681387            4 
 1795000   0.96267579   -7.8623243    425.90256  0.019772635  0.019674923            4 
 1796000   0.96383227   -7.8385672    426.72071  0.019799588  0.019668481            6 
 1797000   0.96793805   -7.8439599    427.02772  0.019802806  0.019662046           10 
 1798000   0.95754599   -7.8920503    426.61987   0.01977289  0.019655562            8 
 1799000   0.95863281   -7.8728637    427.51236  0.019803241  0.019649016           12 
 1800000    0.9566977   -7.8229258    427.71242  0.019801501  0.019642581            6 
 1801000    0.9732746   -7.8522851    428.36484  0.019820694  0.019636144            4 
 1802000   0.97168189   -7.8132042    427.69803  0.019778858  0.019629672            5 
 1803000   0.95445848   -7.8659355     427.5529  0.019761181  0.019623228            3 
 1804000   0.95903324   -7.8517336     427.8786  0.019765272  0.019616821            1 
 1805000   0.97145573   -7.8739439    426.29188  0.019681066  0.019610325            2 
 1806000   0.99045099   -7.8718138     427.6571  0.019733162  0.019603702            5 
 1807000    0.9780085   -7.8628667    427.31348  0.019706395  0.019597113            6 
 1808000   0.97588068   -7.8690626    426.95909  0.019679161  0.019590604            3 
 1809000   0.94261103    -7.867326    427.44002  0.019690438  0.019584079            5 
 1810000   0.98795418   -7.8560191    426.90735  0.019655034  0.019577492            3 
 1811000   0.97053119   -7.8615025    427.04806  0.019650656  0.019570928            3 
 1812000   0.97174518   -7.8642189    426.26545   0.01960382  0.019564304            3 
 1813000   0.95997509   -7.8649895    427.49329  0.019649443  0.019557713            3 
 1814000   0.96107097   -7.8708052    427.45005  0.019636625  0.019551075            3 
 1815000   0.93318255   -7.8470213    427.44659  0.019625647  0.019544501            3 
 1816000   0.97081957   -7.8857089    428.47031  0.019661817  0.019537928            3 
 1817000    0.9503854   -7.8900885    426.89909  0.019578935  0.019531359            4 
 1818000   0.94861982   -7.8703892     428.0089  0.019619037  0.019524791            5 
 1819000   0.96738281   -7.8539827    427.34185  0.019577691  0.019518239            4 
 1820000   0.97885452   -7.9092256    428.26573  0.019609237  0.019511762            4 
 1821000    0.9597639   -7.8311331    429.82967  0.019670038  0.019505222            3 
 1822000   0.96266925   -7.8784623    429.19312  0.019630128  0.019498772            3 
 1823000   0.93130999   -7.8700652    429.79939  0.019647074  0.019492304            4 
 1824000   0.95977445   -7.8693089    429.53813  0.019624366  0.019485847            2 
 1825000   0.96778432   -7.8486599    430.10463  0.019639481  0.019479439            3 
 1826000   0.97772367   -7.8457754    430.79886  0.019660408  0.019473043            3 
 1827000   0.95262893   -7.8632067    430.14818  0.019619968  0.019466693            3 
 1828000    0.9515963   -7.8650694    430.10009  0.019607043   0.01946022            1 
 1829000   0.95152479    -7.899804     430.9631  0.019635643  0.019453793            5 
 1830000   0.92891664   -7.8457714    430.58739  0.019607805   0.01944732            2 
 1831000   0.97593977   -7.8977993    429.06382  0.019527755  0.019440844            2 
 1832000   0.96813083   -7.8276509    430.44532  0.019579936   0.01943447            5 
 1833000   0.94772568   -7.8338293     431.5798  0.019620831  0.019428131            5 
 1834000   0.94482905   -7.8752184    430.50326  0.019561217  0.019421744           11 
 1835000   0.97186773   -7.8711334    430.38257  0.019545076  0.019415342            5 
 1836000   0.94063048   -7.8577587    432.38234  0.019625197  0.019408924            3 
 1837000   0.94623377   -7.8067558     433.1318  0.019648512  0.019402625            2 
 1838000   0.93080225   -7.8721641     432.0817  0.019590211  0.019396356            3 
 1839000    0.9594037   -7.8670681    431.64062  0.019559571  0.019390054            4 
 1840000   0.96098338   -7.8814835     432.0063  0.019565503  0.019383714            7 
 1841000   0.98336165     -7.87119    431.88558  0.019549411  0.019377347            3 
 1842000   0.94424416   -7.8917762    430.83336  0.019491194  0.019370934           12 
 1843000   0.95388406   -7.8805735    431.78757  0.019523764  0.019364528            3 
 1844000    0.9371885   -7.9112063    431.33624   0.01949278  0.019358094            4 
 1845000   0.94010002   -7.9222748    429.58767  0.019403237  0.019351604            2 
 1846000   0.94798066   -7.8656994    431.60135  0.019483629  0.019345108            4 
 1847000   0.95664517   -7.8835966     432.1942  0.019499829  0.019338674            4 
 1848000   0.96064126    -7.850333     431.5962  0.019462311  0.019332315            6 
 1849000   0.95840524   -7.9013372    432.21688  0.019479759  0.019325957            2 
 1850000    0.9575099   -7.9144505     431.2297  0.019424761  0.019319529            4 
 1851000    0.9519013   -7.9118952    431.53875  0.019428181  0.019313083            4 
 1852000   0.95187102   -7.9120932    432.31314  0.019452535  0.019306704            4 
 1853000   0.95478353   -7.8668616    432.46342  0.019448795  0.019300358            2 
 1854000   0.94193406   -7.8512528    434.31707  0.019521623  0.019294028            6 
 1855000   0.96245209   -7.8701211    433.36517  0.019468337  0.019287781            3 
 1856000   0.96919518   -7.8532595    432.04923  0.019398762  0.019281492            3 
 1857000   0.96342288   -7.8690865    433.82291   0.01946791  0.019275149            4 
 1858000   0.94297738   -7.9235278    432.96106  0.019418778  0.019268866            4 
 1859000   0.96356282   -7.8968639    434.11409  0.019460019  0.019262482            3 
 1860000   0.96119892   -7.9146804    433.05043  0.019401901  0.019256101            4 
 1861000   0.94958101   -7.9198168    432.42156  0.019363316  0.019249718            4 
 1862000   0.95692634   -7.8878422    434.23729  0.019434179  0.019243337            4 
 1863000    0.9435027   -7.8829394    433.59127   0.01939485  0.019237017            2 
 1864000   0.96547701     -7.89557    433.62138  0.019385791  0.019230728            4 
 1865000   0.96192509   -7.9166936    433.28534  0.019360382  0.019224302            3 
 1866000   0.95303847   -7.9005051    433.74609  0.019370583  0.019217916            6 
 1867000   0.96030956   -7.9058343    433.81836  0.019363433  0.019211543            3 
 1868000   0.95450415   -7.9338808    432.66808  0.019301752  0.019205166            9 
 1869000   0.97346581   -7.9040364    432.32283  0.019276031  0.019198711            5 
 1870000   0.94907942   -7.9477943    432.40998  0.019269607  0.019192215            2 
 1871000   0.95127083   -7.8896562    433.48697  0.019307276  0.019185687            7 
 1872000   0.94520478    -7.913752    432.41344  0.019249174    0.0191792            8 
 1873000   0.95893738    -7.920923    433.21193  0.019274423  0.019172703            6 
 1874000     0.967603   -7.8908221    432.44147  0.019229877    0.0191662            7 
 1875000   0.94771395   -7.9031215    434.04304  0.019290802  0.019159743            3 
 1876000   0.94111375   -7.9374596    432.96103  0.019232455  0.019153305            2 
 1877000   0.95251543   -7.9211081    433.81877   0.01926029  0.019146724            8 
 1878000   0.97074746   -7.9528436    433.15855  0.019220738  0.019140161            7 
 1879000    0.9336129   -7.8946226    435.40496  0.019310136  0.019133701            5 
 1880000   0.95260505    -7.896685    435.74626  0.019314994  0.019127254            5 
 1881000   0.94857837   -7.8802722    434.37056  0.019243778  0.019120826            3 
 1882000   0.95628238   -7.9077032    434.71796  0.019248935  0.019114409            6 
 1883000   0.92493154    -7.895784    435.44253  0.019270779  0.019107955            3 
 1884000   0.96778371   -7.9129845    433.85282  0.019190234  0.019101502            7 
 1885000   0.97656825   -7.8711822    435.44398  0.019250397  0.019095039           10 
 1886000   0.95636739   -7.8973109    435.47041  0.019241358  0.019088643            9 
 1887000   0.96758545   -7.9203209    435.76118  0.019244002  0.019082236            4 
 1888000    0.9493048    -7.899847    435.00781  0.019200557  0.019075774            4 
 1889000   0.94540143   -7.8957719    435.10259  0.019194574  0.019069367            4 
 1890000   0.94802512    -7.892298    435.83005  0.019216493  0.019063012            2 
 1891000   0.92221003   -7.8986356    434.73127  0.019157909  0.019056587            3 
 1892000   0.94433828    -7.884702    436.48834  0.019225174  0.019050168            5 
 1893000   0.94750022   -7.8928627     436.8713  0.019231876  0.019043803            5 
 1894000   0.96119888   -7.8848933    436.35076  0.019198819  0.019037434            3 
 1895000   0.94837007   -7.8990522     435.6789  0.019159142  0.019031001            4 
 1896000   0.94317897   -7.9371235    436.07085  0.019166264  0.019024623            4 
 1897000   0.93071734   -7.9199604    436.34294  0.019168114   0.01901825            3 
 1898000   0.93830143   -7.8848167    435.80506  0.019134398  0.019011907            5 
 1899000    0.9476534    -7.871643    437.83643  0.019213465  0.019005546            4 
 1900000   0.95909005   -7.8514481    436.98076  0.019165823  0.018999238            2 
 1901000   0.96463686   -7.9078108    437.73453  0.019188783  0.018992915            4 
 1902000   0.94891044    -7.868491    437.03143   0.01914789  0.018986636            4 
 1903000   0.93872399   -7.8906052    436.70696  0.019123619  0.018980416            4 
 1904000   0.96093565     -7.92933    438.11688  0.019175284  0.018974031            4 
 1905000   0.93963452   -7.9352221    439.12401  0.019209274  0.018967633            4 
 1906000   0.94162765   -7.8956385    437.68908  0.019136458    0.0189613            3 
 1907000   0.96091409   -7.8951814    437.24094   0.01910684  0.018954952            6 
 1908000   0.96023147   -7.8909627    437.56909  0.019111159  0.018948642            8 
 1909000   0.92643742   -7.9199733    436.68503  0.019062556  0.018942278            9 
 1910000   0.96116783   -7.8949232    437.86415  0.019104021  0.018935949           11 
 1911000   0.94113934    -7.920775    438.45995  0.019120005  0.018929623            7 
 1912000   0.94009015   -7.9479666    437.69341  0.019076596  0.018923231           12 
 1913000   0.95204607   -7.8976909    438.71479  0.019111117  0.018916881            3 
 1914000   0.95016693   -7.9095066    438.16357  0.019077132  0.018910563            5 
 1915000   0.93765026   -7.8820681    438.94774  0.019101294   0.01890433            2 
 1916000   0.95595053    -7.912281    438.56465  0.019074663  0.018898165            7 
 1917000   0.95446061    -7.895495    439.64847  0.019111827   0.01889196            3 
 1918000   0.94890335   -7.9130396    439.74316  0.019105977  0.018885748            2 
 1919000   0.95278904   -7.9659458    438.84274  0.019056919  0.018879503            5 
 1920000   0.97363018   -7.9863258    438.03041  0.019011737  0.018873217            7 
 1921000   0.94108303   -7.9614744    439.05058  0.019046095  0.018866952            3 
 1922000   0.93685162   -7.9682611    438.32031  0.019004523  0.018860657            3 
 1923000   0.93413309   -7.9400247    438.04376  0.018982655  0.018854323           12 
 1924000   0.93661078   -7.9322994    439.35612  0.019029631  0.018848034            8 
 1925000     0.934175   -7.9328495    439.13306  0.019010089  0.018841773            3 
 1926000   0.95408331    -7.948416    439.22623   0.01900425  0.018835501            3 
 1927000   0.94468191   -7.9223042    440.94187  0.019068581  0.018829316            5 
 1928000   0.93572993   -7.8874098    439.20909  0.018983796  0.018823082            3 
 1929000   0.92115287   -7.9065298    441.39571  0.019068417  0.018816879           10 
 1930000   0.93836938   -7.9188532    440.60031  0.019024193  0.018810692            3 
 1931000   0.95440244   -7.9122862     441.1119  0.019036419  0.018804582            3 
 1932000   0.93855571   -7.8978212    441.49654  0.019043156  0.018798538            2 
 1933000   0.93258055   -7.9092937    440.30872  0.018982097  0.018792487            3 
 1934000    0.9298375   -7.9206034    441.69081  0.019031834  0.018786386            2 
 1935000   0.92374287   -7.9100575    441.47172  0.019012563  0.018780267            6 
 1936000   0.92757972     -7.88969    441.99068  0.019025081  0.018774213            2 
 1937000   0.94544318   -7.8943973    441.99898  0.019015616  0.018768136            3 
 1938000   0.94004081   -7.9375905    441.70359  0.018993102  0.018762041            5 
 1939000   0.94656779   -7.9498886    440.89286  0.018948464  0.018755898            2 
 1940000   0.94768191   -7.9495728    439.95749  0.018898517  0.018749697            6 
 1941000   0.94674823   -7.9489468      441.407  0.018951013   0.01874351            2 
 1942000   0.92994905   -7.9467263    441.32671   0.01893781  0.018737363            7 
 1943000   0.92377032   -7.8760855    443.25947  0.019010957  0.018731277            6 
 1944000   0.95879175   -7.9377522    443.20165  0.018998699  0.018725208            3 
 1945000   0.96711787   -7.9405841    441.85011  0.018931024  0.018719069            4 
 1946000   0.95103691   -7.9234565    441.71832  0.018915653  0.018712921            4 
 1947000   0.94476552   -7.9375463    442.02145  0.018918911  0.018706803            5 
 1948000    0.9286474   -7.9260497    442.10388  0.018912726  0.018700721            1 
 1949000   0.95568889   -7.9434494     443.0466   0.01894333  0.018694655            3 
 1950000   0.93171167   -7.9424859    443.36427  0.018947191   0.01868861            7 
 1951000   0.95384584   -7.9118043    442.99817  0.018921842  0.018682553            6 
 1952000   0.93325329   -7.9389178    442.85892  0.018906204  0.018676457            3 
 1953000   0.94267692   -7.9187079    443.70339  0.018932556  0.018670367            3 
 1954000   0.95679294   -7.9504677    442.15765  0.018856945  0.018664265            4 
 1955000   0.92494945   -7.9075602    442.27298  0.018852216  0.018658132            6 
 1956000   0.94377571   -7.9388718    443.41817  0.018891367  0.018651945            6 
 1957000   0.93484451   -7.9260575    443.86492  0.018900738  0.018645781            3 
 1958000   0.94676987   -7.8681439    444.13196   0.01890245  0.018639724            3 
 1959000   0.92738136   -7.9054785    442.93913  0.018842059  0.018633674            7 
 1960000    0.9319412   -7.8998099    444.04757  0.018879574  0.018627527            3 
 1961000   0.93852935   -7.9320501    442.58392  0.018807748  0.018621397            2 
 1962000   0.91566484   -7.9382895    443.78963  0.018849373  0.018615258            3 
 1963000   0.92897571   -7.8810607    443.98441  0.018848039   0.01860909            6 
 1964000   0.92384483   -7.9205306    444.15389  0.018845633  0.018603018            8 
 1965000   0.93398453   -7.9333451    444.44498  0.018848388   0.01859698            6 
 1966000   0.92328013   -7.9513062    444.45484  0.018839218  0.018590923            2 
 1967000   0.93538594   -7.9233929    444.84507  0.018846173  0.018584888            3 
 1968000   0.94659224    -7.905814    445.54603  0.018866279  0.018578898           10 
 1969000   0.95645887   -7.9570832    445.19523   0.01884185   0.01857293            6 
 1970000   0.93596864   -7.9508009    445.63949  0.018851078  0.018566935            2 
 1971000    0.9341661   -7.9349841     445.6235  0.018840838  0.018560988            4 
 1972000   0.95039594   -7.9209103    445.34174  0.018819377  0.018554985            1 
 1973000    0.9257622   -7.9616211    444.87707  0.018790212   0.01854901            5 
 1974000   0.92662976   -7.9380267     445.3706  0.018801528  0.018542946            3 
 1975000   0.90565518   -7.9523127    445.09633  0.018780436    0.0185369            4 
 1976000   0.94207204    -7.929818    445.58884  0.018791702  0.018530849            3 
 1977000   0.93859958   -7.9698393    444.70337  0.018744873  0.018524838            3 
 1978000   0.95370366   -7.9262941    445.65458  0.018775471  0.018518793            6 
 1979000   0.93697265   -7.9396733    445.66185   0.01876629  0.018512748            3 
 1980000   0.92495755   -7.9219846    446.28218   0.01878292  0.018506674            3 
 1981000   0.93567155   -7.9276297    445.66966  0.018747672  0.018500635            2 
 1982000   0.94004905   -7.9012186    446.51908  0.018773927  0.018494551            2 
 1983000   0.94620607   -7.9308856    446.80283  0.018776384  0.018488529            2 
 1984000   0.92893202   -7.9198397    445.99888  0.018733152  0.018482477            8 
 1985000   0.94361797   -7.9518782    444.39801  0.018656508  0.018476422            8 
 1986000    0.9255157   -7.9637564    445.63779  0.018699135  0.018470278           10 
 1987000    0.9379551   -7.9655792    444.56551  0.018644754  0.018464115            2 
 1988000   0.94739406   -7.9957913    445.19581  0.018661796  0.018457896            7 
 1989000   0.91821765   -7.9438743    446.13055  0.018691577   0.01845168            4 
 1990000   0.95104452   -7.9478623    446.18968   0.01868466  0.018445598            5 
 1991000   0.93840876    -7.932683    446.22655  0.018676819   0.01843956            9 
 1992000    0.9038234   -7.9644557    445.68429  0.018644758  0.018433459            5 
 1993000    0.9355429   -7.9395248    445.96619   0.01864719  0.018427352           12 
 1994000   0.93908961   -7.9433859    446.74902  0.018670554  0.018421281            3 
 1995000   0.95355436   -7.9569767    447.73474   0.01870237   0.01841517            4 
 1996000   0.93755117   -7.9184673    446.89208  0.018657819  0.018409009           13 
 1997000   0.93695642   -7.9722764    445.98724  0.018610718  0.018402844            4 
 1998000   0.93185452    -7.975361    445.42407  0.018577914  0.018396666           12 
 1999000    0.9205083   -7.9616628    445.83962  0.018585944  0.018390476            2 
 2000000   0.93712933   -7.9849452    445.17433   0.01854893  0.018384295           10 
 2001000   0.93158382    -7.964163    445.84488  0.018567586  0.018378081            3 
 2002000   0.92488262   -7.9487355    446.68379  0.018593231  0.018371951            6 
 2003000   0.96554221   -7.9386214    447.36364  0.018612233  0.018365828            5 
 2004000   0.91608864   -7.9350965    446.70514  0.018575563  0.018359727            7 
 2005000   0.93813014    -7.947116    446.79105  0.018569869   0.01835359            6 
 2006000   0.93339325   -7.9750788    447.30256  0.018581861  0.018347478            3 
 2007000   0.93975191   -7.9776634    446.40695  0.018535416  0.018341357            4 
 2008000   0.95282079   -7.9896829    447.14105   0.01855665   0.01833521            9 
 2009000   0.92988174   -7.9965743    446.79526   0.01853307   0.01832904            6 
 2010000   0.93634613   -7.9616045    447.31358  0.018545339  0.018322825            5 
 2011000   0.92799793   -7.9572377    447.29796   0.01853547  0.018316696           13 
 2012000   0.92950678   -7.9732004    446.69458  0.018501266  0.018310509            4 
 2013000   0.90152072   -7.9405219     447.2322  0.018514332  0.018304365           10 
 2014000   0.93465934    -7.936845     447.1042  0.018499843  0.018298187            4 
 2015000   0.93435742   -7.9480825    447.79223  0.018519116  0.018291995           11 
 2016000   0.92549309   -7.9538202    446.84372  0.018470723  0.018285833            3 
 2017000   0.92994418    -7.937039    446.06438  0.018429366  0.018279667            4 
 2018000   0.94059423   -7.9601018    447.10864  0.018463357  0.018273508            3 
 2019000    0.9574383   -7.9152681    448.40037  0.018507527  0.018267452            6 
 2020000   0.93655997   -7.9627387    447.34535  0.018454841  0.018261413            4 
 2021000   0.92742875     -7.95592     447.4558  0.018450264  0.018255323            5 
 2022000   0.93615913   -7.9533306    447.69934  0.018451176  0.018249229            2 
 2023000   0.91934927   -7.9710074    448.38861  0.018470449  0.018243188            8 
 2024000    0.9068963   -7.9653664    447.77965   0.01843625    0.0182371            7 
 2025000   0.94503724   -7.9916968    448.29107  0.018448192  0.018230941            2 
 2026000   0.93587861   -7.9626158    448.78171  0.018459267  0.018224821            4 
 2027000   0.95069175   -7.9650133    449.32112  0.018472337  0.018218692            3 
 2028000   0.92656807   -8.0035788    447.62194  0.018393407  0.018212544            6 
 2029000    0.9522559   -8.0313158    446.48673  0.018337717  0.018206373            5 
 2030000   0.93085901   -7.9517489    448.66297   0.01841802    0.0182002            5 
 2031000   0.91083256   -7.9527197    448.38856  0.018397692  0.018194083            9 
 2032000    0.9104354   -7.9764816    449.26991  0.018424783  0.018187974            5 
 2033000    0.9392282   -7.9883987    449.11758  0.018409476  0.018181896            4 
 2034000   0.90062377   -7.9591635    449.82367  0.018429354   0.01817582            4 
 2035000   0.90622888   -7.9426284    450.26564  0.018438396  0.018169774            4 
 2036000    0.9231661   -7.9481017     449.5653  0.018400675  0.018163695            3 
 2037000   0.93563401   -8.0239553     447.3185  0.018299726   0.01815755            6 
 2038000   0.93066829   -7.9648827    449.99499  0.018400188  0.018151405            3 
 2039000   0.91324655   -7.9970225    447.95892   0.01830795  0.018145237            2 
 2040000   0.92618341    -8.000542    448.55464  0.018323311  0.018139013            3 
 2041000   0.91362153    -8.000049    449.17742  0.018339761  0.018132864            5 
 2042000   0.92803101   -8.0024771    449.43701  0.018341373  0.018126687            3 
 2043000   0.92267241   -8.0063635    449.38537  0.018330289  0.018120544            3 
 2044000   0.93617325   -7.9768849    450.33218  0.018359923  0.018114406            4 
 2045000   0.93694555   -7.9709542    450.10422  0.018341655  0.018108237            2 
 2046000   0.93689791   -7.9623461    451.27032  0.018380186  0.018102061            7 
 2047000   0.91439194   -7.9492628    450.68749   0.01834748  0.018095941            3 
 2048000   0.92337782   -7.9775759    450.39607  0.018326663  0.018089825            9 
 2049000    0.9330404   -7.9594067    450.73729  0.018331596  0.018083731            2 
 2050000   0.92332388   -7.9621659    450.84281  0.018326944  0.018077627           10 
 2051000   0.91236573   -7.9813526    451.13309  0.018329802  0.018071582            5 
 2052000   0.95054786   -7.9611741    451.28104  0.018326878   0.01806555            4 
 2053000   0.89732166   -7.9889223    450.81439  0.018299009  0.018059434            3 
 2054000    0.9221402   -8.0221556    450.69054  0.018285075  0.018053376            2 
 2055000   0.91954201    -7.993158    450.28277  0.018259642  0.018047285            5 
 2056000   0.93232115    -7.993963    451.09687  0.018283758  0.018041187            4 
 2057000   0.90465693   -7.9646662    450.73357  0.018260151  0.018035123            3 
 2058000   0.92284498    -7.984209    451.60675  0.018286635  0.018029118           10 
 2059000   0.91099685   -7.9733339    452.06811  0.018296427  0.018023085            5 
 2060000   0.91525561   -8.0076686     451.4997  0.018264551  0.018017151            3 
 2061000   0.91660096   -7.9976532     451.4825  0.018254994  0.018011137            3 
 2062000   0.91582479   -7.9485642    451.21853  0.018235472  0.018005097            6 
 2063000   0.93511018   -7.9363703    452.72902  0.018287648   0.01799914            6 
 2064000   0.92771986   -7.9725786    451.61102  0.018233649  0.017993148            4 
 2065000   0.92962165   -8.0152589    451.08877  0.018203744  0.017987072            4 
 2066000    0.9467581   -8.0071495    451.68932  0.018219156  0.017981007            3 
 2067000    0.9164346   -8.0215068    450.90868  0.018178869  0.017974949            5 
 2068000   0.92145436   -8.0283646    451.52951  0.018195096  0.017968895            5 
 2069000    0.9209699   -8.0033358    451.87131  0.018200069  0.017962903            3 
 2070000   0.91631615   -7.9782957    453.72575  0.018265932  0.017956951            2 
 2071000   0.92030281   -8.0084113    453.30925  0.018240353  0.017950966            3 
 2072000   0.92584937   -7.9970195    452.71406  0.018207612  0.017945003            5 
 2073000     0.924716   -7.9850078     452.6984  0.018198199  0.017939031            2 
 2074000   0.90832994   -7.9996474    453.83926  0.018235264  0.017933072            4 
 2075000   0.92796789   -8.0261317    452.02662   0.01815368  0.017927147            3 
 2076000   0.91553823   -8.0442867    452.41057  0.018160347  0.017921153            4 
 2077000   0.91912647   -7.9762433     453.6593  0.018201705  0.017915207            2 
 2078000   0.92030829   -8.0260069      454.493  0.018226379  0.017909287            2 
 2079000   0.91749007   -7.9671754    453.88519  0.018193249  0.017903408            6 
 2080000   0.90908958   -8.0071152    454.69529  0.018216959  0.017897577            4 
 2081000   0.92287169   -7.9629183    452.79503  0.018132109  0.017891699            1 
 2082000    0.9027472   -7.9848635    455.16668  0.018218327  0.017885823            3 
 2083000   0.92181644   -7.9742252    453.59932  0.018146876  0.017879965            3 
 2084000   0.94167788    -7.988568    454.15635  0.018160443  0.017874103            7 
 2085000   0.90499239   -8.0144946    453.28549  0.018116926  0.017868181            4 
 2086000   0.91642068   -8.0394667    452.70064  0.018084877  0.017862248           11 
 2087000    0.9149208   -8.0165053    455.03483  0.018169415  0.017856312            4 
 2088000   0.91597925   -7.9828783    453.78805  0.018110953  0.017850365            5 
 2089000   0.93965654    -7.976988    454.84882    0.0181446  0.017844447            7 
 2090000   0.91272818   -7.9799101    455.14279  0.018147639  0.017838528            4 
 2091000   0.94543592   -8.0065748    456.21216  0.018181578  0.017832614            3 
 2092000   0.92004946   -7.9745202    455.01477   0.01812519  0.017826721           15 
 2093000   0.93634686    -8.008982    454.06932  0.018078887  0.017820828           16 
 2094000   0.91050068   -7.9813814    455.00564  0.018107515  0.017814924            7 
 2095000    0.9163779   -8.0131582    455.90215  0.018134533  0.017809071            4 
 2096000   0.90281042   -7.9742375    456.44187  0.018147339  0.017803266            8 
 2097000   0.91463089   -7.9653667     455.8981  0.018117076  0.017797466            4 
 2098000   0.93942219   -7.9974996    455.73258  0.018101866  0.017791652            2 
 2099000   0.91123906   -8.0167931    455.39376   0.01807979  0.017785834            3 
 2100000   0.91133931   -8.0395434    454.92252  0.018052481  0.017779993            6 
 2101000   0.90383237   -8.0002748    455.78995  0.018078294  0.017774097           10 
 2102000    0.9254936    -8.006994    455.60367  0.018062308  0.017768218            7 
 2103000   0.90698046   -7.9972263    455.80828  0.018061828   0.01776237            5 
 2104000    0.9080362    -7.988447    455.62594  0.018046021  0.017756515            2 
 2105000   0.89480292   -7.9714307    456.61528  0.018076615    0.0177507            3 
 2106000   0.93446938   -7.9992841    456.32267  0.018056453  0.017744868            5 
 2107000   0.92393339   -8.0288675    455.74264  0.018024942  0.017739029            7 
 2108000   0.91341993   -8.0022155    456.29093  0.018038067  0.017733181            2 
 2109000   0.90674731   -8.0159582    456.27481  0.018028877  0.017727365            9 
 2110000   0.93941856   -7.9879945    456.86642  0.018043698  0.017721528            4 
 2111000   0.92465083   -7.9932459    457.57212  0.018063008  0.017715727            4 
 2112000    0.9077461   -8.0025212    457.25877  0.018042092  0.017709884            5 
 2113000   0.91402606    -7.986378    456.70704  0.018011794  0.017704021           17 
 2114000   0.91976877   -8.0089234    456.43415  0.017992516  0.017698149           11 
 2115000   0.91576378   -8.0055655    458.12902  0.018050789  0.017692334            3 
 2116000   0.90239167   -7.9899064     457.1386  0.018003253  0.017686494            5 
 2117000   0.92342785   -8.0320154    456.12189  0.017954727  0.017680629            5 
 2118000   0.91683789   -8.0309985    456.08698  0.017944877  0.017674765            8 
 2119000   0.90892534   -8.0289087    457.31323  0.017984632  0.017668902            5 
 2120000   0.90584641   -8.0266153    456.68859  0.017951596  0.017663033            4 
 2121000   0.92340956   -8.0327223     456.5296  0.017936885  0.017657111            4 
 2122000   0.91145764   -8.0108777    457.66524   0.01797303  0.017651232            2 
 2123000   0.90912198    -8.039709    456.65056  0.017924736  0.017645392            4 
 2124000   0.90616026   -8.0205483    457.99402  0.017969006  0.017639543            6 
 2125000   0.92247366   -8.0281097    458.19361  0.017968377   0.01763373            4 
 2126000   0.91709599   -7.9928949    458.75796  0.017982046  0.017627925            6 
 2127000    0.9166631   -7.9881951    457.99788  0.017943813  0.017622133            6 
 2128000   0.90715657    -7.989678    457.68504   0.01792313  0.017616328            5 
 2129000   0.91008683   -8.0216697    458.37006  0.017941524   0.01761051            2 
 2130000   0.92009625   -8.0143466    457.85897  0.017913105  0.017604639            4 
 2131000   0.95130503    -8.010822    458.08649  0.017913597  0.017598775            4 
 2132000    0.9105054   -8.0260332    458.92442  0.017937946  0.017592931            4 
 2133000   0.91112571   -7.9819024    458.30973  0.017905521  0.017587109            4 
 2134000     0.910047   -7.9670504    459.08384   0.01792736  0.017581282            3 
 2135000   0.92473665   -8.0381986    457.58478  0.017860452  0.017575547            6 
 2136000    0.8877933   -8.0699493     457.8147   0.01786106  0.017569733            5 
 2137000   0.90066395   -8.0166173    458.24564  0.017869507  0.017563901           14 
 2138000   0.90991889   -8.0111595    460.34705  0.017943056  0.017558098            6 
 2139000   0.90372991   -8.0138394    459.33635  0.017895292  0.017552266            4 
 2140000   0.89521624   -8.0185206    458.87744  0.017869059   0.01754645            5 
 2141000   0.89865955   -8.0027459    459.00121   0.01786553  0.017540647           12 
 2142000   0.89911705   -7.9929697    460.16802  0.017902584  0.017534856            7 
 2143000   0.91942379   -8.0099694    460.25915  0.017897774  0.017529106            6 
 2144000   0.90808487   -8.0633868    459.29195  0.017851833  0.017523336           16 
 2145000    0.9046258    -8.043566    458.40134   0.01780891  0.017517503            7 
 2146000   0.89732137   -8.0503081     459.1073  0.017828025  0.017511662            9 
 2147000   0.91949171   -8.0571582     459.5492  0.017836873  0.017505781           10 
 2148000   0.89312029   -8.0173001    460.10854  0.017850269  0.017499928           15 
 2149000   0.90017794   -8.0220658    460.10691    0.0178419   0.01749412           21 
 2150000   0.91571843   -8.0403311    459.53116  0.017811285  0.017488293           16 
 2151000   0.90685244   -8.0084021    459.03408  0.017783747  0.017482468            8 
 2152000   0.90438255   -8.0403428    459.51096   0.01779395  0.017476679            4 
 2153000   0.92207671   -7.9968734    460.10478  0.017808669  0.017470916           16 
 2154000   0.90560893   -8.0487039    458.83449  0.017751257  0.017465101            4 
 2155000    0.9369723   -8.0291467    461.48422  0.017845484  0.017459342           22 
 2156000   0.90148901   -8.0578327    459.49765  0.017760422  0.017453574           12 
 2157000   0.91416627   -8.0454325    459.66201  0.017758538  0.017447783            2 
 2158000   0.89695667   -8.0741723    460.38267  0.017778138  0.017442005            9 
 2159000   0.89916776   -8.0137777     460.9132  0.017790381  0.017436214           11 
 2160000   0.92310732   -8.0442214    460.12089  0.017751578  0.017430428            7 
 2161000   0.91288788   -7.9878539    460.87213  0.017772332  0.017424642            5 
 2162000   0.92842012   -8.0489008    459.72568  0.017719923  0.017418852            4 
 2163000    0.8983796   -8.0191185    461.19039  0.017768161  0.017413027            3 
 2164000   0.91706798   -8.0389499    459.93257  0.017711513  0.017407251            7 
 2165000   0.90461649   -8.0110358    460.87986  0.017739795  0.017401449           12 
 2166000   0.93257121    -8.037711    460.73368   0.01772598  0.017395643            8 
 2167000   0.93050552   -8.0451786    459.58814  0.017673748  0.017389859            4 
 2168000   0.92080237   -8.0421254    460.53364  0.017701939  0.017384075            6 
 2169000   0.89639095   -8.0320545    460.72173  0.017701004  0.017378285            9 
 2170000   0.91685082    -8.050871     461.4108  0.017719309  0.017372457           10 
 2171000   0.91718112   -8.0781089    458.81812  0.017611627  0.017366652            5 
 2172000   0.90394479   -8.0334996    460.31006  0.017660761  0.017360819            7 
 2173000   0.88652433   -8.0412309    461.52952  0.017699399  0.017355054            3 
 2174000   0.91494151   -8.0112497    462.26696  0.017719525  0.017349268            6 
 2175000    0.8911261   -8.0350543    461.68329  0.017689015  0.017343479           12 
 2176000   0.91606849   -8.0442739     462.3511  0.017706461  0.017337735           15 
 2177000   0.88923816   -8.0654354    459.97725  0.017607459  0.017331954            8 
 2178000   0.90219108   -8.0297125      461.784  0.017668503  0.017326202           11 
 2179000   0.91164771     -8.05044    462.00295  0.017668768  0.017320432            9 
 2180000   0.90006693   -8.0276726    461.83401  0.017654205  0.017314656           10 
 2181000   0.89468058   -8.0256408    462.69158  0.017678877  0.017308873           12 
 2182000   0.90626429   -8.0229042    462.23936  0.017653505  0.017303101           15 
 2183000   0.91255651   -8.0368901    462.15879  0.017642342  0.017297317            4 
 2184000   0.90306592   -8.0605322    462.31482  0.017640217  0.017291519           11 
 2185000   0.89786628   -8.0525397    461.78044  0.017611763  0.017285728            6 
 2186000   0.90288631   -8.0283092    461.78705  0.017603959  0.017279976            7 
 2187000   0.92469604   -8.0209401    461.96607  0.017602731  0.017274226            5 
 2188000   0.90580035   -8.0499745    462.44123  0.017612783  0.017268457            3 
 2189000    0.9088713   -8.0156178     462.9655  0.017624695  0.017262642            6 
 2190000   0.91670413   -8.0413616    461.87695  0.017575226   0.01725684            4 
 2191000   0.90366705   -8.0223616     462.5413  0.017592473  0.017251067            5 
 2192000   0.90126793   -8.0655455    461.05234  0.017527841  0.017245315            3 
 2193000   0.88091671   -8.0232932    462.23683  0.017564859  0.017239603            4 
 2194000   0.89961882   -7.9833985    463.96357  0.017622439  0.017233921           12 
 2195000   0.89672124   -8.0675296    461.28136   0.01751258  0.017228165            3 
 2196000   0.89767886   -8.0148574    462.21244  0.017539938  0.017222372            5 
 2197000   0.91855967   -8.0354956    462.67988  0.017549684  0.017216584            4 
 2198000   0.89709041   -8.0616605    462.09568  0.017519551   0.01721075            6 
 2199000   0.89935172   -8.0622865    462.36349  0.017521733  0.017204919            4 
 2200000   0.89526482   -8.0380933    461.75514  0.017490725  0.017199092            9 
 2201000   0.92335931   -8.0667558    462.69299  0.017518287  0.017193305            6 
 2202000   0.90149947   -8.0465357     462.1453  0.017489604  0.017187492            6 
 2203000   0.90539858   -8.0703618    463.19354  0.017521317  0.017181703            3 
 2204000   0.88133736   -8.0007343    462.26616  0.017478303  0.017175858            5 
 2205000   0.90195377   -8.0578796    463.00791  0.017498409  0.017170058            7 
 2206000   0.91936986   -8.0317392    463.46462   0.01750773  0.017164262            2 
 2207000   0.90003673   -8.0552341    463.54403  0.017502795  0.017158518            3 
 2208000   0.88298707   -8.0527874    463.37205  0.017488378  0.017152727            4 
 2209000   0.88992828   -8.0410101    463.07659  0.017469315  0.017146914           12 
 2210000   0.91393596   -8.0980832    461.57772  0.017404891  0.017141121            6 
 2211000   0.90104878   -8.0505697    463.38806  0.017465252  0.017135315            5 
 2212000   0.88287412   -8.0539474    463.20128   0.01745032   0.01712953            3 
 2213000   0.90357508   -8.0750759    462.82673   0.01742833  0.017123763            6 
 2214000   0.89993829   -8.0419672    464.28358  0.017475293  0.017117991            5 
 2215000   0.90369721     -8.04314    463.37584  0.017433252  0.017112251           14 
 2216000   0.89167282     -8.05322    462.39123  0.017388358  0.017106507            9 
 2217000   0.88618305   -8.0775976    463.69671  0.017429586  0.017100753            6 
 2218000   0.90292712   -8.0801355     462.9341  0.017393076  0.017094939            3 
 2219000   0.88961776   -8.0627585    463.52035  0.017407254  0.017089101            9 
 2220000    0.8649653   -8.0477409    463.88363  0.017413049  0.017083281            4 
 2221000   0.87043409   -8.0549387    463.02786    0.0173731  0.017077489            4 
 2222000   0.90964733   -8.0698022    463.80696  0.017394501  0.017071718            3 
 2223000   0.91908889   -8.0802314    463.36182  0.017369989  0.017065879           11 
 2224000   0.90197235   -8.0863711    464.36086  0.017399613  0.017060043            8 
 2225000   0.91393137   -8.0619347    464.88642  0.017411477  0.017054266            8 
 2226000   0.90627186   -8.0577596    464.03738  0.017371869  0.017048516            3 
 2227000    0.8987975   -8.0429097    465.62063  0.017423313  0.017042785            8 
 2228000   0.90337656   -8.0205906    466.11097  0.017433833  0.017037106            2 
 2229000   0.89944564   -8.0551562    464.35787  0.017360471  0.017031406            3 
 2230000   0.89672143   -8.0896414    464.69947  0.017365451  0.017025656            6 
 2231000   0.88611543   -8.0699264    464.66542  0.017356395  0.017019883            5 
 2232000   0.92359305   -8.0544233     464.2985   0.01733492   0.01701414           11 
 2233000   0.89450819   -8.1242912    463.70026  0.017304831  0.017008383            6 
 2234000   0.89234382   -8.0703022    463.81781   0.01730147  0.017002621            4 
 2235000   0.88242685   -8.0719618    464.00893  0.017300855  0.016996874            2 
 2236000   0.88691007   -8.0506531    465.25483  0.017339551  0.016991118            3 
 2237000   0.89636139   -8.0818425    464.06227  0.017287374  0.016985371            6 
 2238000   0.91306732   -8.1014573    464.35981  0.017290729  0.016979611           13 
 2239000   0.90007958    -8.074267    465.10761  0.017310838  0.016973875            7 
 2240000   0.89971164   -8.0751296    465.45876  0.017316174  0.016968167            4 
 2241000   0.89612002   -8.0555795    466.78536  0.017357778  0.016962519            6 
 2242000   0.88420579    -8.066455    466.05888  0.017323033  0.016956854            3 
 2243000   0.89454776   -8.0140211    467.04377  0.017351901  0.016951213            4 
 2244000   0.90118725   -8.0681064    466.77294  0.017334111  0.016945555            4 
 2245000   0.87469488   -8.0822906    466.69521  0.017323504  0.016939926            6 
 2246000    0.8963161    -8.061886    465.92812   0.01728733  0.016934271            5 
 2247000   0.89745103   -8.0661048    466.90746  0.017315957  0.016928604            3 
 2248000   0.90070617   -8.0587614     465.2584  0.017247123  0.016922938           12 
 2249000   0.88750533   -8.0949076    465.84874  0.017261329  0.016917289            5 
 2250000   0.88880723   -8.0876391    466.03098  0.017260407  0.016911601            8 
 2251000   0.89257298   -8.0891036    466.12035  0.017256047  0.016905901           15 
 2252000   0.92009262   -8.0871094    466.35217  0.017256963   0.01690024           11 
 2253000   0.88981031   -8.0903426    465.61529  0.017222048  0.016894586            6 
 2254000   0.89874489   -8.0759179    466.08065  0.017231612  0.016888904            7 
 2255000   0.88224279    -8.080255    466.87295   0.01725325  0.016883243            2 
 2256000   0.91042466   -8.0647635    467.04232  0.017251859  0.016877612            5 
 2257000   0.88935857   -8.0835561    466.76439  0.017233953  0.016872016            3 
 2258000   0.88003163    -8.106813    466.63016  0.017221367  0.016866405            3 
 2259000   0.88824476   -8.0938921    467.24221  0.017236322  0.016860781            4 
 2260000   0.90747139   -8.0674939    467.74669  0.017247297  0.016855154            8 
 2261000   0.89723532   -8.0993741    466.56632  0.017196164  0.016849541            4 
 2262000   0.89442392   -8.0496063    467.88019  0.017236965  0.016843968            5 
 2263000   0.90255441   -8.0677891    468.17537  0.017240218  0.016838399            6 
 2264000   0.90620069   -8.0693826    467.79995  0.017218785  0.016832828            3 
 2265000   0.88353415    -8.078004     468.3767  0.017232402  0.016827251            8 
 2266000   0.89566451   -8.0710683     467.7714  0.017202538  0.016821666            4 
 2267000   0.89824229   -8.0587978    468.36963   0.01721694  0.016816064            8 
 2268000   0.87886705   -8.0787089    466.90304  0.017155462  0.016810482           14 
 2269000   0.89704301   -8.0963343    468.06973   0.01719075  0.016804889           23 
 2270000   0.87246918   -8.0718291    468.23309  0.017189173  0.016799297            7 
 2271000    0.8921133   -8.0712846    468.22494  0.017181306  0.016793758            8 
 2272000   0.87860719   -8.1142913    469.09422  0.017205627  0.016788176            7 
 2273000   0.87290772   -8.1054232    467.99804  0.017157869  0.016782575            5 
 2274000   0.89536976   -8.0933754    468.68733  0.017175584  0.016776995            7 
 2275000    0.9087466   -8.0859021    469.26743  0.017189283    0.0167714            9 
 2276000    0.8697048   -8.1084901    468.69184  0.017160656  0.016765815            6 
 2277000   0.88638733   -8.0944864    468.41712  0.017143066  0.016760262            6 
 2278000   0.87800923   -8.0901254    468.43684  0.017136261  0.016754718            5 
 2279000   0.88417441   -8.0793015    469.10603  0.017153212  0.016749181           10 
 2280000   0.87007832   -8.0722612    469.86529  0.017173439  0.016743649            6 
 2281000    0.8920527   -8.0526812    470.12184  0.017175283  0.016738176           11 
 2282000   0.90038828   -8.0716364    470.47244  0.017180559  0.016732684           15 
 2283000    0.8791639   -8.0462836    470.12234  0.017160255  0.016727151            3 
 2284000   0.91306238    -8.106293    469.65652  0.017135746  0.016721607            2 
 2285000    0.8674817   -8.1165078    468.87187  0.017099631  0.016716055            4 
 2286000   0.87774706   -8.0525256     470.6594  0.017157313  0.016710584            7 
 2287000   0.90273859   -8.0792208    470.63908   0.01714907  0.016705154            9 
 2288000   0.89298431   -8.0912758    470.00108  0.017118338  0.016699681            4 
 2289000   0.90137242   -8.0914906    471.15243  0.017152775  0.016694229            8 
 2290000   0.87754552   -8.0771582     470.5655  0.017123927  0.016688797            3 
 2291000   0.89693528   -8.1019649     470.3073   0.01710706   0.01668337            5 
 2292000   0.89459598   -8.1072995     469.9023  0.017084871  0.016677944            7 
 2293000   0.88533797   -8.0825568    471.27407  0.017127274  0.016672502            5 
 2294000   0.86635739   -8.0897494    470.62939  0.017096389  0.016667063            5 
 2295000   0.86152688   -8.1095685    470.55082  0.017086087  0.016661612            7 
 2296000   0.90414817    -8.094404    469.98422   0.01705808   0.01665612            5 
 2297000   0.89011198   -8.1145267     470.9221  0.017084679  0.016650711           14 
 2298000   0.88010226   -8.0901373    470.97793  0.017079269  0.016645279            4 
 2299000   0.89514151   -8.1113009    471.56243  0.017093027  0.016639845            7 
 2300000    0.8875701   -8.0980144    470.25826  0.017038343  0.016634387            5 
 2301000   0.87912046   -8.1153882    470.82221  0.017051362  0.016628943           16 
 2302000    0.8782625   -8.1124017    470.30062  0.017025073  0.016623465            4 
 2303000   0.87144758   -8.0824841    471.90117  0.017075596  0.016618002            8 
 2304000   0.88079855   -8.1027632    469.75039  0.016990393  0.016612567            6 
 2305000   0.88434473    -8.101885    472.30719  0.017075459  0.016607125           16 
 2306000   0.88671116   -8.0660666    472.41805   0.01707206  0.016601677            5 
 2307000   0.89282813   -8.0400945    473.53778  0.017105107  0.016596299           19 
 2308000   0.86133832   -8.0848461    470.54542  0.016989652  0.016590938            8 
 2309000   0.88188076   -8.0902556    471.92722  0.017032165  0.016585541            3 
 2310000   0.87613217   -8.1176142    471.62274  0.017013807  0.016580126            7 
 2311000   0.89737201   -8.0858983    471.32207  0.016995603  0.016574698            4 
 2312000     0.879125   -8.1224895    471.96402  0.017011391  0.016569259           11 
 2313000   0.87863131   -8.1198078    471.01721  0.016969924  0.016563816           10 
 2314000   0.88921566   -8.1056566    471.92184  0.016995169  0.016558333            8 
 2315000   0.86794418   -8.1066267    472.64867  0.017013991  0.016552876            5 
 2316000   0.87585127   -8.1077172    471.15028   0.01695273  0.016547421            7 
 2317000   0.86094742    -8.111966    471.09254  0.016943337  0.016541962           19 
 2318000   0.90384625    -8.107086    472.10369  0.016972379  0.016536513           31 
 2319000   0.87776926    -8.121867    471.03792  0.016926761  0.016531036            5 
 2320000     0.868256   -8.1333341    470.30348  0.016893085  0.016525529            5 
 2321000   0.87865492   -8.1415613     470.2549  0.016884062  0.016520004           25 
 2322000   0.91334184    -8.133139    471.79725  0.016932143  0.016514516           23 
 2323000    0.8767939   -8.0886639    471.82079  0.016925699  0.016509015            6 
 2324000   0.88491585   -8.1188966    471.81622  0.016918252  0.016503524           12 
 2325000    0.8840684   -8.1286454    471.72112  0.016907567  0.016498047           10 
 2326000   0.87356978   -8.1249048    472.91511  0.016943075  0.016492538           16 
 2327000   0.86244015   -8.0958764    472.54419  0.016922511  0.016487063           13 
 2328000   0.88294955   -8.1077829    473.26807  0.016941154  0.016481585            8 
 2329000   0.86999916   -8.0824486    472.17873  0.016894902  0.016476143            6 
 2330000   0.86205134   -8.0830721    472.41416  0.016896072  0.016470733            2 
 2331000   0.88849699   -8.0675129    473.01351   0.01691025  0.016465288            7 
 2332000   0.91281769   -8.0947919    472.95825  0.016901024  0.016459853            6 
 2333000   0.88983283   -8.1176677    472.10851  0.016863427   0.01645442            3 
 2334000   0.86237132   -8.1629026    471.63478  0.016839288  0.016448927           18 
 2335000   0.88500067   -8.1012665    472.30343   0.01685594  0.016443462            3 
 2336000    0.8662968   -8.1079019    472.59096  0.016858981  0.016438039            3 
 2337000   0.87821287   -8.1120293    472.50668  0.016848762  0.016432594            8 
 2338000   0.89126703   -8.1064537    472.74914  0.016850197  0.016427128            2 
 2339000   0.90166072   -8.0978855    473.08288  0.016854884  0.016421654            4 
 2340000   0.88013494   -8.1340363     473.0344  0.016845954  0.016416197            5 
 2341000   0.86550134   -8.0922933    473.46106  0.016853946  0.016410696            6 
 2342000   0.87073287   -8.1212296    472.48691  0.016812088  0.016405222           16 
 2343000   0.86727791   -8.1187601    471.39145   0.01676595  0.016399727            5 
 2344000   0.88948278   -8.1237093      472.591  0.016801444  0.016394214           10 
 2345000   0.87951422    -8.091214    472.08018  0.016776126  0.016388731           18 
 2346000   0.87020272   -8.1061669    472.92045  0.016798823  0.016383275           20 
 2347000   0.86417083   -8.1205699    473.18073  0.016800906  0.016377779            7 
 2348000   0.88064107   -8.1292313      472.458    0.0167681  0.016372323            8 
 2349000   0.87873462   -8.1528508    471.96901  0.016743615  0.016366876            4 
 2350000    0.8660909   -8.1406173    473.22849  0.016781152  0.016361369            4 
 2351000   0.87135126   -8.1297338    474.10625  0.016805127   0.01635588            4 
 2352000   0.87783316   -8.1222243    473.04032  0.016760215  0.016350373           17 
 2353000   0.87892462   -8.1351679    473.31304  0.016762751  0.016344927            6 
 2354000    0.8850985    -8.136046     473.1306  0.016749172  0.016339441            7 
 2355000   0.85476301   -8.1202305    472.75298  0.016728697  0.016333979           17 
 2356000   0.87977609   -8.1288431    474.14448  0.016770815  0.016328528           18 
 2357000   0.87461588   -8.1253846    473.20023  0.016730315  0.016323045           11 
 2358000   0.87981374    -8.122443    473.44483  0.016731864  0.016317547            5 
 2359000   0.87248879   -8.1479165    473.08344  0.016712005  0.016312042            3 
 2360000     0.863694   -8.1471351    473.10391  0.016705647  0.016306543            6 
 2361000   0.87304397   -8.1215804    473.14108  0.016699883  0.016301032            3 
 2362000   0.86664247   -8.1600943    473.67671   0.01671171  0.016295542            9 
 2363000   0.89635148   -8.1463791     473.7665  0.016707804  0.016290043            7 
 2364000   0.88782304   -8.1558142    473.52586  0.016692254  0.016284531           14 
 2365000   0.86441283   -8.1416231    473.12065  0.016670918  0.016279035            5 
 2366000   0.86911187   -8.1310955    472.96672   0.01665845  0.016273545            6 
 2367000   0.88170815     -8.14625    473.74137  0.016678685   0.01626808            4 
 2368000   0.87128589   -8.1426426    474.06661  0.016683088  0.016262621           19 
 2369000   0.86015477    -8.141896    473.65885  0.016661701  0.016257183            8 
 2370000   0.87483467   -8.1259701    474.43792  0.016682065  0.016251735            4 
 2371000   0.88508633   -8.1627156    473.21047  0.016631888  0.016246299            5 
 2372000   0.88960867   -8.1549663    474.62847  0.016674693  0.016240878            5 
 2373000   0.87978176   -8.1180721    473.82286  0.016639376  0.016235448            7 
 2374000   0.86032937   -8.1148272    475.60283  0.016694848  0.016230034            7 
 2375000   0.87968664   -8.1302366    475.02358  0.016667494  0.016224614            7 
 2376000   0.86047754   -8.1061149    473.93627  0.016622344  0.016219192           16 
 2377000   0.87805263   -8.1270715    474.39692  0.016631501  0.016213762           14 
 2378000   0.87954668   -8.1221975    473.91035  0.016607456  0.016208301           14 
 2379000   0.86191896   -8.1247626    473.47745  0.016585311  0.016202846            3 
 2380000   0.86317741   -8.1140172    475.76295  0.016658366  0.016197383            9 
 2381000   0.87339534   -8.1364656    476.34506  0.016671744  0.016191911           11 
 2382000   0.87720999   -8.1811294    473.24155   0.01655617  0.016186412           14 
 2383000   0.85847136   -8.1510197    474.57596  0.016595886  0.016180903           12 
 2384000   0.84855892   -8.1434272    474.32659  0.016580208  0.016175394           12 
 2385000   0.90086825   -8.1587334    473.32885  0.016538394  0.016169869            4 
 2386000   0.86111978   -8.1215601    474.04504  0.016556477  0.016164366            9 
 2387000   0.87404518   -8.1515708    474.15082  0.016553233   0.01615889            5 
 2388000   0.86491845   -8.1360663    475.07751   0.01657864  0.016153409            4 
 2389000   0.86493759   -8.1435026    473.97681  0.016533306  0.016147902            6 
 2390000   0.87102342   -8.1393919    474.78694  0.016554635  0.016142405            7 
 2391000   0.86625669   -8.0887253     474.7482  0.016546362  0.016136891            3 
 2392000   0.87065683   -8.1353995    475.58975  0.016568762  0.016131393            5 
 2393000   0.84656401   -8.1626193    473.67731   0.01649524  0.016125871            6 
 2394000   0.85523935   -8.1806921    473.74222  0.016490609  0.016120346            5 
 2395000   0.86765602   -8.1639428    473.80504   0.01648591  0.016114854           12 
 2396000   0.86082521   -8.1494253    474.21762  0.016493379  0.016109364            9 
 2397000   0.87195306   -8.1380483    475.00406  0.016513839  0.016103846           19 
 2398000    0.8557634   -8.1462326    475.73224  0.016532257  0.016098368            8 
 2399000   0.87528259   -8.1587167    473.65123  0.016453079  0.016092835           10 
 2400000   0.86905694   -8.1463255    474.30201   0.01646882  0.016087317            9 
 2401000   0.86308635   -8.1360071    474.21801  0.016459045  0.016081807           10 
 2402000   0.86990602   -8.1269935    474.89733  0.016475761   0.01607629           29 
 2403000   0.88151046   -8.1729083    474.84088  0.016466947  0.016070757            8 
 2404000   0.87440032     -8.14313    474.68885  0.016454827  0.016065242            4 
 2405000   0.86185419   -8.1690995    474.48734  0.016441003  0.016059666            9 
 2406000   0.86763092   -8.1270486    474.53387  0.016435781  0.016054075            6 
 2407000   0.85499616   -8.1726575    473.88289  0.016406415  0.016048481            2 
 2408000   0.87240986   -8.1848808    474.11842  0.016407753  0.016042888            6 
 2409000   0.85827205   -8.1557546    473.43199  0.016377196  0.016037241            4 
 2410000   0.87342907    -8.164638    473.81868  0.016383772  0.016031601           12 
 2411000   0.86314061    -8.128926    475.93924  0.016450271  0.016026003            6 
 2412000   0.85929916   -8.1755595    473.05334  0.016343745  0.016020364            3 
 2413000   0.86897513   -8.1403619    474.11356  0.016373586  0.016014752            9 
 2414000   0.86665116   -8.1683451    472.94803  0.016326568  0.016009166            9 
 2415000   0.85674639   -8.2103793    473.04431   0.01632313  0.016003502            4 
 2416000    0.8591759   -8.1800952    474.94293  0.016381862  0.015997861            4 
 2417000   0.85798625   -8.1677135    473.17449  0.016314112  0.015992232            7 
 2418000   0.85984006   -8.1229642    474.80274   0.01636348  0.015986596            7 
 2419000   0.84634549   -8.1962821    473.74144  0.016320154  0.015980963            3 
 2420000   0.86467274   -8.1423039    474.13539  0.016326976  0.015975339            4 
 2421000   0.86231929   -8.1539559    474.21594  0.016323005  0.015969751            4 
 2422000   0.86812964   -8.1717651    473.64744  0.016296705  0.015964149            6 
 2423000   0.85521574   -8.1395613    474.11581  0.016306088  0.015958549            4 
 2424000     0.861349   -8.1939759    472.95516  0.016259459  0.015952958            8 
 2425000   0.84818791   -8.1820004    473.88939  0.016284859  0.015947337            2 
 2426000    0.8653888   -8.1682604    474.27625  0.016291435  0.015941697            4 
 2427000   0.85561695   -8.1449743    474.68968  0.016298918  0.015936109            8 
 2428000   0.85713116    -8.192788    474.65725  0.016291092  0.015930501            4 
 2429000   0.85269031   -8.1650274    475.36179  0.016308556  0.015924928            5 
 2430000   0.84575798   -8.1570129    474.15836  0.016260575  0.015919343            5 
 2431000   0.85226894   -8.1940541    475.11428  0.016286654   0.01591376           10 
 2432000   0.84885278     -8.17164    474.61503   0.01626285  0.015908145            6 
 2433000   0.86379489   -8.1877355    474.13006  0.016239555  0.015902551            7 
 2434000   0.85385825   -8.1562362    474.21267  0.016235712  0.015896926            5 
 2435000   0.85735477   -8.1885095    473.97263  0.016220829  0.015891319            5 
 2436000   0.85395623   -8.1737592    474.24538  0.016223501  0.015885723           11 
 2437000   0.88553309   -8.1608391    474.86856  0.016238153  0.015880135            3 
 2438000    0.8737941   -8.2027636    473.55162  0.016186479  0.015874522           13 
 2439000   0.85633735   -8.1730719    475.43684  0.016244254  0.015868921            9 
 2440000   0.83778986   -8.1979254    473.35656  0.016166549  0.015863312           17 
 2441000   0.88427601   -8.1406863    475.95064  0.016248486  0.015857679            9 
 2442000   0.85029375   -8.1627701    475.85163  0.016238453  0.015852082           12 
 2443000     0.878005      -8.1872    473.82671  0.016162734   0.01584644           12 
 2444000   0.86484832   -8.1670055    475.04787  0.016197759  0.015840824            7 
 2445000   0.85741813   -8.1510582     475.3957  0.016202989  0.015835202            6 
 2446000    0.8635308       -8.175    474.13055  0.016153262  0.015829588            6 
 2447000   0.88450898    -8.164792    475.30488  0.016186653     0.015824           15 
 2448000   0.87761934   -8.1890597    475.46211  0.016185393  0.015818376            3 
 2449000   0.87817725   -8.2016424    474.32024  0.016139929  0.015812754            6 
 2450000   0.86441263   -8.1978666    473.41963  0.016102708   0.01580711            8 
 2451000   0.86277292   -8.1600248    475.02219  0.016150625  0.015801459            6 
 2452000   0.88119516   -8.1955428    474.13818  0.016113995  0.015795822            3 
 2453000   0.84878132    -8.215637    474.69229   0.01612625  0.015790158            7 
 2454000   0.86845318   -8.1902942     474.6059  0.016116745  0.015784501            5 
 2455000   0.85289172   -8.1772159    475.41823  0.016137754  0.015778877           12 
 2456000   0.86412831   -8.1763642    475.62072  0.016138054  0.015773265           10 
 2457000   0.83497911   -8.1811813    476.03724  0.016145613  0.015767657           10 
 2458000   0.86851459   -8.1696398    474.83981  0.016098448  0.015762051           14 
 2459000   0.84315622   -8.1349795    475.39779   0.01611081  0.015756465            6 
 2460000   0.85331182   -8.1822301     474.6341  0.016078391    0.0157509           12 
 2461000    0.8814007   -8.1626533    475.60816  0.016104841  0.015745336           12 
 2462000   0.84013529   -8.1517153    476.58827  0.016131474  0.015739783           20 
 2463000   0.86153366   -8.1880559    475.60185   0.01609155  0.015734181           15 
 2464000   0.86498138   -8.1760488     475.4183  0.016078812  0.015728555            5 
 2465000   0.87488488   -8.1778427    475.94541  0.016090109  0.015722966           12 
 2466000   0.86493083   -8.1969275    476.60889  0.016106005  0.015717399           10 
 2467000   0.86546321   -8.1448684    476.49469  0.016095618  0.015711857            7 
 2468000   0.85266543   -8.1692606    475.55601  0.016057402  0.015706332            4 
 2469000   0.86442375   -8.1908644    475.53366  0.016050144  0.015700752            7 
 2470000   0.83710556   -8.1483592    475.79644  0.016052511  0.015695209            4 
 2471000   0.86334983   -8.1894808    475.76815  0.016045061  0.015689671           15 
 2472000   0.84740815   -8.1963521    474.12323  0.015983119  0.015684109           16 
 2473000   0.85508344   -8.1870693    476.95104  0.016071945  0.015678514            8 
 2474000   0.85398419   -8.2146956    475.35646  0.016011737   0.01567292           17 
 2475000   0.84619096   -8.2101288    475.51473  0.016010597  0.015667285           18 
 2476000   0.85829968   -8.2279317    474.08004  0.015955844  0.015661657           22 
 2477000   0.84060843   -8.2062964    475.34027    0.0159918   0.01565601           15 
 2478000   0.84274339   -8.1864478    475.86331  0.016002936  0.015650366            9 
 2479000   0.85364202   -8.1742774    475.60884  0.015987927  0.015644748           17 
 2480000   0.86097744   -8.1753534    476.52311  0.016012201  0.015639139            9 
 2481000   0.86882968   -8.2156649    475.56879  0.015973693  0.015633547           21 
 2482000   0.84847626   -8.2104634    475.27978  0.015957554  0.015627966           26 
 2483000   0.85200896   -8.2196219    476.07732  0.015977894  0.015622369           30 
 2484000   0.84592614   -8.1989354     476.5045  0.015985792  0.015616788           32 
 2485000   0.86244766   -8.1924814    476.10315    0.0159659   0.01561118           18 
 2486000   0.83699637   -8.2185319    476.20884  0.015963021  0.015605588           27 
 2487000    0.8366785   -8.1904734    476.39104  0.015962707  0.015599998            7 
 2488000    0.8639726   -8.2098055    476.36032  0.015955263  0.015594395           37 
 2489000   0.84953745   -8.2368339     474.2831  0.015879306  0.015588763           25 
 2490000   0.84706012   -8.2220484    474.79873  0.015890185   0.01558314           30 
 2491000   0.85597345   -8.2268071    474.70078  0.015880529  0.015577474           34 
 2492000   0.87034875   -8.2126896     474.6964   0.01587401  0.015571807           32 
 2493000   0.84987653   -8.2169304     475.5501  0.015896179  0.015566145           31 
 2494000   0.85554219    -8.200638    476.97728  0.015937493  0.015560496           32 
 2495000   0.85646524   -8.2176517    475.73113  0.015889483  0.015554861           32 
 2496000   0.87051842   -8.2351481    475.34144  0.015870107  0.015549237           48 
 2497000   0.85262251   -8.2163396    475.79102  0.015878755  0.015543573           53 
 2498000   0.84940323   -8.1918134    476.55382  0.015897846  0.015537931           45 
 2499000   0.86471881   -8.2088861    475.10413  0.015843142  0.015532324           57 
 2500000   0.85398333   -8.2052523    475.48901  0.015849634  0.015526713           62 
 2501000   0.85325349   -8.2182819    476.75254  0.015885397  0.015521115           54 
 2502000   0.84140135   -8.1963244    475.94457  0.015852137  0.015515523           47 
 2503000   0.85942642   -8.2014202    476.84056  0.015875634  0.015509938           52 
 2504000   0.83981045   -8.1977128    476.20175  0.015848035  0.015504371           47 
 2505000   0.83960393   -8.1847009    475.47833  0.015817643  0.015498805           47 
 2506000   0.85449045   -8.1750419     477.6949  0.015885039   0.01549322           60 
 2507000   0.84345628   -8.2202876    475.82922  0.015816687  0.015487682           64 
 2508000   0.84043133   -8.2084218    476.83529  0.015843809  0.015482118           71 
 2509000   0.82665294   -8.2078972    476.81267  0.015836743  0.015476559           85 
 2510000   0.84135941   -8.1990027     478.2027  0.015876584  0.015470999           85 
 2511000   0.86388053   -8.1877535    475.88687  0.015793405  0.015465439           76 
 2512000   0.84834958   -8.2294156    476.15057  0.015795865  0.015459852           77 
 2513000   0.85812213   -8.2140476    476.64508  0.015805978  0.015454263           84 
 2514000   0.85297465   -8.1904907    477.50184  0.015828091  0.015448685           96 
 2515000   0.85352417   -8.2089406    476.93047  0.015802865    0.0154431           67 
 2516000   0.85637165   -8.2316789    477.59415  0.015818566  0.015437501           77 
 2517000   0.84199683   -8.2303544    475.83464  0.015754027  0.015431921           66 
 2518000    0.8642108   -8.2153009    476.34972  0.015764817  0.015426325           77 
 2519000   0.85368841   -8.2172604    476.16059  0.015752302  0.015420732           95 
 2520000   0.86208641   -8.2302211    476.80521  0.015767368  0.015415118           77 
 2521000   0.83740307   -8.2305025    475.94432  0.015732656  0.015409475           63 
 2522000   0.83785695   -8.2149695    476.68628  0.015750934  0.015403894           66 
 2523000   0.83433009   -8.2103879    476.91899  0.015752378  0.015398303           96 
 2524000   0.84901123     -8.23579    476.00193  0.015715859  0.015392727           88 
 2525000   0.84587318   -8.2453034    476.31713  0.015720037  0.015387122           93 
 2526000    0.8374764   -8.2316959    476.81815  0.015730343  0.015381493          131 
 2527000   0.85117511   -8.2039443      476.744  0.015721673  0.015375881          126 
 2528000   0.84148815   -8.2140064    475.49292  0.015674213  0.015370286          171 
 2529000   0.84491943   -8.2477733    476.95233  0.015716104  0.015364669          202 
 2530000    0.8545324   -8.2609467    476.49692  0.015694892  0.015359071          198 
 2531000    0.8518612   -8.2417533    477.52831  0.015722649  0.015353477          214 
 2532000   0.84741808   -8.2257098    477.05438  0.015700842  0.015347847          182 
 2533000   0.83561658   -8.2300807    477.37238  0.015705105  0.015342243          218 
 2534000   0.83469882   -8.2514002    476.04023  0.015655098  0.015336645          258 
 2535000   0.85004695   -8.2517321    477.14394  0.015685205  0.015331029          247 
 2536000   0.83696196    -8.252432    476.51243  0.015658269  0.015325428          243 
 2537000   0.82082949   -8.2491418    476.16016  0.015640526    0.0153198          266 
 2538000   0.85192173    -8.245478    477.00375  0.015662062   0.01531419          283 
 2539000    0.8173316   -8.2882489    475.46717   0.01560546  0.015308574          329 
 2540000    0.8596026   -8.2590478    476.11159  0.015620459  0.015302918          305 
 2541000   0.84694895   -8.2653599    477.17068  0.015649045   0.01529727          348 
 2542000   0.86004102   -8.2953569    476.29142  0.015614064  0.015291603          325 
 2543000   0.83651733   -8.2991723    476.11622  0.015602183   0.01528593          355 
 2544000   0.83594413    -8.297301    475.50645  0.015576076  0.015280257          406 
 2545000   0.86067618   -8.3191025    476.54065   0.01560382  0.015274559          464 
 2546000   0.84874237   -8.3105438    475.95497  0.015578521   0.01526889          412 
 2547000   0.84178334   -8.3024509    476.07339  0.015576279  0.015263197          444 
 2548000   0.84138498   -8.2689043    476.32153  0.015578281   0.01525749          456 
 2549000   0.83172522   -8.3005487    476.01085  0.015562013  0.015251819          492 
 2550000    0.8428732   -8.2967695    476.37899  0.015567941  0.015246145          528 
 2551000   0.82486653    -8.318676    475.15994  0.015522016   0.01524048          480 
 2552000   0.82608096   -8.3162102    476.23611  0.015551075  0.015234769          510 
 2553000   0.83512891   -8.3139564     475.9343  0.015535132  0.015229074          525 
 2554000   0.85253605   -8.3657016    475.76002  0.015523363  0.015223363          589 
 2555000   0.83786565   -8.3594621    474.51485  0.015476675   0.01521763          565 
 2556000    0.8405755   -8.3460694    475.18879  0.015492592  0.015211908          611 
 2557000   0.85192674   -8.3600435    474.84896  0.015475458  0.015206139          674 
 2558000   0.84884742   -8.3621754    474.87124  0.015470134    0.0152004          670 
 2559000   0.84066644   -8.3782064    474.72994  0.015459488  0.015194631          726 
 2560000   0.84899044   -8.3534209    474.67465  0.015451649  0.015188825          752 
 2561000   0.83979464    -8.386032    473.57457  0.015409819  0.015183013          788 
 2562000   0.82892642   -8.4009324    474.32225  0.015428124  0.015177175          809 
 2563000   0.85777339   -8.4321361    473.22234  0.015386342  0.015171309          885 
 2564000   0.84633587   -8.4773894     472.3763  0.015352844  0.015165419          875 
 2565000   0.84485605   -8.4479746    472.20746  0.015341373  0.015159553          927 
 2566000   0.85626519   -8.4675063    472.44298  0.015343043  0.015153651          984 
 2567000   0.83681547   -8.4773438    473.00519  0.015355317  0.015147701          998 
 2568000   0.83241202   -8.4819802    471.33342  0.015295088  0.015141741         1131 
 2569000   0.83787721   -8.4861819    471.89147  0.015307236   0.01513579         1125 
 2570000   0.83995376   -8.4996732    472.39166  0.015317499   0.01512979         1129 
 2571000   0.83901459   -8.4833234    471.69573  0.015288984  0.015123806         1207 
 2572000   0.83504312   -8.5247289    472.37039  0.015304899   0.01511783         1216 
 2573000   0.83961226   -8.4972888    473.60481   0.01533893   0.01511185         1270 
 2574000   0.84140118   -8.5013433    471.56873  0.015267053  0.015105865         1345 
 2575000   0.83684198   -8.5435893    472.47267  0.015290378  0.015099843         1333 
 2576000    0.8290216   -8.5363943    471.13836  0.015241277   0.01509382         1333 
 2577000   0.83719051   -8.5442488     470.9986  0.015230843  0.015087804         1356 
 2578000   0.83678104   -8.5536547    471.25662  0.015233276  0.015081776         1492 
 2579000   0.84067808   -8.5643545    471.73524  0.015242834  0.015075724         1534 
 2580000   0.82899434   -8.5914015    470.32586  0.015191404  0.015069631         1541 
 2581000   0.83012308   -8.6164493    469.78928  0.015168193  0.015063507         1602 
 2582000   0.86224162   -8.5958015    469.73399  0.015160534  0.015057382         1694 
 2583000   0.86084502   -8.6278394    469.47354  0.015146262  0.015051215         1810 
 2584000   0.85462587   -8.6301429    468.44424  0.015107206  0.015045035         1753 
 2585000   0.82865689   -8.6482706    468.76876  0.015111823  0.015038838         1888 
 2586000   0.83264906   -8.6399249    468.89564  0.015110068  0.015032609         1950 
 2587000   0.83185419   -8.6355874     469.0866  0.015110379  0.015026373         2075 
 2588000   0.82479921   -8.6729399    468.88634  0.015098092  0.015020106         2081 
 2589000   0.83906708   -8.6468234    469.27202  0.015104674  0.015013832         2111 
 2590000   0.85251372   -8.7018087     468.0663  0.015060048  0.015007556         2190 
 2591000   0.83153362   -8.7287722    466.48085  0.015003244  0.015001241         2285 
 2592000    0.8512602   -8.7016283    467.27854  0.015023101  0.014994927         2295 
 2593000   0.82008888   -8.7268912    466.56186  0.014994275  0.014988573         2438 
 2594000   0.83498126   -8.7623514    467.09561  0.015005642    0.0149822         2453 
 2595000   0.83546594   -8.7753343    466.32899   0.01497524  0.014975775         2615 
 2596000   0.83668642   -8.7578792    465.40163  0.014939703  0.014969325         2609 
 2597000   0.82343966    -8.789124    466.04533  0.014954606  0.014962854         2686 
 2598000    0.8352029   -8.8369911    464.88659  0.014911682  0.014956364         2781 
 2599000   0.83605474   -8.8238407     464.4841  0.014893039  0.014949867         2850 
 2600000   0.83634752   -8.8583652     463.6215  0.014859664  0.014943319         2933 
 2601000   0.84243686   -8.8722899    464.09824  0.014869225  0.014936745         3019 
 2602000   0.84049698   -8.8871836    462.57325   0.01481467  0.014930154         2976 
 2603000   0.84645017   -8.8702626    463.00575  0.014822825   0.01492354         3063 
 2604000   0.84748156   -8.9028922    463.67814   0.01483865  0.014916909         3086 
 2605000   0.83562915    -8.898497    462.51445  0.014795728  0.014910266         3116 
 2606000    0.8145888   -8.9149067    462.42289  0.014787122  0.014903612         3172 
 2607000   0.82737603   -8.9524699    461.99376  0.014767733  0.014896939         3220 
 2608000   0.83550711   -8.9357802    463.08267  0.014796864  0.014890274         3122 
 2609000    0.8164305   -8.9399812    461.81638  0.014750747  0.014883593         3230 
 2610000   0.85806555   -8.9484816    461.39638  0.014731685  0.014876909         3251 
 2611000   0.82806266   -8.9373175    462.46662  0.014760201  0.014870231         3298 
 2612000    0.8415583   -8.9323672    461.86364  0.014735313  0.014863529         3329 
 2613000   0.83558988    -8.963237    461.59067  0.014720968  0.014856824         3326 
 2614000   0.83452498   -8.9710404     460.8395  0.014691389    0.0148501         3423 
 2615000   0.84691339   -8.9772953    461.58057  0.014709387  0.014843375         3452 
 2616000   0.83764746   -8.9896514    460.85435   0.01468063  0.014836636         3469 
 2617000   0.83996046   -9.0004382    461.13616  0.014683994  0.014829901         3391 
 2618000   0.82350461   -9.0278776    460.99832  0.014673998  0.014823157         3509 
 2619000   0.84500993   -8.9970972    461.41286  0.014681585  0.014816409         3439 
 2620000   0.83295178   -8.9894158    461.51797  0.014679325   0.01480967         3411 
 2621000   0.83177043   -9.0205785    461.00912  0.014657546  0.014802918         3427 
 2622000   0.83376204   -8.9747585    461.69816  0.014673855  0.014796178         3457 
 2623000   0.83850814   -9.0141596    461.16862  0.014651437  0.014789434         3571 
 2624000   0.80202701    -9.011601    461.28448  0.014649532   0.01478269         3556 
 2625000   0.83261649   -8.9978924    461.30683  0.014644661  0.014775942         3488 
 2626000   0.84112154   -9.0062215    460.37529  0.014609523  0.014769208         3525 
 2627000   0.82808616   -9.0158703    460.94366  0.014621992  0.014762458         3536 
 2628000   0.82437219   -8.9887303    461.20698  0.014624777   0.01475571         3527 
 2629000   0.83197115   -9.0260034    459.62951  0.014569212  0.014748961         3603 
 2630000   0.84378517   -9.0445204    459.59039  0.014562433  0.014742202         3583 
 2631000     0.822269   -9.0408043    459.92029  0.014567347  0.014735432         3611 
 2632000   0.83466868   -9.0332874    460.82864  0.014590572  0.014728662         3656 
 2633000   0.83314083   -9.0414953    460.31238  0.014568692  0.014721893         3577 
 2634000   0.83470399   -9.0439427    459.45397  0.014536003  0.014715125         3623 
 2635000   0.83242252   -9.0609495    459.28638  0.014525186  0.014708354         3620 
 2636000   0.83026661   -9.0279454    460.16646  0.014547498  0.014701586         3579 
 2637000   0.83077568   -9.0520811    459.12879  0.014509189  0.014694817         3569 
 2638000   0.81594868   -9.0250134    459.68044  0.014521116  0.014688057         3636 
 2639000   0.83543586   -9.0512393    459.44051  0.014508037  0.014681293         3673 
 2640000   0.81924838    -9.046974    459.90262  0.014517128  0.014674535         3635 
 2641000    0.8203798   -9.0204451     460.2886   0.01452381  0.014667774         3632 
 2642000   0.83823372   -9.0435039    459.80391  0.014503025  0.014661017         3664 
 2643000   0.82945033   -9.0642926    460.29292  0.014512956  0.014654251         3708 
 2644000   0.81236768   -9.0600752     458.9741  0.014465901  0.014647476         3676 
 2645000   0.83317566   -9.0755423    459.84398  0.014487838  0.014640697         3640 
 2646000   0.82580737   -9.0741725    459.80725  0.014481206  0.014633924         3649 
 2647000   0.85692471   -9.0701744    459.26995   0.01445882  0.014627156         3681 
 2648000   0.83645232   -9.0471123    460.30384  0.014485896  0.014620389         3699 
 2649000   0.81935628   -9.0637339    459.77944  0.014463931  0.014613628         3698 
 2650000   0.80829395   -9.0657916    459.57007  0.014451889  0.014606879         3700 
 2651000    0.8282207   -9.0573184    460.53283  0.014476701  0.014600125         3684 
 2652000   0.82792393   -9.0488685    459.96059  0.014453262  0.014593358         3649 
 2653000   0.81479551   -9.0492953    459.48283  0.014432807  0.014586591         3667 
 2654000   0.83475264   -9.0702392    459.84561   0.01443876  0.014579825         3681 
 2655000   0.81556321   -9.0839194    459.56302  0.014424451  0.014573053         3726 
 2656000   0.83519778   -9.0637864    459.18976  0.014407309  0.014566278         3670 
 2657000   0.83206342   -9.0689681    459.47778   0.01441092  0.014559494         3705 
 2658000    0.8219653   -9.0830958    459.11453   0.01439411  0.014552717         3709 
 2659000   0.84321005   -9.0933733    460.31671  0.014426373  0.014545929         3687 
 2660000   0.82882092   -9.0905092    458.88445  0.014376079   0.01453916         3719 
 2661000   0.82184895   -9.1113673    458.83543  0.014369142  0.014532387         3723 
 2662000   0.82027264   -9.0991171    458.54648  0.014354698  0.014525612         3675 
 2663000    0.8457428   -9.1385224    457.87231  0.014328211  0.014518833         3724 
 2664000   0.82164099   -9.1046009    458.78538  0.014351395  0.014512049         3722 
 2665000   0.81204595   -9.1304653    458.35868  0.014332667  0.014505259         3766 
 2666000   0.82698235   -9.1105812    458.58464  0.014334354  0.014498474         3752 
 2667000   0.82992852    -9.108763    458.20916  0.014317246  0.014491702         3735 
 2668000   0.81288243   -9.1207373    458.07465  0.014307679  0.014484918         3747 
 2669000   0.81560485   -9.0955203    459.36998  0.014342762  0.014478143         3722 
 2670000   0.83253988   -9.1016184    458.80182  0.014319657  0.014471373         3744 
 2671000   0.81774745   -9.1016939    458.64391  0.014309369  0.014464608         3738 
 2672000   0.84360743   -9.1029081    458.76115  0.014307671  0.014457843         3710 
 2673000   0.82774038   -9.1169941     458.4092  0.014291345  0.014451072         3803 
 2674000   0.81629742   -9.1221266    458.40533   0.01428588  0.014444299         3729 
 2675000   0.82618851   -9.1133304    458.01758   0.01426846  0.014437532         3763 
 2676000   0.84097048   -9.1196889     458.4952  0.014278002  0.014430759         3764 
 2677000   0.83032873   -9.1098726    458.95001  0.014286826  0.014423989         3769 
 2678000   0.81992242   -9.0794746    459.22406  0.014290019  0.014417239         3777 
 2679000   0.82663676    -9.108826     459.3207  0.014287691  0.014410477         3737 
 2680000   0.83455366   -9.0900686    458.87189  0.014268405  0.014403728         3800 
 2681000   0.80466724   -9.0972294    458.93816  0.014265142  0.014396975         3773 
 2682000   0.83600281   -9.1081882    458.66083  0.014251207  0.014390218         3802 
 2683000    0.8321622   -9.1162045    458.88317  0.014252801   0.01438347         3806 
 2684000   0.81578787   -9.1251395    457.83153  0.014214839  0.014376724         3769 
 2685000   0.82518351   -9.1476371    458.66257  0.014235337  0.014369981         3763 
 2686000   0.81343435   -9.1548963    458.20289  0.014215776  0.014363234         3803 
 2687000    0.8300299   -9.1367501    458.13035  0.014208236  0.014356489         3823 
 2688000   0.82996264    -9.128886    457.91511  0.014196277  0.014349724         3832 
 2689000   0.82817879   -9.1434554    458.03951  0.014194853  0.014342967         3831 
 2690000   0.81074567   -9.1164838    458.22812  0.014195419  0.014336217         3824 
 2691000   0.81971242   -9.1409984    457.38354  0.014163989  0.014329466         3822 
 2692000   0.80732016   -9.1196755    458.20544   0.01418417  0.014322708         3818 
 2693000   0.81510851   -9.1066577    457.78404  0.014165863  0.014315948         3805 
 2694000   0.84883219   -9.1612297     458.4831  0.014182229  0.014309192         3813 
 2695000   0.80243588   -9.1107898    457.28445  0.014139903   0.01430244         3803 
 2696000    0.8045605   -9.1375673    458.06634  0.014158826  0.014295697         3822 
 2697000   0.83256665   -9.1350458    457.62103  0.014139817  0.014288946         3814 
 2698000   0.81548928   -9.1543166    458.06683  0.014148345  0.014282203         3769 
 2699000   0.83489199   -9.1365409    457.91449    0.0141384  0.014275467         3788 
 2700000   0.81273775   -9.1651541    457.87748  0.014132021  0.014268733         3810 
 2701000   0.82716161   -9.1530969     457.9648  0.014129483  0.014261998         3797 
 2702000   0.83592452   -9.1355484    457.06266  0.014096431  0.014255254         3799 
 2703000   0.80978651   -9.1748015    457.45764  0.014103393  0.014248516         3819 
 2704000   0.83008846   -9.1724321    457.59834  0.014102513  0.014241779         3796 
 2705000   0.82657728   -9.1627534    456.57578  0.014065797  0.014235048         3777 
 2706000   0.82787042   -9.1658404    456.76605  0.014066459  0.014228313         3846 
 2707000   0.83623995   -9.1731037    456.76499   0.01406123  0.014221577         3824 
 2708000   0.82070971   -9.1627787    458.84523  0.014120053  0.014214831         3834 
 2709000   0.80094457   -9.1574896    456.85528  0.014053626  0.014208092         3873 
 2710000   0.81751671   -9.1826567    458.53908  0.014100218  0.014201342         3869 
 2711000   0.82761731   -9.1591559    458.31628  0.014088168  0.014194611         3839 
 2712000   0.81489342   -9.1896302    457.61479  0.014061418  0.014187871         3850 
 2713000   0.83257654    -9.166172    458.07061  0.014070236  0.014181148         3857 
 2714000   0.80599471   -9.1307696    458.50822  0.014078489  0.014174425         3841 
 2715000   0.82300029   -9.1699296    457.02476  0.014027771  0.014167708         3845 
 2716000   0.81497999   -9.1592941    458.04266  0.014053837  0.014160993         3810 
 2717000   0.82730165   -9.1755725    457.71868  0.014038728  0.014154291         3842 
 2718000   0.82468194   -9.1732133    456.83014   0.01400632  0.014147581         3848 
 2719000   0.80515549   -9.1827536    456.53925  0.013992254  0.014140862         3846 
 2720000   0.81838095   -9.1841425    457.19708  0.014007263   0.01413416         3842 
 2721000   0.83636426   -9.1784536    456.61698  0.013984349  0.014127447         3876 
 2722000   0.81473474   -9.1728107    457.51039  0.014006563  0.014120733         3868 
 2723000   0.79975208   -9.1723667    457.52968   0.01400201   0.01411403         3879 
 2724000   0.82220531   -9.1732782    457.64092  0.014000273   0.01410732         3862 
 2725000    0.8109973   -9.1795326    457.33079  0.013985651  0.014100632         3832 
 2726000   0.80085616   -9.1834686    457.36888  0.013981685  0.014093935         3830 
 2727000     0.839093   -9.1677662    457.55888  0.013982364  0.014087241         3843 
 2728000   0.81414203   -9.1754561    457.68976  0.013981237   0.01408055         3814 
 2729000   0.82151286    -9.195833    456.92533   0.01395277  0.014073861         3845 
 2730000   0.81926755   -9.1975597     456.4966  0.013934573  0.014067165         3879 
 2731000   0.80319757    -9.171459    457.53746  0.013961231  0.014060483         3853 
 2732000   0.80210511   -9.2106576    456.68066  0.013929986  0.014053805         3850 
 2733000   0.80589427    -9.168392    458.07293  0.013967341  0.014047132         3832 
 2734000   0.80948607   -9.1795803    457.25968  0.013937444  0.014040461         3859 
 2735000   0.81357476     -9.16135    457.54583  0.013941067  0.014033795         3891 
 2736000   0.80322011   -9.2082079    457.07154  0.013921526  0.014027128         3857 
 2737000   0.80196809   -9.1746357     456.8324  0.013909158  0.014020472         3859 
 2738000   0.82789788   -9.2014124    457.09876  0.013912185  0.014013812         3872 
 2739000   0.80822823   -9.1646362    457.14421  0.013908489   0.01400715         3852 
 2740000   0.81333393   -9.1904732     456.5373  0.013884954  0.014000507         3842 
 2741000   0.81452167   -9.1718931    457.31064    0.0139034  0.013993846         3837 
 2742000   0.83181328   -9.1402365    457.85562  0.013914892    0.0139872         3833 
 2743000   0.79541679   -9.2061375    456.86289   0.01387966  0.013980563         3818 
 2744000   0.81289998   -9.1845657    456.78864  0.013872347  0.013973923         3852 
 2745000   0.81202997    -9.163299    457.78624  0.013897579  0.013967285         3891 
 2746000   0.81186463   -9.1868869     457.0598  0.013870472  0.013960653         3849 
 2747000   0.80923009   -9.2026995    456.95796  0.013862333  0.013954027         3835 
 2748000     0.810036    -9.166579    457.32596  0.013868449  0.013947402         3880 
 2749000   0.82406082   -9.1523714    457.52404  0.013869408  0.013940769         3872 
 2750000   0.81177205     -9.16591    456.69579  0.013839266  0.013934144         3838 
 2751000   0.79675416   -9.1668424     457.5036  0.013858706  0.013927517         3858 
 2752000   0.81067151   -9.2224603    455.84786  0.013803533  0.013920876         3877 
 2753000   0.81056356   -9.2141963    455.93583  0.013801182  0.013914243         3873 
 2754000   0.79945232   -9.2015113    457.52341  0.013844209   0.01390762         3863 
 2755000   0.79829325   -9.1588118    457.31008  0.013832731  0.013901004         3857 
 2756000   0.83034028   -9.1967119    455.60882  0.013776271  0.013894378         3850 
 2757000   0.82272999   -9.1762962    456.52806  0.013799059  0.013887763         3877 
 2758000   0.79701252   -9.1727728    456.80968  0.013802565  0.013881144         3836 
 2759000   0.80621849   -9.1929706    457.34338  0.013813682  0.013874531         3862 
 2760000   0.82604631   -9.1840256    457.11355  0.013801738  0.013867919         3885 
 2761000   0.81802775   -9.2090372    456.11012  0.013766453    0.0138613         3868 
 2762000   0.81900979   -9.2063907    457.24069   0.01379558  0.013854685         3850 
 2763000   0.81784743   -9.2244849    456.96244  0.013782194  0.013848069         3881 
 2764000   0.80984474   -9.1980395    456.03141  0.013749138  0.013841457         3831 
 2765000   0.79374609   -9.1986481    456.20589  0.013749424  0.013834858         3865 
 2766000   0.81163712   -9.2261239    455.65276  0.013727789  0.013828252         3843 
 2767000   0.81619365    -9.224249    455.66896  0.013723315  0.013821661         3856 
 2768000   0.81349275   -9.2072941    456.80979  0.013752703  0.013815066         3822 
 2769000   0.80264843   -9.1995567    457.67174  0.013773677  0.013808473         3849 
 2770000    0.8253726   -9.2069501     457.2777   0.01375685  0.013801881         3850 
 2771000   0.80519038   -9.2165816    457.23525  0.013750609  0.013795291         3867 
 2772000   0.78920314   -9.2059143    456.98814   0.01373822  0.013788708         3870 
 2773000   0.81368179   -9.1870931     457.5887  0.013751313  0.013782122         3849 
 2774000     0.798432   -9.2044893    457.18236  0.013734149  0.013775539         3862 
 2775000   0.78725521   -9.1919496    456.88518  0.013720276   0.01376897         3869 
 2776000    0.7957466   -9.1859884    455.97092  0.013687888  0.013762394         3858 
 2777000   0.79753817   -9.1990554    456.57905  0.013701208   0.01375583         3879 
 2778000   0.81674333   -9.1938862    455.89412  0.013675729  0.013749266         3896 
 2779000   0.81551522   -9.2023363    455.84738  0.013669407  0.013742696         3881 
 2780000   0.81162555   -9.2078659    456.95641  0.013697734  0.013736132         3880 
 2781000   0.81057738   -9.2159863    456.46565  0.013678103  0.013729581         3883 
 2782000   0.80080276   -9.2432176    456.55272  0.013675794  0.013723025         3889 
 2783000   0.81390893   -9.2196458    457.13337  0.013688267  0.013716468         3825 
 2784000    0.8170787   -9.1930475    456.77681  0.013672678  0.013709919         3889 
 2785000   0.82313725   -9.2367077    456.67043  0.013664585  0.013703365         3881 
 2786000   0.80865714   -9.2081502     457.1444  0.013673857  0.013696817         3893 
 2787000   0.81679723   -9.2290101    456.30538  0.013643864  0.013690271         3892 
 2788000    0.8197822   -9.1948703    457.21833  0.013666258  0.013683733         3877 
 2789000    0.8059572   -9.2105031    456.75146  0.013647408  0.013677194         3891 
 2790000   0.79579932   -9.1930912    456.27112   0.01362817   0.01367065         3856 
 2791000   0.80272892   -9.2056278    456.90808  0.013642305  0.013664109         3879 
 2792000     0.826557   -9.2310271    456.78621  0.013633781  0.013657566         3898 
 2793000   0.80163467   -9.2222687    456.89403  0.013632117  0.013651012         3876 
 2794000   0.79468043   -9.1899664    456.93919  0.013628585  0.013644474         3871 
 2795000   0.79257196   -9.2109592    456.24591  0.013603038  0.013637942         3887 
 2796000    0.8089821   -9.2462001    455.31185  0.013570334  0.013631403         3897 
 2797000   0.80843306   -9.2238964    456.22224  0.013592606  0.013624871         3887 
 2798000   0.83569297   -9.2569995    455.36607  0.013562249  0.013618338         3883 
 2799000   0.79007802   -9.2309592    455.26674  0.013554446  0.013611807         3899 
 2800000   0.81317154   -9.2360137    455.64646  0.013560907   0.01360529         3909 
 2801000   0.79770813   -9.2524041    455.37354  0.013547945  0.013598768         3886 
 2802000   0.80232247   -9.2515726    454.78757  0.013525683  0.013592254         3879 
 2803000   0.80737968   -9.2478469    456.12068  0.013560491  0.013585745         3885 
 2804000   0.80781537   -9.2411173    455.75627  0.013544825  0.013579236         3900 
 2805000   0.79016363   -9.2254437    455.48035  0.013531799  0.013572723         3869 
 2806000   0.81819938   -9.2410121    456.39097   0.01355402  0.013566214         3891 
 2807000   0.79515285   -9.2413877    455.75795  0.013530399  0.013559709         3858 
 2808000   0.80681412   -9.2099231     456.8979  0.013559411  0.013553213         3885 
 2809000   0.78723451   -9.2644161    455.66864  0.013518115  0.013546718         3870 
 2810000   0.79374651   -9.2238176    456.44202   0.01353624  0.013540221         3878 
 2811000   0.79587685   -9.2234424    456.24044  0.013525449  0.013533732         3899 
 2812000   0.80942674   -9.2776398    455.16622  0.013488804  0.013527237         3917 
 2813000   0.79787902   -9.2075814    456.21622  0.013515115  0.013520749         3888 
 2814000   0.81328571   -9.2067373     456.4423  0.013517007   0.01351427         3849 
 2815000   0.80378388   -9.2542589    456.09385   0.01350189  0.013507796         3895 
 2816000   0.79418215   -9.2646227    454.89057  0.013461487  0.013501316         3903 
 2817000   0.78515516   -9.2536208    455.75612  0.013482313  0.013494832         3871 
 2818000   0.79868216   -9.2316697    456.11627  0.013488179  0.013488353         3900 
 2819000   0.80482918   -9.2472606    455.31729  0.013459776  0.013481871         3917 
 2820000   0.81629813   -9.2233599     456.8907  0.013501498    0.0134754         3908 
 2821000   0.80563182   -9.2432315    455.51516  0.013456078   0.01346894         3895 
 2822000   0.81203066   -9.2284205    456.45275  0.013478997  0.013462475         3897 
 2823000   0.80786822   -9.2512574    455.33781   0.01344131  0.013456009         3887 
 2824000   0.79461001   -9.2519712    454.88657  0.013423234  0.013449551         3916 
 2825000   0.79761234   -9.2528918    456.04132  0.013452546  0.013443085         3893 
 2826000   0.79089371   -9.2380104     455.2494  0.013424434  0.013436622         3910 
 2827000    0.8007915   -9.2601592    455.86179  0.013437737  0.013430168         3896 
 2828000   0.80667117   -9.2526058    455.31062  0.013416744  0.013423716         3876 
 2829000   0.79218824   -9.2555031    455.74005  0.013424651  0.013417267         3857 
 2830000   0.79481442   -9.2787163    455.15731  0.013402748  0.013410825         3911 
 2831000   0.78666802   -9.2227717    456.43038  0.013435487  0.013404394         3921 
 2832000   0.81454763   -9.2698479    454.27287  0.013367257  0.013397959         3923 
 2833000   0.80043566   -9.2455759    456.07476  0.013415542  0.013391523         3876 
 2834000   0.79446785   -9.2573609    455.40144  0.013391009    0.0133851         3883 
 2835000   0.79011234   -9.2549997    455.21531  0.013380814  0.013378671         3914 
 2836000   0.78666131   -9.2484158    456.25598  0.013406675  0.013372248         3899 
 2837000    0.7943469   -9.2748474    455.77888  0.013387936  0.013365832         3882 
 2838000   0.79347605    -9.236991    456.18937  0.013395272  0.013359424         3889 
 2839000    0.7831537   -9.2614058    456.03562   0.01338604  0.013353006         3874 
 2840000     0.793113   -9.2772433    454.81348  0.013345466  0.013346598         3901 
 2841000   0.77956285   -9.2500307    456.09835  0.013378457  0.013340188         3877 
 2842000   0.79599406   -9.2475957    455.93526  0.013368967  0.013333785         3885 
 2843000   0.78686387    -9.258691     454.6799  0.013327468  0.013327382         3908 
 2844000   0.78833957   -9.2851139    455.08784  0.013334735  0.013320989         3906 
 2845000   0.80130211   -9.2456021    456.16257  0.013361528  0.013314592         3899 
 2846000   0.80812481   -9.2943192    455.15512  0.013327334  0.013308198         3885 
 2847000   0.79236597    -9.242902    455.17354  0.013323192    0.0133018         3906 
 2848000   0.79904816   -9.2588669    455.25873  0.013321007  0.013295404         3934 
 2849000   0.79677231   -9.2345754     455.8717  0.013334261  0.013289033         3891 
 2850000   0.79804516   -9.2370317    455.55173  0.013320226   0.01328265         3906 
 2851000   0.80172462    -9.243411    454.70237  0.013290727  0.013276264         3887 
 2852000   0.80490013   -9.2679689    455.26506  0.013302509  0.013269878         3912 
 2853000   0.78629378   -9.2724205    455.50151  0.013304753  0.013263502         3909 
 2854000   0.80338549   -9.2970173    454.45192  0.013269444  0.013257133         3928 
 2855000   0.80510402   -9.2612811    455.09668  0.013283616  0.013250764         3885 
 2856000   0.80890614   -9.2601453    456.50578   0.01332008  0.013244396         3898 
 2857000   0.81092547   -9.2459967    455.07089  0.013273565  0.013238034         3898 
 2858000   0.80203184   -9.2513149    455.23351  0.013273662  0.013231678         3890 
 2859000   0.79164843   -9.2697536    455.42921  0.013274723   0.01322532         3897 
 2860000   0.80194757   -9.2679905    455.36528  0.013268219  0.013218976         3909 
 2861000   0.80425448   -9.2536585    454.98832  0.013252602  0.013212632         3896 
 2862000   0.78699355   -9.2531947    455.36997  0.013259084  0.013206285         3907 
 2863000   0.78822732   -9.2420366    455.64973  0.013262595  0.013199936         3911 
 2864000   0.80570687   -9.2450652    456.44673  0.013281155  0.013193606         3900 
 2865000   0.79822588   -9.2590955    454.60256  0.013222878  0.013187274         3894 
 2866000   0.78809868   -9.2635668    454.35176  0.013210972  0.013180942         3901 
 2867000   0.79820438   -9.2470795    455.13758  0.013229205  0.013174611         3880 
 2868000   0.79829678   -9.2680223    454.89287  0.013217482  0.013168287         3911 
 2869000   0.78951604    -9.284692    455.01683  0.013216476  0.013161973         3902 
 2870000   0.78149359   -9.2573252    456.22358   0.01324691  0.013155651         3913 
 2871000   0.79388885   -9.2806674    455.15134  0.013211173   0.01314933         3922 
 2872000   0.80509508   -9.2619904     455.6063  0.013219774  0.013143016         3908 
 2873000   0.78335462   -9.2585108    455.28255  0.013205782  0.013136703         3919 
 2874000   0.78121734   -9.2644915    455.71424  0.013213705  0.013130385         3925 
 2875000   0.80078302   -9.3250473    455.32355  0.013197784  0.013124077         3918 
 2876000   0.80079929   -9.2632115    455.75208  0.013205612  0.013117774         3899 
 2877000    0.7910465   -9.2652257    455.22461  0.013185744  0.013111471         3927 
 2878000   0.78475227   -9.2763525     454.5042  0.013160302  0.013105177         3914 
 2879000   0.79292831   -9.2919449    455.07551  0.013172268  0.013098889         3889 
 2880000   0.78421783   -9.2611086    455.67989  0.013185182  0.013092595         3920 
 2881000   0.80046995   -9.2730525    455.28584  0.013169208   0.01308631         3928 
 2882000   0.78639997   -9.2803211    456.03196  0.013186212  0.013080027         3921 
 2883000   0.79656639   -9.2679828    456.07838   0.01318298   0.01307374         3910 
 2884000   0.78710512   -9.2768131    455.03051  0.013148131   0.01306747         3930 
 2885000   0.78220944   -9.2821616    455.41494  0.013154678  0.013061189         3902 
 2886000   0.80849596    -9.283314     454.9479  0.013136634  0.013054909         3923 
 2887000   0.77062096   -9.2705118     455.0446  0.013134875  0.013048641         3923 
 2888000        0.786   -9.2456491    455.88797  0.013154662  0.013042386         3898 
 2889000   0.78097072   -9.2909501    455.07942  0.013126786  0.013036132         3927 
 2890000   0.80055106   -9.2839662    454.82774  0.013114987  0.013029867         3918 
 2891000   0.79058217   -9.2676757    454.96677  0.013114458  0.013023619         3936 
 2892000   0.77794143   -9.2682227    454.78394  0.013104655  0.013017363         3938 
 2893000   0.78368753   -9.2774857     454.5112  0.013092269   0.01301111         3926 
 2894000   0.78896685     -9.28319    454.77114   0.01309523  0.013004871         3917 
 2895000   0.79017186   -9.2808347    455.50834  0.013111927  0.012998629         3930 
 2896000   0.78422745   -9.2924059    454.54536  0.013079689  0.012992386         3932 
 2897000   0.78516012   -9.2828742    455.32641  0.013097641  0.012986151         3917 
 2898000   0.79130946   -9.2515585    455.49584  0.013097994  0.012979924         3932 
 2899000   0.78505336   -9.2887123    455.18945  0.013084669  0.012973697         3940 
 2900000   0.77568453   -9.2839427    456.26142   0.01311096   0.01296747         3911 
 2901000   0.79400996   -9.2571651    455.48444  0.013084121   0.01296124         3920 
 2902000   0.79841552   -9.2808683    455.54916  0.013081471  0.012955016         3906 
 2903000   0.80092928   -9.2905695    454.45994  0.013045698  0.012948799         3933 
 2904000   0.80898718   -9.2626536    455.36541  0.013067189  0.012942584         3925 
 2905000   0.80419912   -9.2602613     454.8469  0.013047817  0.012936376         3936 
 2906000   0.78636039   -9.2761193     454.3301  0.013028507  0.012930166         3947 
 2907000   0.78016157   -9.3089942    455.53722  0.013058629  0.012923964         3915 
 2908000   0.77202147   -9.2709539    455.03306  0.013039691  0.012917761         3937 
 2909000   0.77997312   -9.2829872    455.56835  0.013050543  0.012911561         3923 
 2910000   0.78578859    -9.268373     454.2915  0.013009493  0.012905362         3940 
 2911000   0.78818982    -9.300339    454.68408  0.013016262   0.01289918         3917 
 2912000   0.77547841   -9.2992002    455.03426  0.013021814  0.012892994         3944 
 2913000   0.78093191   -9.2778097    455.15931  0.013020921  0.012886809         3930 
 2914000   0.77620119   -9.2866596    455.06182  0.013013664  0.012880623         3913 
 2915000   0.78209259   -9.2866707    454.85255  0.013003218  0.012874442         3934 
 2916000   0.79536158   -9.2708069    455.15604  0.013007431  0.012868266         3924 
 2917000   0.79135101   -9.2913479    454.50613  0.012984405  0.012862098         3930 
 2918000   0.79348792    -9.266732    454.75155  0.012986965   0.01285593         3922 
 2919000   0.78333391   -9.2752317    454.91739   0.01298725  0.012849757         3931 
 2920000   0.78723157    -9.301204     455.7205  0.013005722  0.012843586         3946 
 2921000   0.79443331   -9.2979267    455.08881  0.012983248  0.012837422         3935 
 2922000   0.77019735   -9.2935858    454.65383  0.012966399  0.012831262         3944 
 2923000    0.7748858   -9.3089945     453.8082  0.012937855  0.012825101         3941 
 2924000   0.78683117   -9.2894786    454.44825  0.012951672   0.01281895         3926 
 2925000   0.78105906   -9.2840595    455.13111  0.012966698  0.012812794         3921 
 2926000   0.77588045   -9.2986398    454.93068  0.012956558  0.012806651         3929 
 2927000   0.78012186    -9.292547    454.45036  0.012938457  0.012800509         3923 
 2928000   0.79202094   -9.2795285    454.61923  0.012938844  0.012794358         3919 
 2929000   0.77825349   -9.3040644    454.12162  0.012920269  0.012788214         3927 
 2930000   0.76814666   -9.2971288    455.90626  0.012966617  0.012782077         3936 
 2931000   0.76890404   -9.2660518    455.07215  0.012938478  0.012775941         3925 
 2932000   0.78212838   -9.2879191    454.10726  0.012906641  0.012769806         3919 
 2933000   0.77509064   -9.2968907    454.46705  0.012912463  0.012763673         3900 
 2934000   0.78512399   -9.3207754    454.25705  0.012902097  0.012757544         3939 
 2935000   0.79055077   -9.2911015    454.58779  0.012907092  0.012751423         3926 
 2936000   0.78153991   -9.2789602    454.80742   0.01290893  0.012745303         3937 
 2937000   0.77461212   -9.2948993    454.91729  0.012907652  0.012739189         3934 
 2938000   0.78721319   -9.3205256    454.50807  0.012891652   0.01273308         3917 
 2939000   0.78497628   -9.2906026      454.586  0.012889475  0.012726964         3911 
 2940000    0.7955606   -9.2902074    454.01672  0.012868955  0.012720853         3938 
 2941000   0.77902449   -9.3239773     454.1755  0.012869078  0.012714751         3942 
 2942000   0.77250413   -9.3236305    454.36422  0.012870049  0.012708643         3906 
 2943000   0.78544221   -9.3165059    453.13985  0.012831007   0.01270255         3930 
 2944000   0.79263014   -9.3089416    453.91111   0.01284848  0.012696453         3921 
 2945000   0.78555049   -9.3217018    454.93102  0.012872977  0.012690362         3919 
 2946000   0.76904977   -9.3104939    454.36252  0.012852527  0.012684266         3924 
 2947000   0.78371067   -9.3026927    454.32426  0.012847083   0.01267818         3927 
 2948000   0.77566522   -9.3214211    454.49557  0.012847568  0.012672092         3932 
 2949000   0.77456853   -9.2887834    455.13634  0.012861318  0.012666021         3906 
 2950000   0.77326645   -9.2982342    454.13835  0.012828767  0.012659941         3921 
 2951000   0.78616046   -9.2841458    454.71421  0.012840681  0.012653868         3942 
 2952000   0.75526663   -9.3234077    454.24761   0.01282316  0.012647796         3932 
 2953000   0.77297838   -9.3306477    454.34454  0.012821553  0.012641716         3924 
 2954000   0.77830917   -9.2993435    454.78558  0.012829654   0.01263565         3927 
 2955000   0.77872288   -9.3071191    454.12712  0.012806743   0.01262958         3914 
 2956000   0.77446986   -9.3308631    453.37821  0.012781298  0.012623519         3938 
 2957000   0.77454917   -9.2989588    454.42262  0.012806409  0.012617457         3924 
 2958000   0.79511927   -9.3046358    454.43088  0.012802312   0.01261141         3951 
 2959000   0.78137429   -9.2968437    453.87394  0.012782301  0.012605355         3932 
 2960000   0.76255023   -9.3221582    453.68813  0.012772751  0.012599308         3936 
 2961000   0.77553994   -9.3271137    455.36965  0.012815762  0.012593263         3929 
 2962000   0.77480403   -9.3419646    453.24441  0.012751643  0.012587217         3937 
 2963000   0.77804662   -9.3184185    454.35917  0.012778692  0.012581178         3912 
 2964000   0.78517985   -9.3116394    453.65629  0.012754619  0.012575141         3917 
 2965000   0.77724712   -9.3115507    454.74355  0.012780875  0.012569108         3901 
 2966000   0.78328056   -9.2952325    453.88881  0.012752551  0.012563077         3939 
 2967000   0.75848538   -9.3141538    454.15061  0.012755606  0.012557047         3953 
 2968000   0.80145705   -9.2953029    454.51684  0.012761591  0.012551019         3926 
 2969000   0.78656778   -9.3210167    453.44549  0.012727223     0.012545         3925 
 2970000   0.76581543   -9.2956319    454.57064  0.012754507  0.012538979         3942 
 2971000   0.78633071   -9.2804468    453.65753  0.012724603  0.012532969         3952 
 2972000   0.78782056   -9.3060385     454.6822  0.012749052  0.012526967         3946 
 2973000   0.77778381   -9.3129209    454.99971  0.012753664  0.012520961         3928 
 2974000   0.77228808    -9.305583    454.73815  0.012742046  0.012514958         3942 
 2975000   0.78098215   -9.3213795    454.39706  0.012728209  0.012508957         3946 
 2976000   0.79517948   -9.3140446    454.43824  0.012725085  0.012502966         3951 
 2977000   0.76356283    -9.318993     455.0063  0.012736712   0.01249697         3927 
 2978000   0.75886511   -9.3176661     454.7498  0.012725257  0.012490978         3920 
 2979000   0.78520036   -9.3284734    455.30755  0.012736588  0.012484995         3911 
 2980000   0.77152204   -9.2953913    454.68389  0.012714874  0.012479009         3915 
 2981000   0.78492015   -9.3224827    454.17969  0.012696514  0.012473024         3924 
 2982000   0.75071205   -9.2918955    455.01174  0.012715508  0.012467051         3938 
 2983000   0.77161404   -9.3199307    453.75094  0.012676024  0.012461075         3942 
 2984000   0.77881172   -9.3278621    453.59888  0.012667529  0.012455104         3946 
 2985000   0.79954854   -9.3211675    455.02428  0.012703079  0.012449136         3926 
 2986000   0.78035211   -9.3288235    454.02332   0.01267089  0.012443176         3908 
 2987000    0.7803685   -9.3100023    454.36002  0.012676041  0.012437214         3918 
 2988000   0.78014924   -9.2675239    455.78772  0.012711617  0.012431258         3922 
 2989000    0.7662539   -9.3332432    454.38039  0.012668127    0.0124253         3911 
 2990000    0.7735884   -9.3179031    454.12099  0.012656661  0.012419349         3919 
 2991000   0.76588708   -9.3125281    455.14213   0.01268088   0.01241339         3913 
 2992000   0.77071446   -9.2996379    454.86412  0.012668898  0.012407439         3928 
 2993000   0.76183095   -9.3319145    453.86635  0.012636885   0.01240149         3925 
 2994000   0.77453096   -9.3113562    454.23289  0.012642866  0.012395541         3937 
 2995000   0.74950669   -9.3214631     453.7271  0.012624572  0.012389601         3920 
 2996000   0.77925731   -9.3200701    454.07557   0.01263005  0.012383666         3909 
 2997000   0.77082334   -9.3134138    454.17257  0.012628533  0.012377734         3935 
 2998000   0.77578244   -9.3344308    454.24736    0.0126264   0.01237181         3935 
 2999000   0.77889281    -9.316903    453.59551  0.012604077   0.01236589         3926 
 3000000   0.76172209    -9.338054    453.99202  0.012610889  0.012359968         3937 
 3001000   0.77512516   -9.3004385    454.83387  0.012630064  0.012354048         3934 
 3002000   0.76576339   -9.3316606    453.54412  0.012590054  0.012348138         3934 
 3003000   0.77942364   -9.3348903    454.44424   0.01261084  0.012342228         3936 
 3004000   0.76429631   -9.2981547    454.29093  0.012602389  0.012336317         3925 
 3005000   0.75542749   -9.3290434    454.77591  0.012611645  0.012330419         3930 
 3006000   0.77342633   -9.3317471    454.18792  0.012591149   0.01232451         3927 
 3007000   0.77297109   -9.3110327    454.40639  0.012593016  0.012318606         3940 
 3008000   0.76778619   -9.3293316     452.9643  0.012548878  0.012312711         3950 
 3009000   0.75611022   -9.3265265    454.32255  0.012582324   0.01230682         3921 
 3010000   0.77549964   -9.3114005    453.34792  0.012551161  0.012300927         3913 
 3011000   0.76545294   -9.3350585    453.40683  0.012548623  0.012295038         3920 
 3012000   0.77881753   -9.3042114    453.87574   0.01255743  0.012289154         3933 
 3013000   0.78397426   -9.3255202     453.4872  0.012542516  0.012283273         3911 
 3014000   0.77453105   -9.3233679    454.58646  0.012568747  0.012277398         3922 
 3015000   0.76519802   -9.3311504     454.2034  0.012553991  0.012271522         3939 
 3016000   0.76006354   -9.3327307    453.89363  0.012541269  0.012265659         3929 
 3017000   0.77435039   -9.3062059    454.44013  0.012552208  0.012259795         3928 
 3018000   0.74693415   -9.3504029    454.05604  0.012537443  0.012253932         3919 
 3019000   0.76366035   -9.2946233    454.39673  0.012542694  0.012248069         3914 
 3020000   0.76662795    -9.325943    454.69241    0.0125467  0.012242204         3924 
 3021000   0.78341897   -9.3492669    452.78374  0.012489897  0.012236347         3920 
 3022000   0.77125316   -9.3310068    453.65431   0.01250977  0.012230495         3945 
 3023000   0.77882538   -9.3142014    454.64006  0.012532806  0.012224648         3927 
 3024000   0.76585912   -9.3308597    453.23541  0.012489953  0.012218808         3928 
 3025000   0.79350383    -9.323988     454.4437   0.01251911  0.012212969         3931 
 3026000   0.77141767   -9.3400429     455.0828  0.012532573  0.012207134         3930 
 3027000   0.79136248    -9.337875    452.95317  0.012469804  0.012201295         3925 
 3028000   0.76803536   -9.3397341    453.61926  0.012484018  0.012195454         3944 
 3029000   0.77671179   -9.3157565    453.13568  0.012466592   0.01218962         3923 
 3030000   0.75494972   -9.3588318     453.7795  0.012480184  0.012183787         3924 
 3031000   0.77472639   -9.3370143    454.55284  0.012497329  0.012177964         3931 
 3032000   0.77328874    -9.330651    453.71232  0.012470105  0.012172139         3931 
 3033000   0.77240623   -9.3410822    454.06945  0.012475806  0.012166323         3933 
 3034000   0.76993843   -9.3317686    454.11395  0.012472917    0.0121605         3933 
 3035000    0.7555899   -9.3286439    454.27582  0.012473251   0.01215468         3928 
 3036000   0.75713728   -9.3154322    453.34992  0.012443729  0.012148874         3932 
 3037000   0.77298757   -9.3376742    452.60545  0.012419203  0.012143069         3941 
 3038000   0.77997869   -9.3246558    454.05435  0.012454859  0.012137263         3925 
 3039000   0.78227687   -9.3391356    453.34927  0.012431427  0.012131462         3915 
 3040000   0.75286562   -9.3301874    453.00557  0.012417916  0.012125674         3918 
 3041000   0.76882067   -9.3288389    453.05398  0.012415159  0.012119882         3943 
 3042000   0.76218019   -9.3377901    453.59263  0.012425834   0.01211409         3946 
 3043000   0.75746497   -9.3410517    453.84617  0.012428693  0.012108304         3940 
 3044000   0.76581583   -9.3287421    453.75125  0.012422012  0.012102518         3923 
 3045000   0.75955085   -9.3171921    455.07966  0.012454287  0.012096741         3917 
 3046000   0.75898273   -9.3292913    453.61121  0.012410024  0.012090977         3926 
 3047000   0.77135366   -9.3164197    454.38278  0.012427053  0.012085204         3926 
 3048000   0.75816232   -9.3360253    453.74894  0.012405647  0.012079442         3912 
 3049000   0.76848764   -9.3424985    453.55129  0.012396176  0.012073675         3919 
 3050000   0.75566691   -9.3169892    453.82846  0.012399685  0.012067907         3919 
 3051000   0.75816566   -9.3091643    454.74674  0.012420702  0.012062147         3910 
 3052000    0.7578629   -9.3296182    454.05777   0.01239782  0.012056393         3927 
 3053000   0.75040123    -9.359772    453.21713  0.012370814  0.012050634         3923 
 3054000   0.74898171   -9.3303936     454.1454  0.012392092   0.01204488         3929 
 3055000   0.76804783   -9.3082943    453.26847  0.012364115  0.012039136         3923 
 3056000   0.76270182   -9.3538339    453.36204  0.012362621   0.01203339         3928 
 3057000   0.75955995   -9.3462781    453.73739  0.012368809   0.01202765         3924 
 3058000   0.76673948   -9.3798792    453.00422  0.012344785   0.01202191         3939 
 3059000   0.77433018   -9.3648234    453.38493  0.012351121  0.012016179         3924 
 3060000   0.77729129   -9.3203703    453.91252  0.012361452  0.012010449         3919 
 3061000   0.75853299   -9.3263444    453.93717  0.012358085  0.012004722         3932 
 3062000   0.77693778   -9.3387026    453.19289  0.012333793  0.011998993         3918 
 3063000   0.76848032   -9.3338932    453.73463  0.012344505  0.011993264         3927 
 3064000   0.76332684   -9.3356354    453.61839  0.012337315  0.011987539         3927 
 3065000   0.75731686   -9.3548197    453.60041  0.012332801  0.011981809         3920 
 3066000   0.76518041   -9.3587161    453.13928  0.012316245  0.011976092         3920 
 3067000   0.77007894   -9.3600235    453.94237   0.01233405  0.011970376         3919 
 3068000   0.77393566   -9.3547594    452.95928  0.012303327  0.011964665         3926 
 3069000   0.76497688   -9.3423392    453.77961  0.012321592  0.011958955         3914 
 3070000   0.76077314   -9.3342196    453.95504  0.012322341  0.011953255         3926 
 3071000   0.75398069   -9.3428754    453.10384  0.012295231  0.011947557         3936 
 3072000    0.7413671   -9.3215101    454.33822  0.012324713   0.01194186         3926 
 3073000   0.76849757   -9.3296361    454.15927   0.01231585  0.011936168         3930 
 3074000   0.75608075   -9.3355335    453.66777  0.012298519  0.011930475         3898 
 3075000   0.75545194   -9.3516779    453.36455  0.012286302  0.011924786         3943 
 3076000    0.7650151    -9.363181    454.01421  0.012299908  0.011919105         3927 
 3077000   0.76484912   -9.3417911    454.20021  0.012300948  0.011913422         3931 
 3078000   0.76445329   -9.3578129    453.41349  0.012275652  0.011907745         3923 
 3079000   0.76357423   -9.3663785    453.74354  0.012280598   0.01190206         3919 
 3080000   0.76461531   -9.3557244    454.12875  0.012287033  0.011896382         3940 
 3081000   0.76858355   -9.3619203    454.25488  0.012286457  0.011890702         3933 
 3082000   0.76986312   -9.3331422    454.47297  0.012288367  0.011885029         3933 
 3083000   0.75862012   -9.3382127    452.72329  0.012237088  0.011879362         3932 
 3084000   0.76962769   -9.3694819    453.01159   0.01224091  0.011873699         3930 
 3085000   0.77247793   -9.3738287     452.9641  0.012235659  0.011868042         3933 
 3086000   0.75631293   -9.3463808    453.35502  0.012242251  0.011862381         3929 
 3087000   0.75535803   -9.3432492    453.03737   0.01222971  0.011856724         3914 
 3088000   0.77116597   -9.3512086    452.80924  0.012219593  0.011851069         3935 
 3089000    0.7443491   -9.3708631    452.89275   0.01221789  0.011845413         3913 
 3090000   0.75010213   -9.3284138    452.86543  0.012213199  0.011839764         3936 
 3091000    0.7479994   -9.3681765    453.11645  0.012216015  0.011834122         3935 
 3092000   0.77719967   -9.3540217     452.5353  0.012196402  0.011828484         3930 
 3093000   0.75742965   -9.3479968    453.47413  0.012217753  0.011822836         3928 
 3094000   0.75580795    -9.362103    453.44759   0.01221309  0.011817195         3945 
 3095000   0.75553877   -9.3667386    453.81588   0.01221906  0.011811569         3922 
 3096000   0.75225542   -9.3242417    453.55526  0.012208098  0.011805944         3947 
 3097000   0.75696817   -9.3631956    452.95059  0.012187886  0.011800316         3943 
 3098000   0.75528913   -9.3769027    453.37198  0.012195287  0.011794691         3934 
 3099000   0.76070669   -9.3475876    454.05462  0.012209708  0.011789077         3938 
 3100000   0.75821543   -9.3889701    452.62539  0.012167349  0.011783459         3924 
 3101000   0.76016851   -9.3729488    453.02731  0.012174226  0.011777846         3921 
 3102000   0.75552864   -9.3375018    453.62751  0.012186426  0.011772241         3945 
 3103000   0.77335165   -9.3514678     452.7007  0.012157608  0.011766637         3953 
 3104000   0.74554035   -9.3643515    453.20859  0.012167327  0.011761031         3935 
 3105000   0.74209937   -9.3635833    452.47514  0.012143724  0.011755428         3944 
 3106000   0.76591924   -9.3392116    453.37457  0.012163945  0.011749833         3934 
 3107000   0.75116295   -9.3689608    453.55575   0.01216489  0.011744231         3933 
 3108000   0.75183375   -9.3496388    452.64239  0.012136486  0.011738639         3938 
 3109000   0.75753816   -9.3444539    453.34201  0.012151335  0.011733049         3930 
 3110000   0.75430784   -9.3604637    453.63571  0.012155298  0.011727459         3928 
 3111000   0.75827814   -9.3593711    453.56141    0.0121494  0.011721874         3949 
 3112000   0.75502969   -9.3921927    453.16174  0.012134794  0.011716294         3949 
 3113000   0.74762215   -9.3775931    453.19111  0.012131682  0.011710718         3939 
 3114000   0.74698964   -9.3703665    453.09515  0.012125218  0.011705145         3931 
 3115000   0.75858859   -9.3629298    454.03111  0.012146365  0.011699578         3933 
 3116000   0.75698651   -9.3496327    453.96843   0.01214079  0.011694016         3915 
 3117000   0.73770063     -9.37205    453.21049  0.012116632  0.011688455         3931 
 3118000   0.74907235   -9.3614175     453.3743  0.012117124  0.011682899         3937 
 3119000   0.75239996    -9.364476    453.44459  0.012115117  0.011677334         3939 
 3120000   0.74573063     -9.38924    453.30025  0.012107379  0.011671782         3936 
 3121000    0.7482791    -9.370232    453.04825  0.012096771  0.011666234         3938 
 3122000    0.7467798   -9.3701428    452.21213  0.012070578  0.011660691         3955 
 3123000   0.76365131   -9.3454548    453.77462  0.012108406  0.011655146         3931 
 3124000   0.77983925   -9.3489232     452.9964  0.012083771  0.011649608         3930 
 3125000   0.74902365   -9.3545608    453.26849   0.01208716  0.011644073         3930 
 3126000   0.74933946   -9.3730748    452.62767   0.01206621  0.011638535         3944 
 3127000   0.75830404   -9.3971974    454.01874  0.012099423  0.011632999         3941 
 3128000   0.76007255   -9.3734392     452.9394    0.0120668  0.011627468         3931 
 3129000   0.75167922   -9.3778937    452.37018  0.012047784  0.011621947         3932 
 3130000   0.75089103   -9.3927943    453.02474  0.012061362  0.011616426         3939 
 3131000   0.75139483   -9.3744855    453.60951  0.012073073   0.01161091         3943 
 3132000   0.74051524   -9.3708552    451.68674  0.012018059  0.011605394         3951 
 3133000   0.76635436   -9.3742001    453.08162  0.012051325   0.01159988         3930 
 3134000   0.75795075   -9.4003658    453.43232  0.012056805  0.011594366         3935 
 3135000   0.73931304   -9.3563243    453.96139  0.012067023   0.01158886         3918 
 3136000   0.75668884      -9.3794    452.51991   0.01202487  0.011583359         3944 
 3137000   0.74719499   -9.3901541    452.47596  0.012019869  0.011577855         3926 
 3138000   0.73039678   -9.3820274    452.62096   0.01201989  0.011572356         3939 
 3139000   0.74471688   -9.3686974    453.26994  0.012033289  0.011566863         3942 
 3140000   0.72626063   -9.3448402    452.59266  0.012011483  0.011561373         3941 
 3141000   0.73133156   -9.3873068    453.31213  0.012026746  0.011555888         3926 
 3142000   0.73829795   -9.3984032    452.42813  0.011999473  0.011550401         3922 
 3143000   0.74563495   -9.3778538     453.3346  0.012019689  0.011544918         3931 
 3144000   0.74679968   -9.3742331    452.45773  0.011992624  0.011539444         3914 
 3145000   0.75202289   -9.3787582    452.36116  0.011986252  0.011533965         3936 
 3146000   0.74184774   -9.3907546    452.72702  0.011992133  0.011528491         3936 
 3147000   0.75134054   -9.3657769    453.42583  0.012006827  0.011523013         3905 
 3148000   0.74521507    -9.372153    451.96507  0.011964344  0.011517547         3933 
 3149000   0.76519413   -9.3874515    452.93155  0.011986121  0.011512081         3913 
 3150000   0.76268045   -9.3774514    452.12952  0.011961098  0.011506624         3945 
 3151000   0.74508286   -9.3738906    452.61296  0.011970088  0.011501172         3934 
 3152000   0.74234662   -9.3654146    452.78566  0.011970856  0.011495715         3937 
 3153000   0.75789045   -9.3897958     453.2554  0.011979475  0.011490256         3928 
 3154000   0.73942944    -9.358616    452.46737  0.011954855  0.011484807         3923 
 3155000   0.75291568   -9.3871665    451.71005  0.011931063  0.011479356         3923 
 3156000   0.75806455   -9.3926548    452.17542  0.011939571  0.011473916         3927 
 3157000   0.73169051   -9.3760493    452.34789  0.011940341  0.011468478         3924 
 3158000   0.75278905   -9.3785989    452.69795  0.011945798   0.01146304         3939 
 3159000   0.76256322   -9.3931528    453.31267  0.011958232  0.011457603         3927 
 3160000   0.73327206   -9.3679581    454.43246  0.011983978  0.011452174         3916 
 3161000   0.74983801   -9.3876395    452.39715   0.01192653  0.011446747         3923 
 3162000    0.7433685   -9.3887147    453.13451  0.011942192  0.011441324         3931 
 3163000   0.73737239   -9.3753419    453.03553  0.011935808  0.011435906         3919 
 3164000     0.733979   -9.3959733    452.99875  0.011931067  0.011430486         3936 
 3165000   0.72697554   -9.3682853    452.73714  0.011920409  0.011425069         3929 
 3166000   0.74220929   -9.3817459    451.82807  0.011892716  0.011419653         3919 
 3167000   0.71568544   -9.3799431    451.86744  0.011889997  0.011414242         3932 
 3168000   0.74217325   -9.3810532    453.33479  0.011924842  0.011408838         3931 
 3169000   0.74188699   -9.3716782    453.23688  0.011918504  0.011403438         3922 
 3170000   0.74024185   -9.3489951    452.87929  0.011905344   0.01139804         3929 
 3171000   0.74749503   -9.3708201    453.09768  0.011907329  0.011392645         3936 
 3172000    0.7368479   -9.3815506    452.92683  0.011899086  0.011387249         3934 
 3173000   0.73470859   -9.3613212    453.01368  0.011897617  0.011381856         3945 
 3174000   0.74934513   -9.3767723    453.03717  0.011894486  0.011376467         3943 
 3175000   0.73608766   -9.4030973    453.42274  0.011900859  0.011371088         3925 
 3176000   0.76032722   -9.3798764    452.35237  0.011869027  0.011365712         3941 
 3177000   0.72876715   -9.3947396    452.07647  0.011858055  0.011360331         3936 
 3178000   0.74595453   -9.3716919    453.08692  0.011880819  0.011354958         3931 
 3179000   0.75282881   -9.3721012    453.55926  0.011889464  0.011349583         3940 
 3180000   0.74402599   -9.3998668    452.44627  0.011856558  0.011344212         3937 
 3181000   0.73710477   -9.3964929    452.53007  0.011855026  0.011338848         3929 
 3182000   0.73791455   -9.3936768    452.21799  0.011843128  0.011333486         3946 
 3183000   0.73077319   -9.3714912     453.2552  0.011866562  0.011328127         3943 
 3184000   0.72850684   -9.4030093    452.72783  0.011849032  0.011322769         3934 
 3185000   0.74615585   -9.3651655    453.08281    0.0118546  0.011317414         3926 
 3186000   0.73118826   -9.3990401    452.67763  0.011840281  0.011312064         3932 
 3187000   0.74547125   -9.3957207    453.27419  0.011852165   0.01130672         3947 
 3188000   0.72752138   -9.3738359    453.38387  0.011851314  0.011301373         3933 
 3189000   0.74376982   -9.4109121    452.50852  0.011824724  0.011296033         3932 
 3190000   0.74296941   -9.3569028    453.13031   0.01183726  0.011290694         3915 
 3191000   0.72885109   -9.3887808    451.94299  0.011802543  0.011285363         3947 
 3192000   0.73614855    -9.409867    452.02131  0.011800891  0.011280028         3942 
 3193000   0.74204762     -9.39474     452.4459  0.011808276  0.011274701         3942 
 3194000   0.75307574   -9.3991283    452.07844  0.011794992  0.011269378         3949 
 3195000   0.75281456   -9.3905393    452.34976  0.011798377  0.011264064         3934 
 3196000   0.73289577   -9.3898499    453.06415  0.011813312  0.011258748         3925 
 3197000   0.73475974   -9.3832569    452.03565  0.011782808  0.011253433         3935 
 3198000    0.7281991   -9.4078327    451.81026   0.01177325  0.011248119         3917 
 3199000   0.72957029   -9.3802889    453.45442    0.0118124  0.011242812         3920 
 3200000   0.74955781   -9.3932754     451.7169  0.011763461   0.01123751         3933 
 3201000   0.72061906   -9.3655627    452.54223  0.011781272  0.011232211         3926 
 3202000   0.75240566   -9.3775771    452.47774  0.011775914  0.011226912         3939 
 3203000   0.72277288   -9.3765402    452.60251  0.011775484  0.011221618         3949 
 3204000   0.74482093   -9.3972986    451.36797    0.0117397  0.011216325         3927 
 3205000   0.73684737   -9.4035702    452.12308   0.01175567  0.011211035         3924 
 3206000   0.73289278   -9.3927984    453.19323   0.01177982  0.011205749         3930 
 3207000    0.7334062   -9.4042009    453.14879  0.011774992  0.011200465         3927 
 3208000   0.74214892   -9.3752322    452.96851  0.011766638  0.011195187         3927 
 3209000     0.719677   -9.3814971    452.82044  0.011759126  0.011189918         3936 
 3210000   0.73519563   -9.4069858    452.75306  0.011753714  0.011184642         3921 
 3211000   0.72087715   -9.3497493     453.4922  0.011769236   0.01117937         3933 
 3212000   0.73246387   -9.3769088     452.3288  0.011735388  0.011174098         3938 
 3213000   0.74077817    -9.389107    452.07267  0.011725093  0.011168822         3934 
 3214000   0.73785775   -9.3868611    452.88977   0.01174263  0.011163556         3950 
 3215000   0.74604181   -9.3717243    452.85079  0.011737967  0.011158297         3939 
 3216000   0.74600412   -9.3964731    452.37851   0.01172208  0.011153034         3940 
 3217000   0.72825319   -9.4023781    452.51501  0.011721972  0.011147779         3937 
 3218000    0.7317775    -9.380424    452.82851  0.011726448  0.011142528         3921 
 3219000   0.74039666   -9.3892677    452.89025  0.011724403  0.011137276         3932 
 3220000   0.73620917    -9.403786    452.53431   0.01171155  0.011132035         3920 
 3221000   0.73818908   -9.3972389     452.7679  0.011713958  0.011126789         3948 
 3222000     0.728675   -9.4042415    452.71141  0.011708861   0.01112154         3952 
 3223000   0.73872726   -9.3767647    452.30247  0.011694655  0.011116301         3940 
 3224000    0.7290918   -9.4049621    452.24933  0.011689654   0.01111107         3946 
 3225000    0.7394707   -9.4150394    452.84091  0.011701315  0.011105835         3939 
 3226000    0.7206186   -9.3965361    451.68835  0.011667916  0.011100613         3947 
 3227000   0.73429286   -9.3888207    452.41148  0.011682974  0.011095378         3948 
 3228000   0.74605955   -9.3945642    451.58821  0.011658101  0.011090155         3929 
 3229000    0.7259392   -9.4024536    452.09149  0.011667479   0.01108493         3953 
 3230000   0.73214256   -9.4157161    452.12879  0.011664829  0.011079711         3950 
 3231000   0.74083734   -9.4032023    452.74127  0.011677016  0.011074489         3939 
 3232000    0.7407031    -9.414303    452.82179  0.011675479  0.011069271         3926 
 3233000   0.73118874   -9.3967117    452.82451  0.011671938  0.011064057         3942 
 3234000   0.74042036   -9.3883242    452.82922   0.01166845  0.011058848         3939 
 3235000   0.73791082   -9.4094199    453.42813  0.011680271  0.011053642         3948 
 3236000   0.73988794   -9.4263506    451.64747  0.011630806  0.011048444         3943 
 3237000   0.73847703   -9.4010959    450.98831  0.011610244  0.011043247         3927 
 3238000   0.72865792   -9.3986186    452.29038  0.011640168  0.011038047         3947 
 3239000   0.73725041   -9.4054868    450.91214  0.011601115  0.011032857         3941 
 3240000   0.74252639   -9.3832835    452.77004   0.01164532   0.01102767         3944 
 3241000   0.73752099   -9.3977752    452.03453  0.011622815  0.011022481         3940 
 3242000   0.72285898   -9.4140957    451.99617  0.011618244  0.011017296         3941 
 3243000   0.73255366   -9.4039778    452.68723  0.011632419  0.011012117         3942 
 3244000   0.73359512   -9.3903803    452.23077  0.011617108  0.011006931         3942 
 3245000   0.72321733   -9.3900955     451.5049  0.011594887  0.011001747         3946 
 3246000    0.7356853   -9.4078727    452.66895  0.011621199  0.010996574         3933 
 3247000     0.721125   -9.4133055    452.14658  0.011604214  0.010991403         3946 
 3248000   0.74118075   -9.4044333    451.73316  0.011590034  0.010986232         3941 
 3249000   0.72810942   -9.4005042    451.56968  0.011582273  0.010981063         3934 
 3250000   0.72781586   -9.3849352    451.47949  0.011576397    0.0109759         3933 
 3251000   0.73241453   -9.3868928    451.98979  0.011585917  0.010970737         3945 
 3252000   0.73796284   -9.4034287    451.91244  0.011580372  0.010965578         3953 
 3253000    0.7346879   -9.3935502    452.36262  0.011588345  0.010960423         3940 
 3254000   0.72858672    -9.407232    451.82823  0.011571098  0.010955273         3947 
 3255000   0.72885643   -9.4022946    451.79231  0.011566623  0.010950125         3949 
 3256000   0.72838394   -9.4021204    451.95235  0.011567167  0.010944974         3952 
 3257000   0.71782652   -9.4196236    451.23962   0.01154538  0.010939829         3931 
 3258000   0.73223237   -9.4002284    451.66532  0.011552725  0.010934692         3930 
 3259000   0.72482111   -9.4106655    452.68328  0.011575209  0.010929557         3948 
 3260000   0.73522211   -9.3922367    452.47696  0.011566384  0.010924428         3953 
 3261000   0.73289878   -9.4217509    451.39491  0.011535186  0.010919302         3948 
 3262000   0.72222489   -9.4054241    451.92411  0.011545169  0.010914176         3933 
 3263000   0.71918662   -9.3988543     452.3279  0.011551943  0.010909048         3942 
 3264000   0.72149279   -9.4263729    451.67254  0.011531672  0.010903924         3932 
 3265000   0.74425752   -9.4002014    452.84597   0.01155809  0.010898806         3938 
 3266000   0.73301196   -9.3966621    452.88955  0.011555663  0.010893697         3949 
 3267000   0.72303464   -9.3863839    452.87207   0.01155168  0.010888583         3932 
 3268000   0.73586048   -9.4242109    452.43854   0.01153709  0.010883473         3940 
 3269000   0.74539976   -9.3939911    451.98705  0.011522052  0.010878368         3931 
 3270000   0.73262212   -9.4011998    452.48315  0.011531171  0.010873265         3943 
 3271000   0.73600266   -9.3846543    451.96423  0.011514425  0.010868166         3924 
 3272000   0.72836526   -9.3987223    453.12406  0.011540446   0.01086307         3958 
 3273000   0.70912271   -9.4125167    451.39211  0.011492823  0.010857978         3943 
 3274000   0.73422914   -9.4033495    452.61807  0.011520517   0.01085289         3936 
 3275000   0.73553708   -9.4177314    451.93005  0.011499492    0.0108478         3943 
 3276000    0.7368067   -9.4055085    452.19854  0.011502812  0.010842714         3938 
 3277000   0.74021907   -9.4163565     452.1672  0.011498505  0.010837625         3955 
 3278000   0.72071421    -9.412655    452.25883  0.011497326  0.010832546         3928 
 3279000   0.74342299   -9.4094206    452.00681  0.011487415  0.010827465         3951 
 3280000    0.7287558   -9.4179062    451.36597  0.011467631  0.010822394         3944 
 3281000   0.70430935   -9.4107702     452.7376  0.011498974  0.010817323         3928 
 3282000   0.71500664   -9.4158742    452.32878   0.01148509  0.010812252         3933 
 3283000   0.73539423   -9.4110425    452.24989  0.011479589  0.010807186         3915 
 3284000   0.73102959   -9.4247322    451.89934  0.011467198  0.010802122         3930 
 3285000   0.72148732   -9.3713822    452.71652  0.011484437  0.010797058         3941 
 3286000   0.71376126   -9.4087529    452.27824  0.011469827  0.010792004         3944 
 3287000   0.73014686   -9.3949236     452.3842  0.011469024  0.010786952         3933 
 3288000    0.7307155   -9.4187772    451.78761  0.011450416  0.010781901         3936 
 3289000   0.72387133   -9.4277099    451.64779  0.011443392  0.010776853         3935 
 3290000   0.72390296   -9.4168657    450.69975  0.011415901  0.010771812         3928 
 3291000   0.71887404   -9.4190145    451.53521  0.011433587  0.010766771         3936 
 3292000   0.72924401   -9.4159633    451.54449  0.011430349  0.010761729         3945 
 3293000   0.73048163   -9.4271754    452.23779  0.011444422  0.010756692         3949 
 3294000   0.72038373   -9.4108363    452.49394  0.011447428  0.010751656         3928 
 3295000   0.70727871   -9.4231551    451.42217  0.011416848  0.010746625         3953 
 3296000   0.72464789    -9.460604    450.55366  0.011391425  0.010741594         3952 
 3297000   0.73424032   -9.4018601    452.27005  0.011431353  0.010736569         3947 
 3298000   0.73246248   -9.4455004    451.39605  0.011405803  0.010731548         3943 
 3299000   0.71853095   -9.4223372    451.63618  0.011408411  0.010726529         3934 
 3300000   0.72564093   -9.4211779    452.30472  0.011421836  0.010721516         3956 
 3301000   0.72470231   -9.4018374    452.50514  0.011423436  0.010716503         3953 
 3302000   0.71276451   -9.4170056    451.38906   0.01139181  0.010711491         3926 
 3303000   0.71041227   -9.4349631    451.59283  0.011393502  0.010706484         3943 
 3304000   0.72982056   -9.4230473    451.83497  0.011396161  0.010701482         3954 
 3305000   0.73600629    -9.417094    451.93589  0.011395257  0.010696485         3953 
 3306000   0.71536239   -9.4233055    451.34563  0.011376931  0.010691485         3955 
 3307000   0.70894968   -9.4102925    451.92469  0.011388083  0.010686493         3957 
 3308000   0.70583258   -9.4298023    451.49232  0.011373749    0.0106815         3938 
 3309000   0.72955658   -9.4340882    451.53338  0.011371345  0.010676508         3945 
 3310000   0.73878715   -9.4262449    451.62943  0.011370328  0.010671524         3952 
 3311000   0.72257918    -9.419689    451.64501  0.011367286  0.010666538         3941 
 3312000   0.71202518   -9.4132458     451.7565  0.011366659  0.010661559         3957 
 3313000   0.73222357   -9.4195735    452.17436  0.011373739  0.010656585         3934 
 3314000   0.73325293   -9.4210462    450.72665  0.011333903  0.010651607         3947 
 3315000   0.71442547   -9.4153408     451.2274  0.011343072  0.010646634         3936 
 3316000   0.72147261   -9.3914387    452.03204  0.011359872  0.010641672         3936 
 3317000    0.7451575   -9.4379179    451.14908  0.011334265  0.010636706         3950 
 3318000   0.73439261     -9.42516    451.73402   0.01134554  0.010631748         3959 
 3319000   0.70037266   -9.4322761    452.06579  0.011350452  0.010626787         3953 
 3320000   0.72452825    -9.413325    451.84197  0.011341415  0.010621825         3935 
 3321000   0.72712904   -9.4255372    451.95267  0.011340778  0.010616866         3938 
 3322000     0.734183   -9.4219496    450.80822  0.011308655   0.01061191         3950 
 3323000   0.73045083   -9.4449134    451.52307  0.011323179  0.010606962         3940 
 3324000   0.72896694   -9.4190274    451.11225  0.011309473  0.010602015         3949 
 3325000   0.72521949   -9.4393869    451.77001  0.011322557  0.010597073         3931 
 3326000   0.71416517   -9.4100489     451.2259   0.01130552   0.01059213         3928 
 3327000   0.70953499   -9.4035895    451.83733  0.011317436  0.010587191         3935 
 3328000   0.71139594   -9.4226324    452.09791  0.011320561  0.010582252         3945 
 3329000   0.72531344   -9.4309911    451.75403  0.011308552  0.010577318         3955 
 3330000   0.73100287   -9.4249061    451.68469  0.011303421   0.01057239         3958 
 3331000   0.72309418   -9.4497023    451.27816  0.011289857  0.010567468         3939 
 3332000   0.70830833   -9.4097074     451.8216   0.01130006  0.010562543         3937 
 3333000   0.70978552   -9.4498855    450.99473  0.011275996  0.010557619         3944 
 3334000   0.70744689   -9.4410143    450.89911  0.011270224  0.010552698         3929 
 3335000   0.71985407   -9.4289992    452.42595  0.011304996  0.010547778         3937 
 3336000   0.72282826   -9.4270563    451.31375  0.011273825  0.010542866         3946 
 3337000   0.71539727   -9.4441119    451.29549   0.01126999   0.01053796         3938 
 3338000   0.72611404   -9.4658443    451.59055   0.01127398  0.010533058         3942 
 3339000   0.72359478   -9.3944919    451.71272  0.011273653  0.010528153         3931 
 3340000    0.7063343   -9.4288085    451.82651  0.011273117  0.010523256         3943 
 3341000   0.71595512    -9.408533    450.79396  0.011243988   0.01051835         3945 
 3342000   0.71962666    -9.435298    451.59511    0.0112606  0.010513455         3937 
 3343000   0.73391111   -9.4270603    451.39686   0.01125229  0.010508563         3936 
 3344000   0.72313561   -9.3936523    452.08211  0.011266002  0.010503677         3928 
 3345000   0.70905128   -9.4159678    451.44135   0.01124667  0.010498789         3934 
 3346000   0.71481724    -9.431999    452.20021  0.011262209  0.010493902         3942 
 3347000   0.71576223   -9.4446924    450.88874  0.011226191  0.010489019         3954 
 3348000   0.72354947   -9.4407483    451.44284   0.01123663  0.010484138         3955 
 3349000   0.71235642   -9.4574554    450.82907  0.011218002  0.010479258         3938 
 3350000   0.70537453   -9.4284828    451.95603  0.011242687  0.010474386         3942 
 3351000   0.70478547   -9.4411816    450.76166   0.01120963  0.010469518         3921 
 3352000   0.73886639   -9.4241223    451.19377  0.011217029  0.010464649         3943 
 3353000   0.71961195   -9.4433396     451.0456  0.011210001  0.010459785         3931 
 3354000   0.70944925   -9.4486136    451.52648  0.011218607  0.010454918         3944 
 3355000   0.71570503   -9.4251753    451.63868   0.01121805   0.01045006         3935 
 3356000   0.70012889   -9.4456809    451.38768  0.011208474  0.010445199         3953 
 3357000   0.71750531   -9.4541122    450.85559  0.011191927  0.010440338         3955 
 3358000   0.71962345   -9.4134382     451.1987  0.011197109  0.010435494         3945 
 3359000   0.70506512   -9.4333923     451.5877  0.011203426  0.010430645         3944 
 3360000   0.70340115   -9.4402523    451.03141  0.011186295  0.010425797         3941 
 3361000   0.72692305   -9.4573137    451.07752   0.01118411  0.010420956         3943 
 3362000   0.68419823   -9.4251516    452.08769  0.011205822  0.010416117         3937 
 3363000   0.70769628   -9.4229573    451.50147  0.011187964  0.010411281         3934 
 3364000     0.718795   -9.4702352    450.85541  0.011168634  0.010406447         3939 
 3365000   0.72140673   -9.4457677    451.26928  0.011175564  0.010401613         3952 
 3366000   0.70184164   -9.4359381    450.71404  0.011158498  0.010396784         3953 
 3367000   0.73253609   -9.4183027    452.86428  0.011208402  0.010391966         3941 
 3368000   0.70880592   -9.4449735    451.28162  0.011165915  0.010387145         3923 
 3369000   0.70207669   -9.4502913     451.1645  0.011159704  0.010382325         3941 
 3370000   0.71397628   -9.4152296    451.65757  0.011168585  0.010377504         3931 
 3371000   0.71240857   -9.4489695    451.40268  0.011158971  0.010372689         3941 
 3372000   0.71715664   -9.4351194    451.93063  0.011168709   0.01036788         3942 
 3373000   0.69521218   -9.4237898    451.48969  0.011154504  0.010363074         3940 
 3374000   0.70127605   -9.4421553    451.73035  0.011157142  0.010358271         3927 
 3375000   0.71545771   -9.4419123    451.59265  0.011150436   0.01035347         3949 
 3376000   0.71866168   -9.4427461    451.02074  0.011133016  0.010348675         3942 
 3377000   0.71755404   -9.4417001    451.23455  0.011134995  0.010343874         3942 
 3378000   0.71350181    -9.449102    451.21088  0.011131115  0.010339078         3945 
 3379000   0.72000355    -9.433216    452.46791  0.011158822  0.010334286         3943 
 3380000   0.70367755   -9.4524839    451.27003  0.011125987  0.010329493         3941 
 3381000   0.70998901   -9.4461438    451.69326  0.011133128  0.010324706         3944 
 3382000    0.7207292   -9.4595985    451.13709  0.011116132  0.010319921         3940 
 3383000   0.71421261   -9.4483163    451.25263  0.011115692   0.01031514         3931 
 3384000   0.73136278   -9.4150241    451.10188  0.011108695  0.010310361         3935 
 3385000   0.72164003   -9.4404325    451.49222  0.011115023  0.010305588         3959 
 3386000   0.71376622   -9.4633051    451.03655  0.011100525  0.010300817         3949 
 3387000   0.71448491   -9.4355806    451.44653  0.011107335  0.010296047         3939 
 3388000   0.70322591   -9.4563044     450.8057  0.011088294  0.010291282         3955 
 3389000   0.70718965    -9.450701    451.42798  0.011100324  0.010286522         3941 
 3390000   0.70146128   -9.4356787    451.00415  0.011086631  0.010281767         3931 
 3391000   0.71625546   -9.4218706    451.26237  0.011089707   0.01027701         3956 
 3392000   0.71436351    -9.454601    450.90221   0.01107759  0.010272257         3936 
 3393000   0.71080724   -9.4676415    450.13227  0.011055415  0.010267501         3940 
 3394000   0.70537064   -9.4578073    451.09155  0.011075711  0.010262752         3953 
 3395000   0.70754479   -9.4169164    452.01284  0.011095062  0.010258003         3946 
 3396000   0.71468806   -9.4343336    451.64604  0.011082795  0.010253258         3927 
 3397000   0.69521093   -9.4447239    450.83125  0.011059544  0.010248515         3954 
 3398000    0.7238783   -9.4513628    451.16479  0.011064469  0.010243775         3931 
 3399000   0.70179024   -9.4489986    450.80389  0.011052366  0.010239034         3949 
 3400000   0.72248178   -9.4388865    451.38426   0.01106334  0.010234299         3941 
 3401000   0.69743349   -9.4553867    450.79238  0.011045584  0.010229571         3950 
 3402000    0.7241636   -9.4404549    451.10259  0.011049936  0.010224843         3928 
 3403000   0.71215099   -9.4187518    451.86869  0.011065449  0.010220121         3943 
 3404000   0.71012119   -9.4314816    450.78693  0.011035716  0.010215403         3947 
 3405000   0.70773432    -9.448291    450.84876  0.011033988   0.01021068         3944 
 3406000   0.71043873   -9.4571932    451.11712  0.011037315  0.010205966         3949 
 3407000   0.72733221   -9.4458556    451.34393  0.011039623  0.010201254         3928 
 3408000   0.70080485   -9.4470754    450.22665  0.011009063  0.010196547         3949 
 3409000   0.70326508   -9.4433472    451.56836  0.011038632  0.010191842         3957 
 3410000   0.69427738    -9.450461    449.94155  0.010995639  0.010187132         3944 
 3411000   0.70634091   -9.4466878    451.07008  0.011019986  0.010182432         3938 
 3412000   0.70442429    -9.428605    452.06105   0.01104096  0.010177732         3932 
 3413000   0.70512035   -9.4519973    451.53955  0.011024991  0.010173037         3953 
 3414000   0.70704519   -9.4387073    451.47159  0.011020103  0.010168345         3942 
 3415000   0.69691805   -9.4320948     451.3849  0.011014761  0.010163656         3964 
 3416000   0.70625791   -9.4515457     451.2852  0.011009104  0.010158969         3951 
 3417000    0.6855431   -9.4421305    451.91696   0.01102129  0.010154282         3942 
 3418000   0.70906025   -9.4311883    451.46116  0.011006952  0.010149601         3940 
 3419000   0.71158237   -9.4638998    450.58031  0.010982264  0.010144918         3957 
 3420000   0.69843456   -9.4421474    450.78032  0.010983926  0.010140244         3945 
 3421000   0.70285891   -9.4308508    451.37026  0.010995086  0.010135572         3937 
 3422000   0.69283781   -9.4506436    451.16226  0.010986807  0.010130901         3942 
 3423000   0.69934679   -9.4363408    450.93386  0.010978037  0.010126235         3936 
 3424000   0.69504226   -9.4240648    451.48732  0.010988301  0.010121571         3944 
 3425000   0.70688216   -9.4381094    452.23085  0.011003184  0.010116909         3945 
 3426000   0.69645373   -9.4552235    451.55944  0.010983641  0.010112249         3946 
 3427000    0.7169356   -9.4234218    451.71564  0.010984234  0.010107594         3945 
 3428000   0.70936114   -9.4495562    450.43428   0.01094988  0.010102938         3957 
 3429000   0.71773229   -9.4336593    450.79644  0.010955488  0.010098284         3949 
 3430000   0.70155235   -9.4569793    451.20796  0.010962293  0.010093637         3940 
 3431000   0.69417422   -9.4585444    449.82937  0.010925614  0.010088991         3951 
 3432000   0.70727715    -9.444967    450.54257  0.010939748  0.010084349         3954 
 3433000   0.72090594   -9.4536451    450.91208  0.010945531  0.010079705         3956 
 3434000    0.7018617   -9.4490706     451.5455  0.010957715  0.010075062         3952 
 3435000   0.70002533   -9.4615387    450.65898  0.010933017  0.010070427         3951 
 3436000   0.70042947   -9.4553121    451.24091  0.010943949  0.010065788         3943 
 3437000   0.69413577   -9.4589147    450.12763  0.010913772   0.01006116         3948 
 3438000   0.71692364   -9.4447109    450.81238  0.010927195  0.010056531         3935 
 3439000   0.68694008   -9.4470888    450.41617  0.010914417  0.010051911         3948 
 3440000   0.70337282   -9.4630087    451.02549  0.010926005  0.010047287         3941 
 3441000   0.69739288   -9.4709075    450.66885  0.010914193  0.010042669         3946 
 3442000   0.70298827   -9.4488604    451.40512  0.010928848  0.010038053         3951 
 3443000   0.69678678   -9.4501621    451.72011  0.010933297   0.01003344         3939 
 3444000   0.70356625   -9.4676323    450.87695  0.010909721  0.010028832         3952 
 3445000   0.68503815   -9.4397661    451.48196  0.010921189  0.010024218         3946 
 3446000   0.68265533   -9.4771067    451.21644  0.010911599   0.01001961         3950 
 3447000   0.69981174   -9.4667906    450.83306  0.010899165  0.010015004         3952 
 3448000   0.70106663   -9.4620103    451.08515  0.010902097  0.010010403         3939 
 3449000   0.71310159   -9.4619171    451.62875   0.01091207  0.010005802         3949 
 3450000   0.69172762   -9.4728308    451.02196   0.01089425  0.010001202         3939 
 3451000   0.69819803   -9.4662129    449.90341  0.010864083 0.0099966113         3950 
 3452000   0.70595585   -9.4624492    450.40845  0.010873128 0.0099920225         3948 
 3453000    0.6961181   -9.4656755    450.12521  0.010863143 0.0099874338         3940 
 3454000   0.68381119   -9.4480189    450.49738  0.010868978 0.0099828489         3945 
 3455000   0.68628292   -9.4677843    450.29645  0.010860985 0.0099782653         3948 
 3456000   0.68619334   -9.4752472    451.07757  0.010876677 0.0099736838         3962 
 3457000   0.70981702   -9.4583947    451.63827  0.010887047  0.009969108         3956 
 3458000   0.69706154   -9.4830291    450.86196  0.010865191 0.0099645378         3950 
 3459000   0.69261822    -9.452279    450.94466  0.010864042 0.0099599645         3948 
 3460000    0.6933487   -9.4556739    451.31021  0.010869706 0.0099553948         3954 
 3461000   0.68932514    -9.470095    451.62515  0.010874149  0.009950829         3948 
 3462000   0.68097429   -9.4566088    450.74315  0.010849777 0.0099462636         3945 
 3463000   0.70851053   -9.4457814    450.41658  0.010838786 0.0099417026         3946 
 3464000   0.69229944   -9.4623607    450.76902  0.010844135 0.0099371473         3946 
 3465000   0.68825436   -9.4450365    451.05741  0.010847942 0.0099325954         3944 
 3466000   0.69406793   -9.4615261     450.9453  0.010842116 0.0099280419         3949 
 3467000   0.69744923   -9.4493525     451.0254  0.010840914 0.0099234948         3947 
 3468000   0.70104493   -9.4619655    450.14982  0.010816749 0.0099189495         3943 
 3469000   0.69329442   -9.4633202    450.81086   0.01082951 0.0099144073         3944 
 3470000   0.69272426   -9.4545083    451.30196  0.010838183 0.0099098626         3939 
 3471000   0.69612348   -9.4872463    449.62597  0.010794823 0.0099053172         3945 
 3472000   0.69336731   -9.4826901    451.05313  0.010825968 0.0099007797         3944 
 3473000   0.68935703   -9.4625217    450.77742  0.010816235 0.0098962493         3947 
 3474000   0.67929896   -9.4707783    450.81874  0.010814113 0.0098917149         3940 
 3475000   0.70041123   -9.4931493    450.21225  0.010796457 0.0098871806         3938 
 3476000   0.70806951   -9.4653104    450.80217  0.010807494 0.0098826515         3935 
 3477000   0.68460516   -9.4679856    450.51044  0.010797393 0.0098781258         3939 
 3478000   0.69573059   -9.4736127    450.23542  0.010787699 0.0098736093         3939 
 3479000   0.68859128   -9.4786629    449.66449  0.010770923  0.009869087         3955 
 3480000   0.69664585   -9.4492804    450.29415  0.010782906 0.0098645687         3940 
 3481000   0.69186388   -9.4618822    450.34672  0.010781067  0.009860055         3950 
 3482000   0.68148848   -9.4589926     449.6826  0.010762076 0.0098555395         3938 
 3483000   0.68654879   -9.4585346    450.66996   0.01078261  0.009851033         3948 
 3484000   0.68331274   -9.4724604     450.6841  0.010779853  0.009846526         3945 
 3485000   0.70384934   -9.4677172    450.42673  0.010770606 0.0098420176         3941 
 3486000   0.68593976   -9.4632388    450.10736  0.010759881 0.0098375192         3933 
 3487000   0.70494628   -9.4676653    449.82628  0.010750078 0.0098330218         3934 
 3488000   0.69336304   -9.4825203    451.09016  0.010777192   0.00982853         3942 
 3489000   0.68139328   -9.4820198    450.26898   0.01075449 0.0098240344         3956 
 3490000    0.6958259   -9.4537931    450.71993  0.010762176 0.0098195422         3939 
 3491000   0.69628807   -9.4643281    450.44453  0.010752519 0.0098150576         3928 
 3492000   0.69101051   -9.4882107    451.18512  0.010767113 0.0098105759         3940 
 3493000   0.68188983   -9.4741967    450.85578  0.010756174 0.0098060957         3938 
 3494000    0.7025082   -9.4631136    450.43845  0.010743142 0.0098016131         3935 
 3495000   0.69695737   -9.4867672    450.46721  0.010740754 0.0097971348         3942 
 3496000   0.70364134   -9.4646721    450.79683  0.010745538 0.0097926586         3934 
 3497000    0.6924128    -9.466228    450.33965  0.010731571 0.0097881827         3936 
 3498000   0.69392268   -9.4717353    450.44138  0.010730927 0.0097837181         3955 
 3499000   0.67862207   -9.4769544    450.96519  0.010740335 0.0097792495         3933 
 3500000   0.68920219   -9.4705269    450.63936  0.010729509 0.0097747864         3947 
 3501000   0.69235329   -9.4628246    450.61353  0.010725829 0.0097703273         3935 
 3502000   0.68615274   -9.4825272    451.30929  0.010739323 0.0097658685         3933 
 3503000   0.68490827   -9.4855652    449.85837  0.010701741  0.009761408         3955 
 3504000    0.6913805   -9.4745324    450.97845  0.010725325 0.0097569564         3948 
 3505000   0.68026184   -9.4822818    450.27353  0.010705505 0.0097525108         3943 
 3506000   0.68889004   -9.4630151    450.54517  0.010708908 0.0097480638         3950 
 3507000   0.68472862   -9.4601678    449.86472  0.010689685 0.0097436155         3940 
 3508000   0.69695996   -9.5019214    450.26422  0.010696128 0.0097391735         3941 
 3509000   0.68955012   -9.4463205    450.94262  0.010709191 0.0097347368         3938 
 3510000    0.6862715   -9.4676262    449.81236  0.010679306 0.0097303027         3931 
 3511000   0.69341279   -9.4723445    450.52824  0.010693255 0.0097258691         3944 
 3512000   0.68204323   -9.4923384    451.33545  0.010709364 0.0097214335         3947 
 3513000     0.689347   -9.4786607    450.32198  0.010682275 0.0097170018         3941 
 3514000   0.70944627   -9.4682145    450.53599   0.01068431 0.0097125773         3941 
 3515000    0.6882856   -9.4787894    450.79791   0.01068748 0.0097081545         3946 
 3516000   0.69613641   -9.4848858    449.87083  0.010662467 0.0097037378         3933 
 3517000   0.69162981   -9.4749421    450.88522  0.010683471 0.0096993208         3940 
 3518000   0.68202863   -9.4699893    451.20149  0.010687926 0.0096949085         3943 
 3519000   0.68430132   -9.4641045    451.13352  0.010683279 0.0096904972         3954 
 3520000   0.67058783   -9.4675652    450.40962  0.010663107 0.0096860881         3950 
 3521000   0.68698655   -9.4720017    450.43792  0.010660748 0.0096816789         3944 
 3522000   0.70020554   -9.4880105    450.74447  0.010664974 0.0096772703         3959 
 3523000   0.68708604    -9.456461    451.18391  0.010672341 0.0096728676         3942 
 3524000   0.70711643   -9.5037861    449.59267  0.010631684 0.0096684679         3942 
 3525000   0.68515735   -9.4739539     450.8758  0.010659002  0.009664069         3946 
 3526000   0.69932678   -9.4598289    450.22798  0.010640669 0.0096596752         3940 
 3527000    0.6730877   -9.4528098     451.2646  0.010662144 0.0096552822         3950 
 3528000   0.68816556   -9.4640405    450.69903  0.010645763 0.0096508912         3948 
 3529000   0.69094026   -9.4677921    449.93189  0.010624631 0.0096465031         3935 
 3530000   0.70046114   -9.4829037    449.95985  0.010622282 0.0096421188         3940 
 3531000   0.70021621    -9.498201    449.79419  0.010615364 0.0096377358         3944 
 3532000   0.67434255   -9.4693779     451.4785  0.010652098 0.0096333583         3927 
 3533000   0.68842584    -9.484181    449.82734  0.010610136 0.0096289832         3944 
 3534000    0.6941026   -9.4884658    450.19566  0.010615819 0.0096246049         3950 
 3535000   0.68912819   -9.4787514    450.15769  0.010611921 0.0096202374         3953 
 3536000   0.70067224   -9.5061046    449.87275  0.010602205   0.00961587         3942 
 3537000   0.69020187   -9.4897572    450.24064  0.010607875 0.0096115044         3928 
 3538000   0.68249709   -9.4855991    450.24629   0.01060501 0.0096071405         3945 
 3539000   0.69255119   -9.5009137    450.34267  0.010604282 0.0096027829         3955 
 3540000   0.68436781   -9.4769645    449.41863  0.010579535 0.0095984183         3945 
 3541000   0.69805861    -9.491975    450.46104  0.010601079 0.0095940609         3948 
 3542000   0.68366143   -9.4845343    450.19971  0.010591937 0.0095897119         3942 
 3543000   0.67671694   -9.4790911     450.5895  0.010598116 0.0095853631         3946 
 3544000   0.68834783   -9.4692303    450.05755  0.010582617 0.0095810127         3943 
 3545000   0.68035408   -9.4785787    450.65946  0.010593781 0.0095766666         3945 
 3546000   0.68369488   -9.4749027    451.13439  0.010601955  0.009572323         3941 
 3547000   0.68897045   -9.4786519     450.1966  0.010576934 0.0095679814         3933 
 3548000   0.69304781   -9.4948255     449.5836  0.010559555 0.0095636409         3939 
 3549000   0.69170335   -9.4899208    450.61778  0.010580863 0.0095593045         3945 
 3550000   0.69215515    -9.493434    450.43153   0.01057351 0.0095549713         3933 
 3551000   0.68377751   -9.4794685    450.66739  0.010576068  0.009550642         3948 
 3552000   0.68840555   -9.5112197    450.09784  0.010559728 0.0095463147         3939 
 3553000   0.69001867   -9.4648577    450.27263  0.010560855 0.0095419886         3955 
 3554000   0.68841311   -9.4775962    449.49798   0.01053972  0.009537668         3957 
 3555000   0.66951299   -9.5052554    449.80351  0.010543917 0.0095333493         3939 
 3556000   0.67787751   -9.5077591    450.28187  0.010552162 0.0095290293         3961 
 3557000   0.68324473   -9.4842583    450.44198  0.010552947 0.0095247154         3948 
 3558000    0.6776595   -9.4857861    450.44291  0.010550003 0.0095204051         3953 
 3559000   0.68107396   -9.4893128    450.02389  0.010537227 0.0095160955         3949 
 3560000   0.69632077   -9.5045858    450.61984  0.010548217 0.0095117889         3951 
 3561000   0.66430898   -9.4862165    450.66551  0.010546324 0.0095074837         3943 
 3562000   0.68789895   -9.5025517    450.42728   0.01053779 0.0095031816         3950 
 3563000   0.66957447   -9.5096834    449.42512  0.010511393 0.0094988808         3948 
 3564000   0.68619016   -9.4945517    449.50861  0.010510396  0.009494579         3961 
 3565000    0.6833137   -9.4497663       451.07  0.010543946 0.0094902825         3944 
 3566000   0.67964486   -9.4906631    449.99369  0.010515837 0.0094859878         3964 
 3567000   0.67371606   -9.4938971    450.20999  0.010517942 0.0094816978         3950 
 3568000   0.68363517   -9.4887097    450.37195  0.010518777  0.009477409         3950 
 3569000    0.6775748   -9.5070088    449.97999  0.010506678 0.0094731221         3951 
 3570000    0.6893114   -9.5020215    449.47501  0.010491947 0.0094688375         3932 
 3571000   0.68240878   -9.4988222    450.16732  0.010505165 0.0094645558         3952 
 3572000   0.67804448   -9.4885608    450.01523  0.010498675  0.009460279         3950 
 3573000   0.68807383   -9.4934533    450.31123  0.010502641 0.0094560047         3955 
 3574000   0.67851626   -9.5023662    450.19168  0.010496915 0.0094517319         3929 
 3575000   0.66024029   -9.5205805    448.75452  0.010460478  0.009447463         3948 
 3576000   0.67563362   -9.4817131    449.96079  0.010485664 0.0094431916         3941 
 3577000   0.68533156   -9.4903437    450.85301  0.010503518   0.00943893         3946 
 3578000   0.67680611   -9.4945737    450.74682  0.010498109 0.0094346641         3949 
 3579000   0.67765952   -9.4915767    448.97323   0.01045388 0.0094303994         3945 
 3580000   0.69403704   -9.4789628    449.42782  0.010461541 0.0094261417         3954 
 3581000   0.67325216   -9.4816418    450.47696  0.010483035 0.0094218833         3966 
 3582000   0.68321465   -9.5128644    449.73082  0.010462749  0.009417632         3956 
 3583000   0.66547198   -9.4985553    450.18616   0.01047042 0.0094133827         3946 
 3584000   0.68542516   -9.5345688    449.95724  0.010462175 0.0094091294         3963 
 3585000   0.67599512   -9.5024644    450.12582  0.010463176 0.0094048809         3949 
 3586000   0.68507493   -9.5139477    450.96035  0.010479651 0.0094006389         3950 
 3587000    0.6876306   -9.5040244    450.19162   0.01045887 0.0093963975         3966 
 3588000   0.67915658   -9.4729934    450.09349  0.010453676 0.0093921574         3969 
 3589000   0.68774337   -9.5083161    449.82025  0.010444419 0.0093879215         3945 
 3590000   0.67804172   -9.4932847    450.04203  0.010446658 0.0093836867         3954 
 3591000   0.67779783   -9.5144609    450.22345  0.010447959 0.0093794537         3952 
 3592000   0.66654879   -9.4951935    449.28854  0.010423361 0.0093752258         3945 
 3593000   0.67565181    -9.511304    450.38858  0.010445973 0.0093710012         3950 
 3594000   0.66958348   -9.5093302    450.48669  0.010445342   0.00936678         3931 
 3595000   0.66963485   -9.4908798     449.7715  0.010425858 0.0093625574         3949 
 3596000   0.66924155   -9.5002973    450.02887  0.010428923 0.0093583447         3960 
 3597000   0.67957801   -9.5067782    449.44422  0.010412478 0.0093541283         3950 
 3598000   0.67394261   -9.4965744    450.40721  0.010431888 0.0093499153         3948 
 3599000   0.68214028   -9.4954284    450.45865  0.010430181  0.009345705         3954 
 3600000   0.68306446   -9.4879034     449.7668  0.010411268 0.0093414986         3943 
 3601000   0.67769835   -9.4777435    450.58827  0.010427388 0.0093372937         3951 
 3602000   0.66523762   -9.4972114    449.61695  0.010402021 0.0093330904         3946 
 3603000   0.66258411   -9.5024963    450.56553  0.010421073 0.0093288905         3951 
 3604000   0.66554624    -9.484066    449.28243  0.010388514 0.0093246914         3952 
 3605000   0.68179723   -9.5132362    450.09101  0.010404323 0.0093204979         3940 
 3606000   0.65898626   -9.5055719    450.37284  0.010407951 0.0093163038         3951 
 3607000    0.6874691   -9.4984305     450.2455  0.010402123 0.0093121117         3956 
 3608000    0.6718321   -9.4972047     450.2154  0.010398545 0.0093079203         3954 
 3609000   0.67602687   -9.4955688     450.5801  0.010404085 0.0093037356         3965 
 3610000    0.6674694    -9.494554    450.73413  0.010404758 0.0092995491         3951 
 3611000   0.68837459   -9.5184705    450.94088  0.010406648 0.0092953696         3962 
 3612000   0.68165558   -9.5130086    449.96528  0.010381259 0.0092911911         3941 
 3613000   0.68608919   -9.4863821    450.21706  0.010384193 0.0092870184         3962 
 3614000   0.67539581    -9.494266    450.14202  0.010379589 0.0092828401         3956 
 3615000   0.66893435   -9.5078924    449.51482   0.01036226 0.0092786685         3946 
 3616000   0.66377503   -9.5118311    450.12021  0.010373345 0.0092744971         3955 
 3617000   0.67419646   -9.4710791    449.76309   0.01036225 0.0092703277         3953 
 3618000   0.67571829   -9.5090336     449.7059  0.010358068 0.0092661651         3923 
 3619000   0.66916286   -9.5068211     449.8646  0.010358861 0.0092620055         3953 
 3620000   0.67079288   -9.5079224    449.65443  0.010351161 0.0092578473         3944 
 3621000   0.68372706   -9.5267223    450.24146  0.010361812  0.009253691         3952 
 3622000   0.67721997   -9.5169959    450.41607  0.010362969 0.0092495361         3950 
 3623000   0.67471909   -9.5099171    450.15056  0.010354001 0.0092453819         3936 
 3624000   0.67918162   -9.5084171      449.715  0.010341129 0.0092412338         3948 
 3625000    0.6796938   -9.5095686    449.87638  0.010341986 0.0092370869         3948 
 3626000   0.66898999   -9.5143291    449.85416  0.010338623 0.0092329429         3941 
 3627000   0.65657442   -9.5228756    449.36711  0.010324582 0.0092287996         3955 
 3628000    0.6682172   -9.5159727    450.41844  0.010345885 0.0092246603         3951 
 3629000   0.67353865   -9.5017667    449.55245  0.010323148 0.0092205221         3943 
 3630000   0.65864229   -9.4901734     449.2268  0.010312828 0.0092163846         3928 
 3631000   0.67198905   -9.5013687    449.93739  0.010326297 0.0092122526         3948 
 3632000   0.66265627   -9.4881581    450.24659  0.010330548 0.0092081236         3950 
 3633000   0.66661385   -9.5039673    450.67524  0.010337536 0.0092039988         3951 
 3634000   0.67777356   -9.5117378    449.53292  0.010308497 0.0091998739         3948 
 3635000   0.67891096   -9.4998344    450.23458  0.010321746 0.0091957515         3944 
 3636000   0.66010746   -9.5181892    449.52404  0.010302623 0.0091916296         3950 
 3637000   0.65789053   -9.4945025    449.97821  0.010310196 0.0091875109         3952 
 3638000   0.65751347    -9.495853    450.04789  0.010308958 0.0091833949         3960 
 3639000   0.68195964   -9.5135453    450.08258   0.01030692 0.0091792828         3938 
 3640000    0.6799167   -9.5084293    449.50387  0.010290839 0.0091751696         3949 
 3641000   0.67310114   -9.5077664    449.73971  0.010293411 0.0091710631         3944 
 3642000   0.67632082   -9.5106975    449.49471  0.010284979 0.0091669569         3954 
 3643000   0.66745613   -9.5066161    451.46371  0.010327196 0.0091628519         3930 
 3644000   0.66531403   -9.5068238    449.53643  0.010280288 0.0091587522         3943 
 3645000   0.67227912    -9.529591    449.16117  0.010268888 0.0091546537         3957 
 3646000   0.68671254   -9.5413633    448.88697  0.010259805   0.00915056         3938 
 3647000   0.66556413   -9.5029967    449.66621  0.010274797 0.0091464674         3945 
 3648000    0.6674217    -9.519932    449.63609  0.010271292  0.009142378         3957 
 3649000   0.66827413   -9.5016128    450.84567  0.010296101 0.0091382883         3951 
 3650000   0.67257721   -9.4969709    449.63725  0.010265691 0.0091342024         3954 
 3651000   0.67120998   -9.4959831    449.90462  0.010268981 0.0091301175         3945 
 3652000   0.66732164   -9.5080715    449.26636  0.010251606  0.009126034         3952 
 3653000   0.66635779    -9.520443    449.73125  0.010259404 0.0091219568         3948 
 3654000   0.66236289    -9.511585    449.71327  0.010256187 0.0091178793         3944 
 3655000   0.66957973   -9.5245617    449.34147  0.010244904 0.0091138081         3956 
 3656000    0.6778343   -9.5137587    449.54206  0.010246673 0.0091097361         3959 
 3657000   0.67443572   -9.5045843    449.93112  0.010252737 0.0091056689         3951 
 3658000   0.68023322   -9.5172122    449.87917  0.010248751 0.0091016041         3961 
 3659000   0.66621841   -9.4890194    450.01391  0.010249019 0.0090975381         3948 
 3660000   0.67074948   -9.5265699    449.93466  0.010244414 0.0090934767         3953 
 3661000    0.6649244   -9.5229446    449.22613  0.010225488 0.0090894144         3943 
 3662000   0.65058583   -9.5106871    449.85097  0.010236914 0.0090853553         3952 
 3663000   0.65010645   -9.5210546    450.30884  0.010244536 0.0090812983         3947 
 3664000   0.66033346   -9.5205188    449.63124  0.010226329 0.0090772435         3936 
 3665000   0.66990563    -9.521514    449.62179  0.010223324 0.0090731944         3944 
 3666000    0.6543261   -9.5150378    449.19078  0.010210738 0.0090691473         3949 
 3667000    0.6711886   -9.5136217    449.97049  0.010225673 0.0090651016         3943 
 3668000   0.66774388   -9.4762691    450.19521   0.01022799 0.0090610579         3953 
 3669000   0.67336974   -9.5432892    450.20026  0.010225317 0.0090570177         3950 
 3670000   0.65466634   -9.5152917    449.82247  0.010213953 0.0090529775         3948 
 3671000   0.65996657   -9.5319204    449.69023  0.010208168 0.0090489426         3934 
 3672000   0.65583351   -9.5142555    450.05266  0.010213613 0.0090449078         3957 
 3673000   0.66966895   -9.5050841    449.80291  0.010205166 0.0090408775         3957 
 3674000    0.6827297   -9.5186819    450.39114  0.010215731 0.0090368507         3942 
 3675000   0.64607945   -9.5275347    449.32874   0.01018886 0.0090328212         3956 
 3676000   0.65715521   -9.5244542    449.08012  0.010180452 0.0090287963         3956 
 3677000   0.64453726   -9.5280749    449.88361  0.010195894 0.0090247742         3946 
 3678000   0.66721522   -9.5150816    449.93275  0.010194235 0.0090207546         3955 
 3679000   0.65546749   -9.5265911    450.36837  0.010201331 0.0090167367         3943 
 3680000   0.65878521   -9.5164094    449.68565  0.010183099 0.0090127209         3943 
 3681000   0.65745871   -9.5231895    449.88331  0.010184807 0.0090087076         3950 
 3682000   0.67649602   -9.5278424    450.22984  0.010189884 0.0090046975         3954 
 3683000    0.6455907   -9.5246133    449.86945  0.010178963 0.0090006856         3947 
 3684000    0.6668969   -9.5243728    449.95532  0.010178142 0.0089966766         3953 
 3685000   0.67642108   -9.5126831    449.64177   0.01016829 0.0089926694         3934 
 3686000   0.65979444   -9.5375952    449.31034  0.010158038 0.0089886686         3951 
 3687000   0.65308599   -9.5156492     449.3094  0.010155262  0.008984667         3932 
 3688000   0.66731449   -9.4979138     450.0311  0.010168816  0.008980671         3950 
 3689000   0.68112004    -9.536394    449.74846  0.010159674 0.0089766787         3953 
 3690000   0.65422066   -9.5056839    448.76464  0.010134703 0.0089726854         3965 
 3691000   0.64274023   -9.5098865    449.29905  0.010144023 0.0089686918         3953 
 3692000    0.6679238   -9.5165119    449.44493  0.010144568 0.0089647052         3943 
 3693000   0.66206978   -9.5361066     448.8955  0.010129423 0.0089607169         3957 
 3694000   0.66494743   -9.5188475    448.98516  0.010128703 0.0089567306         3957 
 3695000   0.64891447    -9.516607    449.35407  0.010134282 0.0089527489         3952 
 3696000   0.64992397   -9.5338671    449.21063  0.010128306 0.0089487709         3942 
 3697000   0.66964799   -9.5105361    449.30938  0.010127792  0.008944792         3950 
 3698000   0.66280031   -9.5354348    449.40699  0.010127253 0.0089408157         3953 
 3699000   0.66330641   -9.5097693    450.29769  0.010144582 0.0089368429         3944 
 3700000   0.66327599   -9.5356694    449.25962   0.01011846 0.0089328732         3955 
 3701000     0.659808   -9.5170722    449.08273  0.010111743 0.0089289082         3949 
 3702000   0.65773673   -9.5116681    449.42897  0.010116806 0.0089249427         3957 
 3703000   0.66525027   -9.5078638    449.65089  0.010119068 0.0089209809         3944 
 3704000   0.65626383   -9.5176175    450.30148  0.010130973 0.0089170205         3944 
 3705000   0.65517698   -9.5377477    449.71117  0.010114961  0.008913062         3952 
 3706000   0.66775566   -9.4836642    449.82646  0.010114824 0.0089091113         3937 
 3707000    0.6765636   -9.5224399    448.76753  0.010088291 0.0089051598         3962 
 3708000   0.65569509   -9.5354323    449.80689  0.010108929 0.0089012073         3948 
 3709000   0.66229545   -9.5428026     449.2398  0.010093462 0.0088972634         3944 
 3710000   0.65533985   -9.5322071    449.71757  0.010101473 0.0088933157         3947 
 3711000   0.68308148   -9.5232255    449.33798  0.010090227 0.0088893701         3958 
 3712000   0.65988699   -9.5159138    449.74936  0.010096744 0.0088854299         3971 
 3713000    0.6614377   -9.5247061    450.17249  0.010103521 0.0088814866         3958 
 3714000   0.65525344   -9.5344837    450.28855  0.010103405 0.0088775486         3933 
 3715000   0.65407911   -9.5329703     449.8201  0.010090177 0.0088736121         3945 
 3716000   0.66082296   -9.5103007    449.36622  0.010077283 0.0088696825         3954 
 3717000   0.64227808    -9.545413    449.74052  0.010082964 0.0088657472         3946 
 3718000   0.64472349   -9.5207252    450.21783   0.01009095 0.0088618174         3943 
 3719000   0.65746125   -9.5384978    449.44066  0.010070822 0.0088578874         3961 
 3720000   0.64990261   -9.5488003     449.2099  0.010062946 0.0088539606         3951 
 3721000    0.6398065   -9.5233658    448.84248  0.010052013 0.0088500385         3955 
 3722000   0.65102485   -9.5420226    448.96585  0.010052074 0.0088461181         3952 
 3723000   0.66913827   -9.5190843    450.05509  0.010073755 0.0088422031         3958 
 3724000   0.64953091   -9.5546616    448.91476  0.010045533 0.0088382875         3948 
 3725000   0.66377201   -9.5480495    448.83151  0.010040973 0.0088343752         3952 
 3726000   0.65692167   -9.5409915    448.92548   0.01004038 0.0088304644         3952 
 3727000   0.64362529   -9.5321795    449.20605   0.01004396  0.008826555         3941 
 3728000   0.65456373   -9.5245992    449.06451  0.010038102 0.0088226529         3945 
 3729000   0.65619525   -9.5410417    449.90215  0.010054129 0.0088187555         3965 
 3730000   0.63777484   -9.5327523    449.08001  0.010033065 0.0088148541         3956 
 3731000   0.63999118   -9.5405821    449.41895  0.010037947 0.0088109525         3958 
 3732000   0.65498618   -9.5429498    448.97764  0.010025403 0.0088070582         3955 
 3733000   0.64719444   -9.5361247    449.73595  0.010039645 0.0088031639         3958 
 3734000   0.66354986   -9.5295887     450.1287  0.010045722 0.0087992689         3951 
 3735000   0.65193746   -9.5246343    448.93641   0.01001643 0.0087953802         3945 
 3736000   0.65136273   -9.5245889    449.37547  0.010023543 0.0087914908         3933 
 3737000   0.65326999   -9.5316636    449.51457  0.010023962 0.0087876038         3953 
 3738000   0.65838948   -9.5421803    449.25237  0.010015435 0.0087837176         3943 
 3739000   0.66198596    -9.572951    448.96897   0.01000644 0.0087798354         3959 
 3740000    0.6425583    -9.534711    450.06671  0.010028224 0.0087759549         3945 
 3741000   0.65032025   -9.5579347    449.61389  0.010015457 0.0087720734         3940 
 3742000   0.63580015   -9.5408922    449.06066   0.01000046 0.0087681956         3960 
 3743000   0.66141376    -9.554689    449.13142 0.0099993637  0.008764323         3946 
 3744000    0.6618937   -9.5347194    449.66152  0.010008492 0.0087604536         3945 
 3745000   0.65266986   -9.5413255    450.11815   0.01001598 0.0087565826         3960 
 3746000   0.65600657   -9.5290299    448.89736 0.0099861489 0.0087527192         3949 
 3747000   0.66835881   -9.5340595    449.75013  0.010002449  0.008748854         3952 
 3748000   0.65007774   -9.5444226     448.9635 0.0099822905 0.0087449944         3941 
 3749000   0.65157632   -9.5409888    449.17583 0.0099843475 0.0087411375         3954 
 3750000   0.64864742    -9.521855    449.56225 0.0099902723 0.0087372822         3954 
 3751000   0.65479701   -9.5570006     448.9248 0.0099734472 0.0087334279         3935 
 3752000   0.65222861   -9.5279171    449.47601 0.0099830315 0.0087295776         3956 
 3753000   0.64872696   -9.5111538    448.77864 0.0099648868 0.0087257276         3945 
 3754000   0.65206201   -9.5397197    448.93831 0.0099657767 0.0087218794         3959 
 3755000   0.64797552   -9.5301182    449.28746 0.0099708712  0.008718036         3958 
 3756000   0.64492039   -9.5438127    449.68296 0.0099769914 0.0087141964         3958 
 3757000   0.64609043   -9.5439725     448.5229 0.0099486048 0.0087103548         3952 
 3758000   0.64041725   -9.5390809    449.17923 0.0099605117  0.008706518         3966 
 3759000   0.65522416   -9.5453368    449.22832 0.0099589501 0.0087026802         3939 
 3760000   0.64193832   -9.5544766    449.09094 0.0099532567 0.0086988425         3943 
 3761000   0.64484691   -9.5490886    450.17852  0.009974708 0.0086950151         3961 
 3762000   0.65313169   -9.5388941    449.53087 0.0099577102 0.0086911807         3945 
 3763000   0.63314533    -9.534545    447.59468 0.0099121861 0.0086873543         3949 
 3764000   0.65278704   -9.5367416    449.82563  0.009958945 0.0086835304         3949 
 3765000   0.64295496   -9.5262897    449.10022 0.0099402438 0.0086797059         3955 
 3766000   0.66787146   -9.5402602     449.3425 0.0099429656 0.0086758866         3949 
 3767000   0.65384814   -9.5449705    449.00666 0.0099328967 0.0086720668         3940 
 3768000    0.6531166   -9.5484821    448.53745 0.0099198835 0.0086682478         3956 
 3769000   0.64767813   -9.5468107    448.57393  0.009918058 0.0086644318         3962 
 3770000   0.63465184   -9.5561091     449.2732 0.0099308842   0.00866062         3939 
 3771000   0.65196056   -9.5448706    449.38849 0.0099307983 0.0086568087         3951 
 3772000   0.63527806   -9.5334895    450.35211 0.0099494544 0.0086530028         3955 
 3773000   0.64117556   -9.5008462    449.49479  0.009927882 0.0086491998         3956 
 3774000   0.65147244   -9.5414824    449.35462 0.0099221563 0.0086453972         3953 
 3775000   0.65204063    -9.537769    449.53538 0.0099235183 0.0086415957         3938 
 3776000   0.65640977   -9.5373201    448.88119 0.0099064528 0.0086377945         3946 
 3777000   0.64422237   -9.5559686    448.67198 0.0098992141  0.008633995         3951 
 3778000   0.64820838   -9.5675922    448.23056 0.0098868572 0.0086301978         3960 
 3779000   0.65873061   -9.5355126    448.73271 0.0098953143 0.0086264054         3945 
 3780000   0.65603371   -9.5371936    448.72466 0.0098925189 0.0086226171         3956 
 3781000   0.64155553   -9.5341676    449.22217 0.0099008677 0.0086188303         3954 
 3782000   0.63180491   -9.5468876    448.41102 0.0098803767 0.0086150433         3947 
 3783000   0.64465311   -9.5339888     448.7335 0.0098848687 0.0086112598         3933 
 3784000    0.6528224   -9.5407573      449.672 0.0099029247  0.008607482         3956 
 3785000    0.6383947   -9.5380839    448.79846 0.0098810758 0.0086037007         3962 
 3786000   0.63303557   -9.5564572    449.02098 0.0098833637 0.0085999228         3940 
 3787000   0.65062681   -9.5313707    449.59961 0.0098934867 0.0085961525         3948 
 3788000    0.6543925   -9.5687993    448.85121 0.0098744107 0.0085923777         3958 
 3789000   0.66319267    -9.532852    448.51048 0.0098643108 0.0085886077         3942 
 3790000   0.64795317   -9.5207549    448.98169 0.0098720688 0.0085848422         3950 
 3791000    0.6448846   -9.5594596      448.604 0.0098611624 0.0085810756         3951 
 3792000   0.64566502   -9.5367416    449.41997 0.0098764937 0.0085773139         3957 
 3793000   0.64345289   -9.5487338      449.164 0.0098682661 0.0085735518         3942 
 3794000   0.64280895   -9.5281816    449.34901 0.0098697288 0.0085697941         3957 
 3795000     0.643396   -9.5478014    448.88235 0.0098568807 0.0085660348         3954 
 3796000   0.65100513   -9.5759677    447.84983 0.0098316173  0.008562279         3941 
 3797000   0.62921494   -9.5461327    449.69491 0.0098695222 0.0085585238         3939 
 3798000   0.65157376   -9.5509228    449.10201 0.0098539146 0.0085547739         3944 
 3799000   0.65328831   -9.5758732    448.13808 0.0098301764 0.0085510243         3937 
 3800000   0.64378696   -9.5674707    448.33832 0.0098319807 0.0085472764         3948 
 3801000   0.64879926   -9.5679859    448.40282 0.0098308082 0.0085435333         3954 
 3802000   0.64572533   -9.5578564    448.39945 0.0098281486 0.0085397891         3949 
 3803000   0.65879768   -9.5459516    448.68832 0.0098318942 0.0085360507         3956 
 3804000   0.64742791   -9.5820584     448.4613 0.0098243363  0.008532312         3942 
 3805000   0.63113448   -9.5443998    448.87651 0.0098308477 0.0085285744         3944 
 3806000   0.63002288   -9.5451225    449.20186 0.0098353883 0.0085248383         3951 
 3807000   0.66423227   -9.5592074    449.07648 0.0098300604 0.0085211095         3938 
 3808000   0.64492963   -9.5597763    448.35528 0.0098116965   0.00851738         3959 
 3809000   0.65452912   -9.5448342    448.83934 0.0098197108 0.0085136538         3956 
 3810000   0.63830991   -9.5474733    449.22476 0.0098255635 0.0085099288         3951 
 3811000   0.65021147   -9.5542999    449.18867  0.009822196 0.0085062052         3949 
 3812000   0.64925045   -9.5689938    448.92774 0.0098139152 0.0085024865         3966 
 3813000   0.65570399    -9.537511    448.56827 0.0098034853 0.0084987685         3933 
 3814000   0.64575155   -9.5425721    448.67613 0.0098032715 0.0084950541         3941 
 3815000   0.64633064   -9.5606266    449.32028 0.0098147723  0.008491341         3950 
 3816000   0.63624277    -9.532805     448.5847 0.0097961368  0.008487632         3951 
 3817000   0.64055975   -9.5485443    449.25671 0.0098082419 0.0084839221         3962 
 3818000   0.62843793    -9.540903    449.17365   0.00980386 0.0084802118         3961 
 3819000   0.61586502   -9.5565288     448.3592 0.0097835211 0.0084765044         3961 
 3820000   0.63874443   -9.5384129    448.97362 0.0097943635 0.0084728019         3947 
 3821000   0.64474723    -9.564052    448.42789 0.0097798981 0.0084690994         3950 
 3822000   0.61945857   -9.5588617    447.79051 0.0097634422  0.008465402         3961 
 3823000   0.62808481   -9.5563337    449.59536 0.0098002303 0.0084617042         3954 
 3824000   0.63844405   -9.5495399    449.25477 0.0097902451 0.0084580112         3955 
 3825000   0.64338297   -9.5733234    448.46179 0.0097704094  0.008454318         3951 
 3826000   0.65022476    -9.539359     449.5979 0.0097926012 0.0084506283         3945 
 3827000   0.64089107   -9.5562066    449.10828 0.0097793807  0.008446944         3953 
 3828000   0.63961963   -9.5500223    448.41357 0.0097617027 0.0084432565         3950 
 3829000   0.65136703   -9.5762663    449.21952 0.0097766938 0.0084395707         3947 
 3830000   0.63760801   -9.5605444    448.46041 0.0097576243 0.0084358893         3952 
 3831000   0.63765406   -9.5424221    448.67541  0.009759754 0.0084322079         3955 
 3832000   0.64229136    -9.568543    448.96808 0.0097635718 0.0084285318         3935 
 3833000    0.6476108     -9.56048    448.70209 0.0097552416 0.0084248573         3961 
 3834000   0.64821063    -9.551044    448.77015 0.0097541764 0.0084211845         3947 
 3835000    0.6411223   -9.5538779    448.73993 0.0097509763  0.008417516         3956 
 3836000   0.63065422   -9.5588703    448.69711  0.009747504 0.0084138489         3948 
 3837000   0.64354565   -9.5596648    448.80566 0.0097473213 0.0084101825         3949 
 3838000   0.64016278   -9.5511916     447.9663 0.0097265568 0.0084065174         3936 
 3839000   0.63477349   -9.5523989    449.12586 0.0097491939 0.0084028511         3962 
 3840000   0.63581426   -9.5522814    449.03659 0.0097447176 0.0083991872         3957 
 3841000   0.63963103   -9.5685237    448.39488 0.0097282582 0.0083955316         3948 
 3842000   0.62797891   -9.5712341    448.83071 0.0097351793  0.008391878         3959 
 3843000   0.63419749   -9.5403582    447.71009  0.009708346 0.0083882235         3952 
 3844000    0.6315422   -9.5682276    448.38128 0.0097203712 0.0083845709         3946 
 3845000   0.63960858   -9.5432883    448.09108 0.0097115535 0.0083809222         3955 
 3846000   0.63539496   -9.5404838    448.72642 0.0097227947  0.008377273         3957 
 3847000   0.63428082   -9.5575228    448.53891 0.0097162055 0.0083736274         3947 
 3848000   0.64735407   -9.5593621    449.31645 0.0097305191 0.0083699872         3966 
 3849000   0.65298388   -9.5661052    448.66142 0.0097138091 0.0083663435         3956 
 3850000   0.62757213   -9.5254534    449.24431 0.0097239028 0.0083627036         3943 
 3851000   0.61357004   -9.5540517    448.43836 0.0097039375 0.0083590691         3937 
 3852000   0.62600886   -9.5496733    449.21944  0.009718316 0.0083554373         3938 
 3853000   0.63643714   -9.5490298    448.81794 0.0097071101 0.0083518027         3953 
 3854000   0.64286032   -9.5673292    449.34515  0.009715991  0.008348174         3951 
 3855000   0.62812306    -9.583016    448.09047 0.0096863483 0.0083445446         3954 
 3856000   0.63482611   -9.5649628    447.59188 0.0096730611 0.0083409178         3961 
 3857000   0.63553109   -9.5540837    448.51207 0.0096904345 0.0083372936         3962 
 3858000   0.62732292    -9.546565    448.13796 0.0096798419 0.0083336687         3949 
 3859000    0.6179994   -9.5655684    448.29092 0.0096806366 0.0083300475         3947 
 3860000   0.63008084   -9.5700911    449.43574  0.009702844 0.0083264265         3953 
 3861000   0.62211132   -9.5683709    448.59647 0.0096822167 0.0083228102         3958 
 3862000   0.64476748    -9.574309    447.49537 0.0096559506 0.0083191982         3957 
 3863000   0.62530733   -9.5694277    447.67923 0.0096574172 0.0083155856         3954 
 3864000   0.63732743   -9.5766757    447.96803 0.0096611462 0.0083119721         3955 
 3865000   0.62633968   -9.5596718    448.65991 0.0096735643 0.0083083654         3955 
 3866000   0.62883409   -9.5755102    449.11515 0.0096808748 0.0083047598         3953 
 3867000   0.64277906   -9.5593977    448.46918 0.0096644509 0.0083011549         3941 
 3868000   0.62882684   -9.5827149    448.59596 0.0096646838 0.0082975532         3957 
 3869000   0.62726341   -9.5584756    448.78869  0.009666337 0.0082939515         3963 
 3870000   0.64203806   -9.5767197    448.53778 0.0096584363 0.0082903529         3948 
 3871000   0.64659766   -9.5428546    449.01163 0.0096661421 0.0082867577         3954 
 3872000   0.62997468   -9.5653791    448.34962 0.0096493977 0.0082831628         3961 
 3873000   0.63461014   -9.5538707    448.94666 0.0096597525 0.0082795705         3946 
 3874000   0.63587024   -9.5579653    448.56728 0.0096490983 0.0082759814         3947 
 3875000   0.62854759   -9.5597943    448.51133  0.009645405 0.0082723937         3940 
 3876000   0.64256201    -9.558114    448.66613 0.0096462447  0.008268808         3954 
 3877000   0.62998836   -9.5545697    448.53344 0.0096409044 0.0082652269         3954 
 3878000   0.62582068   -9.5519484     448.7026 0.0096420534 0.0082616453         3949 
 3879000   0.61752417   -9.5595696    447.90209 0.0096223703 0.0082580626         3939 
 3880000   0.65224885    -9.558615    448.89515 0.0096412188 0.0082544903         3957 
 3881000   0.62744236   -9.5765722     448.6298 0.0096330369 0.0082509152         3947 
 3882000   0.63405685   -9.5655203    449.06254 0.0096398451 0.0082473439         3954 
 3883000    0.6355524   -9.5738369    447.77828 0.0096098008  0.008243774         3947 
 3884000    0.6282173   -9.5448254    448.51958 0.0096232316 0.0082402076         3943 
 3885000   0.62060263   -9.5631128    448.03218 0.0096102998 0.0082366402         3958 
 3886000    0.6415056   -9.5647981    448.24511 0.0096123929 0.0082330731         3952 
 3887000   0.63553534   -9.5635982    448.63771 0.0096183369 0.0082295099         3963 
 3888000   0.62737348   -9.5612458    449.19015 0.0096277037 0.0082259514         3960 
 3889000    0.6202224   -9.5735254    448.49086 0.0096102437 0.0082223918         3949 
 3890000   0.62480752   -9.5584582    449.18155 0.0096225696 0.0082188361         3960 
 3891000   0.64702059   -9.5558292    449.56641 0.0096283391 0.0082152816         3942 
 3892000   0.63282514   -9.5809484    448.18081 0.0095961976 0.0082117301         3958 
 3893000   0.63891585   -9.5604957    448.98838 0.0096110194   0.00820818         3955 
 3894000   0.62188707   -9.5722854    448.04068   0.00958827 0.0082046361         3962 
 3895000   0.64429892   -9.5715058    448.11127 0.0095873185 0.0082010898         3952 
 3896000   0.64242303   -9.5784434    448.10593 0.0095847435 0.0081975472         3955 
 3897000   0.63767477   -9.6036488    447.48459 0.0095689974  0.008194003         3938 
 3898000   0.62542518   -9.5926051    448.36715 0.0095854102 0.0081904648         3950 
 3899000   0.63047648   -9.5893882    448.57599 0.0095874154 0.0081869247         3945 
 3900000   0.62559216   -9.5699706      447.804 0.0095684616 0.0081833908         3951 
 3901000   0.62508702    -9.581754    448.13942 0.0095731739 0.0081798588         3942 
 3902000   0.63348528   -9.5768612     448.3666 0.0095755724 0.0081763234         3942 
 3903000   0.62855198   -9.5887755    448.40241 0.0095738836  0.008172792         3952 
 3904000   0.61900725   -9.5726661      448.479  0.009573066 0.0081692627         3955 
 3905000    0.6395376   -9.5584681     448.1151 0.0095628488 0.0081657393         3953 
 3906000   0.60987314   -9.5847517    448.17985 0.0095617822 0.0081622134         3961 
 3907000   0.62072568   -9.5745795    448.56734 0.0095675997 0.0081586911         3953 
 3908000   0.62240834    -9.571785    448.16719 0.0095566187 0.0081551681         3958 
 3909000   0.63365552     -9.56578    448.74662 0.0095665263  0.008151652         3944 
 3910000   0.63639043   -9.5862954    447.99104 0.0095479762 0.0081481346         3938 
 3911000   0.61384101   -9.5683335    448.20351  0.009550062 0.0081446197         3951 
 3912000   0.62840414   -9.5704757     447.2281 0.0095268426 0.0081411078         3956 
 3913000    0.6320409   -9.5874421    447.74256 0.0095353642 0.0081376016         3948 
 3914000   0.62354777   -9.5839734    448.37368 0.0095463652  0.008134096         3961 
 3915000   0.61557111   -9.5660811    447.75215 0.0095306971 0.0081305922         3952 
 3916000   0.61764332    -9.572052     448.8344 0.0095512939 0.0081270895         3954 
 3917000   0.62351712    -9.574056    447.89376 0.0095288436 0.0081235844         3957 
 3918000   0.63168081   -9.6042406    448.17715 0.0095324389  0.008120082         3956 
 3919000   0.62832068   -9.5632038    448.55842 0.0095381138 0.0081165862         3952 
 3920000   0.62859425   -9.5736684    447.62567 0.0095158517 0.0081130888         3957 
 3921000   0.62207152   -9.5821087    447.82592 0.0095176809 0.0081095939         3943 
 3922000   0.61895286   -9.5954038    448.91454 0.0095383848 0.0081061056         3956 
 3923000   0.62205005   -9.5917708    448.15997 0.0095199247 0.0081026175         3935 
 3924000   0.62038446   -9.5863286     448.1308 0.0095168791 0.0080991305         3961 
 3925000   0.62380067   -9.5626225    447.63236 0.0095038718 0.0080956443         3950 
 3926000   0.61632583   -9.5815363    448.50117 0.0095198923 0.0080921575         3945 
 3927000   0.63420659   -9.5805647    448.04338 0.0095077537 0.0080886779         3946 
 3928000   0.61652674   -9.5853597    447.37901 0.0094912382 0.0080851976         3960 
 3929000   0.62001677   -9.5615943    448.43613 0.0095112439   0.00808172         3939 
 3930000   0.61984579    -9.562862    447.56228 0.0094902943 0.0080782462         3954 
 3931000    0.6287298   -9.5882892    448.32215 0.0095039885 0.0080747714         3946 
 3932000   0.62166247    -9.581543    447.80183 0.0094905441 0.0080712999         3959 
 3933000   0.62989422   -9.5955932    448.04327 0.0094932466 0.0080678318         3952 
 3934000   0.61554039   -9.5722963    448.00938 0.0094901157  0.008064365         3959 
 3935000   0.62680426   -9.5774325    447.91205 0.0094856428 0.0080608963         3952 
 3936000   0.60274544   -9.5855187    447.86937 0.0094823292 0.0080574302         3950 
 3937000   0.62162765   -9.5787148    449.09639 0.0095058926  0.008053967         3949 
 3938000   0.62829053   -9.5710047    447.91866 0.0094785564 0.0080505075         3968 
 3939000   0.62258537    -9.590529    447.80685 0.0094737846 0.0080470516         3952 
 3940000   0.63015659    -9.574804    448.24821  0.009480715  0.008043596         3945 
 3941000    0.6245778   -9.5860922    448.13993 0.0094760198  0.008040144         3959 
 3942000   0.60990703   -9.5786853    448.28337 0.0094766482 0.0080366927         3960 
 3943000   0.62269684    -9.588561    448.67354 0.0094824909 0.0080332432         3953 
 3944000   0.61411563   -9.6020494     448.0133 0.0094661363  0.008029796         3952 
 3945000   0.61797587   -9.5794022    448.61727  0.009476495 0.0080263507         3950 
 3946000   0.61541434   -9.5828769    448.40015 0.0094695081 0.0080229079         3945 
 3947000   0.61605156   -9.5962583    447.86577 0.0094558267 0.0080194646         3959 
 3948000   0.61311775   -9.5699138    448.24312 0.0094613964 0.0080160255         3951 
 3949000   0.62906701   -9.5999194    447.48459 0.0094429938 0.0080125914         3948 
 3950000   0.62245894    -9.573471    448.10268 0.0094536431 0.0080091541         3954 
 3951000   0.62006241   -9.5738401    447.86053  0.009446143 0.0080057177         3954 
 3952000   0.62547222   -9.5798106     447.5693 0.0094376118 0.0080022868         3949 
 3953000   0.62590917   -9.5818749    448.20592  0.009448645  0.007998858         3962 
 3954000   0.60923948   -9.5840679    448.45437 0.0094514915 0.0079954301         3955 
 3955000   0.60973427   -9.5573233    448.60423 0.0094522593 0.0079920049         3947 
 3956000   0.60872488   -9.5871069     448.0884 0.0094390041 0.0079885813         3951 
 3957000   0.61700835   -9.5738987    448.18642 0.0094386829 0.0079851598         3939 
 3958000   0.60835457   -9.5705377    448.75481 0.0094482654 0.0079817386         3948 
 3959000   0.61148383   -9.5845408    447.91271 0.0094281534 0.0079783183         3955 
 3960000   0.61956752   -9.6009193    447.59916 0.0094191743 0.0079749028         3952 
 3961000   0.62166583   -9.5982699    447.68515 0.0094186053 0.0079714851         3951 
 3962000   0.62393839   -9.5976525    447.88566 0.0094204454 0.0079680729         3962 
 3963000   0.62168333   -9.5924454    447.67479 0.0094136343 0.0079646642         3941 
 3964000   0.63008813   -9.5975148    447.43351 0.0094061872 0.0079612546         3943 
 3965000   0.60591528    -9.591623    448.00487 0.0094158233 0.0079578479         3964 
 3966000   0.60658808   -9.5923918    447.36815 0.0094000703 0.0079544421         3969 
 3967000   0.61988478    -9.602481    448.52813 0.0094220682 0.0079510374         3965 
 3968000   0.60656762   -9.5930033    447.84972 0.0094054461 0.0079476358         3961 
 3969000   0.61409602   -9.5982729    447.99823 0.0094061946 0.0079442367         3954 
 3970000   0.61266414   -9.5837034    448.36038  0.009411427 0.0079408368         3957 
 3971000   0.61759244    -9.580216    448.06172 0.0094027894 0.0079374423         3949 
 3972000   0.61634348   -9.6086014    448.63602 0.0094124711 0.0079340507         3942 
 3973000   0.60905539    -9.611725    448.07623 0.0093983604 0.0079306591         3961 
 3974000   0.60566031    -9.594843    448.08328 0.0093961433 0.0079272701         3955 
 3975000   0.60369141   -9.6010953     447.3383 0.0093781615 0.0079238831         3943 
 3976000   0.63258258   -9.5836792    447.80101 0.0093855007 0.0079204999         3956 
 3977000   0.62368767    -9.599817    447.57209  0.009378344 0.0079171188         3946 
 3978000   0.62265506   -9.5863221    448.09604 0.0093869625 0.0079137362         3950 
 3979000   0.61513515   -9.5795545    448.49097 0.0093928744 0.0079103585         3960 
 3980000   0.61211864    -9.576933    448.51515 0.0093910207 0.0079069819         3958 
 3981000   0.62245839   -9.5989376    447.76797 0.0093730212 0.0079036081         3956 
 3982000   0.62091907   -9.5803192     447.6626 0.0093684623  0.007900232         3970 
 3983000   0.62438134   -9.6061036    447.75178 0.0093679759 0.0078968579         3942 
 3984000   0.61913817   -9.5863058    447.99035 0.0093706147 0.0078934858         3944 
 3985000   0.61729713   -9.5738189     446.9556 0.0093466248 0.0078901184         3949 
 3986000   0.62894825   -9.5981364    447.90141 0.0093640536 0.0078867506         3933 
 3987000   0.60539923   -9.5983473    448.00802 0.0093639332 0.0078833871         3958 
 3988000   0.61860033   -9.5893628     447.3349 0.0093475197 0.0078800278         3962 
 3989000   0.61673589   -9.6011767    447.84584 0.0093558502 0.0078766669         3944 
 3990000   0.61597791   -9.6110786    448.51855 0.0093675553 0.0078733049         3958 
 3991000   0.61401977   -9.5839441    448.45574 0.0093638966 0.0078699465         3951 
 3992000   0.62013688   -9.5968988    447.45761  0.009340715 0.0078665893         3965 
 3993000   0.62143902   -9.6016607    447.87317 0.0093470484 0.0078632374         3959 
 3994000   0.61033667   -9.5946339    447.47096 0.0093363162 0.0078598883         3952 
 3995000   0.60911299   -9.5870572    447.74146 0.0093396216 0.0078565377         3952 
 3996000   0.61783214   -9.6094983    448.40107 0.0093510401 0.0078531885         3950 
 3997000   0.62181051   -9.5806011    448.03343 0.0093410356 0.0078498425         3961 
 3998000   0.61253004   -9.5972716     447.8889 0.0093356867 0.0078464988         3938 
 3999000   0.62370359   -9.5921496    448.40588 0.0093441251 0.0078431576         3955 
 4000000   0.61307514   -9.5905064    447.85632   0.00933034 0.0078398202         3949 
 4001000   0.60595762   -9.6004026    447.79957 0.0093268259 0.0078364838         3954 
 4002000   0.61673495   -9.5985023    448.08981 0.0093305391 0.0078331497         3947 
 4003000   0.62720196   -9.5948025    447.45946 0.0093150858 0.0078298163         3953 
 4004000   0.62395658   -9.6155243    447.89508 0.0093218256 0.0078264836         3953 
 4005000    0.6167922   -9.6127364    447.69507 0.0093153364 0.0078231514         3958 
 4006000    0.6070394   -9.6185037    447.08695  0.009300361 0.0078198236         3944 
 4007000   0.61897157   -9.6030606    447.68432 0.0093104634 0.0078164979         3948 
 4008000   0.61415985   -9.5855704    447.92321 0.0093131074 0.0078131724         3943 
 4009000   0.60264892   -9.5902046    447.66438  0.009305404 0.0078098499         3942 
 4010000   0.60466358   -9.6132619    447.65995 0.0093029915 0.0078065306         3959 
 4011000   0.61250508   -9.6313859    447.95124  0.009306724 0.0078032108         3943 
 4012000   0.59903887   -9.6091899    447.12801  0.009287305 0.0077998961         3955 
 4013000   0.60422124   -9.6083626    448.25273 0.0093083463 0.0077965834         3942 
 4014000   0.61538804   -9.6033518     447.8627 0.0092979302 0.0077932699         3948 
 4015000   0.60142659   -9.6004367    447.93246 0.0092970622 0.0077899574         3954 
 4016000   0.61477576   -9.5998609    448.27694 0.0093018954 0.0077866487         3957 
 4017000   0.59921103   -9.5970137    447.33066 0.0092799489 0.0077833422         3961 
 4018000   0.60232185   -9.6082166    447.78142 0.0092869881 0.0077800357         3953 
 4019000    0.6065234    -9.610614    447.16009 0.0092717942 0.0077767312         3955 
 4020000   0.61491984   -9.6077956    447.35969 0.0092736254 0.0077734278         3949 
 4021000   0.61169863    -9.597866    448.52073 0.0092953812 0.0077701282         3948 
 4022000   0.60229948   -9.6194025    447.17954 0.0092652813 0.0077668289         3958 
 4023000   0.60574102   -9.6217448    446.74867 0.0092540531 0.0077635288         3948 
 4024000    0.5908454   -9.6043107    447.62069 0.0092698123 0.0077602337         3950 
 4025000   0.60278877   -9.6253887    447.79125 0.0092710405 0.0077569403         3965 
 4026000   0.61311935   -9.6142935    447.42702 0.0092611984 0.0077536523         3960 
 4027000   0.61512646   -9.6016821    448.24092 0.0092757412 0.0077503647         3946 
 4028000   0.60102675   -9.6214423    446.92053 0.0092461215 0.0077470768         3942 
 4029000   0.59440649   -9.6072917    447.73037 0.0092605769 0.0077437944         3950 
 4030000   0.60467811    -9.618409    448.11348  0.009266201 0.0077405119         3960 
 4031000    0.6076196   -9.5818157    447.98498 0.0092612458 0.0077372318         3949 
 4032000   0.59804187   -9.6020044    447.63232   0.00925166 0.0077339546         3965 
 4033000   0.60250881   -9.6148774    448.13618 0.0092597772 0.0077306754         3950 
 4034000   0.60137662   -9.6015798    447.35215 0.0092412856 0.0077273997         3947 
 4035000   0.60530725   -9.6231349    448.05406 0.0092534915 0.0077241261         3961 
 4036000   0.60802556   -9.6127794    447.51842 0.0092401393  0.007720853         3949 
 4037000   0.61338647   -9.5979015      447.953 0.0092468211 0.0077175827         3943 
 4038000   0.60992986   -9.6057253    447.82019 0.0092417904 0.0077143155         3943 
 4039000   0.60131737   -9.5970372    448.00853  0.009243388 0.0077110514         3956 
 4040000   0.60695597   -9.6221786    447.81153 0.0092370365 0.0077077894         3946 
 4041000   0.59706689    -9.596592    447.95086 0.0092376238 0.0077045285         3953 
 4042000   0.60985701   -9.6171359    448.00994 0.0092365567 0.0077012698         3971 
 4043000   0.60473845   -9.6054305     447.9414 0.0092328593 0.0076980107         3939 
 4044000   0.60445046   -9.6152578    448.14554 0.0092347828 0.0076947515         3947 
 4045000   0.60947452   -9.6017249      447.407 0.0092172847 0.0076914957         3954 
 4046000   0.59863081   -9.6173303    446.95587 0.0092057149 0.0076882412         3950 
 4047000    0.6026204   -9.5876169    448.21132 0.0092292917 0.0076849886         3946 
 4048000   0.58792691   -9.6225061    446.76105 0.0091971561 0.0076817382         3966 
 4049000    0.6114838   -9.5994297    447.46856 0.0092094459 0.0076784921         3955 
 4050000   0.61155672   -9.6165759    447.61917 0.0092102709 0.0076752455         3952 
 4051000   0.61337878   -9.6049103    447.26176 0.0092006451 0.0076720022         3956 
 4052000   0.60359088   -9.5915687    447.78492 0.0092091337 0.0076687596         3947 
 4053000   0.60571237   -9.6066638    447.34027 0.0091977192 0.0076655201         3954 
 4054000   0.61065543   -9.6171983    447.63395 0.0092014872 0.0076622788         3954 
 4055000   0.60762597   -9.6237522     447.5307 0.0091970961 0.0076590438         3943 
 4056000   0.61160341    -9.622424    447.33264 0.0091907595 0.0076558074         3945 
 4057000   0.60458995   -9.6187205    447.11864 0.0091840983 0.0076525735         3940 
 4058000   0.60419616   -9.5961037    447.77224  0.009195257 0.0076493403         3952 
 4059000   0.61044246    -9.614775    446.92116 0.0091755186 0.0076461107         3951 
 4060000   0.60431244   -9.6210379    447.61563  0.009187513 0.0076428833         3944 
 4061000   0.60749628   -9.5954447    448.58552  0.009205153 0.0076396594         3956 
 4062000   0.60828113   -9.6076839    447.75633 0.0091858758 0.0076364351         3959 
 4063000   0.61441981   -9.6139081    447.23654  0.009172954 0.0076332119         3953 
 4064000   0.60949386   -9.6185504     447.5098 0.0091763001 0.0076299919         3951 
 4065000   0.60082921    -9.616148     447.1052 0.0091657483  0.007626775         3956 
 4066000   0.60089316   -9.6017784    447.48721 0.0091713234  0.007623557         3956 
 4067000   0.60051447   -9.6144049    447.24526 0.0091641108 0.0076203437         3954 
 4068000   0.60326756   -9.6007866    447.86538 0.0091745612 0.0076171311         3952 
 4069000     0.605871   -9.6088343    447.35549  0.009161864 0.0076139201         3946 
 4070000   0.58365521   -9.6160225    447.90281 0.0091708193 0.0076107106         3958 
 4071000   0.59768409   -9.6024109    447.38965 0.0091580622 0.0076075047         3963 
 4072000   0.59921705   -9.6238028    446.87206 0.0091452206 0.0076042988         3960 
 4073000    0.5955045   -9.6084736    447.94316   0.00916489 0.0076010947         3949 
 4074000   0.59678007   -9.6140428    448.22728  0.009168452 0.0075978911         3967 
 4075000   0.59580674   -9.6214791    448.22957 0.0091662488 0.0075946891         3966 
 4076000   0.59945558   -9.6139946    447.27146 0.0091444116 0.0075914933         3959 
 4077000   0.58430341   -9.6029925    447.25256 0.0091417823 0.0075882978         3953 
 4078000   0.60608346   -9.6232197    447.51373 0.0091448777 0.0075851056         3957 
 4079000    0.5923616   -9.6129619    446.68882 0.0091257829 0.0075819121         3970 
 4080000   0.60050428   -9.6261214    447.49406  0.009139993 0.0075787214         3946 
 4081000   0.59907965   -9.6294989    447.09201 0.0091295436 0.0075755329         3959 
 4082000   0.59153036   -9.6232916    447.46128 0.0091348457  0.007572346         3948 
 4083000   0.59731205   -9.6063504    448.07185   0.00914507 0.0075691616         3946 
 4084000   0.60585353   -9.6139537    447.63517 0.0091339205 0.0075659792         3954 
 4085000   0.61425133   -9.6089448    447.34773 0.0091258206 0.0075627982         3955 
 4086000   0.61752669   -9.6280027    448.18356 0.0091406338 0.0075596198         3959 
 4087000    0.5916199   -9.6286707    447.57813 0.0091260527 0.0075564421         3969 
 4088000   0.59443252   -9.6349432     447.2434 0.0091169968 0.0075532661         3958 
 4089000   0.60004091   -9.6160969    447.55243 0.0091210653 0.0075500916         3953 
 4090000     0.590955   -9.6124514    447.55932 0.0091189756 0.0075469174         3942 
 4091000   0.59356684   -9.6143773    447.34128  0.009112305 0.0075437481         3952 
 4092000   0.58874723   -9.6205923    447.34423 0.0091101384 0.0075405797         3946 
 4093000   0.60363817   -9.6343952    446.57391 0.0090922287 0.0075374129         3943 
 4094000   0.60115766   -9.6359625     447.4683 0.0091082131 0.0075342494         3954 
 4095000   0.59415114   -9.6366545    446.97487 0.0090959476 0.0075310863         3956 
 4096000   0.58841839    -9.631797    446.95437   0.00909331 0.0075279236         3950 
 4097000   0.61597857   -9.6258766    447.74847 0.0091072425  0.007524762         3962 
 4098000   0.59571444   -9.6338149    447.74483 0.0091049462 0.0075216062         3952 
 4099000   0.59663549   -9.5842111    448.02878 0.0091084976 0.0075184502         3963 
 4100000   0.58371039   -9.6192547    447.63766 0.0090983263 0.0075152956         3953 
 4101000   0.58752189   -9.6200889    447.91566 0.0091017569 0.0075121447         3963 
 4102000   0.60168372   -9.6378178    446.71251 0.0090750956 0.0075089932         3971 
 4103000   0.59036274   -9.6224037    447.16568 0.0090820879 0.0075058429         3961 
 4104000   0.58594089   -9.6242049    447.36676 0.0090839579 0.0075026961         3950 
 4105000   0.60412866   -9.6198061    447.27968 0.0090799773 0.0074995503         3950 
 4106000   0.59027354   -9.6228294    447.60472 0.0090843627 0.0074964056         3932 
 4107000    0.6015772   -9.5949074    447.45893 0.0090791926 0.0074932652         3949 
 4108000   0.58719892   -9.6322727    447.65221 0.0090809033 0.0074901268         3956 
 4109000   0.59435126   -9.6245111    447.30329  0.009071617  0.007486988         3953 
 4110000   0.60404856    -9.620839    447.80686 0.0090796201 0.0074838498         3956 
 4111000   0.60138054   -9.6114266    447.35041 0.0090681588 0.0074807131         3955 
 4112000   0.59202664    -9.647639    448.10104 0.0090811658 0.0074775823         3951 
 4113000     0.602075   -9.6072478    447.08786 0.0090584298 0.0074744516         3947 
 4114000   0.59362435   -9.6214456     447.2936 0.0090603955 0.0074713214         3946 
 4115000   0.59405841   -9.6373971     447.3435 0.0090592042 0.0074681919         3965 
 4116000   0.60142445   -9.6245581     447.9913 0.0090701187  0.007465066         3963 
 4117000   0.58879266    -9.639926    446.93105 0.0090464548 0.0074619406         3950 
 4118000   0.59630497   -9.6234314    446.89946 0.0090436187 0.0074588179         3957 
 4119000   0.60198251   -9.6110398    447.08933 0.0090452645 0.0074556967         3955 
 4120000   0.58322831   -9.6069174    447.28972 0.0090471221 0.0074525747         3954 
 4121000   0.59171904   -9.6218628    448.19276 0.0090631877 0.0074494555         3953 
 4122000   0.59872159   -9.6073782    447.39158 0.0090447918   0.00744634         3958 
 4123000   0.60088424   -9.6324915    446.58625 0.0090263208  0.007443226         3941 
 4124000   0.58869888    -9.604554    447.68625 0.0090463598 0.0074401137         3938 
 4125000    0.5982108   -9.6258911    447.29776 0.0090363183 0.0074370047         3963 
 4126000   0.58450364   -9.6342441    447.13552 0.0090308516 0.0074338952         3959 
 4127000   0.60149181   -9.6579751    447.35614  0.009033118 0.0074307878         3944 
 4128000   0.59998309   -9.6292739    445.75405 0.0089985878 0.0074276812         3943 
 4129000   0.59411311   -9.6340255    447.15783 0.0090247403  0.007424578         3957 
 4130000   0.58778359   -9.6332583    447.31402 0.0090257066 0.0074214758         3955 
 4131000   0.57819827   -9.6263623    447.68715 0.0090310488 0.0074183736         3962 
 4132000   0.58438201   -9.6321131    447.60539 0.0090272143 0.0074152762         3955 
 4133000   0.58453917   -9.6349477    447.17727 0.0090163979 0.0074121799         3962 
 4134000    0.5842305   -9.6118182    447.48167  0.009020353 0.0074090823         3962 
 4135000   0.58350766   -9.6348846    447.21887 0.0090128753 0.0074059865         3936 
 4136000   0.58784565   -9.6259623    446.98542 0.0090059925 0.0074028927         3963 
 4137000   0.59300922   -9.6267083     446.9981  0.009004071 0.0073998017         3964 
 4138000   0.57786084   -9.6315572    447.38705 0.0090097279 0.0073967134         3963 
 4139000   0.57755812    -9.605741    447.86444 0.0090171628  0.007393627         3954 
 4140000   0.59449489   -9.6198098    447.30441  0.009003712 0.0073905419         3953 
 4141000   0.59117368   -9.6336183    447.08806 0.0089971839 0.0073874597         3962 
 4142000   0.58492983   -9.6322113    446.88164 0.0089908586 0.0073843773         3949 
 4143000   0.58697961   -9.6340082    447.48825   0.00900089 0.0073812997         3952 
 4144000   0.59015406   -9.6262317     447.7005 0.0090029863 0.0073782204         3947 
 4145000   0.60013969   -9.6302269    447.11814 0.0089891061 0.0073751419         3947 
 4146000   0.58516233   -9.6268871    446.99163 0.0089843952 0.0073720664         3963 
 4147000   0.58748956   -9.6323298    447.44346 0.0089913081 0.0073689926         3951 
 4148000   0.59265955   -9.6238317    447.31918 0.0089866438 0.0073659221         3957 
 4149000   0.58350895   -9.6267966    446.68788  0.008971798 0.0073628531         3952 
 4150000   0.57990272   -9.6151904    446.97607 0.0089754231 0.0073597887         3943 
 4151000   0.57677106   -9.6027825    448.04172 0.0089946543 0.0073567252         3952 
 4152000   0.59522169   -9.6175625    447.36177 0.0089788408 0.0073536617         3933 
 4153000   0.59422513   -9.6237359    447.33041 0.0089760496 0.0073505982         3952 
 4154000   0.57639003   -9.6272336     446.5475 0.0089581828 0.0073475377         3951 
 4155000   0.58622352   -9.6293183      446.834 0.0089617729 0.0073444745         3950 
 4156000    0.5998362    -9.636492    447.31293 0.0089692199 0.0073414142         3952 
 4157000   0.59077692   -9.6379288    447.20416 0.0089648817 0.0073383593         3951 
 4158000   0.59166713   -9.6195064    447.59452 0.0089705491 0.0073353057         3958 
 4159000   0.59429225   -9.6425223    446.91357 0.0089547481 0.0073322554         3951 
 4160000   0.57165965   -9.6367268    447.39968 0.0089623333 0.0073292028         3947 
 4161000   0.59915253   -9.6336727    447.44262 0.0089610394  0.007326155         3960 
 4162000   0.57903147   -9.6382614    447.44045  0.008958843 0.0073231076         3943 
 4163000   0.58437797   -9.6458319    447.35295 0.0089549394 0.0073200618         3946 
 4164000   0.58133385   -9.6462771    446.66253 0.0089389716 0.0073170155         3963 
 4165000   0.58128101   -9.6498745    446.55057 0.0089345852 0.0073139726         3949 
 4166000   0.58276187   -9.6515937    446.31066 0.0089276416 0.0073109296         3956 
 4167000   0.59602223   -9.6400847    446.38541  0.008926994 0.0073078891         3948 
 4168000   0.57762667   -9.6331434    446.71951 0.0089315321 0.0073048543         3946 
 4169000   0.58885223   -9.6358547    447.22854 0.0089395646 0.0073018201         3947 
 4170000   0.57773982   -9.6444981    446.98294 0.0089325128 0.0072987841         3959 
 4171000   0.58063572    -9.645183    446.56173 0.0089219557 0.0072957484         3954 
 4172000   0.59322162   -9.6467364    446.02771 0.0089091505 0.0072927171         3950 
 4173000   0.59738553   -9.6472115    447.66264 0.0089396645 0.0072896885         3952 
 4174000   0.58210658   -9.6314484    447.21107 0.0089285072 0.0072866573         3951 
 4175000   0.58779078   -9.6299143    447.41603 0.0089304596 0.0072836289         3946 
 4176000   0.59152375   -9.6337179    446.99916 0.0089200023 0.0072806048         3955 
 4177000   0.59137599   -9.6098278    447.00022 0.0089178881 0.0072775819         3955 
 4178000   0.57281524   -9.6312067    446.72958 0.0089103554 0.0072745627         3942 
 4179000   0.58208146   -9.6289327    447.62654 0.0089261094 0.0072715455         3952 
 4180000   0.57122348   -9.6468447     447.7362 0.0089261602  0.007268528         3951 
 4181000   0.58572886   -9.6455503    446.86416 0.0089066444  0.007265511         3949 
 4182000   0.58473144   -9.6213702    446.20063 0.0088912926 0.0072624974         3957 
 4183000   0.58238527   -9.6437971    447.09003 0.0089068855 0.0072594851         3943 
 4184000   0.57776245   -9.6139919    447.05397 0.0089040385 0.0072564755         3944 
 4185000    0.5810227   -9.6289151    447.15326 0.0089038881 0.0072534668         3950 
 4186000   0.57417263   -9.6470813    446.36361 0.0088860409 0.0072504612         3950 
 4187000   0.58958671   -9.6352143     447.1919  0.008900404 0.0072474552         3952 
 4188000   0.58427589   -9.6464647    446.02004 0.0088749611 0.0072444511         3950 
 4189000   0.58208854   -9.6653687    446.59688 0.0088843177 0.0072414487         3956 
 4190000   0.58729559   -9.6526057    446.99454 0.0088901062  0.007238446         3956 
 4191000   0.57526383   -9.6483285    447.34576 0.0088949686 0.0072354496         3958 
 4192000    0.5735221   -9.6389277     446.6095 0.0088782104 0.0072324512         3950 
 4193000   0.59359505   -9.6531987      446.313 0.0088702003 0.0072294533         3957 
 4194000   0.59135213   -9.6459438    447.00474   0.00888183 0.0072264614         3958 
 4195000   0.56580827   -9.6489902    445.82484 0.0088562741 0.0072234679         3951 
 4196000   0.56864416   -9.6675105     446.7861 0.0088732542  0.007220476         3946 
 4197000   0.58656211   -9.6389685    446.42661 0.0088640023 0.0072174867         3946 
 4198000   0.58713108   -9.6519258    446.56528 0.0088646434 0.0072144971         3950 
 4199000   0.57407988   -9.6648286    446.00048 0.0088513234 0.0072115099         3942 
 4200000   0.58286809   -9.6478784     446.0742 0.0088506785 0.0072085248         3964 
 4201000   0.57664421   -9.6545477    446.89916 0.0088649362  0.007205542         3955 
 4202000   0.58653908   -9.6367082    447.36218  0.008872009 0.0072025613         3964 
 4203000   0.57885954   -9.6550624    446.52801 0.0088533589 0.0071995815         3964 
 4204000   0.56983742   -9.6475041    446.91671 0.0088589579 0.0071966048         3937 
 4205000   0.57470863   -9.6507302    446.62637 0.0088510972 0.0071936288         3960 
 4206000   0.57157545   -9.6431571     446.3989 0.0088444861 0.0071906547         3959 
 4207000   0.57625419   -9.6439178    446.55748 0.0088455249 0.0071876822         3961 
 4208000   0.57040045   -9.6551824    446.45736 0.0088414401 0.0071847103         3959 
 4209000   0.58063518   -9.6516144    446.39234 0.0088380522 0.0071817402         3950 
 4210000   0.57503221   -9.6494965     446.4996 0.0088380761 0.0071787734         3938 
 4211000   0.56507508   -9.6495041    446.47374 0.0088354655 0.0071758084         3960 
 4212000   0.58194057   -9.6409666     446.4027 0.0088319622 0.0071728466         3956 
 4213000   0.58080183   -9.6609616    446.97493 0.0088411847 0.0071698832         3959 
 4214000   0.58636508   -9.6336983    447.41777 0.0088478439 0.0071669239         3947 
 4215000   0.57580262   -9.6342341    446.71316 0.0088318141 0.0071639644         3955 
 4216000   0.58110733   -9.6530301     446.8901 0.0088332167 0.0071610064         3951 
 4217000   0.56657275   -9.6588855    446.63726 0.0088261257 0.0071580524         3940 
 4218000   0.57131611   -9.6370692    446.99681 0.0088311366 0.0071550975         3953 
 4219000   0.58001487   -9.6545363    447.08208 0.0088307277 0.0071521456         3958 
 4220000   0.57383501   -9.6463649    447.17809 0.0088305311 0.0071491944         3962 
 4221000    0.5757261   -9.6195426    447.30379 0.0088309206  0.007146245         3948 
 4222000   0.57189972   -9.6530124    446.00214 0.0088031371  0.007143299         3943 
 4223000   0.57387738   -9.6564939    446.81325 0.0088170584 0.0071403533         3968 
 4224000   0.56646211    -9.668143    446.95173  0.008817703 0.0071374062         3961 
 4225000   0.58391921   -9.6756861    446.66497 0.0088099599  0.007134464         3949 
 4226000   0.57502166   -9.6575461    446.43239  0.008803289 0.0071315219         3941 
 4227000   0.57038841    -9.660717     446.8854 0.0088101371 0.0071285826         3943 
 4228000    0.5724599   -9.6490387    446.19826   0.00879451 0.0071256472         3945 
 4229000   0.56374443   -9.6590879     446.2354 0.0087931624 0.0071227125         3953 
 4230000   0.56432431   -9.6484041    446.43989 0.0087951121 0.0071197776         3945 
 4231000   0.57718508   -9.6473774    446.84705 0.0088010528 0.0071168451         3954 
 4232000   0.57116376    -9.668858    446.79891 0.0087980252 0.0071139134         3948 
 4233000   0.58049709   -9.6670659    446.67279 0.0087934639 0.0071109856         3950 
 4234000   0.56759903   -9.6631706    447.13836 0.0088005503 0.0071080582         3956 
 4235000   0.57473235   -9.6704395    446.57513 0.0087873893 0.0071051352         3949 
 4236000   0.57150691   -9.6510476    446.20244 0.0087779832 0.0071022107         3953 
 4237000   0.56903791   -9.6527669    446.68579  0.008785418 0.0070992892         3958 
 4238000   0.55945399   -9.6559422    446.68806 0.0087833895 0.0070963676         3944 
 4239000   0.56979787   -9.6662107    446.57502 0.0087790953  0.007093448         3958 
 4240000   0.57625913   -9.6550981    446.20774 0.0087698061  0.007090528         3948 
 4241000   0.56693971   -9.6586098    446.97099 0.0087827359 0.0070876131         3946 
 4242000   0.56798207   -9.6573347      445.992 0.0087614333 0.0070846966         3943 
 4243000   0.56984258   -9.6472882    446.70049 0.0087732832 0.0070817819         3957 
 4244000   0.56201642   -9.6541396    446.43218 0.0087659476 0.0070788703         3947 
 4245000    0.5718636   -9.6790545    445.69499 0.0087494109 0.0070759585         3949 
 4246000   0.57795474   -9.6773956    446.66708 0.0087664288 0.0070730485         3946 
 4247000   0.57355213   -9.6615338    446.84705 0.0087678959 0.0070701433         3943 
 4248000   0.58110692   -9.6602048    446.12812 0.0087517286 0.0070672379         3955 
 4249000   0.58378966   -9.6549172    446.95139 0.0087658154 0.0070643342         3950 
 4250000   0.56490028   -9.6633561    446.35393 0.0087520378 0.0070614311         3954 
 4251000   0.57850837   -9.6550157    447.32975 0.0087691083 0.0070585335         3951 
 4252000   0.56063831   -9.6647142    446.54597 0.0087516849 0.0070556344         3950 
 4253000   0.57848596   -9.6589468    446.30576 0.0087449205 0.0070527365         3954 
 4254000   0.57655178    -9.649836      446.574 0.0087481194 0.0070498387         3954 
 4255000   0.57453366   -9.6617864     446.8521 0.0087515101 0.0070469455         3937 
 4256000   0.57652003   -9.6599088    446.91681 0.0087507208 0.0070440528         3951 
 4257000   0.56653829   -9.6479297    446.68767 0.0087441795  0.007041161         3946 
 4258000   0.57245335   -9.6695379     446.2978 0.0087344959 0.0070382719         3961 
 4259000   0.55568468   -9.6749274    447.39758 0.0087539638 0.0070353844         3954 
 4260000   0.57148533   -9.6499477    446.29462  0.008730333 0.0070324987         3934 
 4261000   0.57277063    -9.665737    445.98778 0.0087222831 0.0070296176         3961 
 4262000   0.57431321    -9.658291    445.70712  0.008714749 0.0070267343         3955 
 4263000   0.56790852    -9.676178    445.37019 0.0087061183 0.0070238523         3955 
 4264000   0.57793663    -9.645144     446.2596 0.0087214588 0.0070209732         3954 
 4265000   0.56268935    -9.657914    446.12174 0.0087167202 0.0070180969         3957 
 4266000    0.5632531    -9.664412    445.92462 0.0087108262 0.0070152201         3955 
 4267000   0.56593453   -9.6549556    447.02208 0.0087302179 0.0070123449         3963 
 4268000    0.5791335   -9.6611323    446.58494 0.0087196373 0.0070094746         3953 
 4269000   0.56789837   -9.6644172    446.89309 0.0087236099 0.0070066064         3954 
 4270000   0.56833636   -9.6778329     446.4632 0.0087131772 0.0070037384         3956 
 4271000   0.57228983   -9.6751437    445.97727  0.008701656 0.0070008691         3953 
 4272000   0.58186477   -9.6806485    446.22256 0.0087044038  0.006998002         3966 
 4273000    0.5749588    -9.660691    446.64493 0.0087106039 0.0069951345         3953 
 4274000   0.57617759     -9.66295    446.07327 0.0086974199 0.0069922713         3948 
 4275000   0.56766407   -9.6703261    446.29527 0.0086997129 0.0069894084         3949 
 4276000   0.57599581   -9.6864846     445.8283 0.0086885778 0.0069865495         3965 
 4277000    0.5708892   -9.6655507    446.68625 0.0087032626 0.0069836931         3959 
 4278000   0.57516586   -9.6709619    446.15208 0.0086908227  0.006980838         3962 
 4279000   0.56701231   -9.6750284    446.08871 0.0086875577 0.0069779828         3954 
 4280000   0.56714616   -9.6556101    446.39995 0.0086915879 0.0069751294         3964 
 4281000   0.55917892   -9.6636944    446.69824 0.0086953641 0.0069722788         3964 
 4282000   0.56123851   -9.6681428    445.93446 0.0086784693 0.0069694286         3957 
 4283000   0.57174891   -9.6536216    445.66734 0.0086712457 0.0069665776         3956 
 4284000   0.55448878   -9.6703929    446.66724 0.0086886719 0.0069637298         3965 
 4285000   0.56600014   -9.6436645    446.08968 0.0086754118 0.0069608842         3960 
 4286000   0.56999816   -9.6763955    447.01032  0.008691288 0.0069580424         3974 
 4287000   0.56213713   -9.6595616    445.80411 0.0086658134 0.0069551975         3940 
 4288000   0.56453693   -9.6621174    446.33743 0.0086741571 0.0069523549         3966 
 4289000   0.56963243   -9.6741593    446.07418 0.0086670199 0.0069495154         3959 
 4290000    0.5628655   -9.6723175    446.55722 0.0086743827 0.0069466797         3953 
 4291000   0.55996343   -9.6820557    446.20039 0.0086654313 0.0069438419         3948 
 4292000   0.56602964   -9.6695183     445.9696 0.0086589314 0.0069410056         3949 
 4293000   0.57324441   -9.6533817    445.30707 0.0086440537 0.0069381716         3947 
 4294000   0.57782942   -9.6684684    445.91849 0.0086539065 0.0069353397         3956 
 4295000   0.55943305   -9.6743054    446.11704  0.008655744  0.006932507         3956 
 4296000   0.56688872   -9.6779133     446.5066 0.0086612857 0.0069296785         3950 
 4297000   0.55081069   -9.6733601    445.81061 0.0086457725 0.0069268493         3956 
 4298000   0.57897188   -9.6823504    445.90087 0.0086455109 0.0069240232         3953 
 4299000   0.56810928   -9.6867745    445.91489 0.0086437716 0.0069211963         3951 
 4300000   0.56281776   -9.6661493    445.90341  0.008641539 0.0069183734         3944 
 4301000   0.56176758   -9.6767025    446.41638 0.0086494688 0.0069155534         3956 
 4302000   0.55852705   -9.6682994    446.55265 0.0086500979 0.0069127352         3955 
 4303000   0.57304457    -9.671768    445.52475  0.008628181 0.0069099185         3954 
 4304000   0.55553279   -9.6697684    445.51792  0.008626044 0.0069071025         3958 
 4305000   0.56452243   -9.6777882    445.87499 0.0086309521 0.0069042864         3950 
 4306000   0.57048994   -9.6765384    445.89726 0.0086293788 0.0069014693         3954 
 4307000   0.57450001   -9.6736507      446.098 0.0086312592 0.0068986576         3960 
 4308000   0.56009529    -9.656987    446.53906 0.0086377875 0.0068958451         3945 
 4309000   0.55063742   -9.6541954    446.44186  0.008633903 0.0068930333         3954 
 4310000   0.55436923   -9.6608216    446.72684   0.00863741 0.0068902239         3950 
 4311000   0.57001692   -9.6643215    446.59383 0.0086328351 0.0068874181         3957 
 4312000   0.55480464   -9.6863458    446.80916 0.0086349946 0.0068846124         3966 
 4313000   0.56036351   -9.6764463    446.59553 0.0086288649 0.0068818086         3949 
 4314000   0.56604885   -9.6697917    446.16372 0.0086185234 0.0068790059         3962 
 4315000   0.56875334   -9.6893495     446.0129 0.0086136133  0.006876204         3954 
 4316000   0.55089617   -9.6726619    446.47515 0.0086205428 0.0068734055         3946 
 4317000   0.56523896   -9.6625243    445.65351 0.0086026854 0.0068706076         3952 
 4318000   0.57492657   -9.6698279    446.16481 0.0086105607 0.0068678128         3959 
 4319000   0.54378192   -9.6622422    446.07592 0.0086068518 0.0068650195         3958 
 4320000   0.56462432   -9.6698742    445.99874 0.0086033707 0.0068622263         3960 
 4321000   0.55701624   -9.6771143    447.15902 0.0086237565 0.0068594371         3955 
 4322000   0.55746996   -9.6789102    446.53776 0.0086097825 0.0068566457         3948 
 4323000   0.57395602   -9.6772954    445.54724  0.008588697 0.0068538561         3945 
 4324000   0.56233273   -9.6702137    446.22068 0.0085996894  0.006851069         3948 
 4325000   0.55585724   -9.6746736     446.1184 0.0085957303  0.006848283         3953 
 4326000   0.56384887   -9.6854553    446.00364 0.0085915327 0.0068454975         3949 
 4327000   0.55969202   -9.6755882    446.68882 0.0086027428 0.0068427156         3945 
 4328000   0.57531007   -9.6767785    445.90457 0.0085856548 0.0068399332         3953 
 4329000    0.5410227   -9.6658431     446.2544 0.0085904057 0.0068371531         3959 
 4330000   0.55597153   -9.6751296    445.72069 0.0085781503 0.0068343768         3954 
 4331000    0.5592318    -9.675146    447.14066 0.0086034915 0.0068316004         3952 
 4332000   0.55298456   -9.6789397    445.59976 0.0085718636 0.0068288233         3942 
 4333000   0.55746358   -9.6855351    445.87953 0.0085752661 0.0068260498         3960 
 4334000   0.56704437   -9.6678051    446.08752 0.0085772865 0.0068232791         3960 
 4335000   0.56682778   -9.6683222    446.03629 0.0085743232  0.006820509         3958 
 4336000   0.55527499   -9.6700903    445.25057 0.0085572449 0.0068177393         3951 
 4337000   0.56039149   -9.6806808    446.03465 0.0085703376 0.0068149729         3955 
 4338000   0.55961317   -9.6808949      446.312 0.0085736899 0.0068122061         3953 
 4339000    0.5648409   -9.6713966      446.565  0.008576573  0.006809441         3961 
 4340000   0.55038384   -9.6902125    446.20953 0.0085677713 0.0068066782         3943 
 4341000   0.55495284   -9.6659914    446.18345 0.0085652969 0.0068039161         3939 
 4342000   0.56000957   -9.6873756    446.32659 0.0085660715 0.0068011593         3952 
 4343000   0.54963074   -9.6758981    445.77632 0.0085535406 0.0067983991         3954 
 4344000   0.56026742    -9.678386    445.96367 0.0085551655  0.006795644         3953 
 4345000   0.55390587   -9.6684347    445.87771 0.0085515479 0.0067928894         3947 
 4346000   0.55827942   -9.6654452    445.82201 0.0085485123 0.0067901366         3944 
 4347000   0.55006044   -9.6927123    445.56509 0.0085416204 0.0067873848         3947 
 4348000   0.55059863   -9.6888444    446.36201 0.0085549296 0.0067846333         3957 
 4349000   0.55656416   -9.6834539    446.15236 0.0085489454 0.0067818843         3946 
 4350000    0.5449585    -9.674237    446.34428 0.0085506566 0.0067791356         3956 
 4351000   0.55640874   -9.6686385    445.99634 0.0085420275   0.00677639         3949 
 4352000   0.55823812   -9.6803106     445.7011 0.0085344113  0.006773647         3955 
 4353000   0.56272066   -9.6678381     445.9466 0.0085371507  0.006770904         3946 
 4354000   0.54216869   -9.6905538    446.37418 0.0085433735 0.0067681627         3944 
 4355000   0.56378201   -9.6932509    446.24467 0.0085389337  0.006765423         3946 
 4356000   0.56078851    -9.673066    445.88566 0.0085301052  0.006762684         3953 
 4357000   0.54520329   -9.6969136    445.57424 0.0085221911 0.0067599465         3957 
 4358000   0.54006466   -9.6700835    446.17784 0.0085317776   0.00675721         3954 
 4359000   0.54176973   -9.6896184    447.28456 0.0085509781 0.0067544763         3951 
 4360000   0.54540848   -9.6641627    445.73532  0.008519406 0.0067517449         3953 
 4361000    0.5565652   -9.6662653    446.09802 0.0085243832 0.0067490135         3949 
 4362000   0.53968158   -9.6792212    445.79534 0.0085166465 0.0067462853         3955 
 4363000    0.5565092   -9.6748877    445.70661 0.0085129997 0.0067435563         3957 
 4364000   0.54950187   -9.6712652    445.73222 0.0085115381 0.0067408293         3959 
 4365000   0.57026788   -9.6889284    446.78429 0.0085296733 0.0067381068         3942 
 4366000   0.55433251   -9.6706291    445.99002 0.0085125596 0.0067353832         3943 
 4367000    0.5604912   -9.6815882    446.24146 0.0085154083 0.0067326594         3946 
 4368000   0.55262777   -9.7023165    445.21239 0.0084938262 0.0067299376         3951 
 4369000   0.54359781   -9.6783547    445.48502 0.0084970822 0.0067272186         3964 
 4370000   0.55938019   -9.6858719    445.57547 0.0084968624 0.0067245015         3956 
 4371000   0.55451167   -9.6967214    446.45587 0.0085117034 0.0067217865         3964 
 4372000   0.54487114   -9.6982247    445.62184 0.0084938594 0.0067190706         3961 
 4373000   0.54908662   -9.6958008    445.58686 0.0084912505 0.0067163546         3956 
 4374000   0.54340962   -9.6878651    445.55384 0.0084886802 0.0067136423         3946 
 4375000   0.55160806   -9.6964871    445.10325 0.0084781572  0.006710931         3963 
 4376000   0.54443357   -9.7039405    445.71642 0.0084878964 0.0067082223         3956 
 4377000   0.54967892   -9.6948311    445.41431 0.0084802054 0.0067055145         3944 
 4378000   0.55885954   -9.6891317     445.8079 0.0084857603 0.0067028083         3956 
 4379000   0.55056808   -9.6946967    446.24394 0.0084921204 0.0067001039         3952 
 4380000   0.56323572   -9.6944549    445.93851 0.0084843704 0.0066974012         3955 
 4381000   0.54880928   -9.7075654    444.95715 0.0084637668 0.0066946992         3944 
 4382000   0.55581787   -9.7105667    446.07847 0.0084831597 0.0066919992         3963 
 4383000   0.56640042   -9.6887185    445.20987 0.0084647097 0.0066892998         3953 
 4384000   0.54715612   -9.6982566    446.26253 0.0084827884 0.0066866046         3953 
 4385000   0.54364028   -9.6900736     445.8488 0.0084729913 0.0066839094         3962 
 4386000   0.55865776   -9.6982335    445.81373  0.008470393 0.0066812168         3963 
 4387000   0.54983402   -9.6706065    446.16397 0.0084751154 0.0066785238         3947 
 4388000   0.53747689   -9.6875049    445.93561 0.0084688471 0.0066758345         3954 
 4389000   0.54816789   -9.6932958    445.97507 0.0084676668 0.0066731442         3950 
 4390000   0.55509787   -9.6994051    446.20685 0.0084701376 0.0066704559         3941 
 4391000   0.54792827   -9.7019121     445.8392 0.0084612313 0.0066677699         3965 
 4392000   0.55677763   -9.6968843    446.65546 0.0084747925 0.0066650875         3957 
 4393000   0.55414631   -9.6843415    446.23451  0.008464878 0.0066624044         3960 
 4394000    0.5421998   -9.6934173    445.96931  0.008457922 0.0066597237         3958 
 4395000    0.5682365   -9.6941246    445.64297 0.0084498099 0.0066570424         3954 
 4396000   0.54787759   -9.7134879    445.55848 0.0084462861 0.0066543628         3952 
 4397000   0.54959407   -9.6996607    445.89768 0.0084507937 0.0066516862         3956 
 4398000   0.55200283   -9.7026655    445.31172 0.0084377695 0.0066490087         3960 
 4399000   0.54675116   -9.6895187    445.16626 0.0084330957 0.0066463335         3953 
 4400000   0.56106237   -9.6989977    445.64689 0.0084402819 0.0066436581         3959 
 4401000   0.54302549   -9.7040681    445.46727  0.008434963 0.0066409855         3958 
 4402000   0.54930156   -9.7103029    445.32111   0.00843028 0.0066383135         3960 
 4403000   0.54299776   -9.6814702    445.82786 0.0084379564 0.0066356457         3961 
 4404000    0.5552006   -9.7180568    446.26157 0.0084442471 0.0066329772         3955 
 4405000   0.54515533   -9.6936755    445.79855 0.0084335708 0.0066303108         3961 
 4406000   0.54792584    -9.692365    446.11078  0.008437562 0.0066276481         3959 
 4407000   0.55561425   -9.6829704    445.48878 0.0084238858 0.0066249871         3958 
 4408000   0.54229856   -9.7042719    445.21665 0.0084168301 0.0066223248         3954 
 4409000   0.54249037    -9.706108    445.97379 0.0084292317 0.0066196647         3962 
 4410000   0.54484233   -9.7136302    445.93386 0.0084265657 0.0066170061         3955 
 4411000   0.53296909   -9.6908921    445.99067 0.0084257288 0.0066143482         3959 
 4412000   0.54465953   -9.7059103    445.81455 0.0084204925 0.0066116934         3957 
 4413000   0.54177415   -9.6981265     445.3582 0.0084099667 0.0066090387         3959 
 4414000     0.548828    -9.670699    446.40639 0.0084278505 0.0066063867         3953 
 4415000   0.54945615   -9.6912028    445.92851 0.0084169217 0.0066037349         3951 
 4416000   0.54395066   -9.6911878    445.86397 0.0084137978  0.006601084         3949 
 4417000   0.54410687   -9.7016188    445.41754 0.0084034704 0.0065984357         3958 
 4418000   0.54497555   -9.7121271    446.32773 0.0084187364 0.0065957893         3960 
 4419000   0.54024886    -9.695582    445.76867 0.0084062885 0.0065931451         3952 
 4420000   0.53638153   -9.7010939     445.1141 0.0083920457 0.0065905003         3952 
 4421000    0.5530188   -9.6927128    446.22656 0.0084111165 0.0065878563         3948 
 4422000   0.54900776   -9.6948216    446.09292 0.0084066961 0.0065852155         3953 
 4423000   0.54782887   -9.6846386    445.89399 0.0084010474 0.0065825782         3953 
 4424000   0.54525571   -9.6992627    445.76891 0.0083967922 0.0065799392         3964 
 4425000   0.54029038   -9.6990959    445.50906 0.0083900012 0.0065772992         3961 
 4426000   0.53917974   -9.7008407    445.80628 0.0083937016 0.0065746643         3942 
 4427000   0.54922275   -9.7030322    445.86682 0.0083929452 0.0065720316         3951 
 4428000    0.5360935   -9.6976201    445.09139 0.0083764565 0.0065693977         3951 
 4429000   0.53767006   -9.7282055    445.49025 0.0083820699 0.0065667656         3960 
 4430000   0.54327697   -9.7015508    445.38053 0.0083781138 0.0065641354         3945 
 4431000   0.53215197   -9.7061229    445.07621 0.0083704997 0.0065615066         3944 
 4432000   0.53245639   -9.6925326    446.05665 0.0083870458 0.0065588786         3947 
 4433000   0.54012802   -9.6966969    445.12272 0.0083675976 0.0065562523         3955 
 4434000   0.55272526    -9.708521    445.72864 0.0083770982 0.0065536268         3952 
 4435000   0.53425806   -9.6770962    445.74023 0.0083754271 0.0065510032         3940 
 4436000   0.53513739   -9.7073094    444.55248 0.0083512263 0.0065483806         3944 
 4437000   0.54341746   -9.7082043    445.73491 0.0083715518   0.00654576         3958 
 4438000   0.53113498   -9.6975544    445.19844 0.0083595922 0.0065431401         3957 
 4439000   0.54583509   -9.7109323    445.98033 0.0083723874 0.0065405205         3957 
 4440000   0.53878398   -9.6964211    445.56569 0.0083627194  0.006537905         3937 
 4441000    0.5278165   -9.7111228    444.96511 0.0083495667 0.0065352905         3945 
 4442000   0.53621946   -9.6955175    445.89737 0.0083651766 0.0065326786         3942 
 4443000   0.54581961   -9.7024774    445.18875 0.0083500028 0.0065300649         3950 
 4444000   0.53600456   -9.7112425    445.49314 0.0083538317 0.0065274559         3962 
 4445000   0.53644885   -9.7119908    444.98427 0.0083424122 0.0065248457         3950 
 4446000    0.5387672   -9.7055277    445.59836 0.0083520461 0.0065222387         3951 
 4447000   0.53756897   -9.7092945    445.27957 0.0083441941  0.006519635         3954 
 4448000   0.53777904   -9.7081651    445.12316 0.0083393878 0.0065170311         3958 
 4449000    0.5293675   -9.7015186     446.0799 0.0083554338 0.0065144281         3944 
 4450000   0.54079473   -9.7114433     445.1817  0.008336736 0.0065118272         3951 
 4451000    0.5356679   -9.7048562    445.55767  0.008341902 0.0065092287         3955 
 4452000   0.54075377   -9.7091009    445.05741 0.0083306642  0.006506629         3949 
 4453000    0.5406139   -9.7093857    445.12137 0.0083299904 0.0065040327         3953 
 4454000   0.54341091    -9.703482    445.52416 0.0083356563 0.0065014369         3947 
 4455000   0.54484557   -9.7068177    446.05858  0.008343782 0.0064988436         3955 
 4456000   0.54183949   -9.7133878    445.98816 0.0083405925 0.0064962513         3956 
 4457000   0.54901185   -9.6986261    445.18275 0.0083236622 0.0064936588         3959 
 4458000   0.54009255   -9.6885326    445.52557 0.0083282035 0.0064910686         3946 
 4459000   0.52302113   -9.7138433    445.61054 0.0083279237 0.0064884792         3955 
 4460000   0.53743538   -9.7057889    445.79289 0.0083294636  0.006485891         3956 
 4461000   0.54109806   -9.6982441    445.60678 0.0083241198 0.0064833033         3949 
 4462000   0.55651131   -9.6977274     445.7698 0.0083252989 0.0064807202         3941 
 4463000   0.53686091   -9.7239313     444.8376 0.0083060274 0.0064781348         3944 
 4464000   0.53854015   -9.7042924    445.54821 0.0083174322 0.0064755543         3952 
 4465000   0.54217577   -9.7145557    445.17248 0.0083085568 0.0064729718         3945 
 4466000   0.54381928   -9.7015984    446.00206 0.0083221761 0.0064703913         3954 
 4467000   0.54166357   -9.7045406    445.03023 0.0083021832 0.0064678117         3963 
 4468000   0.53054617   -9.7150812    445.94805 0.0083174435 0.0064652366         3950 
 4469000   0.54004039   -9.7122571    445.03156 0.0082984927 0.0064626621         3959 
 4470000   0.53520395   -9.6930025    444.61967 0.0082889574 0.0064600866         3949 
 4471000   0.52855502   -9.6941918     445.8985 0.0083109389 0.0064575144         3946 
 4472000   0.54166205   -9.6956716    445.34909 0.0082988427 0.0064549446         3952 
 4473000   0.52847361   -9.7206606    445.21876 0.0082945592 0.0064523741         3943 
 4474000   0.52688553   -9.7180083    444.92262 0.0082871892 0.0064498068         3959 
 4475000   0.52731112   -9.7057046    445.94567 0.0083043886 0.0064472397         3957 
 4476000   0.53009615   -9.7028083    445.43412 0.0082930094 0.0064446734         3948 
 4477000    0.5410657   -9.7229862    444.98187  0.008282739  0.006442109         3958 
 4478000   0.52765134   -9.7124067    445.91064 0.0082981733 0.0064395453         3937 
 4479000   0.53147367   -9.7265377    445.27829 0.0082845554 0.0064369831         3952 
 4480000   0.52396177   -9.6962119    444.74192 0.0082727291 0.0064344225         3962 
 4481000   0.53685164   -9.7261066    445.79685 0.0082905016 0.0064318628         3944 
 4482000   0.53382197   -9.7018957    445.28022 0.0082790463  0.006429304         3966 
 4483000   0.53469438   -9.7150124    445.61583  0.008283438 0.0064267476         3954 
 4484000   0.53272455    -9.699411    445.40026 0.0082775843 0.0064241922         3942 
 4485000   0.52926694   -9.7219086    445.42453 0.0082761896 0.0064216398         3953 
 4486000   0.52449779   -9.7256532    445.13535 0.0082689729 0.0064190875         3956 
 4487000   0.53330757    -9.727274    445.44154 0.0082728167 0.0064165351         3961 
 4488000   0.53893125   -9.6982122    445.55847 0.0082731445 0.0064139853         3945 
 4489000   0.54110078   -9.6995016    445.20821 0.0082647993 0.0064114373         3960 
 4490000   0.53713716   -9.7034788    445.68498 0.0082718073 0.0064088913         3937 
 4491000   0.53161471   -9.7080997    444.86991 0.0082548414 0.0064063446         3954 
 4492000    0.5315718    -9.693245    445.78559  0.008269991 0.0064038024         3951 
 4493000   0.53917716   -9.7263122    444.85388 0.0082508696 0.0064012613         3954 
 4494000   0.53619777   -9.7205298    445.20131 0.0082554761 0.0063987189         3951 
 4495000   0.52991541   -9.7130907    445.79179 0.0082645864 0.0063961788         3948 
 4496000   0.53562834   -9.6999031    445.44352  0.008256293 0.0063936396         3950 
 4497000   0.55112758    -9.716098    444.23482 0.0082320587 0.0063911028         3964 
 4498000    0.5235502   -9.7319907    444.78616 0.0082404431 0.0063885657         3953 
 4499000    0.5384953   -9.7086242     445.7586 0.0082566236  0.006386031         3939 
 4500000   0.53640031   -9.7223009    444.98232 0.0082404134 0.0063834979         3950 
 4501000   0.52676575    -9.717878    445.18766 0.0082423843 0.0063809664         3949 
 4502000   0.53257871   -9.7183995    445.70133 0.0082500616 0.0063784365         3961 
 4503000   0.53315355   -9.7216249    445.50915  0.008244673 0.0063759067         3970 
 4504000   0.53255887   -9.7019604    445.23175 0.0082377101 0.0063733795         3956 
 4505000   0.52183409   -9.7103798    445.02102 0.0082319833 0.0063708543         3952 
 4506000   0.51993215    -9.719409    445.81337   0.00824481 0.0063683303         3955 
 4507000    0.5259198   -9.7190721    445.12197 0.0082301968  0.006365807         3947 
 4508000   0.54031063   -9.7184556    444.95737 0.0082253284 0.0063632842         3952 
 4509000   0.52953376    -9.719447    445.67501 0.0082367673  0.006360763         3958 
 4510000   0.52691568   -9.7074932    445.50906 0.0082318747 0.0063582454         3956 
 4511000    0.5343004   -9.7111787    445.34564 0.0082270309 0.0063557284         3955 
 4512000   0.53253366   -9.7131829    444.99917 0.0082188086  0.006353212         3951 
 4513000   0.52409768    -9.699508    445.90356 0.0082336871 0.0063506974         3956 
 4514000   0.52163879   -9.7001766    445.06791 0.0082164362 0.0063481853         3959 
 4515000   0.53741484   -9.7040152    445.69325 0.0082261582 0.0063456744         3944 
 4516000    0.5350627   -9.7162984    444.87792 0.0082092914 0.0063431638         3954 
 4517000   0.52863182   -9.7409489    444.78947 0.0082058422 0.0063406536         3951 
 4518000   0.51465402   -9.7274398     445.1183 0.0082100911 0.0063381439         3955 
 4519000   0.53107923   -9.7098988    445.86938 0.0082221246 0.0063356392         3959 
 4520000   0.53120413    -9.717076    444.97143 0.0082037506 0.0063331338         3952 
 4521000   0.53854746   -9.7251995     446.1603 0.0082238497 0.0063306302         3950 
 4522000   0.53386917   -9.7417103    445.05446 0.0082016523 0.0063281278         3960 
 4523000    0.5277725   -9.7255058    444.66415 0.0081926477  0.006325627         3946 
 4524000   0.52257622   -9.7322593    445.65373 0.0082090652 0.0063231283         3954 
 4525000   0.52274191   -9.7142413    444.60092 0.0081878622 0.0063206292         3956 
 4526000   0.52995824   -9.7333501    444.64304 0.0081868288 0.0063181311         3952 
 4527000   0.52500444   -9.7294057    444.69463 0.0081859699 0.0063156341         3956 
 4528000   0.52915441   -9.7143002    445.07272 0.0081911204 0.0063131403         3956 
 4529000   0.53166904   -9.7432939    445.48533 0.0081969039 0.0063106486         3955 
 4530000    0.5225493   -9.7235024    445.22978 0.0081903934 0.0063081562         3942 
 4531000   0.53057291   -9.7279311    445.37706 0.0081912944 0.0063056647         3958 
 4532000   0.52865549   -9.7357511    445.76592 0.0081966373 0.0063031736         3953 
 4533000    0.5255939    -9.714023    445.27316 0.0081857703 0.0063006868         3959 
 4534000   0.52925431    -9.721629    444.90255 0.0081771533 0.0062981991         3960 
 4535000   0.52936592   -9.7221535    445.29777 0.0081826124 0.0062957133         3955 
 4536000   0.52221367   -9.7322568    445.60699 0.0081864893  0.006293229         3962 
 4537000   0.53118518   -9.7269201    444.44805 0.0081633982  0.006290747         3954 
 4538000   0.51219348   -9.7068064    445.27685 0.0081768189 0.0062882662         3960 
 4539000   0.51822535    -9.727201    444.59803 0.0081625547 0.0062857845         3940 
 4540000   0.52055351    -9.727361    445.39213 0.0081753328  0.006283304         3953 
 4541000   0.52370183   -9.7380299    444.72631 0.0081613137 0.0062808266         3956 
 4542000   0.52859199   -9.7203589    444.43367 0.0081541478 0.0062783494         3962 
 4543000   0.53290177   -9.7067204    445.08036 0.0081642154 0.0062758748         3968 
 4544000   0.51988633   -9.7131874    445.14423 0.0081635899 0.0062734017         3946 
 4545000   0.52374866     -9.72227    445.29342 0.0081645292 0.0062709271         3952 
 4546000   0.52423684   -9.7296648    445.40017   0.00816469 0.0062684569         3952 
 4547000   0.53370958   -9.7058104    444.24226 0.0081416732  0.006265986         3958 
 4548000   0.52482206   -9.7362981    445.13291 0.0081562025 0.0062635189         3966 
 4549000   0.51952901   -9.7345014    444.88478 0.0081498641 0.0062610526         3940 
 4550000   0.52320605   -9.7136762    445.21223 0.0081540701 0.0062585854         3948 
 4551000   0.52511202   -9.7282283    445.36076 0.0081549982 0.0062561209         3960 
 4552000   0.52207889   -9.7281203    444.80929  0.008143111  0.006253657         3969 
 4553000   0.50534535   -9.7368822    444.89187 0.0081428339 0.0062511955         3957 
 4554000   0.51548047   -9.7347428    445.56363 0.0081533384 0.0062487358         3952 
 4555000   0.53411112   -9.7122416     444.6502 0.0081348372 0.0062462784         3952 
 4556000   0.52069555   -9.7458877    445.07173 0.0081407619   0.00624382         3949 
 4557000   0.52972482   -9.7354594    444.79533 0.0081339209 0.0062413636         3956 
 4558000   0.52799999   -9.7455401    444.39456 0.0081248092  0.006238909         3948 
 4559000   0.52231384   -9.7315405    444.21521 0.0081197486 0.0062364548         3958 
 4560000   0.51758715   -9.7371437    444.57669  0.008124574 0.0062340007         3943 
 4561000   0.51834427    -9.747916    444.95693   0.00812974 0.0062315481         3936 
 4562000   0.52137587   -9.7234812    445.13779 0.0081312617 0.0062290968         3947 
 4563000   0.52644003   -9.7158694    444.98697 0.0081267253 0.0062266482         3953 
 4564000   0.51616503   -9.7274664     444.7065 0.0081198236 0.0062242017         3962 
 4565000   0.51444968    -9.733533    445.27153 0.0081283594  0.006221757         3950 
 4566000    0.5201506   -9.7318311    445.09019 0.0081232696 0.0062193116         3952 
 4567000   0.51609606   -9.7213782    444.83631 0.0081168584 0.0062168685         3961 
 4568000   0.52751113   -9.7340629    445.65738 0.0081300602 0.0062144273         3955 
 4569000   0.52845504   -9.7268153    444.87384   0.00811399 0.0062119867         3953 
 4570000   0.51311043   -9.7117834    444.60603  0.008107331 0.0062095452         3954 
 4571000   0.51665005   -9.7390069     445.1944 0.0081162838 0.0062071065         3949 
 4572000   0.52288452   -9.7223977    444.78491 0.0081070448 0.0062046703         3938 
 4573000   0.52408681   -9.7178298    444.87516 0.0081069167 0.0062022348         3959 
 4574000   0.52402747   -9.7230947    444.72145 0.0081023439 0.0061998028         3958 
 4575000   0.52128507   -9.7247979    445.87132 0.0081215178 0.0061973703         3946 
 4576000   0.51672202   -9.7360411     444.8675 0.0081014624 0.0061949385         3952 
 4577000   0.50663809   -9.7376492    444.32363 0.0080897901 0.0061925081         3944 
 4578000   0.52084902   -9.7248388    444.91359  0.008098762 0.0061900796         3946 
 4579000   0.50573208   -9.7528676    444.46144 0.0080887646 0.0061876518         3955 
 4580000    0.5234677   -9.7317733    444.50159  0.008087729 0.0061852259         3953 
 4581000   0.52564668   -9.7527792    444.58337 0.0080874513    0.0061828         3957 
 4582000     0.511819    -9.745955    444.68642 0.0080875604 0.0061803763         3953 
 4583000   0.52211333   -9.7182098     444.6238 0.0080846571 0.0061779532         3957 
 4584000   0.51970562   -9.7326366    444.52325 0.0080810655 0.0061755294         3960 
 4585000   0.52111729   -9.7435207    444.60784 0.0080808403 0.0061731101         3959 
 4586000   0.51998882   -9.7260761    444.74698 0.0080816067 0.0061706899         3943 
 4587000    0.5112283    -9.732755    444.29245 0.0080715873 0.0061682704         3949 
 4588000   0.51056758   -9.7542484    445.09999 0.0080844957 0.0061658531         3964 
 4589000   0.50032528   -9.7377494    444.87231 0.0080785993 0.0061634366         3957 
 4590000   0.52818525   -9.7314127    445.10919 0.0080811399 0.0061610223         3958 
 4591000   0.51759188   -9.7532858    444.86004 0.0080748574 0.0061586084         3950 
 4592000   0.51275068   -9.7080218    445.57203 0.0080860197 0.0061561977         3952 
 4593000   0.51826919   -9.7277997    445.02555 0.0080743442  0.006153788         3946 
 4594000   0.51600914   -9.7295912    445.12255 0.0080743461 0.0061513789         3942 
 4595000   0.51538435   -9.7434136    444.71456 0.0080651897 0.0061489713         3953 
 4596000   0.50599828   -9.7343632    444.59919  0.008061343 0.0061465642         3954 
 4597000   0.51865864   -9.7386083    444.09902 0.0080505224 0.0061441578         3943 
 4598000   0.51239687   -9.7342525    445.30488 0.0080706264 0.0061417528         3951 
 4599000   0.51756968   -9.7320703    444.77644 0.0080592963 0.0061393491         3952 
 4600000   0.51269536   -9.7442945    444.34769  0.008049777 0.0061369471         3947 
 4601000   0.51653809   -9.7377214    444.72977 0.0080549477 0.0061345454         3954 
 4602000   0.51154322   -9.7327434    444.41216  0.008047446 0.0061321471         3950 
 4603000   0.51948004   -9.7382624    443.77965 0.0080342467 0.0061297489         3958 
 4604000   0.51499353   -9.7450577    444.96759 0.0080540036 0.0061273524         3961 
 4605000   0.51150693   -9.7395112    444.86832 0.0080504583 0.0061249588         3959 
 4606000    0.5137094   -9.7354842    444.68395 0.0080453748 0.0061225637         3952 
 4607000   0.52348234   -9.7423751    444.84694 0.0080465767 0.0061201717         3957 
 4608000   0.51308377   -9.7416365    444.97888 0.0080472165  0.006117781         3961 
 4609000    0.5146271   -9.7468487    444.32498 0.0080336475 0.0061153912         3962 
 4610000   0.51635448   -9.7516063    444.37046  0.008032727 0.0061130036         3949 
 4611000   0.50266277   -9.7331536    444.94946 0.0080414492 0.0061106164         3952 
 4612000   0.53346004   -9.7275119    444.42821 0.0080302871 0.0061082301         3962 
 4613000   0.52046736   -9.7358169    445.09395 0.0080405729 0.0061058458         3963 
 4614000   0.50423051   -9.7475211    444.83199 0.0080340989 0.0061034622         3943 
 4615000    0.5109595   -9.7479243    444.88999 0.0080334053 0.0061010795         3961 
 4616000   0.52012539   -9.7180858    445.21707   0.00803757 0.0060986984         3971 
 4617000   0.51510834   -9.7382616    444.29316 0.0080191531  0.006096319         3964 
 4618000   0.51653217    -9.739204    444.71161 0.0080249677 0.0060939408         3954 
 4619000   0.51514462   -9.7420496    444.54501 0.0080202245 0.0060915636         3951 
 4620000   0.51242212   -9.7490899    444.63634  0.008020136 0.0060891865         3958 
 4621000   0.51198434   -9.7289528    444.39203 0.0080139947 0.0060868112         3953 
 4622000   0.50482461   -9.7362443    444.66731  0.008017224 0.0060844375         3950 
 4623000    0.5103211    -9.750486    444.68788 0.0080158605 0.0060820664         3959 
 4624000   0.50531472   -9.7390599    444.03857 0.0080024252  0.006079697         3961 
 4625000   0.50297168   -9.7521384    444.07887 0.0080014211 0.0060773272         3952 
 4626000   0.51397553   -9.7444977    444.73923 0.0080115872 0.0060749582         3965 
 4627000   0.51975316   -9.7582472    444.54496 0.0080063569  0.006072591         3954 
 4628000   0.50997641   -9.7398257    445.31148 0.0080184292 0.0060702246         3968 
 4629000   0.50516493   -9.7522071    444.65924 0.0080049549 0.0060678607         3953 
 4630000   0.50657634   -9.7376232    444.37011 0.0079980221 0.0060654984         3958 
 4631000   0.50131238   -9.7519282    444.54297 0.0079994057 0.0060631357         3956 
 4632000   0.51462116   -9.7537081    444.98815 0.0080056878 0.0060607749         3952 
 4633000   0.51899701   -9.7481564    444.23096 0.0079903404 0.0060584136         3960 
 4634000   0.52823179   -9.7624805    444.22913 0.0079885831 0.0060560541         3959 
 4635000   0.50770689   -9.7402637    444.90862 0.0079990763 0.0060536979         3957 
 4636000   0.51278403   -9.7481936    444.44624 0.0079890394 0.0060513406         3946 
 4637000   0.51444834   -9.7655102    444.29866 0.0079846642 0.0060489841         3965 
 4638000    0.5190686   -9.7296213     444.5675 0.0079877731 0.0060466288         3960 
 4639000   0.50406428   -9.7460369    444.94354 0.0079928063 0.0060442765         3959 
 4640000   0.51515646   -9.7359934    444.51679 0.0079834193 0.0060419253         3967 
 4641000   0.51060275   -9.7453079    444.37353 0.0079791268 0.0060395759         3960 
 4642000   0.51247647   -9.7644415    444.78242 0.0079847483 0.0060372297         3955 
 4643000   0.52433353   -9.7359044    444.50664 0.0079780788 0.0060348839         3951 
 4644000   0.50495069   -9.7499362    444.36874 0.0079738864 0.0060325405         3960 
 4645000   0.50086681   -9.7408285    445.42194 0.0079910646 0.0060301967         3950 
 4646000   0.50718945   -9.7360074    444.13355 0.0079662354 0.0060278522         3954 
 4647000   0.51299551   -9.7471304    444.71597 0.0079749654 0.0060255088         3958 
 4648000   0.50966956   -9.7433384    444.88747 0.0079763244 0.0060231678         3958 
 4649000   0.49941944   -9.7493921    445.29344 0.0079818857 0.0060208288         3960 
 4650000   0.50212309   -9.7471715    444.71253 0.0079697587 0.0060184909         3958 
 4651000   0.50049644   -9.7334468    444.75465 0.0079687996 0.0060161531         3961 
 4652000   0.51399246   -9.7450579    444.59813 0.0079642829  0.006013817         3955 
 4653000   0.50681685   -9.7490854    445.06441 0.0079709222 0.0060114828         3953 
 4654000   0.49923077   -9.7348056    445.14304 0.0079706173 0.0060091491         3958 
 4655000   0.50520762   -9.7467736     444.5523 0.0079583298 0.0060068165         3950 
 4656000   0.50157498   -9.7676231    444.36114 0.0079531992 0.0060044855         3957 
 4657000   0.50969696   -9.7698823    444.86663 0.0079605366 0.0060021546         3964 
 4658000   0.50232169    -9.760024    444.65079 0.0079549662 0.0059998243         3956 
 4659000   0.51464412   -9.7600302    444.64177 0.0079530974 0.0059974949         3946 
 4660000   0.50784707   -9.7388896    444.59456 0.0079505466  0.005995169         3961 
 4661000   0.49959365   -9.7438592     444.4723 0.0079466548 0.0059928442         3957 
 4662000   0.51730434   -9.7583915    444.03988 0.0079372208  0.005990519         3952 
 4663000   0.50845884   -9.7569239    444.55922 0.0079447998 0.0059881955         3956 
 4664000   0.51036659   -9.7507166     444.6246 0.0079442645 0.0059858723         3961 
 4665000   0.51105266   -9.7595072    443.92974  0.007930149 0.0059835515         3965 
 4666000   0.50919026   -9.7487715     444.1857 0.0079330208 0.0059812318         3960 
 4667000   0.49763156   -9.7655436    444.59415 0.0079386143 0.0059789126         3960 
 4668000   0.51270215   -9.7597682    444.72423 0.0079392357 0.0059765964         3958 
 4669000   0.50420687   -9.7725986    444.23825 0.0079288615 0.0059742803         3955 
 4670000   0.49764614    -9.768816    443.80178  0.007919375 0.0059719641         3958 
 4671000   0.50784705   -9.7657518    444.71209 0.0079339202 0.0059696509         3961 
 4672000   0.50168769   -9.7654312    443.90317 0.0079177934 0.0059673388         3962 
 4673000   0.49860053   -9.7566751    443.69566 0.0079123985 0.0059650269         3960 
 4674000   0.50346527    -9.749874    444.66349 0.0079279613 0.0059627162         3954 
 4675000   0.49706596    -9.753686    444.94373 0.0079312607 0.0059604069         3958 
 4676000   0.49880439   -9.7521155    444.15242 0.0079154623 0.0059581004         3964 
 4677000   0.49428029   -9.7635307    444.13013 0.0079133727  0.005955794         3963 
 4678000   0.50610518   -9.7491331    443.76492 0.0079051754 0.0059534883         3955 
 4679000    0.5021053   -9.7672807    444.46042 0.0079158728 0.0059511851         3958 
 4680000   0.50200688   -9.7604446    444.42397 0.0079135323  0.005948882         3965 
 4681000   0.50020195   -9.7472774    443.83159 0.0079012959 0.0059465804         3962 
 4682000   0.50614755    -9.770742    443.84092 0.0078997743 0.0059442812         3963 
 4683000   0.51148285   -9.7507961     444.1358 0.0079033348 0.0059419817         3964 
 4684000   0.51752763   -9.7630716    444.22374  0.007903212 0.0059396845         3964 
 4685000   0.49638865   -9.7645272    444.09535 0.0078992414 0.0059373884         3952 
 4686000    0.5037442   -9.7647564    444.63371 0.0079071296 0.0059350941         3949 
 4687000   0.50230384   -9.7573645    443.61319 0.0078872981 0.0059328005         3962 
 4688000   0.50714708   -9.7653181    443.91306 0.0078909461 0.0059305078         3959 
 4689000    0.4967423   -9.7682646    444.09862 0.0078925609 0.0059282166         3962 
 4690000   0.50981081   -9.7752835    444.40349 0.0078962951 0.0059259249         3965 
 4691000   0.50184385   -9.7557391    444.63998 0.0078988129 0.0059236364         3949 
 4692000   0.50212696   -9.7555349     444.6584 0.0078974566 0.0059213498         3958 
 4693000   0.50794411   -9.7520151    444.60987 0.0078949122 0.0059190645         3956 
 4694000   0.49354819   -9.7733085     444.4707 0.0078907594 0.0059167787         3960 
 4695000   0.50016811   -9.7690778     443.6313   0.00787418 0.0059144934         3953 
 4696000     0.494509    -9.763291    443.78729 0.0078752713 0.0059122105         3950 
 4697000    0.4927826   -9.7686009    444.44823  0.007885321 0.0059099288         3959 
 4698000   0.50483567   -9.7514761    444.59258  0.007886203 0.0059076484         3958 
 4699000   0.50376948   -9.7626617    443.70583 0.0078687989 0.0059053689         3957 
 4700000   0.50135873   -9.7663944    444.15975 0.0078751728 0.0059030894         3949 
 4701000   0.50377661   -9.7552597    443.93319 0.0078694814  0.005900813         3959 
 4702000    0.5074096   -9.7637706      444.302 0.0078743443  0.005898537         3961 
 4703000   0.50283784   -9.7824236    444.83018 0.0078820289 0.0058962632         3962 
 4704000   0.49809186   -9.7668991    444.37425 0.0078722763 0.0058939907         3952 
 4705000    0.5014175   -9.7697057    444.01384 0.0078642197 0.0058917205         3961 
 4706000   0.49877545   -9.7700067    444.77787 0.0078760778 0.0058894487         3954 
 4707000   0.49235899   -9.7741703    444.34464 0.0078667347 0.0058871774         3954 
 4708000   0.49625752   -9.7600943    443.67878 0.0078532777 0.0058849083         3956 
 4709000   0.49331745   -9.7722419     444.5112 0.0078663411 0.0058826409         3953 
 4710000   0.49867531   -9.7736372    444.31378 0.0078611781 0.0058803732         3948 
 4711000   0.49502861   -9.7709311    444.63943 0.0078652697 0.0058781084         3948 
 4712000   0.50381067    -9.781092    443.75237 0.0078479126  0.005875845         3946 
 4713000   0.49959558    -9.770186    444.48639 0.0078592261 0.0058735846         3954 
 4714000   0.49957015    -9.762212    445.00833 0.0078667856 0.0058713215         3955 
 4715000   0.49654554    -9.755473    444.37699 0.0078539588 0.0058690608         3954 
 4716000   0.50287489   -9.7778083    444.13635 0.0078480412 0.0058668028         3948 
 4717000   0.49502231   -9.7735624    444.10755 0.0078458686 0.0058645466         3949 
 4718000   0.49273151   -9.7713969    444.55952 0.0078521887 0.0058622904         3957 
 4719000   0.50087218   -9.7786391    443.88291 0.0078385765 0.0058600347         3942 
 4720000   0.49747258   -9.7644298    444.14833 0.0078416019 0.0058577792         3953 
 4721000   0.50333708   -9.7646778    444.17643 0.0078404369 0.0058555264         3961 
 4722000   0.49363026   -9.7851287    443.11434 0.0078200328 0.0058532737         3956 
 4723000   0.49739651   -9.7623619    444.44808 0.0078419098 0.0058510226         3961 
 4724000   0.49314938   -9.7560357     444.0539 0.0078332963  0.005848772         3961 
 4725000   0.49480905   -9.7650763     443.7687 0.0078266084 0.0058465222         3956 
 4726000   0.50440778   -9.7628101    444.04946  0.007829903 0.0058442734         3958 
 4727000   0.49279992   -9.7567264    443.95408 0.0078265652 0.0058420287         3966 
 4728000   0.48655896   -9.7642159    443.67007 0.0078199039  0.005839782         3957 
 4729000   0.49426226   -9.7692902    443.94556 0.0078231049  0.005837538         3944 
 4730000   0.49786052   -9.7878859    444.68686 0.0078345112 0.0058352965         3955 
 4731000   0.48523284   -9.7621873    443.50311 0.0078120043 0.0058330547         3960 
 4732000   0.48864548    -9.777121    444.29717 0.0078243373  0.005830814         3957 
 4733000   0.49681109   -9.7796148    443.77754 0.0078135351 0.0058285747         3967 
 4734000   0.50903192   -9.7776679    443.81727 0.0078125839 0.0058263356         3960 
 4735000   0.49627003   -9.7704935    444.22588 0.0078181253 0.0058240997         3956 
 4736000   0.49870745   -9.7531256    444.11001 0.0078144356 0.0058218643         3959 
 4737000   0.50004765   -9.7848304    444.30903 0.0078162872 0.0058196301         3963 
 4738000    0.4844126   -9.7677643    443.80339 0.0078057442 0.0058173947         3966 
 4739000   0.49131916   -9.7669994    443.82138 0.0078044134 0.0058151623         3952 
 4740000   0.48996029   -9.7649091    443.79173 0.0078022456 0.0058129304         3948 
 4741000    0.4977129   -9.7624453    444.40392 0.0078113604 0.0058106996         3961 
 4742000   0.47790518   -9.7718069    443.57429 0.0077951337 0.0058084696         3951 
 4743000   0.49783248   -9.7734671    443.56146 0.0077932648 0.0058062409         3950 
 4744000   0.50280988   -9.7622474    444.97986 0.0078165377  0.005804015         3949 
 4745000   0.50122377   -9.7683453    443.93218 0.0077964906 0.0058017902         3947 
 4746000   0.49929096   -9.7650716    443.37208 0.0077850134 0.0057995661         3956 
 4747000    0.5033016   -9.7787023     444.2181 0.0077982252 0.0057973434         3960 
 4748000   0.49778352   -9.7656286     444.3274 0.0077985011 0.0057951233         3953 
 4749000   0.49915594   -9.7609506     443.7909 0.0077874447 0.0057929035         3958 
 4750000   0.49084941   -9.7762297    444.48375 0.0077979606 0.0057906841         3952 
 4751000   0.48631804   -9.7743415    443.84068 0.0077850396 0.0057884666         3960 
 4752000   0.49456191    -9.773442    443.56943 0.0077786446 0.0057862503         3969 
 4753000   0.48666854   -9.7732512    444.00032 0.0077845627 0.0057840335         3948 
 4754000   0.49518175   -9.7865044    444.41664 0.0077902229 0.0057818195         3963 
 4755000    0.4853063   -9.7767272    444.26956  0.007786007 0.0057796051         3959 
 4756000   0.49286109   -9.7715832    443.83661 0.0077767839 0.0057773914         3953 
 4757000   0.48833143   -9.7895842    444.07355 0.0077792998 0.0057751784         3941 
 4758000   0.48594818   -9.7641553    444.13641 0.0077787658 0.0057729691         3950 
 4759000   0.49690257   -9.7709461    443.80079 0.0077712543 0.0057707607         3958 
 4760000    0.4857315   -9.7599148    443.65076 0.0077669951 0.0057685512         3952 
 4761000   0.48698359   -9.7711185    443.28866 0.0077590258  0.005766344         3950 
 4762000   0.48517861   -9.7812904    444.02674 0.0077703126 0.0057641398         3953 
 4763000   0.49210455   -9.7826072    443.56149 0.0077605412 0.0057619357         3964 
 4764000   0.49042818    -9.772195    444.16228 0.0077694214  0.005759733         3956 
 4765000   0.49089922   -9.7712044     443.5043 0.0077562837   0.00575753         3958 
 4766000   0.49296079    -9.766623    444.44089 0.0077710324 0.0057553297         3968 
 4767000   0.49446799   -9.7812903    443.92113 0.0077603163 0.0057531296         3950 
 4768000     0.483582   -9.7696484    443.70637 0.0077549352 0.0057509299         3941 
 4769000   0.49496763    -9.786851    444.18178 0.0077616163 0.0057487312         3946 
 4770000   0.48625938   -9.7771718    443.92443 0.0077554933 0.0057465338         3957 
 4771000   0.48790403   -9.7812092    444.73546 0.0077680335 0.0057443385         3966 
 4772000   0.49354085   -9.7850937    444.07673 0.0077549024 0.0057421439         3961 
 4773000   0.48476551   -9.7793429    443.87284 0.0077497178 0.0057399516         3960 
 4774000   0.48594945   -9.7718667    443.89879 0.0077485476   0.00573776         3959 
 4775000   0.48096591   -9.7771599    444.42997 0.0077561949   0.00573557         3958 
 4776000   0.50162449   -9.7852432    443.80287 0.0077436292 0.0057333787         3950 
 4777000   0.49148461   -9.7675469    444.45844 0.0077534443 0.0057311925         3963 
 4778000   0.48576397   -9.7698181    444.05655 0.0077448122 0.0057290055         3955 
 4779000   0.48829745    -9.800996    443.95058 0.0077413438 0.0057268184         3967 
 4780000   0.48130281   -9.7856308    443.13615 0.0077255256 0.0057246327         3962 
 4781000   0.47838855   -9.7871664     443.6383 0.0077326623 0.0057224486         3957 
 4782000   0.48124185   -9.7762706    443.99065 0.0077371855 0.0057202654         3953 
 4783000   0.49433282   -9.7800676     443.9235 0.0077343979 0.0057180838         3958 
 4784000    0.4793536   -9.7808341    443.47595 0.0077249853  0.005715903         3954 
 4785000   0.49064629   -9.7924209    443.85056 0.0077298948 0.0057137252         3957 
 4786000   0.48579147   -9.7684035    443.53874 0.0077228504 0.0057115485         3963 
 4787000   0.49454411    -9.788887    443.82437 0.0077262093 0.0057093726         3958 
 4788000   0.48987507   -9.7826121    443.59526 0.0077206082 0.0057071963         3960 
 4789000   0.48122137   -9.7768435    443.83995 0.0077232538 0.0057050214         3966 
 4790000   0.49127635   -9.7919484    443.71022 0.0077193845 0.0057028472         3958 
 4791000   0.47444712   -9.7916141    443.99122 0.0077226608 0.0057006759         3952 
 4792000   0.48806289   -9.7922804    444.20542 0.0077247743 0.0056985037         3952 
 4793000   0.49314214   -9.7890475     443.7695 0.0077155834 0.0056963333         3958 
 4794000    0.4822228   -9.7962293    443.05365 0.0077015305 0.0056941641         3954 
 4795000   0.48696223   -9.7685753    443.90764  0.007714766 0.0056919959         3963 
 4796000   0.48011579   -9.7877264    444.17221 0.0077177545 0.0056898293         3956 
 4797000   0.48463197    -9.782236    443.50575  0.007704568 0.0056876631         3944 
 4798000   0.47415069   -9.7852442    443.85888 0.0077090954 0.0056855001         3965 
 4799000   0.49059312   -9.7935302    443.98056  0.007709602 0.0056833384         3966 
 4800000   0.49961722   -9.7899193    444.33009 0.0077140641 0.0056811753         3949 
 4801000   0.48576576   -9.7935732    443.59858 0.0076997601  0.005679014         3957 
 4802000   0.49358641   -9.7756508    443.79541 0.0077015725  0.005676853         3941 
 4803000   0.48273269    -9.777675    443.93634 0.0077024141  0.005674695         3963 
 4804000   0.47786285   -9.7930557    443.70153 0.0076967375  0.005672537         3964 
 4805000   0.48127484   -9.7864952    443.75338  0.007696035 0.0056703808         3953 
 4806000   0.48593509   -9.8052841    443.35487 0.0076875237 0.0056682255         3958 
 4807000   0.47235534   -9.8012181    443.69532 0.0076918266 0.0056660712         3952 
 4808000   0.48109176     -9.76982    443.06716 0.0076793393 0.0056639178         3956 
 4809000   0.48874812   -9.7862104    444.25363 0.0076983023 0.0056617673         3959 
 4810000    0.4680937   -9.7691843    443.56354  0.007684746 0.0056596153         3955 
 4811000   0.48867135   -9.7965757    443.45238 0.0076812232  0.005657465         3952 
 4812000   0.47285521   -9.7881106    443.10881  0.007673677 0.0056553171         3956 
 4813000   0.48058928   -9.7948593    443.41245 0.0076773401 0.0056531686         3955 
 4814000   0.47964656   -9.7890454    443.24285 0.0076728093 0.0056510221         3957 
 4815000   0.48167261   -9.7900523    443.62877  0.007677895 0.0056488763         3961 
 4816000    0.4732366    -9.783653    443.97139 0.0076822292  0.005646733         3955 
 4817000   0.47842935   -9.7996351    443.88816 0.0076791946 0.0056445908         3960 
 4818000   0.48131972   -9.7918754    443.74554 0.0076751339 0.0056424488         3954 
 4819000    0.4796897   -9.7892798    443.05475 0.0076615955 0.0056403083         3958 
 4820000   0.47495223   -9.7872959    444.12319 0.0076784784 0.0056381671         3958 
 4821000   0.48401412   -9.7944575    443.27044 0.0076621455  0.005636028         3959 
 4822000   0.47427518   -9.7795575    443.11073 0.0076577964 0.0056338923         3954 
 4823000   0.46757359   -9.7961863     444.0062 0.0076716808 0.0056317552         3969 
 4824000   0.47140622   -9.7867351    443.41634 0.0076599008 0.0056296194         3947 
 4825000   0.47744317   -9.8164409    443.41733 0.0076583305 0.0056274845         3967 
 4826000    0.4898854   -9.7928657    443.79931 0.0076633394 0.0056253508         3967 
 4827000   0.48432038   -9.7851391     444.0095 0.0076653805 0.0056232193         3956 
 4828000   0.47287172   -9.7827687    443.60048 0.0076567329 0.0056210883         3958 
 4829000   0.47462138    -9.801162    443.44798 0.0076525158 0.0056189582         3958 
 4830000   0.48516996   -9.7949827    444.51906 0.0076694109 0.0056168292         3954 
 4831000   0.48819151    -9.782677    444.14156 0.0076613116  0.005614701         3959 
 4832000   0.47334518   -9.7980317     443.3968 0.0076468819 0.0056125749         3958 
 4833000   0.48380407   -9.7894922    443.72754 0.0076510025 0.0056104499         3958 
 4834000   0.48056128   -9.7901522    443.23862 0.0076409912 0.0056083257         3948 
 4835000   0.47795282   -9.7872375    443.42776 0.0076426709 0.0056062028         3954 
 4836000   0.47928507   -9.8018148    443.56141 0.0076433934 0.0056040797         3961 
 4837000   0.48123033   -9.7745087    443.85271 0.0076468318 0.0056019585         3956 
 4838000   0.47458862   -9.7912467    443.94988  0.007646925 0.0055998381         3960 
 4839000   0.47786934   -9.7922436    443.49457 0.0076375038 0.0055977183         3962 
 4840000   0.47064918   -9.7726743     443.6509 0.0076386175 0.0055955999         3958 
 4841000   0.48632047   -9.8002441     443.5806 0.0076358293 0.0055934832         3961 
 4842000   0.47982372   -9.7909527    444.03414 0.0076420581 0.0055913678         3955 
 4843000   0.48867998   -9.7852239    443.30207 0.0076278834 0.0055892521         3951 
 4844000   0.48074702   -9.7902866    443.42309 0.0076283905 0.0055871383         3958 
 4845000   0.47979976   -9.7921187     443.9386 0.0076356828 0.0055850263         3960 
 4846000   0.48582784    -9.785006    443.65586 0.0076292451 0.0055829146         3966 
 4847000   0.46419226   -9.8028167    443.42751 0.0076237451 0.0055808033         3958 
 4848000   0.48145258   -9.7812131    443.44565 0.0076224843 0.0055786938         3963 
 4849000   0.48050541   -9.8005295    444.43486 0.0076379126 0.0055765852         3959 
 4850000   0.47360754   -9.7995413    443.33435 0.0076174286 0.0055744797         3959 
 4851000   0.48014987   -9.8001447     443.5672 0.0076198585 0.0055723721         3958 
 4852000   0.47144616   -9.8020888    444.21645 0.0076294389 0.0055702662         3966 
 4853000   0.47276566   -9.7944948    442.89962 0.0076052548 0.0055681619         3963 
 4854000   0.47553975     -9.80539    443.37629 0.0076118715 0.0055660572         3965 
 4855000   0.48970944   -9.8050728    443.45941 0.0076117304 0.0055639546         3958 
 4856000    0.4718569   -9.7910947     443.3357 0.0076080398 0.0055618546         3967 
 4857000   0.48220981   -9.8002866    443.37916 0.0076072192 0.0055597533         3949 
 4858000   0.48004022   -9.8134614    443.64891 0.0076102804 0.0055576532         3970 
 4859000   0.47410168   -9.8079903    443.78323 0.0076110179 0.0055555537         3965 
 4860000   0.47752427   -9.8036848    443.07951 0.0075973853 0.0055534571         3960 
 4861000    0.4743261   -9.7964439     442.9618 0.0075938043 0.0055513617         3943 
 4862000   0.46775197   -9.8071535    443.66534  0.007604301 0.0055492675         3952 
 4863000   0.46989388   -9.8042795    443.51974 0.0076002422 0.0055471722         3951 
 4864000   0.47668177   -9.7956342    443.62542 0.0076004904 0.0055450779         3957 
 4865000   0.47897486   -9.8076863    442.44217   0.00757866 0.0055429851         3952 
 4866000   0.48346101   -9.8074509    443.78958 0.0076001778 0.0055408932         3962 
 4867000   0.47900439   -9.8061457    443.62825 0.0075958539 0.0055388014         3953 
 4868000   0.47366935   -9.7928955    443.71049 0.0075957014 0.0055367118         3954 
 4869000    0.4766114   -9.7989672    443.11842 0.0075840081 0.0055346221         3965 
 4870000   0.45802419   -9.7947528    443.18944  0.007583666  0.005532535         3958 
 4871000   0.48561029   -9.7879889    443.40365 0.0075857738 0.0055304499         3952 
 4872000    0.4797209   -9.8144567    443.44529  0.007584929 0.0055283649         3956 
 4873000   0.48038721   -9.7887357    443.99604  0.007592791 0.0055262822         3968 
 4874000   0.47243538   -9.7904969    443.75382 0.0075870918 0.0055242009         3958 
 4875000   0.47170069   -9.7983414    443.23831 0.0075767233 0.0055221191         3950 
 4876000   0.47585355   -9.8034771    443.65698 0.0075823246 0.0055200375         3954 
 4877000   0.47403603   -9.8067306    443.61407 0.0075800368 0.0055179593         3962 
 4878000   0.46304411   -9.8089886    443.02244 0.0075683757 0.0055158808         3958 
 4879000   0.47610076   -9.8097486    443.48453  0.007574717  0.005513803         3962 
 4880000   0.46704829   -9.8041199    443.46543 0.0075728386 0.0055117266         3944 
 4881000   0.45804963   -9.8016336    443.34992  0.007569315  0.005509651         3960 
 4882000   0.47412992   -9.8133085    443.23608 0.0075658213 0.0055075769         3961 
 4883000   0.48002131   -9.8118471    443.34816 0.0075661847 0.0055055037         3956 
 4884000   0.47356232   -9.8233233     443.0878 0.0075601931 0.0055034312         3961 
 4885000   0.47068654   -9.8149432    442.68975 0.0075518552 0.0055013596         3959 
 4886000   0.46047292   -9.7969653    443.47265 0.0075636624 0.0054992889         3953 
 4887000   0.47139405   -9.8025451    443.50454 0.0075626583 0.0054972191         3954 
 4888000   0.46898601    -9.816737    443.42178 0.0075597002  0.005495151         3946 
 4889000   0.45979185   -9.8044575    443.32478 0.0075565007 0.0054930845         3969 
 4890000   0.47196442   -9.8096956    442.99641 0.0075493595 0.0054910177         3953 
 4891000   0.46516108   -9.7956638    443.01644 0.0075481572  0.005488954         3954 
 4892000   0.47185913   -9.8119086    442.29608 0.0075343431 0.0054868904         3974 
 4893000   0.46352076   -9.8000749    442.99278 0.0075446689 0.0054848292         3955 
 4894000    0.4684157   -9.8055547     442.9126  0.007541762 0.0054827675         3958 
 4895000    0.4744444    -9.819712    443.20576 0.0075452121 0.0054807068         3959 
 4896000    0.4648159   -9.7943867    443.35436 0.0075462002 0.0054786469         3961 
 4897000   0.46160192   -9.7989344    443.79741 0.0075521988 0.0054765875         3972 
 4898000   0.47128742   -9.8040408    443.22243 0.0075408743 0.0054745319         3961 
 4899000   0.47216312   -9.8076911    443.04541 0.0075363238 0.0054724756         3952 
 4900000   0.46844752   -9.8071128    443.46234 0.0075418765 0.0054704201         3962 
 4901000   0.47794103   -9.8088583     443.8024 0.0075461198 0.0054683659         3961 
 4902000   0.46834277   -9.8218879    443.39043 0.0075375769 0.0054663122         3955 
 4903000   0.47878577   -9.7995277    443.40464 0.0075362811 0.0054642602         3965 
 4904000   0.46821412   -9.8014006    443.48279 0.0075360724 0.0054622091         3955 
 4905000   0.47107589   -9.8057061    443.21041 0.0075299084 0.0054601601         3962 
 4906000   0.46804327    -9.804311    443.75111  0.007537558 0.0054581123         3950 
 4907000    0.4741083     -9.80854    442.93937 0.0075222364 0.0054560644         3957 
 4908000   0.47483821   -9.8135685    443.62658  0.007532372 0.0054540162         3960 
 4909000   0.47069293   -9.7913628    443.17865 0.0075232337 0.0054519712         3954 
 4910000   0.46972833     -9.80507      443.168 0.0075215207 0.0054499264         3958 
 4911000   0.45924579   -9.7989932    443.54724 0.0075264243 0.0054478825         3957 
 4912000   0.46598326   -9.8157392    443.02411 0.0075160171 0.0054458398         3955 
 4913000   0.45947644   -9.8048445    444.01898  0.007531362  0.005443798         3956 
 4914000   0.47261113   -9.8095106    442.92113 0.0075112116 0.0054417571         3958 
 4915000   0.47224378   -9.7969331    443.23031 0.0075149255 0.0054397183         3952 
 4916000   0.46331371    -9.811169    442.55415  0.007501935 0.0054376811         3957 
 4917000   0.46710905   -9.8156704    443.46508 0.0075158478 0.0054356435         3962 
 4918000   0.46126471   -9.8147732    443.75214 0.0075191836 0.0054336071         3955 
 4919000   0.46791542   -9.8121445    443.62586 0.0075155157 0.0054315715         3963 
 4920000   0.45007496   -9.8176458    442.89688 0.0075016409 0.0054295364         3961 
 4921000   0.46373893   -9.8106043    443.35629 0.0075078962 0.0054275023         3968 
 4922000   0.47626415   -9.8016478    442.87308 0.0074981898 0.0054254706         3959 
 4923000   0.47485931   -9.8235251    442.69247 0.0074936094 0.0054234381         3958 
 4924000   0.46060444   -9.8125523    443.10653 0.0074990952 0.0054214085         3963 
 4925000   0.46007529   -9.8208763    442.67443 0.0074902611 0.0054193801         3961 
 4926000   0.47113007   -9.8207788    444.19641  0.007514488 0.0054173517         3963 
 4927000   0.45745165   -9.8119433    442.94766 0.0074918418 0.0054153256         3952 
 4928000    0.4637831    -9.828898    442.78516 0.0074875737 0.0054133009         3965 
 4929000   0.46086286   -9.8194706    443.52392 0.0074985446 0.0054112744         3961 
 4930000    0.4655351    -9.818314    442.99798 0.0074881336 0.0054092509         3952 
 4931000   0.45912096   -9.8279955    443.02862 0.0074871327 0.0054072268         3963 
 4932000   0.46275448   -9.8245698    442.57316 0.0074779191 0.0054052051         3954 
 4933000   0.46390835   -9.8146686    443.19405 0.0074868919  0.005403185         3959 
 4934000   0.47423656    -9.809625    443.07777 0.0074834105 0.0054011645         3957 
 4935000   0.46278161   -9.8163559    443.36623 0.0074867652 0.0053991468         3957 
 4936000   0.47948932   -9.8264158    443.05059 0.0074799194 0.0053971286         3958 
 4937000   0.46984877   -9.8235542    443.10039 0.0074792449 0.0053951123         3961 
 4938000    0.4596232   -9.8142549     442.7567 0.0074719303 0.0053930968         3961 
 4939000   0.47173308   -9.8119263    443.12138 0.0074765705 0.0053910819         3950 
 4940000   0.45620444   -9.8245472    443.19959 0.0074763763  0.005389068         3968 
 4941000   0.46267167   -9.8283147    442.46895 0.0074625405 0.0053870561         3954 
 4942000    0.4636757   -9.8240913    442.62449 0.0074636532  0.005385045         3959 
 4943000   0.45531906   -9.8155284    443.26407 0.0074729259 0.0053830337         3965 
 4944000    0.4580271   -9.8095746    442.59693 0.0074601694  0.005381025         3961 
 4945000   0.46338095   -9.8221892    443.47132  0.007473396  0.005379016         3958 
 4946000   0.45481666   -9.8321567    442.24389 0.0074512045 0.0053770075         3955 
 4947000   0.46272683   -9.8321651    442.47722 0.0074536288 0.0053750009         3962 
 4948000   0.46051375    -9.811306     443.4009 0.0074676788 0.0053729948         3957 
 4949000   0.46120272   -9.8126223    443.04409 0.0074601619  0.005370991         3960 
 4950000   0.44719312   -9.8251586    442.42189   0.00744818 0.0053689873         3950 
 4951000   0.45871427   -9.8266197    443.77732 0.0074694897 0.0053669848         3963 
 4952000   0.45927216   -9.8139797    442.99472 0.0074548115 0.0053649831         3946 
 4953000    0.4586618   -9.8195531    443.01043 0.0074535707 0.0053629814         3950 
 4954000    0.4565968   -9.8219484    443.44625 0.0074593974 0.0053609817         3959 
 4955000   0.46115999   -9.8154853    442.93222 0.0074492469 0.0053589834         3958 
 4956000   0.46713074   -9.8226639    442.59508 0.0074420749 0.0053569869         3961 
 4957000   0.45902541   -9.8361543    443.28344 0.0074521458 0.0053549894         3951 
 4958000   0.46229075   -9.8115782    443.03055 0.0074463922 0.0053529938         3957 
 4959000   0.46393303   -9.8255771    442.54949 0.0074368066 0.0053509983         3955 
 4960000   0.46490887   -9.8246138    442.91446 0.0074414392 0.0053490045         3962 
 4961000   0.46077503   -9.8044466    443.23482 0.0074453205 0.0053470135         3966 
 4962000   0.46328682   -9.8209736    443.00533 0.0074399658 0.0053450229         3962 
 4963000   0.46533838   -9.8253554    443.33728 0.0074440406 0.0053430326         3967 
 4964000   0.46197974    -9.811413    443.10957 0.0074387183 0.0053410428         3957 
 4965000    0.4613894   -9.8236371    443.04637 0.0074361592 0.0053390556         3963 
 4966000   0.46834846   -9.8190878    443.35637  0.007439864 0.0053370676         3958 
 4967000   0.45550441   -9.8208747    443.33577 0.0074380204 0.0053350817         3960 
 4968000   0.45573668    -9.835377    442.73717 0.0074264824 0.0053330957         3959 
 4969000   0.45933621   -9.8235514    442.62174  0.007423052 0.0053311112         3951 
 4970000   0.47006844   -9.8262286    443.86294 0.0074423699 0.0053291287         3958 
 4971000   0.45264476   -9.8441864    442.28264 0.0074143808 0.0053271473         3961 
 4972000   0.46002769   -9.8276362    442.66727 0.0074193361 0.0053251655         3946 
 4973000    0.4600581   -9.8104163    442.84054 0.0074207477 0.0053231853         3954 
 4974000   0.45806102   -9.8224236    442.88649 0.0074200257 0.0053212051         3951 
 4975000    0.4616798   -9.8269814    443.47378 0.0074283715 0.0053192258         3962 
 4976000   0.46387123   -9.8449011    442.72818  0.007414392 0.0053172479         3965 
 4977000   0.45277259   -9.8309973    442.78363 0.0074138308 0.0053152718         3970 
 4978000    0.4538516   -9.8406895    442.83054 0.0074131268 0.0053132984         3970 
 4979000    0.4567199   -9.8222697     442.7582 0.0074104271 0.0053113227         3961 
 4980000   0.44692353   -9.8254814    442.28763 0.0074010648 0.0053093505         3952 
 4981000   0.45639713   -9.8224194    443.52273 0.0074202424 0.0053073773         3965 
 4982000   0.45609725   -9.8290879    443.21264 0.0074135661  0.005305407         3966 
 4983000   0.45686114   -9.8227571     442.9617 0.0074078817 0.0053034366         3956 
 4984000   0.44928236    -9.828675    443.37525 0.0074133101 0.0053014678         3958 
 4985000   0.45175884   -9.8202515    442.86751 0.0074033352 0.0052994992         3949 
 4986000   0.44862393   -9.8299315    442.32346 0.0073927575 0.0052975319         3958 
 4987000   0.44982965   -9.8219569    443.20489 0.0074060038 0.0052955668         3952 
 4988000   0.45683078   -9.8311259    443.02107  0.007401448 0.0052936001         3946 
 4989000   0.44973781   -9.8155286    442.47276 0.0073908057 0.0052916337         3955 
 4990000   0.45183424   -9.8349249    442.94097 0.0073971438 0.0052896692         3945 
 4991000   0.45016793   -9.8271127    442.25531 0.0073842134 0.0052877065         3965 
 4992000    0.4457148   -9.8382285    442.59785 0.0073884523 0.0052857438         3968 
 4993000   0.45737637   -9.8089201    442.28726 0.0073817888 0.0052837827         3963 
 4994000   0.44106816   -9.8374648     442.8544 0.0073897744 0.0052818226         3963 
 4995000   0.43851682   -9.8243748     442.3894 0.0073805372 0.0052798641         3968 
 4996000   0.44858099   -9.8210663    442.41724 0.0073795243 0.0052779056         3967 
 4997000   0.45209453   -9.8323806    442.36268 0.0073771377 0.0052759489         3966 
 4998000   0.44878867   -9.8319887    442.83012 0.0073834554 0.0052739925         3961 
 4999000   0.45624088   -9.8342888    442.15655   0.00737075 0.0052720383         3958 
 5000000   0.45550384   -9.8347248    442.90309 0.0073817182 0.0052700852         3971 
 5001000   0.45969175   -9.8232187    443.07814  0.007383159 0.0052681328         3967 
 5002000   0.44548323   -9.8210862    442.20651 0.0073671617 0.0052661813         3970 
 5003000   0.44578351   -9.8540769    442.83303 0.0073761248 0.0052642308         3968 
 5004000   0.45881756   -9.8285321     442.7678 0.0073735644 0.0052622811         3965 
 5005000   0.45684919   -9.8268145     443.2951 0.0073808707 0.0052603328         3961 
 5006000   0.44331065   -9.8305991    443.00277 0.0073745301 0.0052583851         3959 
 5007000   0.44102857   -9.8331796    442.64058 0.0073670291 0.0052564381         3966 
 5008000    0.4475711    -9.840837    442.60004 0.0073648835 0.0052544924         3974 
 5009000   0.45627019   -9.8380262     442.5109 0.0073619301 0.0052525468         3964 
 5010000   0.44672542   -9.8351257    443.01811 0.0073688973 0.0052506033         3960 
 5011000   0.45203674   -9.8245758    442.81983 0.0073641293 0.0052486604         3956 
 5012000   0.45924265   -9.8332339    442.67517 0.0073602549 0.0052467172         3953 
Loop time of 13048.1 on 48 procs for 5000000 steps with 4000 atoms

Performance: 66216.341 tau/day, 383.196 timesteps/s
99.4% CPU use with 48 MPI tasks x no OpenMP threads

MPI task timing breakdown:
Section |  min time  |  avg time  |  max time  |%varavg| %total
---------------------------------------------------------------
Pair    | 914.31     | 1046.2     | 1158.3     | 152.8 |  8.02
Neigh   | 89.708     | 93.175     | 98.277     |  22.6 |  0.71
Comm    | 809.05     | 933.24     | 1077.5     | 186.3 |  7.15
Output  | 18.399     | 18.404     | 18.491     |   0.3 |  0.14
Modify  | 10755      | 10824      | 10894      |  34.7 | 82.95
Other   |            | 133.5      |            |       |  1.02

Nlocal:        83.3333 ave          88 max          75 min
Histogram: 2 0 2 6 3 4 11 5 6 9
Nghost:        2398.08 ave        2416 max        2379 min
Histogram: 3 2 2 6 9 11 4 5 4 2
Neighs:        16465.0 ave       18625 max       13863 min
Histogram: 2 3 5 6 3 11 4 2 6 6
FullNghs:      32929.4 ave       35581 max       29364 min
Histogram: 2 1 5 5 3 8 7 8 7 2

Total # of neighbors = 1580611
Ave neighs/atom = 395.15275
Neighbor list builds = 266053
Dangerous builds = 1

#clear
#
#next RN
#
#jump SELF
Total wall time: 3:37:31
