
units lj                  # Use reduced LJ style units
atom_style atomic         # Uncharged point particles
atom_modify map hash      # Needed for indexing of clusters etc
                          # Used to be able to find where atoms are in relation to each other.

lattice fcc 1.0 spacing 1 1 1
Lattice spacing in x,y,z = 1.5874011 1.5874011 1.5874011
region box block 0 10 0 10 0 10 units lattice
create_box 2 box
Created orthogonal box = (0.0000000 0.0000000 0.0000000) to (15.874011 15.874011 15.874011)
  3 by 4 by 4 MPI processor grid
create_atoms 1 box
Created 4000 atoms
  using lattice units in orthogonal box = (0.0000000 0.0000000 0.0000000) to (15.874011 15.874011 15.874011)
  create_atoms CPU = 0.002 seconds
set type 1 type/fraction 2 0.27 78393
Setting atom values ...
  1113 settings made for type/fraction
mass 1 1.0
mass 2 1.0
pair_style lj/cut  3.5
pair_modify tail  yes
pair_coeff 1  1  1.0  1.0   # Intearaction between 1 and 1 set with epsilon = 1 and sigma = 1
pair_coeff 1  2  1.5  0.8
pair_coeff 2  2  0.5  0.88

write_data data.0
System init for write_data ...
Neighbor list info ...
  update every 1 steps, delay 10 steps, check yes
  max neighbors/atom: 2000, page size: 100000
  master list distance cutoff = 3.8
  ghost atom cutoff = 3.8
  binsize = 1.9, bins = 9 9 9
  1 neighbor lists, perpetual/occasional/extra = 1 0 0
  (1) pair lj/cut, perpetual
      attributes: half, newton on
      pair build: half/bin/atomonly/newton
      stencil: half/bin/3d
      bin: standard
WARNING: Not all mixed pair coeffs generated from mixing. Use write_data with 'pair ij' option to store all pair coeffs. (../write_data.cpp:312)


#############################
#   M E L T   S Y S T E M   #
#############################

velocity all create 2.4 6229865 mom yes dist gaussian # Assign velocities
                                                    # Temperature 2.4, random number seed, zero linear momentum
                                                                                # Gaussian distribution

timestep 0.002   # simulation timestep
thermo 1000       # output thermodynamic data every 1000 steps bf 100

# Define a fix  in this case with index 1 applied to all
# particles in the simulation. This fix is for simulations
# in the anisotropic NPT ensemble. Note that we use the MTK
# correction.
fix 1 all npt temp 2.4 2.4 0.1 iso 5.68 5.68 0.5 mtk yes tchain 5 pchain 5 # Use NPT ensemble
                                                                         # Set temperature and pressure and damping
                                                                         # Numbers of thermostats in chain and in barostat
run 10000          # run for 10000 steps
Per MPI rank memory allocation (min/avg/max) = 3.642 | 3.644 | 3.648 Mbytes
Step Temp E_pair E_mol TotEng Press Volume 
       0          2.4   -6.6079615            0   -3.0088615   -3.8965289         4000 
    1000    2.4112787   -4.9468965            0   -1.3308827    5.8245783    4232.8382 
    2000    2.3876887    -4.994458            0   -1.4138204    5.8446374    4201.3896 
    3000    2.4246339   -4.9872781            0   -1.3512364    5.7093274    4221.6441 
    4000    2.3829945   -4.9605395            0   -1.3869413    5.6482821    4237.2602 
    5000    2.3541611   -4.9726481            0   -1.4422892    5.7526373    4227.5034 
    6000    2.4592244   -4.8829095            0   -1.1949951    5.8734569    4257.2974 
    7000    2.3807561    -4.971815            0   -1.4015736    5.4377749    4256.9597 
    8000    2.3924114   -4.9553449            0    -1.367625    5.9900717     4210.393 
    9000    2.3904936   -4.9401426            0   -1.3552986    5.7458498    4243.0363 
   10000    2.4449829   -4.9566555            0    -1.290098    5.3432982    4276.5694 
Loop time of 2.37368 on 48 procs for 10000 steps with 4000 atoms

Performance: 727982.427 tau/day, 4212.861 timesteps/s
99.6% CPU use with 48 MPI tasks x no OpenMP threads

MPI task timing breakdown:
Section |  min time  |  avg time  |  max time  |%varavg| %total
---------------------------------------------------------------
Pair    | 1.0273     | 1.0897     | 1.1637     |   2.9 | 45.91
Neigh   | 0.2007     | 0.20769    | 0.21911    |   0.9 |  8.75
Comm    | 0.72795    | 0.81136    | 0.88474    |   4.1 | 34.18
Output  | 0.00024222 | 0.00024677 | 0.0003114  |   0.0 |  0.01
Modify  | 0.22029    | 0.24937    | 0.28145    |   3.5 | 10.51
Other   |            | 0.01529    |            |       |  0.64

Nlocal:        83.3333 ave          93 max          74 min
Histogram: 1 4 5 4 12 7 8 2 4 1
Nghost:        1571.90 ave        1598 max        1545 min
Histogram: 2 5 3 7 6 6 8 5 1 5
Neighs:        8918.46 ave        9969 max        7695 min
Histogram: 3 3 5 4 4 7 8 6 5 3

Total # of neighbors = 428086
Ave neighs/atom = 107.02150
Neighbor list builds = 899
Dangerous builds = 180

# Equilibrate just above the melting temperature to avoid step fn in T

fix 1 all npt temp 1.25 1.25 0.1 iso 5.68 5.68 0.5 mtk yes tchain 5 pchain 5
run 2000
Per MPI rank memory allocation (min/avg/max) = 3.643 | 3.645 | 3.649 Mbytes
Step Temp E_pair E_mol TotEng Press Volume 
   10000    2.4449829   -4.9566555            0    -1.290098    5.3432982    4276.5694 
   11000    1.2306096   -6.7542764            0   -4.9088235    5.7627196    3429.9019 
   12000    1.2252408   -6.7967966            0   -4.9593949    5.4912782    3428.8176 
Loop time of 0.566655 on 48 procs for 2000 steps with 4000 atoms

Performance: 609894.571 tau/day, 3529.482 timesteps/s
99.6% CPU use with 48 MPI tasks x no OpenMP threads

MPI task timing breakdown:
Section |  min time  |  avg time  |  max time  |%varavg| %total
---------------------------------------------------------------
Pair    | 0.24205    | 0.26593    | 0.3113     |   2.7 | 46.93
Neigh   | 0.036615   | 0.039364   | 0.046408   |   0.9 |  6.95
Comm    | 0.16508    | 0.20857    | 0.2429     |   3.4 | 36.81
Output  | 5.348e-05  | 5.4589e-05 | 6.9149e-05 |   0.0 |  0.01
Modify  | 0.038438   | 0.04807    | 0.055614   |   2.3 |  8.48
Other   |            | 0.004663   |            |       |  0.82

Nlocal:        83.3333 ave          94 max          77 min
Histogram: 3 8 6 10 10 6 2 2 0 1
Nghost:        1821.90 ave        1843 max        1808 min
Histogram: 3 4 12 4 11 4 6 1 2 1
Neighs:        11144.1 ave       12833 max        9579 min
Histogram: 1 4 4 7 10 10 7 2 2 1

Total # of neighbors = 534918
Ave neighs/atom = 133.72950
Neighbor list builds = 144
Dangerous builds = 13

#############################
# L I N E A R  Q U E N C H  #
#############################

# Define solid atoms. This closely follows ten Wolde  Ruiz-Montero and Frenkel  Faraday Discuss  1996  104  93-110
# Compute components of the per-atom q6 vector
compute q6 all orientorder/atom degrees 1 6 components 6 nnn NULL cutoff 1.3 # compute the Q6 parameter.
                                                                             # Use all neighbours within 1.3 unit cell.

# get number of connections
compute coord_number all coord/atom orientorder q6 0.5

# An atom is solid if it has 8 or more connections (of a possible 14)
variable is_solid atom c_coord_number>=8
group solid dynamic all var is_solid    # Must be dynamic to update
dynamic group solid defined

# do clustering
compute cluster solid cluster/atom 1.3 # Create a cluster where all atoms within are solid and max 1.3 units from another member

# define chunks one chunk per cluster
compute clus_chunks solid chunk/atom c_cluster nchunk every compress yes  # Says which atoms are in which chunk

# count the size of each chunk
compute size_chunks solid property/chunk clus_chunks count


# Find the maximum entry in the vector of chunk sizes
variable max_n equal max(c_size_chunks)


# Thermo style which includes this variable
# thermo_style custom step temp pe vol v_max_n

thermo ${N}  # Print the thermo information every 100 steps
thermo 1000  

# Reset the npt fix at a lower temperature (below freezing)
fix 1  all npt temp  ${temp} ${temp}  0.1  iso  5.68  5.68  0.5  mtk yes tchain  5  pchain  5
fix 1  all npt temp  0.45 ${temp}  0.1  iso  5.68  5.68  0.5  mtk yes tchain  5  pchain  5
fix 1  all npt temp  0.45 0.45  0.1  iso  5.68  5.68  0.5  mtk yes tchain  5  pchain  5

dump dmp2 all dcd ${N} traj.dcd
dump dmp2 all dcd 1000 traj.dcd


compute msd all msd com yes
variable twopoint equal c_msd[4]/6/(step*dt+1.0e-6)
fix 9 all vector 10 c_msd[4]
variable fit equal slope(f_9)/6/(10*dt)
thermo_style custom step temp pe c_msd[4] v_twopoint v_fit v_max_n

fix 1 all npt temp 1.25 ${temp} 0.1 iso 5.68 5.68 0.5 mtk yes tchain 5 pchain 5
fix 1 all npt temp 1.25 0.45 0.1 iso 5.68 5.68 0.5 mtk yes tchain 5 pchain 5
run 500000 # 5000000  # Run for this many steps
Neighbor list info ...
  update every 1 steps, delay 10 steps, check yes
  max neighbors/atom: 2000, page size: 100000
  master list distance cutoff = 3.8
  ghost atom cutoff = 3.8
  binsize = 1.9, bins = 8 8 8
  4 neighbor lists, perpetual/occasional/extra = 1 3 0
  (1) pair lj/cut, perpetual
      attributes: half, newton on
      pair build: half/bin/atomonly/newton
      stencil: half/bin/3d
      bin: standard
  (2) compute orientorder/atom, occasional
      attributes: full, newton on
      pair build: full/bin/atomonly
      stencil: full/bin/3d
      bin: standard
  (3) compute coord/atom, occasional
      attributes: full, newton on
      pair build: full/bin/atomonly
      stencil: full/bin/3d
      bin: standard
  (4) compute cluster/atom, occasional
      attributes: full, newton on
      pair build: full/bin/atomonly
      stencil: full/bin/3d
      bin: standard
Per MPI rank memory allocation (min/avg/max) = 9.805 | 9.810 | 9.815 Mbytes
Step Temp PotEng c_msd[4] v_twopoint v_fit v_max_n 
   12000    1.2252408   -6.7967966 8.4565889e-31 5.8726309e-33 8.3333333e+20            2 
   13000    1.2405659   -6.7647267   0.50600037  0.003243592  0.041429169            3 
   14000    1.2225803   -6.7587513   0.97371646 0.0057959311  0.039821055            2 
   15000    1.2602714   -6.8363112    1.4743877 0.0081910425   0.04025093            1 
   16000     1.242338   -6.7987928    2.0031175  0.010432903  0.041191417            2 
   17000    1.2200781   -6.7943923    2.4766945  0.012140659  0.041238504            1 
   18000    1.2322057   -6.7938077    3.0035597  0.013905368  0.041455326            2 
   19000    1.2448147   -6.8352583    3.5352788  0.015505608  0.041789518            1 
   20000    1.2654411   -6.8854196    4.0150633   0.01672943  0.041937331            1 
   21000     1.256826   -6.8293514    4.5528597  0.018066903  0.042057993            1 
   22000    1.2534031    -6.810522    4.9807736  0.018866566  0.041985681            1 
   23000    1.2267058   -6.8498092    5.4990897  0.019924237  0.041726637            2 
   24000    1.2385362   -6.8320192    5.9561995  0.020681248  0.041640487            2 
   25000    1.2651355   -6.8210841    6.3509227  0.021169742  0.041435482            1 
   26000    1.2434627   -6.8141038    6.8141092  0.021840093  0.041129971            2 
   27000    1.2378447   -6.8196888    7.2509755  0.022379554  0.040854253            1 
   28000    1.2374812   -6.8897804    7.6366908  0.022728246  0.040520068            1 
   29000    1.2233935   -6.8133285     8.081414  0.023222454  0.040108319            2 
   30000    1.2284616   -6.8443807    8.5502535  0.023750704  0.039806496            1 
   31000    1.2177519   -6.8376016    9.0391681  0.024298839  0.039573941            2 
   32000    1.2226235   -6.8867281    9.3610246  0.024377668   0.03935247            1 
   33000    1.2294731   -6.8793973    9.9345126  0.025087153  0.039158136            1 
   34000    1.2256178   -6.8661367    10.406033  0.025504984  0.039059428            3 
   35000    1.2106146   -6.8351413    10.796185  0.025705202  0.038960088            1 
   36000    1.2278267   -6.8719839    11.170632  0.025857943  0.038789911            2 
   37000    1.2038738   -6.8486403    11.588582  0.026100409  0.038636315            2 
   38000     1.201553   -6.8584538    12.028718  0.026378767  0.038482143            2 
   39000    1.1878154   -6.8893233    12.409043  0.026515048  0.038334565            1 
   40000    1.1832735   -6.8795147    12.894356  0.026863242  0.038192974            1 
   41000     1.180337    -6.887676    13.376246  0.027187492    0.0380998            2 
   42000     1.222734    -6.845768    13.838942  0.027458218  0.038030573            2 
   43000    1.2149313   -6.8593268    14.387899  0.027883525  0.037983317            2 
   44000    1.2136628   -6.8454831    14.882494  0.028186541  0.037995018            2 
   45000    1.1843371   -6.8965657    15.326163  0.028381784  0.038004476            1 
   46000    1.2113611   -6.9053079     15.64984  0.028351159  0.037962173            2 
   47000    1.1607425   -6.9028153    15.961321  0.028300215  0.037888528            2 
   48000    1.1701428   -6.9312901    16.309672  0.028315403  0.037782565            2 
   49000    1.2353302   -6.9164043    16.663398  0.028339112  0.037659308            2 
   50000    1.2074187   -6.8809925     17.19479  0.028657983  0.037528324            1 
   51000    1.1717345    -6.893671    17.634075  0.028813849  0.037419462            2 
   52000    1.1933509   -6.9256627     18.01013  0.028862388  0.037321761            1 
   53000    1.1651755   -6.9515903    18.388674   0.02891301  0.037231953            2 
   54000    1.1968648   -6.9091666    18.838933  0.029072428  0.037147949            1 
   55000    1.1639903    -6.928336    19.112254   0.02895796  0.037052744            2 
   56000    1.1936559   -6.9259091     19.47453  0.028979956  0.036942957            2 
   57000    1.1835979   -6.9595122    19.635493  0.028706862  0.036802433            2 
   58000    1.1686163   -6.9463966    20.280569  0.029138748  0.036677069            1 
   59000    1.1549874   -6.9521955     20.65107  0.029168177  0.036575908            1 
   60000    1.1786458   -6.9436851    20.992184  0.029155811  0.036459322            3 
   61000    1.1484901   -6.9386012    21.322832  0.029129552  0.036346345            3 
   62000    1.1492214   -6.9228974    21.773282  0.029265163  0.036238215            2 
   63000     1.165447    -6.990964    22.293484  0.029488735  0.036135217            1 
   64000    1.1607255    -6.970464    22.608607   0.02943829  0.036038077            1 
   65000    1.1757234   -6.9684151    23.097382  0.029612028   0.03595702            1 
   66000    1.1771786   -6.9559493    23.469404  0.029633085  0.035886945            1 
   67000    1.1706304   -6.9390385    23.866838  0.029685122  0.035811927            2 
   68000    1.1760777   -6.9617505    24.248533  0.029716339  0.035725959            2 
   69000    1.1544365   -6.9887274    24.487934  0.029574799  0.035641621            1 
   70000    1.1807373   -6.9523108    24.872001  0.029609525  0.035550438            2 
   71000    1.1612451   -6.9631574    25.401146  0.029813551  0.035467629            3 
   72000    1.1514835   -7.0188304    25.837698  0.029904742  0.035408688            1 
   73000    1.1679916    -7.021691    26.181148  0.029887155  0.035350311            2 
   74000    1.1699689   -7.0126754    26.717553  0.030087334  0.035296961            1 
   75000    1.1753742   -6.9311289    27.103545   0.03011505  0.035250545            1 
   76000    1.1816084   -6.9777144    27.212917  0.029838725    0.0351915            2 
   77000     1.130372   -7.0004917    27.595431  0.029865185  0.035117261            2 
   78000    1.1520446   -6.9869502    27.841408  0.029745093   0.03503733            2 
   79000    1.1272795   -7.0030416    28.269302  0.029819939  0.034951236            2 
   80000    1.1605507   -6.9858491    28.634054  0.029827139  0.034868236            1 
   81000    1.1309123   -7.0210807    28.816787    0.0296469  0.034778616            2 
   82000    1.1409651    -7.039846    29.218264  0.029693358  0.034687319            1 
   83000    1.1245071   -7.0084863    29.679234  0.029798427  0.034603302            1 
   84000    1.1358026   -7.0446343    30.085422  0.029846648  0.034523135            2 
   85000     1.168163   -7.0404864    30.480942  0.029883277  0.034441741            3 
   86000    1.1393328   -7.0474012    30.806788  0.029851539  0.034371336            2 
   87000     1.127859   -7.0494374    31.169311  0.029855662   0.03429928            2 
   88000    1.1328736   -7.0611361    31.368284  0.029704815  0.034224997            1 
   89000    1.1236031   -7.0160453     31.57735  0.029566807  0.034135753            2 
   90000    1.1257298    -7.033068    31.901978  0.029538868  0.034048583            1 
   91000    1.1280008   -7.0501674    32.248993  0.029532045  0.033965246            3 
   92000    1.1455042   -7.0606525    32.456645  0.029399135  0.033878918            2 
   93000    1.1299805   -7.0654444    32.932262  0.029509195  0.033790515            3 
   94000    1.1372264   -6.9998612    33.348173  0.029563983  0.033702237            1 
   95000    1.1242148   -7.0367472    33.455603   0.02934702  0.033612196            2 
   96000    1.1199317   -7.0749132    33.799068  0.029339469  0.033517006            3 
   97000    1.1327616   -7.0908639    34.146154  0.029335184  0.033423499            2 
   98000    1.0975396   -7.0836875    34.416841  0.029266021  0.033332938            1 
   99000    1.1078981   -7.0758776    34.690446  0.029200712  0.033239404            2 
  100000     1.106946    -7.059159    35.178332  0.029315276  0.033148665            1 
  101000    1.0952105   -7.0798243    35.468821  0.029264704  0.033064742            2 
  102000       1.0871   -7.1148555    35.763913  0.029218883  0.032980772            1 
  103000    1.1044085   -7.1168942    36.076975  0.029188491  0.032897282            2 
  104000     1.104202   -7.1218292    36.359096  0.029133891  0.032813715            1 
  105000    1.1012513   -7.0947283    36.699979  0.029126967   0.03273294            2 
  106000    1.0828845     -7.08088    37.267467  0.029298323  0.032658349            2 
  107000    1.0973399   -7.1228584    37.707921   0.02936754  0.032590117            2 
  108000    1.0820634   -7.0871191    38.043419   0.02935449  0.032524077            3 
  109000    1.0861042   -7.1433813    38.268524  0.029257281   0.03245996            1 
  110000    1.0979358   -7.1210685     38.50269  0.029168704  0.032393596            1 
  111000    1.0898889   -7.1112625     38.83177   0.02915298  0.032324115            3 
  112000    1.0980831   -7.1318391    39.220585  0.029181983  0.032257399            4 
  113000    1.0674486   -7.0853634    39.532707  0.029153914  0.032192753            1 
  114000    1.0871037   -7.1204069    39.808403   0.02909971  0.032129538            2 
  115000    1.0606394   -7.1599065    40.020745  0.029000539  0.032063144            1 
  116000    1.1063882   -7.1432845     40.29717  0.028949117  0.031993782            1 
  117000    1.0980946   -7.1185522    40.870599  0.029110113  0.031927172            2 
  118000    1.0751447    -7.126065    41.034317  0.028979038  0.031865056            4 
  119000    1.0842032    -7.141121    41.494006  0.029057427  0.031802997            1 
  120000    1.1034494   -7.1637098    41.860158  0.029069554  0.031748999            1 
  121000    1.1036356   -7.1355683    42.118685  0.029007359  0.031695361            3 
  122000    1.0560972   -7.1345569    42.573717  0.029080408  0.031639088            2 
  123000    1.0942791   -7.1853872    42.971577  0.029113534   0.03159042            1 
  124000    1.0957857   -7.1570901    43.033627  0.028920448  0.031538983            1 
  125000    1.0738657   -7.1976397    43.353715  0.028902477   0.03148147            1 
  126000    1.0753196   -7.2367981    43.549097  0.028802313  0.031425057            2 
  127000    1.0824715   -7.1477863    44.026362  0.028888689  0.031368794            1 
  128000    1.0604656   -7.1857606    44.293517  0.028836925  0.031315367            3 
  129000    1.0414992   -7.1584054    44.614827  0.028820948  0.031262962            4 
  130000    1.0302587   -7.1924448    44.888205  0.028774491  0.031209886            3 
  131000    1.0742018   -7.1771021    45.055099  0.028661004  0.031151048            3 
  132000    1.0550952   -7.1616083    45.339328  0.028623313  0.031092237            2 
  133000    1.0511643   -7.2035207    45.538898  0.028533144  0.031030087            3 
  134000    1.0481998   -7.1930568    45.686705   0.02841213  0.030967987            2 
  135000    1.0446899    -7.217928      45.9737  0.028378827  0.030904406            2 
  136000     1.030984   -7.1849656     46.38957  0.028424982  0.030841493            2 
  137000     1.075082   -7.2325698    46.637979    0.0283686  0.030781736            2 
  138000    1.0367014   -7.2005965    46.854434   0.02829374  0.030719826            2 
  139000    1.0518495   -7.2276374    47.305598   0.02836067  0.030656548            1 
  140000    1.0579988   -7.2073129     47.61525   0.02834241  0.030595544            2 
  141000    1.0465976   -7.2437335    47.960888  0.028345678  0.030540272            2 
  142000    1.0324315   -7.2548553    48.214551  0.028294924  0.030485955            1 
  143000    1.0409034   -7.2262035    48.509981   0.02826922  0.030429336            2 
  144000    1.0457458   -7.2513653    48.768669  0.028222609  0.030374925            2 
  145000    1.0321049   -7.2495414    48.972878  0.028145332  0.030317927            2 
  146000     1.014265   -7.1905295    49.217475  0.028092166  0.030259636            1 
  147000    1.0291371   -7.2471496    49.466342  0.028042144  0.030197861            2 
  148000    1.0116589   -7.2408261    49.628972  0.027944241  0.030133725            3 
  149000    1.0590175   -7.2415282    49.967532  0.027946047  0.030071238            6 
  150000    1.0269992   -7.2597901    50.230777  0.027905987  0.030011254            1 
  151000    1.0173463   -7.2508205    50.343042  0.027783136  0.029948264            5 
  152000    1.0241034   -7.2366541    50.684576  0.027787597  0.029885367            3 
  153000   0.99634141   -7.2516926    51.153422  0.027861341   0.02982165            3 
  154000    1.0135287   -7.2294403    51.209364  0.027710695  0.029761082            3 
  155000   0.99864831   -7.2450598    51.427788  0.027649348  0.029699604            1 
  156000   0.99734133   -7.2856899    51.637751  0.027584269  0.029636294            2 
  157000    1.0355286   -7.2644373    51.882065  0.027538251  0.029573114            3 
  158000    1.0134877    -7.275298    52.094121  0.027475802  0.029508819            2 
  159000    1.0167646   -7.2753675    52.382822  0.027454309   0.02944661            2 
  160000     1.023473   -7.2829226     52.49073  0.027338922  0.029383204            2 
  161000   0.98311163   -7.2907944    52.843248  0.027351578  0.029319706            1 
  162000    1.0052089   -7.2731394    53.145151  0.027338041  0.029254776            2 
  163000   0.99034537    -7.327603    53.397874  0.027299526  0.029190093            2 
  164000   0.98794925   -7.2989807    53.459177  0.027164216  0.029126506            3 
  165000    1.0118384    -7.308014    53.588669  0.027064984  0.029060533            2 
  166000    1.0141648   -7.3083329    53.797136  0.027006594  0.028994197            2 
  167000    1.0049419   -7.3196805    54.138995  0.027015467  0.028927858            2 
  168000    1.0049259   -7.3273484    54.269521  0.026919405  0.028860683            3 
  169000    1.0170211   -7.3055735     54.46128  0.026854674  0.028793097            2 
  170000   0.98471892   -7.3406053     54.75882  0.026842559  0.028725683            3 
  171000   0.97261907   -7.2852515    54.964291  0.026785717  0.028658333            2 
  172000   0.99170042   -7.3590558    54.869187  0.026583908  0.028589213            1 
  173000    0.9879247   -7.3394376     55.34482  0.026659355  0.028520629            3 
  174000   0.99943655   -7.3256169    55.768208  0.026708912  0.028453442            1 
  175000    1.0002916   -7.3569857    55.920402  0.026628763  0.028386999            1 
  176000   0.98706208   -7.3660464     55.89543  0.026465639  0.028319023            3 
  177000   0.99160638   -7.3749202    56.083112  0.026404478   0.02824998            3 
  178000   0.98096071   -7.3511425    56.325822  0.026369767  0.028182322            1 
  179000   0.99891977   -7.3419349    56.620959  0.026359851  0.028115303            1 
  180000   0.98830337   -7.3799545    56.869601  0.026328519  0.028049535            1 
  181000   0.98402025   -7.3765952    57.294059   0.02637848  0.027983361            2 
  182000   0.98324132   -7.3693681    57.249677  0.026213222  0.027919055            2 
  183000   0.95958554   -7.3801786    57.516281  0.026191385  0.027853594            1 
  184000   0.99714036   -7.3538674    57.563402  0.026070381   0.02778662            2 
  185000   0.97035665   -7.3812255    57.727217  0.026003251  0.027719646            1 
  186000   0.97662185   -7.4113408    57.922175  0.025950795  0.027653053            1 
  187000    0.9841826   -7.4031252     58.06434  0.025875374  0.027585932            3 
  188000   0.98538009   -7.3471016     58.31077  0.025846972   0.02751761            4 
  189000   0.95732575   -7.3696294     58.63297   0.02585228    0.0274502            3 
  190000   0.94518719   -7.3941882    58.859741  0.025815676  0.027382857            2 
  191000   0.94957378   -7.4123594    58.973489  0.025730143  0.027316499            1 
  192000    0.9527008   -7.4290792    59.428902  0.025793794  0.027252352            3 
  193000   0.97262173   -7.4257547    59.406046  0.025650279  0.027188482            3 
  194000   0.96123937   -7.4218537    59.718087  0.025652099  0.027123785            3 
  195000   0.94764624   -7.4300669    59.771928  0.025543559  0.027059245            1 
  196000   0.96985604   -7.4113854    59.896963  0.025466396  0.026992599            2 
  197000   0.97480437   -7.4135611    60.123903  0.025433123   0.02692627            2 
  198000    0.9488598   -7.4254418    60.203541   0.02533819  0.026859007            2 
  199000   0.96019569   -7.4470501    60.247302  0.025229188  0.026791732            4 
  200000   0.93090822   -7.4359098    60.348302  0.025145126   0.02672481            2 
  201000   0.97641871   -7.4606687    60.453755  0.025063746  0.026654883            2 
  202000   0.96025242   -7.4609625    60.590797  0.024996203  0.026584429            3 
  203000   0.93759352   -7.4517195    60.802367  0.024959921  0.026514154            4 
  204000   0.94800681   -7.4769953    60.980673  0.024910406  0.026445273            2 
  205000   0.94106452   -7.4788696    61.312773  0.024923891   0.02637733            2 
  206000    0.9429431   -7.4716403    61.573478  0.024908365  0.026310015            4 
  207000   0.93794166   -7.4689249    61.516379  0.024765048  0.026241568            1 
  208000   0.94751269   -7.4840989    61.614092  0.024685133  0.026173199            2 
  209000   0.95074744   -7.4743807    61.873177  0.024670326  0.026104728            3 
  210000   0.94837883   -7.4975294    62.125912   0.02465314  0.026037562            2 
  211000   0.94759517   -7.4761924    62.097581  0.024525111  0.025969745            1 
  212000   0.93449847   -7.4580758    62.257503  0.024472289  0.025901928            4 
  213000   0.91503782   -7.4928181    62.415462  0.024419195  0.025832815            2 
  214000   0.93735443   -7.4795716    62.497805  0.024337151  0.025764717            3 
  215000   0.91143695   -7.4889928    62.546796  0.024242944  0.025695759            2 
  216000   0.91946807   -7.5192921    62.702616  0.024190824  0.025626327            4 
  217000   0.91641905   -7.5144994    62.795063  0.024114848  0.025556444            1 
  218000   0.91849501   -7.4966969    63.090213  0.024117054  0.025487404            2 
  219000   0.93753553   -7.4964832    63.177323  0.024040077  0.025418807            2 
  220000   0.93155135   -7.5165062    63.369934  0.024003763   0.02535014            3 
  221000   0.90799675     -7.54129    63.392384  0.023903614  0.025280437            5 
  222000   0.90993374    -7.535205    63.690996  0.023908031  0.025210794            2 
  223000   0.91097736    -7.541883    63.512952  0.023734287   0.02514129            3 
  224000   0.90117795   -7.5045906    63.983916   0.02380354  0.025071559            2 
  225000   0.88974636   -7.5347205    63.781283  0.023622698  0.025001882            1 
  226000   0.89936102   -7.4765039    64.150517  0.023654321  0.024931829            4 
  227000   0.89750759    -7.543827     64.25822  0.023589655  0.024862906            2 
  228000   0.89657154   -7.5340706     64.30398  0.023502917  0.024793819            2 
  229000   0.90915962   -7.5654766    64.420448  0.023442667  0.024724157            3 
  230000   0.90557903   -7.5210418    64.729445  0.023452698  0.024654926            4 
  231000    0.8918444   -7.5724549    64.866117  0.023400475  0.024585992            3 
  232000   0.90998957   -7.5526555    64.980377  0.023340653  0.024517796            1 
  233000   0.89766765   -7.5347846     65.24098  0.023333684  0.024450318            2 
  234000   0.89874173   -7.5570907    65.225449  0.023228436  0.024384029            1 
  235000   0.88480951   -7.5425344    65.388118  0.023187276  0.024316732            2 
  236000   0.89367946   -7.5544068    65.567763  0.023152459  0.024249657            2 
  237000   0.89020264   -7.5745555    65.445737  0.023011863  0.024181505            4 
  238000   0.90383687   -7.5809283    65.463758  0.022921484  0.024112992            3 
  239000   0.89693257   -7.5830868    65.575694  0.022864607  0.024044012            3 
  240000   0.91880868   -7.5586852    65.862746  0.022869009  0.023975641            3 
  241000   0.85693218   -7.5563225    65.919096  0.022793602   0.02390777            4 
  242000   0.88570626   -7.5680045    66.094447  0.022759796  0.023840152            3 
  243000   0.85694415   -7.5595134    66.269382  0.022726126  0.023773706            2 
  244000   0.87140547   -7.5744483    66.430828  0.022688124  0.023707257            3 
  245000   0.89078674   -7.6079875     66.41747  0.022590976  0.023641135            1 
  246000   0.86766066   -7.6066686     66.47227  0.022517707  0.023574448            2 
  247000   0.87886994   -7.5904488    66.625434  0.022478217  0.023508098            1 
  248000   0.88491003   -7.6147354     66.84511  0.022461394  0.023442039            3 
  249000   0.88534193   -7.6189411    66.729759  0.022332583  0.023375782            2 
  250000   0.86758377   -7.5743888    66.888212   0.02229607   0.02330955            2 
  251000   0.86864058   -7.6432034    67.079282  0.022270678  0.023244167            1 
  252000   0.86498601   -7.6596906    67.156945  0.022207984  0.023179554            2 
  253000   0.84810432    -7.638212    67.444058  0.022214775    0.0231142            2 
  254000   0.86007125   -7.6355927    67.454384  0.022130703  0.023049431            2 
  255000   0.86717605   -7.6297089    67.647902  0.022107158  0.022985115            3 
  256000   0.85614199   -7.6691605    67.750399  0.022054166   0.02292043            1 
  257000    0.8424857   -7.6120308    67.775651   0.02197654   0.02285582            3 
  258000   0.85334832   -7.6515394    67.709408  0.021869964  0.022790998            2 
  259000   0.83274446   -7.6301107    67.883565  0.021841559  0.022725977            2 
  260000   0.86547314   -7.6707236    67.902847  0.021763733  0.022660844            2 
  261000   0.84551565   -7.6662239    68.226361   0.02178364  0.022596697            3 
  262000   0.84285564    -7.641903    68.282388  0.021718317  0.022532776            2 
  263000   0.85787096   -7.6680098    68.255003   0.02162706  0.022468263            4 
  264000   0.85087659   -7.6719902     68.36814  0.021580852  0.022403515            2 
  265000   0.83868474    -7.625724    68.341843  0.021491145  0.022338496            4 
  266000   0.81766162   -7.6492207     68.53038  0.021469417  0.022272869            2 
  267000   0.85943333   -7.7028882    68.453945  0.021365151  0.022207402            3 
  268000   0.83512476   -7.7044354    68.583127  0.021325599  0.022141741            2 
  269000   0.84342044   -7.7350754     68.54229  0.021233671  0.022075916            2 
  270000   0.81860121   -7.6938398    68.753568  0.021220237  0.022010307            2 
  271000   0.83912974   -7.7022041    68.683383  0.021120351  0.021945336            3 
  272000   0.84312634   -7.6844379    68.651122  0.021032819  0.021880079            2 
  273000   0.84321745   -7.7073801    68.755824  0.020987736  0.021814598            3 
  274000   0.84745373   -7.7122439    68.732974  0.020904189  0.021749297            2 
  275000    0.8313477   -7.7258227    68.855316  0.020865247  0.021683981            4 
  276000   0.82574969   -7.7483748    68.817342  0.020778183  0.021618495            4 
  277000   0.83510973   -7.7257478    69.015796  0.020762875  0.021552813            2 
  278000   0.82632839   -7.7355278    69.220159  0.020749448  0.021488219            3 
  279000    0.8297189   -7.7364746     69.17738    0.0206623  0.021423589            4 
  280000   0.82880353   -7.7422188    69.086694  0.020561516  0.021358378            3 
  281000   0.81950607   -7.7508387    69.132645  0.020501971  0.021293165            2 
  282000   0.81639317   -7.7554986    69.309642  0.020481573  0.021228205            5 
  283000   0.81638939   -7.7300456    69.620113  0.020500622  0.021163482            2 
  284000   0.80331947   -7.7465852    69.532578  0.020402752  0.021098985            9 
  285000   0.81887651   -7.7192232    69.817647  0.020414517  0.021035606            3 
  286000   0.81394219   -7.7494193    69.853569  0.020353604  0.020972967            2 
  287000   0.82016702   -7.7621362    70.038347  0.020336338  0.020910774            4 
  288000   0.82272406   -7.7408322     69.85747  0.020213388  0.020848448            1 
  289000   0.80476775   -7.7656354    70.053193  0.020199882  0.020786225            2 
  290000   0.82217284   -7.7889354    69.969355  0.020106137  0.020723857            2 
  291000   0.80181315   -7.7505015    70.241986  0.020115116  0.020660956            1 
  292000   0.79829409   -7.7907243    70.035933  0.019987424  0.020598062            6 
  293000   0.79619148   -7.7860515    70.026969  0.019916658  0.020534944            3 
  294000   0.79870396   -7.7972499    70.172723  0.019890228  0.020472282            5 
  295000    0.8106718   -7.8061397    70.237222  0.019841023  0.020409651            3 
  296000   0.77833946   -7.8192094    70.010651  0.019710206  0.020346933            2 
  297000   0.79634329   -7.7712842    70.567549  0.019800098  0.020284768            2 
  298000   0.78943817   -7.7964403    70.617858  0.019747723  0.020223053            3 
  299000   0.79507543   -7.7982584    70.405477  0.019622485  0.020161785            3 
  300000   0.78570906   -7.8285043    70.589871  0.019608297  0.020100378            4 
  301000   0.78757568   -7.8084687    70.483522   0.01951371  0.020039132            2 
  302000   0.77639381   -7.8356923    70.532125  0.019462507  0.019977749            2 
  303000   0.76059135   -7.8280505    70.607962  0.019419131  0.019916449            3 
  304000   0.79613177   -7.8210757    70.823433  0.019414318  0.019855371            4 
  305000   0.80300471   -7.8435242    70.724993  0.019323769  0.019794021            1 
  306000   0.76312277   -7.8598953     70.70061  0.019253979  0.019732857            2 
  307000   0.76611272   -7.8382399    70.865695  0.019236073  0.019671445            2 
  308000   0.79933961   -7.8383265    70.749726  0.019142242  0.019610686            1 
  309000   0.78398462   -7.8458734    70.707375  0.019068871  0.019549824            1 
  310000   0.77307639    -7.821036    70.752177  0.019019402  0.019488854            3 
  311000   0.76714775   -7.8637409    70.883568  0.018993453  0.019427459            1 
  312000   0.76894311   -7.8417732    70.819113  0.018915361  0.019366378            3 
  313000   0.76943778   -7.8523326    70.816144  0.018854138  0.019305595            3 
  314000   0.75751425   -7.8469977    70.931534  0.018824717  0.019245064            2 
  315000   0.77188719    -7.864136    70.995257  0.018781814  0.019184606            5 
  316000   0.76063403   -7.9009436    71.172703  0.018769173  0.019125025            3 
  317000   0.76711905   -7.8994675    71.128943   0.01869846  0.019065669            3 
  318000   0.75401952    -7.873031    71.225115  0.018664862   0.01900658            2 
  319000   0.74276464   -7.8682564     71.34087  0.018636591  0.018947666            1 
  320000    0.7637008   -7.9012304    71.398249  0.018593294  0.018888741            3 
  321000   0.75108861   -7.9033246    71.182088  0.018479254  0.018829663            4 
  322000   0.75300234   -7.9160645    71.222645  0.018432361  0.018770489            5 
  323000   0.75931242   -7.9243257    71.345442  0.018406977  0.018710828            4 
  324000   0.77502167   -7.9301697    71.482624  0.018385448  0.018652077            2 
  325000   0.75154347     -7.91938    71.450643  0.018320678   0.01859374            7 
  326000    0.7529361   -7.9227702    71.508669  0.018279312  0.018535016            2 
  327000   0.73135207   -7.9024167    71.502028   0.01822172  0.018476769            2 
  328000      0.75273   -7.9283201    71.436307  0.018149468  0.018418715            3 
  329000   0.76169673   -7.9322462    71.465195   0.01810162  0.018360752            5 
  330000   0.73464212   -7.9498751    71.617583  0.018085248  0.018302517            2 
  331000   0.73423112   -7.9295257    71.572728  0.018019317  0.018244248            3 
  332000   0.73181805   -7.9437246    71.474938  0.017940496  0.018185919            2 
  333000   0.73153358   -7.9722334    71.466874  0.017884603  0.018127707            2 
  334000   0.72888131   -7.9599745    71.441666  0.017824767  0.018069609            2 
  335000   0.72259703   -7.9845203    71.388017  0.017758213  0.018011487            1 
  336000   0.71754905   -7.9466139    71.510525  0.017735745  0.017953489            2 
  337000   0.73454736   -7.9581729    71.491746  0.017678473  0.017895645            2 
  338000   0.74167666   -7.9401216    71.748429  0.017689455  0.017838237            2 
  339000   0.73030652   -7.9826493    71.567846  0.017592883  0.017781006            4 
  340000   0.73058554   -7.9777792    71.758546  0.017587879  0.017723955            3 
  341000    0.7241715   -7.9770698    71.803214  0.017547218  0.017667278            2 
  342000    0.7230917   -7.9885022    71.651195  0.017458868   0.01761038            2 
  343000   0.70940893   -7.9873397     71.81495  0.017447753  0.017553826            3 
  344000   0.72964786   -7.9838168    71.764703   0.01738486  0.017497366            4 
  345000    0.7301585   -7.9932221    71.895548  0.017366074  0.017441328            6 
  346000   0.70911871    -8.022827    71.907189  0.017318687  0.017385127            3 
  347000   0.70777292   -8.0287755    71.736547  0.017227797  0.017329225            2 
  348000   0.71374035   -8.0222618    71.838749  0.017202766  0.017273382            2 
  349000   0.71507998   -7.9835688    71.826946  0.017150656  0.017217953            3 
  350000   0.70651508   -8.0213153    71.881163  0.017114563  0.017162058            3 
  351000   0.70844713   -8.0062963     71.90543  0.017071565  0.017106685            2 
  352000   0.71358041   -8.0144714    71.946803  0.017032861  0.017051541            3 
  353000   0.70982555   -8.0554656    71.798927    0.0169497  0.016996316            5 
  354000   0.70550769    -8.026735    71.826716  0.016908361  0.016941353            2 
  355000    0.6977745   -8.0260079    71.860818  0.016868736  0.016886424            2 
  356000   0.69407926   -8.0157761    71.961304  0.016844875  0.016831696            3 
  357000   0.69970155   -8.0617487    71.872181  0.016776886  0.016777128            2 
  358000   0.69565902   -8.0720064    71.883526  0.016732664  0.016722407            2 
  359000   0.70734981   -8.0370803    71.809796  0.016668941  0.016667919            3 
  360000   0.68648231   -8.0437595    71.901681  0.016643908  0.016613386            4 
  361000   0.70191096   -8.0483871    71.917883  0.016601543  0.016559256            2 
  362000   0.68179577    -8.077326    71.839995  0.016537752  0.016505122            2 
  363000   0.68490939    -8.086069    71.786248  0.016479855  0.016450728            5 
  364000   0.68015297   -8.0727138    72.075942  0.016500903  0.016396681            3 
  365000   0.69759574   -8.0780007    72.034993  0.016446345  0.016342868            2 
  366000   0.67509715   -8.0813784    71.884646  0.016367178  0.016289419            2 
  367000   0.68563025   -8.0754598    71.980865  0.016344429  0.016236154            3 
  368000   0.67847041   -8.0986821    71.789192  0.016256611  0.016182869            2 
  369000   0.66317056   -8.1049886    71.932267  0.016244866  0.016129705            2 
  370000   0.67828855   -8.0750807    72.105812  0.016240048  0.016077087            7 
  371000   0.68098514   -8.0812263    72.158505   0.01620811  0.016024736            3 
  372000   0.68088871   -8.0716335    71.934217  0.016114296  0.015972806            6 
  373000   0.68023935   -8.1011182    72.066859  0.016100728  0.015920845            5 
  374000   0.66987638   -8.0992309    72.050352     0.016054  0.015869018            4 
  375000   0.66491631    -8.122718    72.279794  0.016062176  0.015817349            3 
  376000   0.65967796   -8.1063331    72.214254  0.016004932  0.015765958            4 
  377000   0.66482736   -8.1234624     72.21454  0.015962542  0.015714925            2 
  378000    0.6554395   -8.1144071    72.027481  0.015879074  0.015663647            5 
  379000   0.67190366   -8.1132635    72.006676  0.015832602   0.01561252            2 
  380000   0.66670189   -8.1048881    72.118148  0.015815383  0.015561458            3 
  381000   0.66376456   -8.1193438    72.174405  0.015786178  0.015510542            3 
  382000   0.65527783   -8.1417417    72.145926   0.01573864  0.015459946            3 
  383000    0.6465854   -8.1519062    72.161328  0.015700898  0.015409263            1 
  384000   0.67498072   -8.1177516    72.093373  0.015645263  0.015358821            3 
  385000   0.65227798   -8.1188989    72.066335  0.015598774  0.015308396            5 
  386000   0.65938328   -8.1472629    72.246828  0.015597329  0.015258262            4 
  387000   0.65433615   -8.1546216     72.14381  0.015534843  0.015208296            1 
  388000   0.66099541   -8.1469292    72.153066  0.015496792  0.015158228            2 
  389000   0.64263779   -8.1517538    72.128299  0.015451649  0.015108546            2 
  390000   0.66097907   -8.1450715    72.187978  0.015424782  0.015058991            4 
  391000   0.64068763   -8.1790301    72.112018  0.015369143  0.015009707            3 
  392000    0.6299274   -8.1904116     72.04351  0.015315372  0.014960268            4 
  393000   0.62567244   -8.1723969    72.179903  0.015305323  0.014911202            2 
  394000   0.64284958   -8.1675328    72.098764  0.015249315  0.014862338            2 
  395000   0.62619341   -8.1815766     72.15089  0.015221707  0.014813551            3 
  396000   0.63292278   -8.1935722    72.196137   0.01519279  0.014765098            3 
  397000   0.61700757   -8.1863574     72.27894  0.015171902  0.014716819            4 
  398000   0.61924249   -8.1889157    72.076805  0.015091458  0.014668618            2 
  399000   0.63545842   -8.1912283    72.306563  0.015101621  0.014620542            3 
  400000   0.62889894   -8.2144388    72.145592  0.015030332  0.014572829            3 
  401000   0.62732788   -8.2026211     72.30915  0.015026839  0.014525082            2 
  402000   0.63408435    -8.220986    72.076805  0.014941294  0.014477653            2 
  403000   0.62016479   -8.1925719     72.25267  0.014940585  0.014430428            3 
  404000   0.62339352   -8.2151337    72.276939   0.01490861  0.014383434            2 
  405000   0.61644394   -8.2268126     72.21437  0.014858924  0.014336569            6 
  406000   0.62440259   -8.2227188    72.176393  0.014814531  0.014289696            4 
  407000   0.61916501   -8.2237472    72.140649  0.014770813  0.014242826            3 
  408000   0.61743999   -8.2374309    72.002502  0.014706393  0.014196035            2 
  409000   0.61296055   -8.2372637    72.170511  0.014704668  0.014149353            3 
  410000   0.59108382   -8.2486159    72.058327  0.014646001  0.014102876            4 
  411000   0.61376101   -8.2318547     72.03626  0.014605892   0.01405662            3 
  412000   0.61790244   -8.2504944    72.076716  0.014578624  0.014010372            5 
  413000   0.60012541    -8.260528      72.0658  0.014541122  0.013964404            5 
  414000   0.60710213   -8.2355549    71.985146  0.014489764  0.013918509            3 
  415000   0.60561253   -8.2554091    72.034949  0.014464849  0.013872773            3 
  416000   0.60761372   -8.2602727    71.956741  0.014414411  0.013827121            2 
  417000   0.60220371   -8.2536057    71.975578  0.014383609  0.013781509            6 
  418000   0.60010694    -8.274387    71.944127  0.014342928  0.013736207            3 
  419000   0.61128378   -8.2724571    72.028531  0.014325484   0.01369091            3 
  420000   0.59052986   -8.2636389    71.992627  0.014284251  0.013645842            2 
  421000   0.58784736   -8.2932861    71.898113  0.014231614  0.013601008            2 
  422000   0.58817982   -8.2582427    71.979169  0.014213896   0.01355616            3 
  423000   0.58567147   -8.3165811    71.970185  0.014178523  0.013511614            4 
  424000   0.58786628   -8.2822713    71.926425  0.014136483  0.013466973            4 
  425000   0.61207951   -8.2696287    71.859008  0.014090002  0.013422573            2 
  426000   0.59133095   -8.2772941    72.058915  0.014096032  0.013378196            5 
  427000   0.59012974   -8.2904421     71.86019  0.014024237  0.013333909            3 
  428000   0.58830582   -8.2967968    72.056408  0.014029674  0.013289808            3 
  429000   0.58625721   -8.3103423    71.972845  0.013980739  0.013245857            2 
  430000   0.58374046   -8.2992976    71.697195  0.013894805  0.013202041            3 
  431000   0.57964989   -8.3167832    71.822728  0.013886838  0.013158384            4 
  432000   0.58468235   -8.3167416    71.910923  0.013871706  0.013114807            4 
  433000   0.56760762   -8.3322114    71.819068  0.013821991  0.013071375            3 
  434000   0.56114112   -8.3150464    71.688938  0.013765157  0.013028172            3 
  435000   0.58342903   -8.3308433    71.677983  0.013731414   0.01298505            3 
  436000   0.56482633    -8.325863    71.774078  0.013718287  0.012942187            4 
  437000   0.55751199   -8.3176853    71.817883  0.013695248  0.012899477            5 
  438000   0.55421723   -8.3243144    71.822494  0.013664858  0.012856888            3 
  439000    0.5816572   -8.3496261    71.858766  0.013640616   0.01281459            3 
  440000   0.55471737   -8.3316141    71.887454  0.013615048  0.012772463            3 
  441000   0.56579233   -8.3479059    71.850312  0.013577156  0.012730507            3 
  442000   0.55933807    -8.314643    71.722937  0.013522424  0.012688653            2 
  443000   0.56898249   -8.3457907     71.86773  0.013519137  0.012646937            2 
  444000   0.56112228   -8.3485026    71.805495  0.013477007  0.012605339            3 
  445000    0.5522652   -8.3492413    71.758981  0.013438011   0.01256386            2 
  446000   0.54871387   -8.3548353     71.83729  0.013422513  0.012522496            3 
  447000   0.56182556   -8.3478075    71.748033  0.013375845  0.012481262            2 
  448000   0.56118346   -8.3750794    71.651221   0.01332798  0.012440177            3 
  449000   0.54929885   -8.3563002    71.697135  0.013306818  0.012399183            4 
  450000   0.55204509   -8.3717393    71.610207  0.013261149  0.012358438            3 
  451000   0.54180669   -8.3585042    71.689878  0.013246467  0.012317861            4 
  452000   0.54443855   -8.3777809    71.784755  0.013234652   0.01227735            3 
  453000    0.5387719    -8.365895    71.565338  0.013165073  0.012237046            5 
  454000   0.54712298   -8.3783654    71.674562  0.013156124  0.012196828            6 
  455000   0.54418499   -8.3696105    71.753954   0.01314175   0.01215678            5 
  456000   0.52997004   -8.3822039    71.653177  0.013094513  0.012116809            3 
  457000   0.54298731   -8.3888822    71.682447  0.013071197  0.012077096            5 
  458000   0.53704196   -8.3718843    71.661603  0.013038865  0.012037562            3 
  459000   0.53095336   -8.3882282    71.635495  0.013005718  0.011998101            5 
  460000   0.52634776   -8.3851349    71.591364   0.01296945  0.011958832            4 
  461000   0.53588509    -8.393567    71.500256  0.012924847  0.011919711            6 
  462000   0.53625665   -8.3898203     71.53202  0.012902601    0.0118808            5 
  463000   0.52498802    -8.392726    71.584534  0.012884185  0.011841948            3 
  464000   0.52463666   -8.3896124    71.489894  0.012839421  0.011803213            4 
  465000   0.53360216   -8.4025715    71.792222   0.01286599  0.011764673            5 
  466000   0.53601471   -8.3918724    71.647744  0.012812544  0.011726204            5 
  467000   0.51656163   -8.3963123    71.654591   0.01278633  0.011687981            4 
  468000   0.51587424   -8.4122495    71.514049  0.012733983  0.011649773            5 
  469000   0.51457755   -8.4145108    71.613819  0.012724559  0.011611756            5 
  470000   0.52161181   -8.4160938    71.474525  0.012672788  0.011573879            4 
  471000   0.51472469    -8.409795    71.543367  0.012658062  0.011536143            4 
  472000   0.50898174   -8.4139012    71.491916   0.01262216  0.011498577            5 
  473000   0.51795826   -8.4283059    71.531957  0.012602529  0.011461138            4 
  474000   0.50755104    -8.424988    71.544796  0.012578199  0.011423868            4 
  475000   0.51806979   -8.4299367    71.571043  0.012556323  0.011386792            4 
  476000   0.51919275   -8.4292935    71.419038  0.012503333  0.011349858            2 
  477000   0.51023411   -8.4596348    71.397071  0.012473283  0.011313068            3 
  478000   0.50525456   -8.4451094    71.546563   0.01247325  0.011276428            5 
  479000   0.50098067   -8.4377676    71.463434  0.012432748  0.011239902            3 
  480000   0.49924073   -8.4495026    71.451203  0.012404723  0.011203511            3 
  481000    0.4936696   -8.4543601    71.463626  0.012381086  0.011167207            4 
  482000    0.5024054   -8.4611643    71.392139  0.012343039  0.011131065            4 
  483000   0.49301309   -8.4682245    71.380922  0.012315549  0.011095097            3 
  484000   0.49445731   -8.4674864    71.454467  0.012302766  0.011059232            5 
  485000   0.48716594   -8.4663827    71.469784  0.012280032  0.011023538            2 
  486000   0.49533874   -8.4634461    71.348322  0.012233937  0.010987992            2 
  487000   0.50361675   -8.4477084    71.367127  0.012212034  0.010952679            4 
  488000   0.49268317   -8.4655825    71.395746  0.012191896  0.010917461            2 
  489000   0.47870071   -8.4712553    71.347755  0.012158786  0.010882401            4 
  490000   0.47762599   -8.4524801    71.393705  0.012141786  0.010847439            3 
  491000   0.48769118   -8.4759504    71.419835  0.012121493  0.010812635            4 
  492000   0.49367834   -8.4731456      71.4743  0.012106081  0.010777953            5 
  493000   0.49378455   -8.4750742    71.456091  0.012078447  0.010743452            2 
  494000    0.4692344   -8.4895232    71.417174  0.012047432   0.01070908            5 
  495000   0.47978435    -8.485007    71.340436  0.012010174  0.010674829            6 
  496000   0.47567646   -8.5015513    71.447327  0.012003919  0.010640782            3 
  497000    0.4709764   -8.4845369     71.34747  0.011963023    0.0106068            2 
  498000   0.46871055   -8.4928976    71.336778  0.011937212  0.010572954            4 
  499000   0.46527383   -8.5034002     71.25081  0.011898933  0.010539197            4 
  500000   0.46181549   -8.4869725    71.376266  0.011896044  0.010505514            4 
  501000   0.46154011   -8.4746014    71.311487  0.011861525  0.010472034            3 
  502000   0.47833962   -8.4960089     71.22167  0.011822986   0.01043863            2 
  503000    0.4600591   -8.5108427    71.251437  0.011804413  0.010405389            3 
  504000   0.46667533   -8.5099732    71.307804  0.011790311  0.010372276            5 
  505000     0.467473   -8.5176245    71.235218  0.011754986  0.010339332            2 
  506000   0.45866026   -8.5293176    71.280136  0.011739153  0.010306489            2 
  507000   0.45395545   -8.5063354    71.271075  0.011714509  0.010273879            3 
  508000   0.46390728   -8.4981606    71.402467  0.011713003   0.01024134            2 
  509000   0.45738579   -8.5230221    71.269883  0.011668285  0.010208918           10 
  510000   0.45611128   -8.5141775    71.239671  0.011640469  0.010176625            4 
  511000   0.46404698   -8.5304231    71.352842  0.011636145  0.010144496            3 
  512000   0.45468565   -8.5235501    71.172526   0.01158407  0.010112445            4 
Loop time of 1176.12 on 48 procs for 500000 steps with 4000 atoms

Performance: 73461.942 tau/day, 425.127 timesteps/s
99.4% CPU use with 48 MPI tasks x no OpenMP threads

MPI task timing breakdown:
Section |  min time  |  avg time  |  max time  |%varavg| %total
---------------------------------------------------------------
Pair    | 71.424     | 78.418     | 83.821     |  33.3 |  6.67
Neigh   | 7.5867     | 8.0691     | 8.4655     |   7.5 |  0.69
Comm    | 71.782     | 79.033     | 87.283     |  39.4 |  6.72
Output  | 0.831      | 0.83167    | 0.83908    |   0.1 |  0.07
Modify  | 996.57     | 999.81     | 1002.8     |   4.2 | 85.01
Other   |            | 9.955      |            |       |  0.85

Nlocal:        83.3333 ave          90 max          76 min
Histogram: 2 0 7 4 8 9 4 11 2 1
Nghost:        2014.94 ave        2033 max        1994 min
Histogram: 2 2 7 5 5 7 4 8 5 3
Neighs:        12985.3 ave       14604 max       11371 min
Histogram: 1 3 6 5 6 12 8 3 2 2
FullNghs:      25969.1 ave       28449 max       23431 min
Histogram: 2 1 1 14 6 8 6 7 2 1

Total # of neighbors = 1246515
Ave neighs/atom = 311.62875
Neighbor list builds = 26816
Dangerous builds = 0

#clear
#
#next RN
#
#jump SELF
Total wall time: 0:19:39
