
units lj                  # Use reduced LJ style units
atom_style atomic         # Uncharged point particles
atom_modify map hash      # Needed for indexing of clusters etc
                          # Used to be able to find where atoms are in relation to each other.

lattice fcc 1.0 spacing 1 1 1
Lattice spacing in x,y,z = 1.5874011 1.5874011 1.5874011
region box block 0 10 0 10 0 10 units lattice
create_box 2 box
Created orthogonal box = (0.0000000 0.0000000 0.0000000) to (15.874011 15.874011 15.874011)
  3 by 4 by 4 MPI processor grid
create_atoms 1 box
Created 4000 atoms
  using lattice units in orthogonal box = (0.0000000 0.0000000 0.0000000) to (15.874011 15.874011 15.874011)
  create_atoms CPU = 0.003 seconds
set type 1 type/fraction 2 0.08 78393
Setting atom values ...
  344 settings made for type/fraction
mass 1 1.0
mass 2 1.0
pair_style lj/cut  3.5
pair_modify tail  yes
pair_coeff 1  1  1.0  1.0   # Intearaction between 1 and 1 set with epsilon = 1 and sigma = 1
pair_coeff 1  2  1.5  0.8
pair_coeff 2  2  0.5  0.88

write_data data.0
System init for write_data ...
Neighbor list info ...
  update every 1 steps, delay 10 steps, check yes
  max neighbors/atom: 2000, page size: 100000
  master list distance cutoff = 3.8
  ghost atom cutoff = 3.8
  binsize = 1.9, bins = 9 9 9
  1 neighbor lists, perpetual/occasional/extra = 1 0 0
  (1) pair lj/cut, perpetual
      attributes: half, newton on
      pair build: half/bin/atomonly/newton
      stencil: half/bin/3d
      bin: standard
WARNING: Not all mixed pair coeffs generated from mixing. Use write_data with 'pair ij' option to store all pair coeffs. (../write_data.cpp:312)


#############################
#   M E L T   S Y S T E M   #
#############################

velocity all create 2.4 3143649 mom yes dist gaussian # Assign velocities
                                                    # Temperature 2.4, random number seed, zero linear momentum
                                                                                # Gaussian distribution

timestep 0.002   # simulation timestep
thermo 1000       # output thermodynamic data every 1000 steps bf 100

# Define a fix  in this case with index 1 applied to all
# particles in the simulation. This fix is for simulations
# in the anisotropic NPT ensemble. Note that we use the MTK
# correction.
fix 1 all npt temp 2.4 2.4 0.1 iso 5.68 5.68 0.5 mtk yes tchain 5 pchain 5 # Use NPT ensemble
                                                                         # Set temperature and pressure and damping
                                                                         # Numbers of thermostats in chain and in barostat
run 10000          # run for 10000 steps
Per MPI rank memory allocation (min/avg/max) = 3.642 | 3.644 | 3.648 Mbytes
Step Temp E_pair E_mol TotEng Press Volume 
       0          2.4   -7.8205278            0   -4.2214278   -2.8943486         4000 
    1000     2.411205   -4.5626466            0  -0.94674322     5.720224    4898.8848 
    2000    2.4179914   -4.5532018            0  -0.92712152    5.6545582    4924.2435 
    3000    2.4016912   -4.5410187            0  -0.93938247    5.6321147    4926.3309 
    4000    2.4033207   -4.5790761            0  -0.97499627    5.6879524    4903.4339 
    5000     2.421124   -4.5799227            0  -0.94914458    5.5795395    4913.5752 
    6000    2.3899381   -4.5249866            0  -0.94097574    5.8376329    4916.1822 
    7000    2.4327141   -4.5942572            0  -0.94609832    5.6179386    4904.4251 
    8000    2.3816907    -4.583262            0   -1.0116191    5.6764252    4896.5749 
    9000    2.3852695   -4.5609223            0  -0.98391252    5.5714365    4926.1593 
   10000    2.3870202   -4.6153417            0   -1.0357065    5.7319182    4867.8179 
Loop time of 2.18847 on 48 procs for 10000 steps with 4000 atoms

Performance: 789591.646 tau/day, 4569.396 timesteps/s
99.6% CPU use with 48 MPI tasks x no OpenMP threads

MPI task timing breakdown:
Section |  min time  |  avg time  |  max time  |%varavg| %total
---------------------------------------------------------------
Pair    | 0.88327    | 0.95207    | 1.0605     |   3.2 | 43.50
Neigh   | 0.18875    | 0.19684    | 0.21128    |   1.0 |  8.99
Comm    | 0.68838    | 0.76331    | 0.8405     |   3.7 | 34.88
Output  | 0.0002704  | 0.00027652 | 0.0003415  |   0.0 |  0.01
Modify  | 0.21733    | 0.26125    | 0.31145    |   4.8 | 11.94
Other   |            | 0.01472    |            |       |  0.67

Nlocal:        83.3333 ave          94 max          73 min
Histogram: 2 2 3 7 12 10 5 5 0 2
Nghost:        1440.38 ave        1462 max        1420 min
Histogram: 4 3 4 4 10 7 5 6 3 2
Neighs:        7826.46 ave        9162 max        6748 min
Histogram: 4 1 5 10 10 10 4 2 1 1

Total # of neighbors = 375670
Ave neighs/atom = 93.917500
Neighbor list builds = 901
Dangerous builds = 172

# Equilibrate just above the melting temperature to avoid step fn in T

fix 1 all npt temp 1.25 1.25 0.1 iso 5.68 5.68 0.5 mtk yes tchain 5 pchain 5
run 2000
Per MPI rank memory allocation (min/avg/max) = 3.642 | 3.644 | 3.648 Mbytes
Step Temp E_pair E_mol TotEng Press Volume 
   10000    2.3870202   -4.6153417            0   -1.0357065    5.7319182    4867.8179 
   11000    1.2610884   -6.1410632            0   -4.2499035    5.5984946    4057.1939 
   12000     1.251084   -6.1214649            0   -4.2453081    5.6587006    4058.9279 
Loop time of 0.479012 on 48 procs for 2000 steps with 4000 atoms

Performance: 721484.518 tau/day, 4175.258 timesteps/s
99.6% CPU use with 48 MPI tasks x no OpenMP threads

MPI task timing breakdown:
Section |  min time  |  avg time  |  max time  |%varavg| %total
---------------------------------------------------------------
Pair    | 0.20594    | 0.22474    | 0.25072    |   1.9 | 46.92
Neigh   | 0.031346   | 0.033385   | 0.034732   |   0.4 |  6.97
Comm    | 0.14332    | 0.16512    | 0.18752    |   2.4 | 34.47
Output  | 5.3075e-05 | 5.4189e-05 | 6.7607e-05 |   0.0 |  0.01
Modify  | 0.045789   | 0.051042   | 0.05838    |   1.5 | 10.66
Other   |            | 0.004664   |            |       |  0.97

Nlocal:        83.3333 ave          90 max          76 min
Histogram: 3 1 7 3 4 13 5 6 2 4
Nghost:        1630.62 ave        1648 max        1616 min
Histogram: 5 3 5 8 7 8 1 6 3 2
Neighs:        9398.67 ave       10250 max        8640 min
Histogram: 3 5 7 4 5 9 6 4 1 4

Total # of neighbors = 451136
Ave neighs/atom = 112.78400
Neighbor list builds = 142
Dangerous builds = 8

#############################
# L I N E A R  Q U E N C H  #
#############################

# Define solid atoms. This closely follows ten Wolde  Ruiz-Montero and Frenkel  Faraday Discuss  1996  104  93-110
# Compute components of the per-atom q6 vector
compute q6 all orientorder/atom degrees 1 6 components 6 nnn NULL cutoff 1.3 # compute the Q6 parameter.
                                                                             # Use all neighbours within 1.3 unit cell.

# get number of connections
compute coord_number all coord/atom orientorder q6 0.5

# An atom is solid if it has 8 or more connections (of a possible 14)
variable is_solid atom c_coord_number>=8
group solid dynamic all var is_solid    # Must be dynamic to update
dynamic group solid defined

# do clustering
compute cluster solid cluster/atom 1.3 # Create a cluster where all atoms within are solid and max 1.3 units from another member

# define chunks one chunk per cluster
compute clus_chunks solid chunk/atom c_cluster nchunk every compress yes  # Says which atoms are in which chunk

# count the size of each chunk
compute size_chunks solid property/chunk clus_chunks count


# Find the maximum entry in the vector of chunk sizes
variable max_n equal max(c_size_chunks)


# Thermo style which includes this variable
# thermo_style custom step temp pe vol v_max_n

thermo ${N}  # Print the thermo information every 100 steps
thermo 1000  

# Reset the npt fix at a lower temperature (below freezing)
fix 1  all npt temp  ${temp} ${temp}  0.1  iso  5.68  5.68  0.5  mtk yes tchain  5  pchain  5
fix 1  all npt temp  0.45 ${temp}  0.1  iso  5.68  5.68  0.5  mtk yes tchain  5  pchain  5
fix 1  all npt temp  0.45 0.45  0.1  iso  5.68  5.68  0.5  mtk yes tchain  5  pchain  5

dump dmp2 all dcd ${N} traj.dcd
dump dmp2 all dcd 1000 traj.dcd


compute msd all msd com yes
variable twopoint equal c_msd[4]/6/(step*dt+1.0e-6)
fix 9 all vector 10 c_msd[4]
variable fit equal slope(f_9)/6/(10*dt)
thermo_style custom step temp pe c_msd[4] v_twopoint v_fit v_max_n

fix 1 all npt temp 1.25 ${temp} 0.1 iso 5.68 5.68 0.5 mtk yes tchain 5 pchain 5
fix 1 all npt temp 1.25 0.45 0.1 iso 5.68 5.68 0.5 mtk yes tchain 5 pchain 5
run 2000000 # 5000000  # Run for this many steps
Neighbor list info ...
  update every 1 steps, delay 10 steps, check yes
  max neighbors/atom: 2000, page size: 100000
  master list distance cutoff = 3.8
  ghost atom cutoff = 3.8
  binsize = 1.9, bins = 9 9 9
  4 neighbor lists, perpetual/occasional/extra = 1 3 0
  (1) pair lj/cut, perpetual
      attributes: half, newton on
      pair build: half/bin/atomonly/newton
      stencil: half/bin/3d
      bin: standard
  (2) compute orientorder/atom, occasional
      attributes: full, newton on
      pair build: full/bin/atomonly
      stencil: full/bin/3d
      bin: standard
  (3) compute coord/atom, occasional
      attributes: full, newton on
      pair build: full/bin/atomonly
      stencil: full/bin/3d
      bin: standard
  (4) compute cluster/atom, occasional
      attributes: full, newton on
      pair build: full/bin/atomonly
      stencil: full/bin/3d
      bin: standard
Per MPI rank memory allocation (min/avg/max) = 9.748 | 9.751 | 9.754 Mbytes
Step Temp PotEng c_msd[4] v_twopoint v_fit v_max_n 
   12000     1.251084   -6.1214649 4.6335717e-30 3.217758e-32 8.3333333e+20            2 
   13000    1.2594562   -6.1127069   0.55407652 0.0035517724  0.045542439            1 
   14000     1.247673   -6.1385361    1.1236633 0.0066884719  0.046231313            1 
   15000    1.2516906   -6.1545798    1.6254088 0.0090300483  0.045569107            2 
   16000    1.2552721   -6.0976418    2.1937197  0.011425623  0.044914724            2 
   17000    1.2390512   -6.1753198    2.7107869  0.013288171  0.044975003            5 
   18000    1.2283085   -6.1696779    3.2432781  0.015015176  0.044643208            3 
   19000    1.2165868   -6.1716706    3.8205431  0.016756768  0.044705948            2 
   20000      1.24243   -6.1309445    4.3710661  0.018212775  0.044980153            3 
   21000    1.2310114   -6.1704713     4.979472  0.019759809  0.045245798            2 
   22000    1.2106816   -6.1440512    5.6122646  0.021258577  0.045827421            1 
   23000    1.2618611   -6.1232129    6.1351132  0.022228671  0.046234869            3 
   24000    1.2509054   -6.1972645    6.6084075  0.022945859  0.046348836            1 
   25000    1.2283864   -6.1547398    7.1451072  0.023817024  0.046268968            3 
   26000    1.2449997   -6.1706435    7.6154911  0.024408625  0.046043293            2 
   27000    1.2391574   -6.1581585    8.1129939  0.025040104  0.045721797            3 
   28000    1.2273521    -6.175554    8.5753753   0.02552195  0.045478769            2 
   29000    1.2850326   -6.1038946    9.1365895  0.026254567  0.045215501            1 
   30000    1.2456749   -6.1748181    9.7176419  0.026993449   0.04512339            3 
   31000     1.213031   -6.1355984    10.293378   0.02767037  0.045066097            2 
   32000    1.2829114   -6.1488157    10.853279  0.028263747  0.045063058            2 
   33000    1.2595977   -6.1611862    11.370691  0.028713867  0.045056763            2 
   34000    1.2472567   -6.1235191    11.933215  0.029248076  0.045019013            3 
   35000    1.2436608   -6.1690917    12.488145  0.029733678  0.045016243            3 
   36000    1.2241759   -6.1509016    13.036523  0.030177137   0.04503439            4 
   37000    1.2434003    -6.129358    13.494612  0.030393269  0.045015939            1 
   38000    1.2574963   -6.1509298    13.983242  0.030665005  0.044965321            3 
   39000    1.2532308   -6.1547415    14.497717  0.030978027  0.044894566            3 
   40000    1.2527635   -6.1713887    14.871408  0.030982099  0.044775549            3 
   41000    1.2581629   -6.1263436    15.563817  0.031633774  0.044688649            4 
   42000    1.2198429   -6.1934358    15.940492   0.03162796   0.04463702            4 
   43000    1.2239373   -6.1364149    16.493427  0.031964006  0.044549289            4 
   44000    1.2217092   -6.1834429    17.095592  0.032378014  0.044471715            2 
   45000    1.2644674   -6.1591696    17.691526  0.032762084  0.044459526            3 
   46000    1.2560056   -6.1740735    18.210398  0.032989852  0.044444954            2 
   47000    1.2579972   -6.1717971    18.848205  0.033418803  0.044455137            5 
   48000    1.2248022    -6.170929    19.356069  0.033604286  0.044466856            1 
   49000    1.2211653   -6.1308977    19.981289  0.033981784  0.044483035            1 
   50000    1.2231248   -6.1453035    20.548283  0.034247137  0.044535192            4 
   51000    1.2481283   -6.1729235     21.09569  0.034470081  0.044576498            1 
   52000    1.2167472   -6.1733572    21.639674  0.034678965  0.044620379            1 
   53000    1.2598946   -6.2147458    22.165889  0.034852027  0.044665791            3 
   54000     1.190046     -6.20086    22.688827  0.035013622  0.044710125            3 
   55000    1.2476001   -6.1479166    23.203805   0.03515728  0.044728806            4 
   56000    1.2370105   -6.1608386     23.87171  0.035523377  0.044763776            2 
   57000    1.2260938   -6.1415383    24.580767  0.035936794  0.044819489            3 
   58000    1.2267213   -6.1744491    25.040934  0.035978353  0.044871771            3 
   59000    1.2518429   -6.1576429    25.625069    0.0361936  0.044938411            2 
   60000    1.2368373   -6.1493254    26.296343  0.036522698  0.045018275            3 
   61000    1.2508611   -6.1662697    26.933174  0.036793953  0.045092188            1 
   62000    1.2196989   -6.1493169    27.297331   0.03668996  0.045144898            4 
   63000    1.2405404   -6.1638199    27.697972  0.036637528   0.04517605            2 
   64000    1.2075159   -6.1901648    28.245688  0.036778239  0.045192125            1 
   65000    1.2290583    -6.154443    28.628344  0.036703005  0.045195559            1 
   66000    1.2165732   -6.1626513    28.973542  0.036582755  0.045158071            3 
   67000    1.2364294   -6.1761338    29.584979  0.036797237  0.045122025            3 
   68000    1.2310463    -6.196399    30.035813  0.036808595   0.04508968            2 
   69000    1.2203695   -6.2279316    30.570582  0.036920992  0.045050014            2 
   70000    1.2151933   -6.1457583    31.093303  0.037015837  0.045008736            2 
   71000    1.2307024   -6.1721816    31.534126  0.037011885  0.044968921            2 
   72000    1.2429869   -6.2013389    31.913742  0.036937201  0.044920822            3 
   73000    1.2550129   -6.1857664    32.305164  0.036878041  0.044846976            3 
   74000    1.2226339   -6.1693301    32.825468  0.036965617    0.0447689            2 
   75000    1.2388404   -6.1658983    33.145964  0.036828849  0.044685137            3 
   76000    1.2214242     -6.17191    33.773074   0.03703188  0.044603496            2 
   77000    1.2405516   -6.1739303    34.296812  0.037117761  0.044539976            2 
   78000    1.2404371     -6.14566    34.864465   0.03724836  0.044486983            3 
   79000    1.2131589   -6.1610766    35.345806  0.037284605  0.044430585            3 
   80000    1.2246005   -6.2232738    35.862965  0.037357255  0.044371517            4 
   81000    1.2251962   -6.1409115    36.565911  0.037619249  0.044319604            4 
   82000    1.1941901     -6.19861    36.949736  0.037550544  0.044270562            2 
   83000    1.2536016   -6.2115697    37.310852  0.037460695   0.04422634            3 
   84000      1.23555   -6.2139766    37.863432  0.037562929  0.044178254            2 
   85000     1.258959   -6.1643618    38.653992   0.03789607  0.044140792            3 
   86000    1.2292856   -6.1825584    39.165408  0.037950976  0.044116492            3 
   87000    1.2452671   -6.2045514    39.739351  0.038064512  0.044100692            2 
   88000    1.2291794   -6.1958641    40.358195  0.038217988   0.04408744            2 
   89000    1.2379042    -6.208996    40.769533   0.03817372  0.044077057            6 
   90000    1.1960202   -6.2315779    41.321012  0.038260197  0.044067959            1 
   91000    1.2202328   -6.1788498    41.755471  0.038237611  0.044049617            4 
   92000    1.2230997   -6.2113299    42.412028  0.038416692  0.044032444            3 
   93000    1.2393428   -6.2100617    42.939636  0.038476376  0.044023857            2 
   94000    1.2272077   -6.1669039    43.499666  0.038563533  0.044011784            6 
   95000    1.2020227   -6.2141678    44.061256  0.038650224   0.04400782            4 
   96000    1.2126041   -6.1689027    44.718353  0.038818015   0.04400976            2 
   97000     1.199471   -6.1890073    45.300685  0.038918114  0.044010476            4 
   98000    1.2085311   -6.1884415    45.538515  0.038723227  0.044007538            3 
   99000    1.2177976   -6.1823734    46.022517  0.038739492  0.043992917            2 
  100000    1.2092425   -6.1806582     46.56502  0.038804183  0.043982536            3 
  101000    1.2068485   -6.1751056    47.187383  0.038933484  0.043974906            2 
  102000    1.2161233   -6.1869912    47.702733  0.038972821  0.043968731            3 
  103000    1.2062881   -6.2072072    48.404116  0.039161906  0.043965772            2 
  104000    1.2134147   -6.1978705    48.716594  0.039035732  0.043965198            2 
  105000     1.202286   -6.2129924    49.758182  0.039490621   0.04397197            5 
  106000    1.2048818   -6.2413105    49.762318  0.039121319  0.043976927            3 
  107000    1.2047512   -6.2097704    50.221604  0.039113398  0.043971971            4 
  108000    1.2208725   -6.1610466     50.81149  0.039206396  0.043962645            4 
  109000    1.2260394   -6.2198941    51.130542  0.039090628  0.043947624            2 
  110000    1.2097174   -6.1873051    51.571134   0.03906904   0.04392385            6 
  111000    1.2285315   -6.2134268    52.185506  0.039178307  0.043902985            8 
  112000    1.2071543   -6.2044961    52.712946  0.039220942  0.043886341            3 
  113000    1.2003072    -6.217959    53.339526  0.039335933  0.043876658            3 
  114000    1.2274496    -6.211613    53.706452  0.039259102  0.043863361            3 
  115000     1.200312   -6.1878925    54.345692  0.039380936  0.043850573            4 
  116000    1.1966274   -6.1936656    55.070775  0.039562338  0.043841111            5 
  117000    1.2142524   -6.1861166    55.538405  0.039557268  0.043833082            2 
  118000    1.1935597   -6.2245113    55.818101  0.039419563  0.043823984            3 
  119000    1.2236006   -6.2470019    56.401529  0.039496869  0.043810266            3 
  120000    1.2328781   -6.2119669    56.533205   0.03925917  0.043795881            3 
  121000    1.2036807    -6.222536    57.224987  0.039411148  0.043777749            4 
  122000    1.2171501   -6.2056864    57.589974  0.039337414  0.043759205            3 
  123000    1.2059218   -6.2274964     58.11881  0.039375887   0.04373855            2 
  124000    1.2209063   -6.2206389    58.404072  0.039250048  0.043715065            4 
  125000    1.2052521    -6.209032    59.028779  0.039352519  0.043694275            2 
  126000    1.2246573   -6.2141105    59.491495  0.039346227  0.043671807            2 
  127000    1.1923964   -6.2331084    59.690396  0.039166926  0.043642992            3 
  128000    1.2130316   -6.1913285     60.41165  0.039330501  0.043606627            2 
  129000    1.1967971    -6.238115    60.740089  0.039237783  0.043574775            2 
  130000     1.218236   -6.2486352    61.185713   0.03922161  0.043541823            4 
  131000    1.1977909   -6.2743708    61.682357  0.039238141  0.043513918            3 
  132000    1.2283055   -6.2651915    62.249885   0.03929917  0.043486571            3 
  133000    1.2037059   -6.1943736    62.686832  0.039277464  0.043461834            5 
  134000    1.2161875   -6.2432919    63.193224  0.039299268  0.043434739            5 
  135000    1.2004189   -6.2701752    63.277562  0.039060223  0.043402731            5 
  136000    1.2080253   -6.2476127    63.782722   0.03908255  0.043366901            4 
  137000    1.1894016   -6.2481308    64.438838  0.039196373  0.043328271            5 
  138000     1.184477    -6.246513    64.731447  0.039089038  0.043291485            4 
  139000    1.2004221   -6.1773993    65.349362  0.039178274  0.043254698            5 
  140000    1.1982899   -6.2267421    65.891812  0.039221317  0.043216862            3 
  141000     1.212938    -6.211896    66.404338  0.039246062  0.043179483            4 
  142000    1.1887006   -6.2430222    66.697431  0.039141685  0.043143745            2 
  143000    1.2281479   -6.1987445    67.224725  0.039175248  0.043106879            1 
  144000    1.1903189   -6.1908797    67.656205  0.039152896  0.043071117            3 
  145000    1.1978113   -6.2886874    68.174021  0.039180471   0.04303605            4 
  146000    1.2061945   -6.2463346    68.793622  0.039265766  0.043003327            2 
  147000    1.1961715   -6.2182848    69.363703  0.039321827  0.042969894            1 
  148000    1.2264821    -6.245976    69.726456  0.039260392  0.042940571            3 
  149000     1.200669   -6.2315062    70.456902  0.039405426  0.042912553            2 
  150000    1.2178743   -6.2515868     70.62172  0.039234289  0.042884692            4 
  151000    1.2000419   -6.2336356    70.951431  0.039156419  0.042852679            2 
  152000    1.2096092   -6.2324824    71.625022  0.039268104  0.042819855            4 
  153000    1.1832702   -6.2741717    71.940818  0.039183452  0.042789558            2 
  154000    1.1800098   -6.2607356    72.628931  0.039301369  0.042759409            3 
  155000    1.1922947   -6.2599513    72.693147  0.039082337  0.042726148            2 
  156000    1.2045592   -6.2642596    73.383781  0.039200738  0.042690867            2 
  157000     1.182844   -6.2760343    73.743706  0.039142094  0.042660436            2 
  158000    1.2013851   -6.2374679    74.705599  0.039401687  0.042631383            2 
  159000    1.1733637   -6.2314041    75.126323  0.039374383   0.04260413            3 
  160000    1.1821661   -6.2381159    75.381424  0.039261158  0.042578239            3 
  161000     1.148444   -6.2830362    75.725079  0.039195175  0.042548769            2 
  162000    1.1917454   -6.2859809    76.044413  0.039117496  0.042515462            2 
  163000    1.1712862   -6.2393845    76.429363  0.039074316  0.042482982            4 
  164000     1.217451   -6.2204421    76.975666  0.039113651  0.042448994            1 
  165000    1.1841965   -6.1959119      77.6663  0.039225404  0.042417556            4 
  166000    1.1838143   -6.2081421    77.980025  0.039146599  0.042388505            3 
  167000    1.1661631   -6.2733157    78.484273  0.039163809  0.042361317            2 
  168000    1.1994588   -6.2456089    79.237913   0.03930452  0.042334023            2 
  169000    1.1958857   -6.2929316    79.361416  0.039132848  0.042307427            3 
  170000    1.2018668   -6.2389782    79.842068  0.039138269  0.042282493            2 
  171000    1.1869009   -6.2383342    80.549799  0.039254288  0.042255105            5 
  172000    1.1841099   -6.2438536    81.325948  0.039402107  0.042229416            2 
  173000    1.1877132   -6.2470949    81.712658  0.039360625  0.042204192            4 
  174000     1.170832   -6.2509849    82.373981   0.03945114  0.042181732            2 
  175000    1.2039531   -6.2445324     83.08475  0.039564167  0.042159128            1 
  176000    1.1964682   -6.2674485    83.089306  0.039341527  0.042137583            6 
  177000    1.2050407    -6.233029    83.877037   0.03949013  0.042118212            6 
  178000    1.1586792   -6.2193798    84.631788  0.039621624   0.04210204            2 
  179000    1.1837877   -6.2398049    84.837714  0.039496142  0.042084667            1 
  180000    1.1703525   -6.2536493    84.749186  0.039235734  0.042064869            3 
  181000    1.1778298   -6.2416274    85.276762  0.039261861  0.042041621            4 
  182000    1.1968931   -6.2955126     85.35809  0.039083375  0.042017276            3 
  183000    1.1710234   -6.2429166    86.293529  0.039295778  0.041992333            2 
  184000     1.171494    -6.258204     86.34105  0.039103736  0.041967195            3 
  185000    1.1881653   -6.2619114    86.580715  0.039000322  0.041939544            2 
  186000     1.191697   -6.2569946     87.02773  0.038990918  0.041909997            2 
  187000    1.1852878   -6.2602001    87.256449  0.038884336  0.041878276            3 
  188000    1.1833507   -6.2448087    87.852134  0.038941549  0.041848923            1 
  189000    1.1860171    -6.238526    88.442473  0.038995799  0.041817484            4 
  190000    1.1730775   -6.2421003    88.719217  0.038911937  0.041786896            9 
  191000    1.1888179    -6.246576    89.227415  0.038929937  0.041756334            6 
  192000    1.1843208   -6.3143307    89.749409  0.038953736  0.041729582            4 
  193000     1.180109   -6.2721675    90.402433  0.039033866   0.04170439            2 
  194000    1.1849376   -6.2636002    90.541642  0.038892458   0.04167664            3 
  195000    1.1830147    -6.276166    91.350812  0.039038808  0.041647517            3 
  196000    1.1743574   -6.2708676    91.244567  0.038794459  0.041618741            3 
  197000    1.1740522   -6.2476763    92.022037  0.038926412  0.041590137            2 
  198000    1.1843214   -6.2758734    92.270343  0.038834319  0.041560719            2 
  199000    1.1622073   -6.2552279    92.717205    0.0388263  0.041528568            5 
  200000    1.1718505   -6.2367303      93.0474   0.03876975  0.041498483            3 
  201000    1.1817626   -6.2850935    93.133934  0.038612742  0.041465555            2 
  202000    1.2081084   -6.2659489     93.59154  0.038610371  0.041430574            4 
  203000    1.1772175   -6.2613966    94.201665  0.038670634  0.041395258            2 
  204000    1.1608779   -6.2905535    94.310006  0.038525329   0.04136007            4 
  205000    1.1603071   -6.3167076    94.614784  0.038461294  0.041322891            2 
  206000    1.1873082   -6.2876061    95.398852  0.038591769  0.041286323            3 
  207000     1.174305   -6.2864828    95.883975  0.038600634  0.041251176            1 
  208000    1.1726801   -6.3070795    96.080627  0.038493841  0.041217922            3 
  209000    1.1649894   -6.2723396    97.089627  0.038711972  0.041184596            6 
  210000    1.1635806   -6.2931666    97.418332  0.038658068  0.041153176            3 
  211000    1.1834952   -6.2650167    97.572671   0.03853581  0.041122109            3 
  212000    1.1720914   -6.2764179    98.339295  0.038655383  0.041090861            7 
  213000    1.1730645   -6.2374464    98.913068  0.038698383  0.041059343            2 
  214000    1.1254995   -6.3199609    98.541529   0.03837287  0.041027936            4 
  215000    1.1773422   -6.2954221    99.533266  0.038578785  0.040997219            5 
  216000    1.1443501   -6.2782292    99.986689  0.038575111  0.040967151            6 
  217000    1.1421606   -6.2631904    100.62637     0.038643  0.040939528            2 
  218000     1.155475   -6.2713361    101.04606  0.038626168  0.040913778            2 
  219000    1.1685527   -6.2940823    101.40929   0.03858801  0.040889229            4 
  220000    1.1736883   -6.2849801    101.86677  0.038585897  0.040864582            1 
  221000    1.1721694   -6.2913655    102.45411  0.038632771  0.040837506            2 
  222000    1.1422569   -6.2876247    103.16873  0.038726999   0.04081132            2 
  223000    1.1610721   -6.3134188    103.31599  0.038608366   0.04078578            2 
  224000    1.1757159   -6.3054996    103.36336  0.038453633   0.04076035            7 
  225000    1.1480932   -6.3096691     104.6542  0.038760815  0.040735695            2 
  226000    1.1745259   -6.3254475    104.79873    0.0386426  0.040710368            3 
  227000    1.1653825   -6.2707295    105.25482    0.0386398  0.040688611            5 
  228000     1.152786   -6.3050721    105.85837  0.038690925  0.040665581            3 
  229000     1.165631   -6.2941127    106.30369   0.03868402  0.040644262            2 
  230000    1.1716767   -6.2674102    106.72407  0.038668141  0.040622908            3 
  231000    1.1672923   -6.2601803    107.11587  0.038642088  0.040599856            2 
  232000    1.1387721   -6.2967403    107.04804  0.038451163  0.040576525            4 
  233000    1.1837572   -6.2944179    107.45037  0.038430031  0.040551687            3 
  234000     1.164268   -6.3300249    107.96861  0.038450359  0.040526462            4 
  235000    1.1702936   -6.3288662    108.29728  0.038403292  0.040500148            1 
  236000    1.1584515   -6.2997997    108.42027  0.038283995  0.040474299            4 
  237000      1.13614   -6.3276312    108.99112  0.038323178  0.040447774            1 
  238000    1.1828035   -6.3146421    109.70662  0.038412683  0.040422047            4 
  239000    1.1516942   -6.3072863    110.14135  0.038403537  0.040398143            4 
  240000    1.1601919   -6.2907832    110.63731  0.038415734  0.040373756            3 
  241000    1.1537974   -6.3037543    110.77844  0.038305131   0.04035069            3 
  242000    1.1619236   -6.2986134    111.39031  0.038357544  0.040325722            2 
  243000    1.1809383   -6.3365422    111.38631  0.038198324  0.040298643            6 
  244000    1.1606354   -6.2938305     111.7881  0.038178995  0.040270819            4 
  245000    1.1295816   -6.3002442    112.23076  0.038173729  0.040243173            3 
  246000    1.1496807   -6.2968766    113.16621  0.038335437  0.040216094            2 
  247000    1.1340579    -6.313703    113.28483  0.038220253  0.040190785            4 
  248000    1.1678959   -6.2889066    113.92281  0.038280515  0.040165597            4 
  249000    1.1726324   -6.3006559    114.33553  0.038264903  0.040141995            4 
  250000    1.1446842   -6.3302048     114.6616  0.038220532  0.040116375            3 
  251000    1.1579094   -6.2739295    114.88291  0.038141736  0.040090529            5 
  252000    1.1508162   -6.2793635    115.36977   0.03815138  0.040064861            2 
  253000     1.144701   -6.3210607    115.92627  0.038183885  0.040038537            5 
  254000    1.1351281   -6.3334407    116.05786  0.038076725  0.040011684            3 
  255000    1.1437001   -6.3178467    116.35507  0.038024534  0.039983472            3 
  256000    1.1539306   -6.3363171    116.31944  0.037864402  0.039953432           11 
  257000     1.151306    -6.323769    116.91495  0.037910166   0.03992292            5 
  258000    1.1644276   -6.2732176    117.23869  0.037867793  0.039892639            2 
  259000    1.1322039   -6.3149786    117.83781  0.037914353  0.039863454            3 
  260000    1.1610737   -6.3042079     117.8727  0.037779711   0.03983204            2 
  261000    1.1509329   -6.2919629    118.26485  0.037760168  0.039800565            2 
  262000    1.1593035   -6.2843985    119.13916  0.037894135  0.039772591            2 
  263000    1.1145762   -6.3316622    119.16634  0.037758662  0.039742938            3 
  264000    1.1605579   -6.3319908    119.79102  0.037812821  0.039712758            3 
  265000    1.1450994   -6.3294016    119.62926  0.037619264  0.039682724            7 
  266000        1.147   -6.3244606    120.40098  0.037719605  0.039652561            7 
  267000    1.1456349   -6.3620052    120.44441  0.037591889  0.039623148            2 
  268000    1.1477724   -6.3269804    120.92665  0.037601571   0.03959328            3 
  269000    1.1203284   -6.3637936    121.62344  0.037677646  0.039563491            3 
  270000     1.141202   -6.3209331    121.42207  0.037475946  0.039532984            3 
  271000    1.1250774    -6.326489    121.65743  0.037410034  0.039501701            5 
  272000    1.1279112   -6.3121458    122.31104  0.037472746  0.039468526            4 
  273000    1.1238104   -6.3342213    122.49947  0.037393002    0.0394353            3 
  274000    1.1536205   -6.3337232    122.58987  0.037284023   0.03940118            2 
  275000    1.1554093   -6.3594848    123.22745  0.037341652  0.039367082            2 
  276000     1.175186   -6.3047419    123.51861  0.037294268   0.03933337            5 
  277000     1.136241   -6.2982147    124.16511  0.037354126  0.039299976            3 
  278000    1.1313186   -6.3064715    124.26805  0.037250616  0.039266756            2 
  279000    1.1801099    -6.327695    124.45416  0.037172689  0.039233233            4 
  280000    1.1292539   -6.2948738    125.42571   0.03732908  0.039201422            2 
  281000     1.119875   -6.3013986    126.09928  0.037395992  0.039168959            4 
  282000    1.1377564   -6.3057088    126.67809  0.037434422  0.039138999            2 
  283000    1.1323056   -6.3507278    126.09801  0.037131333  0.039107016            3 
  284000    1.1148229   -6.3203271    126.73968  0.037188872  0.039075552            3 
  285000    1.1062055   -6.3475063    127.26808   0.03721289  0.039044881            3 
  286000    1.1486575     -6.38382    127.66018  0.037197022  0.039015459            2 
  287000    1.1281228   -6.3140729    128.28925  0.037250072  0.038985641            3 
  288000    1.1391496   -6.3579575    128.45244  0.037167952   0.03895571            2 
  289000    1.1391261   -6.3725727     128.4265  0.037031863  0.038925706            7 
  290000    1.1255196   -6.3566871    129.26632  0.037145493  0.038894932            3 
  291000    1.1342553   -6.3207804    129.53564  0.037094972  0.038864849            4 
  292000    1.1141033   -6.2802284    129.97386  0.037092998  0.038835342            2 
  293000    1.1126729   -6.3188342    130.38082  0.037082145  0.038806951            2 
  294000    1.1250454   -6.3292157    131.00001  0.037131523  0.038780102            3 
  295000    1.1714632   -6.3368903    131.92004  0.037265547  0.038755032            6 
  296000    1.1351246   -6.3114767    132.03317  0.037171501  0.038730037            3 
  297000    1.1422904   -6.2887904     132.4102  0.037152133  0.038704922            3 
  298000    1.1342236   -6.3212871    132.75465  0.037123784  0.038679136            3 
  299000    1.1447729   -6.3197066    133.17886  0.037117854   0.03865205            3 
  300000    1.1077424   -6.3673188    133.11843  0.036977341  0.038624208            5 
  301000    1.1667702   -6.3599069    134.22996  0.037162225  0.038597549            6 
  302000    1.1312229   -6.3410026    134.27629  0.037051955  0.038571882            6 
  303000    1.1293548   -6.3044128    134.42633  0.036970937  0.038544948            4 
  304000    1.1238906   -6.3592876    135.04277  0.037018303  0.038519009            4 
  305000    1.1309793   -6.3518979    135.21951  0.036945221  0.038493028            2 
  306000    1.1310145   -6.3438155    135.64906  0.036941465   0.03846637            4 
  307000    1.1616698   -6.3451711    135.87085  0.036881339  0.038438903            7 
  308000    1.1386485   -6.3063246    137.00731  0.037069078  0.038412954            2 
  309000    1.1293306   -6.3782606    136.83396  0.036902361  0.038387774            7 
  310000    1.1374291   -6.3491358    138.27499  0.037170697  0.038364225            5 
  311000    1.1358644    -6.319901    138.29021  0.037055254  0.038341239            2 
  312000    1.1230019   -6.3877448    138.60908  0.037021657  0.038317999            2 
  313000    1.1469529   -6.3344047    138.92278  0.036986895   0.03829267            5 
  314000    1.1247586   -6.3741817    139.18243  0.036938013  0.038268309            2 
  315000     1.133898   -6.3294193    139.41207  0.036881499  0.038243608            5 
  316000    1.1249868   -6.3515199    140.06358  0.036936598   0.03821938            3 
  317000    1.1064746   -6.3418765    140.55795  0.036950038   0.03819592            2 
  318000    1.1452771    -6.362296    141.05272  0.036963502  0.038173395            3 
  319000    1.1282411   -6.3642736    140.92554  0.036814405  0.038150566            5 
  320000    1.1097861   -6.3560895      141.893  0.036951301  0.038127621            2 
  321000    1.1180232   -6.3630264    142.02634  0.036870805  0.038105232            8 
  322000    1.1390069   -6.3378631    142.65947  0.036920154  0.038083241            6 
  323000     1.118326   -6.3241962    142.97385  0.036886957  0.038060835            3 
  324000    1.1191521   -6.2961692     143.3663  0.036874048  0.038038152            3 
  325000    1.1290036   -6.3809468    143.14208  0.036703097  0.038014965            4 
  326000    1.1268048   -6.3759807     143.3145  0.036634586  0.037990655            7 
  327000      1.11748    -6.395603    144.58611  0.036846614  0.037966604            3 
  328000    1.1257457    -6.374822    144.69229  0.036761252  0.037943956            1 
  329000    1.1366779   -6.3878974    144.96082  0.036717533  0.037921838            3 
  330000    1.1203417   -6.4011902    145.59783  0.036767129  0.037900826            4 
  331000    1.1411794   -6.3571953    145.92169  0.036737586  0.037879524            2 
  332000    1.1144191    -6.360911    146.54189  0.036782604  0.037858163            7 
  333000    1.1323618   -6.3980206    147.28267  0.036857525  0.037837854            2 
  334000    1.1382691   -6.3855683    147.20313  0.036727327   0.03781689            3 
  335000    1.1267732   -6.3485511    147.83338  0.036774473  0.037796711            4 
  336000    1.1318892   -6.3837984    148.13741  0.036740429  0.037777882            3 
  337000    1.1311157   -6.3533606    148.47755  0.036715517  0.037758482            2 
  338000    1.1392901   -6.3639767    148.34397  0.036573956  0.037737847            2 
  339000    1.1168788   -6.4089191    148.98428  0.036623471  0.037716827            5 
  340000    1.0865519   -6.3716527    149.25777  0.036582787  0.037693821            3 
  341000    1.0976068   -6.3659252    149.15711  0.036450906  0.037671385            3 
  342000    1.1103495   -6.3771174    149.61781  0.036456581  0.037648058            3 
  343000    1.1230836   -6.3774351    150.54473  0.036575492  0.037625194            3 
  344000    1.1019999   -6.3676284    150.53345  0.036466438  0.037602527            5 
  345000    1.1089362   -6.4074512    150.61872  0.036381333  0.037579542            7 
  346000    1.1323828    -6.401518     151.1058  0.036393496  0.037556095            3 
  347000    1.1227098   -6.3987662    151.33615  0.036343937  0.037532646            3 
  348000    1.1170109   -6.4003312    151.57097  0.036295731  0.037507958            3 
  349000    1.1122253   -6.3430921    151.88876  0.036267613  0.037483212            6 
  350000    1.1218231   -6.3862662    152.36104  0.036276437  0.037459216            2 
  351000    1.0991209   -6.3648684    153.08674  0.036345381  0.037435464            1 
  352000    1.0929582    -6.397142    153.39492  0.036315084  0.037412714            3 
  353000    1.1338993   -6.3675106    154.12516  0.036384599  0.037390643            4 
  354000    1.1157897   -6.4198635     154.5131  0.036373141  0.037368645            4 
  355000    1.1064706   -6.4025125    154.56172  0.036282095  0.037347132            2 
  356000    1.1173488   -6.3764398    155.47795  0.036394651  0.037325959            4 
  357000     1.094642   -6.3569282    155.59549  0.036320142   0.03730457            3 
  358000    1.1084316   -6.3981419    155.26727  0.036142289  0.037283343            2 
  359000    1.1141844    -6.381112     156.1778  0.036252972  0.037261209            2 
  360000    1.1249381    -6.391914    156.30406  0.036181495  0.037239236            3 
  361000    1.1070767   -6.3991042    157.04891  0.036253211  0.037218543            3 
  362000    1.1077515   -6.3811061    157.56263  0.036271322  0.037197552            2 
  363000    1.1030004   -6.3995676    157.82781  0.036232278  0.037176184            3 
  364000    1.0967221   -6.3709794    158.10884  0.036197079  0.037155624            2 
  365000    1.1234187   -6.3702785    158.68085  0.036228504  0.037134754            6 
  366000    1.1075577   -6.3671208    158.70771  0.036135636  0.037114466            6 
  367000     1.110552   -6.3828374    159.27869  0.036166822   0.03709354            5 
  368000    1.0969186   -6.3888065    159.05841  0.036018663  0.037072842            4 
  369000    1.0541383   -6.3886066    160.18744  0.036176025  0.037051817            2 
  370000    1.0984136   -6.3993724    159.59579  0.035944997  0.037031156            3 
  371000    1.1191899   -6.4011667    160.19525  0.035982761  0.037009675            2 
  372000    1.0877697   -6.3596171    160.95697  0.036056669   0.03698842            4 
  373000     1.089053   -6.3870811    161.15761  0.036004827   0.03696641            3 
  374000    1.1106932   -6.3708012    161.51853  0.035988978  0.036945333            4 
  375000    1.0907144   -6.3775944    162.19233  0.036042741   0.03692465            7 
  376000    1.0991554   -6.3930325    162.69988  0.036059371  0.036904801            4 
  377000    1.0751247   -6.3874385    163.30875  0.036098309  0.036884866            3 
  378000    1.1278396   -6.3533989    163.77202  0.036104942  0.036866524            8 
  379000    1.1164352   -6.3873836    164.08026  0.036077453  0.036847996            4 
  380000    1.1017739   -6.3764643    164.04712  0.035975246  0.036829419            7 
  381000     1.076003   -6.4245335    164.83086  0.036052243  0.036811311            2 
  382000    1.1114217   -6.4383666    164.87583  0.035967676   0.03679248            4 
  383000    1.0993981   -6.4513483    164.96876  0.035893986  0.036772336            5 
  384000    1.0956124   -6.4028655    165.84805   0.03599133  0.036752271           11 
  385000    1.0956306   -6.3782633    166.17872  0.035969419  0.036733538            4 
  386000    1.0943879   -6.4129159    166.30327  0.035903124  0.036714556            2 
  387000    1.1126578    -6.391654    167.13186  0.035988773  0.036695841            4 
  388000    1.0915084   -6.4161123    166.91968  0.035850447  0.036677375            4 
  389000    1.1067644   -6.3860754    167.79318  0.035945412  0.036657785            2 
  390000    1.0545361   -6.4073423     167.9061  0.035877372  0.036639426            6 
  391000    1.1155252   -6.4060436    168.17486  0.035842895  0.036621433            2 
  392000     1.076754   -6.4268044    169.08417  0.035944764  0.036603309           10 
  393000    1.0612157   -6.4230467    168.91442  0.035817307  0.036584587            3 
  394000     1.074865   -6.4155997    168.90893  0.035725238  0.036565676            3 
  395000    1.1010379   -6.4040852    169.59186  0.035778874  0.036547119            4 
  396000    1.0929094   -6.4138902    169.88819  0.035750882  0.036527992            3 
  397000    1.0791541   -6.4360818    170.47704  0.035784432  0.036508319            4 
  398000    1.1095083   -6.4059361    170.75974  0.035753715  0.036488931            3 
  399000    1.0984822   -6.4094662    171.01838  0.035718124  0.036469734            2 
  400000    1.0894079    -6.482349    171.16358   0.03565908  0.036449739            3 
  401000     1.099257   -6.4475006    171.34218  0.035607269  0.036429783            4 
  402000     1.109977   -6.4081053    171.88898  0.035632044  0.036409386            3 
  403000    1.0985937   -6.4342535    172.02758  0.035572288  0.036389415            5 
  404000    1.1240389   -6.4284936    173.27056  0.035740627  0.036370174            3 
  405000    1.1038856   -6.3972957    173.37009  0.035672858  0.036351652            3 
  406000    1.1046049   -6.4153834    173.73897  0.035660709  0.036333173            3 
  407000    1.1060146    -6.393726    174.57942  0.035745171  0.036314943            2 
  408000    1.0769727    -6.418418    174.26896  0.035594151  0.036296738            4 
  409000    1.0989142   -6.4003875    174.62116  0.035578884  0.036278293            2 
  410000    1.0782633   -6.4246183    174.73987  0.035516234  0.036259262            5 
  411000     1.107463   -6.4140772    174.83343   0.03544879  0.036239819            6 
  412000    1.0791886   -6.4296253    175.16902  0.035430626   0.03622047            3 
  413000    1.0954769   -6.4185327    175.28433  0.035368104  0.036200775            3 
  414000    1.0958428   -6.3872328    176.20629  0.035468256  0.036181087            3 
  415000     1.084122   -6.4395704    176.70511  0.035482953  0.036161729            2 
  416000    1.0790835   -6.4393277    177.13278   0.03548333  0.036142419            6 
  417000    1.0881939   -6.4406211    176.42325  0.035256445  0.036123346            2 
  418000    1.0844467   -6.4039433    177.82324  0.035451204  0.036104434            3 
  419000    1.0800482   -6.4543723    178.48032  0.035497279  0.036085769            3 
  420000    1.1316955   -6.4265572    178.55511  0.035427602  0.036067435            4 
  421000    1.0861315   -6.3978286    179.13448  0.035458131  0.036049209            4 
  422000    1.1077714   -6.4182206    179.50841  0.035447949  0.036031218            4 
  423000    1.0803899   -6.4702038    179.71343  0.035404538  0.036012966           11 
  424000    1.0926862   -6.4553309    180.07312  0.035391729  0.035995027            6 
  425000    1.1025771   -6.4502416    180.78267  0.035447582   0.03597701            4 
  426000    1.0966077   -6.4423495     181.0648  0.035419561  0.035960129            3 
  427000    1.0803644   -6.4237869    181.57831  0.035436829  0.035943122            3 
  428000    1.0855071   -6.4056997     182.6779  0.035568126  0.035927329            3 
  429000    1.0706492   -6.4122264    182.28284  0.035408478  0.035912313            3 
  430000    1.0692678   -6.4374734    183.59008  0.035579474  0.035897869            2 
  431000    1.0768812   -6.4354659    184.19203  0.035613309  0.035883196            3 
  432000    1.0723899   -6.4657548    183.46845  0.035391291  0.035867494            4 
  433000    1.1032402   -6.4264055    183.76934  0.035367463  0.035851845            5 
  434000    1.0876232   -6.4230755    184.11382  0.035352115  0.035835906            3 
  435000    1.0836544    -6.392357    184.96434  0.035433782  0.035820128            8 
  436000    1.0725565   -6.4621445    184.97813  0.035355147  0.035804493            5 
  437000    1.0925462    -6.447608     185.5328  0.035380016  0.035788294            2 
  438000    1.0681062   -6.4502799    185.15206  0.035226799  0.035771993            6 
  439000      1.08895   -6.4721489    185.52564  0.035217471  0.035755646            9 
  440000    1.0891657   -6.4376201    186.46977  0.035316245  0.035739146            6 
  441000    1.0802458   -6.4770518    186.95789  0.035328399  0.035723235            3 
  442000    1.0543894   -6.4282159    187.28941  0.035310976  0.035708186            4 
  443000    1.0661378    -6.439217    187.88564  0.035343424  0.035693843            5 
  444000    1.0906133   -6.4532539     188.1068   0.03530533  0.035679733            3 
  445000    1.0572175    -6.449206    188.22226  0.035247615  0.035664688            2 
  446000    1.0567315   -6.4259801    188.72768   0.03526302  0.035649844            3 
  447000     1.078218   -6.4458973     189.0817  0.035250131  0.035634837            4 
  448000    1.0713791   -6.4166666    189.19646  0.035192794  0.035619914            4 
  449000    1.0742139    -6.455818    190.11497  0.035284887  0.035605552            4 
  450000    1.0890612   -6.4482335    189.90826  0.035168196  0.035591494            2 
  451000    1.0783928   -6.4357743    191.46676   0.03537819  0.035577512           16 
  452000    1.0703406   -6.4431485    191.48499  0.035303281  0.035564367            3 
  453000    1.0632304   -6.4503588    192.41966  0.035397289  0.035551171            2 
  454000    1.0783631   -6.4515807    191.99418  0.035241222  0.035537563            2 
  455000    1.0777664   -6.4539931    192.05999  0.035175822  0.035523464            4 
  456000    1.0842611   -6.4335034    191.90726  0.035070771  0.035509371            5 
  457000     1.064518   -6.4483664    193.72932   0.03532628  0.035495236            3 
  458000    1.0661155   -6.4497152    192.93567  0.035104744  0.035480992            4 
  459000     1.068601   -6.4227902    193.15118  0.035067389  0.035466308            5 
  460000    1.0544384   -6.4750399    193.28149  0.035014762  0.035451174            5 
  461000    1.0643204   -6.4540152    193.76144  0.035025568   0.03543503            3 
  462000      1.06093   -6.4468994    194.09436  0.035009804  0.035419818            4 
  463000    1.0946379   -6.4431618    194.84474  0.035069248  0.035404279            3 
  464000    1.0539833   -6.4852667    194.26858   0.03489019  0.035388964            2 
  465000    1.0762225   -6.4245382    195.33657  0.035006554  0.035373406            4 
  466000    1.0737676   -6.4646243    195.42294  0.034946878  0.035357844            5 
  467000    1.0589595   -6.4649298    194.74576  0.034751207  0.035341798            4 
  468000    1.0804972   -6.4714565    195.66085  0.034839895  0.035324599            4 
  469000    1.0722061   -6.4502873    196.05971   0.03483648  0.035308609            3 
  470000    1.0570744   -6.4461807    196.01961  0.034755251  0.035292568            3 
  471000    1.0697309    -6.472549    196.97328  0.034850191  0.035276795            3 
  472000    1.0893445   -6.4664818    197.33277  0.034839825   0.03526091            6 
  473000    1.0501603   -6.4656075    197.81747  0.034851562  0.035245188            3 
  474000    1.0752007   -6.4678251     198.0986  0.034827461  0.035229543            4 
  475000    1.0663764   -6.4703162    198.78373  0.034874339  0.035214277            4 
  476000    1.0691237   -6.4359963    199.54612  0.034934545  0.035199716            3 
  477000      1.06345   -6.4979239    199.42586  0.034840298  0.035184829            2 
  478000    1.0468286   -6.4769079    199.30047   0.03474555  0.035169123            5 
  479000    1.0635874   -6.4556746    199.56243  0.034718586  0.035152933            8 
  480000    1.0737884   -6.4664197    200.30472  0.034775125  0.035137107            5 
  481000    1.0776773   -6.4408355    200.24286  0.034692111   0.03512112            5 
  482000    1.0426471   -6.5255967    199.86891  0.034555482  0.035105118            3 
  483000     1.073293   -6.4685861    201.22992  0.034718758  0.035088746            3 
  484000    1.0516838   -6.4741929    201.55112  0.034702328  0.035072834            2 
  485000    1.0609604   -6.5038218      201.099  0.034553092  0.035057162            3 
  486000    1.0556998   -6.4774381    202.16383  0.034664581  0.035041112            5 
  487000    1.0662132   -6.4712142    202.65721  0.034677824  0.035025624            6 
  488000    1.0669578   -6.4704218    202.12542  0.034515953  0.035010201            2 
  489000      1.05966   -6.4823323    202.84337  0.034567718  0.034994036            3 
  490000    1.0457958   -6.4870131    203.07828  0.034537122  0.034977723            4 
  491000    1.0344106   -6.4913078    204.04957   0.03463163  0.034961031            3 
  492000    1.0616914   -6.4821124    203.42982   0.03445627  0.034945075            2 
  493000    1.0606398   -6.4777017    204.47038  0.034562268  0.034929332            4 
  494000    1.0814266    -6.492894    203.91101  0.034397944  0.034913162            4 
  495000    1.0508016   -6.4478864    205.16379  0.034539359  0.034897551            2 
  496000    1.0651212   -6.4850432    205.58292  0.034540141  0.034881976            7 
  497000    1.0611825   -6.4767789     205.9669  0.034535027  0.034866561            4 
  498000    1.0697033    -6.490344    206.23053  0.034509795  0.034850975            3 
  499000    1.0601966   -6.4894544    206.42141  0.034472513  0.034835547            4 
  500000    1.0398082   -6.5266751    206.44472  0.034407454  0.034819951            4 
  501000    1.0553618   -6.4745421    207.57472  0.034526733  0.034804761            3 
  502000    1.0562428   -6.5286456    207.22928   0.03440061  0.034789441            4 
  503000    1.0269636   -6.4861273    207.79056  0.034425208  0.034774288            4 
  504000    1.0418964   -6.5077805    208.11421  0.034410418  0.034759481            4 
  505000    1.0683362   -6.4915826    208.58497  0.034419962  0.034744732            3 
  506000    1.0793302   -6.5055372    208.37384  0.034317168   0.03472965            7 
  507000     1.065825   -6.4859199    208.95478  0.034344967  0.034713918            3 
  508000    1.0447322   -6.5082352    209.10293  0.034301662  0.034698379            5 
  509000    1.0492163   -6.4923628    210.24479  0.034421216  0.034682924            4 
  510000    1.0484385   -6.4382426    210.45955  0.034388815  0.034667708            6 
  511000    1.0415482   -6.4657608    210.05535  0.034255601  0.034652129            2 
  512000    1.0723933    -6.503175    210.55345  0.034269767  0.034635965            2 
  513000    1.0643445   -6.4939641    211.21925  0.034311119  0.034620077            2 
  514000    1.0416164   -6.4893504    210.15862  0.034072409  0.034604549            3 
  515000    1.0249106   -6.4752171    210.86765   0.03412098  0.034588541            5 
  516000    1.0623524     -6.51431     211.0459   0.03408364  0.034572149            7 
  517000    1.0490651   -6.5270819    211.30192  0.034058981  0.034555122            2 
  518000    1.0437219   -6.5156747     211.7906  0.034071846  0.034538083            2 
  519000     1.052766   -6.4784171    211.99096  0.034038369  0.034520981            3 
  520000    1.0885777   -6.4727205    212.59113  0.034069091  0.034503411            5 
  521000    1.0363944    -6.523253    212.56369  0.033999311  0.034485964            3 
  522000    1.0628345   -6.5173625    212.53806  0.033930086  0.034468318            4 
  523000        1.045   -6.5216177    213.22489  0.033974648  0.034450795            4 
  524000    1.0019136   -6.5225837    212.86391  0.033852402  0.034433459            4 
  525000    1.0426277   -6.5250241    212.69903  0.033761751  0.034415778            3 
  526000    1.0493656   -6.5130207    214.40909  0.033968487  0.034398213            4 
  527000    1.0209825   -6.4701721    214.50037  0.033918465  0.034381101            5 
  528000    1.0385737   -6.5341819    214.64126  0.033876462  0.034364016            4 
  529000     1.055986   -6.5223386    214.95766  0.033862265  0.034346955            5 
  530000    1.0162194   -6.4686428    215.10519  0.033821571  0.034330341            4 
  531000    1.0491675   -6.5397747    215.49254  0.033818666  0.034313237            4 
  532000    1.0276865   -6.5074529    216.17703  0.033862317  0.034296181            4 
  533000    1.0557024    -6.513559    216.29712  0.033817561  0.034278694            5 
  534000    1.0467866   -6.5042302    216.75843  0.033826222   0.03426132            9 
  535000    1.0455601   -6.5066502    216.26762  0.033686545  0.034243933            3 
  536000    1.0540534    -6.526202     216.7888  0.033704727  0.034225382            2 
  537000    1.0376772   -6.5161114    216.45471  0.033590116  0.034207456            4 
  538000    1.0549229   -6.5087332    217.49012   0.03368806  0.034189152            2 
  539000    1.0790096   -6.4907857    218.12433  0.033723614  0.034171439            3 
  540000    1.0363035   -6.5176283    218.37291  0.033699523  0.034153854            2 
  541000    1.0454984   -6.4976576    218.74044  0.033693845  0.034136618            7 
  542000    1.0390161   -6.5146544    218.72849  0.033629842  0.034118462            4 
  543000    1.0734355   -6.5371641    218.60071  0.033548298  0.034100464            3 
  544000    1.0508451   -6.5166315    219.48099  0.033621475  0.034082549            2 
  545000    1.0526824   -6.5486102    218.61947  0.033428053  0.034065123            3 
  546000    1.0303407   -6.5201116    219.95642  0.033570883  0.034046975            3 
  547000    1.0251233   -6.5340064    220.17165  0.033542298  0.034029635            5 
  548000    1.0340497   -6.5102596    220.00381  0.033455567  0.034011955            8 
  549000    1.0298726   -6.5239852    220.98022  0.033542838   0.03399455            3 
  550000    1.0328947   -6.5300179     221.4325  0.033550378  0.033977401            6 
  551000    1.0300373   -6.5266624    222.34793  0.033627938   0.03396087            3 
  552000    1.0204444   -6.5512144    222.66275  0.033614546   0.03394418            4 
  553000    1.0403478   -6.5046718    222.57241  0.033540147  0.033927463            2 
  554000    1.0311253   -6.5117696    222.90348  0.033529404  0.033910253            3 
  555000    1.0079817   -6.5493925    222.90211  0.033468785  0.033892701            5 
  556000    1.0377732   -6.5235968    223.23836  0.033458987  0.033875492            4 
  557000    1.0342462   -6.5319287    222.90692   0.03334933  0.033858791            2 
  558000    1.0509681   -6.5325276    223.93259   0.03344274  0.033841526            9 
  559000     1.012362   -6.5856864     223.8716  0.033373823  0.033823983            6 
  560000    1.0233628   -6.5575427    224.20662   0.03336408  0.033806576            3 
  561000    1.0296616   -6.5044025    224.33471  0.033323634  0.033789644            4 
  562000    1.0208964   -6.5451811    224.99604  0.033362402  0.033772866            6 
  563000    1.0229294   -6.5222928    225.72074  0.033410412  0.033755863            4 
  564000    1.0295783   -6.5167861    226.13645  0.033412596  0.033739465           10 
  565000     1.033893   -6.5406424    226.18124  0.033360065    0.0337235            5 
  566000    1.0225888   -6.5164781    226.99335  0.033420694  0.033707819            4 
  567000    1.0294678   -6.5632373    227.26343  0.033401445  0.033692206            7 
  568000    1.0029151    -6.529212    228.12898  0.033469627  0.033677094            8 
  569000    1.0209309   -6.5304333    228.80505  0.033509819  0.033661236            3 
  570000    1.0117392   -6.5429246    228.64295  0.033427331  0.033645586            2 
  571000    1.0230961   -6.5422277    229.01271  0.033422753  0.033630228            3 
  572000    1.0367239   -6.5248949    229.09399  0.033376163  0.033614995            5 
  573000    1.0391782   -6.5584571    229.62311  0.033394868  0.033600179            9 
  574000    1.0249267   -6.5441526    230.18378  0.033418087  0.033585592            3 
  575000    1.0329993   -6.5460778    229.63173  0.033279961  0.033570395            6 
  576000    1.0354023   -6.5660559    230.23349  0.033309244  0.033554684            6 
  577000    1.0274304   -6.5764098    229.68008  0.033171589  0.033538686            3 
  578000    1.0324043   -6.5573996    230.30432  0.033204198  0.033522678            4 
  579000    1.0204769    -6.546467    230.14828  0.033124393    0.0335065            4 
  580000    1.0208126   -6.5527116    231.13244  0.033208683  0.033490194            3 
  581000    1.0255558   -6.5300055    231.24956  0.033168325  0.033473852            6 
  582000    1.0329096   -6.5415312    231.05998   0.03308419  0.033457583            2 
  583000    1.0268829   -6.5981898    230.44463  0.032939483  0.033441171            2 
  584000    1.0243551   -6.5849189    232.38692  0.033160234  0.033424691           12 
  585000   0.98998367   -6.5381445    232.21624  0.033079237  0.033408607            7 
  586000    1.0140817    -6.552967    232.68801  0.033089876  0.033392678            3 
  587000    1.0182972   -6.5456537    233.18113   0.03310351  0.033376514            3 
  588000    1.0215259   -6.5256769    233.43573  0.033083295  0.033360835            9 
  589000    1.0361415   -6.5871315    233.63702  0.033055605  0.033344902            7 
  590000     0.998287   -6.5588601    234.05702  0.033058902  0.033329162            3 
  591000    1.0064907   -6.5567538    234.12733  0.033012877  0.033313029            6 
  592000   0.99127182   -6.5433535    235.16082  0.033102592  0.033297207            9 
  593000    1.0159568   -6.5251746     235.3381  0.033071683   0.03328168            2 
  594000    1.0049548   -6.5639879    234.61617  0.032914727  0.033265951            3 
  595000    1.0081313   -6.5668357    235.29006   0.03295379  0.033249705            8 
  596000    0.9866668   -6.5724907    235.74446  0.032962033  0.033233577            4 
  597000    1.0251992   -6.5482878    235.83232  0.032919085  0.033217345            3 
  598000    1.0226616   -6.5218165    235.72052  0.032848457   0.03320096            5 
  599000    1.0377753    -6.598196    235.86285  0.032813419  0.033184339            7 
  600000    1.0015469   -6.5713902    236.54633  0.032853657   0.03316808            7 
  601000    1.0158638   -6.5730196    237.26244  0.032898286  0.033151642            3 
  602000    1.0083535   -6.5773125    237.40096  0.032862813  0.033135215            3 
  603000    1.0088399   -6.5646845    237.59101  0.032834578  0.033118951            2 
  604000   0.99696868   -6.5700889    238.30956  0.032879354  0.033102534            3 
  605000    1.0086228   -6.5590877     237.6304   0.03273146  0.033086053            3 
  606000   0.99964507   -6.5332983    238.71258  0.032826262  0.033069807            6 
  607000    1.0073089   -6.5857681    238.68758  0.032768751  0.033053835            4 
  608000     1.018133   -6.5317226    238.74581  0.032722836  0.033037511            6 
  609000    1.0076189   -6.5627656    238.75449  0.032670292  0.033021012            4 
  610000   0.99962268   -6.6041846    239.21122  0.032679129  0.033004683            4 
  611000    1.0130111   -6.5595463    239.81133  0.032707492  0.032988488            3 
  612000    1.0106095   -6.5908239    239.35601   0.03259205  0.032972441            4 
  613000   0.99338653   -6.5646149    240.60223  0.032708296  0.032956646           10 
  614000    1.0199815   -6.5911064    241.27229  0.032745968   0.03294101            5 
  615000    1.0093198   -6.5593772    241.43197   0.03271436  0.032925744           11 
  616000    1.0172887   -6.5993972     241.5049  0.032671118  0.032910267            1 
  617000    1.0127096   -6.5700014    241.78064  0.032655408  0.032894345            9 
  618000    1.0038576   -6.5931178    242.20296  0.032659515  0.032878423            5 
  619000    1.0174798   -6.5606635    242.03532  0.032584184   0.03286265            5 
  620000    1.0193362   -6.5692761    242.12506  0.032543691  0.032847007            4 
  621000    1.0171836   -6.6103269    242.03747  0.032479531  0.032830643            4 
  622000    1.0048327   -6.5799794    242.73213  0.032520381  0.032814444            2 
  623000    1.0200766   -6.6050132    242.89162  0.032489516  0.032798294            4 
  624000    1.0006081   -6.6022944    243.05418  0.032459159  0.032781787            5 
  625000    1.0208061   -6.5860485    244.79163  0.032638884  0.032765881            6 
  626000   0.99249774   -6.6216467    243.77826  0.032451845   0.03275017            3 
  627000    1.0200826   -6.5759004    244.19447  0.032455405  0.032734385            5 
  628000   0.99403858   -6.5938587    244.04376  0.032383726  0.032718921            4 
  629000    1.0026167   -6.5939335    245.24086   0.03249084  0.032703379            4 
  630000    0.9952232   -6.6144857    245.24389  0.032439668  0.032687793            4 
  631000    1.0003271   -6.5671055    246.30356  0.032528204  0.032671953            2 
  632000      1.00451   -6.6210702    245.85308  0.032417337  0.032656219            6 
  633000     1.006227   -6.5920013    246.44448  0.032443981  0.032640362            3 
  634000   0.98782635   -6.6057499    246.96845  0.032461678  0.032624894            7 
  635000    1.0105305   -6.5939721    247.23098  0.032445011  0.032609307            3 
  636000   0.98457014   -6.5856643    247.01002  0.032365044  0.032593569            4 
  637000    1.0070439    -6.585859    247.11978  0.032328595  0.032578084            7 
  638000    1.0012707   -6.5594416    247.20326  0.032288827  0.032562041            3 
  639000    1.0007163   -6.5968069    246.51562   0.03214862  0.032545355           10 
  640000   0.98555324   -6.5866494    247.23956  0.032192652   0.03252845            3 
  641000    1.0273054   -6.5479792    247.45861  0.032170907   0.03251193            6 
  642000   0.98550131   -6.6025696    247.64082  0.032144447   0.03249468            3 
  643000   0.99090505   -6.6086368    247.58113  0.032086719  0.032477441            5 
  644000   0.98244842    -6.570733    247.73901  0.032057325  0.032460407            4 
  645000    1.0006385   -6.6118419    247.95523  0.032035559   0.03244313            6 
  646000   0.98529538   -6.6273313    248.12459  0.032007816  0.032425589            3 
  647000    1.0066753    -6.576723    249.30137  0.032109913  0.032408704            4 
  648000   0.97830005   -6.5940621    249.93736   0.03214215  0.032391864            5 
  649000    1.0066756    -6.579145    250.05957  0.032108317  0.032374861            2 
  650000    0.9900656   -6.5700347    249.67848  0.032010061  0.032357845            4 
  651000    1.0035939   -6.6079665    250.27372  0.032037086  0.032340784            6 
  652000    1.0111878   -6.6063933    250.21235  0.031980106   0.03232347            4 
  653000    0.9978429    -6.604489    249.45137  0.031834019  0.032305915            4 
  654000   0.99092663   -6.5987284     249.9656  0.031850867  0.032288144            5 
  655000   0.99868132   -6.6115961    250.65595   0.03189007  0.032270387            8 
  656000   0.99196486   -6.6175813    250.60433  0.031834899  0.032252381            4 
  657000   0.99476027   -6.5995456    251.04107   0.03184184  0.032234487            6 
  658000    1.0003388   -6.5972503     250.7328  0.031754407  0.032216585            4 
  659000   0.99695371   -6.6169803    251.47169  0.031799657  0.032199019            8 
  660000   0.98774632   -6.5863706    251.85677  0.031800098  0.032181646            3 
  661000   0.97188395   -6.5772584    251.62364  0.031722597  0.032163927           10 
  662000   0.99613621   -6.6249718      251.082  0.031606496  0.032146131            3 
  663000    0.9837312   -6.6173237     251.9393  0.031666579  0.032127911            4 
  664000   0.97738722   -6.5990262    252.80711    0.0317278  0.032109868            3 
  665000   0.99962548   -6.6212079    252.15941  0.031598923  0.032091944            2 
  666000   0.98696716   -6.6232587    253.12421  0.031672198  0.032073978            5 
  667000   0.99218523     -6.61974    252.89682  0.031596304  0.032055874            6 
  668000   0.97178702   -6.6113237    253.24807  0.031592823  0.032038212            5 
  669000   0.99679728   -6.6108301    253.54003  0.031581967  0.032020448            3 
  670000    0.9852349   -6.6385532    254.41885  0.031644136  0.032002733            5 
  671000    1.0013264   -6.5953049    253.91068  0.031533865   0.03198454            4 
  672000   0.97475991   -6.6373177    253.65562   0.03145531  0.031966531            7 
  673000   0.98368222   -6.6347777      254.865  0.031558321  0.031948588            6 
  674000   0.97492646    -6.630913    254.94549  0.031521451  0.031930692            3 
  675000   0.98993437   -6.6301475    254.72858  0.031447973  0.031913005            3 
  676000   0.98888959   -6.6481511    255.81753  0.031535692  0.031895344            5 
  677000    0.9858513   -6.6388794    255.76246  0.031482332  0.031877796            4 
  678000     0.979816   -6.6156355     255.7639  0.031436074  0.031860272            4 
  679000   0.96164904   -6.6535394    255.71081  0.031383261  0.031842007           10 
  680000   0.98241389   -6.6737955    255.65421  0.031330173  0.031823594           10 
  681000   0.98794615   -6.6663689    255.75345   0.03129631  0.031805069            5 
  682000   0.97199052   -6.6106213    257.08625  0.031413275  0.031786839            5 
  683000   0.96921827   -6.6216112    256.86542  0.031340339  0.031768468            3 
  684000   0.98438973   -6.6527501    256.86609  0.031294601  0.031750279            3 
  685000   0.97364126   -6.6627464    256.95658  0.031259924  0.031731925           11 
  686000   0.99235821   -6.6436672    257.19876  0.031243776  0.031713631            4 
  687000   0.97168956   -6.5817733    257.93717  0.031287867  0.031695446            3 
  688000   0.98237378   -6.6139427    257.79597  0.031225287  0.031677359            5 
  689000   0.98203424   -6.6565282    258.00207  0.031204894  0.031659255            6 
  690000   0.98685913    -6.639743     258.1819  0.031181388  0.031640892            2 
  691000   0.99081103   -6.5986832     259.2297  0.031262627  0.031622691            3 
  692000   0.97321035   -6.6234678    258.18828  0.031092038  0.031604397            2 
  693000   0.96741428   -6.6444596    258.69515  0.031108123  0.031585973            5 
  694000   0.97243906   -6.6460677    258.37259  0.031024566  0.031566779            4 
  695000   0.98799211   -6.6235969    259.55279  0.031121438  0.031548009            6 
  696000   0.97688716   -6.6727286    258.46569  0.030946562  0.031529423            4 
  697000    0.9768212   -6.6402305     259.6047  0.031038343  0.031510572           14 
  698000   0.97455783   -6.6167383    259.91862  0.031031354  0.031491594            3 
  699000   0.97288057   -6.6706634    259.44557  0.030930564  0.031472281            3 
  700000   0.97329268   -6.6110655    259.89654  0.030940064  0.031453011            3 
  701000   0.98094175   -6.6378877     260.9472  0.031020827  0.031433904            2 
  702000   0.96905705   -6.6356843    260.12674  0.030879243  0.031414732            5 
  703000   0.96705678   -6.6383033    259.90621  0.030809176  0.031395548            5 
  704000   0.98913239   -6.6241102    260.11551  0.030790189  0.031376289            4 
  705000    0.9779189   -6.6351187     260.0023  0.030733132  0.031356892            4 
  706000   0.97985195   -6.6549999    262.09665   0.03093681   0.03133766            7 
  707000   0.97183574   -6.6446544    261.44839  0.030816642  0.031318261           15 
  708000   0.94406855   -6.6495729    261.22325  0.030746616  0.031298735            8 
  709000   0.95648916   -6.6332149    260.97192   0.03067371  0.031279436            9 
  710000   0.97394731   -6.6102392    261.96383  0.030746928  0.031259868            8 
  711000   0.97291055   -6.6777205    261.49394   0.03064861   0.03124055            4 
  712000   0.98545935    -6.629648    262.54562  0.030728653  0.031221189            4 
  713000   0.97215787    -6.624008    262.16365  0.030640913  0.031201873            4 
  714000   0.97195582   -6.6521416    263.22463  0.030721829  0.031182939            4 
  715000    1.0087655   -6.6757894    262.39626  0.030582314    0.0311635            3 
  716000   0.97635047   -6.6265849    262.32427  0.030531224  0.031143828            4 
  717000   0.97066919   -6.6573657    263.42228  0.030616257  0.031124226            6 
  718000   0.96883665   -6.6834809    263.06844  0.030532549  0.031104633            6 
  719000   0.97440768   -6.6706465    262.52146  0.030426687  0.031085118            3 
  720000   0.97126777   -6.6607305    263.46975  0.030494184  0.031065272            5 
  721000   0.96939776   -6.6820992    263.61193  0.030468323  0.031045706            7 
  722000   0.97484413   -6.6777592    264.01749  0.030472933  0.031026168            7 
  723000   0.97486731   -6.6445346    264.26943  0.030459824  0.031006519            3 
  724000   0.95746934   -6.6775415    263.84722  0.030369155  0.030986822            6 
  725000   0.96254822   -6.6435856    264.92062  0.030450646   0.03096688            4 
  726000   0.96613638   -6.6843904    264.90437  0.030406837  0.030947366            5 
  727000    0.9782788   -6.6673678     266.0087  0.030491598  0.030927831            4 
  728000   0.95813303   -6.6633967    265.47128  0.030388196  0.030908705            5 
  729000   0.95706964   -6.6783374    265.58483  0.030359491  0.030889603            8 
  730000   0.96404311   -6.6907807    266.11206  0.030378089  0.030870419            4 
  731000   0.96392805   -6.6562797    266.80832  0.030415905  0.030851626            3 
  732000    0.9634805   -6.6270458    267.40201  0.030441941  0.030833079            8 
  733000   0.97761199   -6.6430356    266.79309  0.030331183  0.030814336            9 
  734000     0.985622   -6.6452097    267.17136  0.030332807  0.030795445            3 
  735000   0.95576792   -6.6794546    267.30944  0.030307192  0.030776605            7 
  736000   0.97084457   -6.6722519    267.83426  0.030325437  0.030757419            3 
  737000   0.94990585   -6.6925814    267.66577  0.030265239  0.030738604            2 
  738000   0.96660878   -6.6739517    267.15978  0.030167093  0.030719726            5 
  739000   0.94246876   -6.6709375    268.08203  0.030230269  0.030700731            3 
  740000    0.9643126   -6.6614846    268.39437  0.030224591  0.030681683            2 
  741000   0.97194417   -6.6829813    267.84514  0.030122035  0.030662388            2 
  742000   0.94562314     -6.68758    268.21149  0.030122584  0.030643358            4 
  743000   0.96442712   -6.6902426    268.30831  0.030092901   0.03062409            5 
  744000   0.94404739   -6.6453166    269.38299  0.030172826  0.030604941            5 
  745000   0.96989862   -6.6985562    268.51369  0.030035088  0.030585587            9 
  746000   0.96131401   -6.6714885    270.09393  0.030171351  0.030566309            4 
  747000    0.9378505   -6.6910703     269.6736   0.03008407  0.030546982            4 
  748000   0.94501278   -6.6824922    270.02067  0.030082517  0.030527896            7 
  749000   0.94621203   -6.6733745    269.90936  0.030029969  0.030509063            7 
  750000   0.96165582   -6.6864412    270.52553  0.030058392   0.03049004           13 
  751000   0.95067997   -6.6972768    270.11821   0.02997317  0.030471252            6 
  752000    0.9654494   -6.6853739    271.37199   0.03007225  0.030452489            4 
  753000   0.92910008   -6.6912934     271.4065  0.030036134  0.030433884            6 
  754000   0.97413372   -6.6848728    271.83509  0.030043666  0.030415236           14 
  755000   0.95078775   -6.6769666    272.01798  0.030024059  0.030396719            8 
  756000   0.96854032   -6.6751262     271.7223  0.029951753  0.030378287           13 
  757000   0.95364798   -6.6764032     271.8946  0.029931154  0.030359668            5 
  758000   0.92920334   -6.6618487    271.73733  0.029874377   0.03034089            4 
  759000   0.95911897   -6.6725081     272.1263  0.029877723  0.030321897            4 
  760000   0.95229101   -6.6824541    272.50109  0.029879506  0.030302582            5 
  761000   0.95335791   -6.6841365    272.49329  0.029839388  0.030283344            9 
  762000    0.9361082   -6.6939768    272.04741  0.029751466  0.030263984            7 
  763000   0.96316674   -6.7228177    272.19353  0.029728433  0.030244675            4 
  764000    0.9463939   -6.7039361    272.39909  0.029711943  0.030225216            4 
  765000   0.98058215   -6.6422322    272.71406  0.029707414  0.030205864            2 
  766000   0.95059469   -6.7335289    271.99294  0.029590181   0.03018631            5 
  767000   0.96129934   -6.6894039    272.84893  0.029644603  0.030166776            3 
  768000   0.93402585     -6.71444    271.60834  0.029471391  0.030146828            4 
  769000   0.97159353   -6.7031478    273.36291  0.029623202  0.030127029            7 
  770000   0.94925784   -6.7031009    273.19208  0.029566243  0.030107298            6 
  771000   0.95289616   -6.6828014    273.58885   0.02957078  0.030087805            4 
  772000   0.93383122   -6.6936154    272.82305  0.029449811  0.030068033            4 
  773000   0.94450029   -6.7182127    273.65069  0.029500937  0.030048106            7 
  774000   0.94131191    -6.692325    274.07929  0.029508967  0.030028229            5 
  775000   0.91925749   -6.6976338    273.45723  0.029404003  0.030008273            6 
  776000   0.93929143   -6.6858942    274.15324  0.029440854    0.0299885            6 
  777000   0.95142233   -6.7156866    274.44002  0.029433722  0.029968743            9 
  778000   0.95139529   -6.7100272    274.71201  0.029425022    0.0299488            5 
  779000   0.92637474   -6.6804269    274.56739  0.029371779  0.029929142            4 
  780000   0.93946495   -6.6849581    275.01455  0.029381897  0.029909291            4 
  781000   0.95558734   -6.7253084    274.24052  0.029261686  0.029889376           18 
  782000   0.94236548   -6.7355785    275.03894   0.02930935  0.029869941            4 
  783000   0.95370154   -6.7189937    275.30712   0.02930046  0.029850635            8 
  784000   0.92412169   -6.7078365    276.54947  0.029395139  0.029831157            3 
  785000    0.9459825   -6.6857028    276.75614  0.029379632  0.029811907            7 
  786000   0.93960855    -6.714302    276.32127  0.029296148  0.029792484            7 
  787000   0.92353602   -6.6937621    277.00063  0.029330859  0.029772999            7 
  788000   0.95282779   -6.7415815    276.98269   0.02929174  0.029753663            5 
  789000   0.93100332   -6.7464048      276.814  0.029236797  0.029733925            8 
  790000   0.93956003   -6.7352812    276.91214  0.029210142  0.029714301            8 
  791000   0.92049406   -6.7074324    277.26264  0.029210139  0.029694964            3 
  792000   0.94236256   -6.7365378    277.25896   0.02917287   0.02967568            2 
  793000   0.91180811   -6.6963259     277.4208  0.029153089  0.029656325            2 
  794000      0.92268   -6.7361806    278.60594  0.029240758  0.029637344            5 
  795000   0.93724645   -6.7344185    278.30218  0.029172137  0.029618394            4 
  796000   0.95384274   -6.7400503    278.30834  0.029136132  0.029599318            5 
  797000   0.94053781   -6.7022991    279.15455  0.029188054  0.029580168            4 
  798000   0.94034419   -6.6896203    279.05117  0.029140682  0.029561067            5 
  799000   0.95015965   -6.6899177    279.28292  0.029128381  0.029542295            3 
  800000    0.9286361   -6.6775599    279.69538  0.029134935  0.029523541            7 
  801000   0.92793775   -6.7343331    279.82343  0.029111885  0.029504741            4 
  802000    0.9275879   -6.7094593    279.89085  0.029082591  0.029485942            8 
  803000   0.92999389   -6.7256251    280.51493  0.029111139  0.029467041            8 
  804000   0.93180146   -6.7014183    280.60475   0.02908424  0.029448195            3 
  805000   0.93504574   -6.7023256    280.67657  0.029055546  0.029429522            5 
  806000   0.93560063   -6.6969025    281.41289  0.029095625  0.029410984            3 
  807000   0.94654374   -6.6808472    281.55703  0.029074455  0.029392306            8 
  808000   0.92818352   -6.7606398    281.07885  0.028989156  0.029373666            7 
  809000   0.94410239   -6.7204338    282.22614  0.029071502   0.02935515            4 
  810000   0.93093166   -6.7198727     282.6516  0.029079382   0.02933682            4 
  811000   0.94865225    -6.718792    281.81352  0.028957411  0.029318146            6 
  812000   0.94250522   -6.7363149    281.97556  0.028938378  0.029299435            5 
  813000   0.90959438   -6.7469036    282.38835  0.028945096  0.029280756            5 
  814000   0.92692301   -6.7583584    281.47814  0.028816353  0.029261947            3 
  815000   0.91905101   -6.7155949    282.94449   0.02893093  0.029243284            2 
  816000   0.93021118   -6.7208135    283.07672  0.028908978  0.029224671            9 
  817000   0.92467459   -6.7302798    282.62967  0.028827996  0.029206121            9 
  818000   0.93237789   -6.6817054     283.2482  0.028855766  0.029187488            4 
  819000   0.95926842   -6.7342867    283.09824  0.028805274  0.029168804            3 
  820000   0.92459667   -6.7328541    283.35903  0.028796649   0.02915005            3 
  821000   0.90981509   -6.7602158    283.02327  0.028727494  0.029131376            8 
  822000   0.92409117   -6.7204288    283.66367  0.028757469  0.029112667            4 
  823000   0.91980783   -6.7612981    283.50883  0.028706848  0.029093855            8 
  824000   0.93889901   -6.7615638    283.08247   0.02862889  0.029074923            5 
  825000   0.93118254   -6.7319185    284.18186  0.028705238  0.029055812            8 
  826000   0.93415814   -6.7689427    283.03373  0.028554654  0.029036527           10 
  827000   0.94708774   -6.7674628    283.34893  0.028551888  0.029017127            5 
  828000   0.93692423   -6.7422833    283.48505  0.028531104  0.028997531            9 
  829000   0.92961902    -6.748819    283.04998  0.028452953  0.028978002            6 
  830000   0.90574142   -6.7662073    284.17534   0.02853166  0.028958735            9 
  831000   0.91218729   -6.7324584    284.55635  0.028535534  0.028939759            5 
  832000   0.90487588   -6.7614654     285.0237  0.028548046  0.028920802            3 
  833000   0.91488961   -6.7331021    285.39135  0.028550555  0.028901922            2 
  834000   0.91385355   -6.7492043    285.43059  0.028520243  0.028882841            6 
  835000    0.9162435   -6.7511955    284.76462  0.028419623  0.028863751           10 
  836000   0.92134641   -6.7575771    285.33028  0.028442014  0.028844652           14 
  837000   0.90792084   -6.7840847    285.50987  0.028425913  0.028825548            7 
  838000    0.8968155   -6.7467104    285.50221   0.02839123  0.028806531            4 
  839000   0.92175801   -6.7343712     285.9484  0.028401709    0.0287875            6 
  840000   0.91569609    -6.743114    285.34551  0.028308086  0.028768384            3 
  841000    0.9142879    -6.770527    285.69599  0.028309155  0.028749284            8 
  842000   0.93978051   -6.7562394    285.57853  0.028263909   0.02872984            7 
  843000    0.9204939   -6.7381468    286.55765   0.02832717  0.028710346            3 
  844000   0.92138319   -6.7154762    286.52989  0.028290866  0.028691001           11 
  845000   0.92787692   -6.7291997    287.13217  0.028316782  0.028672094            5 
  846000   0.92551457   -6.7757049    287.00908  0.028271186  0.028653131            5 
  847000    0.9262594   -6.7776228    286.48908  0.028186647  0.028633893            7 
  848000   0.91703365   -6.7725292     287.5055  0.028253292  0.028614738            6 
  849000   0.88848933   -6.7288127    287.39585  0.028209251  0.028595651            5 
  850000   0.90142541   -6.7271014    287.55245  0.028191417  0.028576469            7 
  851000   0.90779638   -6.7440653    287.62661  0.028165552  0.028557261           10 
  852000   0.91664231   -6.7450103     287.6224  0.028132082  0.028537827            4 
  853000   0.89965219    -6.748984    288.07864  0.028143673  0.028518461            5 
  854000   0.91550551   -6.7327331    288.37482   0.02813962  0.028499307            3 
  855000   0.90773076   -6.7973093    288.20997   0.02809064  0.028480012            6 
  856000   0.89646844    -6.770237    288.25641  0.028062346  0.028460732            7 
  857000   0.92659003   -6.7496728    288.54279  0.028057447  0.028441565           12 
  858000    0.9303656    -6.772613    288.08111  0.027979906  0.028422292            4 
  859000    0.9183349   -6.7662928    288.03142  0.027942513  0.028403129            6 
  860000   0.89377535   -6.7690346    288.84002  0.027988374  0.028383999            4 
  861000   0.91670048    -6.768413    289.34674  0.028004911  0.028365009            8 
  862000   0.89053742   -6.7620951    289.44245  0.027981675  0.028345788            5 
  863000   0.92413719   -6.7686048    289.18272  0.027924172  0.028326633            5 
  864000     0.893463   -6.7795485    289.88148  0.027959247  0.028307295            6 
  865000   0.91140835   -6.7621213     289.7013  0.027909566  0.028288031            7 
  866000   0.91354632   -6.7647572    289.35406  0.027843925  0.028268612            3 
  867000   0.90772724   -6.7743625    289.63539   0.02783885  0.028249428            7 
  868000   0.92420896   -6.7480365    291.07328  0.027944823  0.028230394            6 
  869000   0.89325248   -6.7753601    290.54873  0.027862364  0.028211531            3 
  870000   0.91653927   -6.8084006    290.62465   0.02783761  0.028192522            9 
  871000    0.9024097   -6.7671131    290.42771  0.027786807  0.028173703            5 
  872000   0.91825517   -6.8060637    291.35205  0.027843277  0.028154681            5 
  873000   0.90760116     -6.78398    291.38509  0.027814537  0.028135581           11 
  874000   0.90414602   -6.8100575    290.76186   0.02772329  0.028116457            5 
  875000   0.88672744   -6.7949086    291.70697  0.027781617  0.028097305           10 
  876000   0.89669055   -6.7858774    291.20575  0.027702221  0.028078104           10 
  877000   0.88552758   -6.7808674    291.96895  0.027743153  0.028059218            4 
  878000   0.91367125   -6.8061837    291.58394  0.027675013  0.028040183            3 
  879000   0.88848156   -6.7652122    291.96999  0.027680128  0.028021253            7 
  880000   0.90309644   -6.7315388    292.21243  0.027671632  0.028002368            5 
  881000   0.89640018   -6.8028219    291.63875  0.027585958   0.02798341            7 
  882000   0.90858324   -6.7570348    292.44794  0.027631136  0.027964465            5 
  883000   0.89705093   -6.7612745    291.91639  0.027549678  0.027945521            9 
  884000   0.91688935   -6.8187864    292.10957  0.027536724  0.027926427           10 
  885000   0.89395029   -6.8053474     292.4908  0.027541507  0.027907362            9 
  886000   0.89935974   -6.7785419    292.52114  0.027513275  0.027888188            3 
  887000    0.8797878   -6.7682013    292.51617   0.02748179  0.027869223            4 
  888000   0.91314805   -6.7953229    293.62852  0.027555229  0.027850364            5 
  889000   0.87755471   -6.7895851    293.57502  0.027519219  0.027831691            9 
  890000   0.89636714   -6.7811625      293.793  0.027508708  0.027812878            7 
  891000   0.88178217   -6.7991877    294.14568  0.027510819  0.027794237            4 
  892000   0.88875997   -6.8070989    293.59665  0.027428686  0.027775455            6 
  893000   0.88423177   -6.7962241    293.25934  0.027366493  0.027756678            9 
  894000   0.91764912   -6.7929727    294.24203  0.027427483  0.027738111            4 
  895000   0.89507534    -6.800492    293.94855  0.027369511  0.027719406            5 
  896000   0.87509172   -6.7932039     293.9325  0.027337472  0.027700478            7 
  897000   0.89127108    -6.791105    293.80244  0.027294913  0.027681664            5 
  898000   0.89525041   -6.7998677    294.41633  0.027321486  0.027662886            6 
  899000   0.90739059   -6.7711128    295.46905  0.027388677  0.027644198            9 
  900000   0.88383607   -6.7551978    295.76336  0.027385497  0.027625557            4 
  901000   0.90023881   -6.7988992    295.24206  0.027306887  0.027606847           12 
  902000   0.92160006   -6.8136672     295.0744  0.027261123  0.027588202            6 
  903000   0.89009949   -6.7943129    295.34033  0.027255475   0.02756942           11 
  904000   0.89994125   -6.8163041    295.42483  0.027233115  0.027550558            7 
  905000   0.90586303   -6.8570241     295.0765  0.027170948   0.02753168            6 
  906000   0.89349899    -6.796118    295.98902  0.027224892   0.02751285            4 
  907000   0.89125803   -6.8109667    295.29716  0.027131309  0.027493994            5 
  908000   0.89953946     -6.82846    295.33183   0.02710461  0.027475147           14 
  909000   0.89947353   -6.8288806     296.3466  0.027167821  0.027456333            7 
  910000   0.89851001   -6.8406962    296.41125  0.027143887  0.027437546            4 
  911000   0.89766172   -6.7931132    295.65955   0.02704533  0.027418841           14 
  912000    0.8801715   -6.8478864    296.14819  0.027060324  0.027399942            8 
  913000   0.88814012   -6.8027053    296.59927  0.027071858  0.027380945            9 
  914000   0.88054813   -6.8109963    296.76654  0.027057489  0.027362138            6 
  915000   0.88755388   -6.7922275    296.26199  0.026981966  0.027343342            5 
  916000    0.9078039    -6.845659    297.31598  0.027048397  0.027324601            6 
  917000   0.89228473   -6.8039108    296.89256  0.026980422    0.0273059            5 
  918000   0.89226088   -6.8064197    297.44359  0.027001052  0.027287218            7 
  919000   0.90642661   -6.8276459    297.98999  0.027021217  0.027268436            5 
  920000   0.87973464   -6.8066668    297.66302   0.02696223  0.027249799            6 
  921000   0.88566256   -6.7927478    298.26792  0.026987688  0.027231298            6 
  922000   0.88105905   -6.8211482    298.47301  0.026976954  0.027212805            7 
  923000   0.87989965   -6.8236206    299.29459  0.027021903  0.027194658            5 
  924000   0.90400348   -6.8201005    298.47937  0.026919135  0.027176322           15 
  925000   0.90077227   -6.8387944      298.762  0.026915496  0.027157833            4 
  926000   0.87307538   -6.8001778     298.3792   0.02685198  0.027139446            6 
  927000   0.89253539   -6.8596622    299.33478  0.026908916  0.027120918            4 
  928000   0.87201973   -6.8379127    298.80688  0.026832515  0.027102393            9 
  929000   0.88094882   -6.7876934    300.00349   0.02691097  0.027083825            8 
  930000   0.89941793   -6.8067739    299.12332  0.026803165  0.027065466            5 
  931000   0.90054615   -6.8243157    299.35319  0.026794951  0.027046877            6 
  932000   0.88072013   -6.8497937    299.55719  0.026784441  0.027028288            5 
  933000   0.86732738     -6.81528       300.12  0.026806002   0.02700973            6 
  934000   0.89017576   -6.8407663    299.55377  0.026726782  0.026991133            7 
  935000   0.88584457   -6.8232841    299.12649  0.026660115  0.026972566            8 
  936000   0.87800537   -6.8160901    300.54838  0.026758225  0.026954208            7 
  937000   0.87068052   -6.7892943    300.22383  0.026700803  0.026935709           10 
  938000   0.88144096   -6.8430788    299.94833  0.026647862  0.026917168            4 
  939000     0.882289   -6.7873528    299.50662  0.026580282  0.026898594            8 
  940000   0.87707775   -6.8506156     300.2922  0.026621649  0.026880187            6 
  941000   0.87295247   -6.8301688    300.23198  0.026588025  0.026861898            5 
  942000   0.85654979   -6.8068204    301.66229  0.026686331  0.026843683            8 
  943000   0.88346923    -6.843823    301.77878  0.026668326  0.026825431           11 
  944000    0.8888951   -6.8305505    301.65387  0.026629049  0.026807252            5 
  945000    0.8847487    -6.820722    302.27326   0.02665549  0.026789035           10 
  946000   0.88225726   -6.8365503    301.51665  0.026560663  0.026770977            6 
  947000   0.88399107   -6.8388847    301.61291  0.026541086  0.026752921            5 
  948000   0.88055614   -6.8164763    302.77789  0.026615497  0.026734971            7 
  949000   0.86736728   -6.8331218    302.17763  0.026534741  0.026717082            6 
  950000   0.86880702   -6.8265579    302.42573  0.026528572  0.026699307            6 
  951000   0.86085859    -6.836415    303.06855  0.026557006  0.026681427           16 
  952000   0.86493092   -6.8304954    302.90265  0.026514588  0.026663607            9 
  953000   0.87362094   -6.8444521    302.17483  0.026423122  0.026645698            6 
  954000   0.88200976   -6.8614786    303.10571  0.026476739  0.026627769           10 
  955000   0.86714115   -6.8570844    303.33973  0.026469435  0.026609852            7 
  956000   0.85774546    -6.835461    302.94458  0.026407303  0.026591921            7 
  957000   0.87162994   -6.8546005    302.51397  0.026342213  0.026574037           11 
  958000   0.88491137   -6.8474136    303.49224  0.026399812  0.026556209            9 
  959000   0.89069705    -6.820901    303.59746  0.026381427  0.026538331            9 
  960000   0.85733855   -6.8522925    303.87702  0.026378213  0.026520663           17 
  961000   0.84567372   -6.8627381    304.44882  0.026400349  0.026502971            4 
  962000   0.87311617   -6.8453018    304.10244    0.0263429  0.026485273            5 
  963000   0.86119642   -6.8506045    304.82542  0.026378108  0.026467582            4 
  964000   0.86261252   -6.8490035    305.53457  0.026412048  0.026449902            6 
  965000   0.87627191   -6.8467963    305.24739  0.026359878  0.026432306            5 
  966000   0.85590261    -6.868679    304.95391  0.026307273  0.026415029            8 
  967000   0.85100302   -6.8423999    305.71107  0.026345318  0.026397683            8 
  968000   0.86223521   -6.8477935    306.02394  0.026345036  0.026380419           10 
  969000   0.87027155   -6.8747238    306.28999  0.026340729  0.026363241            7 
  970000   0.86253174   -6.8568675    306.11264  0.026298337  0.026346186           14 
  971000   0.87371389    -6.843612     307.0314  0.026350103  0.026329066            5 
  972000   0.86661234   -6.8505476    306.59519  0.026285596  0.026311997            3 
  973000   0.88003986   -6.8424879    306.54261  0.026254078  0.026294843           13 
  974000   0.86024943   -6.8536831     307.2024  0.026283573  0.026277688            7 
  975000   0.85486607   -6.8715217    307.93635  0.026319346  0.026260733            4 
  976000   0.85654478   -6.8622217    307.08007  0.026219269   0.02624397            8 
  977000   0.87520381   -6.8349677     307.9025  0.026262581  0.026227029            4 
  978000   0.86289414   -6.8565282    307.76445  0.026223965  0.026210224            4 
  979000    0.8853326   -6.8678887    308.40625  0.026251809  0.026193469            3 
  980000   0.87154084   -6.8316299     307.4024   0.02613966  0.026176517            8 
  981000   0.85072536   -6.8812841    307.86447  0.026152266  0.026159583           23 
  982000   0.86607818   -6.8802976    308.31898  0.026164204  0.026142735            7 
  983000   0.84966014   -6.8632883    309.09365   0.02620326  0.026125909           12 
  984000   0.86026013   -6.8807808     308.3188   0.02611101  0.026109173            4 
  985000   0.86534325    -6.832611    309.87568  0.026216216  0.026092459            6 
  986000   0.85071869   -6.8590121    308.52505  0.026075477  0.026075677           10 
  987000   0.86423215    -6.844119      308.546  0.026050827  0.026058937            4 
  988000   0.84677788   -6.8905607    309.46002  0.026101554  0.026042298            4 
  989000   0.84153023    -6.863376    309.80553  0.026104274  0.026025558            6 
  990000   0.86570683   -6.8338704    309.87992  0.026084168   0.02600905            5 
  991000   0.85273786   -6.8670147    309.22775  0.026003006  0.025992605           10 
  992000   0.82834691   -6.8752732     309.2046  0.025974849  0.025975956           10 
  993000   0.85727446   -6.8743186    310.81372   0.02608373  0.025959268            6 
  994000   0.86210321   -6.8608781     310.4349  0.026025729  0.025942688            5 
  995000    0.8333525   -6.8949151    310.34894  0.025992373  0.025926158           12 
  996000   0.85520745   -6.9177403    310.82187  0.026005846  0.025909497           10 
  997000   0.85041553   -6.8931135    310.40133  0.025944611  0.025892882            9 
  998000   0.85446154   -6.8736779    310.31025  0.025911009  0.025876376            6 
  999000    0.8825638   -6.8951845    310.87167  0.025931904  0.025859885            9 
 1000000   0.85334171   -6.8432038    310.74193  0.025895161  0.025843417            5 
 1001000    0.8577971   -6.8602078    311.16091  0.025904171  0.025826872            4 
 1002000   0.84631251   -6.8685595    310.68908  0.025839079  0.025810178            4 
 1003000   0.87496247   -6.8998114    311.17442  0.025853641  0.025793479            5 
 1004000   0.84027398   -6.9071514     310.2881  0.025754324  0.025776705           11 
 1005000   0.84274784    -6.895741    311.14246   0.02579954  0.025760112            6 
 1006000   0.84571451   -6.8825639    310.63033  0.025731472  0.025743429            7 
 1007000   0.83347223   -6.8906108    311.69151  0.025793736  0.025726772           10 
 1008000   0.84656638    -6.883271    311.64681  0.025764452  0.025710091            4 
 1009000   0.86777234   -6.8988004    311.71212  0.025744311  0.025693377            5 
 1010000   0.86769951   -6.8566956    311.64986  0.025713685  0.025676574            5 
 1011000   0.84343677   -6.8932662    311.42986  0.025670117  0.025659714           10 
 1012000   0.85111963   -6.9092228    311.99186  0.025691029  0.025642925            4 
 1013000   0.84542597   -6.8775577     312.2053  0.025683227  0.025626069           11 
 1014000   0.85195524   -6.8916262    312.58476  0.025689083  0.025609298            8 
 1015000    0.8383639   -6.9101817    312.63734   0.02566809  0.025592641           18 
 1016000   0.84118155   -6.8943767    312.73192  0.025650584   0.02557588            7 
 1017000   0.84169474   -6.9046977    312.46387  0.025603398  0.025559214            7 
 1018000   0.85247731   -6.8862028    312.79851  0.025605641  0.025542619            5 
 1019000   0.83781832   -6.8731042      312.969  0.025594455  0.025525959            6 
 1020000   0.85009761   -6.8721411    313.68095  0.025627528  0.025509373            9 
 1021000    0.8337676   -6.9033397    313.21923  0.025564743  0.025492673            5 
 1022000   0.83252698   -6.8781805    314.01998  0.025605021  0.025476013            9 
 1023000   0.84592089   -6.8828135    312.69627  0.025472163  0.025459132            7 
 1024000   0.83975981   -6.8855867    313.55183  0.025516913  0.025442367            6 
 1025000   0.84953764   -6.9252412    312.94402  0.025442603  0.025425533            6 
 1026000   0.84891557   -6.8937267     313.5251  0.025465002  0.025408734            9 
 1027000   0.84958037    -6.898559    313.55489  0.025442623  0.025392051            9 
 1028000   0.82797154   -6.8678548     313.8606  0.025442655  0.025375416           11 
 1029000   0.83117965   -6.9010865     314.0368    0.0254322  0.025358709            4 
 1030000   0.85009515   -6.9327626    314.09206  0.025411979  0.025342004            6 
 1031000   0.85571569   -6.9107396    313.16316   0.02531225  0.025325189            5 
 1032000    0.8403316    -6.886893    314.51137   0.02539659  0.025308596            8 
 1033000    0.8543505   -6.9106399    313.93947  0.025325869  0.025292082            4 
 1034000   0.82801838   -6.8862788    314.50041  0.025346584  0.025275565            3 
 1035000   0.84699444   -6.9054342    313.51377  0.025242655  0.025259006            4 
 1036000   0.82773131   -6.8797905    315.48516  0.025376863  0.025242468            4 
 1037000   0.85114152   -6.8895609    314.15544  0.025245535  0.025225843            6 
 1038000   0.84649503   -6.8990887    314.59877  0.025256805  0.025209193            6 
 1039000   0.83549988   -6.9195692    314.67266  0.025238423  0.025192328            7 
 1040000   0.83445221   -6.9385389    313.84463  0.025147807  0.025175292           11 
 1041000   0.83293932   -6.9053398    314.22999  0.025154498  0.025158237           12 
 1042000   0.85285782    -6.915758    314.23899  0.025131077   0.02514116            5 
 1043000   0.84294344   -6.9072093    315.03544  0.025170616  0.025124171            3 
 1044000   0.84454376    -6.953377    314.82235  0.025129498  0.025107216            5 
 1045000   0.83546741    -6.916581    315.22518  0.025137574  0.025090263            6 
 1046000   0.85207103    -6.939799    315.15706  0.025108115  0.025073415            2 
 1047000   0.83967186   -6.9136486    315.17594  0.025085637  0.025056597           10 
 1048000   0.85381253   -6.9220773    315.33033  0.025073977  0.025039635           10 
 1049000   0.84396414   -6.9358232     314.8648  0.025013092  0.025022739            6 
 1050000   0.87236392   -6.9112303    315.62405  0.025049527  0.025006064            4 
 1051000   0.83873443   -6.9109292    316.25163  0.025075455  0.024989418            3 
 1052000   0.84826221   -6.9066868    316.16428  0.025044699  0.024972802            5 
 1053000   0.82569104   -6.8981111    316.29516  0.025031272   0.02495613           13 
 1054000   0.83431617    -6.920983    316.31503  0.025009095  0.024939511            8 
 1055000   0.84120244   -6.9171117    316.03161  0.024963003  0.024922816            5 
 1056000   0.83936581   -6.9321564    316.37214  0.024966236  0.024906162            6 
 1057000   0.85142025    -6.907124    317.05274  0.024996274    0.0248896            9 
 1058000   0.84677311   -6.9411693    316.69125  0.024944176  0.024873006            5 
 1059000   0.81713601   -6.9138792     317.1551  0.024957121  0.024856519            7 
 1060000     0.817132   -6.9318758    317.54131   0.02496394  0.024840064            6 
 1061000   0.83670625   -6.9449681    318.15644  0.024988725  0.024823638            4 
 1062000   0.83158223   -6.8998856    317.52512  0.024915656  0.024807445            6 
 1063000   0.83227943   -6.8955569    318.42903  0.024963079  0.024791289            2 
 1064000    0.8191865   -6.9194704    317.89226  0.024897576  0.024775147            5 
 1065000   0.83208717   -6.9057473    318.08623  0.024889376  0.024758732           19 
 1066000   0.82630577    -6.908382     317.8333  0.024846256  0.024742475            6 
 1067000   0.84182304   -6.9453482    317.66717  0.024809994  0.024726101            6 
 1068000   0.84393618   -6.9273039    318.06084  0.024817481  0.024709831           11 
 1069000   0.82659906   -6.9003425    318.13407  0.024799974   0.02469362            9 
 1070000   0.81323175   -6.9237827    318.54894  0.024809107  0.024677369            4 
 1071000   0.81937941   -6.9459853    318.40674  0.024774879  0.024661072           11 
 1072000   0.83556527   -6.9251514    318.04652  0.024723766  0.024644759            4 
 1073000   0.84729741   -6.9431232    318.75269  0.024755568  0.024628395           15 
 1074000    0.8360437   -6.9329787    318.65274  0.024724763  0.024612098            6 
 1075000   0.82004347   -6.9945408    318.51418  0.024691021  0.024595799            8 
 1076000   0.82834151    -6.932928    319.09632   0.02471316  0.024579556            5 
 1077000   0.82708632   -6.9179668    319.27068  0.024703705  0.024563322            7 
 1078000   0.83063717   -6.9304536    319.11637  0.024668859  0.024547143            9 
 1079000   0.81932548   -6.9533973    319.53954  0.024678679   0.02453093            8 
 1080000   0.82730196   -6.9710722     319.2911  0.024636659  0.024514656            6 
 1081000     0.828385   -6.9462374    318.81818  0.024577411  0.024498389           11 
 1082000   0.82157316   -6.9286929    320.54276   0.02468752  0.024482121           13 
 1083000    0.8126415   -6.9574939    320.27242  0.024643923  0.024465957           13 
 1084000   0.82535263   -6.9311829    320.07549  0.024606049  0.024449849            7 
 1085000   0.82043441   -6.9417329    320.52947  0.024618239   0.02443371            8 
 1086000   0.81727999   -6.9555398    321.05676  0.024636031  0.024417538            6 
 1087000   0.81774213   -6.9474034    320.13729  0.024542877  0.024401486            6 
 1088000   0.81786314   -6.9748815    320.32344  0.024534577  0.024385375            9 
 1089000   0.82685666   -6.9568527    320.60291  0.024533434  0.024369383            6 
 1090000   0.83250992   -6.9704881    320.53852  0.024506003  0.024353349            5 
 1091000   0.83622584   -6.9511392    320.61994   0.02448976  0.024337198            7 
 1092000   0.82884361    -6.973933    320.81184  0.024481978  0.024321054            7 
 1093000   0.82507382    -6.983358    321.28989  0.024496027  0.024304895           15 
 1094000   0.82382277   -6.9643614    321.01468  0.024452672  0.024288836           13 
 1095000    0.8225222   -6.9696847    321.52063  0.024468845  0.024272808           13 
 1096000   0.83871611   -6.9570936    320.75396  0.024388227  0.024256642           22 
 1097000    0.7958755   -6.9565874    321.91773  0.024454401  0.024240481           16 
 1098000   0.79891315   -6.9565823    321.29152  0.024384602  0.024224384            6 
 1099000   0.82910164     -6.97199    321.26615   0.02436049  0.024208325            9 
 1100000   0.80444367   -6.9679974    321.37948   0.02434693  0.024192278            7 
 1101000   0.81732494   -6.9480424     321.7915  0.024356002  0.024176339            7 
 1102000   0.82226829   -6.9538216    322.19339  0.024364292  0.024160546            6 
 1103000   0.81594329   -6.9579168    322.25242  0.024346662    0.0241447           10 
 1104000   0.80179114   -6.9375082     322.4607  0.024340331  0.024128823            4 
 1105000   0.82915693   -6.9293693    323.35417  0.024385684  0.024113078           13 
 1106000   0.80342357   -6.9671966    322.76493  0.024319238  0.024097329           10 
 1107000   0.80025849   -6.9540917    321.98136  0.024238284  0.024081581            7 
 1108000   0.80271422    -6.958491    323.08219  0.024299202  0.024065848            5 
 1109000   0.81267081    -6.965328    322.97001  0.024268862  0.024050096            7 
 1110000   0.80870265   -6.9438459    322.47508  0.024209841  0.024034316           17 
 1111000   0.79630169   -6.9872576    322.58333  0.024196169   0.02401841            7 
 1112000   0.80669713   -6.9573728     323.9914  0.024279931  0.024002524            9 
 1113000   0.83024808   -6.9792818    322.94129  0.024179491  0.023986718           14 
 1114000   0.80990823   -6.9669611    322.76977  0.024144956  0.023970844            8 
 1115000   0.80917093   -6.9644249    322.76636  0.024123046  0.023954932            8 
 1116000   0.81572628     -6.99139    322.82927  0.024106128  0.023938909           10 
 1117000    0.8020366   -6.9800328    322.64692  0.024070943  0.023922919            6 
 1118000    0.8118228    -6.965064    323.15667  0.024087408  0.023906939            5 
 1119000   0.80340715    -6.980357    323.46761  0.024089039  0.023891004            6 
 1120000   0.80730027   -6.9608929    323.63602  0.024080061  0.023875121           13 
 1121000   0.80455167   -6.9755926    323.21705  0.024027434  0.023859185            9 
 1122000   0.80501401   -6.9996152    324.02478  0.024066011  0.023843183            9 
 1123000   0.80251395   -6.9848329    323.77232  0.024025848  0.023827158            6 
 1124000   0.80348551   -6.9717002    324.50224  0.024058588  0.023811439            8 
 1125000   0.79422153    -6.980671    324.55527  0.024041131  0.023795696            6 
 1126000   0.80534054   -6.9654538    325.26316   0.02407217  0.023780071            6 
 1127000   0.78129839   -6.9445393     324.3334  0.023982062  0.023764445            6 
 1128000   0.78933632   -6.9686584    324.48805  0.023972226  0.023748747            7 
 1129000   0.80892909   -6.9999239    324.76218  0.023971227  0.023732969           10 
 1130000   0.79687671   -6.9749916    325.24038  0.023985279  0.023717239            5 
 1131000   0.80236354   -6.9832281      325.136  0.023956381  0.023701524           10 
 1132000   0.80333886   -6.9812021    324.62314  0.023897463  0.023685725            5 
 1133000   0.81012508   -6.9493355    325.33332  0.023928605  0.023670007            5 
 1134000   0.79185622   -6.9853548    324.93065  0.023877914  0.023654243            6 
 1135000   0.79714428   -7.0138152    325.14097  0.023872318  0.023638486            8 
 1136000   0.81025029   -7.0133967    325.37968  0.023868814  0.023622808            7 
 1137000   0.79784078   -6.9997655    325.05604  0.023824101  0.023607075            9 
 1138000   0.81155006   -7.0125413    325.00566  0.023799477  0.023591375           10 
 1139000   0.79578964   -6.9826444    324.73565  0.023758827   0.02357558            9 
 1140000   0.79434147   -6.9964851    324.92936  0.023752146  0.023559706            9 
 1141000   0.79519905   -7.0166137    324.79508  0.023721522  0.023543793           12 
 1142000   0.78754518   -6.9927077    325.37855  0.023743327  0.023527827            9 
 1143000    0.8017335   -6.9928004    324.64248  0.023668889  0.023511911           18 
 1144000   0.80256914     -7.00664    325.17546  0.023687023  0.023495955           16 
 1145000   0.80090002   -7.0240233    325.34072  0.023678364  0.023479985           14 
 1146000   0.78061498   -7.0024372     325.5078  0.023669851  0.023464068           16 
 1147000   0.78496501    -6.999905    325.59717  0.023655709  0.023448256           15 
 1148000    0.7898912   -6.9932276    325.29726  0.023613332   0.02343241           17 
 1149000   0.78487848   -7.0087017    325.51602  0.023608647  0.023416559            8 
 1150000   0.80110609    -7.003601    325.87803   0.02361435  0.023400764           29 
 1151000   0.77706488   -6.9928654    326.41105  0.023632425  0.023384905            8 
 1152000   0.77802664   -7.0111078    325.72118  0.023562007  0.023369091            6 
 1153000   0.82722732   -6.9863724    326.74684  0.023615701  0.023353212            4 
 1154000     0.787267    -6.986106    326.46791  0.023575095  0.023337322            9 
 1155000    0.8111302   -6.9905215    325.93938   0.02351655  0.023321383           21 
 1156000   0.80293822   -7.0390908    326.12252  0.023509409  0.023305443           25 
 1157000   0.78559391   -7.0559399    325.19148  0.023422031  0.023289543           14 
 1158000   0.78825852   -7.0077249    325.57877  0.023429675  0.023273667           23 
 1159000   0.78646714    -7.022295    325.29771  0.023389251  0.023257676           10 
 1160000    0.8010466   -7.0167293    325.77243  0.023403192  0.023241662            8 
 1161000   0.78834888   -6.9928289    325.89214  0.023391627  0.023225657            7 
 1162000   0.79836403   -6.9946369    325.91663  0.023373252  0.023209685            4 
 1163000   0.80190701   -7.0014714    326.85048  0.023420069  0.023193644            7 
 1164000   0.79976349   -7.0020108    326.19853  0.023353274  0.023177676            8 
 1165000   0.79875828   -7.0416675    326.08864  0.023325367   0.02316163            4 
 1166000   0.80154194   -7.0138436    325.57811  0.023268876   0.02314549           12 
 1167000   0.78786135   -7.0143329    326.47964  0.023313314  0.023129288           10 
 1168000   0.78431378   -7.0141567    326.29655   0.02328029  0.023113188            4 
 1169000   0.80738731   -6.9800072    326.74195  0.023292127  0.023097093            9 
 1170000   0.80525694   -6.9922111    325.68214  0.023196733  0.023080989           11 
 1171000   0.79814418     -7.01674    325.98209   0.02319827  0.023064716            5 
 1172000   0.79311276   -7.0194703    325.69104  0.023157781  0.023048346            4 
 1173000   0.78188518   -7.0220699    325.44965   0.02312089  0.023032051            7 
 1174000   0.79027841   -7.0070001    325.79764  0.023125897  0.023015733           12 
 1175000   0.79925745   -7.0608849    326.03036  0.023122721  0.022999467           10 
 1176000   0.77084254   -7.0324091    326.01137  0.023101713  0.022983094           11 
 1177000   0.78736509   -7.0297961    326.79968  0.023137899  0.022966768            8 
 1178000   0.77612816   -7.0003396    325.65888  0.023037555  0.022950519           13 
 1179000   0.79271437   -7.0120035    326.60036  0.023084561  0.022934311           16 
 1180000   0.77996404   -7.0533581    326.81988    0.0230805  0.022918058           14 
 1181000   0.78847252    -7.026436    326.22641  0.023019081  0.022901819            9 
 1182000   0.79371587   -7.0503961    326.14732   0.02299403  0.022885514            9 
 1183000   0.78307929    -7.022385    326.27097  0.022983303  0.022869126           11 
 1184000    0.7694825   -7.0456696    326.09194  0.022951291  0.022852739            9 
 1185000   0.78638977   -7.0023208    326.25751  0.022943566  0.022836352           11 
 1186000   0.78570269   -7.0417608    326.47422  0.022939448  0.022820023            7 
 1187000   0.77094308   -7.0586719    325.77408  0.022870969   0.02280358           14 
 1188000   0.78389119   -7.0357558    326.45384    0.0228994  0.022787153           13 
 1189000   0.77616438   -7.0307736    326.43968  0.022879148  0.022770786            8 
 1190000   0.77981715   -7.0453849    327.15851   0.02291026  0.022754467            7 
 1191000   0.78692917   -7.0301624    327.18095  0.022892594   0.02273813           11 
 1192000   0.77363748   -7.0445875    326.99838  0.022860625  0.022721856           21 
 1193000   0.76880774   -7.0207042    328.05218  0.022915073  0.022705596           10 
 1194000   0.78490452   -7.0280785    327.30958  0.022844052  0.022689454            6 
 1195000     0.764908   -7.0247908    328.20248  0.022887202  0.022673418           10 
 1196000   0.77859956     -7.03636    327.14718  0.022794536  0.022657444           12 
 1197000   0.80258102   -7.0383832    327.86768  0.022825653  0.022641447            7 
 1198000   0.78093527   -7.0388167    327.32222  0.022768658  0.022625541           13 
 1199000   0.77098626      -7.0438     327.7936   0.02278243  0.022609519           11 
 1200000   0.75961415   -7.0349569    327.45293  0.022739787  0.022593415           13 
 1201000   0.78138549   -7.0195139    328.33304  0.022781921  0.022577327           12 
 1202000   0.77839121   -7.0570896    328.27748  0.022759115  0.022561192            8 
 1203000   0.77310837   -7.0341906    327.83817  0.022709765  0.022545122            6 
 1204000    0.7841201   -7.0255334    328.32325  0.022724477  0.022529122            7 
 1205000   0.76219728   -7.0675291    327.60001  0.022655602  0.022513071           11 
 1206000   0.79448174   -7.0574845    327.57933  0.022635388  0.022497122           10 
 1207000   0.77242954   -7.0554619    329.07178  0.022719676  0.022481131           11 
 1208000   0.77623262    -7.055167    327.96562   0.02262456   0.02246517           15 
 1209000   0.75023011   -7.0483098    328.19963  0.022621976  0.022449189            7 
 1210000   0.75811931   -7.0525713    328.03126  0.022591685  0.022433257            9 
 1211000   0.76579011   -7.0485645    329.07211  0.022644654  0.022417332           11 
 1212000   0.77736256   -7.0624739    328.63091  0.022595634  0.022401445            8 
 1213000   0.76301538   -7.0796573     329.0656   0.02260687  0.022385511            9 
 1214000   0.77812339   -7.0433788    329.26565  0.022601981  0.022369638            9 
 1215000   0.76255999   -7.0637745    329.37063  0.022590578   0.02235393            7 
 1216000   0.76138849    -7.057194    329.45082  0.022577496  0.022338272           10 
 1217000     0.764475   -7.0268726       329.95  0.022593125   0.02232262            9 
 1218000   0.77568148    -7.046527    329.09572  0.022516128  0.022306912           12 
 1219000   0.76028429   -7.0644881    330.03783  0.022562061  0.022291183            6 
 1220000   0.77030203   -7.0742221    329.39067  0.022499363  0.022275454            7 
 1221000   0.76847804   -7.0496875    328.93949  0.022450143  0.022259666            9 
 1222000   0.77628088   -7.0701866    329.58508  0.022475797  0.022243966           21 
 1223000    0.7707035   -7.0703783    329.67443  0.022463507  0.022228215           29 
 1224000   0.76591836   -7.0870691    330.07274  0.022472273  0.022212528            9 
 1225000   0.74962446    -7.049384    330.58409  0.022488714  0.022196894           16 
 1226000   0.77373768   -7.0497627    330.05763  0.022434586  0.022181217           11 
 1227000   0.77147867   -7.0536511    330.32288  0.022434317  0.022165557           19 
 1228000   0.76408265    -7.068162    330.52984  0.022430092  0.022149848           17 
 1229000   0.77543336   -7.0814628    330.01332  0.022376819  0.022134167           11 
 1230000   0.74835381   -7.0555175    329.88388  0.022349856  0.022118524            9 
 1231000   0.75007782   -7.0792987    329.66008   0.02231655  0.022102935            9 
 1232000    0.7600921   -7.0376322    330.07256  0.022326337  0.022087307           10 
 1233000   0.75722312   -7.0744823    330.17015  0.022314825  0.022071664            8 
 1234000   0.76959134    -7.087234    330.72185  0.022333999  0.022056053           12 
 1235000   0.76400866   -7.0853383     329.5532  0.022237058  0.022040401           14 
 1236000   0.77745499   -7.0817047    329.49745  0.022215308  0.022024762           13 
 1237000   0.75508632   -7.0827144    330.09044  0.022237297  0.022009163           15 
 1238000   0.74578139   -7.0676372    330.84145  0.022269887  0.021993547           12 
 1239000   0.77844567   -7.0801127    330.58881  0.022234921  0.021977912           11 
 1240000   0.75735992   -7.0801813    330.69223   0.02222394  0.021962268           10 
 1241000   0.75734585   -7.0635662    330.60689  0.022200302  0.021946559           12 
 1242000   0.75447005   -7.0502617    330.72579  0.022190405  0.021930891            9 
 1243000   0.75339054   -7.0642758    330.41379  0.022151635  0.021915263           14 
 1244000   0.77001463   -7.1056193    330.50898  0.022140205  0.021899611           19 
 1245000   0.76124737   -7.0734772    330.03854  0.022090933  0.021883965           13 
 1246000   0.75794235   -7.0861415    330.45864    0.0221013  0.021868275           14 
 1247000    0.7547188   -7.1001931    330.62861  0.022094936  0.021852635           12 
 1248000   0.75743938   -7.1114916    329.99102  0.022034657  0.021837019           20 
 1249000   0.72621181   -7.0696313    330.72799  0.022066186  0.021821427           10 
 1250000   0.73259581   -7.1061551    331.60272  0.022106848  0.021805829           12 
 1251000   0.75394025   -7.0741173    331.34531   0.02207203  0.021790281           16 
 1252000   0.74734828   -7.1015365    331.07779  0.022036594  0.021774726           12 
 1253000   0.74919158   -7.0694616    331.46327  0.022044644  0.021759213            9 
 1254000   0.75878936    -7.103537    331.19327  0.022009122  0.021743742           18 
 1255000   0.74029503   -7.0999954    331.05536  0.021982427  0.021728239           13 
 1256000   0.74277516   -7.0679619    331.07327  0.021966114  0.021712727            9 
 1257000   0.76570023   -7.0874449    330.85441  0.021934129  0.021697201           14 
 1258000   0.73669116   -7.0872627    331.45157  0.021956251   0.02168172           11 
 1259000   0.76347002   -7.1305109    331.34281  0.021931613  0.021666202           21 
 1260000   0.74245924   -7.0985942    331.58728  0.021930376  0.021650705           20 
 1261000   0.74773395   -7.1156416    331.62078  0.021915198  0.021635255           20 
 1262000   0.74648804   -7.0926188    331.60893   0.02189705  0.021619757           15 
 1263000   0.75288518   -7.0828471    331.89268  0.021898435  0.021604343           11 
 1264000   0.75194756   -7.0528248    331.95567  0.021885263  0.021588988           35 
 1265000    0.7285412   -7.0827901    333.17713  0.021948427  0.021573612           15 
 1266000   0.74429578   -7.0839295    332.54797  0.021889677  0.021558289           15 
 1267000   0.75106321   -7.0900349    332.59918  0.021875768   0.02154302           10 
 1268000   0.75163058   -7.0904507    332.93899  0.021880848  0.021527742           25 
 1269000   0.74403336   -7.1117449    333.34779  0.021890451  0.021512446           16 
 1270000   0.74305149   -7.1125444    332.50075  0.021817634  0.021497129           11 
 1271000   0.75653901    -7.123866    332.73008  0.021815505  0.021481829           17 
 1272000   0.73740841   -7.0864993    332.85139  0.021806302  0.021466615           23 
 1273000   0.73072902   -7.0832312    332.18593  0.021745609  0.021451438           12 
 1274000   0.76457687   -7.0920556     332.6141  0.021756547  0.021436239           17 
 1275000   0.75608773   -7.0918427    333.35735  0.021788062  0.021421037           13 
 1276000   0.73665604   -7.1041178    332.92149  0.021742522  0.021405853           10 
 1277000   0.74320814   -7.0862511    332.79022  0.021716929  0.021390698           17 
 1278000   0.75062137   -7.0990733    333.20592  0.021727042  0.021375567           14 
 1279000    0.7444627   -7.1153892    332.97114  0.021694758  0.021360341           12 
 1280000   0.75418923   -7.1098254    332.76198  0.021664191  0.021345046           11 
 1281000   0.74962349   -7.1090431    332.34481  0.021620141  0.021329741           10 
 1282000   0.75282215   -7.1324752    333.13481  0.021654629  0.021314521           22 
 1283000   0.74594293   -7.1185499    332.95393  0.021626002  0.021299338           12 
 1284000   0.73024362   -7.1307343    333.69619  0.021657333   0.02128414           33 
 1285000   0.72635601   -7.1209845    333.00566  0.021595698  0.021268876            9 
 1286000   0.74983393   -7.1301908    333.33029  0.021599941  0.021253714           18 
 1287000   0.74274268   -7.1245964    334.12431   0.02163457  0.021238613            8 
 1288000   0.72704696   -7.1093446    333.88402  0.021602227  0.021223488           17 
 1289000   0.73748958   -7.1193223    334.54116  0.021627952  0.021208451            9 
 1290000   0.74230218   -7.1300001    334.31214  0.021596391  0.021193421           10 
 1291000   0.73276882   -7.1118635    334.34478   0.02158177  0.021178379           14 
 1292000   0.74541304   -7.1259816    333.32096   0.02149903  0.021163325            8 
 1293000   0.72997595   -7.1220448    333.54773  0.021497018  0.021148251           10 
 1294000   0.75839166   -7.1447278    333.40389  0.021471142  0.021133155            7 
 1295000   0.73056728    -7.071709    333.77137  0.021478209   0.02111802            5 
 1296000   0.73706679   -7.1168958    333.85546  0.021467043  0.021102984            6 
 1297000   0.73998171    -7.101087    334.10827  0.021466735  0.021088027           20 
 1298000   0.74075759   -7.1176064    334.30472  0.021462809  0.021072955           14 
 1299000   0.74427822    -7.124419    333.55393  0.021398122  0.021057937           15 
 1300000   0.74048524   -7.1595686     333.1388  0.021355051  0.021042914           19 
 1301000    0.7207421   -7.1080587    334.18687   0.02140577   0.02102795           13 
 1302000   0.73660962   -7.1303379    334.52285  0.021410832  0.021013073           16 
 1303000   0.72370309   -7.1345955    334.77939  0.021410807  0.020998159           21 
 1304000   0.72628628   -7.1596396    334.92389  0.021403623  0.020983227           14 
 1305000   0.73637801   -7.1403732    334.89185  0.021385176  0.020968307           14 
 1306000    0.7370789   -7.1285874    334.92071  0.021370643  0.020953421           11 
 1307000   0.73641825   -7.1424027    334.79013  0.021345966   0.02093854           11 
 1308000   0.73378428   -7.1952276    334.16448  0.021289786  0.020923574            8 
 1309000   0.74106438   -7.1384394    334.00071  0.021263096  0.020908571           44 
 1310000   0.74446739   -7.1338692    334.81175  0.021298458  0.020893694           28 
 1311000   0.72768503   -7.1185465    335.02093  0.021295508  0.020878785           17 
 1312000   0.73730824   -7.1539938     334.5463   0.02124913  0.020863897            8 
 1313000   0.73876865   -7.1498414    334.70448  0.021242985  0.020848972           13 
 1314000   0.71993143   -7.1279872    334.68319  0.021225468  0.020834061            7 
 1315000   0.70400525    -7.130379     334.7108  0.021211078  0.020819209           13 
 1316000   0.74582237   -7.1318046    334.89127  0.021206387  0.020804425           13 
 1317000   0.71938607   -7.1258697     334.7576  0.021181827  0.020789639            9 
 1318000   0.72025876   -7.1287683     335.1097  0.021188019  0.020774906           12 
 1319000   0.71823237   -7.1567026    335.89767  0.021221738  0.020760123           20 
 1320000   0.72815027   -7.1548195    336.35579  0.021234582  0.020745388           14 
 1321000   0.73116922    -7.163947    336.07773  0.021200967  0.020730632           34 
 1322000   0.73864833     -7.17496    335.20034  0.021129623  0.020715859           26 
 1323000   0.69817026   -7.1438593     334.9098  0.021095352  0.020701066           37 
 1324000   0.72964025   -7.1572544    335.32375  0.021105472  0.020686348           33 
 1325000   0.72791547   -7.1288033    335.64788   0.02110993  0.020671628           16 
 1326000   0.74816272   -7.1431473    335.51293  0.021085528  0.020656851           51 
 1327000   0.71310024   -7.1602741    335.32486  0.021057829  0.020642066           26 
 1328000   0.70957805   -7.1507975    335.35959  0.021044151  0.020627228           30 
 1329000     0.718563   -7.1272049    335.67696  0.021048217  0.020612416           35 
 1330000   0.72558702   -7.1275322    335.65674  0.021031124  0.020597649           42 
 1331000   0.72476331   -7.1674522    335.58085  0.021010571  0.020582883           57 
 1332000   0.72514893   -7.1561016    335.32889  0.020979035  0.020568142           17 
 1333000   0.73001993   -7.1835454    335.19522   0.02095494  0.020553359           31 
 1334000   0.70321245   -7.1383239    335.83042  0.020978912  0.020538626           25 
 1335000   0.71822859   -7.1456869    335.57238   0.02094709  0.020523969           12 
 1336000   0.72007948   -7.1477426    335.86605  0.020949728  0.020509257           10 
 1337000   0.71370485   -7.1507194     336.0409  0.020944958  0.020494574           11 
 1338000    0.7059891   -7.1617924    335.89565  0.020920257  0.020479861           14 
 1339000   0.71581861   -7.1628889    335.31001  0.020868186  0.020465146           17 
 1340000   0.70772862   -7.1613651    335.78328  0.020882045  0.020450413            7 
 1341000   0.71809269    -7.167332    336.24616  0.020895237  0.020435677            4 
 1342000   0.71905689   -7.1639297    335.43714   0.02082943  0.020420918            8 
 1343000   0.71362017   -7.1724173    335.39382  0.020811232  0.020406159           10 
 1344000   0.71378758   -7.1770752     334.9287  0.020766908  0.020391391           23 
 1345000   0.73703617   -7.1775632    335.95416  0.020815004  0.020376632           14 
 1346000   0.72129764   -7.1818422    335.85348  0.020793306  0.020361836           15 
 1347000   0.71663348   -7.1900574    336.10239  0.020793269  0.020347046           30 
 1348000   0.71647878   -7.1625634    336.14618   0.02078055  0.020332286           16 
 1349000   0.71038554   -7.1891761    335.16748  0.020704688  0.020317499           13 
 1350000   0.70846475   -7.2030236    335.70649  0.020722623  0.020302695            9 
 1351000   0.70689398   -7.1624688    336.58737  0.020761619  0.020287961            7 
 1352000   0.70834899   -7.1635378    336.11158  0.020716937  0.020273246           15 
 1353000   0.71108754   -7.1888094    335.90762  0.020689062    0.0202585            9 
 1354000   0.72791158   -7.1586551    335.53481  0.020650838  0.020243747           12 
 1355000   0.71072709   -7.1628718    336.33735  0.020684954  0.020229034           12 
 1356000   0.70920536   -7.1725631    336.13174  0.020657064  0.020214334           17 
 1357000   0.72412237   -7.1490602    336.23411  0.020648127  0.020199626           15 
 1358000     0.713212    -7.191906    335.36158   0.02057938  0.020184883           12 
 1359000   0.70468976   -7.1835685    335.86543  0.020595133   0.02017015           14 
 1360000    0.7175337   -7.2122742    335.34241  0.020547942  0.020155392           20 
 1361000   0.70500304   -7.2107884     335.9034  0.020567193  0.020140638           28 
 1362000   0.71882508   -7.1693634    335.94954  0.020554916  0.020125943           29 
 1363000   0.70015562   -7.1976622    336.21303  0.020555944  0.020111303           23 
 1364000   0.71950764   -7.1681179    337.04331    0.0205916  0.020096624           37 
 1365000   0.70675368   -7.1861211    336.19318  0.020524614  0.020081934           16 
 1366000   0.70652461   -7.1670576    336.22919  0.020511786  0.020067296           12 
 1367000   0.69073863   -7.1882987    336.64255  0.020521979  0.020052738           14 
 1368000   0.68695464   -7.1592026    336.96114  0.020526385  0.020038223           46 
 1369000   0.70095873   -7.2047188    336.40198  0.020477355  0.020023677           27 
 1370000   0.69760273   -7.2198623    336.31827  0.020457315   0.02000909           25 
 1371000    0.7017907   -7.1880585    336.77122  0.020469926  0.019994491           28 
 1372000   0.71955913   -7.1923318    336.42206  0.020433798  0.019979941           15 
 1373000   0.71343127   -7.2185885    336.74363  0.020438434  0.019965388           14 
 1374000   0.70942277   -7.1854472    335.94528  0.020375139  0.019950831           16 
 1375000   0.71123989   -7.1871608    336.07707  0.020368307  0.019936243           12 
 1376000   0.73091093   -7.1869576    336.26405  0.020364828  0.019921625           27 
 1377000   0.69322678   -7.1730939    335.93839  0.020330331  0.019906984           14 
 1378000   0.71268231   -7.1740152    336.47414  0.020347976  0.019892378           10 
 1379000   0.69830763   -7.1846351    336.44521  0.020331472  0.019877798            8 
 1380000   0.69643886   -7.1989479    337.05172  0.020353365  0.019863288           26 
 1381000   0.70731283    -7.192269     336.9571  0.020332917  0.019848773           31 
 1382000   0.70253927   -7.1995976    336.97233  0.020319123  0.019834234           31 
 1383000   0.69566155   -7.1916966    337.33723  0.020326418  0.019819683            7 
 1384000   0.71036571   -7.1671375    337.34693  0.020312315  0.019805185           14 
 1385000   0.70623727    -7.206529    336.95274  0.020273931  0.019790726           10 
 1386000   0.69910389    -7.187373    337.17536  0.020272689  0.019776291           18 
 1387000   0.68926058   -7.1873168    337.49542  0.020277302  0.019761871           16 
 1388000   0.70748035   -7.2079868    337.53746  0.020265217  0.019747512           15 
 1389000   0.69111781   -7.1909128    337.02308  0.020219767   0.01973307            9 
 1390000   0.70747997   -7.2042357    337.50944  0.020234379  0.019718635           17 
 1391000    0.6951751    -7.189706    337.20452  0.020201565  0.019704208           11 
 1392000   0.69245785   -7.1845742    336.84745  0.020165676  0.019689853            9 
 1393000   0.67711011   -7.1794616     336.9813  0.020159207  0.019675466           28 
 1394000   0.69161112   -7.2185465    336.70876  0.020128453  0.019661086           20 
 1395000   0.69343217   -7.2128265    336.60453  0.020107797  0.019646612           11 
 1396000   0.70184612   -7.2097217    337.34921  0.020137847  0.019632217           12 
 1397000   0.70243051   -7.1957394    337.25301  0.020117693  0.019617867           26 
 1398000   0.70173847   -7.2038695    337.45833  0.020115542  0.019603551           25 
 1399000   0.69221882   -7.2067457    337.61294  0.020110373  0.019589236           17 
 1400000   0.70034616   -7.1889585    337.88304  0.020112086  0.019574944           19 
 1401000   0.71845529   -7.2141707    337.92289    0.0201001  0.019560618           15 
 1402000   0.69686831   -7.2265035    337.51958  0.020061792  0.019546354           16 
 1403000   0.68423326   -7.2153628    337.56284  0.020050062  0.019532042           13 
 1404000   0.68722338   -7.2072323    338.43413  0.020087496  0.019517805           13 
 1405000   0.69326721   -7.2044498    337.40958   0.02001243  0.019503592           15 
 1406000   0.70425823   -7.2253762    337.76752  0.020019412  0.019489385            8 
 1407000   0.68580565   -7.2226649    337.22157  0.019972848  0.019475133           12 
 1408000   0.68521384   -7.2196046     337.4322  0.019971129  0.019460848           35 
 1409000   0.68879186   -7.2066466    337.81315  0.019979486  0.019446594           14 
 1410000   0.68460507   -7.2208614    337.99934   0.01997632  0.019432408           16 
 1411000   0.69640315   -7.2223207    337.42186  0.019928057  0.019418254           18 
 1412000   0.68810616   -7.2026285    338.57999  0.019982294  0.019404136           28 
 1413000   0.68360177   -7.2141656    338.39703  0.019957362  0.019390034           19 
 1414000   0.69228895   -7.2288842     337.7588  0.019905634  0.019375927           34 
 1415000   0.68833739   -7.2302368     337.8749  0.019898404  0.019361822           49 
 1416000   0.71669159   -7.2189413    338.15463  0.019900814  0.019347713           17 
 1417000   0.69368879   -7.2157046    337.72905  0.019861742  0.019333551           21 
 1418000   0.67837896    -7.215207     339.0847  0.019927404  0.019319398           15 
 1419000   0.69075018   -7.2437316    337.87421  0.019842272  0.019305184           13 
 1420000    0.6923201    -7.247096     337.2008  0.019788779  0.019290967           29 
 1421000   0.67875032   -7.2362071    337.78419  0.019809066  0.019276738           17 
 1422000   0.69159241   -7.2364648    338.00022  0.019807795  0.019262544           14 
 1423000   0.67346636   -7.2228504    338.00325  0.019794053  0.019248334           24 
 1424000   0.68950376   -7.2479266    337.33886  0.019741272  0.019234094           19 
 1425000   0.68583817   -7.2682678    337.77806  0.019753103  0.019219846           27 
 1426000   0.69038275   -7.2308646    337.66071  0.019732393  0.019205601           25 
 1427000   0.67643655   -7.2360918    338.17397  0.019748538  0.019191411           32 
 1428000   0.69458594   -7.2426194    337.51645  0.019696338  0.019177202           29 
 1429000   0.68069537   -7.2349481    338.18897  0.019721773  0.019163002           21 
 1430000    0.6983826   -7.2411176    337.77591  0.019683911   0.01914877           27 
 1431000   0.67708911    -7.230866    338.00275  0.019683366  0.019134619           25 
 1432000   0.67625719   -7.2291324    338.01709  0.019670455  0.019120462           29 
 1433000   0.69105349   -7.2596449    338.58275  0.019689623  0.019106342           19 
 1434000   0.67408614   -7.2433506    338.46753  0.019669196   0.01909228           21 
 1435000    0.6715599   -7.2370614    338.43675  0.019653702  0.019078147           43 
 1436000   0.69315258    -7.239919    337.86328  0.019606736  0.019063999           15 
 1437000   0.68518533   -7.2445771    337.37287  0.019564652  0.019049837           28 
 1438000   0.67101502     -7.22655    337.36728  0.019550723    0.0190357           20 
 1439000   0.68035142   -7.2547642    338.08396   0.01957864  0.019021565           18 
 1440000   0.67802333    -7.245434    337.54337   0.01953376  0.019007428           19 
 1441000   0.67414708   -7.2206058    338.49553  0.019575268  0.018993323           12 
 1442000   0.68332507   -7.2676087    337.79175  0.019521021  0.018979217           19 
 1443000   0.67240731   -7.2609736    338.22347  0.019532425  0.018965109           24 
 1444000   0.67173286    -7.242764    338.32348   0.01952467  0.018951008           21 
 1445000   0.66483952   -7.2610872    338.29423  0.019509471   0.01893689           16 
 1446000   0.67982357   -7.2395455    338.28986  0.019495727  0.018922794           30 
 1447000   0.67236166    -7.244515    338.50224  0.019494485   0.01890873           19 
 1448000   0.66477107   -7.2621782    338.41539  0.019476024  0.018894719           19 
 1449000   0.67316262   -7.2551459    337.81218  0.019427892  0.018880699           11 
 1450000   0.66798687    -7.266927    338.09629  0.019430821  0.018866679           11 
 1451000   0.67477548   -7.2324044    338.24468  0.019425952  0.018852688           27 
 1452000   0.67356408   -7.2760519    338.36183  0.019419297   0.01883868           31 
 1453000   0.67181511   -7.2399476    337.84927  0.019376535  0.018824694           32 
 1454000   0.67097963   -7.2601365    338.11407  0.019378385  0.018810701           38 
 1455000   0.68177619     -7.26204    338.00009  0.019358539   0.01879674           45 
 1456000    0.6650862   -7.2408054    338.43921  0.019370376  0.018782762           37 
 1457000   0.68478598   -7.2502366    338.18892  0.019342766  0.018768781           42 
 1458000   0.67634152   -7.2759276    337.73599  0.019303612  0.018754821           78 
 1459000   0.66497585   -7.2668741    338.50355  0.019334221  0.018740832           82 
 1460000   0.66646009   -7.2735836    337.86801  0.019284704  0.018726835           66 
 1461000   0.66289461   -7.2877217    337.56554  0.019254251  0.018712842           73 
 1462000   0.66619618   -7.2445651    338.57805  0.019298794  0.018698847           62 
 1463000   0.67349604   -7.2666542    338.21157  0.019264729  0.018684848           54 
 1464000   0.66610016   -7.2872632    338.09616     0.019245  0.018670841           42 
 1465000   0.67361766   -7.2683588    337.70364  0.019209536  0.018656854           55 
 1466000   0.66847345   -7.2896706    338.42252  0.019237297  0.018642867           56 
 1467000   0.66266201   -7.2704487    337.46645  0.019169873  0.018628842           61 
 1468000   0.67237846   -7.2676261     337.8328  0.019177611  0.018614882           74 
 1469000   0.65095117   -7.2982469    337.97177   0.01917244  0.018600822          105 
 1470000   0.65635978   -7.2868504    337.88813  0.019154656  0.018586807           71 
 1471000   0.66965557   -7.2842724    337.10001  0.019096987  0.018572754           83 
 1472000   0.66151506   -7.2841526     337.0785  0.019082795  0.018558668           88 
 1473000    0.6589786   -7.2846114    337.76857  0.019108881  0.018544592           66 
 1474000   0.65407903   -7.2872998    337.76683  0.019095818  0.018530522           41 
 1475000   0.65953415   -7.2950183     337.3621  0.019060006  0.018516452           40 
 1476000   0.65517665   -7.2863471    337.47609  0.019053528  0.018502379           36 
 1477000   0.67225664   -7.2936805    337.33265  0.019032535  0.018488326           41 
 1478000   0.65414417   -7.2796373    337.58593  0.019033938    0.0184743           38 
 1479000   0.65746037   -7.2878785    338.59124  0.019077713  0.018460279           56 
 1480000   0.65783934   -7.2803714    337.58967  0.019008427  0.018446247           57 
 1481000   0.65247406   -7.2868013    337.83493  0.019009393  0.018432206           37 
 1482000   0.66840644   -7.2816749    338.24511   0.01901963  0.018418193           56 
 1483000   0.64362645   -7.2853258     338.0188  0.018994089  0.018404199           32 
 1484000   0.66978868   -7.2748004    338.34121  0.018999394  0.018390251          104 
 1485000   0.66593043    -7.269617     337.8676  0.018960023  0.018376327          100 
 1486000   0.66426943   -7.2792178    337.92013  0.018950209  0.018362414           98 
 1487000   0.66086681     -7.27875    338.78187  0.018985758   0.01834852           52 
 1488000   0.65574592   -7.2946184     337.0972  0.018878651  0.018334589          114 
 1489000   0.66192876   -7.2585124    338.08157  0.018921064  0.018320677          118 
 1490000   0.65985457    -7.317323    337.69266  0.018886614  0.018306729          114 
 1491000   0.66733102   -7.2985847    337.53314  0.018865032  0.018292789          105 
 1492000   0.66307206   -7.2965297    338.25389  0.018892644   0.01827887          112 
 1493000   0.65145916   -7.3035481    338.27546  0.018881193  0.018264977          156 
 1494000   0.64529829   -7.3013233    337.96476  0.018851225  0.018251099          136 
 1495000   0.65189006   -7.3073555    337.56814  0.018816507   0.01823724          184 
 1496000    0.6486462   -7.3152175    337.52878  0.018801737  0.018223368           80 
 1497000   0.65426485   -7.2976847     337.5718  0.018791572  0.018209468          152 
 1498000   0.65129731   -7.2857251    337.32827   0.01876548  0.018195569          109 
 1499000   0.65125289   -7.3029899    337.68052  0.018772544  0.018181698          133 
 1500000    0.6659325   -7.3182428    337.99443  0.018777468  0.018167817           70 
 1501000   0.64596491   -7.3092381     337.4132  0.018732689  0.018153942          103 
 1502000   0.65469418    -7.329371    337.47625  0.018723715  0.018140027           80 
 1503000   0.65256884   -7.3135016    336.82192  0.018674979  0.018126109           45 
 1504000   0.65678318   -7.3073807    337.33969  0.018691251  0.018112184           61 
 1505000   0.66602773   -7.3257712    336.98003  0.018658916  0.018098297           76 
 1506000   0.64620248   -7.3356084    337.26397  0.018662238  0.018084403          108 
 1507000   0.65966213   -7.3169412    336.80324  0.018624377  0.018070495           85 
 1508000   0.64515651   -7.3301802    337.94449  0.018675093   0.01805666          112 
 1509000   0.64665376   -7.3294334    337.33938  0.018629301  0.018042823          161 
 1510000   0.64924361   -7.3162679    337.23916  0.018611433  0.018028983          124 
 1511000   0.66402635   -7.3258474     337.2248  0.018598323  0.018015136          135 
 1512000   0.65840816     -7.34057    337.81705  0.018618664  0.018001303          121 
 1513000   0.64580223    -7.334479    337.49532  0.018588638  0.017987492          168 
 1514000   0.65176906   -7.3432347    337.80968  0.018593663  0.017973699          235 
 1515000   0.63790721   -7.3467782     337.2553  0.018550897  0.017959863          189 
 1516000   0.64412695   -7.3390532    337.40854  0.018547083  0.017946058          156 
 1517000   0.65170465   -7.3444555    337.25736  0.018526553  0.017932246          237 
 1518000    0.6544582   -7.3402192    337.83514  0.018546066  0.017918423          208 
 1519000   0.64014028   -7.3133191    337.99128  0.018542423  0.017904652          193 
 1520000     0.646826   -7.3129106    338.13666  0.018538194  0.017890905           96 
 1521000   0.64683715   -7.3233101    337.29958  0.018480144  0.017877148          142 
 1522000   0.62878005   -7.3070351    337.69354  0.018489572  0.017863399          126 
 1523000   0.64997221   -7.2885434    338.19689  0.018504973  0.017849699          167 
 1524000   0.64275649   -7.3255408    337.52019  0.018455829   0.01783599          132 
 1525000    0.6543833   -7.3237024    337.98295  0.018469014  0.017822338          122 
 1526000    0.6531801   -7.3400998    337.93146  0.018454099  0.017808652          113 
 1527000   0.64832005   -7.3434149    338.33531  0.018464053  0.017794966          156 
 1528000   0.63897332   -7.3523857     337.5368  0.018408421  0.017781243          131 
 1529000    0.6327585   -7.3134089    337.80656  0.018411084  0.017767549          176 
 1530000   0.64172921   -7.3440758    337.45215  0.018379747  0.017753862          201 
 1531000   0.64162463   -7.3374241    337.23572  0.018355961   0.01774015          185 
 1532000   0.64409393   -7.3379266    337.03449  0.018333034  0.017726399          205 
 1533000   0.64629484   -7.3227641    336.84206  0.018310614  0.017712669          109 
 1534000   0.64900712   -7.3163444    337.22013  0.018319216  0.017698937          189 
 1535000   0.65098515   -7.3555834    336.82696  0.018285937  0.017685184          125 
 1536000   0.63500284   -7.3162263    337.65818  0.018319129  0.017671448          171 
 1537000   0.64359479   -7.3650762     336.3904  0.018238473  0.017657682          307 
 1538000   0.62228676   -7.3434609     336.9604  0.018257499  0.017643952          279 
 1539000   0.64927765   -7.3284613    337.11258  0.018253876  0.017630242          168 
 1540000   0.63133234   -7.3455991    336.97855   0.01823477  0.017616556          153 
 1541000    0.6372695   -7.3365163    337.15811  0.018232647  0.017602873          151 
 1542000   0.63427346   -7.3524136    337.64065  0.018246901  0.017589208          219 
 1543000   0.62780456   -7.3601727    337.24654   0.01821379  0.017575545          154 
 1544000    0.6416382    -7.363748    336.35496  0.018153873  0.017561862          132 
 1545000   0.64248507   -7.3792899    337.17305  0.018186249  0.017548195          235 
 1546000   0.64191674   -7.3584285    337.37133  0.018185173  0.017534531          293 
 1547000   0.63443807   -7.3709462    336.57219   0.01813037  0.017520836          325 
 1548000   0.64839825   -7.3644684    336.62805  0.018121665  0.017507123          162 
 1549000   0.63597724    -7.347694    336.60452    0.0181087  0.017493426          265 
 1550000   0.63884039   -7.3803828    337.47378  0.018143752  0.017479782          208 
 1551000   0.63160104   -7.3507472    336.55296  0.018082579  0.017466158          252 
 1552000   0.63872394   -7.3590459    337.31245  0.018111708   0.01745252          173 
 1553000   0.63744563   -7.3648135     337.3348  0.018101245  0.017438907          197 
 1554000   0.62421306   -7.3586504    336.75625  0.018058572  0.017425283          135 
 1555000   0.62991557   -7.3628677    336.67945  0.018042843  0.017411679          260 
 1556000   0.63356819   -7.3548148    336.61651  0.018027877  0.017398095          125 
 1557000    0.6330676   -7.3674388    336.44762  0.018007258  0.017384499          247 
 1558000   0.64051104   -7.3655503    336.39859  0.017993078  0.017370904          114 
 1559000   0.62579822   -7.3391753    336.29656  0.017976083  0.017357312          117 
 1560000   0.61888528   -7.3610545    336.83614  0.017993384  0.017343755          243 
 1561000   0.63577195   -7.3595881    336.75533  0.017977543  0.017330204          193 
 1562000   0.62133351   -7.3678746    336.81272  0.017969095  0.017316644          165 
 1563000   0.62793079   -7.3720498    336.88046   0.01796121  0.017303121          161 
 1564000   0.63384047   -7.3802729    336.81769  0.017946381  0.017289654          115 
 1565000   0.62432343   -7.3607165    336.78078  0.017932949  0.017276156           77 
 1566000   0.61240032   -7.3877033    337.49581  0.017959547  0.017262684          125 
 1567000   0.63312506   -7.3727047    337.14048  0.017929189  0.017249214          163 
 1568000   0.61872534   -7.3679199    337.19332  0.017920563  0.017235771          122 
 1569000   0.62240741   -7.3805057    337.38994  0.017919585  0.017222346           73 
 1570000    0.6220246   -7.3806678    337.33785  0.017905406  0.017208945           99 
 1571000   0.61930612   -7.3765981    336.96153  0.017874047  0.017195564          113 
 1572000   0.61071292     -7.36391    336.80082  0.017854157   0.01718221          224 
 1573000   0.63103329   -7.3681546    337.41942  0.017875578  0.017168841          211 
 1574000   0.61863943    -7.390732    337.04675  0.017844491  0.017155486           61 
 1575000   0.61678334   -7.3846568    337.73693  0.017869679  0.017142112          161 
 1576000   0.62538687   -7.3885575    337.00302  0.017819533  0.017128754          237 
 1577000   0.61423686   -7.3851811    337.27137  0.017822414  0.017115397          172 
 1578000   0.62299398   -7.3660804    337.55937  0.017826329  0.017102058          190 
 1579000   0.61009574   -7.3725616     337.3294  0.017802903  0.017088722          199 
 1580000    0.6313633   -7.3872662    337.96054  0.017824923  0.017075419          184 
 1581000    0.6298062   -7.3776026    337.23806  0.017775567   0.01706213          208 
 1582000   0.61471941   -7.3656974    337.14172  0.017759256  0.017048864          146 
 1583000   0.62429566   -7.3820463    336.25784  0.017701507  0.017035607          166 
 1584000    0.6165387   -7.3862232    336.97927  0.017728286  0.017022332          261 
 1585000   0.61546218   -7.3996599    336.34752  0.017683886  0.017009037          210 
 1586000   0.62293787   -7.4181057    337.51956  0.017734319  0.016995752          240 
 1587000   0.61965774   -7.3955971    336.66492  0.017678267  0.016982471          202 
 1588000   0.62201398   -7.3794954    336.25465  0.017645605  0.016969211          254 
 1589000   0.62380686   -7.4011123    337.02907  0.017675114  0.016955916          245 
 1590000   0.61538369   -7.3915066    337.35896  0.017681287  0.016942641          226 
 1591000   0.61780675   -7.3949074    336.98304  0.017650484    0.0169294          257 
 1592000   0.60846112   -7.4095012    336.59362  0.017619013  0.016916138          275 
 1593000   0.61416477   -7.3871741    336.85506  0.017621629  0.016902857          218 
 1594000   0.63417011   -7.3857052    336.64856  0.017599778  0.016889623          267 
 1595000   0.64577313   -7.3943889    336.57222  0.017584756  0.016876411          236 
 1596000   0.61888053   -7.3749785    337.56194  0.017625415  0.016863222          202 
 1597000   0.61845365   -7.3907887     337.2627  0.017598764  0.016850044          243 
 1598000   0.61362473   -7.4138897    337.50797  0.017600541  0.016836866          260 
 1599000   0.60932634   -7.3837526    337.19358  0.017573149  0.016823705          199 
 1600000   0.62631973   -7.4058149    337.27534  0.017566424  0.016810574          147 
 1601000   0.62643589   -7.4112428    337.27447  0.017555406  0.016797434          192 
 1602000   0.60329379   -7.3931566    336.82544   0.01752109  0.016784289          172 
 1603000   0.61739742   -7.3901225    336.49783  0.017493129  0.016771141          225 
 1604000    0.6238045   -7.4044826    336.89929   0.01750308   0.01675802          227 
 1605000   0.60995849   -7.4095362    337.35209  0.017515685  0.016744913          169 
 1606000   0.62784995   -7.3886343    336.91333  0.017482012  0.016731782          316 
 1607000   0.60617052   -7.4049769    336.78802  0.017464635  0.016718653          255 
 1608000   0.61215011   -7.4081119     337.1266  0.017471321  0.016705531          184 
 1609000     0.606618   -7.3963583    336.31535  0.017418446  0.016692399          215 
 1610000   0.60709172   -7.4226939    336.93089  0.017439487  0.016679269          266 
 1611000   0.63145462   -7.4213079     336.3768       0.0174  0.016666176          213 
 1612000   0.60554298   -7.4084835    336.71913  0.017406903  0.016653076          280 
 1613000   0.61364459   -7.4088194    336.44969  0.017382191  0.016640013          202 
 1614000   0.62452393   -7.4011947     336.9467  0.017397083  0.016626942          238 
 1615000   0.61164284   -7.3932059    336.29917  0.017352898  0.016613873          313 
 1616000   0.61315314   -7.4240652     336.7253  0.017364135  0.016600799          227 
 1617000   0.61177772   -7.4061569    336.67554  0.017350832  0.016587739          272 
 1618000   0.60084627   -7.4139721    337.06294  0.017360061  0.016574721          234 
 1619000   0.59795421   -7.4316624    336.97095  0.017344603  0.016561703          237 
 1620000   0.60599288   -7.4133538    336.40897  0.017304988  0.016548695          246 
 1621000   0.59840732   -7.4366652    336.42652  0.017295215  0.016535685          230 
 1622000   0.60705259   -7.4169702    336.99499  0.017313758  0.016522651          228 
 1623000   0.61087884   -7.4359903    336.37087  0.017271045  0.016509649          317 
 1624000   0.60187968   -7.4148072    337.08916  0.017297268  0.016496679          332 
 1625000   0.59093968   -7.4144258    336.34626  0.017248526   0.01648369          315 
 1626000    0.6013966   -7.4222252    336.81264   0.01726182  0.016470701          269 
 1627000   0.60520936   -7.4295534    336.21766  0.017220736    0.0164577          259 
 1628000   0.61126726   -7.3959187      336.681  0.017233876  0.016444733          296 
 1629000   0.60662831   -7.4294336    336.73177  0.017225894  0.016431778          281 
 1630000    0.6022193   -7.4179509    337.72528  0.017266119  0.016418858          349 
 1631000   0.60112205    -7.400274    336.15003  0.017175047  0.016405901          378 
 1632000   0.60428082   -7.4419172    336.20656   0.01716741  0.016392944          422 
 1633000   0.61739423   -7.4379117    336.09693  0.017151303  0.016380003          414 
 1634000   0.61139695   -7.4362703    336.02494  0.017137135  0.016367095          363 
 1635000   0.59791928    -7.430481    336.50441  0.017151091  0.016354185          311 
 1636000   0.60281461    -7.439936    336.02172  0.017116021  0.016341291          413 
 1637000    0.6067118   -7.4448201    336.35801  0.017122684  0.016328416          385 
 1638000   0.60405236   -7.4417771    336.24221  0.017106339  0.016315528          354 
 1639000   0.60420176   -7.4240129    336.33653  0.017100698  0.016302639          321 
 1640000   0.60819783   -7.4374708    336.30033  0.017088431   0.01628978          278 
 1641000   0.59919068   -7.4347244    336.89151  0.017108039  0.016276924          376 
 1642000   0.60991663   -7.4340481    336.40557  0.017072958  0.016264067          415 
 1643000   0.59383575   -7.4297514    336.04055  0.017044053  0.016251226          395 
 1644000   0.59609216   -7.4452728    336.37835  0.017050808  0.016238394          585 
 1645000   0.60063256    -7.442467    336.21988  0.017032416  0.016225571          481 
 1646000   0.59992789   -7.4113516    335.93759  0.017007776   0.01621276          509 
 1647000   0.58351619   -7.4258975     336.7472  0.017038413  0.016199971          326 
 1648000   0.60336792   -7.4376723    336.81746  0.017031627  0.016187191          399 
 1649000    0.5941322   -7.4379057    337.01139  0.017031099  0.016174425          396 
 1650000   0.59672301   -7.4385157    336.52868  0.016996398  0.016161674          348 
 1651000   0.59656142   -7.4366925    335.76988  0.016947803  0.016148909          462 
 1652000   0.59377665   -7.4531936    336.11277  0.016954841  0.016136176          382 
 1653000   0.58969718   -7.4417261    336.50172  0.016964192  0.016123448          410 
 1654000   0.58605488   -7.4477326    337.38896  0.016998638  0.016110735          440 
 1655000   0.58028752   -7.4296189    336.23611  0.016930318  0.016098031          490 
 1656000   0.60650611   -7.4387291     336.3482  0.016925735  0.016085342          472 
 1657000   0.58407497   -7.4332626     336.5519  0.016925764  0.016072652          489 
 1658000   0.58798033   -7.4673563    336.39288  0.016907563  0.016059976          487 
 1659000   0.58637131    -7.458674    336.19548  0.016887456  0.016047303          316 
 1660000   0.58546398   -7.4469958    336.05951  0.016870457  0.016034647          460 
 1661000   0.57875517   -7.4240302    336.34643  0.016874695  0.016022011          359 
 1662000   0.58808217    -7.433886    336.08197  0.016851282  0.016009383          508 
 1663000   0.59059574   -7.4423402    336.45543  0.016859863  0.015996777          475 
 1664000   0.59231986   -7.4611907     337.0418  0.016879096  0.015984188          519 
 1665000   0.58704585   -7.4431756    336.04969  0.016819304   0.01597157          518 
 1666000    0.5767937   -7.4374465    336.40942  0.016827202  0.015958963          573 
 1667000   0.59483163   -7.4668065    336.64574  0.016828921   0.01594637          583 
 1668000    0.6031705   -7.4623425    335.99816  0.016786479  0.015933797          612 
 1669000    0.5722985   -7.4618925    336.15288  0.016784146  0.015921255          513 
 1670000   0.59256605   -7.4433966    337.08839  0.016820778  0.015908707          469 
 1671000   0.59083412   -7.4579517    336.30555  0.016771671  0.015896187          559 
 1672000   0.59160784   -7.4642818    335.80119  0.016736502  0.015883651          523 
 1673000   0.57436457    -7.454023    336.15866  0.016744305  0.015871123          615 
 1674000   0.59767482   -7.4369572    336.22018  0.016737365  0.015858618          584 
 1675000   0.57814684   -7.4540758    336.65549  0.016749029  0.015846126          541 
 1676000   0.58364541   -7.4629188    336.35666  0.016724178  0.015833605          574 
 1677000   0.57864702   -7.4498566    336.60978  0.016726783  0.015821102          582 
 1678000   0.57367122   -7.4527992    335.96862  0.016684973  0.015808573          619 
 1679000   0.58864537   -7.4472124    336.52121  0.016702462  0.015796094          607 
 1680000   0.58516189   -7.4611225    336.10552  0.016671901  0.015783637          585 
 1681000   0.56678651   -7.4777247    335.82022   0.01664784  0.015771169          612 
 1682000   0.58060832   -7.4861042    336.05346  0.016649498  0.015758674          583 
 1683000   0.57927737   -7.4568992    336.26023  0.016649843   0.01574623          546 
 1684000   0.58151045   -7.4681557    335.56707  0.016605655  0.015733779          681 
 1685000   0.58432708   -7.4759812    336.13483  0.016623879  0.015721345          647 
 1686000   0.57857097   -7.4657116    336.08531  0.016611571  0.015708945          622 
 1687000   0.58624076   -7.4697543    336.23219   0.01660898  0.015696544          622 
 1688000   0.56460695   -7.4587515     335.1676  0.016546584  0.015684122          694 
 1689000   0.59947298   -7.4665209    335.07227  0.016532084  0.015671698          733 
 1690000   0.58341825   -7.4663476    335.76308  0.016556365  0.015659268          638 
 1691000   0.57623248    -7.467913    335.47048  0.016532155  0.015646857          695 
 1692000   0.57497113    -7.476275    335.95069  0.016546035  0.015634462          649 
 1693000   0.57725914   -7.4913157    336.02515  0.016539926  0.015622095          654 
 1694000   0.56183857   -7.4840486    335.76767  0.016517497  0.015609713          628 
 1695000   0.56731284   -7.4765114    336.22162   0.01653007  0.015597342          617 
 1696000    0.5666498     -7.50173    335.84722  0.016501927  0.015584982          645 
 1697000    0.5722291   -7.4713385    335.82562  0.016491142  0.015572634          585 
 1698000   0.57185142   -7.4813531    335.93675  0.016486884  0.015560292          632 
 1699000   0.57655172   -7.4866255    335.68326  0.016464747  0.015547964          646 
 1700000   0.57915586   -7.4635709     336.2607  0.016483368  0.015535656          586 
 1701000   0.57208014   -7.4833485     336.5364  0.016487184  0.015523359          612 
 1702000    0.5626273   -7.5007526    335.37702  0.016420732   0.01551105          653 
 1703000   0.57467264   -7.4920172    335.57065  0.016420564  0.015498763          565 
 1704000   0.55630045   -7.4970857    336.06733  0.016435217  0.015486493          640 
 1705000   0.58176673   -7.5038163    335.84164  0.016414547  0.015474228          615 
 1706000   0.57068098   -7.5040333    336.00044  0.016412683  0.015461957          631 
 1707000   0.57341571    -7.488054    335.90735  0.016398523    0.0154497          632 
 1708000   0.56251789    -7.486528      335.985  0.016392711  0.015437465          663 
 1709000   0.57724897   -7.5058752    336.01731  0.016384694  0.015425229          680 
 1710000   0.56250521   -7.5128761    335.30228  0.016340267  0.015413011          697 
 1711000   0.57408539   -7.5024651    335.94796  0.016362165   0.01540078          713 
 1712000   0.57326154   -7.4968023    335.96456  0.016353415  0.015388566          661 
 1713000   0.57121576    -7.524846    336.07234  0.016349112  0.015376371          692 
 1714000   0.56927231   -7.4840279    335.71634  0.016322265  0.015364183          537 
 1715000   0.56356071   -7.5048363    335.52088   0.01630325  0.015352014          678 
 1716000   0.57763042   -7.4943544    336.11702  0.016322699   0.01533984          727 
 1717000   0.56299087   -7.5013247    335.68701  0.016292322  0.015327674          689 
 1718000   0.56205199   -7.5074678    335.94547  0.016295376   0.01531553          623 
 1719000   0.55861273   -7.5019768    335.44366   0.01626157  0.015303395          579 
 1720000     0.569121   -7.5322165    336.09767  0.016283802  0.015291269          659 
 1721000   0.55914696   -7.4994187    335.71309  0.016255718   0.01527916          638 
 1722000   0.56745745   -7.4979152    335.72452  0.016246831  0.015267058          666 
 1723000   0.56086726   -7.5182467     335.4498  0.016224115  0.015254953          783 
 1724000   0.57296811   -7.5156647    335.68483  0.016226065  0.015242857          698 
 1725000   0.56995183   -7.4918722    335.57404  0.016211306  0.015230766          745 
 1726000   0.56865319   -7.5096496    335.20408  0.016184052  0.015218699          708 
 1727000   0.56447003   -7.5157355    335.10966  0.016170124  0.015206639          704 
 1728000   0.56714648    -7.496421    335.36871  0.016173259  0.015194598          700 
 1729000    0.5775987   -7.5238244    335.58615  0.016174386  0.015182569          633 
 1730000   0.55388384   -7.5131577     335.9746  0.016183748  0.015170545          645 
 1731000   0.55231023   -7.5311727    335.62545   0.01615759  0.015158547          649 
 1732000   0.57298229   -7.5157188    335.32311  0.016133714  0.015146556          673 
 1733000   0.57316711   -7.5208519    334.77922  0.016098251  0.015134563          682 
 1734000    0.5652764   -7.5031814    335.22055  0.016110176   0.01512259          744 
 1735000   0.55727458   -7.5120598    335.39381  0.016109213  0.015110626          638 
 1736000   0.55659828   -7.5264094    336.06005  0.016131915   0.01509867          723 
 1737000   0.55389886    -7.516805    335.71892  0.016106262   0.01508671          699 
 1738000   0.57658134   -7.5301232    335.44201  0.016083718  0.015074749          700 
 1739000   0.55288418   -7.5384482    335.67189  0.016085485  0.015062809          718 
 1740000   0.55907949   -7.5342116     335.6564  0.016075498  0.015050879          670 
 1741000   0.56649369   -7.5024612    335.95347  0.016080484  0.015038965          677 
 1742000    0.5728636   -7.5386159    335.56307  0.016052577  0.015027066          759 
 1743000   0.55843114   -7.5245528    335.10869  0.016021643  0.015015167          719 
 1744000   0.56444311   -7.5215165    335.43356   0.01602798  0.015003273          681 
 1745000   0.56691158   -7.5148004     335.8324  0.016037841  0.014991395          696 
 1746000   0.55989417    -7.548732    335.41217  0.016008599  0.014979526          669 
 1747000   0.55145319   -7.5161752    335.95285  0.016025227  0.014967664          716 
 1748000   0.55201685   -7.5113466    335.37369  0.015988448  0.014955812          726 
 1749000   0.56841469   -7.5309775    335.74777   0.01599713  0.014943949          716 
 1750000    0.5478874     -7.53244    335.13127  0.015958632  0.014932106          742 
 1751000   0.55611932   -7.5485262    335.28013  0.015956602   0.01492028          737 
 1752000   0.55389871   -7.5259818    335.36755  0.015951653  0.014908443          770 
 1753000     0.537215   -7.5231431    335.36823  0.015942585  0.014896646          757 
 1754000   0.55614607   -7.5386501    335.16806  0.015923986  0.014884858          788 
 1755000    0.5480102    -7.519844    335.49621  0.015930494  0.014873074          803 
 1756000   0.56336363   -7.5428571    335.72538  0.015932298  0.014861304          782 
 1757000   0.55261743   -7.5406423    334.97972  0.015887864  0.014849543          821 
 1758000   0.53536086   -7.5466199    335.37679  0.015897648  0.014837784          760 
 1759000   0.54494095   -7.5418785     335.0585  0.015873531  0.014826036          640 
 1760000   0.54566945   -7.5177733    335.23451  0.015872846  0.014814302          737 
 1761000   0.54681453   -7.5372749    335.02821   0.01585407  0.014802572          796 
 1762000   0.56716522   -7.5436004    334.88582  0.015838338  0.014790844          731 
 1763000   0.55252658   -7.5682975    335.14624  0.015841664  0.014779124          788 
 1764000   0.54278778    -7.526855    335.45062  0.015847062  0.014767406          761 
 1765000   0.55908823   -7.5412908    335.13642  0.015823249  0.014755686          788 
 1766000   0.54280371   -7.5635725    335.85651  0.015848269   0.01474398          792 
 1767000   0.55360397    -7.552516    335.17721  0.015807263  0.014732281          812 
 1768000   0.53935748   -7.5450981    334.65711  0.015773808  0.014720591          792 
 1769000   0.55857834   -7.5542394    335.07092  0.015784385  0.014708919          788 
 1770000   0.54349011   -7.5408211    335.35868  0.015789015  0.014697245          762 
 1771000   0.55241114   -7.5489837    334.90222  0.015758622  0.014685583          759 
 1772000   0.54421673   -7.5410207    334.99538  0.015754109  0.014673944          839 
 1773000   0.55272532   -7.5538324    335.15833  0.015752882  0.014662296          832 
 1774000   0.55100458   -7.5595725    334.86309  0.015730134  0.014650657          874 
 1775000   0.54509938   -7.5550574    334.58811  0.015708362  0.014639023          804 
 1776000   0.52488751   -7.5636911    334.54535  0.015697511  0.014627383          883 
 1777000    0.5424419   -7.5641718    334.76447  0.015698953  0.014615758          882 
 1778000   0.53646279   -7.5633941    334.88761  0.015695895  0.014604133          814 
 1779000   0.53774557   -7.5718742    334.62426  0.015674736  0.014592534          844 
 1780000   0.54387937   -7.5488801    334.95029  0.015681193  0.014580932          777 
 1781000   0.54169345   -7.5666915    334.47503  0.015650151  0.014569356          777 
 1782000   0.55197491   -7.5708072    334.76959  0.015655143  0.014557797          683 
 1783000   0.53024046   -7.5876426    334.96552  0.015655521  0.014546242          854 
 1784000   0.56357897   -7.5647852    334.64446  0.015631748  0.014534689          708 
 1785000   0.53513868   -7.5600812     334.9979  0.015639491  0.014523149          815 
 1786000   0.52479347   -7.5686955    334.53701   0.01560923  0.014511597          816 
 1787000   0.55000131   -7.5530241    334.78401  0.015612013  0.014500058          846 
 1788000   0.54024783   -7.5733376     334.5438  0.015592086  0.014488537          795 
 1789000   0.52710072   -7.5568025    335.11814  0.015610124  0.014477033          788 
 1790000    0.5394393   -7.5668825    334.94086   0.01559315  0.014465535          823 
 1791000   0.53842018   -7.5674402    335.11339  0.015592471  0.014454042          759 
 1792000   0.54058732   -7.5616407    334.57816   0.01555888  0.014442569          663 
 1793000   0.53264952   -7.5680618    335.13136  0.015575914  0.014431083          780 
 1794000   0.53755345   -7.5853322    335.00744  0.015561475  0.014419597          815 
 1795000   0.54862665   -7.5754091    334.90204  0.015547913  0.014408132          762 
 1796000   0.53145236   -7.5785718    334.34368  0.015513348  0.014396678          788 
 1797000   0.53432241    -7.582023    335.21583   0.01554516  0.014385228          782 
 1798000   0.52882694   -7.5655817    334.59812  0.015507885  0.014373791          766 
 1799000    0.5350168   -7.5968317    334.23515  0.015482451  0.014362358          866 
 1800000   0.54104192   -7.5683738    335.10019  0.015513898   0.01435094          811 
 1801000   0.51813184    -7.578579    334.92182  0.015497031  0.014339531          777 
 1802000   0.54405944   -7.5887069    334.08582   0.01544977   0.01432813          778 
 1803000   0.54550986   -7.5860591    334.37677  0.015454648  0.014316741          779 
 1804000   0.53949646   -7.5840925    334.95741  0.015472903  0.014305369          828 
 1805000   0.51959706   -7.5819297    334.48825  0.015442671  0.014293999          816 
 1806000   0.53232368    -7.610758     334.5158  0.015435391   0.01428264          916 
 1807000   0.53612002   -7.5699663    334.75052  0.015437674  0.014271268          884 
 1808000   0.52014631   -7.5921765    334.41052  0.015413464  0.014259932          866 
 1809000   0.53402781   -7.5827666    334.59772  0.015413568  0.014248588          895 
 1810000   0.53432895   -7.5799295     334.4784  0.015399558   0.01423727          907 
 1811000   0.53267757   -7.5674323    334.34773  0.015385042  0.014225944          906 
 1812000   0.53021542    -7.577536    334.24491  0.015371823  0.014214638          900 
 1813000   0.52520727   -7.5835261    334.16801  0.015359809  0.014203339          868 
 1814000    0.5245393   -7.5845973    334.02205  0.015344637  0.014192065          947 
 1815000   0.51513392   -7.5848545    334.38322  0.015352765  0.014180785          901 
 1816000   0.53297213    -7.604594     334.4662  0.015348118  0.014169517          891 
 1817000   0.53586357   -7.6031466    334.11923  0.015323759  0.014158261          878 
 1818000   0.53571409   -7.5918727    334.43195  0.015329664  0.014147011          837 
 1819000   0.51924484   -7.5948848    333.82337  0.015293356  0.014135774          828 
 1820000   0.52591531   -7.5921856    333.96217  0.015291308   0.01412455          875 
 1821000   0.52647378    -7.610442    334.07924  0.015288268  0.014113342          948 
 1822000   0.51671823    -7.588556    334.29714  0.015289843  0.014102148          950 
 1823000   0.51460719   -7.5873523    334.71569  0.015300589   0.01409097          835 
 1824000   0.52911013   -7.6008968    334.40721  0.015278107  0.014079796          880 
 1825000   0.52546677   -7.5855279    334.46299  0.015272283  0.014068644          894 
 1826000   0.51858835   -7.5940218    333.78313  0.015232892  0.014057472          926 
 1827000   0.53292732   -7.5913146     334.2207  0.015244513  0.014046324          912 
 1828000   0.51455167   -7.6103619    334.33086  0.015241195  0.014035172          953 
 1829000   0.51798139   -7.6007809    334.25083  0.015229216  0.014024026          927 
 1830000   0.51739898     -7.59721    334.32668  0.015224348  0.014012901          957 
 1831000   0.51538331   -7.5955723    334.10487  0.015205938  0.014001787          915 
 1832000    0.5210302   -7.6043225    334.12028  0.015198339  0.013990685          919 
 1833000   0.52317403   -7.6398752    334.60878  0.015212256    0.0139796         1033 
 1834000   0.52471672   -7.6084017    333.84057  0.015169055  0.013968504          928 
 1835000   0.52190733   -7.5977685    333.98574  0.015167381  0.013957422          921 
 1836000   0.52134829   -7.6152223    334.45556  0.015180445  0.013946348          920 
 1837000   0.51713547   -7.6011225    333.62546  0.015134524  0.013935291          930 
 1838000   0.53125741   -7.6088318    333.80634  0.015134492  0.013924231          932 
 1839000   0.52021051   -7.6033526    334.34351  0.015150603   0.01391318          919 
 1840000   0.52293017   -7.6035909    333.87882  0.015121323  0.013902128          931 
 1841000   0.52661478    -7.609548    333.77231  0.015108288  0.013891088          900 
 1842000   0.52718998   -7.6112206    334.00526  0.015110625  0.013880068          950 
 1843000   0.51859581   -7.6082044     333.4182  0.015075882  0.013869056          914 
 1844000   0.52746545   -7.6223073    333.75485   0.01508292  0.013858066          932 
 1845000   0.51687474    -7.602246    333.52134  0.015064198  0.013847075          983 
 1846000   0.52738653    -7.585787     334.2349  0.015088249  0.013836087          873 
 1847000   0.52713258   -7.6241278    333.96552  0.015067926  0.013825135          696 
 1848000   0.51129999   -7.5985209    334.33929  0.015076628  0.013814194          960 
 1849000   0.52107003   -7.6116254    333.88739  0.015048107  0.013803254          979 
 1850000   0.50782961   -7.5922482    333.19479  0.015008774  0.013792321          971 
 1851000   0.51499525   -7.6289828    333.98506  0.015036244  0.013781391          970 
 1852000   0.52051769   -7.6247039    333.20333   0.01499295  0.013770457         1049 
 1853000   0.51401088   -7.6354683    334.06621  0.015023665  0.013759546         1015 
 1854000   0.50877043    -7.615629    333.83372  0.015005111  0.013748642         1001 
 1855000    0.5156211   -7.6112116    334.02926  0.015005807  0.013737759          972 
 1856000   0.51572615   -7.6116205    334.07863  0.014999938  0.013726878         1022 
 1857000   0.50970019   -7.6207703    333.63502  0.014971954  0.013716005          992 
 1858000   0.52154533   -7.6151504    333.95533  0.014978262  0.013705138         1061 
 1859000   0.51831274   -7.6169172    333.96136  0.014970475  0.013694302         1000 
 1860000   0.50160769   -7.6195924    334.06847  0.014967225  0.013683459          957 
 1861000   0.49955825    -7.610959    333.46368  0.014932101  0.013672636          939 
 1862000   0.51977251   -7.6111186    333.88761  0.014943054  0.013661828          914 
 1863000   0.52305708   -7.6095874    333.86965   0.01493423  0.013651022          947 
 1864000   0.50205053   -7.6177002    334.06497   0.01493495  0.013640213          972 
 1865000   0.51648734    -7.616234    333.68668  0.014910039  0.013629418          963 
 1866000   0.50951775   -7.6282162     333.6976  0.014902536  0.013618631          992 
 1867000   0.50810758   -7.6286963    333.52535  0.014886866  0.013607854         1027 
 1868000   0.50461184   -7.6255103    333.58742  0.014881666  0.013597096          992 
 1869000   0.50051752   -7.6214648    333.47046  0.014868488  0.013586341         1046 
 1870000   0.51016752   -7.6373516    334.11339  0.014889188  0.013575604         1009 
 1871000   0.49772362   -7.6226807    333.62586  0.014859516  0.013564867         1046 
 1872000   0.51545401   -7.6207223     333.4972  0.014845851  0.013554135         1111 
 1873000   0.50885841   -7.6207249    333.98353  0.014859563  0.013543413         1010 
 1874000    0.5173267   -7.6297917     334.1328  0.014858271  0.013532706         1004 
 1875000   0.51626201   -7.6370841    333.88628   0.01483939  0.013522008         1060 
 1876000     0.508569   -7.6042439    333.65355  0.014821142  0.013511312         1033 
 1877000   0.51944316   -7.6127035    334.03927  0.014830371  0.013500636          955 
 1878000   0.50457287   -7.6318611    333.62814   0.01480423  0.013489948         1049 
 1879000   0.50210436   -7.6316614    332.96169  0.014766795  0.013479285         1008 
 1880000   0.50066452   -7.6310322    333.53013  0.014784137  0.013468637         1034 
 1881000   0.50866651   -7.6389698     333.4023  0.014770614  0.013457981          935 
 1882000   0.51101189    -7.643267    333.39832   0.01476259  0.013447341         1035 
 1883000   0.50903914   -7.6260983    333.42032  0.014755723  0.013436717          990 
 1884000   0.50630609   -7.6487098    333.32092  0.014743494   0.01342612          987 
 1885000   0.50313142   -7.6413717    333.59096  0.014747611  0.013415521         1078 
 1886000   0.50553939   -7.6191826    333.70753  0.014744942  0.013404915         1013 
 1887000   0.49340486   -7.6318158    333.92149  0.014746577  0.013394331          987 
 1888000   0.50227882   -7.6193535    333.89268  0.014737495  0.013383758          976 
 1889000   0.50704674   -7.6379752    333.45437  0.014710357  0.013373195          954 
 1890000   0.50095203   -7.6366951    333.22837  0.014692609  0.013362641          936 
 1891000   0.50340718    -7.637521    333.69492  0.014705399  0.013352081          909 
 1892000   0.49730868   -7.6340611    333.66306  0.014696223  0.013341563          968 
 1893000   0.50250743    -7.638448    333.60111  0.014685733   0.01333103         1052 
 1894000   0.50506043    -7.618799    333.23299  0.014661782  0.013320508         1046 
 1895000    0.4996641   -7.6386519    333.37833  0.014660437   0.01331001         1044 
 1896000   0.49237148   -7.6335407     333.7019  0.014666926  0.013299514         1089 
 1897000   0.49998672    -7.652399    333.33004  0.014642859  0.013289017         1060 
 1898000   0.48974428    -7.645719    333.18701  0.014628864  0.013278521         1071 
 1899000   0.50043479   -7.6422081    333.36514  0.014628977   0.01326804         1038 
 1900000   0.49154257   -7.6327368    333.49815  0.014627112  0.013257563         1094 
 1901000   0.49749927   -7.6565744    333.48972  0.014619048  0.013247088          949 
 1902000   0.49888511   -7.6703065    333.20374  0.014598832  0.013236644          993 
 1903000   0.49759715   -7.6289309    333.43203  0.014601157  0.013226208         1007 
 1904000   0.49444904   -7.6537564    333.77508  0.014608503  0.013215779         1083 
 1905000   0.48957233    -7.656099    332.84209  0.014560021  0.013205357         1095 
 1906000   0.48566869   -7.6448008    333.41418  0.014577395  0.013194937         1036 
 1907000   0.48862272    -7.624042    332.80032  0.014542926  0.013184534         1085 
 1908000   0.49644391    -7.648441     333.1307  0.014549734  0.013174146         1074 
 1909000   0.49725372   -7.6639252    332.83382  0.014529152  0.013163757         1088 
 1910000   0.48904551   -7.6526289     333.4144  0.014546876  0.013153376         1034 
 1911000   0.49008613   -7.6455079    333.04684  0.014523236  0.013143016         1023 
 1912000   0.48706899   -7.6430174    333.71993  0.014544976  0.013132661          953 
 1913000   0.49492372   -7.6436615    332.96953  0.014504684  0.013122319         1071 
 1914000   0.49213298   -7.6324886    333.62258  0.014525539  0.013111979          997 
 1915000   0.48259881   -7.6422647    333.51939  0.014513463  0.013101656         1042 
 1916000   0.47922128    -7.650409    333.00055  0.014483323  0.013091326         1022 
 1917000   0.48424519    -7.654465    333.35461  0.014491159  0.013081016         1044 
 1918000   0.48195223   -7.6483807    332.26596  0.014436303  0.013070699         1000 
 1919000   0.48799037   -7.6531466    333.09505  0.014464784  0.013060404         1001 
 1920000   0.48501947   -7.6194477    333.23229  0.014463207  0.013050121          976 
 1921000   0.48254468   -7.6494891    333.40313  0.014463089  0.013039849         1059 
 1922000   0.49411215   -7.6520956    333.00938  0.014438492  0.013029589         1074 
 1923000   0.48557812   -7.6525839    333.31032  0.014444025  0.013019331         1059 
 1924000   0.48999511   -7.6542681    333.38471   0.01443974  0.013009092         1082 
 1925000   0.48476982   -7.6498459    333.02527  0.014416678  0.012998857         1043 
 1926000   0.47785308   -7.6409556    332.51012  0.014386904   0.01298864          985 
 1927000   0.49090706   -7.6672689    333.38844  0.014417421  0.012978426         1089 
 1928000   0.48174666   -7.6565669    333.27106  0.014404869  0.012968223          954 
 1929000   0.47649138   -7.6531007    332.64389  0.014370308  0.012958029         1011 
 1930000   0.47743552   -7.6739878    333.52976  0.014401112  0.012947839          962 
 1931000   0.47373838    -7.665313    332.74373  0.014359733  0.012937661          994 
 1932000   0.48303248   -7.6629386    332.80035  0.014354743  0.012927503         1044 
 1933000   0.48477977   -7.6654275    332.75783  0.014345483  0.012917341          940 
 1934000   0.47943473   -7.6635879    333.14514  0.014354754  0.012907194          970 
 1935000   0.49258343   -7.6636856    333.27953  0.014353124  0.012897062          969 
 1936000   0.47962094   -7.6499432    332.83746  0.014326681  0.012886934         1049 
 1937000   0.46849008   -7.6532942     332.6232  0.014310067  0.012876805          956 
 1938000   0.49573905   -7.6601004    332.77264  0.014309109  0.012866689          980 
 1939000   0.48668463   -7.6591556    333.19154  0.014319733  0.012856593          963 
 1940000   0.47758406   -7.6748722    332.95778   0.01430231  0.012846499          956 
 1941000   0.47156959   -7.6657836    332.65857  0.014282096   0.01283642         1040 
 1942000   0.48587781   -7.6669692    332.93308  0.014286521  0.012826344         1066 
 1943000   0.48504175   -7.6634054    333.08634  0.014285741   0.01281628         1055 
 1944000   0.47942819   -7.6738508    332.01079  0.014232287  0.012806228         1033 
 1945000   0.47107371   -7.6837395    333.06786  0.014270259  0.012796182          969 
 1946000   0.47442747   -7.6656676    332.60556   0.01424313  0.012786153         1041 
 1947000   0.47357706   -7.6742758    333.48367  0.014273398   0.01277613         1011 
 1948000   0.47249462   -7.6719927    332.52762  0.014225172  0.012766116         1032 
 1949000   0.46924116   -7.6809434    332.75824  0.014227734  0.012756103         1017 
 1950000   0.47908581   -7.6648256    332.46036  0.014207708  0.012746103          997 
 1951000   0.47381404   -7.6672393    332.62778  0.014207576  0.012736115          975 
 1952000   0.47559716   -7.6729924    332.95862  0.014214422  0.012726124         1003 
 1953000   0.47088714   -7.6669473    332.49903  0.014187533  0.012716145          955 
 1954000   0.47997263     -7.65945    332.57036  0.014183315  0.012706173          982 
 1955000   0.46972456   -7.6670334    332.94726  0.014192126  0.012696221         1014 
 1956000   0.44930719     -7.67633    332.60771  0.014170404  0.012686276          999 
 1957000   0.47303129   -7.6764388    332.77498  0.014170285  0.012676344          992 
 1958000   0.47354926   -7.6658826    333.28478  0.014184745  0.012666424         1031 
 1959000   0.47529928   -7.6739471    332.80792   0.01415722  0.012656522         1019 
 1960000   0.47518677   -7.6641871    332.51604  0.014137587  0.012646629          832 
 1961000   0.46226786   -7.6700037    333.07091  0.014153957  0.012636735          950 
 1962000   0.46898282   -7.6865639    332.88048  0.014138654  0.012626859         1077 
 1963000   0.47068927   -7.6875775    332.48552  0.014114685  0.012616985          920 
 1964000   0.48852741   -7.6839487    333.06641  0.014132146  0.012607128         1047 
 1965000   0.45433686   -7.6887813    332.58173  0.014104399   0.01259727          990 
 1966000   0.45912584   -7.6922253     332.8213   0.01410738  0.012587419          988 
 1967000   0.47117575   -7.6860313    333.36973  0.014123442  0.012577583          989 
 1968000   0.47078903   -7.6782974    332.50541  0.014079667  0.012567741         1028 
 1969000   0.45322531   -7.6843857    333.55953  0.014117129  0.012557914          955 
 1970000   0.46933043   -7.6709449    333.09533  0.014090327  0.012548096         1028 
 1971000   0.46969792   -7.6749131    332.60815   0.01406258  0.012538294          987 
 1972000   0.47435535   -7.6887373    333.16841  0.014079125  0.012528493          954 
 1973000   0.47312981   -7.6814016    332.89169  0.014060301  0.012518711         1036 
 1974000   0.46567162    -7.687956    332.50523  0.014036864  0.012508934          927 
 1975000   0.46644678   -7.6966438    332.88272  0.014045684  0.012499157          979 
 1976000   0.46478724   -7.6870925    332.68123  0.014030079  0.012489392          961 
 1977000   0.46882446    -7.691061    332.44385  0.014012976  0.012479636          936 
 1978000   0.46252186   -7.6996937    332.69678  0.014016548   0.01246989         1046 
 1979000   0.46589442   -7.6873139    332.23398  0.013989977  0.012460144          924 
 1980000   0.45255445   -7.6998479    332.88245  0.014010204  0.012450414         1023 
 1981000   0.45154676   -7.6864169    332.37842  0.013981929  0.012440694         1022 
 1982000   0.46763077   -7.6980336    332.83774  0.013994187  0.012430987         1065 
 1983000   0.46149357   -7.7009538    332.53487  0.013974402  0.012421296         1057 
 1984000   0.45994165   -7.6908022    332.33875  0.013959121  0.012411604         1039 
 1985000   0.46283798   -7.6983564    332.25077  0.013948395   0.01240193         1002 
 1986000   0.45535586   -7.6965579    331.84739  0.013924446  0.012392252         1033 
 1987000   0.45736571   -7.6970549    332.38357  0.013939925  0.012382592         1005 
 1988000   0.45641149   -7.6994998     332.2748  0.013928353  0.012372948         1059 
 1989000   0.46714917    -7.692851     332.6395  0.013936631  0.012363296         1034 
 1990000   0.45569944    -7.705909    332.71473  0.013932778  0.012353658          946 
 1991000   0.46656097   -7.6827844    332.68126  0.013924379  0.012344032         1059 
 1992000   0.46138455    -7.687187    331.97043  0.013887652  0.012334416         1009 
 1993000    0.4632213   -7.6847366    332.62305  0.013907972  0.012324814         1057 
 1994000   0.45740203   -7.6851209    332.75663  0.013906579  0.012315216         1052 
 1995000   0.45899682   -7.7146729    332.68769  0.013896729  0.012305628         1044 
 1996000   0.45771436   -7.6975139    332.27301  0.013872454  0.012296054         1028 
 1997000   0.45201318   -7.6835815    332.30968  0.013867037  0.012286477          870 
 1998000    0.4655463   -7.7034801    332.74382  0.013878204  0.012276917         1026 
 1999000   0.44894108   -7.6916316    332.51442  0.013861698  0.012267363         1073 
 2000000   0.45086097   -7.7037026    332.62099  0.013859208  0.012257821         1066 
 2001000   0.45055622    -7.693711    332.24966  0.013836817  0.012248279         1028 
 2002000   0.45759232    -7.682982    332.84299  0.013854603   0.01223877         1040 
 2003000   0.45793653   -7.7052876    331.89763  0.013808355  0.012229256         1026 
 2004000   0.46055369   -7.7008517    332.21885  0.013814822  0.012219749         1059 
 2005000   0.45512012    -7.713032    332.26998  0.013810057  0.012210242          989 
 2006000   0.44975386   -7.7006131    332.34909  0.013806459  0.012200741         1030 
 2007000   0.45390184   -7.7007419    332.16688  0.013792015  0.012191252         1000 
 2008000   0.45534281   -7.6959255    332.15629  0.013784707  0.012181769          965 
 2009000   0.44867994    -7.714809    332.47547  0.013791085  0.012172303         1109 
 2010000   0.45948977   -7.7032117    332.31602  0.013777613  0.012162845         1034 
 2011000   0.45032411   -7.6953629    332.13466  0.013763246  0.012153397          878 
 2012000   0.44442342   -7.7086832    332.13214  0.013756301  0.012143956          998 
Loop time of 4312.81 on 48 procs for 2000000 steps with 4000 atoms

Performance: 80133.416 tau/day, 463.735 timesteps/s
99.4% CPU use with 48 MPI tasks x no OpenMP threads

MPI task timing breakdown:
Section |  min time  |  avg time  |  max time  |%varavg| %total
---------------------------------------------------------------
Pair    | 266.49     | 281.19     | 299.82     |  42.8 |  6.52
Neigh   | 26.948     | 27.416     | 28.23      |   5.7 |  0.64
Comm    | 230.95     | 251.25     | 268.98     |  56.7 |  5.83
Output  | 4.4484     | 4.4502     | 4.4872     |   0.3 |  0.10
Modify  | 3677.9     | 3695.5     | 3715.8     |  17.3 | 85.69
Other   |            | 52.97      |            |       |  1.23

Nlocal:        83.3333 ave          93 max          74 min
Histogram: 1 1 4 10 10 11 5 3 1 2
Nghost:        1796.42 ave        1829 max        1768 min
Histogram: 2 6 9 2 8 5 6 7 2 1
Neighs:        10995.2 ave       13197 max        9539 min
Histogram: 1 6 7 13 5 10 3 2 0 1
FullNghs:      21990.2 ave       25095 max       19501 min
Histogram: 1 4 3 11 9 12 4 2 0 2

Total # of neighbors = 1055530
Ave neighs/atom = 263.88250
Neighbor list builds = 107825
Dangerous builds = 0

#clear
#
#next RN
#
#jump SELF
Total wall time: 1:11:55
