
units lj                  # Use reduced LJ style units
atom_style atomic         # Uncharged point particles
atom_modify map hash      # Needed for indexing of clusters etc
                          # Used to be able to find where atoms are in relation to each other.

lattice fcc 1.0 spacing 1 1 1
Lattice spacing in x,y,z = 1.5874011 1.5874011 1.5874011
region box block 0 10 0 10 0 10 units lattice
create_box 2 box
Created orthogonal box = (0.0000000 0.0000000 0.0000000) to (15.874011 15.874011 15.874011)
  3 by 4 by 4 MPI processor grid
create_atoms 1 box
Created 4000 atoms
  using lattice units in orthogonal box = (0.0000000 0.0000000 0.0000000) to (15.874011 15.874011 15.874011)
  create_atoms CPU = 0.007 seconds
set type 1 type/fraction 2 0.73 78393
Setting atom values ...
  2936 settings made for type/fraction
mass 1 1.0
mass 2 1.0
pair_style lj/cut  3.5
pair_modify tail  yes
pair_coeff 1  1  1.0  1.0   # Intearaction between 1 and 1 set with epsilon = 1 and sigma = 1
pair_coeff 1  2  1.5  0.8
pair_coeff 2  2  0.5  0.88

write_data data.0
System init for write_data ...
Neighbor list info ...
  update every 1 steps, delay 10 steps, check yes
  max neighbors/atom: 2000, page size: 100000
  master list distance cutoff = 3.8
  ghost atom cutoff = 3.8
  binsize = 1.9, bins = 9 9 9
  1 neighbor lists, perpetual/occasional/extra = 1 0 0
  (1) pair lj/cut, perpetual
      attributes: half, newton on
      pair build: half/bin/atomonly/newton
      stencil: half/bin/3d
      bin: standard
WARNING: Not all mixed pair coeffs generated from mixing. Use write_data with 'pair ij' option to store all pair coeffs. (../write_data.cpp:312)


#############################
#   M E L T   S Y S T E M   #
#############################

velocity all create 2.4 8172548 mom yes dist gaussian # Assign velocities
                                                    # Temperature 2.4, random number seed, zero linear momentum
                                                                                # Gaussian distribution

timestep 0.002   # simulation timestep
thermo 1000       # output thermodynamic data every 1000 steps bf 100

# Define a fix  in this case with index 1 applied to all
# particles in the simulation. This fix is for simulations
# in the anisotropic NPT ensemble. Note that we use the MTK
# correction.
fix 1 all npt temp 2.4 2.4 0.1 iso 5.68 5.68 0.5 mtk yes tchain 5 pchain 5 # Use NPT ensemble
                                                                         # Set temperature and pressure and damping
                                                                         # Numbers of thermostats in chain and in barostat
run 10000          # run for 10000 steps
Per MPI rank memory allocation (min/avg/max) = 3.642 | 3.644 | 3.648 Mbytes
Step Temp E_pair E_mol TotEng Press Volume 
       0          2.4   -4.0230884            0  -0.42398835   -3.6147038         4000 
    1000    2.3815337   -3.5670092            0 0.0043982911    5.3946274    3718.7231 
    2000    2.4450782   -3.5992998            0  0.067400615    5.2921685    3715.4529 
    3000    2.4665299   -3.5704268            0   0.12844319    5.6542333    3699.8969 
    4000    2.3845835   -3.5684444            0 0.0075366395    5.7212239    3678.4259 
    5000    2.3931848   -3.5884767            0 0.00040309442    5.3746814    3708.0116 
    6000    2.3483299   -3.5780175            0 -0.056403382    5.5473353    3695.4255 
    7000    2.4148768   -3.5814647            0  0.039944886    5.5653667    3698.3769 
    8000    2.4557994   -3.5832667            0  0.099511545    5.7511515    3687.5301 
    9000    2.3324516   -3.5645724            0 -0.066769735    5.5532987      3690.91 
   10000    2.3891573   -3.5939302            0  -0.01109013    5.6819703    3671.3642 
Loop time of 2.6072 on 48 procs for 10000 steps with 4000 atoms

Performance: 662779.642 tau/day, 3835.530 timesteps/s
99.6% CPU use with 48 MPI tasks x no OpenMP threads

MPI task timing breakdown:
Section |  min time  |  avg time  |  max time  |%varavg| %total
---------------------------------------------------------------
Pair    | 1.1753     | 1.2514     | 1.3361     |   2.6 | 48.00
Neigh   | 0.21321    | 0.22259    | 0.23819    |   1.0 |  8.54
Comm    | 0.77383    | 0.87607    | 0.96454    |   3.9 | 33.60
Output  | 0.00024951 | 0.000255   | 0.00032353 |   0.0 |  0.01
Modify  | 0.21249    | 0.24118    | 0.27241    |   3.2 |  9.25
Other   |            | 0.01574    |            |       |  0.60

Nlocal:        83.3333 ave          93 max          76 min
Histogram: 2 9 9 2 8 7 2 4 3 2
Nghost:        1738.79 ave        1764 max        1714 min
Histogram: 2 6 7 6 4 4 5 6 2 6
Neighs:        10397.5 ave       11776 max        9398 min
Histogram: 7 7 5 3 7 9 1 2 5 2

Total # of neighbors = 499078
Ave neighs/atom = 124.76950
Neighbor list builds = 903
Dangerous builds = 178

# Equilibrate just above the melting temperature to avoid step fn in T

fix 1 all npt temp 1.25 1.25 0.1 iso 5.68 5.68 0.5 mtk yes tchain 5 pchain 5
run 2000
Per MPI rank memory allocation (min/avg/max) = 3.644 | 3.646 | 3.649 Mbytes
Step Temp E_pair E_mol TotEng Press Volume 
   10000    2.3891573   -3.5939302            0  -0.01109013    5.6819703    3671.3642 
   11000    1.2301487   -5.2920834            0   -3.4473216    5.6015719    2813.4678 
   12000    1.2723846   -5.2663939            0   -3.3582942    5.3263207    2839.8194 
Loop time of 0.649872 on 48 procs for 2000 steps with 4000 atoms

Performance: 531796.936 tau/day, 3077.529 timesteps/s
99.6% CPU use with 48 MPI tasks x no OpenMP threads

MPI task timing breakdown:
Section |  min time  |  avg time  |  max time  |%varavg| %total
---------------------------------------------------------------
Pair    | 0.29654    | 0.32247    | 0.34502    |   1.9 | 49.62
Neigh   | 0.041752   | 0.043694   | 0.046089   |   0.5 |  6.72
Comm    | 0.20831    | 0.23408    | 0.26334    |   2.6 | 36.02
Output  | 5.2769e-05 | 5.4316e-05 | 7.0062e-05 |   0.0 |  0.01
Modify  | 0.041803   | 0.044699   | 0.047504   |   0.9 |  6.88
Other   |            | 0.004878   |            |       |  0.75

Nlocal:        83.3333 ave          91 max          76 min
Histogram: 2 1 5 7 9 6 12 1 3 2
Nghost:        2066.62 ave        2091 max        2044 min
Histogram: 5 3 4 6 9 2 7 8 3 1
Neighs:        13434.8 ave       15003 max       11684 min
Histogram: 1 3 2 6 9 14 4 1 2 6

Total # of neighbors = 644868
Ave neighs/atom = 161.21700
Neighbor list builds = 143
Dangerous builds = 11

#############################
# L I N E A R  Q U E N C H  #
#############################

# Define solid atoms. This closely follows ten Wolde  Ruiz-Montero and Frenkel  Faraday Discuss  1996  104  93-110
# Compute components of the per-atom q6 vector
compute q6 all orientorder/atom degrees 1 6 components 6 nnn NULL cutoff 1.3 # compute the Q6 parameter.
                                                                             # Use all neighbours within 1.3 unit cell.

# get number of connections
compute coord_number all coord/atom orientorder q6 0.5

# An atom is solid if it has 8 or more connections (of a possible 14)
variable is_solid atom c_coord_number>=8
group solid dynamic all var is_solid    # Must be dynamic to update
dynamic group solid defined

# do clustering
compute cluster solid cluster/atom 1.3 # Create a cluster where all atoms within are solid and max 1.3 units from another member

# define chunks one chunk per cluster
compute clus_chunks solid chunk/atom c_cluster nchunk every compress yes  # Says which atoms are in which chunk

# count the size of each chunk
compute size_chunks solid property/chunk clus_chunks count


# Find the maximum entry in the vector of chunk sizes
variable max_n equal max(c_size_chunks)


# Thermo style which includes this variable
# thermo_style custom step temp pe vol v_max_n

thermo ${N}  # Print the thermo information every 100 steps
thermo 1000  

# Reset the npt fix at a lower temperature (below freezing)
fix 1  all npt temp  ${temp} ${temp}  0.1  iso  5.68  5.68  0.5  mtk yes tchain  5  pchain  5
fix 1  all npt temp  0.45 ${temp}  0.1  iso  5.68  5.68  0.5  mtk yes tchain  5  pchain  5
fix 1  all npt temp  0.45 0.45  0.1  iso  5.68  5.68  0.5  mtk yes tchain  5  pchain  5

dump dmp2 all dcd ${N} traj.dcd
dump dmp2 all dcd 1000 traj.dcd


compute msd all msd com yes
variable twopoint equal c_msd[4]/6/(step*dt+1.0e-6)
fix 9 all vector 10 c_msd[4]
variable fit equal slope(f_9)/6/(10*dt)
thermo_style custom step temp pe c_msd[4] v_twopoint v_fit v_max_n

fix 1 all npt temp 1.25 ${temp} 0.1 iso 5.68 5.68 0.5 mtk yes tchain 5 pchain 5
fix 1 all npt temp 1.25 0.45 0.1 iso 5.68 5.68 0.5 mtk yes tchain 5 pchain 5
run 2000000 # 5000000  # Run for this many steps
Neighbor list info ...
  update every 1 steps, delay 10 steps, check yes
  max neighbors/atom: 2000, page size: 100000
  master list distance cutoff = 3.8
  ghost atom cutoff = 3.8
  binsize = 1.9, bins = 8 8 8
  4 neighbor lists, perpetual/occasional/extra = 1 3 0
  (1) pair lj/cut, perpetual
      attributes: half, newton on
      pair build: half/bin/atomonly/newton
      stencil: half/bin/3d
      bin: standard
  (2) compute orientorder/atom, occasional
      attributes: full, newton on
      pair build: full/bin/atomonly
      stencil: full/bin/3d
      bin: standard
  (3) compute coord/atom, occasional
      attributes: full, newton on
      pair build: full/bin/atomonly
      stencil: full/bin/3d
      bin: standard
  (4) compute cluster/atom, occasional
      attributes: full, newton on
      pair build: full/bin/atomonly
      stencil: full/bin/3d
      bin: standard
Per MPI rank memory allocation (min/avg/max) = 9.839 | 9.846 | 9.852 Mbytes
Step Temp PotEng c_msd[4] v_twopoint v_fit v_max_n 
   12000    1.2723846   -5.2663939 3.1599796e-30 2.1944302e-32 8.3333333e+20            2 
   13000    1.2699407   -5.2847196   0.67176591 0.0043061916  0.056034768            3 
   14000    1.2340381   -5.2862005    1.3252601 0.0078884529  0.054807189            3 
   15000    1.2520688   -5.2745741    2.0429083   0.01134949   0.05497133            4 
   16000    1.2433033   -5.2878568    2.7328872  0.014233787  0.056489099            1 
   17000    1.2359111   -5.2989967    3.3696205  0.016517747  0.056749996            4 
   18000    1.2215244   -5.3165917    3.9947389  0.018494161  0.056336008            1 
   19000    1.2704016   -5.3413676    4.6481886  0.020386791  0.055900432            2 
   20000    1.2652578    -5.284118    5.3230309  0.022179295  0.055492859            2 
   21000    1.2558256   -5.3021941    6.0074994  0.023839283  0.055311338            2 
   22000    1.2080142   -5.3034455    6.7297028  0.025491298  0.055527971            3 
   23000    1.2524305   -5.3273688     7.403292  0.026823521  0.055820781            2 
   24000    1.2589572   -5.3174741    8.2203311  0.028542816  0.056215818            3 
   25000    1.2452677   -5.3289886    8.9041168  0.029680389  0.056588964            3 
   26000    1.2378678   -5.3310371    9.7047825  0.031105071  0.057081428            2 
   27000      1.25911   -5.3281898    10.424391  0.032174046  0.057518741            2 
   28000     1.232329   -5.2574001    11.106811  0.033055985  0.057777311            2 
   29000    1.2457113   -5.2682916    11.725947  0.033695248  0.057926217            3 
   30000    1.2613017   -5.2940787    12.374063  0.034372398  0.057903438            1 
   31000    1.2392794   -5.2876538    13.083509  0.035170722  0.057867543            2 
   32000    1.2226273   -5.3204863    13.788665   0.03590798  0.057832127            2 
   33000    1.2251436    -5.293841    14.590129  0.036843759  0.057903276            4 
   34000    1.2434498   -5.2766438    15.453454  0.037876113   0.05804544            2 
   35000    1.2585226   -5.3505048    15.995161  0.038083717  0.058243565            3 
   36000      1.21978     -5.32364     16.61166  0.038452915  0.058296804            2 
   37000    1.2218605   -5.3043849    17.298634  0.038960886  0.058258712            2 
   38000     1.217854   -5.3401971    17.858974  0.039164416  0.058190752            2 
   39000    1.2398751   -5.3743546    18.438911  0.039399381  0.058083942            2 
   40000    1.2341466    -5.303454    19.127299  0.039848539  0.057939598            2 
   41000    1.2246162   -5.2662145    19.765804  0.040174398  0.057767056            2 
   42000    1.2501355   -5.2887658    20.305951  0.040289585  0.057566885            1 
   43000    1.2280217    -5.347864    20.951954  0.040604562  0.057380989            1 
   44000     1.234256    -5.347315    21.683981  0.041068145  0.057225074            2 
   45000    1.2349378   -5.3143617    22.213323  0.041135782  0.057041321            3 
   46000    1.1999395   -5.3483636    22.858044    0.0414095  0.056890157            4 
   47000    1.2150625   -5.3304602    23.482889  0.041636328  0.056744241            2 
   48000    1.2529904   -5.3243202    24.081121  0.041807501  0.056566888            2 
   49000     1.225476   -5.3128305     24.76837  0.042123078   0.05640796            3 
   50000    1.2424492   -5.3234496    25.316606  0.042194343  0.056284386            4 
   51000    1.2474602   -5.3418183    26.097957   0.04264372  0.056187391            3 
   52000    1.2358116   -5.3379897     26.66846  0.042737916  0.056080609            3 
   53000    1.2052497   -5.3149634    27.399712  0.043081307  0.055957934            1 
   54000    1.2421461   -5.3441719    28.026518  0.043250799  0.055866619            2 
   55000    1.1977774   -5.3630891    28.540692  0.043243473  0.055764688            2 
   56000    1.2430102   -5.3189885    29.196335  0.043446927  0.055659308            2 
   57000    1.2326763   -5.3405295    29.803325  0.043572112  0.055553715            3 
   58000     1.228324   -5.3640978      29.9657  0.043054167  0.055410523            2 
   59000    1.2447792   -5.3307724    30.639676  0.043276379  0.055250494            2 
   60000    1.2522214   -5.3446711    31.524269  0.043783707  0.055134538            2 
   61000    1.2344734   -5.3314838    31.894426   0.04357162  0.054992773            5 
   62000    1.2571676   -5.3280383    32.545714  0.043744239  0.054848933            2 
   63000    1.2494841   -5.3494594     33.14233  0.043839061  0.054690003            2 
   64000    1.2368761   -5.3039454     33.99596  0.044265573  0.054560454            2 
   65000    1.2376538   -5.3381137    34.326858  0.044008791  0.054432595            2 
   66000    1.2080904   -5.3171548    35.036111  0.044237513  0.054292058            3 
   67000    1.2173346    -5.295118    35.482038  0.044131888  0.054166041            2 
   68000    1.2021393    -5.361157    36.012493  0.044132956  0.054033422            5 
   69000    1.2273991   -5.3421737    36.719105  0.044346745  0.053898802            3 
   70000    1.2320026   -5.3646009     37.14235  0.044217084  0.053778723            1 
   71000    1.2042648   -5.3486239    37.742341  0.044298522  0.053657305            3 
   72000    1.2129375   -5.3609896    38.455848  0.044509083  0.053531416            3 
   73000    1.2336417   -5.3690209    39.108061  0.044643905  0.053447502            5 
   74000    1.2292211    -5.384308     39.87836  0.044908062  0.053376626            2 
   75000    1.2010511   -5.3640928    40.494628   0.04499403  0.053317341            2 
   76000    1.2235505   -5.3414209    41.206539  0.045182608  0.053263748            1 
   77000    1.2334636   -5.3376673    41.482972  0.044894991  0.053203713            1 
   78000    1.2181587   -5.3832272    42.484005  0.045388894  0.053151482            1 
   79000    1.2075217    -5.354254    43.084471  0.045447754  0.053103347            3 
   80000    1.2258107   -5.3660729    43.631673  0.045449659  0.053065758            2 
   81000    1.2365259   -5.3505859    44.353514  0.045631187  0.053020704            1 
   82000    1.2259727   -5.3495707    45.052248  0.045784805  0.052975337            2 
   83000    1.2557259   -5.3786192     45.59936   0.04578249   0.05294779            1 
   84000    1.2548513   -5.3446349    46.097862  0.045732005  0.052905299            4 
   85000    1.2630542   -5.3439629    47.042615   0.04612021  0.052889322            3 
   86000    1.2398478   -5.3172912    47.638089  0.046160939  0.052876917            5 
   87000    1.2058974    -5.378416    48.204293  0.046172694  0.052858561            2 
   88000    1.2102142   -5.3774414    48.881791  0.046289574   0.05283371            3 
   89000    1.2344151    -5.342285    49.465812  0.046316303  0.052823753            2 
   90000    1.2233559   -5.3348903    50.285576  0.046560719  0.052820225            2 
   91000    1.2623958   -5.3960344    50.986516  0.046690949   0.05281273            2 
   92000    1.2184769   -5.3802201    51.583771   0.04672443  0.052813158            3 
   93000    1.2305344   -5.3599957    52.340753  0.046900316  0.052822402            2 
   94000    1.2425053   -5.3176427    52.879777  0.046879235  0.052823645            2 
   95000    1.2171029   -5.3549644    53.616202  0.047031756  0.052833914            3 
   96000    1.2105063   -5.3265716    54.118151  0.046977562  0.052846229            3 
   97000     1.221184   -5.3332052    54.792181   0.04707232   0.05284999            2 
   98000    1.2058911   -5.3800898    54.963623  0.046737775  0.052835697            2 
   99000    1.1878264   -5.3739656    55.728574  0.046909574  0.052818924            2 
  100000    1.1817631   -5.3699708    56.337137  0.046947614  0.052807679            3 
  101000    1.2253552   -5.4072962    56.999394  0.047029203  0.052798151            3 
  102000    1.2019544   -5.3704142    57.828737    0.0472457  0.052796154            2 
  103000    1.2245317   -5.4183683    58.410869  0.047257984  0.052792486            3 
  104000    1.2135253   -5.3557947    58.946158  0.047232498   0.05277904            1 
  105000    1.1789616    -5.359323    59.596649  0.047298927  0.052772202            4 
  106000    1.2154667   -5.3857984     60.18241  0.047313215  0.052762884            2 
  107000    1.2183098   -5.3844612    60.827249  0.047373247  0.052760127            2 
  108000    1.2093782   -5.3817102    61.418573  0.047390874  0.052762462            3 
  109000    1.2414665   -5.3865524    61.878996  0.047308101  0.052760789            2 
  110000    1.1796542   -5.3874614    62.489154  0.047340268  0.052750318            4 
  111000    1.2106413   -5.3852232    62.957836  0.047265642  0.052728309            1 
  112000    1.1859491   -5.4109921    63.549236  0.047283657   0.05270797            3 
  113000    1.2046754   -5.3280622    64.681624  0.047700312  0.052688688            2 
  114000    1.1979163   -5.3930562    65.089451  0.047580008   0.05267493            2 
  115000    1.2108735   -5.3992918      65.2466  0.047280145  0.052664687            5 
  116000    1.2003366   -5.3138003    66.667449  0.047893282  0.052657028            4 
  117000    1.1986758   -5.3919836     67.19166  0.047857308  0.052653783            1 
  118000    1.2221337   -5.3998203     67.71422  0.047820776  0.052648392            4 
  119000    1.1790288    -5.366288    68.427323  0.047918293  0.052650565            2 
  120000    1.1966935   -5.3950283    69.058868  0.047957547  0.052639895            3 
  121000    1.2287194   -5.3674638    69.431684  0.047817964  0.052623204            3 
  122000    1.2045965   -5.3787742    69.773544  0.047659524  0.052603893            4 
  123000      1.21207   -5.3648619    70.665313  0.047876228  0.052586819            3 
  124000    1.1847838    -5.362807    71.131927  0.047803714  0.052568316            3 
  125000    1.2093151   -5.3751424    72.025576  0.048017051  0.052557698            2 
  126000    1.2145557   -5.4087094    72.608714  0.048021636  0.052552598            2 
  127000    1.2222635   -5.4018943    73.240457  0.048058042  0.052543802            2 
  128000    1.1970253     -5.37353    73.683382  0.047970952  0.052532424            4 
  129000    1.1831951   -5.4337827    74.127306  0.047885857   0.05251511            2 
  130000    1.1976007   -5.3833323    74.925724   0.04802931   0.05249143            2 
  131000    1.1969457   -5.3768536    75.469252   0.04800843  0.052471925            1 
  132000    1.2152752   -5.4005214    76.335638   0.04819169  0.052457083            2 
  133000    1.1966129   -5.3747671    77.132884  0.048328874  0.052445677            3 
  134000    1.1828932   -5.3713567    77.246695  0.048038989  0.052430789            4 
  135000    1.2002439   -5.4007754    77.946665  0.048115225  0.052415682            2 
  136000    1.1927848   -5.4047965    78.803978  0.048286751  0.052403471            5 
  137000    1.2081261   -5.4043397    79.329678  0.048254062  0.052394577            2 
  138000     1.201311   -5.4100151    80.679377   0.04871943  0.052391862            1 
  139000    1.1944168    -5.428827    81.046853   0.04858924  0.052398013            6 
  140000    1.1998796   -5.3798414    81.463886  0.048490408  0.052404597            2 
  141000    1.1739258   -5.4084204    82.327064  0.048656657  0.052408147            2 
  142000    1.1895804   -5.4120894    82.557444  0.048449204  0.052407662            3 
  143000    1.2118139    -5.443638    82.696937  0.048191688  0.052400964            3 
  144000    1.2124252   -5.3839853    83.222866  0.048161381  0.052384997            4 
  145000    1.2024524   -5.3615287    84.209093   0.04839603  0.052368967            2 
  146000    1.1587814   -5.4163346    84.885625  0.048450699  0.052356219            2 
  147000    1.1736556   -5.3862577    85.603961  0.048528323  0.052348621            3 
  148000    1.2005594   -5.3980327    85.948105  0.048394203  0.052335735            3 
  149000    1.2217952   -5.3855502    86.643494   0.04845833  0.052325694            2 
  150000    1.2002168   -5.4033963    87.105372  0.048391873  0.052314413            3 
  151000    1.1903653   -5.4425378    87.945296  0.048534931  0.052299452            6 
  152000    1.1880118   -5.4268934    87.841437  0.048158683  0.052283197            4 
  153000    1.2115022   -5.3815735     88.99841  0.048474079   0.05226594            5 
  154000     1.202494   -5.4180358    89.122887   0.04822667  0.052245317            4 
  155000    1.1890154   -5.3919476    90.025855  0.048400997  0.052222595            2 
  156000    1.2205057   -5.3831098    90.441346  0.048312685  0.052200271            1 
  157000    1.1997496   -5.4333156     90.54602   0.04806052  0.052172384            2 
  158000    1.1921203   -5.4183684    91.244848   0.04812492   0.05213848            5 
  159000     1.190688   -5.3682889    92.238017  0.048342776  0.052108931            2 
  160000    1.2039896    -5.434873    92.121935  0.047980174  0.052076549            2 
  161000     1.165134   -5.4459517    92.471229  0.047862955  0.052042094            2 
  162000    1.1876703   -5.3798914    93.373043  0.048031401   0.05200923            2 
  163000    1.2002816   -5.4402297    93.856097   0.04798369  0.051973229            5 
  164000    1.2035292    -5.428626    94.578705  0.048058285  0.051941679            4 
  165000    1.1943117   -5.4200499    95.175377  0.048068372  0.051905591            3 
  166000    1.1888674    -5.425573    95.102772  0.047742355  0.051870236            2 
  167000    1.2010786   -5.3747783    95.829272  0.047818998  0.051831513            1 
  168000     1.190334    -5.438846    96.414269  0.047824538  0.051790029            2 
  169000    1.1918121   -5.4279864    97.071976  0.047865866  0.051750701            4 
  170000    1.1852929   -5.3846039    97.914488  0.047997298  0.051708454            1 
  171000     1.182323   -5.4228034    98.124398  0.047818908  0.051669508            4 
  172000    1.2039104   -5.4181903    98.884721  0.047909264  0.051633613            1 
  173000    1.1900643   -5.4363489    99.474429  0.047916391  0.051599484            2 
  174000    1.1767513   -5.4511571    99.757803  0.047776725  0.051569346            2 
  175000     1.194941   -5.4232941     100.7446  0.047973618  0.051538095            2 
  176000    1.1816956   -5.4256742    100.72336  0.047690983   0.05150554            2 
  177000    1.1710004   -5.4218894    101.93896  0.047993862  0.051476365            3 
  178000    1.1786784    -5.485166    101.65298  0.047590345   0.05144168            3 
  179000    1.1453297    -5.433209    103.02389  0.047962707  0.051405037            1 
  180000    1.1768707   -5.4463052    103.21239  0.047783514  0.051372974            6 
  181000    1.1475278   -5.4233951    103.71164  0.047749375  0.051341027            7 
  182000    1.2116229   -5.4831256    104.37942  0.047792775  0.051309743            2 
  183000    1.1712388   -5.4431848     105.1951  0.047903052  0.051280371            3 
  184000    1.1804332   -5.4519565    105.71661  0.047878898  0.051248884            4 
  185000    1.1969516   -5.4433033      106.419  0.047936486   0.05122123            2 
  186000    1.1669784   -5.4023263    107.37382  0.048106551  0.051191756            2 
  187000    1.1911124   -5.4456857    107.12916  0.047740266  0.051162329            3 
  188000     1.142176   -5.4086758      107.859  0.047809842  0.051133199            2 
  189000    1.1938694   -5.4198883    108.51857  0.047847694  0.051103193            3 
  190000    1.1931593   -5.4408992     108.6937  0.047672675  0.051071741            3 
  191000    1.1949806   -5.4028451    109.87411  0.047938095  0.051038672            4 
  192000    1.1887785   -5.4429573    110.08553  0.047780176  0.051007687            2 
  193000    1.1694512   -5.4182741    110.14909  0.047560056  0.050969128            3 
  194000    1.1774778   -5.4730826    110.39439  0.047420271  0.050927824            3 
  195000    1.1890459   -5.4374046    111.01642  0.047442912  0.050888229            4 
  196000    1.1801098   -5.4108688    111.53267  0.047420352  0.050848324            2 
  197000    1.1824475   -5.4671706    111.91708  0.047342251  0.050806378            2 
  198000    1.1621934   -5.4583509    112.56274   0.04737489  0.050764515            2 
  199000    1.1776797   -5.4084026    112.84349  0.047254393  0.050720169            8 
  200000    1.1742134    -5.420397    113.10405  0.047126688  0.050676405            2 
  201000    1.1748753   -5.4264748    113.84769  0.047200536  0.050627901            4 
  202000    1.1566163   -5.4247188    114.24815  0.047132075  0.050581027            1 
  203000     1.156128    -5.472505    114.34896   0.04694128  0.050532618            4 
  204000    1.1834114    -5.469023    114.87815  0.046927348  0.050483762            3 
  205000      1.16425   -5.4600068    115.89333   0.04711111  0.050437717            1 
  206000    1.1784159   -5.4935752    115.67449  0.046793887  0.050390021            1 
  207000    1.1647102   -5.4426574    116.56926  0.046928045  0.050336173            2 
  208000     1.203317   -5.4149724    116.62381  0.046724283  0.050284956            3 
  209000    1.1817109   -5.4221833    117.23395  0.046743998  0.050232597            3 
  210000     1.170137    -5.444901    118.27906  0.046936134  0.050181686            2 
  211000    1.1524307   -5.4997631      118.047   0.04662204  0.050132082            1 
  212000    1.1451709     -5.46372      118.875  0.046727593  0.050082217            3 
  213000    1.1957414    -5.500259    119.63999  0.046807506   0.05003586            2 
  214000    1.1663841   -5.4358421    120.44174  0.046900989  0.049988531            3 
  215000    1.1386466   -5.4806148    120.15825  0.046572966  0.049942335            1 
  216000    1.1734049   -5.4414886    121.26932  0.046786003  0.049898733            2 
  217000    1.1675829   -5.4886067    121.65327  0.046717844  0.049854063            3 
  218000    1.1729387   -5.4327343    122.79947  0.046941694   0.04981073            3 
  219000    1.1395635   -5.4573837    122.85071  0.046746845  0.049767003            1 
  220000    1.1727189   -5.4744487    123.59856  0.046817636  0.049723894            1 
  221000    1.1637694   -5.4960046    123.56622  0.046593596   0.04968217            2 
  222000    1.1750026   -5.4452013    124.81695  0.046853209  0.049643869            3 
  223000     1.170595     -5.46093    125.41371  0.046866108  0.049605469            2 
  224000    1.1680346   -5.4408122    125.88177  0.046831017  0.049564003            3 
  225000    1.1702548   -5.4024277    126.86374  0.046986572  0.049526653            2 
  226000    1.1579846   -5.4600628    126.42986   0.04661868  0.049492033            2 
  227000    1.1854619   -5.4961459    127.17823  0.046688045  0.049453773            3 
  228000    1.1649724   -5.5009094    127.86999  0.046736106  0.049415476            4 
  229000    1.1555856    -5.432616    128.96212  0.046929446  0.049379251            2 
  230000    1.1462916   -5.4854539    128.98045  0.046732048  0.049345692            4 
  231000    1.1458087   -5.4636052    129.81515   0.04683086  0.049312136            3 
  232000    1.1328915    -5.461578    130.29574  0.046801631  0.049279249            2 
  233000    1.1793914    -5.474729    130.66533  0.046732949  0.049247417            2 
  234000    1.1275863   -5.4768074    130.90606  0.046618968  0.049215576            5 
  235000     1.146317   -5.4877333    131.59917  0.046666371  0.049182387            2 
  236000    1.1689969    -5.521603    131.74213  0.046519113  0.049150757            2 
  237000    1.1590278   -5.5079022    132.05785  0.046433844  0.049115198            2 
  238000    1.1415739   -5.5253819    132.47729  0.046385604  0.049077349            3 
  239000    1.1436524   -5.4830002    133.83825  0.046666055  0.049041983            2 
  240000     1.162499   -5.4554864    134.08898  0.046558675  0.049009661            6 
  241000    1.1437183   -5.4943666    134.60833  0.046545067  0.048974371            2 
  242000    1.1764917   -5.5162621    134.98447  0.046482256  0.048940655            2 
  243000    1.1575018   -5.4745597    135.90137  0.046605409   0.04890709            2 
  244000    1.1476378   -5.4514825    136.12052  0.046489249  0.048874406            4 
  245000     1.166941   -5.4896577    136.52707  0.046437779  0.048842587            2 
  246000    1.1309511   -5.4801943    136.99972  0.046409119  0.048809426            6 
  247000    1.1882472   -5.4907553    137.75065  0.046474577  0.048776377            2 
  248000    1.1267771   -5.4953242    138.30796   0.04647445  0.048743516            3 
  249000    1.1473454   -5.5030656    138.17473  0.046243215  0.048707813            3 
  250000    1.1520143   -5.4887748    138.95239  0.046317463  0.048673219            2 
  251000    1.1641745   -5.5125709    139.23217  0.046225819  0.048639315            3 
  252000    1.1570077   -5.4862243    139.80332  0.046231257  0.048603469            3 
  253000    1.1459591   -5.4799611    140.66407   0.04633204  0.048568575            1 
  254000    1.1638754   -5.4786031    141.02983  0.046269628  0.048533442            2 
  255000    1.1513405   -5.5028568    141.00812  0.046081086  0.048495959            6 
  256000    1.1794505   -5.5072876    141.47899  0.046054358   0.04845777            2 
  257000    1.1464804   -5.4881741    143.08665  0.046396451  0.048421702            1 
  258000     1.156064   -5.4789468    143.07459  0.046212724   0.04838607            2 
  259000    1.2091187   -5.4346604     143.7964  0.046266539  0.048352114            2 
  260000    1.1652675   -5.4887052    143.63294  0.046036197  0.048317816            2 
  261000    1.1570728   -5.4844513    144.42709  0.046113375  0.048283327            2 
  262000    1.1295978   -5.4834223    144.78611  0.046051563  0.048248833            3 
  263000     1.139883   -5.5109449    145.14398  0.045989856  0.048216023            4 
  264000    1.1388809   -5.4865497    146.04711   0.04610073  0.048184539            2 
  265000    1.1280779   -5.4783291    146.22375   0.04598231  0.048153623            4 
  266000    1.1788851   -5.5215497    146.96417  0.046041407  0.048121717            2 
  267000    1.1808489    -5.506898    147.77961  0.046123472    0.0480895            4 
  268000    1.1229779   -5.4963258    148.20877  0.046084816  0.048059325            3 
  269000    1.1572422   -5.5154402    148.84105  0.046109371  0.048030941            4 
  270000    1.1285899   -5.4960777    149.43525  0.046121992  0.048003943            6 
  271000    1.1282771   -5.4972559    150.43852  0.046260306  0.047977059            4 
  272000    1.1566788   -5.4959694    151.47782  0.046408645   0.04795115            2 
  273000    1.1662728   -5.5312123    151.31104   0.04618774   0.04792835            1 
  274000    1.1429949   -5.4942818    152.47196  0.046372251  0.047907259            3 
  275000    1.1450242   -5.5085275    153.19237   0.04642193  0.047886132            2 
  276000     1.166218   -5.5105371    153.83911  0.046449006  0.047864926            2 
  277000    1.1102977   -5.5146054    154.11621  0.046364684  0.047843627            2 
  278000    1.1426615   -5.5358811     154.1639  0.046212201  0.047820953            6 
  279000    1.1378238   -5.5448263    154.63951  0.046188623  0.047798577            3 
  280000    1.1478683   -5.5543434    155.19056  0.046187667  0.047775517            4 
  281000    1.1431931   -5.5082715    155.31961  0.046061568  0.047752976            3 
  282000    1.1523713   -5.4887377    155.80464   0.04604156  0.047730961            1 
  283000    1.1074074      -5.5607     156.4817   0.04607824  0.047708487            2 
  284000    1.1764332   -5.5336698    157.11281  0.046101178  0.047687641            2 
  285000     1.138981   -5.5480499    157.80206  0.046140952  0.047665937            2 
  286000    1.1507327   -5.5183048    158.85371  0.046286047  0.047644873            2 
  287000    1.1634323   -5.5324443    158.57028  0.046042473  0.047625054            1 
  288000    1.1318996   -5.5427249    159.39309  0.046120687  0.047603131            6 
  289000    1.1361805    -5.557793    160.19338  0.046191864  0.047583678            5 
  290000    1.1439282    -5.536065     160.8303  0.046215603  0.047563734            6 
  291000    1.1336682    -5.508238     161.6234  0.046283905  0.047544824            2 
  292000     1.130447   -5.5475473    161.42369  0.046068406  0.047524993            3 
  293000    1.1310183   -5.5456558    162.18164  0.046126746  0.047506313            2 
  294000    1.1523876   -5.5314704    163.13481  0.046240025  0.047488393            4 
  295000    1.1230356   -5.4770907    164.08961  0.046352997  0.047471242            2 
  296000    1.1470774   -5.5394307    163.82231  0.046121146  0.047453332            2 
  297000    1.1430135    -5.501229    165.25357  0.046367444  0.047436322            3 
  298000    1.1401324   -5.5505152     164.4457  0.045985935  0.047417368            2 
  299000    1.1369611   -5.5341561     164.6083  0.045877454  0.047397313            3 
  300000    1.1208708   -5.5312493    165.53741  0.045982613  0.047378419            2 
  301000    1.1439718     -5.56053    165.87807   0.04592416  0.047357149            4 
  302000    1.1283252   -5.5166001    166.64793  0.045984528  0.047337172            1 
  303000    1.1527041   -5.5323248    167.11601  0.045961499   0.04731638            2 
  304000    1.1223919    -5.548079    167.49536  0.045914299   0.04729598            2 
  305000    1.1081682    -5.488748    168.30988  0.045986306  0.047276962            2 
  306000    1.1104459   -5.5488692    167.66706  0.045660963  0.047255133            3 
  307000    1.1145813    -5.549295     169.3928  0.045980674  0.047233941            4 
  308000    1.1344004   -5.5606316    169.38473  0.045829203  0.047214302            2 
  309000    1.1464421   -5.5335115    170.20842  0.045903025  0.047196547            2 
  310000    1.1088856    -5.514464    171.35159  0.046062255  0.047178879            4 
  311000    1.1248548    -5.542906    171.72884  0.046015229  0.047160989            3 
  312000     1.122036    -5.538174     172.3445  0.046032186  0.047145003            4 
  313000    1.1087914   -5.5321409    173.13995  0.046096899  0.047127624            3 
  314000    1.1364178    -5.577467    172.40496  0.045755032  0.047111054            3 
  315000    1.1066103   -5.5545623     172.7653  0.045705106  0.047091002            5 
  316000    1.1067772   -5.5648749    173.64178  0.045791609  0.047072245            3 
  317000    1.1225175   -5.5127911    174.13328   0.04577636  0.047053117            2 
  318000    1.1387585   -5.5466909    174.45728  0.045717316  0.047033446            3 
  319000    1.1316781   -5.4988227    175.48442  0.045842325  0.047013399            2 
  320000    1.1130446   -5.5181996    175.76157  0.045771241  0.046994066            8 
  321000    1.1448347   -5.5555594    176.20474  0.045743703  0.046976111            4 
  322000    1.1046049    -5.529728    176.63393  0.045712714  0.046957346            5 
  323000    1.1456758   -5.5773378    177.20069  0.045717412  0.046939432            1 
  324000    1.1046239   -5.5221124    178.57244  0.045929125   0.04692252            3 
  325000    1.1216939   -5.5755891    178.61977   0.04579994  0.046904342            3 
  326000    1.1153428    -5.550403    179.25933  0.045822938  0.046887758            3 
  327000    1.1393574   -5.5613211    180.09751  0.045896409  0.046871775            1 
  328000    1.1170061   -5.5696057     180.3022  0.045808485  0.046856933            2 
  329000    1.1079688   -5.5533257     181.2277  0.045903671   0.04684119            2 
  330000    1.1009508   -5.5802665    181.19933  0.045757406   0.04682436            3 
  331000    1.1202043   -5.5473724    182.68859  0.045994107  0.046808935            4 
  332000    1.1268443   -5.5705205    182.28096  0.045753254  0.046793197            5 
  333000    1.1353856    -5.583816    182.50105  0.045670935   0.04677801            3 
  334000    1.1484877   -5.5788714    183.21721  0.045712878  0.046761757            2 
  335000    1.1037301   -5.5726267     183.8696  0.045738705  0.046745992            2 
  336000    1.1539583   -5.5029647    184.42239  0.045739681  0.046729697            3 
  337000    1.1164678   -5.5620437    184.69608  0.045671633  0.046713012            6 
  338000    1.1262234   -5.5748591     185.0635  0.045627095  0.046695777            4 
  339000    1.1008034   -5.5596674    185.76801  0.045665686  0.046678309            5 
  340000    1.1207606   -5.5789138    185.39696  0.045440432  0.046660666            1 
  341000    1.1007002    -5.570738      186.355  0.045541299    0.0466441            4 
  342000    1.1165015   -5.5453614    187.07805  0.045584321  0.046626687            3 
  343000    1.1029351   -5.5781451    187.06335  0.045447849  0.046607868            2 
  344000    1.1185076   -5.5831958    187.19211  0.045346926  0.046588951            3 
  345000    1.1229308   -5.5746225      188.014  0.045414009  0.046569195            2 
  346000    1.1157918   -5.5777153    187.88498  0.045251681  0.046548759            5 
  347000    1.0916591   -5.5530736    189.51987  0.045513897  0.046530132            8 
  348000    1.1310559   -5.5951354    189.79432  0.045448832  0.046511972            2 
  349000    1.1235368   -5.6275132    189.36078  0.045215086  0.046493431            2 
  350000    1.1177263   -5.6104348    190.75706  0.045418347  0.046475845            3 
  351000    1.1098506   -5.5416701    192.32359  0.045660872  0.046458471            4 
  352000    1.0969521   -5.5617288    191.81917  0.045411736  0.046441121            3 
  353000      1.12688   -5.5694272    191.79286  0.045276878  0.046422776            6 
  354000    1.1063457   -5.6212899     191.7133  0.045130248  0.046401544            5 
  355000    1.0766965   -5.5661176    192.67997  0.045230039  0.046380633            4 
  356000    1.1105177   -5.5690237     192.8439  0.045141362  0.046361248            5 
  357000     1.114296   -5.6096217    193.75005  0.045226435   0.04634078            3 
  358000    1.1236277   -5.5736323    193.94921  0.045146463  0.046319512            3 
  359000    1.0934529   -5.5795928    194.73977  0.045204217   0.04629963            3 
  360000    1.0975481   -5.5915962    194.77045  0.045085752  0.046278828            3 
  361000    1.1445093   -5.5563254    195.29636  0.045082262  0.046258475            3 
  362000    1.0990135   -5.6189161    195.52224  0.045009723  0.046238014            3 
  363000    1.1172264   -5.5814201    196.02642  0.045001475  0.046216279            2 
  364000    1.0881906   -5.6024651    197.56722   0.04523059  0.046196306            2 
  365000    1.1175779    -5.610443      196.783  0.044927627  0.046176962            5 
  366000    1.1051365   -5.5890847    198.22152  0.045132404  0.046157632            3 
  367000     1.109982   -5.5616149    199.00652  0.045187674  0.046137949            5 
  368000    1.0757073   -5.6008191     199.4636  0.045168388   0.04611792            2 
  369000    1.0915544   -5.6186789    199.26545  0.045001231  0.046097193            3 
  370000    1.1170578   -5.5702599    199.98051  0.045040656  0.046076954            5 
  371000     1.123097   -5.6103097    199.84635  0.044889116  0.046056339            3 
  372000    1.0956975   -5.6036746    199.97861  0.044798076  0.046034195            3 
  373000    1.0992024   -5.5945725     200.5088  0.044796426  0.046011615            8 
  374000    1.0921871   -5.5735133    201.42192  0.044880107  0.045990693            2 
  375000    1.0988498   -5.5959529    201.15044  0.044700098  0.045969995            4 
  376000    1.1180762   -5.5812567    202.61415  0.044905618   0.04594931            2 
  377000     1.096578   -5.5652538    203.11398  0.044896989  0.045928602            1 
  378000    1.0802716   -5.5945965    202.71136  0.044689453  0.045906834            3 
  379000    1.1147379    -5.593908    203.15029   0.04466805   0.04588604            5 
  380000    1.0896836   -5.5776611    204.44788  0.044835062  0.045865288            1 
  381000    1.1020718    -5.591862    204.96236  0.044829912   0.04584454            5 
  382000    1.1133159   -5.6291628    204.73497  0.044662952  0.045824007            4 
  383000    1.1147514   -5.6126621    205.71847  0.044760329  0.045803556            4 
  384000    1.1083777   -5.6006336    207.13165  0.044950445  0.045783116            2 
  385000    1.1020672    -5.593053    206.81866  0.044765944  0.045763218            3 
  386000    1.1129448   -5.6222751    206.97238  0.044683157  0.045744504            1 
  387000    1.0748322   -5.5690915    208.39076  0.044873118  0.045725974            7 
  388000    1.1119971   -5.5505956    208.93721   0.04487483  0.045707783            1 
  389000    1.0847317   -5.6325073     208.4642   0.04465814  0.045689262            3 
  390000    1.1144744   -5.6033029    209.57737   0.04478149  0.045670336            1 
  391000    1.1169693   -5.6135482    208.87812  0.044517928  0.045650425            3 
  392000     1.098649    -5.577399    210.78841  0.044810462  0.045629486            1 
  393000    1.0832846   -5.6313613    209.89645  0.044507304  0.045609142            2 
  394000    1.0740294   -5.6078239    210.46162  0.044513879  0.045587683            2 
  395000    1.0856457   -5.6076701    210.85144  0.044483426  0.045567066            3 
  396000    1.1147904   -5.6290385    212.10203  0.044634265  0.045548064            2 
  397000    1.0900855   -5.5677408    213.31995  0.044777488  0.045529211            3 
  398000    1.1037792   -5.6157624    212.39361  0.044471024   0.04551009            4 
  399000    1.0835988   -5.6403114    212.64227  0.044411502  0.045489623            2 
  400000    1.0759096   -5.6317405    213.70047  0.044520931  0.045469991            3 
  401000    1.0949807   -5.6322132    214.66783  0.044610936  0.045451369            4 
  402000    1.0976968   -5.5848332    215.97426  0.044770783   0.04543489            4 
  403000    1.0709718   -5.6262603    216.53698   0.04477605  0.045419045            4 
  404000    1.1109432    -5.633687    215.67055  0.044486499   0.04540138            2 
  405000    1.1162135   -5.6569257    216.43384  0.044533712  0.045384021            4 
  406000    1.0810342   -5.6107643    217.24351   0.04459021  0.045366587            7 
  407000    1.0725154   -5.6473362     216.7487  0.044379342  0.045348966            4 
  408000    1.1093203   -5.6030739    218.17768  0.044562435  0.045333172            3 
  409000    1.0871628   -5.6021372    219.19426  0.044660607  0.045317284            3 
  410000    1.0926688   -5.6499882    218.79505  0.044470539  0.045301113            5 
  411000    1.0610295   -5.6334442    220.11653  0.044630278  0.045283798            2 
  412000    1.0745477   -5.6349138     219.0374  0.044303681  0.045266397            5 
  413000    1.1056735   -5.6055353    220.21047  0.044433105  0.045248912            3 
  414000    1.0877187   -5.6416128    220.78791   0.04444201  0.045230802            5 
  415000    1.0984995   -5.6214433    220.79763  0.044336873  0.045213103            2 
  416000    1.0757916   -5.6209756    221.66352   0.04440375  0.045195214            4 
  417000    1.1043272   -5.6678045    222.36744  0.044437938  0.045177983            3 
  418000    1.1098452   -5.6466282    222.78892  0.044415654  0.045161806            5 
  419000    1.0820679   -5.6140657    224.66621  0.044683016  0.045145769            4 
  420000    1.1086057   -5.5970186    224.11342  0.044466948  0.045130087            3 
  421000    1.0677078   -5.6041469    224.46992  0.044431893  0.045114863            2 
  422000    1.0852861   -5.6149995    225.23928  0.044478531  0.045099708            4 
  423000    1.0861834   -5.6435102    225.67419  0.044459059  0.045084445            3 
  424000    1.0880173   -5.6452477    225.42174  0.044304587  0.045068952            2 
  425000     1.067313   -5.6399183    225.82795   0.04427999  0.045052291            2 
  426000    1.0689619   -5.5962059    226.11844  0.044232871  0.045035433            2 
  427000    1.0945611   -5.7044869    225.74182  0.044055781  0.045017839            3 
  428000    1.0704207   -5.6227619    227.15028  0.044227078  0.045000034            2 
  429000    1.0602472   -5.6305723    227.66358  0.044223695  0.044983348            2 
  430000    1.0884918   -5.6610342    228.57823  0.044298107  0.044967414            5 
  431000    1.0828535   -5.6197473    228.89496  0.044256567   0.04495061            1 
  432000    1.0897414   -5.6335988    229.16445  0.044206106  0.044933356            2 
  433000    1.0888785   -5.6286828    229.63164  0.044193927  0.044916227            3 
  434000    1.0703443   -5.6702323    230.54587  0.044267639  0.044899174            3 
  435000    1.0569338   -5.6300194    230.09758  0.044079995   0.04488192            3 
  436000    1.0806018   -5.6141845    230.76153  0.044105797  0.044863298            1 
  437000    1.0709282   -5.6825847    229.67245  0.043797188  0.044843883            3 
  438000    1.0698676   -5.6374897    230.69405  0.043891562  0.044823326            6 
  439000    1.0942868   -5.6519249    231.09406  0.043867514  0.044804284            4 
  440000    1.0861695   -5.6390921     230.9092  0.043732804  0.044783301            3 
  441000    1.0662557   -5.6461233    231.28199   0.04370408  0.044762291            3 
  442000     1.105209   -5.7045874    230.63034  0.043482341  0.044740788            4 
  443000    1.0602625   -5.6954887    231.28947  0.043508177  0.044717854            4 
  444000    1.0604685   -5.6857067    232.16825  0.043575121  0.044695022            4 
  445000    1.0823584   -5.6830326    232.30959  0.043503669  0.044672693            4 
  446000    1.0825565   -5.6303466    233.42497   0.04361453  0.044650644            2 
  447000    1.0400824   -5.6655072    233.45574  0.043522695  0.044628039            4 
  448000    1.0658001   -5.6877909    233.63168  0.043458274  0.044605184            2 
  449000    1.0707457    -5.673033    234.07763  0.043444252  0.044581424            4 
  450000    1.0891313   -5.7125604    233.62127  0.043263199  0.044557674            2 
  451000    1.1005319   -5.6807413    234.22699  0.043279193  0.044532788            2 
  452000     1.075856   -5.6904508     234.5217  0.043237776   0.04450905            3 
  453000    1.0553184   -5.6466833    236.33017  0.043475012  0.044484558            3 
  454000    1.0848371   -5.6573018    235.79302  0.043280658  0.044460389            6 
  455000      1.05831   -5.6377897     235.4648  0.043125421  0.044436898            3 
  456000    1.0708151    -5.658969    236.17482  0.043160603  0.044411627            2 
  457000    1.0705745   -5.7046414    236.17704  0.043066564  0.044385476            2 
  458000    1.0710315   -5.6046984    237.84988  0.043276906  0.044360333            2 
  459000    1.0540734    -5.680275    237.06995  0.043041022  0.044336328            4 
  460000    1.0593645   -5.6704227    237.73023  0.043067071  0.044310317            3 
  461000    1.0754145   -5.6950028     238.4078  0.043096132  0.044286062            2 
  462000    1.0738494   -5.6748403    238.52794  0.043024521  0.044261208            6 
  463000    1.0721251   -5.6685082    238.48024   0.04292301  0.044235695            4 
  464000    1.0633923   -5.6476603    239.58059  0.043028123  0.044209951            4 
  465000    1.0613408    -5.675687    239.74502  0.042965058  0.044185125            4 
  466000    1.0702122   -5.6914212    240.29403  0.042971036   0.04416071            5 
  467000    1.0667032   -5.6546462    241.45645  0.043086447  0.044137561            5 
  468000    1.0983141   -5.6741073    240.78608  0.042875014  0.044114103            3 
  469000    1.0750926   -5.6570154    241.91679  0.042984504    0.0440901            2 
  470000    1.0660285    -5.642573     243.1917  0.043119097  0.044067849            3 
  471000    1.0705708   -5.6644179    243.23794  0.043035729  0.044045074            3 
  472000    1.0491661   -5.6709118    243.81235  0.043045966   0.04402211            4 
  473000    1.0533077   -5.6806837    244.53204  0.043081754  0.043999249            3 
  474000    1.0663028   -5.6973642    244.63768  0.043009438  0.043978048            3 
  475000    1.0703248   -5.6523964    245.14285  0.043007517  0.043955414            3 
  476000    1.0646875   -5.7152441    244.55518  0.042814283  0.043932565            4 
  477000    1.0806236   -5.7175658    245.38824  0.042870063  0.043909892            2 
  478000    1.0707082   -5.6921483    245.79405  0.042851124  0.043887281            2 
  479000    1.0666655    -5.702572    245.72909  0.042750363  0.043864584            4 
  480000    1.0486366   -5.6795384    247.64966  0.042994733   0.04384169            2 
  481000    1.0738398   -5.7001096    247.75433  0.042923481  0.043819371            4 
  482000     1.061509   -5.7096978    247.83933  0.042849123  0.043796797            2 
  483000    1.0836563   -5.7050123    247.68472  0.042733734  0.043774689            5 
  484000    1.0552313   -5.6916973    248.12138  0.042720623   0.04375162            5 
  485000    1.0647026   -5.6631249    248.44411  0.042687991  0.043728033            4 
  486000     1.066729   -5.7285483    248.15019  0.042549758  0.043704218            4 
  487000    1.0586242   -5.7076144    248.79613  0.042572917  0.043680784            4 
  488000     1.063792   -5.6872723    248.95154  0.042512216  0.043657579            4 
  489000    1.0607301   -5.7311738    248.69094  0.042380869  0.043633082            2 
  490000    1.0699011   -5.6858448    250.04278  0.042524282  0.043607879            3 
  491000    1.0685239   -5.7251325    249.99985  0.042430389  0.043583043            6 
  492000    1.0608007     -5.69258    251.19091  0.042545885  0.043558819            4 
  493000    1.0625943   -5.7222533    251.37766  0.042491153   0.04353541            4 
  494000    1.0934962   -5.7014233    251.25882  0.042385092  0.043511519            4 
  495000    1.0669713   -5.7031684    252.20271  0.042458369   0.04348849            2 
  496000    1.0608086   -5.6747674     253.3533  0.042566079  0.043464775            3 
  497000    1.0608104   -5.6616427    254.03865  0.042595348  0.043441439            4 
  498000    1.0332666   -5.7133583    253.48277  0.042416795   0.04341754            4 
  499000    1.0622243     -5.67708    253.82186   0.04238842   0.04339376            1 
  500000    1.0720974   -5.7194036    254.19317  0.042365529  0.043369881            4 
  501000    1.0594762   -5.6872862    253.96308  0.042242694  0.043345492            4 
  502000    1.0385838   -5.7092493    253.78146  0.042128397  0.043320157            3 
  503000    1.0413531   -5.7085311    254.42277   0.04215089  0.043294339            2 
  504000    1.0314268   -5.7257921    254.82932  0.042134477  0.043268871            4 
  505000    1.0576178   -5.6777254    254.73086  0.042034796  0.043243909            2 
  506000    1.0306595   -5.7102316    254.40497  0.041898051   0.04321752            4 
  507000    1.0583204   -5.7207703    255.18782  0.041944087   0.04319163            3 
  508000    1.0567959   -5.7113359    255.36678  0.041890877   0.04316536            2 
  509000    1.0362196   -5.7157427    256.15768  0.041938061  0.043138807            2 
  510000    1.0615874   -5.7424572    254.63421  0.041606897  0.043112158            2 
  511000    1.0360606   -5.7517789    255.71587  0.041701871    0.0430839            2 
  512000    1.0452113   -5.6816539    257.28492    0.0418758  0.043056501            5 
  513000    1.0439567   -5.7554863    256.73322  0.041704552   0.04302874            3 
  514000    1.0168885   -5.7453393    256.49569  0.041584905  0.043001104            3 
  515000    1.0551196   -5.7545611     257.2991  0.041634159  0.042973189            4 
  516000    1.0325173   -5.7658353    257.78168  0.041631408  0.042946941            3 
  517000     1.038048   -5.6868104    259.51371  0.041830063  0.042919796            3 
  518000     1.043556   -5.6935028    258.85158   0.04164279   0.04289271            4 
  519000    1.0251139   -5.7674376    258.52387  0.041509934   0.04286568            8 
  520000    1.0190065    -5.727775    259.79631  0.041634024  0.042838856            2 
  521000    1.0600084   -5.7389314    260.82861  0.041719227  0.042811781            5 
  522000    1.0400129   -5.7023309     260.3364  0.041560728  0.042784946            5 
  523000    1.0511685   -5.7304161    260.05241  0.041436011  0.042757643            2 
  524000    1.0518672   -5.7509618     259.7547   0.04130959  0.042730261            3 
  525000    1.0490332   -5.7335816    261.34853  0.041483894  0.042703439            5 
  526000    1.0471694   -5.7437308    260.70541  0.041303138   0.04267606            2 
  527000    1.0395068   -5.7754541     260.9083  0.041256847  0.042647834            4 
  528000    1.0357959   -5.7410164    261.76269  0.041313555  0.042619767            3 
  529000    1.0579503   -5.7455748    262.34872  0.041327775  0.042591511            4 
  530000    1.0299165   -5.7691109    262.38728  0.041255861  0.042563209            4 
  531000    1.0622747   -5.7438478    262.11368   0.04113523  0.042534756            4 
  532000    1.0541972   -5.7456487    263.24139  0.041234553  0.042505993            4 
  533000    1.0375362   -5.7454121    261.97306  0.040958889  0.042477472            2 
  534000    1.0461663   -5.7134471    264.34789  0.041252792  0.042448993            3 
  535000    1.0546173   -5.7510773    264.11573  0.041139521  0.042420417            4 
  536000    1.0252123   -5.7841544    264.17743  0.041072362  0.042392034            4 
  537000    1.0495574   -5.7121554    264.68645  0.041074868  0.042364057            3 
  538000    1.0226802    -5.710382    265.41136  0.041110806  0.042335939            1 
  539000    1.0472999    -5.731208    264.82578  0.040943998   0.04230782            4 
  540000    1.0314707   -5.7319727    265.41843  0.040959634  0.042279158            1 
  541000    1.0409678   -5.7622559    265.64785  0.040919262  0.042250712            4 
  542000    1.0172721   -5.7245658    266.00696  0.040898979   0.04222191            6 
  543000    1.0408427    -5.763744     265.8468  0.040799079   0.04219249            4 
  544000    1.0456755   -5.7324421    266.50002  0.040824146  0.042163452            3 
  545000    1.0334738   -5.7659941    266.57115  0.040760114  0.042133748            2 
  546000    1.0256991   -5.7632462    265.65731  0.040545988  0.042103928            4 
  547000    1.0516537    -5.777839    266.87502  0.040657377  0.042074401            2 
  548000    1.0347345   -5.7223289    267.51835  0.040681014  0.042044975            5 
  549000    1.0505672   -5.7647129    268.23244  0.040715306  0.042016365            3 
  550000    1.0444478   -5.7718917    268.77677  0.040723753  0.041987527            2 
  551000    1.0591403   -5.7284854    268.91733  0.040671102  0.041959133            3 
  552000    1.0228823   -5.7545975    269.62157   0.04070374  0.041930768            1 
  553000     1.044898   -5.7330571    270.07996   0.04069921  0.041903186            2 
  554000    1.0459396   -5.7616198    270.10071  0.040628868  0.041875112            7 
  555000    1.0465637   -5.7539042    270.61766  0.040633282  0.041847259            3 
  556000    1.0173379   -5.7504909    271.27727  0.040659064  0.041819001            4 
  557000    1.0415622   -5.7656791    271.13563  0.040564876  0.041790947            3 
  558000    1.0243674   -5.7450676    272.41474  0.040683204  0.041763294            2 
  559000    1.0204855   -5.7591316    272.29452  0.040592505  0.041735573            4 
  560000    1.0289653   -5.7301072    273.42332  0.040687994  0.041708112            7 
  561000    1.0256739   -5.7620471    272.72456  0.040511669  0.041680465            3 
  562000    1.0256955   -5.7054335    273.91701  0.040616401  0.041653411            2 
  563000    1.0231714   -5.7644583    273.44448  0.040474316   0.04162559            3 
  564000    1.0397948   -5.7447715    273.63938  0.040431351  0.041597604            8 
  565000    1.0351773   -5.7977272    273.28602  0.040307672  0.041570072            3 
  566000    1.0316582   -5.7720932    274.27515  0.040382089  0.041542054            5 
  567000    1.0100756   -5.7839091    274.27111  0.040310274  0.041514212            6 
  568000    1.0081916   -5.8035521    274.91435  0.040333678  0.041486587            4 
  569000    1.0023993   -5.7985559    274.96903  0.040270801  0.041458511            8 
  570000    1.0291729   -5.7630429    275.30236  0.040248883  0.041431336            2 
  571000    1.0374349   -5.8033202    276.21627  0.040311773  0.041404114            4 
  572000    1.0184832    -5.765191    276.64224  0.040303357  0.041377221            6 
  573000    1.0168169   -5.7858509    276.79913  0.040255836  0.041350124            3 
  574000    1.0180427   -5.7348969    277.48255  0.040284923  0.041323463            5 
  575000    1.0367834   -5.7585137    276.71813  0.040104076  0.041296295            1 
  576000    1.0122012   -5.7626931    278.28777  0.040261541  0.041269516            3 
  577000    1.0140414   -5.7659969     278.5297  0.040226704  0.041243332            3 
  578000    1.0359381   -5.7384462    279.79971  0.040340212  0.041216867            3 
  579000    1.0263637   -5.7437465    279.33023  0.040202969  0.041190717            3 
  580000    1.0126064    -5.735511    278.93636  0.040077064  0.041163918            4 
  581000    1.0645741   -5.7583952    279.99108  0.040159364  0.041137338            4 
  582000    1.0286777   -5.7715014    279.99589   0.04009105  0.041110181            2 
  583000    1.0362122   -5.7577451    280.50194  0.040094617  0.041082984            2 
  584000    1.0227289   -5.7785385    280.52593  0.040029385  0.041055652            3 
  585000    1.0069555   -5.7715994    281.33589  0.040076337  0.041028953            3 
  586000    1.0352552   -5.7731363    281.66973  0.040055422   0.04100225            4 
  587000    1.0123449   -5.8136335    280.96347  0.039886921  0.040975776            3 
  588000    1.0505816   -5.7988665    281.24496   0.03985898  0.040948755            5 
  589000   0.99566994   -5.7430449    282.72621  0.040000879  0.040922009            4 
  590000    1.0345228   -5.7599522    282.33195  0.039877393  0.040895106            3 
  591000    1.0364802   -5.7602647    282.82964  0.039880096  0.040867754            3 
  592000    1.0134824   -5.7987965    282.45484  0.039759971  0.040840231            6 
  593000    0.9880995   -5.7778413    283.28191  0.039809149  0.040813267            9 
  594000    1.0237293   -5.7517046    283.94288  0.039834859  0.040786053            2 
  595000    1.0047642   -5.7741846     283.5591   0.03971416  0.040759509            3 
  596000    1.0202473   -5.7779065    285.11216  0.039864675  0.040732587            2 
  597000    1.0196615   -5.7843455    284.65104  0.039733534  0.040706239            4 
  598000    1.0150497   -5.8026006    284.09572  0.039589704  0.040680449            4 
  599000    1.0102202   -5.7982314    285.45567  0.039712809  0.040653658            3 
  600000   0.99123286   -5.8297698    285.66852  0.039676183  0.040627159            5 
  601000    1.0389132   -5.8021578    286.08017  0.039667245  0.040601736            9 
  602000     1.020254   -5.7789025    287.32813  0.039774105  0.040576226            3 
  603000    1.0043816   -5.8355103    286.73982  0.039626841  0.040550516            1 
  604000    1.0269827   -5.8162407      286.682  0.039553257  0.040524776            3 
  605000     1.001452   -5.7951916    287.99248  0.039668386  0.040498443            2 
  606000    1.0127872   -5.7649801    288.32096  0.039648097  0.040472128            3 
  607000    1.0183129   -5.7902957     288.4371  0.039598723  0.040446337            8 
  608000    1.0011734   -5.7879777    288.92835  0.039600925   0.04042042            5 
  609000     1.013694   -5.8010313    288.97167  0.039541827  0.040394643            8 
  610000    1.0225209   -5.8073594    289.89121  0.039602624  0.040368955            7 
  611000    1.0165439   -5.7844381    289.86891  0.039534767  0.040343538            3 
  612000   0.99249349   -5.8074905    289.76224  0.039455643  0.040318525            4 
  613000    1.0279669    -5.822177    290.55908  0.039499603  0.040292922            3 
  614000    1.0116976   -5.8238735    290.78037  0.039465306  0.040267506            2 
  615000     1.005203   -5.7913515    291.60391  0.039512725  0.040242483            4 
  616000    1.0218381   -5.7887836    291.07247  0.039376686  0.040217699            7 
  617000   0.99299945   -5.7964891    292.37985  0.039489445  0.040192671            4 
  618000     1.019857    -5.882741     292.0092  0.039375567  0.040167214            4 
  619000    1.0069571    -5.844838    291.97655  0.039307559  0.040141466            3 
  620000    1.0076687   -5.8372932    291.82283  0.039223499  0.040115883            5 
  621000   0.98993787    -5.807001    293.32333  0.039361692  0.040090788            3 
  622000    1.0096461   -5.7720518    294.34295  0.039435014  0.040065858            2 
  623000   0.99894321   -5.8190015    294.64866  0.039412608  0.040041252           11 
  624000   0.99767056   -5.7769105    294.84409  0.039375547  0.040016341            4 
  625000    1.0214196   -5.8118849    295.66031  0.039421374  0.039991483            4 
  626000   0.97899244   -5.8405004    294.86941  0.039253116  0.039966593            8 
  627000    1.0150753   -5.8156859    295.21445  0.039236371  0.039941906            3 
  628000   0.99153672   -5.8557163    295.30387  0.039185758  0.039917709            3 
  629000    1.0141945   -5.8352645     295.8863  0.039200622  0.039893702            4 
  630000    1.0197559   -5.7935123     295.5996  0.039100476  0.039869679            5 
  631000   0.98832378   -5.8367829    297.10906  0.039237858  0.039845569            5 
  632000    1.0220488   -5.8029114    297.48479  0.039225316  0.039822102            2 
  633000    1.0023586   -5.8089238    298.86827  0.039345481  0.039799122            2 
  634000    0.9737352   -5.8322636    298.93193  0.039291789  0.039775977            5 
  635000    1.0005565   -5.8727673    297.45095  0.039035557  0.039752202            3 
  636000   0.98914224   -5.8212478    298.19646  0.039071863  0.039728484            3 
  637000    1.0162053   -5.8530873    298.83642  0.039094247  0.039704769            4 
  638000     1.007911   -5.8060269    298.53657  0.038993805  0.039681073            6 
  639000   0.99225929   -5.8497533    298.77217  0.038963507  0.039657221            6 
  640000    1.0165298   -5.8429092    298.88986   0.03891795  0.039632562            7 
  641000   0.99483029    -5.785026    300.76485  0.039100995  0.039608506            2 
  642000   0.98756182   -5.8441937    298.70582  0.038772822  0.039584281            5 
  643000   0.97940235   -5.8307858    300.20959  0.038907411  0.039559922            3 
  644000   0.99355644   -5.8655793    300.12336  0.038835838  0.039536193            3 
  645000   0.98540379   -5.8643419    300.41084   0.03881277  0.039512286            5 
  646000    1.0047643   -5.8243353    302.09494  0.038969936  0.039488208            3 
  647000   0.99671568   -5.8332543    302.41751  0.038951251  0.039464363            5 
  648000    1.0025294   -5.8579014    301.53904  0.038778169  0.039440572            3 
  649000   0.99031681    -5.808608    302.46768  0.038837658  0.039416395            4 
  650000   0.98487648   -5.8516481    302.24828  0.038749779  0.039392404            5 
  651000   0.99228521   -5.8134189     303.3465  0.038830837  0.039368576            3 
  652000    1.0029033   -5.8311614     302.6096  0.038677097  0.039344839            6 
  653000   0.99119439   -5.8521699    303.86894  0.038778578  0.039321302            8 
  654000   0.98608081   -5.8746192    303.87143  0.038719601  0.039297925            5 
  655000   0.99731871   -5.8763357    304.05992  0.038684468  0.039274562            7 
  656000   0.98834661   -5.8636318    304.38003  0.038666162   0.03925102            3 
  657000   0.99340274   -5.8622152    304.98763  0.038684377  0.039227406            5 
  658000   0.99073973   -5.8326826    305.58751  0.038701559   0.03920469            3 
  659000    1.0139865    -5.876465    305.64302  0.038649851  0.039181746            6 
  660000   0.97316742   -5.8340589    305.49724  0.038572884  0.039158533            5 
  661000    0.9953099   -5.8262516    306.94602  0.038697178  0.039135097            4 
  662000    1.0057068   -5.8488185     306.1256  0.038535449  0.039111372            4 
  663000   0.99902096   -5.8471856    306.98918   0.03858587  0.039088392            4 
  664000   0.99579677   -5.8493969     307.3055  0.038567457  0.039065146            6 
  665000   0.99645169   -5.8398994    307.17516  0.038493128   0.03904239            4 
  666000   0.97210293   -5.8230754    309.72084  0.038753859  0.039019848            3 
  667000    1.0049406   -5.8533284    308.63112   0.03855961  0.038997068            7 
  668000   0.98892459   -5.8953648    307.89542  0.038410108  0.038973817            5 
  669000    0.9876889   -5.8602562    308.60092  0.038440573  0.038950178            3 
  670000   0.97943669   -5.8712834    308.37278  0.038354823  0.038926798            2 
  671000   0.96863161   -5.8639883    310.10477  0.038512763  0.038903247            6 
  672000    1.0025301   -5.8472777     308.8324  0.038297668  0.038879804            4 
  673000   0.99375573   -5.8965349    308.80884  0.038237846  0.038855952            5 
  674000   0.97812165   -5.8946372    309.52447  0.038269593   0.03883271            3 
  675000    0.9705097   -5.8439242    311.05714  0.038402116   0.03880881            4 
  676000   0.97769963   -5.8567252    311.18588  0.038361178  0.038785776            4 
  677000   0.98600547   -5.8692612    310.80851  0.038258064  0.038762484            4 
  678000   0.98934998   -5.8810517     311.7466  0.038316937  0.038739794            4 
  679000   0.98473344   -5.8970789    311.13842  0.038185864  0.038717068            4 
  680000      1.00545   -5.8879113    311.91018  0.038224287   0.03869455            5 
  681000   0.98768735      -5.8437    312.69967  0.038264766  0.038671856            4 
  682000   0.99000005   -5.8933928    312.49956  0.038184208  0.038648841            5 
  683000   0.95456342   -5.8897449    312.70704  0.038153616  0.038625551            3 
  684000    1.0051411   -5.8397711    312.58721  0.038083237  0.038602769            2 
  685000   0.99854228   -5.8427093    313.00638  0.038078635  0.038579403            4 
  686000   0.96750277   -5.8506363    313.44359  0.038076238  0.038555615            7 
  687000    1.0054574   -5.8993566    313.30586  0.038004107  0.038532565            7 
  688000   0.96358479   -5.8716939    313.69879  0.037996462  0.038508828            4 
  689000   0.97813073   -5.8828072     313.8535  0.037960027  0.038485627            3 
  690000   0.97357224   -5.8451313    315.92758  0.038155505  0.038462626            2 
  691000   0.97432399   -5.8920387    314.89669  0.037975964  0.038439953           12 
  692000    0.9492948   -5.8803204    315.79902  0.038029747  0.038417011            2 
  693000   0.97769005   -5.8764113    315.71349  0.037964586   0.03839411            3 
  694000   0.97760627   -5.8723144    315.67432  0.037905178  0.038370949            5 
  695000   0.96707431   -5.8850409    315.46006  0.037824947  0.038347886            5 
  696000   0.96415537   -5.8560536    316.71556  0.037920924  0.038324755            4 
  697000   0.96825156   -5.8855623    316.04899  0.037786824  0.038301521           10 
  698000   0.97597042   -5.8853695    316.87668  0.037831504  0.038278062            3 
  699000   0.98741819   -5.8985216    315.87469  0.037657927   0.03825475            7 
  700000   0.96434427   -5.9042989    316.61095   0.03769178  0.038231121           12 
  701000   0.96328809   -5.9181989     317.0378  0.037688754  0.038207229            4 
  702000   0.96577667   -5.8933585    318.50131  0.037808798  0.038183176            6 
  703000   0.99147877   -5.8690902    317.80308  0.037672247  0.038159416            3 
  704000    0.9819822   -5.9236131    317.71168  0.037607916  0.038136238            6 
  705000   0.96362359   -5.9060085    318.20801  0.037613239  0.038113259           11 
  706000   0.95290998   -5.9131109    319.30541  0.037689496  0.038090258            4 
  707000   0.97809321   -5.8843517    319.63708   0.03767528  0.038067487            4 
  708000   0.99302138   -5.8995555    318.72293  0.037514469  0.038044827            2 
  709000   0.97200017   -5.8971545    320.13691  0.037627752  0.038022219            4 
  710000   0.96749532   -5.8981147    320.50559  0.037618026  0.037999889            3 
  711000   0.97051395   -5.8820138    320.78312  0.037597646  0.037977574            6 
  712000   0.98089884   -5.8963911    320.45056  0.037505917  0.037955547            3 
  713000   0.97714408   -5.8962036    320.52598  0.037462129  0.037932859            5 
  714000   0.96698267   -5.8995858    320.49357  0.037405879  0.037909865            4 
  715000   0.98487507   -5.8902848    321.69375  0.037493444  0.037887083            2 
  716000   0.96064911   -5.9173447    321.76152  0.037448966  0.037864172            4 
  717000   0.96450234   -5.9127902    321.71507  0.037391337  0.037840881            4 
  718000    0.9521741   -5.9111898    321.05279  0.037262395  0.037817645            4 
  719000   0.98344335   -5.9084047    322.11188  0.037333319  0.037794283            7 
  720000   0.95770461   -5.9072246    321.95322  0.037263104  0.037770957            4 
  721000   0.97395649   -5.9233733    321.32855  0.037139222   0.03774744            3 
  722000   0.97491426   -5.8875369    324.28561  0.037429087  0.037724454            9 
  723000     0.962894   -5.8903537    323.92691  0.037335974  0.037701834            6 
  724000   0.96592027   -5.8970315    323.24757  0.037206212  0.037679169            3 
  725000   0.97428278    -5.899648    323.56038  0.037190848   0.03765619            3 
  726000   0.95410436   -5.8879811     323.6288  0.037147475   0.03763264            4 
  727000   0.96808729   -5.9353485    324.08781  0.037148993  0.037609291            4 
  728000   0.94542382   -5.9348237    324.60281  0.037156916  0.037585398            5 
  729000   0.95405016   -5.9138161    324.92831  0.037143154  0.037561586            6 
  730000   0.95481672   -5.9248972    324.57211  0.037051611  0.037538282            6 
  731000   0.95976694   -5.8996778    325.66294  0.037125278  0.037515325            3 
  732000   0.95918977   -5.9189709    325.08173  0.037008394  0.037491793            2 
  733000   0.97243549   -5.8905309    327.34536  0.037215253  0.037468611            5 
  734000    0.9625004   -5.9190156    326.23237  0.037038189  0.037445677            6 
  735000   0.96073916    -5.946986    326.52002   0.03702041  0.037422629            5 
  736000   0.96232013   -5.8971694    326.79111  0.037000805  0.037399619            5 
  737000   0.96903239   -5.9422058    326.53901  0.036922095  0.037376506            3 
  738000   0.95185346   -5.8821755    327.83334  0.037018218  0.037353257            4 
  739000   0.94623674   -5.9545182    326.54913  0.036823311  0.037329978            6 
  740000   0.97059798   -5.9137179    327.86086  0.036921268  0.037306998            5 
  741000   0.95003283   -5.9479599     328.2937  0.036920119  0.037284317            2 
  742000   0.93624878   -5.9159753    329.06334  0.036956799  0.037261568            4 
  743000   0.97533435   -5.9148904    329.25038  0.036928038  0.037239012            5 
  744000   0.99147339   -5.9409522    328.68113  0.036814642  0.037216649            2 
  745000   0.96061736   -5.9316348    330.03505  0.036916673  0.037194313            6 
  746000   0.96237253    -5.987133    328.29948  0.036673311  0.037171115            4 
  747000   0.94147278   -5.9097476    329.60402  0.036769747  0.037148278            3 
  748000   0.95459337   -5.9361874    329.08193  0.036662425  0.037125083            2 
  749000   0.97368529   -5.9072431    329.26058  0.036633353  0.037102165            2 
  750000   0.95586218   -5.9326334    330.03345  0.036670383  0.037079054            4 
  751000   0.93247785    -5.942827     330.7384  0.036699778  0.037056603            5 
  752000   0.96039862   -5.9102061    330.14603  0.036585331  0.037033878            2 
  753000   0.93030272   -5.9948277    329.83948  0.036502819  0.037010887            6 
  754000   0.95042913   -5.9466512    330.50875  0.036528377  0.036988056            5 
  755000   0.94526742    -5.907972    332.02794  0.036647676  0.036965236            3 
  756000   0.95185256   -5.9298672     331.6324  0.036555599  0.036942207            2 
  757000   0.93651975   -5.9443367    332.40833  0.036592727  0.036919294            3 
  758000   0.96145442   -5.9449813    332.75437  0.036582494  0.036896442            5 
  759000   0.94908091   -5.9523697    332.90556  0.036550896  0.036873566            6 
  760000   0.95473117   -5.9443082    332.32372  0.036439004  0.036850659            5 
  761000   0.96113893   -5.9614887    332.58069  0.036419261  0.036827716            5 
  762000   0.96136628   -5.9191739    333.56528  0.036479142  0.036805068            3 
  763000   0.96256658   -5.9246739    334.22828  0.036503744  0.036782969            3 
  764000   0.93363707   -5.9085877    334.14368  0.036446736  0.036760964            8 
  765000   0.93809636   -5.9547108     335.2723  0.036522037  0.036739224            4 
  766000   0.94010604   -5.9104547    335.22835  0.036469577  0.036717763            5 
  767000   0.98034441   -5.9450594    335.17071  0.036415766  0.036696431            4 
  768000   0.92771099   -5.9720278     335.9684  0.036454904  0.036674617            3 
  769000   0.96847274   -5.9412281    335.95351  0.036405886  0.036652618            5 
  770000   0.95283114   -5.9494086    336.59615  0.036428155  0.036630546            4 
  771000   0.96036694   -5.9603283    335.25729  0.036236196  0.036608199            5 
  772000   0.95067358   -5.9557277    336.23803  0.036295124  0.036585716            4 
  773000   0.93696373   -5.9724246    335.02592  0.036117499  0.036563096            3 
  774000   0.94766774   -5.9393596    335.68354  0.036141638  0.036540061            3 
  775000   0.92787799   -5.9514773    335.52653  0.036078121  0.036517065            8 
  776000   0.92571289   -5.9649608    335.84975  0.036066339  0.036494417            6 
  777000   0.94007123   -5.9688706    336.68618  0.036109629  0.036471438            5 
  778000    0.9380729   -5.9319734    337.94139  0.036197664  0.036448928            3 
  779000    0.9510619   -5.9640022    337.81891  0.036138094  0.036426703           10 
  780000   0.95158102   -5.9653089    338.17308  0.036129602  0.036404455            5 
  781000   0.94414369   -5.9992138    337.31177  0.035991439  0.036382293           13 
  782000   0.93882497   -5.9928501    338.06298  0.036025466  0.036359455            4 
  783000   0.94370528   -5.9958679    338.70166   0.03604743  0.036336893            8 
  784000   0.92470487   -5.9673026    338.62418  0.035993217  0.036314441            4 
  785000   0.91236128   -5.9287141    339.24153  0.036012901  0.036292531            4 
  786000   0.94423529   -5.9398368    340.15984  0.036064445  0.036270697            3 
  787000   0.92932591   -5.9624391    339.78639  0.035979076  0.036248416            5 
  788000   0.95012668   -5.9774924    339.60113  0.035913825  0.036226151            4 
  789000   0.95654855   -5.9654179    339.80432  0.035889768  0.036204057            4 
  790000   0.93859545    -5.974444    340.42932  0.035910265   0.03618226            5 
  791000   0.94512827   -5.9634002    341.60047   0.03598825   0.03616028            9 
  792000   0.93757557   -5.9916463     339.3729  0.035708428   0.03613776            5 
  793000   0.94302741   -6.0041391    341.93311  0.035932441  0.036115528            5 
  794000   0.93350612   -5.9549112    342.06341  0.035900862  0.036093635           10 
  795000   0.95890397   -5.9491131    342.70411  0.035922863  0.036072036            6 
  796000   0.93479723   -5.9925979    342.57216   0.03586392  0.036050371            8 
  797000   0.91241422   -5.9709739    342.80798  0.035843578  0.036028971            4 
  798000    0.9498359   -5.9527951    343.39902  0.035860382  0.036007441            4 
  799000   0.93854976   -5.9955196    343.93274  0.035871166  0.035986227            7 
  800000   0.92917736   -6.0121735    344.07511  0.035841158  0.035964749            3 
  801000   0.93672392   -5.9594122    344.12508   0.03580161  0.035943462            4 
  802000   0.93630868   -5.9804183    343.79783  0.035722967  0.035922559            3 
  803000   0.93163257   -6.0129311    343.67814  0.035666059  0.035901307            9 
  804000   0.93689133   -5.9589996    346.02058  0.035864488  0.035880231            2 
  805000   0.92573722   -6.0136284    343.90958  0.035601406  0.035859145            6 
  806000    0.9306355   -5.9807888    345.04633  0.035674765    0.0358375           10 
  807000   0.93422586    -5.958407    344.63598  0.035588185  0.035816072            2 
  808000   0.92212953   -6.0086533    345.33025  0.035615744  0.035794627            2 
  809000   0.93507283   -5.9789707    345.90082  0.035630492  0.035772902            5 
  810000   0.94160126   -6.0003321    345.60755  0.035556332  0.035751692            3 
  811000   0.91350567   -5.9899504    346.05128  0.035558085  0.035730496            5 
  812000    0.9504022   -5.9468342    346.76912  0.035587964  0.035709581            5 
  813000   0.94207821   -5.9835477    347.14489  0.035582707  0.035688691            5 
  814000   0.92806462   -6.0214594    347.03551  0.035527796  0.035667558            4 
  815000   0.92816299   -5.9719495     347.9182  0.035574458  0.035646454            3 
  816000   0.92108971   -6.0162442    347.86477  0.035525406  0.035625522            3 
  817000   0.90788501   -6.0013603     348.5171   0.03554846  0.035604514           15 
  818000   0.91258572   -5.9947481    348.42065  0.035495176  0.035583433            4 
  819000   0.90811036   -5.9971516    347.95217  0.035404169  0.035562331            4 
  820000    0.9136123   -5.9728958    350.02211  0.035571352  0.035541458            9 
  821000   0.92347632   -5.9911936    348.67681  0.035391475   0.03552069            4 
  822000   0.94571456   -5.9969475    349.89203  0.035471616  0.035499715            2 
  823000    0.9344763   -6.0112259    348.84514  0.035322513  0.035478403            8 
  824000   0.93541225   -6.0368773    349.95748   0.03539214  0.035457478            2 
  825000   0.92838129   -5.9691783    350.54291  0.035408375  0.035436776            5 
  826000   0.92049286    -5.977804    350.71536  0.035382905  0.035415918            2 
  827000   0.90853165   -6.0239067    349.78447  0.035246319   0.03539463            4 
  828000   0.92278287   -6.0241401    350.08784  0.035234284  0.035373249            3 
  829000    0.9155106   -5.9985461    350.39467  0.035222625  0.035351829            5 
  830000   0.91546883   -6.0185842    349.86388  0.035126896  0.035330439            2 
  831000   0.92513395   -6.0072623    350.50248  0.035148664  0.035308805            6 
  832000   0.92113513    -6.015474     350.0589  0.035061989  0.035287116            3 
  833000   0.92115343   -6.0035012    352.00548  0.035214634  0.035265786            5 
  834000   0.90732489   -5.9904845    352.05208  0.035177066  0.035244178            4 
  835000   0.90478481   -6.0174948    350.88253  0.035018217  0.035222495            4 
  836000   0.92207903   -5.9954172    351.58211  0.035046064  0.035201032            3 
  837000   0.93511374   -6.0292886    350.55325  0.034901758  0.035179234            5 
  838000   0.92104133   -6.0179591    350.60883  0.034865635  0.035157521           14 
  839000   0.90531892   -6.0043497    351.30953  0.034893676  0.035135709            7 
  840000   0.92072448   -6.0587547    351.21856  0.034843111  0.035113867            3 
  841000   0.93054276   -6.0251251    351.49155   0.03482873  0.035091945            5 
  842000   0.93816371   -5.9938558    352.93077  0.034929807  0.035070188            4 
  843000   0.90210637   -5.9988624    354.59133  0.035052523  0.035048784            4 
  844000   0.90470184   -5.9919154    352.93062   0.03484702  0.035027188            4 
  845000   0.93016165   -6.0250264    352.75988  0.034788942  0.035005385           11 
  846000   0.92554586   -6.0396535    353.31562  0.034802563  0.034983563            3 
  847000   0.92829577   -6.0236163     353.3621  0.034766047   0.03496172            4 
  848000   0.92183638   -6.0116288    353.80597  0.034768668  0.034940122            2 
  849000   0.91331436   -6.0164812    354.05846  0.034752499  0.034918721            5 
  850000   0.90826925   -6.0008486    354.23039   0.03472847  0.034896981            5 
  851000   0.91781581   -6.0616036     353.4841  0.034614581  0.034875011            6 
  852000   0.93358236   -6.0371122    354.04401  0.034628718  0.034853004            5 
  853000   0.92239726   -6.0114399    353.59627   0.03454438  0.034830917            5 
  854000   0.91589753   -6.0422253    354.76953  0.034618417  0.034809296            8 
  855000    0.9189659   -6.0311861    354.21028  0.034523419  0.034787604            2 
  856000   0.91035914   -6.0251205    356.14934   0.03467186  0.034765942            4 
  857000   0.90090857   -6.0379087    354.62011  0.034482702  0.034743872            6 
  858000   0.89330026   -6.0334073     354.5668  0.034437335  0.034721599            3 
  859000   0.89237461    -6.039732    356.38682  0.034573808  0.034699385            4 
  860000   0.92361026   -6.0476093    355.34533  0.034432687  0.034677329            5 
  861000   0.92625131   -6.0497827    355.77543  0.034434324  0.034655424            4 
  862000   0.92043758   -6.0225712     356.5578  0.034470011  0.034633551            5 
  863000   0.88689932   -6.0612403    356.32969  0.034408043  0.034611886            7 
  864000   0.89713653    -6.035579    357.53879  0.034484837  0.034589932            6 
  865000   0.90263998   -6.0408619    357.08101  0.034400868  0.034568249           10 
  866000   0.89635075   -6.0290799    357.94042  0.034443843  0.034546479            5 
  867000   0.92614149   -6.0556833    357.70712  0.034381691  0.034524353            9 
  868000   0.92575753   -6.0206404    358.11662  0.034381396  0.034502461            6 
  869000   0.91391003   -6.0533614    357.01757  0.034236438  0.034480399            6 
  870000   0.90488722    -6.046951    356.73242  0.034169772  0.034458249            4 
  871000   0.92312147   -6.0593081    356.62739  0.034120492  0.034435847            4 
  872000   0.91675656   -6.0512558    357.04343  0.034121123  0.034413135            3 
  873000   0.89489884   -6.0492076    357.57302   0.03413259  0.034390646            3 
  874000   0.90252218   -6.0564353     357.8737  0.034122206  0.034367997            5 
  875000   0.91445281   -6.0711036    357.09124  0.034008689  0.034345278            5 
  876000   0.90107994   -6.0463213    358.44906  0.034099035  0.034322962            4 
  877000   0.91406533    -6.036994     358.2414  0.034040422  0.034300611            4 
  878000   0.90649439    -6.057437    357.98629  0.033977438  0.034278093            6 
  879000   0.91683844    -6.057261    358.92737  0.034028002  0.034255577            8 
  880000   0.88893764   -6.0849765    357.84761  0.033887085  0.034233009            5 
  881000   0.88228918   -6.0464917    359.02302  0.033959801  0.034210194            5 
  882000   0.90137998   -6.0453535    358.74329  0.033894869  0.034187675            5 
  883000   0.88402818   -6.0875623    357.75041  0.033762779  0.034164764            6 
  884000    0.8930526   -6.0628151    359.52692  0.033892055   0.03414175           10 
  885000   0.88837621    -6.073609    358.95645  0.033800043  0.034118693            3 
  886000   0.90268272   -6.0788129    358.66187  0.033734187   0.03409556            7 
  887000   0.90278486   -6.0510915     360.0129  0.033823084  0.034072896            3 
  888000   0.92182597   -6.0644303    359.55743  0.033742251  0.034050438            7 
  889000   0.89093145   -6.0239591    360.30052  0.033773952  0.034028037            7 
  890000   0.91474427   -6.0464058    360.89631  0.033791789  0.034005563            4 
  891000   0.89629446   -6.1188978    360.06807    0.0336764  0.033983352            3 
  892000   0.90005392   -6.0557071    360.57494     0.033686  0.033960674            3 
  893000   0.88948736   -6.0521146     361.5263  0.033737057  0.033938071            4 
  894000    0.9281666   -6.0767223    361.82117  0.033726805  0.033915601            3 
  895000   0.90348392   -6.0980326    360.40357  0.033557129  0.033893002            2 
  896000   0.91885277   -6.0690852    361.33524  0.033606328  0.033870322            4 
  897000   0.90209582   -6.1094775    361.89415  0.033620787  0.033848184            4 
  898000   0.90143097   -6.0675147    361.90635   0.03358448  0.033825761            3 
  899000   0.89293122   -6.0362324    363.67237  0.033710824  0.033803551            4 
  900000    0.8931959   -6.0679042    363.01523  0.033612521   0.03378154            5 
  901000   0.87541045    -6.055264    361.75445  0.033458606  0.033759508            4 
  902000   0.90264771   -6.0981971    361.59741  0.033407004  0.033737065           10 
  903000   0.89305702   -6.0752501    362.47584  0.033451074  0.033714766            3 
  904000   0.89483301   -6.0793706    363.89727  0.033545103  0.033692971            6 
  905000   0.88552822    -6.121349    362.65551  0.033393693   0.03367097            7 
  906000   0.88763638   -6.0856747    364.89899  0.033563189  0.033649038            5 
  907000   0.89451177   -6.1079516    363.78382  0.033423724  0.033627017            4 
  908000   0.89353764   -6.1098403    363.85984  0.033393891  0.033605109            3 
  909000   0.89052654   -6.1111303    363.70969  0.033343389  0.033583296            6 
  910000   0.87342848   -6.0937525    363.03856   0.03324529  0.033561277           13 
  911000   0.89035321   -6.0676515    364.50196   0.03334266  0.033539042            5 
  912000   0.89696591    -6.093752    364.22921  0.033281178  0.033517155            3 
  913000   0.88965884   -6.0736058    365.24857  0.033337766  0.033495123            7 
  914000   0.89737939    -6.085964    364.82199  0.033262399  0.033473527            3 
  915000   0.88853115   -6.0949138    365.43311  0.033281704  0.033451481            4 
  916000   0.88397795   -6.0727328    365.17828  0.033222187  0.033429299            4 
  917000   0.86352165   -6.0725423    365.79228  0.033241756  0.033407277            5 
  918000   0.89753332   -6.1075433    365.51039  0.033179956  0.033385244            7 
  919000   0.90928308    -6.076398    367.23693   0.03330041  0.033363466            5 
  920000   0.88691716   -6.0859142    366.73774  0.033218999  0.033341814            3 
  921000   0.87963758   -6.0731117    366.44419  0.033156369  0.033320198            8 
  922000   0.89423321   -6.1015614    366.33414  0.033110461  0.033298517           12 
  923000   0.87625631   -6.1148726    366.25577  0.033067512   0.03327666            4 
  924000   0.88260393   -6.1109356    366.31547   0.03303711  0.033254727            6 
  925000   0.89181195    -6.100884    366.85164  0.033049698  0.033232673            5 
  926000   0.88446859   -6.1337331    366.43928  0.032976897  0.033210853            3 
  927000   0.89076074   -6.0931457    368.27483  0.033106331  0.033189033            6 
  928000   0.88213987   -6.0723044    367.93252  0.033039918   0.03316725            8 
  929000    0.8800563   -6.1140521    367.31929  0.032949344  0.033145255           14 
  930000   0.88098688   -6.1425559     368.0051  0.032975367  0.033123431            7 
  931000   0.87040876   -6.1040022    368.50401  0.032984605  0.033101852            9 
  932000   0.87379096   -6.1015395    369.16682  0.033008478  0.033080302            9 
  933000   0.86878368   -6.1100763    368.68671  0.032930217  0.033058979            4 
  934000   0.87444892   -6.1213829    369.36825  0.032955768  0.033037513            3 
  935000   0.87272446   -6.1005817    369.49944  0.032932214  0.033016097            6 
  936000   0.86450923   -6.0799604     370.0149  0.032942922  0.032994973            4 
  937000   0.87696154   -6.0844237    371.34079  0.033025684  0.032973745            4 
  938000   0.86868172   -6.1190156    369.28507  0.032807842  0.032952587            2 
  939000   0.87795251   -6.1328275    368.80103  0.032729946  0.032931064            6 
  940000   0.89224326   -6.1164234    370.08495   0.03280895  0.032909744            6 
  941000   0.87790556   -6.1190517    370.84973  0.032841811  0.032888458            5 
  942000   0.88480482   -6.1043463    370.72596  0.032795998  0.032867095            3 
  943000    0.8725911     -6.11746    370.98324  0.032783955  0.032845545           14 
  944000   0.87729557   -6.1069027    372.40563  0.032874791   0.03282403            9 
  945000   0.87200974   -6.0731903    372.00572  0.032804738  0.032802801            9 
  946000   0.86528428   -6.1654345    371.13483  0.032693343  0.032781471           12 
  947000    0.8746249   -6.1186062    371.55411  0.032695716  0.032759927            9 
  948000   0.87506621   -6.1540919    371.24185  0.032633777  0.032738432           20 
  949000    0.8736734   -6.1079202    372.18079   0.03268184   0.03271708            3 
  950000   0.85620325   -6.1036082    372.63814  0.032687556  0.032696002            4 
  951000   0.87928553   -6.1255177    372.21348  0.032615972    0.0326748            6 
  952000   0.89385829    -6.121537    372.81302  0.032634193  0.032653769            7 
  953000   0.88055498   -6.1259965    372.06503  0.032534543  0.032632759            8 
  954000   0.87892859   -6.1120386    373.73508  0.032646321  0.032611843            9 
  955000   0.87864337     -6.12956    373.00433  0.032548371  0.032590664            5 
  956000   0.86304058   -6.0999847    373.93894  0.032595794  0.032569561            7 
  957000   0.88583269   -6.1425456    372.62367  0.032447203  0.032548604            3 
  958000   0.86420146   -6.1209914     372.9805  0.032444372  0.032527451            6 
  959000    0.8792886   -6.1211464    374.91484  0.032578627  0.032506528            4 
  960000   0.85272898   -6.1139507    374.12861  0.032476442  0.032485543            5 
  961000    0.8719158   -6.1467004    373.43789  0.032382751  0.032464321           12 
  962000   0.86627145   -6.1194947    374.24652  0.032419137  0.032443328            4 
  963000   0.85013232   -6.1646199    374.62362  0.032418105    0.0324224           11 
  964000   0.86829264   -6.1744949    374.30565  0.032356989  0.032401215            7 
  965000   0.86986687    -6.186459    372.93822  0.032205373  0.032379903            5 
  966000   0.86464372   -6.1261422    373.07914  0.032184191  0.032358551            4 
  967000   0.84917712   -6.1765527    373.39684  0.032178287  0.032337008            4 
  968000   0.85653941   -6.1709385    373.27248  0.032134339  0.032315412            7 
  969000   0.84635733   -6.1153584    374.33996  0.032192979  0.032293819            4 
  970000   0.86498648   -6.1229316    375.14504  0.032228955  0.032272535           12 
  971000   0.87445899   -6.1142469    375.97966  0.032267393  0.032251149            8 
  972000   0.84914698   -6.1357052    374.93275   0.03214444  0.032229998            6 
  973000   0.86047548   -6.1420842    375.37276  0.032149089   0.03220859            5 
  974000   0.85172521   -6.1568505    376.16065  0.032183492  0.032187117            9 
  975000   0.86880227   -6.1437296    375.88574  0.032126987  0.032165548            7 
  976000    0.8704936   -6.1834702    375.47179  0.032058725  0.032144158            6 
  977000   0.89189721   -6.1816979    375.94516  0.032066288  0.032122685            9 
  978000   0.87008776   -6.1236828    376.66089  0.032094486   0.03210146            3 
  979000   0.88942806   -6.1639169    376.91473  0.032083311  0.032080574            5 
  980000   0.87685778   -6.1526293    376.32951  0.032000809  0.032059468            8 
  981000   0.88517842   -6.1225706    378.03959  0.032113455  0.032038367            4 
  982000   0.86711113   -6.1561083    376.24186  0.031928196  0.032017358            8 
  983000    0.8810311   -6.1569894    376.79473  0.031942585  0.031996234            8 
  984000   0.85864988   -6.1516243    378.92154  0.032090239  0.031975397            8 
  985000   0.86094412   -6.1621855    378.36112  0.032010247  0.031954401            5 
  986000   0.85395035   -6.1180715    379.38708  0.032064493  0.031933382           10 
  987000   0.85314886   -6.1783727    378.43615  0.031951718  0.031912575            9 
  988000   0.84231889   -6.1785997    378.21213  0.031900483  0.031891548            6 
  989000   0.86735866   -6.1809002    379.16565  0.031948572  0.031870464            3 
  990000   0.85755252   -6.1788533    377.87164  0.031807377  0.031849423            4 
  991000   0.87190305   -6.1912203    378.14805  0.031798524  0.031828561            8 
  992000   0.84584838   -6.1555272    377.95079  0.031749898  0.031807343            7 
  993000   0.84912031   -6.1522546    378.69575  0.031780442  0.031786208            9 
  994000   0.84749946   -6.1267238    379.87154  0.031847044   0.03176521           10 
  995000   0.85575363   -6.1586799    379.49079  0.031783148  0.031744219            7 
  996000   0.85760688   -6.1933258    378.86571  0.031698938  0.031723228            9 
  997000   0.86507525   -6.1743229    379.25308  0.031699522  0.031702191            6 
  998000   0.84343487   -6.1902327    378.71956  0.031623209   0.03168092            7 
  999000   0.83647154   -6.1853099    379.52408  0.031658665  0.031659672            4 
 1000000   0.85160935    -6.174851    377.85479  0.031487899  0.031638412           11 
 1001000   0.88055468   -6.1796927    379.52578  0.031595553   0.03161692            8 
 1002000   0.85197339   -6.1920129     378.3582  0.031466916  0.031595415           10 
 1003000   0.85640729   -6.1798306    379.97526  0.031569895  0.031574043            3 
 1004000   0.85115264   -6.2037019    378.69168  0.031431913  0.031552631            5 
 1005000   0.85466483   -6.1789147     379.7392  0.031487496  0.031530946            3 
 1006000   0.85856686   -6.1877941    379.99836  0.031477664  0.031509419            8 
 1007000   0.87080094   -6.2001378    380.72598  0.031506619  0.031488049            6 
 1008000   0.85853397   -6.2135071    378.86874  0.031321821  0.031466713            5 
 1009000   0.86448559   -6.1577756     380.7779  0.031448455  0.031445411            8 
 1010000    0.8464698   -6.1844906    379.89986  0.031344873  0.031424344            3 
 1011000   0.83587133   -6.1565356    380.70364  0.031380122  0.031403162            4 
 1012000   0.84069027   -6.1852571    381.00411  0.031373856  0.031382101            3 
 1013000   0.85490503   -6.1765773    381.74538  0.031403865   0.03136115            4 
 1014000   0.85166735   -6.2177903    380.78101   0.03129364  0.031340003            7 
 1015000   0.84894938   -6.1805902    381.39952  0.031313589  0.031318974           14 
 1016000     0.836477   -6.2171558     381.9299  0.031326271  0.031297918            8 
 1017000   0.85212878   -6.2093412    381.23873  0.031238834  0.031276853            4 
 1018000   0.85182508   -6.1904865    382.07939  0.031276964  0.031255739            6 
 1019000    0.8356956   -6.2120146    382.10481  0.031248349  0.031234535            5 
 1020000    0.8542557   -6.2089645    381.68025  0.031183027  0.031213138           13 
 1021000    0.8543315   -6.1810378    381.35546  0.031125976  0.031191924            7 
 1022000   0.85327144   -6.2055123    380.75245  0.031046351  0.031170763           11 
 1023000   0.84420926    -6.197765    382.48805  0.031157385  0.031149586           11 
 1024000   0.85525431   -6.1889204    382.26935  0.031109159   0.03112814            3 
 1025000   0.85878594   -6.2072928    382.18452  0.031071912  0.031106802            5 
 1026000   0.81971201   -6.2068221    381.98581  0.031025488  0.031085411           13 
 1027000   0.84847248   -6.2262136    383.29471  0.031101486  0.031064104            5 
 1028000    0.8294337   -6.2064164    381.98631  0.030965168  0.031042725            9 
 1029000   0.85094909   -6.2118632    383.07656  0.031023369  0.031021411            5 
 1030000   0.85554233   -6.2048349    382.56863  0.030952154  0.031000173            6 
 1031000   0.86300423   -6.2290766    381.31921  0.030821145  0.030978649            2 
 1032000   0.84358841    -6.228795    382.43565  0.030881432  0.030957231           10 
 1033000   0.83846004   -6.2247271    382.78005   0.03087932  0.030935756            7 
 1034000    0.8569761     -6.17365    382.91309  0.030860178  0.030914588            8 
 1035000   0.83428753   -6.1976792    383.49874  0.030877515  0.030893426            8 
 1036000   0.81877384   -6.2012602    382.70893   0.03078418  0.030872121           10 
 1037000   0.83393402   -6.2371172    382.89009  0.030769053  0.030850789            5 
 1038000   0.83283819   -6.2146398    383.00792   0.03074887  0.030829483            3 
 1039000   0.83795141   -6.1861085    384.35877   0.03082762  0.030808134            5 
 1040000   0.84470786   -6.1825666    383.99483  0.030768817  0.030786866            5 
 1041000   0.83016668   -6.2290853    383.48701  0.030698608  0.030765831            9 
 1042000     0.862887   -6.2647822    383.49585  0.030669854  0.030744544            4 
 1043000   0.82658585   -6.1925191    384.42859  0.030714972   0.03072347            8 
 1044000   0.83743984   -6.2102261    384.26011  0.030672103  0.030702509           12 
 1045000    0.8457937   -6.2504211    383.71627  0.030599384  0.030681331            3 
 1046000   0.85039741   -6.2117221    384.78292  0.030655108  0.030659892            7 
 1047000   0.83486287   -6.2212736    385.06852  0.030648561  0.030638638            5 
 1048000   0.84145234   -6.2070176    383.88551  0.030525248  0.030617491            5 
 1049000   0.83994502   -6.2182725    385.68463  0.030639071  0.030596284            5 
 1050000   0.84197385   -6.2564228    385.52761  0.030597429  0.030575212            7 
 1051000   0.82381441   -6.2231858    385.00973  0.030527254  0.030553873            6 
 1052000   0.82982056   -6.2407819    384.91205  0.030490498  0.030532711            8 
 1053000   0.82982566   -6.2417865     384.6237  0.030438723  0.030511375            6 
 1054000    0.8418109   -6.2166572    384.29924  0.030384191  0.030490187            7 
 1055000   0.82847888   -6.2446196    384.81056  0.030395779  0.030468815            7 
 1056000   0.81429806    -6.214922    385.24724  0.030401455   0.03044748            7 
 1057000   0.81612126   -6.2088115    386.04172   0.03043533  0.030426144            6 
 1058000   0.82452146   -6.2400871    385.75425   0.03038392  0.030404861            5 
 1059000   0.82164525   -6.2170798     386.6135  0.030422844  0.030383947            7 
 1060000   0.83089171    -6.263565    386.62368  0.030394943  0.030363082            9 
 1061000    0.8344683   -6.2358495    386.22475  0.030334963  0.030342143            9 
 1062000   0.83898806    -6.236013    385.22401  0.030227873  0.030320976           10 
 1063000   0.83502535   -6.2266763    386.56604  0.030304644  0.030300095            7 
 1064000   0.82568813    -6.245722    387.02142  0.030311828  0.030279197            7 
 1065000   0.84655902    -6.236501    387.50464  0.030321177  0.030258419           11 
 1066000    0.8419066   -6.2386692    387.51721  0.030293716  0.030237649            9 
 1067000   0.83050779   -6.2219758    388.50222  0.030342254  0.030216824            8 
 1068000   0.80644841    -6.251969    387.16829  0.030209761  0.030196058            5 
 1069000   0.83113563   -6.2322713    387.72182   0.03022465  0.030175355            6 
 1070000   0.82518665   -6.2641983    387.37601  0.030169471  0.030154622            5 
 1071000    0.8331456   -6.2394364    388.70682   0.03024485  0.030133911            6 
 1072000   0.82927168   -6.2449639    388.59704  0.030208103  0.030113179            7 
 1073000   0.82852127   -6.2463395    388.06846  0.030138898  0.030092525            9 
 1074000    0.8265616   -6.2635801    388.53255  0.030146846  0.030071812            6 
 1075000   0.82304146   -6.2590722    387.76046   0.03005895  0.030051054           10 
 1076000   0.81391654   -6.2673311    388.21105  0.030065912   0.03003027            5 
 1077000   0.81295575   -6.2714113    388.64758  0.030071772  0.030009554            5 
 1078000   0.82040114   -6.2625045    388.73668  0.030050764  0.029989003            5 
 1079000   0.81688906   -6.2449882    390.34074  0.030146798  0.029968571            4 
 1080000   0.81390795   -6.2018071    390.08295  0.030098993  0.029948147            8 
 1081000   0.82926555   -6.2902004    388.50967  0.029949867  0.029927596            6 
 1082000   0.82200872   -6.2761573    390.02813  0.030039135    0.0299069            7 
 1083000   0.82918785   -6.2556368    389.61363  0.029979504  0.029886253           10 
 1084000   0.81590498   -6.2785797    389.50063   0.02994316  0.029865476            7 
 1085000   0.82961897   -6.2672621    389.80443  0.029938896  0.029844683           10 
 1086000   0.81542465   -6.2463228      389.142  0.029860498  0.029823978            4 
 1087000   0.82244701   -6.2635429    390.65893   0.02994932  0.029803469           10 
 1088000   0.83303436   -6.2217773    391.05477  0.029952112  0.029783133            6 
 1089000    0.8328497   -6.2653456    391.49757  0.029958492  0.029762761            5 
 1090000   0.81292831   -6.2292806    391.40289  0.029923768  0.029742537            3 
 1091000   0.81355857   -6.2621761    390.81959  0.029851787  0.029722345            5 
 1092000   0.81926053   -6.2695336    391.12168  0.029847503  0.029702191            9 
 1093000   0.81791948   -6.2689954    391.67783  0.029862597  0.029681965            5 
 1094000    0.8302084   -6.2627159    391.68947  0.029836187  0.029661842            5 
 1095000   0.80994606    -6.296573    390.74805  0.029737294  0.029641784            4 
 1096000    0.8349776   -6.2639526     392.2157  0.029821753  0.029621495            8 
 1097000   0.81770252   -6.2314389    393.24196  0.029872528  0.029601407            7 
 1098000   0.80744928   -6.2616678    392.81291  0.029812759   0.02958134            9 
 1099000   0.83256601    -6.291814    392.41826  0.029755706  0.029561085            7 
 1100000   0.81309953   -6.2616607    393.11898  0.029781741  0.029540989            6 
 1101000   0.81824985   -6.2618348    391.45366  0.029628645  0.029520824            5 
 1102000   0.80854249   -6.2553441    392.48858   0.02968002  0.029500641            3 
 1103000   0.80934363    -6.264237    392.93557  0.029686882  0.029480442            8 
 1104000   0.82612274   -6.2647424    392.11914  0.029598365  0.029460303            5 
 1105000   0.81024279   -6.2714876    393.15801  0.029649925  0.029440092           15 
 1106000   0.80871035   -6.2908906    392.82694  0.029598172  0.029419951            5 
 1107000   0.81843613   -6.2871965    393.05664  0.029588726  0.029399883           10 
 1108000   0.81273264   -6.3118723     393.2756   0.02957849  0.029379967            9 
 1109000   0.80756886   -6.2737587    392.95185  0.029527491  0.029359804            7 
 1110000    0.8213245   -6.3217928    392.12357  0.029438706  0.029339675           10 
 1111000   0.78304736   -6.3213991    392.40336  0.029433195  0.029319376            8 
 1112000   0.81297388   -6.3277787    392.65987  0.029425949  0.029299116            7 
 1113000   0.81912565    -6.317518    392.92958  0.029419705  0.029279114            6 
 1114000   0.79757267   -6.2778581    393.71734  0.029452225  0.029258971            6 
 1115000   0.81000884    -6.304523    392.62522  0.029344187  0.029238878            7 
 1116000   0.79829217   -6.2736323    393.79389  0.029405159    0.0292187           14 
 1117000   0.77778373   -6.2894578    394.13944  0.029404613  0.029198577            4 
 1118000   0.81724007    -6.294753    394.56698  0.029410181  0.029178539            6 
 1119000   0.83058901   -6.2991654    395.24941  0.029434719  0.029158646            5 
 1120000   0.79593681   -6.3046995    393.61286  0.029286671  0.029138853            8 
 1121000   0.80618333   -6.3170935    392.72098  0.029194245  0.029118844            7 
 1122000   0.81511521   -6.3075441    394.33565   0.02928815  0.029098802            8 
 1123000   0.79575989   -6.2955946    395.04924  0.029315022  0.029078822            7 
 1124000   0.82116131   -6.2845293    395.01993  0.029286768   0.02905905           17 
 1125000   0.81792073   -6.2726029    395.06126  0.029263797  0.029039272           10 
 1126000   0.79117485   -6.2933284    395.77767  0.029290828  0.029019516            7 
 1127000   0.82565256   -6.2894295    395.18877  0.029221293  0.028999628           10 
 1128000   0.79362785   -6.3084558    394.67371  0.029157336  0.028979782            6 
 1129000   0.79878454   -6.3113555    395.04522  0.029158932   0.02895983            5 
 1130000   0.81551794   -6.3049855    394.72642  0.029109618  0.028939848            6 
 1131000     0.799505   -6.2958729    395.75517   0.02915968  0.028919949            5 
 1132000    0.8013385   -6.3157063    394.94668  0.029074403  0.028899957            8 
 1133000   0.79371771   -6.3158528      396.016   0.02912739  0.028880014           18 
 1134000    0.8325515   -6.3057877    395.99793  0.029100377  0.028860022           10 
 1135000   0.79627522   -6.3374827    395.11692  0.029010053  0.028839945           13 
 1136000   0.78455384   -6.2978662    394.95672  0.028972764  0.028819859            9 
 1137000   0.81300614   -6.2895793    395.83202  0.029011435  0.028799898            6 
 1138000   0.78478472   -6.3172329    396.28475  0.029019094  0.028779979           14 
 1139000   0.79602118   -6.3118024    396.41256  0.029002967  0.028759995           15 
 1140000   0.78951447    -6.323203    396.30112   0.02896938  0.028739979           10 
 1141000   0.79892467   -6.3243275    395.91463  0.028915763  0.028720045            9 
 1142000   0.78495205   -6.3108238    397.21497  0.028985331  0.028700055            6 
 1143000   0.78524393   -6.3099637    396.48811  0.028906978  0.028680208            5 
 1144000   0.79210166   -6.3166115    395.94015  0.028841794  0.028660186           11 
 1145000   0.79891171   -6.3050328    395.12086  0.028756977  0.028640126            9 
 1146000   0.78796317   -6.3305766    395.49275  0.028758926  0.028620012           12 
 1147000   0.77956681   -6.3503176    395.89289  0.028762924  0.028599928            5 
 1148000   0.78937088   -6.3337722     396.1128  0.028753833  0.028579751           16 
 1149000   0.78741341   -6.3212167    397.35906  0.028819195  0.028559717           20 
 1150000   0.80472008   -6.3276478    395.86862  0.028686132  0.028539451           17 
 1151000   0.77754305    -6.362883    394.31337  0.028548607  0.028519091           10 
 1152000   0.79835409   -6.3394404     395.7231  0.028625803  0.028498799            8 
 1153000   0.77819499    -6.321493    396.23002  0.028637613  0.028478557            9 
 1154000   0.79165186   -6.3283186    395.71317  0.028575475  0.028458318           27 
 1155000   0.79755899   -6.3535744    396.59862  0.028614619  0.028438021            5 
 1156000   0.79381298   -6.3284676    396.75596  0.028601208   0.02841783           15 
 1157000   0.78878634   -6.3316367    396.90014  0.028586872  0.028397669           10 
 1158000   0.78212492   -6.3394569    395.96971   0.02849523  0.028377468            3 
 1159000   0.79174461   -6.2906139    398.57526  0.028657985   0.02835756           10 
 1160000   0.77082555   -6.3259687    397.36817  0.028546564  0.028337655           11 
 1161000   0.78245599   -6.3327863    397.64517  0.028541858  0.028317584           13 
 1162000   0.78193977   -6.3224405    396.83617  0.028459278  0.028297459           11 
 1163000   0.81092863   -6.3629028    396.76507  0.028429713  0.028277437            6 
 1164000   0.78933006   -6.3403166    398.09619  0.028500586  0.028257237            7 
 1165000   0.78135089   -6.3618109    396.91565  0.028391678  0.028237016           15 
 1166000   0.79043835   -6.3715414     395.8908  0.028294082   0.02821683            8 
 1167000   0.78307072    -6.341259    396.82545  0.028336579  0.028196479            6 
 1168000   0.78441313    -6.367128    396.41497  0.028283032  0.028176173            7 
 1169000   0.81038031   -6.3292938    398.01345  0.028372786  0.028156072           26 
 1170000   0.80129662   -6.3543487    397.42555  0.028306663  0.028135988            4 
 1171000   0.79255814   -6.3513144    397.54681  0.028291119  0.028115825           11 
 1172000   0.79019282   -6.3585121    398.25744  0.028317508  0.028095671           11 
 1173000   0.77960562   -6.3583944    397.77036  0.028258764  0.028075581            6 
 1174000   0.78008359   -6.3514951    397.64968  0.028226127  0.028055381            6 
 1175000   0.79018248   -6.3720723    398.04715  0.028230294  0.028035424            5 
 1176000   0.78406894   -6.3260008    398.87008  0.028264603   0.02801537            7 
 1177000   0.78515029   -6.3658065     398.3574  0.028204291  0.027995259            5 
 1178000   0.78385316   -6.3617268    396.48861  0.028048148  0.027975027            7 
 1179000   0.76731455   -6.3436081    399.23824  0.028218705  0.027954831           12 
 1180000   0.79364668   -6.3378759     399.5116  0.028214096  0.027934647           15 
 1181000    0.7764168   -6.3106357    399.42461  0.028184068  0.027914628            9 
 1182000   0.77699347   -6.3382828     397.7628  0.028043062  0.027894766           13 
 1183000   0.79416456   -6.3686505    397.39368  0.027993356  0.027874684            8 
 1184000   0.78729769   -6.3534282     398.2665  0.028031144  0.027854592            5 
 1185000   0.78855519   -6.3716156     397.7855  0.027973664  0.027834556            5 
 1186000   0.78284761   -6.3441677    398.17617  0.027977527  0.027814235            7 
 1187000   0.77944852   -6.3385482    397.71169  0.027921349  0.027793805            4 
 1188000   0.78161705   -6.3820375    397.58977  0.027889293   0.02777348           11 
 1189000   0.77751321    -6.414124    396.60872  0.027797079  0.027753061           13 
 1190000   0.78866792   -6.3495202    398.26711  0.027889853  0.027732875            5 
 1191000   0.78565576   -6.3442173    399.21021  0.027932425  0.027712918            6 
 1192000   0.78232169   -6.3642052    399.20298  0.027908486  0.027692866            7 
 1193000   0.79627136   -6.3677289    398.65326  0.027846693  0.027672638           14 
 1194000   0.78549955    -6.372676    398.39687  0.027805477  0.027652475            6 
 1195000   0.77760408   -6.3770699    398.25329  0.027772196  0.027632249            9 
 1196000   0.77498992   -6.3986239      398.917   0.02779522  0.027612085           11 
 1197000   0.78237036    -6.389278    399.00784  0.027778324  0.027591828           23 
 1198000   0.77281521   -6.3418132    399.48862  0.027788579  0.027571641            6 
 1199000   0.76079527   -6.3782369    398.49033   0.02769602   0.02755133            9 
 1200000   0.77530641   -6.3977905    398.58807  0.027679727  0.027531001            9 
 1201000    0.7557413   -6.4143378    399.22216  0.027700677  0.027510773           17 
 1202000   0.76399951   -6.3733435    399.19621  0.027675833  0.027490378           13 
 1203000   0.77728368   -6.4019747     397.5805  0.027540905  0.027470059            6 
 1204000   0.76337001   -6.3978655    398.23704  0.027563472  0.027449677            6 
 1205000   0.76462899   -6.3672442    398.01925  0.027525536  0.027429496           14 
 1206000   0.76281227   -6.3694629    399.84707  0.027629013  0.027409265            8 
 1207000   0.78072922   -6.3838122      399.502  0.027582298  0.027389181           13 
 1208000   0.78076179   -6.3594565    400.33624  0.027617014  0.027369007            8 
 1209000   0.77048328   -6.3898816    399.78036  0.027555856  0.027348927           18 
 1210000    0.7743037    -6.362695    399.47804  0.027512262  0.027328645            6 
 1211000    0.7682372   -6.4003355    398.86388   0.02744728  0.027308341           13 
 1212000   0.78285376   -6.4171957    399.30145   0.02745472  0.027288035           22 
 1213000   0.79843155   -6.3821559    400.98801  0.027547953   0.02726779           15 
 1214000   0.77359918   -6.4382044     397.3338  0.027274423  0.027247501           28 
 1215000    0.7694612   -6.3801771    400.63702  0.027478533  0.027227322           10 
 1216000   0.77097389   -6.3958481    399.44314  0.027374119  0.027207133           15 
 1217000   0.76966367   -6.3930476     399.5247  0.027357211  0.027186955            8 
 1218000   0.75480473   -6.3569851    400.03886  0.027369927  0.027166819            7 
 1219000   0.77368958   -6.4147172    399.17357  0.027288322  0.027146654            7 
 1220000    0.7847638    -6.420251    398.68179  0.027232363  0.027126352            9 
 1221000   0.76148039   -6.3725937     399.7943  0.027285988  0.027106103            9 
 1222000   0.76015096    -6.415964    398.52852   0.02717734  0.027085929            8 
 1223000    0.7579857    -6.408754    399.26107  0.027205034   0.02706565           16 
 1224000   0.75754906   -6.3804799    399.06822  0.027169677  0.027045494            5 
 1225000   0.76554127    -6.378223    399.23656   0.02715895  0.027025403           10 
 1226000   0.77034497   -6.4196996     398.8387  0.027109754  0.027005301            7 
 1227000   0.75445454   -6.4249356     400.0682  0.027171162   0.02698503            5 
 1228000   0.77212583   -6.4077652    399.29633  0.027096656  0.026964735           12 
 1229000   0.75673553   -6.3780824    400.85709  0.027180437  0.026944629           10 
 1230000   0.77036276   -6.4255831    399.40581  0.027060014  0.026924532           15 
 1231000   0.74369268   -6.4253101    400.09128  0.027084436   0.02690436           11 
 1232000   0.76560037   -6.4161176    399.83166  0.027044891  0.026884102            8 
 1233000   0.78097697   -6.4365669    400.08785  0.027040271  0.026863935            8 
 1234000   0.77238605   -6.4333494    399.71697  0.026993313  0.026843727           19 
 1235000   0.75851513   -6.4551487    400.12984  0.026999315  0.026823593           22 
 1236000   0.74880205   -6.4443571    400.28066  0.026987639  0.026803586            6 
 1237000   0.78153749    -6.410833    400.50069  0.026980644  0.026783702            9 
 1238000   0.77787035   -6.4488002    401.19787   0.02700578  0.026763903            5 
 1239000   0.76814247   -6.4403981    401.27923  0.026989456  0.026744126           14 
 1240000   0.74761224   -6.4137767    401.62634  0.026991018  0.026724355           15 
 1241000   0.75312849   -6.4038877    402.48585  0.027026984  0.026704805            4 
 1242000   0.77257924   -6.4121107    402.49222  0.027005651  0.026685093            9 
 1243000   0.75109778   -6.4230308    402.52104  0.026985857  0.026665313            7 
 1244000   0.75899896   -6.3972419    402.24434  0.026945628  0.026645554            7 
 1245000   0.74995293   -6.4055012    401.88827  0.026900152  0.026625926            6 
 1246000   0.76745522   -6.4675363    400.95526  0.026816163  0.026606182            6 
 1247000   0.75125919   -6.4292427    402.62454  0.026906211  0.026586598            8 
 1248000   0.74728966   -6.4137547    401.68924  0.026822198   0.02656705            5 
 1249000   0.77182808   -6.4179335    402.43188  0.026850272  0.026547505            8 
 1250000   0.74604074    -6.404254     401.9867  0.026799113  0.026527913           12 
 1251000   0.74763753   -6.4236045     402.4334  0.026807447  0.026508414           10 
 1252000    0.7682836   -6.4210458    402.74514  0.026806785  0.026488946            5 
 1253000   0.76546784   -6.3956029    403.66528  0.026846587  0.026469535           11 
 1254000   0.73841839   -6.4243733    402.73632  0.026763445  0.026450065           17 
 1255000   0.75010898   -6.4374974    403.54289  0.026795676  0.026430636            8 
 1256000   0.73393746    -6.437633    402.44064   0.02670121  0.026411296           11 
 1257000   0.75042363   -6.4126047     403.6343  0.026759103  0.026391958           11 
 1258000    0.7390613   -6.4412955    403.40387  0.026722567  0.026372624            8 
 1259000   0.73909722    -6.457502     403.5623  0.026711828  0.026353293            9 
 1260000   0.74570152   -6.4398528    402.63344  0.026629196  0.026333976            9 
 1261000    0.7600281   -6.4268377    403.63221  0.026674082  0.026314647           10 
 1262000   0.73229581   -6.4146493    402.97725  0.026609697  0.026295368            6 
 1263000   0.74782598   -6.4284371    403.86533  0.026647224  0.026276086            4 
 1264000   0.75509406   -6.4242972    404.05042  0.026638345  0.026256742           10 
 1265000   0.74068621   -6.4346178    403.41947  0.026575723  0.026237375            5 
 1266000    0.7461501   -6.4486971      403.553   0.02656352  0.026218049            7 
 1267000   0.74859084   -6.4364728    402.45956  0.026470636  0.026198529            7 
 1268000   0.74784928   -6.4254664    404.00749  0.026551491  0.026179178            8 
 1269000   0.73527331   -6.4965137    402.89591  0.026457572    0.0261599            5 
 1270000   0.73725473   -6.4326812    404.51561  0.026543019  0.026140638            7 
 1271000   0.75118846   -6.4698562    403.58791  0.026461311  0.026121489           22 
 1272000   0.72484339   -6.4572484    403.60523  0.026441642  0.026102229           17 
 1273000   0.76401466   -6.4748087    404.26423  0.026464011  0.026082945           12 
 1274000   0.75965342   -6.4776682    403.31842  0.026381373  0.026063626           18 
 1275000   0.75818168   -6.4581334    402.89393  0.026332937  0.026044327           10 
 1276000   0.76022084   -6.4572966    405.27494  0.026467799  0.026025067           12 
 1277000   0.75095566   -6.4495241     404.2788  0.026382067  0.026005793           16 
 1278000   0.73017562   -6.4399357    404.36894  0.026367301  0.025986567            5 
 1279000   0.73985391   -6.4442435    404.24202  0.026338417  0.025967376           13 
 1280000   0.75173159   -6.4470854    403.85827  0.026292856  0.025948189           17 
 1281000   0.73764839   -6.4757372    403.82133  0.026269928  0.025928815           15 
 1282000    0.7343177   -6.4649637    404.88548  0.026318609  0.025909481           10 
 1283000   0.75461572   -6.4457532    404.14697  0.026250128  0.025890208            8 
 1284000   0.73603418   -6.4686232    403.68506  0.026199705  0.025871052           21 
 1285000   0.75151401   -6.4572753     404.2831    0.0262181  0.025851953           11 
 1286000   0.76451411   -6.4472448    405.28631  0.026262721  0.025832898           20 
 1287000   0.74423854   -6.4700329    405.11174  0.026231012  0.025813885           23 
 1288000   0.74315373   -6.4927261     403.5151  0.026107344  0.025794815           21 
 1289000   0.73775913    -6.486457    404.12707  0.026126653  0.025775665           13 
 1290000   0.73195892   -6.4552082    406.13992  0.026236429  0.025756616           17 
 1291000   0.74918566   -6.4772584    404.68293  0.026122059  0.025737603           21 
 1292000   0.74511767   -6.4983153     404.9046  0.026116138  0.025718428           17 
 1293000   0.74597139   -6.4913106    405.21798  0.026116137  0.025699294           17 
 1294000   0.74560058   -6.5100676     405.0098  0.026082548  0.025680179           16 
 1295000   0.75189716   -6.4890716     403.9371  0.025993378  0.025661028           15 
 1296000   0.72786903    -6.496629    404.46324  0.026007153  0.025641848           17 
 1297000   0.73309782   -6.4612451    405.26393  0.026038546  0.025622793            7 
 1298000   0.73592435   -6.4702461    404.35833  0.025960345  0.025603817           10 
 1299000    0.7537551   -6.4847123    404.89762  0.025974956  0.025584898           12 
 1300000   0.73522081   -6.4660984    406.09281  0.026031591  0.025565984            5 
 1301000   0.73484138   -6.4880405    406.11341  0.026012901  0.025547078            9 
 1302000   0.73113456   -6.4813744     406.6827  0.026029359  0.025528103            6 
 1303000   0.73985275   -6.4948632    405.53793  0.025936168  0.025509218           16 
 1304000   0.73760982   -6.5007886    404.97793  0.025880492  0.025490156           13 
 1305000   0.73725656   -6.5168384    405.57572  0.025898833   0.02547102           32 
 1306000   0.74220467   -6.5230395    404.75772  0.025826807  0.025452017           32 
 1307000    0.7437702   -6.5081272    405.06645  0.025826731  0.025433025           16 
 1308000    0.7344204   -6.5017339    404.07684  0.025743937  0.025413985           11 
 1309000   0.73296713   -6.5165945    405.05068  0.025786267   0.02539494           10 
 1310000   0.72972465   -6.5361525    405.60181  0.025801642  0.025375948            6 
 1311000   0.76074597   -6.5006936     405.3338  0.025764925  0.025356941           10 
 1312000   0.71993079   -6.5101299    405.24239  0.025739481  0.025338051           12 
 1313000   0.73765447   -6.5076215    405.31774   0.02572466   0.02531915           13 
 1314000   0.72620407   -6.4980336    405.26913     0.025702   0.02530021           13 
 1315000   0.72523819   -6.4961145    406.58501  0.025765843  0.025281423            5 
 1316000   0.71650059   -6.5037357    406.26707  0.025726131  0.025262617            9 
 1317000   0.72763778   -6.5375544    406.44905  0.025718112  0.025243851           10 
 1318000   0.74069535   -6.5090822    405.94721  0.025666869  0.025225126           14 
 1319000   0.71997006   -6.5159795    404.83335  0.025577038   0.02520633           14 
 1320000   0.73065567   -6.5191101    406.80775  0.025682308  0.025187558           11 
 1321000   0.73331678   -6.5108543    407.59884  0.025712771  0.025168916           16 
 1322000   0.72195117   -6.5051767     405.7316  0.025575618  0.025150223           12 
 1323000   0.71954368   -6.5120031    407.40183  0.025661491  0.025131605           40 
 1324000   0.72903314   -6.5540449    407.07794  0.025621723  0.025113003           23 
 1325000   0.73215392    -6.509396     406.9895  0.025596824  0.025094553           11 
 1326000   0.72392262   -6.4946592    406.98476  0.025577222  0.025076036           11 
 1327000   0.73061779   -6.5104965    406.80118  0.025546419  0.025057462           11 
 1328000   0.73245551    -6.505101    407.45253  0.025568056  0.025038936            8 
 1329000   0.71715674   -6.5364345    406.60133  0.025495443  0.025020478            6 
 1330000    0.7147854   -6.5292416    406.00658  0.025439009  0.025001964            7 
 1331000   0.72948532   -6.5164602    407.73069  0.025527842  0.024983496           13 
 1332000   0.72445749   -6.5313237    406.07717  0.025405228  0.024965015           29 
 1333000   0.71549946    -6.500732    407.13158  0.025452087  0.024946495           10 
 1334000   0.72009326    -6.508813    407.64416  0.025465027  0.024928011           12 
 1335000     0.735822   -6.4933332    408.52396  0.025500871  0.024909541           18 
 1336000   0.72879118   -6.5143771    407.96347  0.025446823  0.024891183           21 
 1337000   0.71857044   -6.5008085    408.10484  0.025436602  0.024872794            9 
 1338000   0.71358112   -6.5103717     408.1431  0.025419974  0.024854407            9 
 1339000   0.70803006   -6.5016271    408.17899  0.025403223  0.024836017           20 
 1340000    0.7202662    -6.524786    407.77585  0.025359195   0.02481773            8 
 1341000   0.72177319   -6.5231916    409.08188  0.025421444  0.024799415            9 
 1342000    0.7072701     -6.49675     408.3193  0.025355148  0.024781227           12 
 1343000   0.70871649   -6.5177837     408.5003  0.025347499  0.024763006            8 
 1344000   0.71921629   -6.5295268    407.23021  0.025249889  0.024744727            9 
 1345000   0.70986234    -6.525993    407.24102  0.025231786   0.02472634           18 
 1346000   0.72168185   -6.4932835    408.87859  0.025314425  0.024708067            7 
 1347000   0.71648853   -6.5544755    407.25316  0.025195073  0.024689751            9 
 1348000   0.70694951   -6.5438252    408.76273  0.025269704  0.024671468           10 
 1349000   0.71152456   -6.5099772    408.77549   0.02525176  0.024653177           40 
 1350000   0.70537817   -6.5581646    407.81942  0.025174038  0.024634889           20 
 1351000   0.71638884   -6.5274078    407.47967  0.025134448  0.024616582           10 
 1352000   0.72502094   -6.5572436    407.63299  0.025125307  0.024598233            9 
 1353000   0.73166698   -6.5330181    408.19746  0.025141504  0.024579932           12 
 1354000   0.70653615   -6.5517165    407.46346  0.025077761  0.024561578            8 
 1355000   0.70614621   -6.5594053    406.82421  0.025019939  0.024543195           10 
 1356000   0.72057238   -6.5448128    407.69799  0.025055186  0.024524881           20 
 1357000   0.72834901   -6.5543774    408.56351  0.025089874  0.024506574           10 
 1358000   0.72994442   -6.5365861    407.10978  0.024982191  0.024488286           14 
 1359000   0.71246978   -6.5381734    408.21723  0.025031716  0.024469921           28 
 1360000   0.71650334   -6.5207447    408.07988  0.025004895  0.024451653           16 
 1361000   0.70601141   -6.5580607     407.8929  0.024975073  0.024433346           13 
 1362000   0.71565064   -6.5503418    407.65543  0.024942207  0.024415117           13 
 1363000   0.71516747   -6.5312102    408.65046  0.024984743  0.024396832           11 
 1364000   0.71070085   -6.5506998    408.78159  0.024974438  0.024378617           14 
 1365000   0.71519672   -6.5857166     408.0867  0.024913718  0.024360399           19 
 1366000   0.72015446   -6.5669719    409.31249  0.024970259  0.024342172           12 
 1367000   0.69153953   -6.5777067    407.62478  0.024849109  0.024323926           15 
 1368000   0.70623862    -6.552325     408.8982  0.024908516  0.024305689            8 
 1369000   0.70292389   -6.5581005    407.74972  0.024820411  0.024287435           10 
 1370000     0.688633   -6.5635959    407.51585  0.024788068  0.024269197           16 
 1371000   0.72149353   -6.5656174    408.58718  0.024835107  0.024250889           17 
 1372000   0.71847601   -6.5741488    408.79534  0.024829649  0.024232659           23 
 1373000   0.70592062   -6.5569988    408.27568  0.024780024  0.024214354           14 
 1374000   0.69222046   -6.5830884     408.5755  0.024780174  0.024196078           17 
 1375000   0.69469482   -6.5858574    407.05106  0.024669761  0.024177819           34 
 1376000   0.72576858   -6.5600245    408.85826   0.02476128  0.024159549           14 
 1377000   0.70058498   -6.5481088    407.88571  0.024684442  0.024141379           28 
 1378000   0.70583721   -6.5621257    408.11318  0.024680284  0.024123256           12 
 1379000   0.69196118   -6.5485133    409.88422  0.024769411  0.024105163           11 
 1380000   0.70511785   -6.5595306    408.00915  0.024638234  0.024086969           44 
 1381000   0.70319233   -6.5634624    408.43986  0.024646383  0.024068805           13 
 1382000   0.70154339   -6.5710066    409.17148  0.024672665  0.024050619           35 
 1383000   0.70531522   -6.5882346    408.15223   0.02459341  0.024032476           29 
 1384000   0.71416668   -6.5755327    408.05408   0.02456973  0.024014283           11 
 1385000   0.70822968   -6.5648777    408.17587  0.024559318  0.023996134           10 
 1386000   0.68961083   -6.5582145    409.12064  0.024598403  0.023977933           16 
 1387000   0.69865695    -6.555802    408.68361  0.024554411  0.023959801           23 
 1388000   0.71785639   -6.5817945    407.82547  0.024485198  0.023941693           10 
 1389000   0.70779561   -6.5738156    408.76388  0.024523871  0.023923541           11 
 1390000   0.71580602       -6.574    409.60723  0.024556789  0.023905436           15 
 1391000   0.70601975   -6.5643725    409.10727  0.024509182  0.023887423           12 
 1392000   0.68455689   -6.5583483    408.15923   0.02443482  0.023869331           10 
 1393000   0.70083318   -6.5805239    408.63587  0.024445792   0.02385125           14 
 1394000   0.70203462    -6.579686    409.58038  0.024484719  0.023833235           10 
 1395000   0.69067216   -6.5758041    408.72388  0.024416002    0.0238152           10 
 1396000   0.70125993   -6.5890528    408.41831  0.024380271  0.023797219           39 
 1397000   0.69868968   -6.6037061    406.80899  0.024266821  0.023779053           20 
 1398000   0.68370542   -6.6041496    408.00385  0.024320687  0.023760837           30 
 1399000   0.68618137      -6.5855    408.24744  0.024317813  0.023742668           19 
 1400000   0.69978135   -6.6199236    408.14363  0.024294264  0.023724492           18 
 1401000   0.70471289   -6.6143663    408.39835  0.024292074  0.023706292           14 
 1402000   0.69677986   -6.6097206    408.24245  0.024265481  0.023688149           25 
 1403000    0.6924733   -6.6126457    407.18556   0.02418541  0.023670013           16 
 1404000   0.69463191   -6.5800242    408.26417  0.024232204  0.023651842           13 
 1405000   0.70852784   -6.5848945    409.46994  0.024286473  0.023633893           15 
 1406000   0.68557436   -6.5607775    409.41671  0.024266045  0.023615987           26 
 1407000    0.7065508   -6.5708743    408.31167  0.024183349  0.023598003            4 
 1408000   0.68878078   -6.5882887    409.36597  0.024228573  0.023580112           16 
 1409000   0.68990541   -6.5855723    409.13227  0.024197555  0.023562155            8 
 1410000   0.69414625   -6.5628667    409.37043   0.02419447  0.023544267           18 
 1411000   0.69533257   -6.5864617    409.79476  0.024202383  0.023526494           15 
 1412000   0.68512885   -6.5677149     409.8877  0.024190728  0.023508715           13 
 1413000   0.68879703   -6.5958124    409.78845  0.024167755   0.02349091           14 
 1414000    0.6810138   -6.6142898    408.62525   0.02408211  0.023473203           15 
 1415000   0.70650481   -6.6341695    408.80765  0.024075833  0.023455453           20 
 1416000     0.685016   -6.6303432    409.22089   0.02408315  0.023437607           21 
 1417000   0.68295692   -6.6583706     409.0641  0.024056934  0.023419744           19 
 1418000   0.67493687   -6.6451932    409.00323  0.024036391   0.02340188           14 
 1419000   0.67953116   -6.6244352    408.93367  0.024015367  0.023384018           41 
 1420000   0.69608532   -6.6123925     408.2057  0.023955733  0.023366202           14 
 1421000   0.69368254   -6.5983922    409.84987  0.024035296  0.023348461           13 
 1422000   0.67916352   -6.6145832    409.29315  0.023985768  0.023330727            8 
 1423000    0.6862206    -6.640542    409.46443  0.023978943  0.023312928           23 
 1424000   0.69769316   -6.6322925    409.33758  0.023954681  0.023295098           19 
 1425000   0.67750977   -6.6099357    409.08848  0.023923303  0.023277341            8 
 1426000   0.67927554   -6.6146471    408.40677  0.023866688  0.023259583           25 
 1427000   0.68409569    -6.632934    409.24149  0.023898709  0.023241771           13 
 1428000   0.67056469   -6.6119474    410.16091  0.023935628  0.023223967           21 
 1429000   0.68771725   -6.6406796    409.24657  0.023865557  0.023206195           18 
 1430000   0.68501383   -6.6100191    410.35381  0.023913392  0.023188472           14 
 1431000   0.67313046   -6.6106845     410.2302  0.023889483  0.023170795           15 
 1432000   0.67995363   -6.5957394    409.04587   0.02380388  0.023153149           19 
 1433000   0.68230073   -6.6179322    409.96326  0.023840618  0.023135523           35 
 1434000    0.6881273   -6.6255324    409.55589  0.023800319  0.023117894           27 
 1435000   0.67874256   -6.6255536      409.063   0.02375511   0.02310024            9 
 1436000   0.67014086    -6.622873    409.53589   0.02376601   0.02308259           11 
 1437000   0.68090804   -6.6039381    408.95691  0.023715896  0.023064972           24 
 1438000   0.68239849   -6.6252866    408.62784  0.023680334  0.023047253           16 
 1439000   0.66830665   -6.6386476    410.31887  0.023761806  0.023029574           14 
 1440000   0.68240908    -6.616107    409.46318  0.023695786  0.023012045           11 
 1441000   0.67743645   -6.6320554    409.56892  0.023685457  0.022994511           16 
 1442000   0.67760038   -6.6475214    409.97268  0.023692365  0.022976898           24 
 1443000   0.68717401   -6.6404503    410.80573  0.023724054  0.022959261           35 
 1444000   0.67411346   -6.6479564    409.86045  0.023653073  0.022941671           31 
 1445000   0.67136074   -6.6332282    409.60477  0.023621959  0.022924117           18 
 1446000   0.67985986   -6.6315684     409.8098  0.023617439  0.022906615           42 
 1447000   0.66334749   -6.6434432     409.5717  0.023587405  0.022889063           70 
 1448000   0.68216277   -6.6415629    410.32597  0.023614524  0.022871573           20 
 1449000   0.68582724   -6.6484651    409.85991  0.023571424  0.022854107           32 
 1450000   0.66622071   -6.6291233    409.14052  0.023513823    0.0228366           16 
 1451000      0.67609   -6.6381572     409.8833  0.023540277  0.022819072           20 
 1452000   0.67632738   -6.6567379    409.31045  0.023491187  0.022801551           18 
 1453000   0.65801552   -6.6587007    409.11178  0.023463626  0.022784037           26 
 1454000   0.67865185   -6.6341981    409.96294  0.023496271  0.022766499           11 
 1455000    0.6610515    -6.618632    409.30616  0.023442506  0.022749042           14 
 1456000   0.66656416    -6.629438    410.14845  0.023474614  0.022731579           17 
 1457000   0.65556322   -6.6629594    409.85568  0.023441757   0.02271412           29 
 1458000   0.67016802   -6.6684569    409.44745  0.023402346  0.022696663           28 
 1459000   0.66469613   -6.6687026    409.53731  0.023391439  0.022679275           15 
 1460000   0.68056078   -6.6802324    409.44793  0.023370316  0.022661885           18 
 1461000    0.6670194    -6.684503    409.78999   0.02337383  0.022644523           18 
 1462000   0.67615437   -6.6382421    410.09916  0.023375465  0.022627172           34 
 1463000   0.66029766   -6.7016585    408.83303  0.023287368  0.022609842           24 
 1464000   0.66509481   -6.6627596    409.32049  0.023299208  0.022592448           15 
 1465000   0.65847495   -6.6570241    410.02194  0.023323205  0.022575164           19 
 1466000   0.66623137   -6.6610204    409.58341  0.023282367  0.022557814           49 
 1467000   0.67671869   -6.6441911    410.41057  0.023313484  0.022540486           17 
 1468000   0.66664545   -6.6664842    410.38878  0.023296366  0.022523128           59 
 1469000   0.65288621   -6.6815731    409.11039  0.023207986  0.022505764           19 
 1470000   0.67546535   -6.6556515    410.47005  0.023269277  0.022488512           45 
 1471000   0.67367235   -6.6874145    409.62952  0.023205842  0.022471225           42 
 1472000   0.66204333   -6.6812878    409.80192  0.023199837  0.022453863           56 
 1473000   0.65706639   -6.6969593    409.09048  0.023143838  0.022436486           42 
 1474000   0.67477803   -6.6574875    410.16562   0.02318892  0.022419114           35 
 1475000   0.66416216   -6.6660649    409.46474  0.023133601  0.022401859           48 
 1476000   0.66107927   -6.6594281    410.98605   0.02320382  0.022384582           39 
 1477000   0.64989739   -6.6713404     409.6485  0.023112644   0.02236724           19 
 1478000   0.68398691   -6.6772373    410.23386   0.02313001  0.022349958           15 
 1479000   0.65650821   -6.6839755    410.58035  0.023133894  0.022332799           35 
 1480000   0.66165792   -6.6944627    410.09635  0.023091011  0.022315625           19 
 1481000   0.65805864   -6.6578136    410.73249  0.023111214  0.022298426           29 
 1482000   0.66135115    -6.704805    410.39237  0.023076494  0.022281292           18 
 1483000   0.66539884   -6.7081659    409.67942  0.023020871  0.022264049           39 
 1484000   0.66990659   -6.7170026    409.02176  0.022968428  0.022246729           31 
 1485000   0.66357988   -6.6807588    408.67501  0.022933502  0.022229499           23 
 1486000   0.65595924    -6.682472    409.98623  0.022991601  0.022212306           25 
 1487000   0.64455165   -6.6989192    409.54479    0.0229514  0.022195133           13 
 1488000   0.66707653   -6.6950885    409.29376  0.022921918  0.022177949           11 
 1489000   0.65217663   -6.6893589     409.4617  0.022915922  0.022160779           23 
 1490000    0.6673356   -6.6882915    409.31449   0.02289231  0.022143639           28 
 1491000   0.66344403   -6.6975404    409.53259  0.022889145  0.022126387           27 
 1492000   0.65773239     -6.70416    409.54123  0.022874287  0.022109232           28 
 1493000   0.66660856   -6.7042935    410.58924  0.022917461  0.022092088           19 
 1494000   0.66076734   -6.6882627    409.60476  0.022847209  0.022074986           35 
 1495000   0.65006694    -6.701319    410.24417  0.022867568   0.02205788           50 
 1496000   0.66287968   -6.7073817    409.16455  0.022792143    0.0220408           38 
 1497000   0.66421366   -6.7186548    408.98219  0.022766767  0.022023673           66 
 1498000   0.65032704   -6.7121599    409.32824  0.022770819  0.022006516           47 
 1499000   0.63497843   -6.7004851    410.35302  0.022812598  0.021989458           74 
 1500000    0.6577528   -6.6817023     410.4109  0.022800605  0.021972403           31 
 1501000   0.64964586   -6.7285473    409.25715  0.022721361  0.021955408           25 
 1502000   0.64942858   -6.7122264    409.49916  0.022719661  0.021938341           34 
 1503000   0.64286805   -6.7191233     410.1764  0.022742093   0.02192131           36 
 1504000   0.64621086   -6.6989196    409.89041  0.022711126  0.021904288           50 
 1505000   0.65750108   -6.6707582    411.02199  0.022758693    0.0218873           51 
 1506000   0.65412684   -6.6818395    409.57062   0.02266327  0.021870374           28 
 1507000   0.66230725    -6.727575    409.32908  0.022634875  0.021853339           27 
 1508000   0.65526881   -6.7040272    410.17114  0.022666398  0.021836415           36 
 1509000   0.64474099   -6.7103505    409.80963  0.022631413  0.021819476           50 
 1510000   0.65089325   -6.6997501    410.59387  0.022659706  0.021802575           74 
 1511000   0.64220783   -6.7224258    410.02139  0.022613136  0.021785633           50 
 1512000    0.6624897   -6.7058231    409.60861   0.02257543  0.021768658           20 
 1513000    0.6447214   -6.7109715    410.34055  0.022600823   0.02175175           37 
 1514000   0.64631747   -6.7168702    409.43349  0.022535969  0.021734842           47 
 1515000   0.64925227   -6.7188744    410.37272  0.022572757  0.021717987           75 
 1516000   0.65706476   -6.7004719    410.21644  0.022549277  0.021701127           27 
 1517000    0.6459796   -6.7313771    409.97477  0.022521136  0.021684311           31 
 1518000   0.64231442   -6.7143733    409.41232  0.022475424  0.021667403           30 
 1519000   0.65786234   -6.7321739    409.05301  0.022440916  0.021650517           12 
 1520000    0.6578852   -6.7283124     410.1166  0.022484463  0.021633642           39 
 1521000    0.6523135   -6.7363195    409.68035  0.022445779  0.021616795           29 
 1522000   0.64216464   -6.7224853    409.63046    0.0224283  0.021599969           33 
 1523000   0.63089837   -6.7482174     410.3666  0.022453852  0.021583147           24 
 1524000   0.64638339   -6.7234326    410.02235  0.022420295  0.021566354           65 
 1525000   0.63286116   -6.7534366    409.35769  0.022369272  0.021549554           89 
 1526000   0.65048716   -6.7416386    409.69011  0.022372767  0.021532721           54 
 1527000   0.65358527   -6.7171114    410.63779  0.022409833  0.021515916           58 
 1528000   0.62947652   -6.7385869    410.03954   0.02236254  0.021499094           77 
 1529000   0.65352858   -6.7767636    409.35289  0.022310491  0.021482284           33 
 1530000   0.63795871   -6.7748085    408.16376  0.022231142  0.021465437           57 
 1531000   0.63625472   -6.7522879    409.85044  0.022308428  0.021448642           18 
 1532000   0.64332069   -6.7335261    410.11975  0.022308515  0.021431853           17 
 1533000   0.63292362   -6.7416436    410.07282  0.022291412   0.02141507           25 
 1534000   0.64955477   -6.7315674    410.62856  0.022307071  0.021398285           24 
 1535000   0.63421433   -6.7237149     410.6439  0.022293372  0.021381559           19 
 1536000   0.62861097   -6.7421152    410.23333  0.022256582  0.021364875           18 
 1537000   0.63757031   -6.7484729    409.27894  0.022190357  0.021348145           15 
 1538000   0.64709892   -6.7655897    409.17128  0.022170096  0.021331413           24 
 1539000   0.63787128   -6.7417449    409.26901  0.022160982  0.021314675           20 
 1540000   0.63311468   -6.7712724    409.38099  0.022152651  0.021297924           26 
 1541000   0.63780221   -6.7405039    410.09854  0.022177079  0.021281172           19 
 1542000   0.63097406    -6.769109    409.50832    0.0221308  0.021264447           51 
 1543000   0.63296824   -6.7738576     408.9358  0.022085537   0.02124768           16 
 1544000   0.62738808    -6.757834    409.34138  0.022093123  0.021230951           14 
 1545000   0.63790242    -6.759717    409.60996  0.022093309  0.021214212           13 
 1546000   0.64433122   -6.7530524     409.6292  0.022080056  0.021197503           16 
 1547000   0.64010495   -6.7631965    408.67053  0.022014142  0.021180793           52 
 1548000   0.63967375   -6.7532552    408.73966  0.022003642  0.021164055           58 
 1549000   0.63459799   -6.7506819    409.41888  0.022025978  0.021147416           24 
 1550000   0.64753317   -6.7424696     409.4431   0.02201307  0.021130792           44 
 1551000   0.63367254   -6.7638541    409.84381  0.022020407  0.021114123           21 
 1552000   0.61957935    -6.782253    408.59747  0.021939297  0.021097532           64 
 1553000   0.63218633     -6.75994    408.86342  0.021939441  0.021080952           36 
 1554000   0.62929725   -6.7860782    408.94181  0.021929527   0.02106439           49 
 1555000   0.63291499   -6.7652403    409.64967  0.021953359  0.021047815           21 
 1556000   0.62502078   -6.7564525    409.53484    0.0219331  0.021031329           76 
 1557000   0.63145014   -6.7605448    409.86815  0.021936852  0.021014786           61 
 1558000   0.64799676    -6.770332    409.57453  0.021907067  0.020998285           40 
 1559000   0.63636488   -6.7665871    410.77139  0.021956991  0.020981805           21 
 1560000   0.64531145   -6.7601671    409.82483  0.021892352  0.020965347           39 
 1561000   0.63863548   -6.7774381     408.8953  0.021828705  0.020948834           34 
 1562000    0.6228164   -6.7775619    409.82699  0.021864436  0.020932387           31 
 1563000   0.63236051   -6.7731562    409.56234  0.021836337  0.020915891           37 
 1564000   0.64296828   -6.7686856    408.81445  0.021782526  0.020899432           72 
 1565000   0.62885365   -6.7695895    409.77051  0.021819516  0.020882969           60 
 1566000   0.62588511   -6.7902009    409.54158    0.0217934  0.020866482           34 
 1567000   0.62493955   -6.7862985    409.53787  0.021779296  0.020849943           21 
 1568000    0.6415509   -6.7812949    408.89924  0.021731464  0.020833404           27 
 1569000   0.62326262   -6.8004035    408.82084   0.02171345  0.020816861           59 
 1570000   0.62507966   -6.7725398    409.39309  0.021729994  0.020800335           24 
 1571000   0.61841658   -6.7741786     408.8086  0.021685158  0.020783838           30 
 1572000    0.6301708   -6.7794312    408.51048   0.02165556  0.020767325           28 
 1573000   0.61648309   -6.7962083    409.35569  0.021686569  0.020750835           31 
 1574000   0.62536018   -6.7695558     409.4378  0.021677139  0.020734375           37 
 1575000   0.62327255   -6.7847655    409.18274   0.02164988  0.020717998           33 
 1576000   0.62559841    -6.795151     409.4071  0.021648007  0.020701615           47 
 1577000    0.6189841   -6.8132521    409.26998  0.021627034  0.020685162           66 
 1578000   0.62770874   -6.8130364    408.87813  0.021592635  0.020668667           59 
 1579000   0.61733071   -6.7912202    408.39351  0.021553384  0.020652161           55 
 1580000   0.61496398   -6.8123205    408.50877  0.021545821  0.020635697           25 
 1581000   0.62744189   -6.7990422    407.96861  0.021503722   0.02061923           35 
 1582000    0.6294106   -6.8211052    408.18092  0.021501313  0.020602738           88 
 1583000   0.60790021   -6.8004692    408.50332  0.021504702  0.020586285           34 
 1584000   0.61975659   -6.8110841      408.992  0.021516835  0.020569885           49 
 1585000   0.62489143   -6.8047991    408.47853  0.021476264  0.020553434           83 
 1586000   0.61449094   -6.8073389    408.52061  0.021464933  0.020536955           73 
 1587000   0.62452071   -6.8421831    407.83276  0.021415289  0.020520503           64 
 1588000   0.61924011   -6.8117871     408.1492  0.021418409  0.020504066           28 
 1589000   0.63429833   -6.8373188    407.64752   0.02137862  0.020487609           50 
 1590000    0.6144758   -6.8190562    408.51182  0.021410473  0.020471214           89 
 1591000   0.62131722   -6.8169485    408.28183  0.021384969  0.020454831           35 
 1592000   0.62138414   -6.8221387    409.12391  0.021415615  0.020438475           68 
 1593000   0.61396898   -6.8306472    408.34694  0.021361526  0.020422101           38 
 1594000   0.60767578   -6.8220851    408.14816  0.021337733  0.020405729           50 
 1595000   0.59879976    -6.840977    408.31585  0.021333117   0.02038936           53 
 1596000   0.61577122   -6.8517134    407.75101  0.021290258  0.020373024           81 
 1597000    0.6169175    -6.832684    407.38759  0.021257962  0.020356687           78 
 1598000     0.625409   -6.8190808    408.96296  0.021326813  0.020340348           54 
 1599000   0.61206958   -6.8355426     408.5129   0.02129002  0.020324023           78 
 1600000   0.62036017   -6.8411994    407.62488  0.021230463  0.020307698           89 
 1601000   0.60087236   -6.8119357    408.83405   0.02128014  0.020291432          100 
 1602000   0.62277996   -6.8436124    408.21613  0.021234713  0.020275166           43 
 1603000   0.61425627   -6.8211269      407.797  0.021199677  0.020258951           91 
 1604000   0.61601609   -6.8496546    407.55416  0.021173844  0.020242717           33 
 1605000   0.60165463    -6.844993    407.50709  0.021158208  0.020226473           45 
 1606000   0.62138508   -6.8525868    407.70477  0.021155291   0.02021027           26 
 1607000    0.6077192   -6.8447225    408.18952  0.021167264  0.020194081           93 
 1608000   0.60212894   -6.8392567    408.67342  0.021179178  0.020177908           71 
 1609000   0.61169739   -6.8626996    408.55657  0.021159963  0.020161776           61 
 1610000   0.61529053   -6.8406522    407.68436  0.021101675  0.020145615           44 
 1611000   0.63058115   -6.8386793    408.18177  0.021114306  0.020129469           78 
 1612000   0.62329557   -6.8541748    407.99614  0.021091612  0.020113292          111 
 1613000   0.61377978   -6.8507636    407.95906   0.02107662  0.020097155           66 
 1614000   0.61026664   -6.8598712    407.30081  0.021029575  0.020081002           49 
 1615000   0.59475806    -6.847108    407.44461  0.021023974  0.020064853           48 
 1616000   0.61633658   -6.8510798    407.62266  0.021020146  0.020048735           59 
 1617000    0.6185341   -6.8319016    408.12016  0.021032785  0.020032606           44 
 1618000   0.60375182   -6.8347907    407.65857  0.020996012  0.020016538           78 
 1619000   0.60890826   -6.8716426    408.22199  0.021012044  0.020000434           68 
 1620000   0.61678662   -6.8125992    408.87888  0.021032864  0.019984384           64 
 1621000   0.61146226   -6.8372241    407.73609   0.02096114  0.019968306           95 
 1622000   0.59547803   -6.8484343    407.73011  0.020947909  0.019952263           55 
 1623000   0.60069033   -6.8340855    407.87272  0.020942325  0.019936181          121 
 1624000    0.6122843   -6.8339564    407.90227  0.020930946  0.019920152           37 
 1625000   0.60672299   -6.8458745    407.43343  0.020894022  0.019904141           73 
 1626000   0.60939379   -6.8498343    408.38784  0.020930086  0.019888121          105 
 1627000   0.59773782   -6.8289106     408.3261   0.02091406  0.019872155           83 
 1628000   0.60231698   -6.8569778    407.71108  0.020869732  0.019856145           87 
 1629000   0.60856259   -6.8811764    406.80069  0.020810348  0.019840144          120 
 1630000   0.60004571   -6.8428143    408.33577  0.020876062  0.019824152           90 
 1631000   0.59255411   -6.8421849    407.08364  0.020799287  0.019808191           75 
 1632000   0.60084026   -6.8561363     407.1801  0.020791468  0.019792237           88 
 1633000   0.59704849    -6.831325    407.18903  0.020779191  0.019776274          102 
 1634000   0.58428014   -6.8530121    407.50022  0.020782345  0.019760308          116 
 1635000   0.59686805   -6.8763186    407.42899  0.020766004  0.019744349           83 
 1636000   0.59551761   -6.8756538    407.14035  0.020738608  0.019728419          116 
 1637000    0.5842459   -6.8741575    406.78407  0.020707802  0.019712412          177 
 1638000   0.60094865   -6.8666775    406.42916  0.020677104  0.019696413          112 
 1639000   0.59151934   -6.8770029    406.73123  0.020679847  0.019680453          190 
 1640000   0.58692432   -6.8519181    406.83358  0.020672438   0.01966452           84 
 1641000   0.59884649   -6.8959394    406.61424  0.020648702  0.019648578          141 
 1642000   0.59500584   -6.8693915    407.59533  0.020685918  0.019632651          302 
 1643000   0.59918058   -6.8776212    406.88737   0.02063742   0.01961674          180 
 1644000   0.59001076   -6.8761005    407.99929  0.020681229  0.019600847          220 
 1645000   0.59381708   -6.8704109    407.30438  0.020633454  0.019584941          273 
 1646000    0.5880228   -6.8717806    406.63013  0.020586783  0.019569042          168 
 1647000   0.59459617   -6.8790978    407.13305  0.020599729  0.019553185          171 
 1648000   0.59688853   -6.8704297    407.44036  0.020602769  0.019537366           98 
 1649000   0.58647491   -6.8699608    406.82636  0.020559246  0.019521575          245 
 1650000   0.59965347   -6.8684238    406.80652  0.020545784  0.019505778          190 
 1651000   0.60327718   -6.8587012    406.91842  0.020538988  0.019489991           85 
 1652000    0.6057379   -6.8699562    407.63726  0.020562816  0.019474244           81 
 1653000   0.59029623   -6.8839319    405.65477  0.020450432  0.019458517          128 
 1654000   0.60048443   -6.8826365    406.74432  0.020492963  0.019442784          135 
 1655000   0.60059244   -6.8769114    406.81811  0.020484296  0.019427091           98 
 1656000   0.59037406    -6.872833    407.23016  0.020492661  0.019411398           92 
 1657000   0.58862026   -6.8869317    406.76065  0.020456681  0.019395705          104 
 1658000   0.58774833    -6.881486    407.31544  0.020472228  0.019380013          190 
 1659000   0.57534644   -6.8852741    406.78493  0.020433239   0.01936432          130 
 1660000   0.59197321   -6.8833823    407.52671  0.020458168  0.019348689          186 
 1661000   0.59720266   -6.8768263     407.0647  0.020422672  0.019333064           92 
 1662000    0.5801074   -6.8861586    406.79179    0.0203967  0.019317443           71 
 1663000   0.59124612   -6.8904407    408.44141  0.020467098  0.019301823          124 
 1664000     0.594361   -6.8940129    406.98686  0.020381954  0.019286228          254 
 1665000   0.59575669   -6.8983293    406.30543  0.020335607  0.019270582          215 
 1666000   0.57226258   -6.9074172    406.61724  0.020338997  0.019254978           64 
 1667000     0.574158   -6.8828647    406.96538    0.0203442  0.019239423          193 
 1668000   0.57699946   -6.8783012      407.123  0.020339878   0.01922385           87 
 1669000   0.56822237   -6.8763635    407.07327  0.020325208   0.01920829          182 
 1670000   0.56968544    -6.909561    406.46106  0.020282488  0.019192724          182 
 1671000   0.57739235   -6.8937317    405.83062   0.02023891  0.019177127          360 
 1672000   0.59229834   -6.8954073    405.91506  0.020231014  0.019161533          135 
 1673000   0.58345771   -6.9011099    406.97384   0.02027166  0.019145924          125 
 1674000   0.58004746   -6.9080744    406.17012   0.02021954  0.019130318          125 
 1675000   0.57432825   -6.8991808    406.56364  0.020227047  0.019114743          160 
 1676000   0.58458948   -6.9190627    406.50435   0.02021203  0.019099181          147 
 1677000    0.5861038   -6.9128714    405.72888  0.020161443   0.01908361          127 
 1678000   0.58165002   -6.9056036    407.14094  0.020219554  0.019068059           80 
 1679000   0.57989828   -6.9158468    406.58963  0.020180148  0.019052522          269 
 1680000   0.58847219   -6.9007471    406.06771  0.020142248  0.019036985          135 
 1681000    0.5877435   -6.9164244    406.43521  0.020148484  0.019021455          116 
 1682000   0.58289645   -6.9114518    405.94016  0.020111978  0.019005945          131 
 1683000   0.58179098    -6.911216    406.50568  0.020128029  0.018990427          138 
 1684000   0.58387949   -6.9256466    405.90465  0.020086335  0.018974921          118 
 1685000   0.59109896   -6.9372018    406.40086  0.020098955  0.018959406          107 
 1686000   0.57106178   -6.9283035    405.10845  0.020023154  0.018943919          108 
 1687000   0.58227965   -6.9310403    406.13496  0.020061992  0.018928443          132 
 1688000   0.57302747   -6.9185138    406.06746  0.020046774  0.018913004           94 
 1689000   0.56061771   -6.9329762    405.37172  0.020000578  0.018897571          103 
 1690000   0.57052336   -6.9278861    405.60616  0.020000304  0.018882145          142 
 1691000    0.5771137   -6.9347485    405.83509  0.019999758   0.01886674          137 
 1692000   0.58131702   -6.9314838    406.14365  0.020003135  0.018851327          121 
 1693000   0.57000233   -6.9608491    405.53663  0.019961441  0.018835941          110 
 1694000    0.5741624   -6.9347058    404.84272  0.019915521  0.018820548           87 
 1695000   0.55801483    -6.921935    406.43092  0.019981854  0.018805139          129 
 1696000   0.58132673   -6.9415997    406.92145  0.019994175  0.018789799          110 
 1697000   0.58244273   -6.9322552    406.04181  0.019939197  0.018774473           86 
 1698000   0.58129477   -6.9493246    405.65175  0.019908311   0.01875916          160 
 1699000   0.59264348   -6.9457864    405.72793   0.01990033  0.018743836           98 
 1700000    0.5678471   -6.9451137    406.19442  0.019911491  0.018728515          112 
 1701000   0.58162554   -6.9391083    405.58134   0.01986975  0.018713187          269 
 1702000   0.55815497   -6.9416138    404.80517  0.019820073  0.018697886          102 
 1703000   0.57951308   -6.9502459    405.61392  0.019848009   0.01868258           74 
 1704000   0.56926745   -6.9394846     405.7992  0.019845422  0.018667283           86 
 1705000   0.56821635   -6.9441845    405.65821  0.019826892  0.018652011          330 
 1706000   0.56913963   -6.9465287    405.44298  0.019804757   0.01863678           80 
 1707000   0.56828147    -6.944726    405.47071  0.019794508  0.018621516          159 
 1708000    0.5623333   -6.9669551    405.22713  0.019771035  0.018606291          154 
 1709000   0.56568027   -6.9459636    405.31651  0.019763824  0.018591013           46 
 1710000   0.57252341    -6.951534    405.66353  0.019769178  0.018575777          186 
 1711000   0.56117155   -6.9554556    405.35514  0.019742604  0.018560617          191 
 1712000   0.55264706   -6.9366994    405.39618  0.019733069  0.018545443          177 
 1713000    0.5765583   -6.9664288    404.70093  0.019687727  0.018530259          281 
 1714000    0.5516793   -6.9455751    405.71949  0.019725763  0.018515096          138 
 1715000    0.5765938   -6.9447313      405.628  0.019709815  0.018499945          265 
 1716000   0.57134727   -6.9452932    405.41555  0.019688012  0.018484817          110 
 1717000   0.55536889   -6.9578032    406.02155  0.019705958  0.018469674           51 
 1718000   0.56396372    -6.979525    405.25431  0.019657271  0.018454556          116 
 1719000   0.55612533   -6.9476054    405.17468  0.019641976  0.018439485          232 
 1720000   0.56562202   -6.9382477    405.77004  0.019659401   0.01842443           81 
 1721000   0.56528894   -6.9483957    405.50005  0.019634904  0.018409373           94 
 1722000   0.57685614    -6.967469    405.33898  0.019615707  0.018394337           85 
 1723000   0.55893602   -6.9572655    404.99461  0.019587667  0.018379282          109 
 1724000    0.5613246   -6.9564873    405.23742  0.019588042  0.018364284           65 
 1725000   0.55875341    -6.961506    405.30138  0.019579777  0.018349288          121 
 1726000    0.5676086   -6.9498724    405.53993   0.01957995  0.018334304          175 
 1727000   0.56294031   -6.9776338    405.34194  0.019559059  0.018319325           93 
 1728000   0.57803332   -6.9755517    404.57208  0.019510613  0.018304332           84 
 1729000   0.56514074   -6.9639229    405.09639  0.019524599  0.018289372          102 
 1730000   0.56679176   -6.9475939    405.46778  0.019531203  0.018274458          114 
 1731000   0.55239087   -6.9740824    404.79278  0.019487425  0.018259514           81 
 1732000   0.55687078   -6.9730022    404.85727  0.019479276  0.018244613           99 
 1733000   0.56369651   -6.9618822    405.27098  0.019487929  0.018229727          103 
 1734000   0.54499058   -6.9715916    404.80165  0.019454135  0.018214843           77 
 1735000   0.56435377    -6.958773    405.15319  0.019459808   0.01819994          185 
 1736000   0.56100147   -6.9690079    404.75756  0.019429606  0.018185072           69 
 1737000   0.56324637   -6.9619642    405.72096   0.01946464  0.018170212           81 
 1738000   0.55943667   -6.9732274    405.17577    0.0194273   0.01815535          162 
 1739000   0.56373296   -6.9621538     404.9805  0.019406771   0.01814048          165 
 1740000   0.56059938   -6.9886945    403.76559  0.019337432  0.018125625           68 
 1741000   0.55755472    -6.984439    404.62901  0.019367653  0.018110781           88 
 1742000   0.55614455   -6.9638241    404.68007  0.019358978  0.018095951          143 
 1743000    0.5539598   -6.9713814    405.79632  0.019401239  0.018081139          208 
 1744000    0.5560195   -6.9744647    404.58406  0.019332189   0.01806637           92 
 1745000   0.56206082   -6.9709702    404.67869   0.01932563  0.018051606           87 
 1746000   0.54904283   -6.9737456       404.92  0.019326078  0.018036833          190 
 1747000   0.56672827   -6.9852339    405.01491  0.019319543  0.018022088           97 
 1748000   0.53921719   -6.9958717    405.08022  0.019311605  0.018007332          129 
 1749000   0.55432472      -6.9777    404.96411  0.019295031  0.017992593           67 
 1750000   0.55632034   -6.9832776    404.47919  0.019260914  0.017977878           92 
 1751000   0.55363625     -6.95655    404.23379  0.019238235  0.017963158           94 
 1752000   0.55245025   -6.9764439    404.89486  0.019258698  0.017948448           82 
 1753000   0.54912067   -6.9961503     405.2396  0.019264099  0.017933774          212 
 1754000    0.5546446   -6.9939552    405.33285  0.019257547  0.017919077          219 
 1755000   0.55222413   -6.9794168    404.90446  0.019226233  0.017904431          137 
 1756000   0.55252696   -6.9848876    405.01441  0.019220502  0.017889812          227 
 1757000   0.55239089   -6.9733959    404.56383  0.019188192  0.017875185           98 
 1758000   0.55833943   -6.9845009    405.29249  0.019211817  0.017860587          230 
 1759000   0.54813669   -7.0035963    404.65758  0.019170816  0.017846025          136 
 1760000   0.54677261    -7.006796    405.30902  0.019190768  0.017831462          115 
 1761000   0.54684179    -6.995208    404.90452  0.019160729  0.017816903           71 
 1762000   0.55662785   -6.9911727    404.99588  0.019154175  0.017802349          142 
 1763000   0.53777692   -7.0017008    404.86842  0.019137286   0.01778782          111 
 1764000   0.55678639   -6.9982898    404.96518  0.019131008  0.017773267          227 
 1765000   0.54465256   -6.9808894    404.58073  0.019102017  0.017758733          120 
 1766000   0.54294018   -6.9996462    404.54387  0.019089462  0.017744225          200 
 1767000   0.53624834   -6.9831669    403.93155  0.019049781  0.017729714          284 
 1768000   0.54089951   -6.9892184    404.48553  0.019065118   0.01771523          301 
 1769000   0.53413879   -7.0098182    404.37799  0.019049274  0.017700752          215 
 1770000   0.55684951   -6.9988391    405.20552  0.019077473  0.017686285          226 
 1771000     0.540242   -6.9985001    404.56532  0.019036576   0.01767185          108 
 1772000   0.54384599   -7.0096553    404.78779  0.019036296  0.017657446          129 
 1773000   0.55406415    -6.998495    405.19858  0.019044866  0.017643029          131 
 1774000   0.55700356   -6.9924996    404.07113  0.018981169  0.017628641          323 
 1775000   0.54759445   -7.0295034    404.18768  0.018975947  0.017614246          114 
 1776000   0.54455808   -7.0115914    404.99835  0.019003301  0.017599867          219 
 1777000   0.53971752   -6.9945288    404.28181  0.018959004  0.017585498          150 
 1778000   0.55024207   -7.0071775    404.39998   0.01895388  0.017571177          209 
 1779000   0.53486228   -7.0099734    404.40285   0.01894336  0.017556849          114 
 1780000   0.52679447   -6.9995811    404.23826  0.018925012  0.017542521          226 
 1781000   0.54055054   -7.0095585    404.47707   0.01892556  0.017528199          206 
 1782000   0.53828863   -6.9875631    404.13144  0.018898777  0.017513887          172 
 1783000    0.5563259   -7.0185125     404.8728  0.018922827  0.017499589          363 
 1784000   0.54099734   -7.0030684    404.32645  0.018886699  0.017485336          205 
 1785000   0.53807991   -7.0111794    404.35419  0.018877413  0.017471097          249 
 1786000   0.53379826   -7.0032452     404.6165  0.018879083  0.017456849          161 
 1787000    0.5580145   -7.0176779    404.17186  0.018847783   0.01744262          217 
 1788000   0.54442487    -7.017986    404.27177  0.018841898  0.017428389          148 
 1789000   0.53706236   -7.0312849    404.35006  0.018835013  0.017414166          148 
 1790000   0.54137126   -7.0246306    404.19879  0.018817448  0.017399943          145 
 1791000   0.54041539   -7.0033656    404.73367  0.018831829  0.017385746          220 
 1792000   0.53812641   -7.0144752    404.32022  0.018802094  0.017371565          345 
 1793000   0.54247095   -7.0135871    403.97366    0.0187755  0.017357396          324 
 1794000   0.53590377    -7.025486    403.58176   0.01874683  0.017343208          356 
 1795000   0.53978625   -7.0165992    404.31321  0.018770344  0.017329061          237 
 1796000   0.54068822   -7.0020516    404.18974  0.018754164   0.01731493          169 
 1797000   0.53824309   -7.0327396    404.22317  0.018745278  0.017300831          412 
 1798000    0.5448542    -7.023877    403.60057  0.018705996  0.017286716          355 
 1799000   0.53338236   -7.0121137    404.32967  0.018729372  0.017272621          152 
 1800000   0.53887935   -7.0053633    404.34514  0.018719683   0.01725855          418 
 1801000   0.53727315   -7.0216789    404.25242  0.018704998  0.017244483          139 
 1802000    0.5444539     -7.00337    404.47098  0.018704725  0.017230414          211 
 1803000   0.52880643   -7.0060994    404.04145  0.018674498  0.017216372          154 
 1804000   0.52815256   -7.0228679     404.3886  0.018680183  0.017202345          199 
 1805000    0.5356419   -7.0241031    404.17064  0.018659771  0.017188322          188 
 1806000   0.53873562   -7.0265778    404.11405  0.018646828  0.017174323          335 
 1807000   0.53691568   -7.0386921    403.21317  0.018594963  0.017160338          167 
 1808000   0.54165908   -7.0173713    404.37764   0.01863835  0.017146363          200 
 1809000   0.53786115   -7.0105652      403.895  0.018605814  0.017132406          346 
 1810000   0.53076993   -7.0273901    404.61531  0.018628697  0.017118467          442 
 1811000   0.52585904   -7.0165827    404.29268  0.018603565  0.017104503          402 
 1812000   0.53140889   -7.0288721    404.09153  0.018584048  0.017090589          410 
 1813000   0.53895626   -7.0419151    403.30397  0.018537598  0.017076673          226 
 1814000   0.52854168   -7.0325371    403.54889   0.01853863  0.017062749          187 
 1815000   0.51416838   -7.0423566    403.42637   0.01852279  0.017048869          117 
 1816000   0.53747925    -7.027761    404.78725  0.018575039     0.017035          148 
 1817000   0.51682407   -7.0416889    403.73044  0.018516348  0.017021121          318 
 1818000   0.52683205   -7.0369621    404.20028  0.018527699   0.01700726          295 
 1819000   0.52438404   -7.0384053    403.62774  0.018491284  0.016993377          343 
 1820000   0.53208731   -7.0148643    404.07326  0.018501523  0.016979539          353 
 1821000   0.52136027    -7.029015    403.25221   0.01845379  0.016965727          466 
 1822000    0.5263779   -7.0195479    403.75647  0.018466725   0.01695191          395 
 1823000   0.51582238   -7.0534749    403.75552  0.018456551   0.01693811          361 
 1824000   0.52972975   -7.0164098    403.66264  0.018442189  0.016924307          260 
 1825000   0.53590781   -7.0410484    404.53833   0.01847207  0.016910531          124 
 1826000   0.51925786   -7.0409531    403.93308  0.018434332  0.016896759          364 
 1827000   0.52424693   -7.0408643    403.25186   0.01839317  0.016882964          347 
 1828000   0.52319143   -7.0299264    404.09036  0.018421333  0.016869207          386 
 1829000   0.52429802   -7.0302909    403.72564  0.018394644  0.016855486          183 
 1830000   0.51804392   -7.0268861    403.52338  0.018375382  0.016841758          453 
 1831000    0.5172279   -7.0443968    403.48061  0.018363399  0.016828051          377 
 1832000   0.53530597   -7.0310845    403.92302    0.0183735  0.016814367          267 
 1833000   0.51841023    -7.061693    403.82881  0.018359193  0.016800715          357 
 1834000   0.52682529   -7.0237536    404.25524  0.018368559  0.016787062          575 
 1835000   0.52789979   -7.0454821    404.12784  0.018352763  0.016773425          462 
 1836000    0.5107059   -7.0557911    403.42861   0.01831103  0.016759774          332 
 1837000   0.51126615   -7.0413612     403.9272   0.01832368  0.016746154          483 
 1838000   0.52409821   -7.0656132    403.39098  0.018289399   0.01673254          465 
 1839000   0.53055915   -7.0359329    403.91382  0.018303146  0.016718937          331 
 1840000   0.50074354    -7.035755    403.51571  0.018275168  0.016705367          574 
 1841000   0.53165375   -7.0496864    403.43444  0.018261563    0.0166918          488 
 1842000   0.52068324   -7.0493051    403.83663  0.018269844  0.016678258          465 
 1843000    0.5225926    -7.036361    403.79023  0.018257833  0.016664725          415 
 1844000    0.5064173   -7.0509045    403.07127  0.018215441  0.016651215          559 
 1845000   0.50995575   -7.0434132    403.62061   0.01823038  0.016637726          546 
 1846000   0.52710374   -7.0606045    403.09797  0.018196911  0.016624217          406 
 1847000   0.51460222   -7.0505571     403.8662   0.01822172  0.016610733          441 
 1848000    0.4987023   -7.0504348    403.42268   0.01819186  0.016597247          473 
 1849000   0.50982272   -7.0696024    403.70589  0.018194785  0.016583774          525 
 1850000   0.51044883   -7.0592676     403.4218  0.018172153  0.016570324          528 
 1851000   0.51183959   -7.0494294    403.08385  0.018147121  0.016556861          349 
 1852000   0.51826865   -7.0623335    403.12404  0.018139131  0.016543442          407 
 1853000    0.5197367   -7.0545081    403.33342  0.018138758  0.016530009          299 
 1854000   0.52140825   -7.0719895    403.30395   0.01812765  0.016516588          477 
 1855000   0.51714141   -7.0791775    403.61022  0.018131636  0.016503161          590 
 1856000   0.50594471    -7.048031    403.04362  0.018096427   0.01648977          565 
 1857000   0.52031525   -7.0784311    403.11772  0.018090007  0.016476363          550 
 1858000   0.51278193   -7.0791105    403.08753  0.018078917  0.016462973          508 
 1859000   0.50753445   -7.0850742     402.9416   0.01806265  0.016449572          421 
 1860000   0.51130279   -7.0536039    403.40317  0.018073619  0.016436218          575 
 1861000   0.51203229   -7.0587427    403.21704  0.018055572  0.016422866          403 
 1862000   0.50640283   -7.0819679     403.0044  0.018036359  0.016409528          347 
 1863000   0.51749257   -7.0604515    403.11344  0.018031555   0.01639622          175 
 1864000    0.5104631   -7.0859641    403.25551  0.018028233   0.01638292          380 
 1865000   0.50638537   -7.0717412    403.17183  0.018014827  0.016369644          272 
 1866000   0.50865711   -7.0549342    403.36419  0.018013764  0.016356375          165 
 1867000   0.50559609   -7.0717163    403.25904  0.017999421  0.016343137          248 
 1868000   0.50210593   -7.0693184    402.57791    0.0179594  0.016329897          123 
 1869000   0.49834962   -7.0770357    402.52314  0.017947349  0.016316669          201 
 1870000   0.50858443   -7.0737783    403.50651  0.017981574  0.016303439          580 
 1871000   0.51167771   -7.0756092    403.26173   0.01796106  0.016290219          407 
 1872000   0.50019193   -7.0666679    403.28168  0.017952354  0.016277023          557 
 1873000   0.50925479   -7.0823078    403.01198   0.01793077  0.016263843          551 
 1874000   0.50999526   -7.0872618    403.35502  0.017936456  0.016250676          293 
 1875000   0.50812726   -7.0645366    402.70963  0.017898206  0.016237494          380 
 1876000   0.51095004   -7.0879797    403.11381  0.017906619  0.016224344          388 
 1877000   0.49581969   -7.0939898    403.02268  0.017893033  0.016211191          341 
 1878000   0.50564549   -7.0975825    402.76747  0.017872181  0.016198054          466 
 1879000    0.4986566   -7.0994244     402.1753  0.017836407  0.016184932          582 
 1880000    0.5011888   -7.0726257    402.54764  0.017843424  0.016171829          621 
 1881000   0.49810522   -7.0865895    402.84666  0.017847185  0.016158729          599 
 1882000    0.5019141   -7.0862805    403.48814  0.017866106  0.016145661          601 
 1883000   0.50042123   -7.0807166    402.68951  0.017821274  0.016132591          634 
 1884000    0.5049827   -7.0687513    403.27917  0.017837897  0.016119534          434 
 1885000   0.48885046   -7.0722032    403.16809  0.017823523  0.016106498          258 
 1886000   0.50380899    -7.093927    403.04632  0.017808692  0.016093458          300 
 1887000   0.49915429   -7.0897836    402.58133   0.01777872  0.016080427          270 
 1888000   0.49949812   -7.0790447    402.52584  0.017766854  0.016067417          224 
 1889000   0.49701344   -7.0932388    402.53742  0.017757959  0.016054384          352 
 1890000   0.49083005   -7.0993129    402.47514  0.017745817  0.016041365          359 
 1891000   0.50055968   -7.0947122    402.51864   0.01773835  0.016028391          354 
 1892000   0.48411553   -7.0999283    403.14347  0.017756495   0.01601541          425 
 1893000   0.50026347   -7.0888527    403.31356  0.017754603  0.016002443          488 
 1894000   0.50136488   -7.0944083    402.66565  0.017716722  0.015989495          333 
 1895000   0.49157783   -7.0982564     402.7418  0.017710721  0.015976534          430 
 1896000   0.50669272   -7.0894565    401.53928  0.017648527  0.015963588          666 
 1897000   0.49670045   -7.0839379    402.22002  0.017669128  0.015950646          365 
 1898000    0.4918201   -7.1052795    401.99105  0.017649765  0.015937716          414 
 1899000   0.47782819   -7.0912958    402.03961  0.017642602  0.015924787          535 
 1900000   0.50402163   -7.0963007    402.01814  0.017632374   0.01591188          324 
 1901000   0.49560007   -7.1279527    401.68489  0.017608491   0.01589898          702 
 1902000    0.4921986   -7.0991424    401.94212  0.017610503  0.015886098          741 
 1903000   0.50079296   -7.1032162    403.02661  0.017648739  0.015873221          732 
 1904000   0.49877294   -7.1015904    401.58387  0.017576325  0.015860356          512 
 1905000    0.4796613   -7.1178707    402.09062  0.017589266  0.015847489          729 
 1906000   0.48612656   -7.1187491    402.02962  0.017577371  0.015834641          631 
 1907000     0.493503   -7.0949064    402.24403  0.017577523  0.015821809          334 
 1908000   0.48863403   -7.1063976    401.74758  0.017546628   0.01580899          568 
 1909000   0.48679698   -7.1197263    401.71277  0.017535916  0.015796187          516 
 1910000   0.48644497   -7.1137989    401.71811  0.017526968  0.015783383          506 
 1911000   0.49387403   -7.1101879    402.33917  0.017544879  0.015770585          324 
 1912000   0.48569096     -7.12133    401.18718  0.017485494  0.015757808          656 
 1913000   0.47438425   -7.1042593    401.89613  0.017507237  0.015745046          448 
 1914000   0.48909347    -7.116674    402.44462  0.017521971  0.015732291          550 
 1915000   0.49423106   -7.1029375    402.32268  0.017507514  0.015719568          528 
 1916000   0.48786698   -7.1237895    402.16612  0.017491567  0.015706819          627 
 1917000   0.49980988   -7.0934417     402.3322  0.017489663    0.0156941          686 
 1918000   0.48553341   -7.1197841    401.64807   0.01745082  0.015681399          533 
 1919000   0.47824788    -7.126999    402.02326  0.017458019  0.015668718          534 
 1920000   0.48486881   -7.1182229    401.48356  0.017425502  0.015656034          560 
 1921000   0.49000295   -7.1197147    402.11591  0.017443862  0.015643363          254 
 1922000   0.48137336   -7.1217047    401.55211  0.017410341  0.015630701          701 
 1923000   0.49590221   -7.1388507    401.50034  0.017399044  0.015618031          386 
 1924000    0.4778769   -7.1249592    401.93911  0.017409005  0.015605381          618 
 1925000   0.48806976    -7.109032    401.53994  0.017382682  0.015592756          638 
 1926000   0.47281504   -7.1302243     401.8185  0.017385709  0.015580142          693 
 1927000   0.47822853   -7.1285737    401.97062  0.017383265  0.015567522          679 
 1928000   0.48235504   -7.1164366    401.23382  0.017342403  0.015554912          751 
 1929000   0.47966593   -7.1308361    400.44357  0.017299273  0.015542312          784 
 1930000   0.48552292   -7.1440515    401.63471  0.017341741  0.015529727          596 
 1931000    0.4871083   -7.1421206    400.83413   0.01729821  0.015517144          748 
 1932000   0.48987927   -7.1407346    401.80774  0.017331252  0.015504584          699 
 1933000   0.47683501   -7.1151675    401.22728  0.017297262  0.015492024          754 
 1934000   0.48140844   -7.1245799    401.27612  0.017290422   0.01547949          755 
 1935000   0.48189082   -7.1153488    401.55784  0.017293619  0.015466965          672 
 1936000   0.48193312   -7.1325179    401.81091   0.01729558  0.015454452          494 
 1937000   0.48021729   -7.1325704    401.73594  0.017283425  0.015441964          758 
 1938000   0.48198059   -7.1292018    400.97061  0.017241598  0.015429492          767 
 1939000   0.46868314   -7.1337065    402.10487  0.017281454  0.015417033          732 
 1940000    0.4808754   -7.1166504    401.64858  0.017252946  0.015404565          801 
 1941000   0.45894264   -7.1424581    401.45057  0.017235556  0.015392108          737 
 1942000   0.47870792   -7.1295774    401.27695  0.017219231  0.015379683          670 
 1943000   0.46930431   -7.1300601      401.863  0.017235504  0.015367258          746 
 1944000   0.48025082    -7.135531    400.97683   0.01718865  0.015354835          780 
 1945000    0.4727393   -7.1420519    401.45139  0.017200145  0.015342431          775 
 1946000   0.48217891   -7.1371114    401.37172  0.017187895  0.015330048          581 
 1947000   0.48204504   -7.1347848    401.22203   0.01717266  0.015317669          769 
 1948000   0.48351133   -7.1368295    400.40242  0.017128782  0.015305313          770 
 1949000   0.47160686   -7.1423731    401.82709  0.017180908   0.01529296          796 
 1950000   0.47090802   -7.1345521    401.09473  0.017140801  0.015280626          743 
 1951000   0.47260437   -7.1340782    401.44116  0.017146812  0.015268302          782 
 1952000   0.47561989   -7.1533479     401.1185  0.017124253  0.015255975          787 
 1953000   0.47875343   -7.1334969     401.6595  0.017138569  0.015243657          701 
 1954000   0.47080721    -7.145082     400.8471  0.017095151  0.015231359          756 
 1955000    0.4709395   -7.1270163    401.61801  0.017119267  0.015219081          714 
 1956000   0.46652315   -7.1390377    402.00369  0.017126947  0.015206805          866 
 1957000   0.46667513   -7.1310137    400.39884  0.017049857  0.015194532          806 
 1958000    0.4735969   -7.1534826    401.26293  0.017077925  0.015182277          751 
 1959000   0.46542248   -7.1428681    401.03159  0.017059367  0.015170025          641 
 1960000   0.45861552   -7.1393544    401.20764  0.017058148  0.015157778          835 
 1961000   0.47444854    -7.159788    400.69697  0.017027748  0.015145546          740 
 1962000   0.45902131   -7.1405989    401.08228  0.017035435  0.015133348          767 
 1963000   0.46348289   -7.1418024    400.68643  0.017009952   0.01512114          762 
 1964000   0.47513841    -7.144407    400.56941  0.016996326  0.015108949          747 
 1965000   0.47121593    -7.160122    400.44586  0.016982437  0.015096774          805 
 1966000   0.46864574   -7.1599238     400.5976  0.016980231  0.015084606          759 
 1967000   0.46837219   -7.1377277    401.48679  0.017009269   0.01507246          854 
 1968000    0.4667155   -7.1622064    401.28981  0.016992285  0.015060329          809 
 1969000    0.4688036   -7.1600159    400.76066   0.01696126  0.015048221          840 
 1970000   0.47226631   -7.1574537    400.96231  0.016961181  0.015036098          847 
 1971000    0.4652589   -7.1695504    400.95452  0.016952246  0.015023991          758 
 1972000   0.46900457   -7.1556946     400.8076  0.016937441  0.015011909          645 
 1973000    0.4656977   -7.1575512    401.79089  0.016970387  0.014999825          606 
 1974000   0.46855392   -7.1499377    400.87987  0.016923331  0.014987776          738 
 1975000   0.46473333    -7.159697     401.6909  0.016948983  0.014975727          690 
 1976000   0.45911626     -7.16078    400.97333  0.016910144   0.01496367          490 
 1977000   0.46468799   -7.1660661    400.98664  0.016902151   0.01495165          750 
 1978000   0.46637962   -7.1694271     401.3155  0.016907461  0.014939623          696 
 1979000     0.459251   -7.1542341    400.41472  0.016860987  0.014927612          644 
 1980000    0.4630288   -7.1579158    400.25432  0.016845721  0.014915612          761 
 1981000   0.45397188   -7.1651783    400.51076  0.016848004  0.014903629          658 
 1982000   0.46139803   -7.1823549    400.61925  0.016844065   0.01489166          570 
 1983000   0.45851704   -7.1497283    400.80771  0.016843491  0.014879708          652 
 1984000   0.46193565   -7.1678985    401.07786  0.016846348  0.014867762          596 
 1985000   0.45937337   -7.1723295    400.44729  0.016811389  0.014855833          670 
 1986000    0.4639725   -7.1711671    401.47065  0.016845865  0.014843906          653 
 1987000   0.45978056   -7.1733466    400.64829  0.016802898  0.014831976          557 
 1988000   0.46843442   -7.1688701     400.0865  0.016770896  0.014820074          747 
 1989000   0.46502097   -7.1603391    400.50751  0.016780104   0.01480817          709 
 1990000   0.45740847    -7.165701    400.18494  0.016758163  0.014796288          447 
 1991000   0.45725491    -7.153913    399.87404  0.016736734   0.01478441          702 
 1992000    0.4703039   -7.1859859    400.77975  0.016766221  0.014772542          659 
 1993000   0.45811747   -7.1705907    400.18655  0.016733005   0.01476067          740 
 1994000   0.45656247   -7.1551472    400.50025  0.016737724  0.014748831          717 
 1995000   0.45920299   -7.1772813    400.84358  0.016743675  0.014736985          721 
 1996000   0.46596137   -7.1758974    400.27556  0.016711571  0.014725159          711 
 1997000   0.44891178   -7.1713108    400.95577  0.016731588  0.014713338          701 
 1998000   0.44916715   -7.1721419    399.66851  0.016669524  0.014701534          724 
 1999000   0.45741182   -7.1713317    400.65808  0.016702438  0.014689747          521 
 2000000   0.45779136   -7.1677075    400.49544   0.01668731  0.014677966          750 
 2001000   0.45131187   -7.1785227    400.27161  0.016669649  0.014666206          507 
 2002000   0.44770586    -7.165576    400.60386  0.016675152   0.01465446          684 
 2003000   0.45893555   -7.1880578     400.6104    0.0166671  0.014642711          469 
 2004000    0.4540397    -7.188778    401.05264  0.016677172   0.01463097          701 
 2005000   0.45209047   -7.1796507    400.11523  0.016629893  0.014619237          746 
 2006000   0.45361362   -7.1826169    400.66316  0.016644365  0.014607524          762 
 2007000   0.45981766   -7.1750334    400.19037  0.016616441  0.014595818          718 
 2008000   0.44235743   -7.1916312    400.37737  0.016615927  0.014584122          787 
 2009000   0.45963268   -7.1893231    400.42017  0.016609431  0.014572432          769 
 2010000   0.45482077   -7.1947636    400.50913  0.016604856  0.014560766          765 
 2011000   0.44877121     -7.18551    400.06642  0.016578254  0.014549115          461 
 2012000   0.44833107   -7.1974669    400.52371  0.016588954  0.014537463          695 
Loop time of 5174 on 48 procs for 2000000 steps with 4000 atoms

Performance: 66795.566 tau/day, 386.548 timesteps/s
99.4% CPU use with 48 MPI tasks x no OpenMP threads

MPI task timing breakdown:
Section |  min time  |  avg time  |  max time  |%varavg| %total
---------------------------------------------------------------
Pair    | 364.93     | 393.05     | 425.53     |  70.3 |  7.60
Neigh   | 35.762     | 37.365     | 40.232     |  15.2 |  0.72
Comm    | 329.42     | 361.98     | 390.33     |  73.0 |  7.00
Output  | 4.6995     | 4.7024     | 4.7629     |   0.4 |  0.09
Modify  | 4315.9     | 4329       | 4340.7     |   8.1 | 83.67
Other   |            | 47.87      |            |       |  0.93

Nlocal:        83.3333 ave          89 max          77 min
Histogram: 1 2 4 7 7 13 3 2 3 6
Nghost:        2407.85 ave        2418 max        2398 min
Histogram: 2 1 10 9 1 4 8 3 7 3
Neighs:        16649.9 ave       19723 max       14556 min
Histogram: 7 4 6 6 7 9 2 5 0 2
FullNghs:      33300.1 ave       35788 max       30528 min
Histogram: 1 2 3 8 9 9 5 2 6 3

Total # of neighbors = 1598404
Ave neighs/atom = 399.60100
Neighbor list builds = 107077
Dangerous builds = 0

#clear
#
#next RN
#
#jump SELF
Total wall time: 1:26:17
