
units lj                  # Use reduced LJ style units
atom_style atomic         # Uncharged point particles
atom_modify map hash      # Needed for indexing of clusters etc
                          # Used to be able to find where atoms are in relation to each other.

lattice fcc 1.0 spacing 1 1 1
Lattice spacing in x,y,z = 1.5874011 1.5874011 1.5874011
region box block 0 10 0 10 0 10 units lattice
create_box 2 box
Created orthogonal box = (0.0000000 0.0000000 0.0000000) to (15.874011 15.874011 15.874011)
  3 by 4 by 4 MPI processor grid
create_atoms 1 box
Created 4000 atoms
  using lattice units in orthogonal box = (0.0000000 0.0000000 0.0000000) to (15.874011 15.874011 15.874011)
  create_atoms CPU = 0.004 seconds
set type 1 type/fraction 2 0.39 78393
Setting atom values ...
  1580 settings made for type/fraction
mass 1 1.0
mass 2 1.0
pair_style lj/cut  3.5
pair_modify tail  yes
pair_coeff 1  1  1.0  1.0   # Intearaction between 1 and 1 set with epsilon = 1 and sigma = 1
pair_coeff 1  2  1.5  0.8
pair_coeff 2  2  0.5  0.88

write_data data.0
System init for write_data ...
Neighbor list info ...
  update every 1 steps, delay 10 steps, check yes
  max neighbors/atom: 2000, page size: 100000
  master list distance cutoff = 3.8
  ghost atom cutoff = 3.8
  binsize = 1.9, bins = 9 9 9
  1 neighbor lists, perpetual/occasional/extra = 1 0 0
  (1) pair lj/cut, perpetual
      attributes: half, newton on
      pair build: half/bin/atomonly/newton
      stencil: half/bin/3d
      bin: standard
WARNING: Not all mixed pair coeffs generated from mixing. Use write_data with 'pair ij' option to store all pair coeffs. (../write_data.cpp:312)


#############################
#   M E L T   S Y S T E M   #
#############################

velocity all create 2.4 1741580 mom yes dist gaussian # Assign velocities
                                                    # Temperature 2.4, random number seed, zero linear momentum
                                                                                # Gaussian distribution

timestep 0.002   # simulation timestep
thermo 1000       # output thermodynamic data every 1000 steps bf 100

# Define a fix  in this case with index 1 applied to all
# particles in the simulation. This fix is for simulations
# in the anisotropic NPT ensemble. Note that we use the MTK
# correction.
fix 1 all npt temp 2.4 2.4 0.1 iso 5.68 5.68 0.5 mtk yes tchain 5 pchain 5 # Use NPT ensemble
                                                                         # Set temperature and pressure and damping
                                                                         # Numbers of thermostats in chain and in barostat
run 10000          # run for 10000 steps
Per MPI rank memory allocation (min/avg/max) = 3.642 | 3.644 | 3.648 Mbytes
Step Temp E_pair E_mol TotEng Press Volume 
       0          2.4   -5.9084669            0   -2.3093669   -4.1681406         4000 
    1000    2.4095049   -5.0293002            0   -1.4159464    5.7365542     3904.286 
    2000    2.4116742   -5.0768447            0   -1.4602379    5.6707058    3888.6089 
    3000    2.3679554   -5.0312817            0   -1.4802366    5.7063816    3908.2287 
    4000    2.4157263   -5.0779656            0   -1.4552821    5.9836429    3861.8443 
    5000    2.3517422   -5.0023522            0   -1.4756208    5.7220232    3910.1448 
    6000    2.4050154   -5.0202332            0    -1.413612    5.9406312    3890.4396 
    7000    2.4107445   -5.0293585            0   -1.4141458    5.4640962    3936.7289 
    8000    2.3960562   -5.0215924            0   -1.4284066    5.6400001    3922.0913 
    9000    2.3923541   -5.0684337            0   -1.4807996     5.780958     3882.168 
   10000    2.4829458   -5.0704425            0   -1.3469549    5.8228085    3883.8043 
Loop time of 2.49308 on 48 procs for 10000 steps with 4000 atoms

Performance: 693119.129 tau/day, 4011.106 timesteps/s
99.7% CPU use with 48 MPI tasks x no OpenMP threads

MPI task timing breakdown:
Section |  min time  |  avg time  |  max time  |%varavg| %total
---------------------------------------------------------------
Pair    | 1.0944     | 1.1724     | 1.285      |   3.7 | 47.02
Neigh   | 0.20707    | 0.2148     | 0.23255    |   1.1 |  8.62
Comm    | 0.73012    | 0.85275    | 0.9267     |   5.1 | 34.20
Output  | 0.0002376  | 0.00024361 | 0.00030794 |   0.0 |  0.01
Modify  | 0.21232    | 0.2376     | 0.26387    |   3.3 |  9.53
Other   |            | 0.01533    |            |       |  0.61

Nlocal:        83.3333 ave          90 max          76 min
Histogram: 2 3 7 4 4 9 2 13 2 2
Nghost:        1675.25 ave        1703 max        1655 min
Histogram: 3 6 7 7 9 5 5 3 2 1
Neighs:        9820.90 ave       10891 max        8710 min
Histogram: 2 4 5 4 11 5 6 4 4 3

Total # of neighbors = 471403
Ave neighs/atom = 117.85075
Neighbor list builds = 901
Dangerous builds = 165

# Equilibrate just above the melting temperature to avoid step fn in T

fix 1 all npt temp 1.25 1.25 0.1 iso 5.68 5.68 0.5 mtk yes tchain 5 pchain 5
run 2000
Per MPI rank memory allocation (min/avg/max) = 3.643 | 3.645 | 3.649 Mbytes
Step Temp E_pair E_mol TotEng Press Volume 
   10000    2.4829458   -5.0704425            0   -1.3469549    5.8228085    3883.8043 
   11000     1.246071   -6.9945491            0   -5.1259099    5.4807302    3122.1994 
   12000     1.228657   -7.1065182            0   -5.2639934    5.8015838    3077.5146 
Loop time of 0.607659 on 48 procs for 2000 steps with 4000 atoms

Performance: 568739.711 tau/day, 3291.318 timesteps/s
99.7% CPU use with 48 MPI tasks x no OpenMP threads

MPI task timing breakdown:
Section |  min time  |  avg time  |  max time  |%varavg| %total
---------------------------------------------------------------
Pair    | 0.25726    | 0.28838    | 0.33166    |   2.6 | 47.46
Neigh   | 0.038704   | 0.041034   | 0.044606   |   0.6 |  6.75
Comm    | 0.18687    | 0.22892    | 0.2601     |   3.2 | 37.67
Output  | 5.1903e-05 | 5.3604e-05 | 6.8338e-05 |   0.0 |  0.01
Modify  | 0.039745   | 0.044526   | 0.04841    |   1.1 |  7.33
Other   |            | 0.004754   |            |       |  0.78

Nlocal:        83.3333 ave          90 max          73 min
Histogram: 1 1 1 1 10 8 8 10 7 1
Nghost:        1954.31 ave        1983 max        1936 min
Histogram: 9 2 6 11 3 9 1 4 2 1
Neighs:        12423.9 ave       13793 max       10952 min
Histogram: 3 2 2 7 7 10 7 3 5 2

Total # of neighbors = 596345
Ave neighs/atom = 149.08625
Neighbor list builds = 143
Dangerous builds = 15

#############################
# L I N E A R  Q U E N C H  #
#############################

# Define solid atoms. This closely follows ten Wolde  Ruiz-Montero and Frenkel  Faraday Discuss  1996  104  93-110
# Compute components of the per-atom q6 vector
compute q6 all orientorder/atom degrees 1 6 components 6 nnn NULL cutoff 1.3 # compute the Q6 parameter.
                                                                             # Use all neighbours within 1.3 unit cell.

# get number of connections
compute coord_number all coord/atom orientorder q6 0.5

# An atom is solid if it has 8 or more connections (of a possible 14)
variable is_solid atom c_coord_number>=8
group solid dynamic all var is_solid    # Must be dynamic to update
dynamic group solid defined

# do clustering
compute cluster solid cluster/atom 1.3 # Create a cluster where all atoms within are solid and max 1.3 units from another member

# define chunks one chunk per cluster
compute clus_chunks solid chunk/atom c_cluster nchunk every compress yes  # Says which atoms are in which chunk

# count the size of each chunk
compute size_chunks solid property/chunk clus_chunks count


# Find the maximum entry in the vector of chunk sizes
variable max_n equal max(c_size_chunks)


# Thermo style which includes this variable
# thermo_style custom step temp pe vol v_max_n

thermo ${N}  # Print the thermo information every 100 steps
thermo 1000  

# Reset the npt fix at a lower temperature (below freezing)
fix 1  all npt temp  ${temp} ${temp}  0.1  iso  5.68  5.68  0.5  mtk yes tchain  5  pchain  5
fix 1  all npt temp  0.45 ${temp}  0.1  iso  5.68  5.68  0.5  mtk yes tchain  5  pchain  5
fix 1  all npt temp  0.45 0.45  0.1  iso  5.68  5.68  0.5  mtk yes tchain  5  pchain  5

dump dmp2 all dcd ${N} traj.dcd
dump dmp2 all dcd 1000 traj.dcd


compute msd all msd com yes
variable twopoint equal c_msd[4]/6/(step*dt+1.0e-6)
fix 9 all vector 10 c_msd[4]
variable fit equal slope(f_9)/6/(10*dt)
thermo_style custom step temp pe c_msd[4] v_twopoint v_fit v_max_n

fix 1 all npt temp 1.25 ${temp} 0.1 iso 5.68 5.68 0.5 mtk yes tchain 5 pchain 5
fix 1 all npt temp 1.25 0.45 0.1 iso 5.68 5.68 0.5 mtk yes tchain 5 pchain 5
run 5000000 # 5000000  # Run for this many steps
Neighbor list info ...
  update every 1 steps, delay 10 steps, check yes
  max neighbors/atom: 2000, page size: 100000
  master list distance cutoff = 3.8
  ghost atom cutoff = 3.8
  binsize = 1.9, bins = 8 8 8
  4 neighbor lists, perpetual/occasional/extra = 1 3 0
  (1) pair lj/cut, perpetual
      attributes: half, newton on
      pair build: half/bin/atomonly/newton
      stencil: half/bin/3d
      bin: standard
  (2) compute orientorder/atom, occasional
      attributes: full, newton on
      pair build: full/bin/atomonly
      stencil: full/bin/3d
      bin: standard
  (3) compute coord/atom, occasional
      attributes: full, newton on
      pair build: full/bin/atomonly
      stencil: full/bin/3d
      bin: standard
  (4) compute cluster/atom, occasional
      attributes: full, newton on
      pair build: full/bin/atomonly
      stencil: full/bin/3d
      bin: standard
Per MPI rank memory allocation (min/avg/max) = 9.823 | 9.830 | 9.835 Mbytes
Step Temp PotEng c_msd[4] v_twopoint v_fit v_max_n 
   12000     1.228657   -7.1065182            0            0 8.3333333e+20            1 
   13000    1.2344031   -7.0831077   0.48024983 0.0030785244   0.03938549            2 
   14000    1.2236826   -7.1468379   0.93630777 0.0055732603   0.03893986            1 
   15000    1.2303253   -7.0620891    1.4196456 0.0078869197  0.038940834       -1e+20 
   16000    1.2374341   -7.1227792    1.8249649  0.009505025  0.038185277            1 
   17000     1.267443   -7.0810279     2.307279  0.011310191  0.038018923            1 
   18000    1.2691714   -7.1026124    2.7263321  0.012621908  0.037676522            2 
   19000    1.2677551   -7.1345511     3.190891  0.013995136  0.037438955            3 
   20000    1.2447448   -7.0732701    3.6082553  0.015034397  0.037446979            3 
   21000    1.2490361   -7.0889493    3.9931679  0.015845904  0.037198181            2 
   22000    1.2697359   -7.0581008     4.431956  0.016787712  0.036830606            2 
   23000    1.2697971   -7.1172307    4.8634416  0.017621165  0.036617224            3 
   24000    1.2127502    -7.054145    5.2785301  0.018328229  0.036453949            1 
   25000    1.2829675   -7.1310871     5.734427  0.019114756  0.036388769            1 
   26000    1.2472811   -7.1011047    6.2005147  0.019873444  0.036393412            1 
   27000    1.2890705   -7.0526262    6.5378749  0.020178626  0.036339469            1 
   28000    1.2522719   -7.1198312    6.9019513  0.020541521  0.036164753            2 
   29000     1.241362   -7.0888888    7.2933642  0.020957943  0.035897913            2 
   30000    1.2350796   -7.1186406    7.7279319  0.021466477  0.035703271            1 
   31000    1.2398461   -7.0781437    8.2033089  0.022051905   0.03555073            3 
   32000    1.2589515   -7.1004937    8.5717504  0.022322266  0.035437537            1 
   33000    1.2415515   -7.1147851    9.1711534  0.023159478  0.035446414            1 
   34000    1.2136578   -7.0614273    9.5648126  0.023443168    0.0354844            1 
   35000    1.2349186   -7.0715739    9.8993791   0.02356995  0.035470894            3 
   36000    1.2823613   -7.1043096    10.149819  0.023494952  0.035373655            2 
   37000    1.2382348   -7.1125149    10.667516  0.024025937  0.035242592            1 
   38000    1.2389804   -7.0622946    11.181407  0.024520628  0.035187225            2 
   39000    1.2542576   -7.0521609    11.626423  0.024842783  0.035206705            2 
   40000     1.248828   -7.1229982    12.124889  0.025260186   0.03527131            1 
   41000    1.2320714    -7.116611    12.530765  0.025469034  0.035326751            2 
   42000    1.2466933   -7.0917691    12.979126  0.025752233  0.035378963            2 
   43000     1.241177   -7.1281043    13.326153  0.025825877  0.035414369            1 
   44000    1.2566297    -7.117161    13.783704  0.026105499  0.035420525            2 
   45000    1.2648198   -7.0935289     14.14536   0.02619511   0.03541886            1 
   46000    1.2439751   -7.1059708    14.573961  0.026402103  0.035406125            1 
   47000    1.2729169   -7.0837063    15.009525  0.026612632   0.03540721            3 
   48000    1.2462409   -7.0803942    15.457372  0.026835715   0.03540227            1 
   49000    1.2250297   -7.1401074    15.751247  0.026787834  0.035389009            1 
   50000    1.2444318   -7.0830207    16.227397  0.027045661  0.035378308            1 
   51000    1.2522738   -7.1073024    16.667635  0.027234698  0.035359407            2 
   52000    1.2488075   -7.1007029    17.043724   0.02731366  0.035335447            1 
   53000    1.2333237    -7.085487    17.547302  0.027590097  0.035321336            3 
   54000    1.2202234   -7.1387683     17.96299  0.027720664  0.035325182            1 
   55000    1.2427727   -7.0529173    18.311915  0.027745325  0.035310908            2 
   56000     1.244206   -7.1041894    18.670536  0.027783535  0.035277894            1 
   57000    1.2432565   -7.1541564    19.128758  0.027966021  0.035256944            1 
   58000    1.2525707    -7.100272     19.60782  0.028172156  0.035245061            1 
   59000    1.2591057   -7.1005753    19.970987  0.028207609  0.035232709            1 
   60000    1.2484862   -7.1052385    20.364793  0.028284434  0.035214056            3 
   61000    1.2324904   -7.1054885    20.978855  0.028659637  0.035227043            3 
   62000    1.2488111    -7.075254    21.480429  0.028871544  0.035242661            2 
   63000    1.2221656   -7.1161765    21.733357  0.028747826  0.035247097            1 
   64000    1.2247334   -7.0769116    22.115116  0.028795724  0.035246565            2 
   65000    1.2282155   -7.1078568    22.462009  0.028797447  0.035234769            1 
   66000    1.2373003   -7.0787756    22.971202  0.029004043  0.035224841            1 
   67000    1.2457795   -7.1499239    23.335643  0.029024432  0.035205925            4 
   68000    1.2400929   -7.1253565    23.804163  0.029171768   0.03519872            1 
   69000    1.2236658   -7.1093093    24.160014  0.029178761  0.035184858            1 
   70000    1.2605627   -7.1319847    24.487964  0.029152338  0.035163327            3 
   71000    1.2489707   -7.1052269    24.848728  0.029165173  0.035135821            1 
   72000    1.2440966   -7.1038703    25.276781  0.029255534  0.035102167       -1e+20 
   73000    1.2607503   -7.0616066      25.6582  0.029290183  0.035069078            2 
   74000    1.2509813   -7.0759106    26.143219  0.029440561  0.035041407            1 
   75000    1.2400969   -7.1024973    26.789329  0.029765921  0.035035705            1 
   76000    1.2472473   -7.0526561    27.392681  0.030035834  0.035049574            1 
   77000    1.2309699   -7.1352791    27.751765  0.030034377  0.035071007            1 
   78000    1.2600434   -7.1088409    28.092825  0.030013702    0.0350906            2 
   79000    1.2345265   -7.0869167    28.580689  0.030148406  0.035106836            2 
   80000    1.2325715   -7.0727277    28.956429  0.030162947  0.035119962            1 
   81000    1.2518938   -7.1443006    29.388683  0.030235271  0.035134466            2 
   82000    1.2512527   -7.0536331    30.063768   0.03055261  0.035156751            1 
   83000    1.2429108   -7.0850492    30.359485   0.03048141  0.035182684            2 
   84000     1.232511   -7.0760593    30.931433  0.030685945  0.035209533            2 
   85000    1.2223359   -7.1307518     31.37983  0.030764539  0.035232575            2 
   86000    1.2314476   -7.1305824    31.628436  0.030647709  0.035249915            1 
   87000    1.2327632   -7.0945422    32.235042  0.030876477  0.035265411            2 
   88000     1.235767   -7.1401971    32.628027  0.030897753  0.035290816            1 
   89000    1.2358805   -7.0582234    33.236034  0.031119882  0.035318034            1 
   90000    1.2368866   -7.1120987    33.355737  0.030884942  0.035343814            2 
   91000    1.2173458   -7.1129636    33.716765  0.030876159  0.035349331            1 
   92000     1.247067   -7.0877005    34.227023  0.031002738  0.035362123            1 
   93000    1.2197005   -7.1411324    34.648584  0.031047118   0.03537713            1 
   94000    1.2540079   -7.1364889    35.176563  0.031184896  0.035392242            3 
   95000    1.2470101   -7.1261055    35.560956  0.031193821   0.03540183            5 
   96000    1.2312786   -7.1613754    36.018504  0.031266062  0.035417502            2 
   97000    1.2303098   -7.0942284    36.414455  0.031283896  0.035433534            2 
   98000     1.217895   -7.1174035    36.769864  0.031266891  0.035445324            1 
   99000     1.250652   -7.1492249    37.152332  0.031273006  0.035455536            2 
  100000    1.2648132   -7.1043872     37.48543  0.031237858  0.035458272            1 
  101000    1.2414541   -7.1256178    37.824439  0.031208283  0.035448366            2 
  102000    1.2385755   -7.1076603    38.254443   0.03125363  0.035438896            1 
  103000    1.2281749   -7.1341072    38.627791  0.031252258  0.035422896            1 
  104000    1.2248349    -7.099764     38.87115  0.031146754  0.035405947            3 
  105000    1.2373778   -7.1048272    39.404187  0.031273164  0.035387301            2 
  106000    1.2233682      -7.1309    39.738519  0.031240974   0.03537364            1 
  107000    1.2238511   -7.1349306    40.364597  0.031436602  0.035367772            1 
  108000    1.2425265   -7.1303094    41.012145  0.031645174  0.035366687            1 
  109000     1.248838   -7.1145565    41.216836  0.031511343  0.035371138            3 
  110000    1.2481475   -7.1160158    41.734604  0.031617124  0.035368839            2 
  111000     1.218224   -7.1543886    42.090431  0.031599423  0.035366213            3 
  112000    1.2144876    -7.131534    42.531376  0.031645369  0.035365815            1 
  113000    1.2168453   -7.1364858    42.824609   0.03158157  0.035362166            2 
  114000    1.2382462   -7.1573014    43.318074  0.031665258  0.035358315            2 
  115000    1.2446486   -7.1163093    43.738596  0.031694635  0.035358484            2 
  116000    1.2098529   -7.1792233    44.204218  0.031755904  0.035355825            2 
  117000    1.2235246   -7.1412971    44.540414  0.031723942  0.035350119            1 
  118000    1.2109222   -7.1182088    44.886654  0.031699614  0.035346769            2 
  119000    1.2254352   -7.0923697    45.638684  0.031959863  0.035346888            1 
  120000    1.2096858   -7.1565189    45.860933   0.03184787  0.035354532            1 
  121000    1.2256713   -7.1721454    46.286845  0.031877992  0.035359476            2 
  122000    1.2224793   -7.1338071    46.854867  0.032004691  0.035360099            3 
  123000    1.2346259   -7.1081692    47.201034   0.03197902  0.035361595            2 
  124000     1.256063   -7.1685778    47.366257  0.031832162  0.035353704            1 
  125000     1.234514   -7.1012208    48.016893  0.032011262  0.035342538            1 
  126000    1.2221294   -7.1074302    48.142767  0.031840454  0.035333615            2 
  127000    1.2394645   -7.0900847    48.879733  0.032073316  0.035322253            1 
  128000    1.2255785   -7.1357859    49.066891   0.03194459  0.035319647            2 
  129000     1.242413    -7.122366    49.636006  0.032064603  0.035312328            2 
  130000    1.2284587   -7.1131906    50.254026  0.032214119  0.035305314            1 
  131000    1.2157539    -7.116937    50.435038  0.032083358  0.035300451            1 
  132000     1.233476   -7.1501245    50.518414  0.031892938   0.03529324            2 
  133000    1.1960146   -7.1291531    51.027056  0.031971839  0.035282295            3 
  134000    1.2135954   -7.1430767     51.33174  0.031922724  0.035269146            1 
  135000    1.2765518   -7.1085432    51.910099  0.032043271  0.035256013            3 
  136000    1.2261834   -7.1251739    52.247164  0.032014194  0.035245837            1 
  137000     1.243472   -7.1335231    52.732028  0.032075443  0.035235489            1 
  138000    1.2039977   -7.1403744    53.247439   0.03215425  0.035232148            1 
  139000     1.237063   -7.1093026    53.871484  0.032297052  0.035230109            1 
  140000    1.2120788   -7.0921853    54.375068  0.032366112  0.035227984            1 
  141000    1.2069261   -7.1257282    54.630927  0.032287782  0.035224581            2 
  142000    1.2160264    -7.145101    55.043917  0.032302768  0.035219708            2 
  143000    1.2131437   -7.1583024    55.387436   0.03227706  0.035216742            1 
  144000    1.2339901   -7.1601638    55.555455  0.032150148  0.035211704            2 
  145000    1.2211821   -7.1502007    55.772677  0.032053262   0.03519671            1 
  146000    1.2089135   -7.1209793    56.401945  0.032192891  0.035184944            1 
  147000    1.2273147    -7.150886    56.754612  0.032173816  0.035172399            1 
  148000    1.2445609   -7.1396668    57.136708   0.03217157   0.03516233            2 
  149000    1.2456081    -7.126661    57.422046  0.032115238   0.03514999            1 
  150000    1.2184002   -7.1312694    57.891836  0.032162131  0.035136781            2 
  151000    1.1956698   -7.1515318    58.421297  0.032241334  0.035124832            3 
  152000    1.2259757   -7.1103026    58.917972   0.03230152  0.035113385            3 
  153000    1.2326225   -7.1375397    59.180412   0.03223334  0.035104032            2 
  154000    1.2179764   -7.1566299    59.806488  0.032362818   0.03509199            1 
  155000    1.2161608   -7.0863841    60.357469  0.032450252  0.035083583            2 
  156000    1.2292799   -7.1294947    60.518674  0.032328352   0.03507567            2 
  157000    1.2483851   -7.1304986    60.946808  0.032349686  0.035068373       -1e+20 
  158000    1.2285125   -7.1470117    61.650949  0.032516323  0.035066445            1 
  159000    1.2350814   -7.1413799     61.88619   0.03243511  0.035060329            1 
  160000    1.2383889   -7.1539074    62.151032  0.032370329  0.035050776            2 
  161000    1.2085846   -7.1332145     62.36772  0.032281428  0.035042326            2 
  162000    1.2224218   -7.1074694    62.773815  0.032291057   0.03502825            2 
  163000    1.2357802   -7.1486315    63.296092  0.032359965  0.035017366            1 
  164000     1.231052   -7.1181417    63.719654  0.032377873  0.035008475            2 
  165000     1.203744   -7.1457992    64.128478   0.03238812  0.034999106            2 
  166000    1.2349732   -7.1555796    64.632346  0.032445957  0.034989806            1 
  167000    1.2152542    -7.125715    65.095767  0.032482917  0.034981001            1 
  168000    1.2197181   -7.1233742    65.314334  0.032397983  0.034971471            2 
  169000    1.2314791   -7.1069774    65.837612  0.032464306  0.034961562            1 
  170000    1.2114656   -7.1658879    66.158024  0.032430404  0.034950758            2 
  171000    1.2090194    -7.122025    66.769248   0.03253862  0.034941705            1 
  172000    1.2092623   -7.1617902    66.961564  0.032442618   0.03493259            2 
  173000    1.2025402   -7.1217784    67.508188  0.032518395  0.034921971            1 
  174000    1.2384605   -7.1133584    67.942507  0.032539515  0.034916074            1 
  175000    1.2319117   -7.1222509    68.536714   0.03263653  0.034908926            1 
  176000    1.2306135   -7.1416823    68.799348  0.032575449  0.034902618            1 
  177000    1.1720579    -7.141139    69.515504   0.03272858  0.034897427            1 
  178000    1.2220364   -7.1920333    69.917858   0.03273308  0.034896346            2 
  179000    1.2045982   -7.1276923    70.252447  0.032705981  0.034897419            1 
  180000    1.1928098   -7.1512844    70.751737  0.032755434  0.034898045            2 
  181000    1.2156445   -7.1402013    71.250737  0.032804207  0.034897336            1 
  182000    1.2142917   -7.1788384    71.478276  0.032728148  0.034896046            2 
  183000    1.2134194   -7.1680624    72.022293  0.032797037  0.034896271            1 
  184000    1.2308264   -7.2001385    72.180531  0.032690458  0.034898291            7 
  185000    1.2076815    -7.146982    73.189766  0.032968363  0.034897675            1 
  186000    1.2290333   -7.1260293     73.40766  0.032888736  0.034898928            1 
  187000    1.2516099   -7.1586632    73.481335  0.032745693  0.034900916            2 
  188000    1.2284756   -7.1886523     74.19635  0.032888453  0.034904728       -1e+20 
  189000     1.203069   -7.1565011    74.999428  0.033068531  0.034909507            2 
  190000    1.1997743    -7.109541    75.565771  0.033142882  0.034916212            2 
  191000    1.2285845   -7.1741452    75.347993  0.032874342  0.034921362            1 
  192000    1.2408045   -7.1761771    75.735064  0.032871122   0.03492391            1 
  193000    1.2097373   -7.1543254    76.123915  0.032868702  0.034925015            1 
  194000    1.2071334   -7.1810466    76.743657  0.032965488  0.034924875            2 
  195000    1.1957979   -7.1158289    77.189554  0.032986989  0.034926369            2 
  196000    1.2095686   -7.1688741    77.284755  0.032859164  0.034925574            3 
  197000    1.1908696   -7.1255197    77.974574  0.032984168  0.034925252            2 
  198000     1.229794   -7.1224975    78.676504  0.033113007  0.034926211            2 
  199000    1.2333394   -7.1778659    78.656747  0.032938336  0.034927661            2 
  200000    1.2278444    -7.159482    79.094828  0.032956178  0.034927741            1 
  201000    1.2357964   -7.1072896    79.769542  0.033071949    0.0349271            1 
  202000     1.233511   -7.1870836    80.005695  0.033005649  0.034927413            2 
  203000    1.2014768   -7.2000126    80.539961  0.033062381  0.034929534            1 
  204000    1.2159518   -7.1298658    81.195924  0.033168269  0.034934534            2 
  205000    1.1789607   -7.1568543    81.118307  0.032974921  0.034936522            1 
  206000    1.2130749   -7.1197168    81.709042   0.03305382  0.034934447            3 
  207000    1.2413858   -7.1395191    81.744405  0.032908376  0.034930891            1 
  208000    1.2452073   -7.1623291    82.228839  0.032944246  0.034927296            2 
  209000    1.2249209   -7.1501166    82.673841  0.032964051  0.034924032            1 
  210000    1.2101872   -7.1563883    83.024509  0.032946234  0.034919706            1 
  211000    1.2388407   -7.1437512    83.239702   0.03287508  0.034915527            2 
  212000    1.1932861   -7.1978491    83.545971  0.032840397   0.03491078            2 
  213000    1.2174242   -7.2117816    84.080877  0.032895492  0.034903288            2 
  214000     1.222614   -7.1514809    84.485687  0.032899411  0.034897105            2 
  215000    1.2188163   -7.1898465    84.829047  0.032879475  0.034891617            1 
  216000    1.2103766   -7.1828796    85.461527  0.032971268  0.034886929            2 
  217000    1.2039966   -7.2056044    85.389496  0.032791665  0.034880976            1 
  218000    1.2005413   -7.1565458    85.578929  0.032713658  0.034873861            1 
  219000    1.2373245   -7.1430003    86.435012  0.032890035  0.034866066            1 
  220000    1.2116259   -7.1200339    87.266638  0.033055545  0.034859612            1 
  221000    1.2148702   -7.1679942    86.769844  0.032718644  0.034849527            2 
  222000    1.2111356   -7.1460332    87.670249  0.032909253  0.034839446            1 
  223000    1.1932794     -7.12859    88.146918  0.032939805  0.034829555            1 
  224000    1.2292965   -7.1989027    88.075609  0.032766224  0.034819516            1 
  225000    1.2261055   -7.1495741     88.69171  0.032848781  0.034809647            1 
  226000    1.2321038   -7.1544385    89.306991  0.032930306  0.034800343            2 
  227000    1.2269987     -7.12485    89.416279  0.032825359  0.034792584            1 
  228000    1.2289913   -7.1564299    89.571655  0.032738178  0.034783491            1 
  229000    1.1888701   -7.1899222    89.784753  0.032672763  0.034772202            1 
  230000    1.2493557   -7.1390852    90.365365  0.032741074   0.03476018            2 
  231000    1.2207122   -7.1823557    90.815381  0.032761681  0.034750346            5 
  232000    1.2222366   -7.1640556     91.66472  0.032925546  0.034742256            1 
  233000    1.1959834   -7.1600221    92.139955  0.032954204  0.034734326            2 
  234000    1.2045507   -7.1575258    92.357853  0.032890973  0.034727896            1 
  235000    1.2004055    -7.133228    92.548576  0.032818644  0.034721732            1 
  236000    1.2163289   -7.1686684    93.103339  0.032875473   0.03471508            1 
  237000    1.2405862   -7.1750742    93.510051  0.032879765  0.034705579       -1e+20 
  238000    1.2268132   -7.2157202    93.594411  0.032771152  0.034698075            2 
  239000     1.220159   -7.1849783    94.169878  0.032834686  0.034691668            5 
  240000    1.2335853   -7.1704142    94.666902  0.032870452   0.03468455            2 
  241000    1.2061502   -7.2136449    95.128301  0.032893603   0.03467707            2 
  242000      1.22606   -7.1780758    95.847559  0.033005358  0.034672138            2 
  243000    1.2212757   -7.1484329    96.633152  0.033138941  0.034668459            1 
  244000    1.2357927   -7.1690978    96.410416  0.032927054  0.034664894            2 
  245000    1.2118815   -7.1482759    97.329628  0.033105316  0.034661409            1 
  246000    1.2211378   -7.1901452    97.239591  0.032940241   0.03465772            1 
  247000    1.1741795   -7.1839086    97.704795  0.032963831  0.034653709            1 
  248000    1.2410501   -7.1742035    98.548668  0.033114472  0.034648619            1 
  249000    1.1997038   -7.1427949    98.916867  0.033104708  0.034645776            1 
  250000      1.20383    -7.162829    99.192472  0.033064157  0.034642922            1 
  251000    1.2354381   -7.1391185    99.747099  0.033116567  0.034638913            1 
  252000    1.2272261   -7.1914651    99.670491  0.032959818  0.034632544            2 
  253000    1.2079217   -7.1918127    99.818256  0.032878213  0.034627232            2 
  254000    1.2174114   -7.1330275    100.58225  0.032999426  0.034620547            2 
  255000    1.2048808   -7.1765232    100.36835  0.032800114  0.034613801            1 
  256000    1.2265781   -7.1393867    101.05604  0.032895846  0.034606649            1 
  257000    1.2037149   -7.1693345    101.63857  0.032956734  0.034598093            1 
  258000    1.2187779   -7.1543678    101.58439  0.032811496  0.034588038            1 
  259000    1.1915964   -7.1577788    102.39277  0.032944906  0.034578814            1 
  260000    1.2042402   -7.1469427    102.75324  0.032933731  0.034571151            2 
  261000    1.1976063   -7.1436515    103.20379  0.032951402  0.034564982            2 
  262000    1.1814471   -7.1558516    103.29602  0.032854967  0.034557408            1 
  263000    1.2042326    -7.177015     103.9767  0.032945722  0.034548595            3 
  264000     1.215668   -7.1896793    103.65755  0.032720186  0.034539056            1 
  265000     1.201668   -7.1773494    103.98435  0.032699481   0.03452812            1 
  266000     1.208679   -7.1576373    104.33428  0.032686179  0.034517494            2 
  267000    1.1910608    -7.207903     104.5151  0.032620194  0.034504982            1 
  268000    1.2078112   -7.1858465    105.19269  0.032709168  0.034492819            2 
  269000    1.1832568   -7.1475249    105.49539  0.032681347  0.034480005            1 
  270000    1.2030193   -7.1983685    105.93744  0.032696741   0.03446706            1 
  271000    1.2066946   -7.1882221    106.34825  0.032702414  0.034455226            2 
  272000     1.224047   -7.2002008    106.81607  0.032725511  0.034443894            2 
  273000    1.1826856   -7.1705658    106.94193  0.032644056  0.034433187            2 
  274000    1.2162962    -7.163917    107.65069  0.032740479   0.03442183            1 
  275000    1.1982942   -7.1970284    107.72621  0.032644307  0.034409636            2 
  276000    1.1833945   -7.1958849    108.01445  0.032613059  0.034396727            2 
  277000    1.2403893   -7.2312137    108.42624  0.032619204   0.03438494            3 
  278000    1.2060618    -7.204556    108.97637  0.032666777  0.034372632            2 
  279000    1.1940448   -7.1675911     109.3776  0.032669534  0.034359887            1 
  280000    1.1798946    -7.196136    109.27525  0.032522396  0.034348503            3 
  281000     1.208921   -7.2176845    109.62471  0.032510294  0.034335308            1 
  282000    1.2258309   -7.1412277    110.22499  0.032572396  0.034323534            1 
  283000    1.2027181   -7.1662268    110.67061  0.032588519  0.034310826            2 
  284000    1.2212522   -7.1403825    111.46458  0.032706742  0.034298891            1 
  285000    1.2182075   -7.1592227    111.48015  0.032596535  0.034287576            1 
  286000    1.1978591   -7.1923463     111.8095  0.032578526  0.034274834            2 
  287000    1.1990923   -7.1964772    111.66979  0.032424446  0.034261733            2 
  288000    1.1854916   -7.1795922    112.65855  0.032597959  0.034248833            1 
  289000    1.1920453     -7.19614    113.06597  0.032602643   0.03423703            1 
  290000    1.2035641   -7.1721129    113.29453    0.0325559  0.034224864            3 
  291000    1.2183102    -7.185634     113.2489  0.032430957   0.03421234            2 
  292000    1.1696679   -7.2117998    114.29596  0.032618711   0.03420013            1 
  293000    1.2292444   -7.1795154    114.53535  0.032575468  0.034188401            1 
  294000    1.2148132    -7.187959    115.26716  0.032672097  0.034176911            1 
  295000    1.1954023   -7.1322116    115.87792  0.032733876  0.034167145            3 
  296000    1.2030242   -7.2258409    115.81532  0.032605664  0.034156322            3 
  297000    1.2061594    -7.184792     116.4842  0.032683557  0.034145035            2 
  298000    1.2137973   -7.1828402    116.21579  0.032498823  0.034132654            1 
  299000    1.1794867   -7.1733544      116.895  0.032579433  0.034121387            3 
  300000    1.1899113   -7.1620754    117.21783  0.032560508  0.034109679            1 
  301000    1.2192135   -7.1449758    117.62629  0.032565418  0.034098333            1 
  302000    1.1848683   -7.1657441    117.90438  0.032534321  0.034087317            2 
  303000    1.2102834   -7.1651626    118.02887  0.032461185  0.034075369            1 
  304000    1.1749203   -7.1958709    118.10077  0.032374113  0.034063018            2 
  305000    1.1850065   -7.1578673    119.43346  0.032632092  0.034051079            1 
  306000    1.2061222   -7.2112161    119.17776  0.032455818  0.034039354            2 
  307000     1.188052   -7.1955633    119.42961  0.032418461  0.034027153            1 
  308000    1.2254253   -7.2467381    119.87041  0.032432469  0.034014355            1 
  309000    1.1804695   -7.2041857    120.35577  0.032458406  0.034001981            1 
  310000    1.1963505   -7.2102231    120.99227  0.032524804  0.033990682            2 
  311000    1.2135837   -7.2102611    121.33948  0.032513259  0.033979458            1 
  312000    1.1825013   -7.1979138     122.0125  0.032588809  0.033968285            2 
  313000    1.1882832   -7.1862585    121.87776  0.032448818  0.033957596            1 
  314000    1.2141751   -7.2763806    121.65789  0.032287125  0.033946127            2 
  315000    1.1996871   -7.1762633    122.74707  0.032472769  0.033934374            1 
  316000    1.1941901   -7.1913804    123.74398  0.032632906  0.033924052            1 
  317000    1.2098208   -7.1996904    123.20981   0.03238954  0.033912671            5 
  318000    1.1935189    -7.191757    123.78513  0.032438452  0.033901878            1 
  319000     1.181298   -7.1643996    124.36272  0.032487648  0.033890945            2 
  320000    1.1738496   -7.2437845    124.48772  0.032418677  0.033879819            1 
  321000    1.2219855   -7.2227511     124.5805  0.032341771  0.033868187            2 
  322000    1.2019143   -7.1732941     125.1986  0.032401295  0.033855878            3 
  323000    1.1868229   -7.2359423    125.31649  0.032331396  0.033843542            2 
  324000    1.2140394   -7.2241416    125.47776  0.032273085  0.033830631            3 
  325000    1.1843612   -7.2637687    126.19116  0.032356707  0.033818733            2 
  326000    1.1957338   -7.1919324    126.69556  0.032386392  0.033807633            3 
  327000    1.2168404   -7.1959503    127.25649  0.032430298  0.033795435            3 
  328000    1.1782339    -7.211606    127.57401  0.032412097  0.033784641            2 
  329000    1.2030491   -7.2126642    128.17935  0.032466907  0.033774719            2 
  330000    1.1692139   -7.1954055    128.40137   0.03242459  0.033764519            1 
  331000    1.2020105   -7.2045914    129.08811  0.032499525  0.033755668            3 
  332000    1.2038626   -7.2079603    129.63681  0.032539359  0.033746947            1 
  333000    1.1733918   -7.2271009     129.5617  0.032422848  0.033738631            2 
  334000    1.1890596   -7.1952444    130.45326  0.032548218  0.033729608            1 
  335000    1.2054913   -7.2506598    130.34401  0.032423883  0.033720568            2 
  336000    1.2017098   -7.2538716    130.74667  0.032427251  0.033711145            1 
  337000    1.1985074   -7.1763616    131.37313  0.032485938  0.033701225            2 
  338000    1.1873158   -7.1973242    131.24356  0.032357881  0.033691499            5 
  339000    1.1952923   -7.1807858    132.30221  0.032522667  0.033683148            1 
  340000    1.1915129   -7.1479082    133.05113  0.032610572  0.033674893            1 
  341000    1.2144526   -7.2151065    132.90519  0.032479275  0.033666979            2 
  342000    1.1939796   -7.1897538    132.96436  0.032398724  0.033658222            3 
  343000    1.1979109   -7.1986759     133.6383  0.032468003  0.033649231            4 
  344000    1.2173534   -7.1962335    133.89183  0.032435036  0.033640571            2 
  345000    1.1917014   -7.1833662    134.42904  0.032470782  0.033632249            1 
  346000    1.1806263   -7.2256426    134.66435  0.032433609    0.0336244            1 
  347000    1.2048705   -7.1874824    135.72916  0.032595859  0.033617521            1 
  348000    1.1770951    -7.198118    136.34902  0.032650627  0.033611735            1 
  349000    1.1840215   -7.1695538    136.36857   0.03256174   0.03360657            3 
  350000    1.1725144   -7.2240128    136.62469  0.032529689  0.033600735            1 
  351000    1.2019007    -7.225243    136.91025  0.032504807   0.03359343            2 
  352000    1.1994289   -7.2056782    137.06978  0.032450232   0.03358561            2 
  353000    1.1972698   -7.1920129    137.10753  0.032367217  0.033577166       -1e+20 
  354000    1.1830248   -7.2166344    137.49247    0.0323664  0.033568592            1 
  355000    1.2231016   -7.2370217    137.91178  0.032373658  0.033559798            2 
  356000    1.1814202   -7.2146268    138.37941  0.032392183  0.033550556            2 
  357000    1.1930764   -7.2443523    138.30049  0.032283028  0.033540437            1 
  358000    1.2013675   -7.2093288    138.25157  0.032181464  0.033531697            2 
  359000    1.1763729   -7.2033284    139.34906  0.032346578  0.033522116            1 
  360000    1.1664488   -7.2179075    139.45981  0.032282364  0.033512537            1 
  361000    1.1811793   -7.2232312    139.86311  0.032286037  0.033502799            2 
  362000     1.172602   -7.2413952    139.95222  0.032217361  0.033493223            2 
  363000    1.1838598   -7.2233275    140.07056  0.032155776  0.033483279            1 
  364000    1.1767523   -7.2160254    140.81381  0.032237593  0.033474047            1 
  365000    1.1710852   -7.2409593    141.26529  0.032252349  0.033464081            3 
  366000    1.1753683   -7.1988926    141.74035  0.032272393  0.033453565            2 
  367000    1.2147932   -7.1958085    142.33427  0.032319317  0.033443321            1 
  368000    1.1629157   -7.2760858    141.78436  0.032106965   0.03343359            1 
  369000    1.1937066    -7.243539    142.48011   0.03217708  0.033423257            1 
  370000    1.1857054   -7.2253038    143.08788  0.032227001  0.033413843            2 
  371000    1.1594769   -7.2592322    143.25319  0.032177266  0.033404204            2 
  372000     1.190735   -7.2184037    144.00562  0.032259324  0.033394303            1 
  373000    1.1667253   -7.2152515    144.37036  0.032254326  0.033385651            3 
  374000    1.1776897   -7.2419585    144.53171  0.032204036  0.033376644            2 
  375000    1.1780984   -7.1980954    144.87784  0.032195076  0.033366547       -1e+20 
  376000    1.1986461   -7.2161207    145.25468   0.03219297  0.033356377            1 
  377000    1.2187611   -7.1706536    146.00282  0.032272948  0.033346883            1 
  378000    1.1978216   -7.1959488     146.0041  0.032187853  0.033338213            1 
  379000    1.1790788   -7.2206063    146.52441  0.032217328  0.033328916            1 
  380000    1.1790278   -7.2130776    146.74938  0.032181882  0.033319644            3 
  381000    1.1964012   -7.1844559    147.00279  0.032152842  0.033310261            3 
  382000     1.212732   -7.2126978    147.53381  0.032184513    0.0333004            1 
  383000    1.1640835   -7.2183911    147.78289  0.032154676  0.033290494            2 
  384000    1.1985026   -7.2297138    147.59941  0.032031123  0.033280067            1 
  385000    1.2084386    -7.247264    148.48157  0.032138868   0.03326958            1 
  386000    1.2013096   -7.2759084    148.34034  0.032025117  0.033258442            1 
  387000    1.2116605   -7.2049896     148.4573   0.03196755  0.033247035            2 
  388000    1.1809356   -7.2380758    148.77366  0.031953106  0.033235879            2 
  389000    1.1984769   -7.2244077    150.14729  0.032165229   0.03322611            3 
  390000    1.2159364   -7.1947158    150.53039  0.032164613  0.033216978            2 
  391000    1.1966479   -7.2183842    151.07971  0.032199426  0.033207981            1 
  392000    1.1871627   -7.2315903    150.89853   0.03207877  0.033198464            1 
  393000    1.1944401   -7.2364885    151.36596   0.03209626   0.03318809            1 
  394000      1.18915   -7.2511171    151.35612  0.032012715  0.033177758            1 
  395000    1.1633953   -7.2173229    152.58035  0.032189947  0.033168504            2 
  396000    1.1940618   -7.2297803    152.19823  0.032028248  0.033159057            1 
  397000    1.1660438   -7.2047316    153.14724  0.032146777  0.033149677            2 
  398000    1.1867168   -7.2242973    152.87823  0.032009681  0.033140433            1 
  399000    1.1823417    -7.247927    153.40445  0.032039358  0.033130828            2 
  400000    1.1958628   -7.2310636    153.86072  0.032054317  0.033121668            2 
  401000    1.1805594   -7.2564779    154.14217  0.032032871   0.03311336            1 
  402000    1.2052098   -7.2094578    154.65241  0.032058958  0.033104425            1 
  403000    1.1744672   -7.2223649    155.11551  0.032075166  0.033096028            2 
  404000    1.1935586   -7.1996422    156.06824  0.032192294  0.033088237            1 
  405000    1.1520794   -7.2870074    155.71525  0.032040174  0.033080812            2 
  406000    1.1828085   -7.2214958    156.34164  0.032089827  0.033072848            1 
  407000    1.1868774   -7.2104136    157.32133  0.032211575  0.033064722            2 
  408000    1.1895081   -7.2253062    157.43648  0.032156144  0.033056706            2 
  409000    1.1988825   -7.2167633    157.31494  0.032052759  0.033048126            2 
  410000    1.1772357   -7.2197566    158.09515   0.03213316  0.033040969            1 
  411000    1.1824614   -7.2341053    157.93489  0.032022483  0.033033012            2 
  412000    1.1756877   -7.2371188    158.83724  0.032127274    0.0330252            1 
  413000    1.1526793   -7.2261533    158.84108  0.032050257  0.033017188            1 
  414000    1.1766341   -7.2347099    158.79524  0.031963614  0.033009564            1 
  415000    1.2182929   -7.2095269    160.37665  0.032204146  0.033002392            2 
  416000    1.1770499   -7.2403843    160.16047  0.032083427  0.032995415            1 
  417000    1.1824136   -7.2284937     160.6816  0.032110631  0.032988341            2 
  418000    1.1946505   -7.2718485    161.25904  0.032148932  0.032981321            2 
  419000    1.1648476   -7.2637211     161.6402  0.032148012  0.032974311            3 
  420000    1.2026615    -7.215419     161.9141  0.032125813  0.032967151            1 
  421000    1.1919265   -7.2499452    161.63042  0.031993353  0.032959829            2 
  422000     1.162417   -7.2447855     162.8513  0.032158629  0.032953687            2 
  423000    1.2115319    -7.187822    163.79547  0.032268611  0.032947981            1 
  424000    1.1605633   -7.2124594    163.81615   0.03219657  0.032942163            1 
  425000    1.1852909   -7.1996701    164.13567  0.032183466  0.032936809            2 
  426000    1.1810075   -7.2097016    164.76124  0.032230289  0.032930927            1 
  427000    1.1736886   -7.2088018    164.89393  0.032180704  0.032924846            1 
  428000     1.197602   -7.2370411    164.95343  0.032117101  0.032918485            2 
  429000    1.1856936   -7.2470926    165.50525  0.032149427  0.032912187            4 
  430000    1.1924162   -7.2443023    166.19842  0.032208996  0.032906324            2 
  431000    1.1727314   -7.2850656    166.38755  0.032170833  0.032901088            1 
  432000    1.1964842   -7.2411131    167.20961  0.032254941  0.032895623            1 
  433000    1.1478761   -7.1993547     167.5821  0.032252135  0.032891071            4 
  434000    1.1924465    -7.266642    167.42487  0.032147633  0.032886251            2 
  435000     1.189398   -7.2733508    168.00216  0.032184323  0.032881485            3 
  436000    1.1650533     -7.24114    169.19556  0.032338601  0.032877448            1 
  437000    1.1939392   -7.2619124    169.41684  0.032306795   0.03287363            6 
  438000    1.1906582   -7.2064535    169.76571  0.032299413  0.032869572            1 
  439000    1.1881831    -7.209202    170.47235  0.032359975  0.032866026            1 
  440000    1.1709679   -7.2494045     170.0067  0.032198239  0.032862403            1 
  441000    1.1741992   -7.2499196    171.02588  0.032317816   0.03285881            2 
  442000    1.1781086   -7.2089454    171.87356  0.032404517   0.03285547            4 
  443000    1.1511588   -7.2464378    172.11811  0.032377372  0.032853113            1 
  444000    1.2145987   -7.2400165    172.26418  0.032331865  0.032850747            1 
  445000    1.1808836   -7.2536383    172.58987    0.0323202  0.032847999            1 
  446000    1.1952676   -7.2297585    173.01804  0.032327735  0.032845254            3 
  447000     1.217225   -7.2719743     173.1868  0.032286875  0.032841873            3 
  448000      1.17074   -7.2576314    173.62183  0.032295728  0.032839472            2 
  449000    1.1591656   -7.2486848    173.94192  0.032283207  0.032835854            2 
  450000    1.1813699   -7.2504525    173.64798  0.032157034  0.032831723            1 
  451000    1.1799393   -7.2942663    173.78906    0.0321118  0.032827462            1 
  452000    1.1757607   -7.2738251     174.1059  0.032099171  0.032822773            3 
  453000    1.1914604   -7.2582015    174.92704  0.032179367  0.032818519            2 
  454000    1.1594254   -7.3015397    175.37342  0.032190422  0.032814741            2 
  455000    1.1895169   -7.2859287    175.03459  0.032057617  0.032810743            2 
  456000    1.1790776   -7.2527313    176.29918  0.032218418  0.032806782            3 
  457000    1.1652453   -7.2540184    176.55477  0.032194525  0.032802646            4 
  458000    1.1746956   -7.2184929    177.88642  0.032366525  0.032798915            2 
  459000    1.1734918   -7.2301595    177.90571  0.032299511  0.032795919            3 
  460000    1.1847274   -7.2733761    177.62461  0.032178371  0.032792883            1 
  461000    1.1850618    -7.255517    178.25959  0.032223353  0.032788648            1 
  462000    1.1733703   -7.2601835    177.66084  0.032045607  0.032784403            1 
  463000    1.1870639   -7.1944286    179.97404  0.032392736  0.032779757            2 
  464000    1.2019724   -7.2449317    179.45582  0.032229853  0.032776046            3 
  465000    1.1710927   -7.2428644    179.58463  0.032183625  0.032772336            3 
  466000    1.1800433   -7.2396348    180.43366  0.032266392   0.03276859            1 
  467000    1.1607032   -7.3037837    180.59631  0.032226322  0.032764423            1 
  468000    1.1949814   -7.2876387    179.84874  0.032024349  0.032759697            1 
  469000    1.1885476   -7.2657792    180.65535  0.032099387  0.032755411            1 
  470000    1.2060746   -7.2463159    181.35327  0.032154835  0.032750986            2 
  471000    1.1552893   -7.2438664    181.60767  0.032131576  0.032746436            1 
  472000    1.1733531   -7.2749105    182.49641  0.032220411  0.032742753            2 
  473000    1.1801733    -7.244994    182.96916  0.032235581  0.032738364            5 
  474000     1.187685   -7.2567517    182.61075  0.032104562  0.032733703            1 
  475000    1.1825222   -7.2760496    182.46423  0.032011269  0.032729119            2 
  476000    1.1711375   -7.2932408    182.43165  0.031938315   0.03272395            1 
  477000    1.1905899   -7.2137528    183.87164  0.032122928  0.032719259            2 
  478000    1.1840632   -7.2830225    183.77634  0.032039111  0.032714271            2 
  479000    1.1868083    -7.244822    183.98587  0.032008676  0.032709116            1 
  480000    1.1629543   -7.3074448    184.32753  0.032001308  0.032704222            1 
  481000    1.1948866   -7.2753506    184.55989  0.031975032  0.032699116            1 
  482000    1.1660145   -7.2485322    185.95616  0.032150097  0.032694325            1 
  483000    1.1511345   -7.3016525    185.43681  0.031993928  0.032688755            3 
  484000    1.1730525    -7.289232    185.69823  0.031972836  0.032683383            1 
  485000    1.1727554   -7.2929347    186.93792  0.032119918  0.032678551            1 
  486000    1.1821227   -7.2656005    186.36692  0.031955918  0.032673629            2 
  487000    1.1779306   -7.3129718    186.10207  0.031844981  0.032668203            3 
  488000    1.1597499   -7.2666322    187.25469  0.031976551  0.032662941            2 
  489000    1.2004749   -7.3038268    187.51853  0.031956123  0.032657478            2 
  490000     1.166389   -7.2662923    188.30677  0.032024962  0.032651589            1 
  491000    1.1798529   -7.2407408    188.48004  0.031989145  0.032645915            1 
  492000    1.1635478   -7.2330267    188.63534  0.031950431  0.032639542            1 
  493000    1.1933645   -7.2902526     188.7205  0.031900017   0.03263285            1 
  494000    1.1742487   -7.2860403    189.43594  0.031956129  0.032626257            1 
  495000    1.1757404   -7.2786438     189.1922  0.031850539  0.032619968            2 
  496000    1.1753482    -7.254954    189.43354  0.031826871  0.032613538            2 
  497000    1.1851783   -7.2456431    190.84939  0.032000233  0.032607208            1 
  498000    1.1626965   -7.2848306    191.02362   0.03196513  0.032600848            2 
  499000    1.1508437   -7.2765528    190.82308  0.031867582  0.032595391            4 
  500000    1.1935129   -7.3010555    190.90735  0.031817891  0.032589877            1 
  501000    1.1611434   -7.2917182    191.21032  0.031804778   0.03258365            2 
  502000    1.1689185   -7.2826963    191.13497  0.031728913  0.032577091            3 
  503000    1.1452766    -7.235174    192.15334   0.03183455  0.032569973            1 
  504000    1.1846875   -7.2354437     192.5388  0.031835119  0.032563275            1 
  505000    1.1655086   -7.2796553    192.62343  0.031786045  0.032556244            2 
  506000    1.1737917   -7.2980918    192.65197  0.031727927  0.032548661            1 
  507000    1.1793641   -7.2962317    193.14782  0.031746848  0.032540825            3 
  508000    1.1604992   -7.2431229    193.51975  0.031745366  0.032532979            2 
  509000    1.1641513   -7.2487938    194.20091  0.031794517  0.032525059            1 
  510000    1.1673516   -7.2540149    193.77476  0.031662542  0.032517166            1 
  511000    1.1641295   -7.2229878     195.2908  0.031847815  0.032509239            2 
  512000    1.1648609   -7.2393851    194.85563  0.031714783  0.032501538            1 
  513000    1.1657092   -7.2635202    195.12595  0.031696873  0.032493801            1 
  514000    1.1600413   -7.2343567    195.79348   0.03174343  0.032485935            2 
  515000    1.1838894   -7.2286169    195.99578  0.031714528   0.03247842            1 
  516000    1.1874009   -7.2703964    196.17279  0.031681652  0.032470548            1 
  517000     1.143476   -7.2862803    196.69334  0.031704277  0.032462736            1 
  518000    1.1553457   -7.2847865     196.7666  0.031654858  0.032454762            3 
  519000    1.1696124   -7.2590887     197.2436  0.031670456  0.032447288            3 
  520000     1.174029   -7.2747049    197.52447  0.031654563  0.032439433            2 
  521000    1.1825357    -7.276207    197.61235  0.031607862  0.032431757            2 
  522000    1.1753988   -7.2558897    198.50921  0.031690487  0.032424283            2 
  523000    1.1450617   -7.2682375    198.70618  0.031661278  0.032416833            2 
  524000    1.1439463   -7.2873494    198.59046  0.031582452  0.032409198            3 
  525000    1.2020097    -7.274087    198.89615  0.031570817  0.032401437            3 
  526000     1.177773   -7.2847858    198.80434  0.031496252  0.032393104            2 
  527000    1.1599614   -7.2944946    199.73473  0.031583607  0.032384929            2 
  528000    1.1515277   -7.2866474    200.07719  0.031577839  0.032376459            1 
  529000    1.1619325   -7.3274561    199.72648  0.031462899   0.03236759            3 
  530000    1.1796857   -7.2884006     200.7412  0.031563082  0.032358823            3 
  531000    1.1720164   -7.2440861    201.21764  0.031578411  0.032350963            2 
  532000    1.1827541   -7.2853751    201.40761  0.031548811  0.032343175            1 
  533000    1.1693515   -7.2531773    201.51623  0.031506602  0.032334791            2 
  534000    1.1510846   -7.2916602    202.00011  0.031523113  0.032326474            2 
  535000    1.1522154   -7.2710651    203.37123  0.031677762  0.032319193            1 
  536000    1.1510725   -7.2803451    203.40791  0.031624364  0.032311961            1 
  537000    1.1563649   -7.2812301    202.97459   0.03149823   0.03230409            1 
  538000     1.151949   -7.2651106    203.89144  0.031581698  0.032295979            3 
  539000    1.1823937   -7.2724716     203.9639  0.031534307  0.032287578            2 
  540000    1.1657877   -7.2616842    204.11426  0.031499114  0.032278925            8 
  541000    1.1542439   -7.2704051    204.18021   0.03145105  0.032270639            1 
  542000    1.1770481   -7.2394209    205.26153  0.031559276  0.032262928            1 
  543000    1.1862651   -7.2942724    205.19611  0.031491115  0.032255313            1 
  544000    1.1896623   -7.2916321    205.23602  0.031439342  0.032247421            2 
  545000    1.1877751   -7.2607893    205.95907  0.031492212  0.032240108            2 
  546000    1.1837848   -7.2783907     206.6083  0.031533623  0.032232707            2 
  547000    1.1562871   -7.2490549    206.60092   0.03147485  0.032224916            2 
  548000    1.1421215   -7.2676977    207.49432  0.031553272  0.032217497            2 
  549000    1.1812036   -7.2508455    207.74162  0.031533336  0.032210377            2 
  550000    1.1434808   -7.3063948    207.72869  0.031474044   0.03220267            1 
  551000    1.1481369   -7.2743514    208.03034  0.031462543  0.032195126            1 
  552000    1.1450277   -7.2713656    208.76977  0.031517176   0.03218812            2 
  553000    1.1866525   -7.2839605    208.74693  0.031456741  0.032181278            2 
  554000     1.158456   -7.3087186    209.46863  0.031508518  0.032174314            2 
  555000    1.1574638   -7.2907378    209.88435  0.031514166   0.03216788            1 
  556000    1.1838277   -7.2957803     210.7845  0.031592401  0.032161137            2 
  557000    1.1629977   -7.3355819    210.04884  0.031425619  0.032154214            5 
  558000    1.1873434   -7.2826063    210.44337  0.031428221   0.03214723            1 
  559000     1.164893    -7.285773    211.36985  0.031510114  0.032139878            2 
  560000    1.1654241   -7.2714718    211.09683  0.031413218  0.032132847            1 
  561000    1.1632765   -7.2812951    212.35648  0.031544338  0.032125835            3 
  562000    1.1744626   -7.3061045    212.17307  0.031461012  0.032118572            2 
  563000    1.1413765   -7.2627474    212.17649  0.031405638  0.032111117            2 
  564000    1.1301095   -7.3029769    212.80141  0.031442288  0.032103241            4 
  565000    1.1784452   -7.3152363    212.35329  0.031320544  0.032095762            1 
  566000     1.149974   -7.2841555    213.80144  0.031478421   0.03208804            1 
  567000    1.1722867   -7.2773103    213.70729  0.031409067  0.032081306            1 
  568000    1.1560581   -7.3349812    214.09416  0.031410528  0.032074482            2 
  569000      1.15942   -7.2668415    215.22662   0.03152118  0.032066995            2 
  570000    1.1576875   -7.2627238    215.76212   0.03154417  0.032060467            1 
  571000    1.1677799   -7.3253034    215.35215  0.031429094  0.032053865            2 
  572000    1.1583403   -7.2741509    216.00846  0.031469764  0.032047667            3 
  573000    1.1549904    -7.303278    216.40766  0.031472901  0.032041363       -1e+20 
  574000    1.1656325   -7.2942133    216.58654  0.031444039  0.032034879            1 
  575000     1.164804   -7.3239347    216.78633  0.031418309  0.032028047            2 
  576000    1.1456126   -7.3446436    216.57804  0.031333629  0.032020726            1 
  577000    1.1810759   -7.3375576    217.35356  0.031391328  0.032013902            3 
  578000    1.1535108   -7.2599241    218.00283  0.031430627  0.032007424            1 
  579000    1.1873555   -7.3263591    217.57117  0.031314216  0.032000575            2 
  580000    1.1708023    -7.327956    218.10353  0.031336714   0.03199334            1 
  581000    1.1850278    -7.284489    218.62461  0.031357517  0.031985968            1 
  582000    1.1456034   -7.2728362     219.3523  0.031407832  0.031979142            1 
  583000    1.1385534   -7.3292513    218.75194  0.031268144  0.031971891            2 
  584000    1.1725747   -7.3091916    218.99967  0.031249953  0.031964211            1 
  585000    1.1709985   -7.2478689    220.76212  0.031447595   0.03195688            1 
  586000    1.1889912   -7.2875367    220.13694  0.031305025  0.031949893            1 
  587000    1.1514832   -7.3039293    220.60205  0.031317724  0.031942677            3 
  588000     1.165284   -7.3194353    220.74869  0.031285246  0.031935678            3 
  589000    1.1688657   -7.2924135    220.64722  0.031217773  0.031928721            1 
  590000     1.170846   -7.2743895    221.93884  0.031347294  0.031921422            1 
  591000     1.171081   -7.2639073    221.27972  0.031201314  0.031914759            1 
  592000     1.168944   -7.3495973    221.78101  0.031219174  0.031907862       -1e+20 
  593000    1.1431042   -7.2972526    222.74901  0.031302558  0.031900802            2 
  594000     1.174439   -7.3206876    221.83308  0.031121364  0.031893523            4 
  595000    1.1322479   -7.2926253    224.05815  0.031380693  0.031886482            1 
  596000    1.1472283   -7.3314989    223.40448  0.031236644  0.031879331            2 
  597000    1.1500148   -7.3273977     223.3623  0.031178434  0.031871942            1 
  598000    1.1313815     -7.25707    224.73821  0.031318034  0.031864706            2 
  599000    1.1781345   -7.2494876    224.32053  0.031207642  0.031856912            1 
  600000    1.1892698   -7.3310023     223.5952  0.031054888  0.031849035            3 
  601000    1.1542052   -7.3064669    224.62879  0.031146532  0.031841282            1 
  602000    1.1214204   -7.2868474    224.82179   0.03112151  0.031833745            3 
  603000    1.1596101   -7.3048437    225.31381  0.031137895   0.03182617            2 
  604000    1.1772058    -7.311476    226.44541  0.031242468  0.031818601            1 
  605000    1.1588023   -7.2678397    226.20858  0.031158207  0.031811034            5 
  606000    1.1483258   -7.3526636      226.266  0.031114686  0.031803083            1 
  607000    1.1666552   -7.3181228    226.36083  0.031076446  0.031794829            1 
  608000    1.1542061   -7.3599846    225.86028  0.030956727  0.031786451            3 
  609000    1.1767601   -7.3135456    226.95521  0.031055722   0.03177791            1 
  610000    1.1645664   -7.3344039    226.15281  0.030895193  0.031769239            1 
  611000    1.1556529   -7.2799417    228.29952  0.031137414  0.031760847            2 
  612000    1.1411994   -7.2724348    228.35893  0.031094626  0.031752921            2 
  613000    1.1531512   -7.3480823    227.30714  0.030900916  0.031744409            3 
  614000     1.177081   -7.3485394    228.14344  0.030964094  0.031735475            1 
  615000    1.1353983   -7.3073104    228.64178  0.030981271  0.031726854            2 
  616000    1.1522465   -7.3369561    228.32197  0.030887713  0.031717885            2 
  617000    1.1455455   -7.3288734    228.65168  0.030882183  0.031708596            1 
  618000    1.1555484   -7.3173698    229.43072  0.030937259  0.031699662            2 
  619000    1.1595359   -7.2938767     229.8619  0.030945328  0.031690865            5 
  620000    1.1597286   -7.3196569    230.39987  0.030967724  0.031682305            3 
  621000    1.1754528   -7.3070677    230.71321  0.030959905  0.031673368            3 
  622000    1.1568047   -7.2572714    230.94699  0.030941451  0.031664849            2 
  623000    1.1487033   -7.3224083    231.14165  0.030917823  0.031656376            1 
  624000    1.1678303   -7.3073352    231.55599  0.030923609  0.031647664            1 
  625000    1.1689689   -7.2843294    231.86521  0.030915361  0.031638792            1 
  626000    1.1550656   -7.3465539    232.08558  0.030895311  0.031630364            1 
  627000    1.1665062   -7.2696693    232.60352  0.030914874  0.031621672            1 
  628000    1.1416522   -7.2731965    232.63138  0.030869344  0.031613121            2 
  629000     1.162956   -7.3098758    233.38427  0.030920015  0.031604496            1 
  630000    1.1853888   -7.3049778    233.63975  0.030904729  0.031596046            4 
  631000    1.1632762   -7.3214588    234.64713  0.030988791   0.03158794            1 
  632000    1.1541047   -7.3407715    233.85022   0.03083468   0.03157996            2 
  633000    1.1449994   -7.2906591    235.48349  0.031000987  0.031572232            1 
  634000    1.1633863   -7.3103499    235.79462  0.030992984  0.031564869            2 
  635000    1.1225897   -7.2806379    234.95331  0.030833767  0.031557051            3 
  636000    1.1386617   -7.3051393    236.02602  0.030925841   0.03154934            2 
  637000    1.1694212   -7.3008585    236.47331  0.030935807  0.031541878            2 
  638000     1.141065   -7.3542999    236.86213  0.030938105  0.031534171            3 
  639000    1.1535615   -7.3317571    237.37698  0.030956831  0.031527278            4 
  640000    1.1530493    -7.318555    237.76915  0.030959525   0.03152009            3 
  641000    1.1540802   -7.3201796    238.18266  0.030964984  0.031513416            1 
  642000     1.128005   -7.3402836    238.93934  0.031014972  0.031506787            1 
  643000    1.1626318   -7.3490084    238.58059  0.030920242  0.031500181            1 
  644000    1.1534708   -7.3089468    239.89282  0.031042032   0.03149334            1 
  645000    1.1153852   -7.3239539    239.42151  0.030933012  0.031486872            1 
  646000    1.1148901   -7.3161555    240.61812  0.031039489  0.031480246            2 
  647000    1.1287153   -7.2709594    240.79305  0.031014045   0.03147409            2 
  648000    1.1500653   -7.2919796    240.73029  0.030958113  0.031468243            3 
  649000    1.1593263    -7.307305    242.15772  0.031093698  0.031461858            3 
  650000    1.1399194   -7.3292363    241.72022  0.030989772  0.031456003            1 
  651000    1.1439893   -7.2960694    241.95103  0.030971714  0.031450063            1 
  652000    1.1447605   -7.3037257     242.6859  0.031018136  0.031444316            2 
  653000    1.1419147   -7.3041802     243.5021  0.031074795  0.031438272            3 
  654000    1.1495462   -7.2965012    242.38731  0.030885233  0.031432011            1 
  655000    1.1437529   -7.3264964    243.17724  0.030938581  0.031425722            3 
  656000    1.1501508   -7.3397543      244.169  0.031017404   0.03141937            1 
  657000    1.1501935   -7.3038974    245.25744   0.03110825   0.03141316            2 
  658000     1.154427   -7.3241719    244.59348  0.030976885  0.031407206            1 
  659000    1.1563323   -7.3265406    245.42999  0.031035659   0.03140188            2 
  660000    1.1178457   -7.3512978      245.335  0.030976642  0.031396041            2 
  661000    1.1390657   -7.3516053    245.38191  0.030935692  0.031390171            1 
  662000    1.1726327   -7.3134872    246.38119  0.031014752  0.031384314            1 
  663000    1.1351747   -7.3245623    245.52419  0.030860255  0.031378093            4 
  664000    1.1416423   -7.3676581    245.60697  0.030824167  0.031371538            2 
  665000    1.1267339   -7.3514412    245.75241  0.030796041  0.031364663            2 
  666000    1.1613008   -7.3467539    247.24856  0.030937007  0.031357659            1 
  667000    1.1335056   -7.3244164    246.26455  0.030767684  0.031350866            2 
  668000    1.1604907   -7.2929265    248.05174  0.030944578  0.031343886            1 
  669000    1.1393313   -7.2914379    249.03085  0.031020286  0.031337553            4 
  670000    1.1318545   -7.3442597    248.71506  0.030934709  0.031331545            1 
  671000    1.1414312   -7.3535028    248.57873  0.030871675  0.031325158            1 
  672000    1.1490715   -7.3396769    248.75833  0.030848007  0.031319168            1 
  673000    1.1370728   -7.3688945    249.00077  0.030832191  0.031312983            1 
  674000    1.1549925   -7.3667474    250.05175  0.030916388  0.031306841            1 
  675000    1.1447836   -7.3218589    250.07277  0.030873181  0.031300308            1 
  676000    1.1587231   -7.3180386    250.82612  0.030920379  0.031293944            3 
  677000    1.1500379    -7.326141    251.09651   0.03090799  0.031288287            2 
  678000    1.1538682   -7.3467482    250.97463  0.030847423  0.031282111            4 
  679000    1.1765749   -7.3364736    251.28257  0.030839785  0.031276108            1 
  680000    1.1581365   -7.3532146    251.67505   0.03084253  0.031269674            2 
  681000    1.1626567   -7.3464188    252.46713  0.030894167  0.031263495            2 
  682000    1.1305542   -7.3465993    252.81561  0.030891448  0.031257489            2 
  683000    1.1390906   -7.3784448     252.6461  0.030825537  0.031251931            1 
  684000    1.1299937   -7.3361987    253.92062  0.030935747  0.031246647            3 
  685000    1.1434406   -7.3450272    254.68537  0.030983621  0.031241521            1 
  686000    1.1332595   -7.3435699     253.9598  0.030850316  0.031235884            1 
  687000    1.1469418    -7.308246    255.15596  0.030950504  0.031230428            2 
  688000    1.1267455   -7.3691853    254.23424  0.030793876  0.031224575            4 
  689000    1.1371592   -7.3481808     254.9968  0.030841412  0.031218712            3 
  690000    1.1582895   -7.3190831    255.96118  0.030913186  0.031213096            1 
  691000     1.146383   -7.3525555    255.98318  0.030871102  0.031207813            4 
  692000    1.1418916   -7.2990649    255.86486  0.030812242  0.031202073            1 
  693000    1.1400756    -7.304673    256.32983  0.030823693  0.031196213            4 
  694000    1.1653588   -7.3072868    256.26953  0.030772038  0.031190499            1 
  695000    1.1480193   -7.3256895    256.30789  0.030732361  0.031184108            1 
  696000    1.1345811   -7.3240951    257.09692  0.030782677  0.031177619            1 
  697000    1.1119315   -7.3804352    256.36522  0.030651031  0.031171382            1 
  698000    1.1826002   -7.3954239    256.96098  0.030678245  0.031165075            1 
  699000    1.1304795   -7.3041314    258.11004  0.030771344  0.031158847            3 
  700000     1.140699   -7.4099922    257.31053  0.030632206  0.031152826            3 
  701000    1.1257282   -7.3557615    258.60659  0.030742581  0.031146596            1 
  702000    1.1309045   -7.3341762    259.52362  0.030807647  0.031140732            1 
  703000    1.1443968   -7.3876442    258.28481  0.030616976   0.03113485            1 
  704000    1.1393877   -7.3392556    259.58071  0.030726883   0.03112851            3 
  705000    1.1368408   -7.3273566    260.16296  0.030752123  0.031122304            1 
  706000    1.1355923   -7.3062948    261.24342  0.030836098  0.031116422            1 
  707000    1.1620477   -7.3341124    261.05599   0.03077039  0.031110766            1 
  708000    1.1485636   -7.3729356    260.64892  0.030679016   0.03110496            1 
  709000     1.129588   -7.2984697    261.41074  0.030725287  0.031099321            3 
  710000    1.1306596   -7.3301913    261.80184  0.030727915  0.031093475            1 
  711000    1.1214359   -7.3586045    263.14972  0.030842678  0.031087672            1 
  712000    1.1431023   -7.3554042    262.57363  0.030731933  0.031081841            1 
  713000    1.1477856   -7.3669501    262.60697  0.030692727  0.031075629            1 
  714000    1.1160563   -7.3516268    263.22072  0.030721373  0.031069195            2 
  715000    1.1405026   -7.3456288    263.14638  0.030669741  0.031063204            3 
  716000    1.1277893   -7.3447392    264.02602  0.030729286  0.031057141            2 
  717000    1.1597142   -7.3438201    264.95171  0.030794016  0.031050964            2 
  718000    1.1211607   -7.3804337    263.42035  0.030573392  0.031044637            1 
  719000    1.1416605   -7.3504366    263.49458  0.030539473  0.031038263            3 
  720000    1.1462062   -7.3365665    264.28988  0.030589106  0.031032116            2 
  721000    1.1200635   -7.2763239    264.68256  0.030592067  0.031025447            3 
  722000    1.1453189   -7.3453171    263.91793  0.030461442  0.031018524            2 
  723000    1.1236228   -7.3348747    265.05041   0.03054984  0.031011911            3 
  724000    1.1598961   -7.3603081    265.42747  0.030551044  0.031005035            1 
  725000    1.1507109   -7.2971749    266.15784  0.030592855  0.030998323            1 
  726000    1.1225366   -7.3560027    265.32948  0.030455633  0.030991506            2 
  727000    1.1489325   -7.3983726    265.30171  0.030410559  0.030984183            2 
  728000    1.1250914   -7.3760986    266.01556  0.030450499  0.030976926            2 
  729000    1.1012661   -7.3146252    267.42705  0.030570079  0.030969854            1 
  730000    1.1357672   -7.3822925    267.17286  0.030499185  0.030962857            2 
  731000    1.1424865   -7.3724941    267.71341  0.030519084  0.030955894            1 
  732000    1.1333703   -7.3764789    267.46857  0.030449518  0.030948925            1 
  733000    1.1289129   -7.3459604     267.5251  0.030414404  0.030941773            2 
  734000    1.1439873    -7.343865    267.88525  0.030413857  0.030934505            2 
  735000    1.1383675   -7.3370434    269.92466  0.030603703  0.030927702            1 
  736000     1.136142   -7.3897972     268.6676  0.030419792   0.03092071            1 
  737000    1.1310103   -7.3380051    268.72435  0.030384934  0.030913765            1 
  738000    1.1602105   -7.3254566    269.13192  0.030389783   0.03090676            2 
  739000    1.1449199   -7.3781262    269.80577  0.030424647  0.030899362            4 
  740000    1.1060403   -7.3753136    269.85407  0.030388971  0.030892066            1 
  741000    1.1322464   -7.4111636    269.55787   0.03031465  0.030884659            1 
  742000    1.1173648   -7.3774252    270.35763  0.030363615  0.030877442            3 
  743000    1.1285912   -7.3446287    270.90718  0.030384385  0.030870096            2 
  744000    1.1421782   -7.3052028    271.72987  0.030435693   0.03086276            2 
  745000    1.1123543   -7.3663316     271.0172  0.030315123  0.030855763            4 
  746000      1.15261   -7.3648891    271.15695  0.030290098  0.030848621            1 
  747000    1.1224169   -7.3330295    272.47169  0.030396217  0.030841379            3 
  748000    1.1185473    -7.376191    271.86979  0.030288524  0.030834351            2 
  749000     1.120201   -7.3416757    272.26618  0.030292187  0.030827258            3 
  750000    1.1310793   -7.3274273    273.37984  0.030375538  0.030820479            6 
  751000    1.1234369    -7.346068    273.90209  0.030393041  0.030813835            2 
  752000    1.1420757   -7.3756522    274.01231   0.03036484   0.03080728            1 
  753000    1.1167198   -7.3468567     274.3632  0.030363347  0.030800759            2 
  754000    1.1338782    -7.358288      275.067  0.030400862  0.030794242            2 
  755000    1.1176046   -7.3354079    275.12717  0.030367237  0.030787179            2 
  756000    1.1213163   -7.3679788    275.47649  0.030365574  0.030780351            2 
  757000    1.1464817   -7.3384317    275.34347  0.030310818  0.030773914            2 
  758000    1.1216409   -7.3779139    276.04832   0.03034832  0.030767077            3 
  759000    1.1423857   -7.3451515    275.63989  0.030263492  0.030760384            1 
  760000    1.1338224   -7.3376244    277.31367    0.0304072  0.030753491            2 
  761000    1.1410607   -7.3180118    277.20035  0.030354835  0.030746845            2 
  762000    1.1270797   -7.3755688    276.62783  0.030252387  0.030739814            1 
  763000     1.144913   -7.3563464    277.99269  0.030361805  0.030732785            2 
  764000    1.1394053   -7.3869517    276.08108  0.030113556  0.030725349            1 
  765000    1.1286644    -7.333271    277.51442  0.030230329  0.030718142            1 
  766000    1.1295159   -7.3710856    277.93923  0.030237079  0.030711114            2 
  767000    1.1385996   -7.3690609     278.7722  0.030288157  0.030704347            1 
  768000    1.1305538    -7.348326     279.0349  0.030277224  0.030697373            2 
  769000    1.1363377   -7.3699498    279.65775  0.030305348  0.030690662            2 
  770000    1.1362886   -7.3501928    279.63333  0.030263347  0.030684212            2 
  771000    1.1119981   -7.3792437    280.24625  0.030290343  0.030677378            1 
  772000    1.1259601   -7.3418034    281.23314  0.030357636  0.030670843            4 
  773000    1.1446544   -7.3601005    279.84169  0.030168358  0.030664467            1 
  774000    1.1294832   -7.3549575    280.93635  0.030247238  0.030657854            2 
  775000    1.1537891   -7.3535781     280.5265   0.03016414   0.03065087            1 
  776000      1.14301   -7.3715169    280.19594   0.03008977  0.030643771            2 
  777000    1.1494826    -7.338789    281.29946  0.030169397  0.030636582            3 
  778000    1.1230516    -7.378127     280.8856   0.03008629  0.030629423            1 
  779000    1.1304412   -7.3785318    281.67145  0.030131734  0.030622115            1 
  780000    1.1324345   -7.4008541    281.46504  0.030071051  0.030614618            2 
  781000    1.1331598   -7.3685172     281.6266  0.030049787  0.030606748            1 
  782000    1.1320815   -7.3285288    282.04476   0.03005592   0.03059914            1 
  783000    1.1305051   -7.3725156    282.03181  0.030016157  0.030591377            3 
  784000    1.1064905   -7.4298166    281.41494  0.029912302  0.030583201            2 
  785000    1.1442756   -7.3951293    283.04289  0.030047016  0.030575155            1 
  786000    1.1329516   -7.3686808    283.41131  0.030047849  0.030567422            3 
  787000    1.1320952   -7.3768237    283.14993  0.029981992  0.030559678            3 
  788000    1.1357314   -7.3994511      283.616  0.029993232  0.030551843            1 
  789000    1.1011129   -7.3812134    283.75505  0.029969904  0.030544023            2 
  790000    1.1288872   -7.3938914    284.31467  0.029990999  0.030536416            2 
  791000    1.1225354   -7.3962123    284.05413  0.029925635  0.030528667            2 
  792000     1.137321   -7.3644078    285.14068  0.030002176  0.030521091            1 
  793000     1.151033   -7.3402258    286.52373  0.030109682  0.030513613            2 
  794000    1.1397743   -7.3748152    285.01505  0.029913419  0.030506158            1 
  795000     1.119387   -7.3978284     286.6312    0.0300452  0.030498712            2 
  796000    1.1163673   -7.3834682    286.57527  0.030001599  0.030491064            2 
  797000     1.138619    -7.380814    286.94074  0.030002169  0.030483268            2 
  798000     1.135129   -7.4090686    287.37854   0.03001029   0.03047599            3 
  799000     1.122158   -7.3603515    288.52454  0.030092255  0.030468985            1 
  800000    1.0973226   -7.3831361    288.38306  0.030039902  0.030462088            3 
  801000    1.1171128    -7.388675    288.18697  0.029981998  0.030455242            3 
  802000    1.1561225   -7.4096053    287.80175  0.029904587  0.030448172            2 
  803000    1.1059078   -7.3599029    289.96125  0.030091454  0.030441207            2 
  804000    1.1248989   -7.3816741    288.95411  0.029949638   0.03043423            1 
  805000    1.1209413   -7.3807683    289.99697   0.03002039  0.030427124            6 
  806000    1.1115949   -7.3841692    289.43284  0.029924818   0.03042014            2 
  807000    1.0985502   -7.3962557    288.95547  0.029838442  0.030413171            3 
  808000     1.117247   -7.3786505    291.08727  0.030021377  0.030406077            2 
  809000     1.106142    -7.360859     291.5019  0.030026978  0.030399234            1 
  810000    1.1085541   -7.3722138    292.25535  0.030067423  0.030392261            1 
  811000    1.1463882   -7.3958783    291.31832  0.029934065   0.03038528            5 
  812000     1.116068   -7.3505234    292.38732  0.030006909  0.030378339            2 
  813000    1.1171447   -7.4205743    291.74249  0.029903904  0.030371239            2 
  814000    1.1492841   -7.4162927    292.21609  0.029915652  0.030363885            3 
  815000    1.1234463   -7.4241495    292.31214  0.029888767  0.030356758            1 
  816000    1.1379273   -7.4009428    293.80036  0.030004122  0.030349758            1 
  817000    1.1344071   -7.3796349    294.44468  0.030033117  0.030343469            1 
  818000    1.1096303   -7.3622092    295.02626   0.03005565   0.03033712            2 
  819000    1.1001198   -7.3774215    294.23711  0.029938656  0.030330683            1 
  820000    1.1311769    -7.380962    294.93078   0.02997264  0.030324549            2 
  821000    1.1098649   -7.4146237    295.33316  0.029976975  0.030317962            2 
  822000    1.1099293   -7.3659803    295.76892  0.029984683  0.030311253            2 
  823000    1.1424828   -7.4049018    295.32176  0.029902973  0.030304536            2 
  824000     1.119999   -7.4312769    294.95712  0.029829805  0.030297791            5 
  825000    1.1058838   -7.3683879     295.8247  0.029881283  0.030290909            2 
  826000    1.1153674   -7.4181387    296.29764  0.029892821  0.030284204            3 
  827000    1.1189906   -7.3736442    296.89451  0.029916819  0.030277425            2 
  828000    1.1142696   -7.3752268    297.16901  0.029908315  0.030270923            4 
  829000    1.1076013   -7.3445831     297.3509  0.029890521  0.030264304            1 
  830000    1.1311897   -7.4246054    297.25441  0.029844821  0.030257867            2 
  831000    1.1257707   -7.3991323      298.201  0.029903831  0.030251227            4 
  832000    1.1341019   -7.3788519    298.99965  0.029947882  0.030245061            1 
  833000    1.1259916   -7.4118055    299.03809  0.029915775  0.030239003            1 
  834000    1.1133738   -7.3972943    299.00355  0.029876454  0.030232532            3 
  835000    1.1272015   -7.4000466    298.51474   0.02979189  0.030225855            1 
  836000    1.1039285   -7.4218051    298.93921  0.029798566  0.030219253            3 
  837000    1.1238512   -7.3792776    300.35071  0.029903495  0.030212718            1 
  838000    1.1198158    -7.396933    299.96166  0.029829123  0.030206165            1 
  839000    1.1293398   -7.3808264    300.96209  0.029892937  0.030199733            1 
  840000    1.1424814   -7.3940351    300.41453  0.029803029  0.030193101            3 
  841000    1.1168094   -7.3701831    301.71098  0.029896055  0.030186378            2 
  842000    1.0947821   -7.3837315    302.18888  0.029907847  0.030179779            4 
  843000    1.1078276   -7.3908736    301.70971  0.029825001  0.030173168            2 
  844000    1.1335557   -7.3842812    301.53338  0.029772253  0.030166403            1 
  845000    1.1336104   -7.4343454    301.41304  0.029725152  0.030159526            2 
  846000    1.1098573   -7.3860489    301.82188  0.029730288  0.030152843            1 
  847000    1.1242591   -7.3975638    302.25927   0.02973822  0.030146075            4 
  848000    1.1414043   -7.4190461    301.94413  0.029672183  0.030139223            1 
  849000    1.0960105   -7.3778874    302.26685   0.02966891  0.030132204            1 
  850000    1.1381819   -7.4175503    303.13933  0.029719542  0.030125256            1 
  851000    1.1012546   -7.3599672    303.85267  0.029754472  0.030118556            2 
  852000    1.1160293   -7.3665585    303.65593  0.029700306   0.03011155            1 
  853000    1.1211991   -7.4095946    303.22987  0.029623864  0.030104439            1 
  854000    1.1008488   -7.3997368    303.83426  0.029648152    0.0300971            1 
  855000    1.1078802    -7.399451    303.76416  0.029606643  0.030089992            1 
  856000    1.1258794   -7.4186543    304.73097  0.029666177  0.030082531            2 
  857000    1.0982414   -7.4212093    304.11797  0.029571954  0.030075349            1 
  858000    1.1192738   -7.4069945    304.86939  0.029610469   0.03006786            2 
  859000    1.0930619   -7.4060268    305.40509  0.029627968  0.030060559            2 
  860000    1.1180187   -7.4119337    306.01221  0.029652346  0.030053442            2 
  861000    1.0914273    -7.398313    306.10668   0.02962705  0.030046283            1 
  862000     1.089678   -7.3945189    306.82544  0.029662166  0.030039065            1 
  863000    1.1136919   -7.3746262     307.1019   0.02965449  0.030031811            4 
  864000    1.1197619   -7.4139792    305.68233  0.029483249  0.030024446            2 
  865000    1.1259339   -7.4602317    306.02642  0.029482314  0.030016895            2 
  866000    1.1297923   -7.3879962    308.34335  0.029671223  0.030009594            3 
  867000    1.1161188   -7.3607617     308.1425  0.029617696  0.030002299            1 
  868000    1.1120894   -7.4010967    308.12491  0.029581884  0.029994896            2 
  869000    1.1254239   -7.3831142    309.39223  0.029669374  0.029987627            2 
  870000    1.1019076   -7.4052401    308.43915   0.02954398  0.029980642            2 
  871000    1.1080248   -7.3999459    309.59697  0.029620835  0.029973383            4 
  872000     1.099103   -7.3607838     310.7656  0.029698548  0.029966463            2 
  873000    1.1158514   -7.3917708    309.55792  0.029549247  0.029959427            1 
  874000     1.117322   -7.4476039    308.86045  0.029448937  0.029952042            2 
  875000     1.115872   -7.3816539    310.41825  0.029563642  0.029944599            2 
  876000    1.0938673    -7.390734    310.60155  0.029547331  0.029937382            1 
  877000    1.1274734   -7.4423866    309.59256  0.029417765  0.029929884            1 
  878000    1.1368288   -7.4159489    309.15673  0.029342894  0.029922449            2 
  879000    1.1019743   -7.4268314     310.4555  0.029432641  0.029914976            3 
  880000    1.1134204   -7.4264433    310.74385  0.029426501   0.02990745            1 
  881000    1.1469221   -7.3863517    311.22687  0.029438789  0.029899802            1 
  882000    1.1162035   -7.4208137    312.38027  0.029514386  0.029892392            2 
  883000    1.1062831   -7.4788585    311.79252  0.029425493  0.029885043            1 
  884000    1.1080006   -7.4381723    312.19936  0.029430558  0.029877835            2 
  885000    1.0915736    -7.419887    312.77765  0.029451756  0.029870386            1 
  886000    1.0969323    -7.382341    313.53839  0.029490067  0.029863233            5 
  887000    1.1093242   -7.4406882    314.06627  0.029506414  0.029856141            1 
  888000    1.1367674   -7.4167799    313.76627  0.029445033   0.02984898            1 
  889000    1.1115175   -7.4187087    313.42029  0.029379479  0.029841771       -1e+20 
  890000    1.1164117   -7.3981643    313.87753  0.029389282  0.029834831            2 
  891000    1.1109231   -7.4268889    313.12143   0.02928558  0.029827619            2 
  892000    1.1351658   -7.4059286     314.5395   0.02938523  0.029820257            2 
  893000    1.1048955   -7.3878016    315.29722  0.029423033  0.029812746            1 
  894000    1.0862819    -7.431421    314.40212  0.029306686  0.029805367            2 
  895000    1.0921017   -7.4498099    314.28291   0.02926284  0.029797645            2 
  896000    1.1071538   -7.4713834    314.46111  0.029246755   0.02979011            1 
  897000    1.1031936   -7.3939734    316.11383  0.029367692  0.029782603            1 
  898000       1.1109   -7.4282246    315.62076  0.029289232  0.029774976            1 
  899000     1.093553   -7.4060317    316.94609  0.029379504  0.029767578            3 
  900000    1.1339601   -7.4309683    317.80882  0.029426743  0.029760164            3 
  901000    1.0908619   -7.4355509    316.35361   0.02925949  0.029752625            2 
  902000    1.1133242   -7.4246879    316.64649   0.02925411  0.029745095            1 
  903000    1.1117669   -7.4510316    316.01942  0.029163844  0.029737461            1 
  904000    1.1184727   -7.4633747    317.05176  0.029226748  0.029729885            1 
  905000    1.0844091   -7.4221555    318.52128  0.029329768  0.029722545            1 
  906000     1.094348   -7.4136062    317.40083  0.029194336  0.029714826            2 
  907000    1.0901799   -7.4098942    317.89577  0.029207623  0.029706821            2 
  908000    1.1169544    -7.429949    318.23881  0.029206939  0.029698865            1 
  909000    1.1115982   -7.4147632    318.82816  0.029228838  0.029691256            2 
  910000    1.1043994   -7.4327654    318.77421  0.029191778  0.029683669            2 
  911000    1.1085788   -7.3711929    320.03859  0.029275392  0.029676189            2 
  912000    1.1293813    -7.418533    319.16654  0.029163609  0.029668511            3 
  913000     1.113474   -7.3906618    319.72241  0.029182403  0.029660752            2 
  914000     1.103336   -7.4259471    320.02178   0.02917777  0.029653137            1 
  915000    1.0864331    -7.405111    320.74992  0.029212197  0.029645564            1 
  916000    1.0975897   -7.4340792    320.90457  0.029194375  0.029637944            1 
  917000    1.0893902   -7.4508624    319.51502  0.029036261  0.029629991            2 
  918000    1.1248238    -7.421736    321.41633  0.029177227  0.029621922            2 
  919000    1.1050528    -7.443829     320.4979  0.029062197  0.029613825            3 
  920000    1.1022284    -7.408025    321.61944  0.029132195  0.029606044            4 
  921000    1.0663752   -7.4178198    322.10645   0.02914463  0.029598515            4 
  922000     1.103503   -7.4211042    321.19377  0.029030529  0.029590656            1 
  923000    1.0838026   -7.4181123    321.40374  0.029018034  0.029582592            5 
  924000    1.1123473   -7.4564488    321.89433  0.029030874  0.029574582            2 
  925000    1.1237714    -7.466181    322.90811  0.029090821  0.029566491            2 
  926000    1.0873365   -7.4162747    322.96201  0.029064255   0.02955861            2 
  927000    1.0957024   -7.4068955    323.74292  0.029103103  0.029550601            2 
  928000    1.1237266   -7.4124984    324.12234  0.029105813  0.029542681            2 
  929000    1.1124941   -7.4333573    323.70091   0.02903668  0.029534732            3 
  930000    1.0967773   -7.4046304    323.70146  0.029005507   0.02952685            1 
  931000     1.128315   -7.4231538    324.27299  0.029025509  0.029518815            2 
  932000    1.0966767   -7.3884887    324.37016  0.029003054  0.029510919            1 
  933000    1.0967209   -7.4457122    323.67522  0.028909898   0.02950288            1 
  934000    1.0883036   -7.4712837    324.36905   0.02894085  0.029494888            4 
  935000    1.1044253   -7.3794061    326.40532  0.029091383  0.029486851            1 
  936000    1.0918237   -7.4043898    325.73469  0.029000596  0.029479052            1 
  937000    1.1180147   -7.4043615    326.35936  0.029025201  0.029471339            1 
  938000     1.106683   -7.4266262    325.31984  0.028901905  0.029463339            4 
  939000    1.1064997   -7.4998539    325.85917  0.028918989  0.029455316            2 
  940000    1.0955321    -7.456271     325.9814   0.02889906  0.029447385            3 
  941000    1.0988626   -7.4389114    326.88291  0.028948185  0.029439393            1 
  942000    1.0993744   -7.4766603    326.63347  0.028895388  0.029431442            2 
  943000    1.1293908   -7.4285417    327.08541  0.028904684  0.029423684            3 
  944000    1.1085905    -7.432818    327.96701   0.02895189  0.029416076            2 
  945000    1.1165625   -7.4788288    328.07625  0.028930886  0.029408514            3 
  946000    1.1123316   -7.4155653    327.76163  0.028872589  0.029400817            3 
  947000    1.1326921   -7.4301178    329.20868  0.028969436   0.02939315            4 
  948000    1.0915119   -7.4629887    328.95237  0.028916347  0.029385858            1 
  949000    1.0916861   -7.4227691    329.69595  0.028951172  0.029378218            1 
  950000    1.0876288   -7.4131734    330.31544  0.028975039  0.029370618            4 
  951000     1.111037   -7.4469287     330.3723  0.028949553  0.029362683            2 
  952000    1.1078765   -7.4794408    329.29482  0.028824827  0.029354971            4 
  953000    1.0971688   -7.4274211    330.97674  0.028941653  0.029347086            1 
  954000    1.1052804   -7.4738253    330.40357  0.028861248  0.029339132            3 
  955000    1.0987779   -7.4688732    330.82677  0.028867955  0.029331164            2 
  956000    1.1110236   -7.4181977    331.92203  0.028933231  0.029323526            2 
  957000    1.0872993   -7.4640941    331.43971  0.028860999  0.029315815            1 
  958000    1.0895266   -7.4206797      333.115    0.0289766  0.029308358            6 
  959000    1.1043071   -7.4613061    332.42206  0.028886171  0.029300916            4 
  960000    1.0859295   -7.4744068     333.1196  0.028916632  0.029293257            2 
  961000    1.1140958   -7.4231159    334.28139  0.028987287   0.02928589            5 
  962000    1.1103554   -7.4559995    334.53352  0.028978995   0.02927907            2 
  963000    1.0819017   -7.3860147    334.14602  0.028915371  0.029271937            4 
  964000    1.0819054   -7.3953389    334.94174  0.028954162  0.029265103            1 
  965000    1.0782022   -7.4556155    335.05745   0.02893415  0.029258325            1 
  966000    1.0835747   -7.4251202     335.4409  0.028937276  0.029251315            2 
  967000    1.0833744   -7.4506103    336.20972  0.028973605  0.029244498            1 
  968000    1.0941734   -7.4451075    334.82308  0.028824301  0.029237478            1 
  969000    1.0824783   -7.4176429    336.47222  0.028936379  0.029230656            1 
  970000     1.072736   -7.4408524    336.47742  0.028906995  0.029223617            1 
  971000    1.1018628   -7.4648036    336.48744  0.028878085   0.02921622            2 
  972000    1.0798126    -7.430481    336.36371  0.028837767   0.02920921            1 
  973000    1.0936282   -7.4539737    336.68931  0.028836015  0.029202188            3 
  974000    1.0769336   -7.4268726    337.68326  0.028891449  0.029195049            3 
  975000    1.0839019    -7.449871    336.86011  0.028791462  0.029188131            2 
  976000    1.0963894   -7.4429264    337.83204  0.028844949  0.029181138            2 
  977000    1.0884351   -7.4225387    337.98536  0.028828502  0.029174314            3 
  978000    1.0737766   -7.4676812    338.59138  0.028850663  0.029167137            1 
  979000    1.1187736   -7.4647624    338.60125  0.028822033   0.02915995            1 
  980000    1.1232392   -7.4303779    338.83105  0.028812164  0.029152665            2 
  981000    1.0912914   -7.4397193    338.74049  0.028775101   0.02914558            1 
  982000    1.0789768   -7.4732467    338.23709  0.028703079  0.029138362            2 
  983000    1.0867343   -7.4279236    340.24301  0.028843931  0.029131263            2 
  984000    1.0875226   -7.4284294    340.94855  0.028874369  0.029124423            1 
  985000    1.1064614   -7.4860526    340.39382  0.028798123  0.029117538            2 
  986000    1.0871304   -7.4625251    341.27654  0.028843521  0.029110669            1 
  987000    1.1022916   -7.5016276    340.25098  0.028727709  0.029103708            4 
  988000    1.0938088   -7.4671203    342.07729  0.028852673   0.02909655            4 
  989000    1.1194078   -7.4091205    342.00041  0.028817022  0.029089503            2 
  990000    1.0723087   -7.4682907    340.85408  0.028691421  0.029082485            1 
  991000    1.1009331    -7.499857    342.27911    0.0287823  0.029075366            4 
  992000    1.0922327   -7.4413682    342.58168  0.028778703  0.029068408            1 
  993000    1.1061382   -7.4316344    341.93215  0.028695213  0.029061373            1 
  994000    1.0959008   -7.4720017    341.69035  0.028646072  0.029054279            4 
  995000    1.0735606   -7.4549744    342.55643  0.028689818     0.029047            1 
  996000    1.0500381   -7.4910822    342.67359  0.028670816  0.029039744            1 
  997000    1.0903617   -7.4925309    342.98009  0.028667677  0.029032539            1 
  998000    1.0888257   -7.4194041    344.07337  0.028730241  0.029025431            3 
  999000    1.0903086   -7.4005543    344.91887  0.028772011  0.029018553            2 
 1000000    1.0920672   -7.4459647    345.24408   0.02877034  0.029011765            1 
 1001000    1.0861855   -7.4292949    345.82239  0.028789743   0.02900537            1 
 1002000    1.0871657   -7.4257153     345.8046  0.028759531  0.028998932            1 
 1003000    1.0698565   -7.4431238    345.97317  0.028744863  0.028992397            2 
 1004000    1.0618748   -7.4439185    345.55102  0.028681193  0.028985997            2 
 1005000    1.0748518   -7.4898603    346.40022   0.02872307  0.028979634            1 
 1006000    1.1109416   -7.4213705     347.5457  0.028789405  0.028973428            1 
 1007000    1.0810323   -7.4739551    347.35311  0.028744879   0.02896718            1 
 1008000    1.0912275   -7.4308004    348.90434  0.028844605  0.028961039            2 
 1009000    1.0815376   -7.4663212    348.76827   0.02880478  0.028954867            2 
 1010000     1.076424   -7.4707392    348.76381  0.028775892  0.028948755            2 
 1011000    1.0911991   -7.4358001    349.23515   0.02878628   0.02894266            1 
 1012000    1.0676713   -7.4619609    349.74646  0.028799939  0.028936411            2 
 1013000    1.0902154   -7.4696003    347.89067  0.028618844  0.028930309            1 
 1014000    1.0604438   -7.4797994     348.9242  0.028675559  0.028923794            3 
 1015000    1.1022463   -7.4676309    350.02759  0.028737897  0.028917307            1 
 1016000    1.0823923   -7.4632149    350.93572  0.028784098  0.028911046            2 
 1017000    1.0763996   -7.4973264     350.1265  0.028689487  0.028904694            2 
 1018000    1.1144681   -7.5100188    350.82782  0.028718715  0.028898329            2 
 1019000    1.0516695     -7.47278    350.22376  0.028641132  0.028891896            3 
 1020000    1.1068235   -7.5032304    350.98275  0.028675061  0.028885694            2 
 1021000    1.0859564    -7.440926     352.6738  0.028784998  0.028879515            1 
 1022000    1.0886519   -7.4533647    352.50885  0.028743383  0.028873509            2 
 1023000    1.1021311   -7.4485293    353.46657  0.028793301  0.028867742            1 
 1024000     1.072227   -7.5026807    351.79063  0.028628795  0.028861828            2 
 1025000    1.0971996   -7.4353349    353.47728   0.02873799  0.028855706            1 
 1026000    1.0783199   -7.4827704    352.62532  0.028640783  0.028849747            1 
 1027000    1.0719168   -7.4812732    353.75013  0.028704165   0.02884392            3 
 1028000    1.1004196   -7.4296874    354.59792  0.028744968  0.028838226            2 
 1029000    1.0968501   -7.4808956    354.84432  0.028736987  0.028832477            1 
 1030000    1.1101003    -7.471139    355.45298  0.028758332  0.028826789            1 
 1031000    1.1037929   -7.4340411    356.19909  0.028790744   0.02882125            2 
 1032000    1.0863904    -7.467822     355.2348   0.02868498  0.028815538            3 
 1033000    1.0727718   -7.4789029    356.30262  0.028743354  0.028809566            1 
 1034000    1.0841987   -7.4709337    355.46032  0.028647673  0.028803498            1 
 1035000    1.0705207   -7.4682974    355.47455   0.02862114  0.028797272            3 
 1036000    1.0840911    -7.489506    354.24135  0.028494317  0.028790813            2 
 1037000    1.0827646   -7.5022896    355.18603  0.028542754  0.028784434            1 
 1038000    1.0839352   -7.5360638    354.92211  0.028494068  0.028777826            1 
 1039000    1.0765731   -7.4724971    355.22534  0.028490964    0.0287711            1 
 1040000    1.0857861   -7.4818936    355.61369  0.028494687  0.028764452            2 
 1041000     1.077267   -7.4787895    356.13052  0.028508687  0.028757707            1 
 1042000    1.0973942   -7.4363026    356.96509  0.028548072    0.0287512            1 
 1043000    1.0991552   -7.4766771    357.01784  0.028524916    0.0287445            2 
 1044000    1.0872388   -7.4663715    356.18636  0.028431223  0.028737914            3 
 1045000    1.0843647   -7.4577846    357.72159  0.028526443  0.028731234            1 
 1046000    1.0765541   -7.4357185    358.20246   0.02853748  0.028724559            3 
 1047000    1.0626038   -7.5168556    356.40682  0.028367305   0.02871767            2 
 1048000    1.1009532   -7.4338812    357.80237  0.028451206  0.028710731            1 
 1049000    1.0782755    -7.444178    358.39854  0.028471445   0.02870402            1 
 1050000     1.072717     -7.48726    358.07224  0.028418431  0.028697338            2 
 1051000    1.0815079    -7.476098    358.35145  0.028413531  0.028690636            2 
 1052000    1.0883231   -7.4529184     358.6246  0.028408159  0.028683856            2 
 1053000    1.0856188   -7.4448991    358.32402  0.028357393  0.028677222            1 
 1054000    1.0592964   -7.4660471    358.84012  0.028371294  0.028670502            1 
 1055000    1.0792549   -7.4533135    359.88522  0.028426953  0.028663687            2 
 1056000    1.0685023   -7.5054154    357.75713  0.028232097  0.028656894            2 
 1057000    1.1020275   -7.4400982    360.69091  0.028436684  0.028650193            2 
 1058000    1.0857257   -7.4890844    360.27994  0.028377437  0.028643295            3 
 1059000    1.0569815   -7.5173184    359.23544  0.028268448  0.028636479            1 
 1060000    1.0920366   -7.4796755    360.23855   0.02832064  0.028629605            3 
 1061000    1.0580216   -7.5027087    360.45254  0.028310755  0.028622702            2 
 1062000    1.1110941   -7.4607091    361.42277   0.02836023  0.028615795            2 
 1063000    1.0985025   -7.4660733    361.94813  0.028374736  0.028608754            1 
 1064000    1.0793992    -7.486377    361.47064   0.02831067  0.028601754            2 
 1065000    1.0699112   -7.5049126    361.67193  0.028299838  0.028594856            1 
 1066000    1.0835921   -7.4637765    361.79729   0.02828309  0.028587758            2 
 1067000    1.0796139   -7.4620012    361.87158  0.028262385  0.028580768            2 
 1068000    1.1153954   -7.4834317    362.93813  0.028319142  0.028573522            1 
 1069000    1.0614364   -7.5286555    361.11771  0.028150741  0.028566348            2 
 1070000    1.0899276   -7.5079282     362.1886  0.028207835  0.028559029            1 
 1071000    1.0846378   -7.4688729    363.44768  0.028279465  0.028552005            3 
 1072000    1.0859386   -7.4709641    362.90251  0.028210705  0.028544952            2 
 1073000    1.0596476    -7.454564    363.09188  0.028199121  0.028537804            1 
 1074000    1.0614969    -7.506965    362.92282  0.028159747  0.028530512            2 
 1075000    1.0805978   -7.4694075    363.34591   0.02816635  0.028523435            1 
 1076000    1.0838735   -7.4755665    363.72679  0.028169671   0.02851629            1 
 1077000    1.0823833   -7.4442096     364.1891  0.028179286  0.028508962            1 
 1078000    1.0774354   -7.5018437    364.06856  0.028143828  0.028501842            1 
 1079000    1.0934256    -7.474144    364.24159  0.028131108  0.028494637            1 
 1080000    1.0621236   -7.4984874    364.14865   0.02809789  0.028487276            2 
 1081000     1.092302   -7.5181051    364.41249  0.028092237  0.028480011            2 
 1082000    1.0875417   -7.4530165    366.39925  0.028219289  0.028472793            2 
 1083000    1.0810533   -7.4538757    366.98371  0.028238205  0.028465872            1 
 1084000    1.0948977   -7.4732676    365.97684  0.028134751  0.028458928            1 
 1085000    1.0700887   -7.4434968    367.46174  0.028222868  0.028452011            1 
 1086000    1.0779483    -7.471105     365.4643  0.028043608  0.028445114            1 
 1087000    1.0755672   -7.4827933    367.11295  0.028144201  0.028438048            1 
 1088000    1.0815027   -7.4554785    367.52488  0.028149883  0.028431154            1 
 1089000     1.080617    -7.523071    367.96567  0.028157764   0.02842424            3 
 1090000    1.0837048   -7.5144672    367.73775  0.028114507  0.028417255            1 
 1091000    1.0850104   -7.4773706    368.29977  0.028131666  0.028410432            3 
 1092000    1.0803087   -7.4830103    368.03692  0.028085845   0.02840364            1 
 1093000    1.0729228   -7.4775282    368.48262  0.028094131  0.028396668            2 
 1094000    1.0747433   -7.5191377    369.28456  0.028129537   0.02838974            1 
 1095000    1.0872189   -7.4789606     369.7312  0.028137839  0.028382688            2 
 1096000    1.0645946   -7.5053482    369.79502  0.028117018  0.028375605            2 
 1097000    1.0693943   -7.4922784    369.56472  0.028073893  0.028368915            2 
 1098000    1.0746471   -7.4819553    369.68688  0.028057595  0.028362057            2 
 1099000    1.0966176   -7.4960816    369.70017  0.028033073  0.028355024            1 
 1100000    1.0829627   -7.5115796    370.51227  0.028069112  0.028348165            4 
 1101000    1.0953539   -7.4678761    370.55439  0.028046805  0.028341233            2 
 1102000    1.0914609   -7.5336586    370.37745  0.028007974   0.02833426            3 
 1103000    1.0807992   -7.4896593    370.30861  0.027977381  0.028327293            2 
 1104000    1.0746408    -7.512454    371.15725  0.028016097  0.028320181            1 
 1105000    1.0677141   -7.5217678    371.90488  0.028047125  0.028313057            1 
 1106000     1.081951   -7.5124096     373.0709  0.028109622  0.028306163            1 
 1107000    1.0714626   -7.5096221    372.72823  0.028058434  0.028299357            2 
 1108000    1.0885971   -7.5063581    371.75291  0.027959756  0.028292276            2 
 1109000    1.0488092    -7.463571    372.63458  0.028000795  0.028285272            3 
 1110000    1.0810935   -7.4904915    373.17078  0.028015825  0.028278384            1 
 1111000    1.0721873   -7.4849041    373.39511  0.028007434  0.028271481            3 
 1112000     1.033732   -7.4755162    374.69512   0.02807967  0.028264821            2 
 1113000    1.0812713   -7.5135334    372.68032  0.027903588  0.028257994            1 
 1114000    1.0584469    -7.511728    373.54743  0.027943404  0.028251305            1 
 1115000     1.071423   -7.4782599    374.12183  0.027961272  0.028244698            2 
 1116000    1.0617929   -7.4886996    375.40931  0.028032356  0.028237996            2 
 1117000    1.0737424   -7.5124613    376.92366  0.028120237  0.028231237            1 
 1118000    1.0733222   -7.4910783    376.24429  0.028044446  0.028224372            1 
 1119000    1.0901518   -7.5058058    374.27241  0.027872536  0.028217571            2 
 1120000    1.0766886    -7.490438     376.2934   0.02799802  0.028210791            3 
 1121000    1.0807657    -7.492436     376.2776   0.02797187  0.028203999            2 
 1122000    1.0854751   -7.4997748     377.2508  0.028019221  0.028197381            1 
 1123000    1.0802563    -7.468941    375.61808  0.027873114  0.028190586            2 
 1124000    1.0495821   -7.4697016     377.0582  0.027955086  0.028183594            3 
 1125000    1.0853428    -7.499426    376.40493  0.027881847  0.028176587            2 
 1126000    1.0776682   -7.5337281    375.69769  0.027804743   0.02816965            1 
 1127000    1.0634147    -7.519325     376.8677  0.027866585  0.028162552            1 
 1128000    1.0446924   -7.5320546    375.97924  0.027776244  0.028155276            2 
 1129000    1.0598011    -7.559022    376.74983   0.02780852  0.028147998            2 
 1130000    1.0490769   -7.5397663    376.76399  0.027784955  0.028140674            1 
 1131000     1.046141   -7.5165199    377.89747  0.027843904  0.028133488            1 
 1132000    1.0584527   -7.5056926    377.25829  0.027772253  0.028126408            1 
 1133000    1.0734571   -7.5317755    377.65097  0.027776623  0.028119223            1 
 1134000    1.0780637   -7.5118134    379.74613  0.027906094  0.028112188            1 
 1135000    1.0533573   -7.5154859     378.6502  0.027801043  0.028105028            1 
 1136000    1.0586844   -7.4734175    378.03589  0.027731506   0.02809781            2 
 1137000    1.0611998   -7.4573078    380.48623  0.027886707  0.028090591            2 
 1138000    1.0619247   -7.4872985    378.37221  0.027707397   0.02808327            2 
 1139000    1.0720042   -7.5119546    378.79778  0.027714207  0.028075725            2 
 1140000    1.0893146   -7.5221088    378.73421  0.027685249  0.028068279            3 
 1141000    1.0638879   -7.5291663    379.47402  0.027715017  0.028060858            1 
 1142000    1.0725045    -7.545041    378.59788  0.027626816  0.028053442            1 
 1143000    1.0573807   -7.5220007     378.8438  0.027620575  0.028045849            1 
 1144000    1.0755675   -7.5178177    378.77942  0.027591741  0.028038228            1 
 1145000    1.0657286   -7.5169207    381.03525  0.027731823  0.028030915            3 
 1146000    1.0553472   -7.5406918    380.54055  0.027671651  0.028023757            1 
 1147000    1.0811516   -7.4967447    381.42326  0.027711658   0.02801647            1 
 1148000    1.0827767    -7.529978    380.72592  0.027636899  0.028009221            1 
 1149000    1.0568523   -7.5002252    382.38091  0.027732877  0.028002027            1 
 1150000    1.0851945   -7.5114627    380.90496  0.027601808  0.027994993            2 
 1151000    1.0775014   -7.4947162    383.96852  0.027799632  0.027987904            1 
 1152000    1.0703109   -7.4694469     383.9501  0.027774168  0.027980935            3 
 1153000    1.0598161   -7.5377763     383.2849  0.027702002  0.027973873            3 
 1154000    1.0462515   -7.5310221    383.23228  0.027674197  0.027966687            2 
 1155000    1.0865626   -7.5365151    383.07988  0.027639241  0.027959546            2 
 1156000    1.0710003   -7.5306318    382.98355  0.027608387  0.027952277            1 
 1157000    1.0711465   -7.5302552    383.86665  0.027648131  0.027944905            2 
 1158000     1.060162   -7.5049412    384.00092  0.027633918  0.027937671            2 
 1159000    1.0788928   -7.5102172    383.84416  0.027598804  0.027930502            1 
 1160000    1.0578391   -7.5716939    383.24234  0.027531777  0.027923077            1 
 1161000    1.0579973    -7.520082    383.24064  0.027507941  0.027915634            2 
 1162000     1.073328   -7.4853083    385.27701  0.027630308  0.027908423            2 
 1163000    1.0738228   -7.6017631    383.50013   0.02747923  0.027901099            1 
 1164000    1.0608237   -7.5482658    384.56221  0.027531659  0.027893455            5 
 1165000    1.0690172   -7.5321884    382.81173  0.027382813  0.027885773            1 
 1166000    1.0636943   -7.5411126     384.0985  0.027451293  0.027878202            1 
 1167000    1.0757341   -7.5055273    385.15868  0.027503476   0.02787058            1 
 1168000      1.05738   -7.5521458    384.09302  0.027403897  0.027862953            2 
 1169000      1.06727   -7.5279821    384.65526  0.027420535  0.027855262            2 
 1170000    1.0549485   -7.5192521    386.61073  0.027536377  0.027847825            2 
 1171000    1.0874152   -7.5312718    384.27443    0.0273466  0.027840388            1 
 1172000    1.0587038   -7.5514366    386.89204  0.027509389  0.027832768            3 
 1173000    1.0741776   -7.5149836    387.30095  0.027514986  0.027825325            2 
 1174000    1.0651638   -7.5404953    387.35602  0.027495459  0.027817959            2 
 1175000    1.0708157   -7.5335706    387.96202  0.027515037  0.027810631            1 
 1176000    1.0467932   -7.5363603    387.82081  0.027481633  0.027803255            1 
 1177000    1.0421745   -7.5236475    387.69799  0.027449589  0.027795989            1 
 1178000     1.037863   -7.5265198    388.07053  0.027452641  0.027788531            3 
 1179000    1.0506222   -7.5124434    388.42991  0.027454758  0.027781283            2 
 1180000    1.0592254   -7.5303422    387.37082  0.027356696  0.027773925            3 
 1181000    1.0630398   -7.5214321      388.985  0.027447432  0.027766547            2 
 1182000    1.0784841   -7.5207253    388.61616  0.027398206  0.027759171            4 
 1183000    1.0479697   -7.5673841     388.8011  0.027388074  0.027751836            3 
 1184000    1.0628226   -7.5288006    389.76728  0.027432944  0.027744513            2 
 1185000     1.066013   -7.5533479    388.88515  0.027347761  0.027737054            3 
 1186000    1.0419415   -7.5522293    388.92379  0.027327417  0.027729684            1 
 1187000    1.0722353   -7.5379432    390.78554  0.027435098   0.02772246            4 
 1188000     1.070851   -7.5733454    390.41167  0.027385779  0.027715006            2 
 1189000    1.0550642   -7.5242126    391.27865  0.027423511  0.027707729            5 
 1190000    1.0435251    -7.550557    391.29269  0.027401449  0.027700558            1 
 1191000    1.0873024    -7.526518    391.21274  0.027372848  0.027693442            1 
 1192000    1.0309031   -7.5264375    391.52624  0.027371801  0.027686392            4 
 1193000    1.0221585   -7.5322132    391.60627  0.027354447  0.027679186            3 
 1194000    1.0728766   -7.5219437    391.53545  0.027326595   0.02767206            2 
 1195000    1.0426681   -7.4947081    393.22962   0.02742187  0.027665063            2 
 1196000    1.0616519   -7.5332381    392.96132  0.027380248  0.027658245            2 
 1197000    1.0583328   -7.4935968    394.21196  0.027444441  0.027651116            3 
 1198000    1.0395989   -7.5590347    392.72908  0.027318383  0.027644012            2 
 1199000    1.0768959   -7.4925358    394.66994  0.027430494  0.027637275            1 
 1200000    1.0502457   -7.5199645    395.07331  0.027435647  0.027630611            2 
 1201000    1.0506801   -7.4915157    396.56987  0.027516644  0.027623909            4 
 1202000    1.0689689   -7.5397392    395.69539  0.027433125  0.027617433            2 
 1203000    1.0447097   -7.5222093    395.73289  0.027412918  0.027610834            2 
 1204000    1.0613022    -7.559677     396.2036   0.02742273  0.027604062            2 
 1205000    1.0419646   -7.5500564    397.01571  0.027456135  0.027597284            2 
 1206000    1.0605859   -7.5200587    398.20334  0.027515433  0.027590869            1 
 1207000    1.0598349   -7.5280361    397.54786  0.027447381  0.027584446            2 
 1208000    1.0597424   -7.4989851     399.6822  0.027571896  0.027578156            2 
 1209000    1.0752351   -7.5414339    399.10941  0.027509609  0.027571815            2 
 1210000    1.0510183   -7.5475267    398.46196  0.027442283  0.027565419            2 
 1211000    1.0542109   -7.5608625    398.51831  0.027423501   0.02755894            3 
 1212000    1.0718655   -7.6262137    397.72079  0.027346039  0.027552345            2 
 1213000    1.0636284   -7.5675201    398.29145  0.027362699  0.027545796            3 
 1214000    1.0653043   -7.5468983    399.35288  0.027413021  0.027539232            4 
 1215000    1.0552918   -7.5484434    399.44607   0.02739685  0.027532676            2 
 1216000      1.06157   -7.5155032     399.1791  0.027356024  0.027526293            1 
 1217000    1.0457915   -7.5922571    398.74727  0.027303977   0.02751978            1 
 1218000    1.0642042   -7.5535891    399.42543  0.027327958  0.027513254            2 
 1219000    1.0747011   -7.5742635    399.80894  0.027331757  0.027506651            2 
 1220000    1.0570468    -7.559378    400.07867  0.027327778   0.02750014            2 
 1221000    1.0501544   -7.5625204    400.04907  0.027303377  0.027493703            2 
 1222000    1.0641266   -7.5517609    400.73505  0.027327813  0.027487199            2 
 1223000    1.0400665   -7.5078663    402.30958  0.027412754  0.027480791            2 
 1224000    1.0608859    -7.562159    401.15758  0.027311927  0.027474384            3 
 1225000    1.0301921   -7.5561448    401.08835  0.027284922  0.027467846            1 
 1226000    1.0509517   -7.5289913    400.74225  0.027239142  0.027461256            1 
 1227000      1.05811   -7.5535686    401.83006  0.027290822  0.027454427            1 
 1228000    1.0870359   -7.5347838    401.13044  0.027221121  0.027447494            2 
 1229000    1.0663174   -7.5776682    400.80569  0.027176952  0.027440597            2 
 1230000    1.0556427   -7.5883433     401.0503   0.02717143  0.027433627            2 
 1231000    1.0636605   -7.5456095    400.96104  0.027143315   0.02742672            2 
 1232000    1.0582497   -7.5714971    401.65742  0.027168386  0.027419839            1 
 1233000    1.0488861   -7.5335941    401.88441  0.027161693  0.027412722            1 
 1234000    1.0688358    -7.559406    402.27405  0.027165995  0.027405781            2 
 1235000    1.0479329   -7.5987182    401.01085  0.027058762  0.027398769            1 
 1236000    1.0428178   -7.5347661    404.05803  0.027242316  0.027391855            1 
 1237000    1.0526497   -7.5622686     402.8679  0.027140117  0.027384902            2 
 1238000    1.0759324    -7.520223    403.71089  0.027174939  0.027377913            1 
 1239000    1.0686736   -7.5667959    403.02129  0.027106624  0.027370996            1 
 1240000    1.0696746   -7.5414083     402.5563  0.027053515  0.027363783            3 
 1241000    1.0289962   -7.5600614    402.75523  0.027045073  0.027356682            1 
 1242000    1.0432776   -7.5334593    403.96359  0.027104374  0.027349454            2 
 1243000    1.0671479   -7.5820944    403.46541   0.02704917  0.027342375            1 
 1244000    1.0671924    -7.532401    404.94847  0.027126773  0.027335114            2 
 1245000    1.0459444   -7.5344184    404.80031  0.027095068  0.027328049            1 
 1246000    1.0591404   -7.5359016    405.76227  0.027137659  0.027321048            8 
 1247000    1.0521853   -7.5663801    405.38084  0.027090406  0.027314093            1 
 1248000    1.0588403   -7.5621477    406.31735  0.027131234  0.027307256            6 
 1249000    1.0550135   -7.5299092    405.69228  0.027067806  0.027300453            5 
 1250000    1.0446682   -7.5928803    406.15105  0.027076737  0.027293658            3 
 1251000     1.059662   -7.5900169     405.7449  0.027028038  0.027286755            2 
 1252000    1.0341012   -7.5516614    406.42752  0.027051885  0.027279807            2 
 1253000    1.0243305    -7.568974    407.26201  0.027085795  0.027273049            1 
 1254000    1.0596511   -7.5499398    406.36813  0.027004793  0.027266161            1 
 1255000    1.0527113   -7.5569458     406.6753  0.027003672  0.027259374            2 
 1256000    1.0401008   -7.5379124      408.537  0.027105692  0.027252582            1 
 1257000    1.0641792   -7.5475357    408.73942  0.027097548  0.027245793            1 
 1258000    1.0147262   -7.6182564    407.19982  0.026974021  0.027238947            5 
 1259000    1.0505891   -7.5459563    409.79505  0.027124375  0.027232134            1 
 1260000    1.0600507   -7.5331419    409.60046  0.027089978  0.027225509            2 
 1261000    1.0419082   -7.5677895    409.10003  0.027035424   0.02721864            2 
 1262000    1.0392738     -7.54316    409.34623  0.027030258  0.027211808            1 
 1263000    1.0557491   -7.5800255    408.51642  0.026954105  0.027204995            4 
 1264000    1.0708865   -7.5397265    408.37109    0.0269232  0.027198187            1 
 1265000    1.0518907   -7.5569875    409.95041  0.027005956  0.027191467            1 
 1266000    1.0283469   -7.5507637    409.37032   0.02694644  0.027184703            1 
 1267000    1.0395195   -7.6018816    409.26108  0.026917987  0.027177833            2 
 1268000    1.0446846   -7.5843571    409.21588  0.026893788  0.027170913            3 
 1269000     1.065719   -7.5902849    409.22592  0.026873254  0.027163992            3 
 1270000    1.0511886   -7.5640491    410.44079   0.02693181  0.027157138            2 
 1271000    1.0453834   -7.5401283    410.14051  0.026890933  0.027150241            2 
 1272000    1.0511908   -7.5505702    411.23556  0.026941533  0.027143348            2 
 1273000    1.0050998   -7.5765964    411.39995   0.02693113  0.027136544            2 
 1274000    1.0329745   -7.5830251    412.60424  0.026988765  0.027129785            2 
 1275000    1.0357373    -7.547621    411.32792  0.026884178  0.027123013            1 
 1276000     1.033684   -7.5743754    411.34496  0.026864221  0.027116189            2 
 1277000    1.0601024   -7.5916403    411.67063  0.026864437  0.027109365            1 
 1278000    1.0454484   -7.5960966    412.14089   0.02687408  0.027102458            2 
 1279000     1.044767   -7.6051592     412.4516  0.026873313   0.02709542            2 
 1280000    1.0448772   -7.5976385    411.61199  0.026797655   0.02708838            2 
 1281000    1.0448628   -7.5708686    412.52457  0.026836102  0.027081389            2 
 1282000    1.0610718   -7.5307819    413.92524  0.026906217  0.027074586            1 
 1283000    1.0209194   -7.5545386    413.05341  0.026828618  0.027067623            1 
 1284000    1.0504663   -7.6066062    412.16061   0.02674978  0.027060596            5 
 1285000    1.0487329   -7.5722441    413.56907  0.026820303  0.027053512            2 
 1286000    1.0379553   -7.5693741    412.83968  0.026752183  0.027046305            2 
 1287000      1.04756   -7.5733084    413.71666   0.02678818  0.027039188            1 
 1288000    1.0427577    -7.548959    414.96732    0.0268483  0.027032234            4 
 1289000    1.0423642   -7.5841506    414.15607  0.026775024  0.027025278            2 
 1290000    1.0493758   -7.5840103    415.35144  0.026831488  0.027018324            2 
 1291000    1.0557838   -7.5251803    414.83768  0.026777542  0.027011447            1 
 1292000      1.04702   -7.5822438    414.65572   0.02674508  0.027004616            1 
 1293000    1.0339902   -7.5826389    416.38192  0.026835649  0.026997718            1 
 1294000    1.0198421   -7.5763167    415.36601  0.026749486  0.026990883            1 
 1295000     1.049897   -7.5550793    416.54208   0.02680451  0.026984016            3 
 1296000    1.0277428   -7.5329458    417.28454  0.026831568  0.026977169            1 
 1297000    1.0621327   -7.5647797    416.49639  0.026760241  0.026970291            2 
 1298000    1.0457928   -7.6044019    416.29904  0.026726955  0.026963344            1 
 1299000    1.0293758   -7.6100706    416.47023  0.026717362  0.026956345            1 
 1300000    1.0316187   -7.6272868    415.70782  0.026647937  0.026949253            2 
 1301000    1.0550479   -7.5839097    416.33564  0.026667668  0.026942296            3 
 1302000    1.0638502   -7.5378574    417.55005  0.026724914  0.026935357            2 
 1303000    1.0393894   -7.5702346    417.63165  0.026709622  0.026928518            1 
 1304000    1.0576371   -7.5631968    417.72973  0.026695407   0.02692168            2 
 1305000    1.0405286    -7.546284    418.15068  0.026701832  0.026914896            2 
 1306000    1.0482949    -7.555522    418.13023  0.026680081  0.026908046            2 
 1307000    1.0335626   -7.5372931    419.13915  0.026723996  0.026901199            2 
 1308000    1.0433295   -7.5620228    418.44916  0.026659605  0.026894258            2 
 1309000    1.0289185   -7.5604213    418.54253  0.026645183  0.026887223            2 
 1310000    1.0498567    -7.568818    419.60443  0.026692394  0.026880216            2 
 1311000    1.0402127   -7.5923326    419.45451  0.026662504  0.026873299            4 
 1312000    1.0489475   -7.5672028    420.04547  0.026679718  0.026866504            1 
 1313000     1.063186   -7.5646369    419.89757  0.026650011  0.026859637            2 
 1314000    1.0564791   -7.5928434    419.16354  0.026583177   0.02685258            1 
 1315000    1.0400766   -7.5676084    420.09151  0.026621769  0.026845547            2 
 1316000    1.0432671   -7.5839517    419.63969  0.026572929  0.026838506            1 
 1317000    1.0416483   -7.5431624    421.52712  0.026672179  0.026831467            3 
 1318000    1.0473189   -7.5974585    420.39377  0.026580284  0.026824428            2 
 1319000    1.0548184   -7.5688055    420.09775   0.02654143  0.026817309            1 
 1320000     1.034069   -7.6412031    419.36663  0.026475166  0.026810154            1 
 1321000    1.0461379    -7.621252     419.9671  0.026493004  0.026802809            2 
 1322000    1.0280296   -7.5910556    420.16309  0.026485319  0.026795507            1 
 1323000    1.0373865    -7.613733    421.80322  0.026568608   0.02678831            2 
 1324000    1.0686537   -7.5805211    421.67643  0.026540561  0.026781155            2 
 1325000    1.0449431   -7.5865724     421.3008  0.026496906  0.026773833            1 
 1326000    1.0358876   -7.6140941    420.64135  0.026435479  0.026766567            1 
 1327000    1.0164558   -7.5786527    421.39003  0.026462574  0.026759324            2 
 1328000    1.0403532   -7.5765278    423.24197  0.026558859  0.026752157            2 
 1329000    1.0330207   -7.5929941    422.72308  0.026506338  0.026744934            1 
 1330000    1.0656974   -7.6018707    422.37099  0.026464348  0.026737755            1 
 1331000    1.0319783   -7.5457037    423.60548  0.026521755   0.02673066            3 
 1332000    1.0384025   -7.5735873    423.29037   0.02648213  0.026723594            1 
 1333000    1.0459048   -7.5751859    423.82277  0.026495547  0.026716462            1 
 1334000     1.032475   -7.5910945     423.0098    0.0264249  0.026709269            1 
 1335000    1.0359774   -7.6052226     424.1945  0.026479057  0.026702255            3 
 1336000    1.0185706   -7.5886384     424.7881  0.026496264  0.026695176            3 
 1337000    1.0360909   -7.5986211    423.27902  0.026382387  0.026688187            2 
 1338000    1.0196722   -7.5585954    424.52478  0.026440258  0.026680967            1 
 1339000    1.0350214   -7.5907517    424.01628  0.026388865   0.02667385            1 
 1340000    1.0234946   -7.6154174    424.09115  0.026373828  0.026666649            1 
 1341000    1.0229497   -7.5651304    424.21353  0.026361766  0.026659489            4 
 1342000    1.0230611    -7.546917    425.83487  0.026442801  0.026652355            1 
 1343000    1.0289243    -7.600561      424.993  0.026370874  0.026645187            2 
 1344000    1.0369327   -7.5962517     425.8217  0.026402635  0.026638081            2 
 1345000    1.0351646   -7.5776185    425.93078  0.026389763  0.026630976            1 
 1346000    1.0360186   -7.5606807    425.53859  0.026345876  0.026623984            2 
 1347000    1.0532221   -7.6199624     426.6018  0.026392094  0.026616978            2 
 1348000    1.0635027   -7.5996546     425.9005   0.02632916   0.02661008            3 
 1349000    1.0463052   -7.6076722    425.99495  0.026315477  0.026602855            1 
 1350000    1.0174434   -7.5568662    427.06166  0.026361831  0.026595688            2 
 1351000    1.0459104   -7.5675932    426.99508  0.026338211  0.026588652            5 
 1352000    1.0013093   -7.5964656    426.90805  0.026313366  0.026581529            3 
 1353000    1.0629977    -7.590828    427.85563  0.026352281  0.026574339            2 
 1354000    1.0209484   -7.5230599    429.66349  0.026444085  0.026567109            5 
 1355000    1.0203957   -7.6068697     427.7323    0.0263058  0.026559909            3 
 1356000    1.0144471   -7.5726007     427.6875  0.026283647  0.026552782            1 
 1357000    1.0303925   -7.6099027    428.39953  0.026308003  0.026545789            4 
 1358000    1.0299986   -7.6152875    429.09508  0.026331313  0.026538634            2 
 1359000     1.037135   -7.5920129    428.46304  0.026273181    0.0265314            1 
 1360000    1.0210329   -7.6364666    428.72174  0.026269714  0.026524224            2 
 1361000    1.0489762   -7.6201726    428.84966  0.026258245  0.026517022            1 
 1362000    1.0178682   -7.6021343    429.99852  0.026309259  0.026509856            1 
 1363000    1.0425591   -7.6058478    428.69545  0.026210287  0.026502639            2 
 1364000     1.044338   -7.5796609    429.68133  0.026251303  0.026495524            2 
 1365000    1.0353982   -7.5897644    430.24314   0.02626637  0.026488337            2 
 1366000      1.03758   -7.5751904    428.76904  0.026157213  0.026481033            3 
 1367000    1.0434408   -7.5983852    429.24526  0.026167109  0.026473756            2 
 1368000    1.0214311   -7.5908043    430.12023  0.026201281   0.02646633            2 
 1369000    1.0575645   -7.5759167    430.93003  0.026231436  0.026458997            1 
 1370000    1.0389318   -7.5938049    430.53238  0.026188101  0.026451844            3 
 1371000     1.033413   -7.5846327    430.40812  0.026161446  0.026444485            3 
 1372000    1.0346168   -7.5933227    431.07336  0.026182784  0.026437306            2 
 1373000    1.0096398   -7.6356778      431.387   0.02618275  0.026430151            1 
 1374000    1.0369738   -7.6118113    430.24895  0.026094672  0.026422926            3 
 1375000    1.0215365   -7.5639959    431.32892  0.026141147  0.026415613            3 
 1376000    1.0226918   -7.5925252    431.21276  0.026115114    0.0264082            2 
 1377000    1.0301972   -7.5968607    431.49523  0.026113243  0.026400637            2 
 1378000    1.0384294   -7.5987649    432.30646  0.026143351  0.026393261            2 
 1379000     1.015226   -7.5877753    431.30867  0.026064097  0.026385719            3 
 1380000    1.0194582   -7.6137455     431.4308  0.026052584  0.026378158            1 
 1381000    1.0196422   -7.6216707    432.96579  0.026126345  0.026370558            1 
 1382000    1.0317482    -7.618618    430.01628  0.025929588   0.02636286            3 
 1383000    1.0319075   -7.6349311    431.90638  0.026024728  0.026355148            3 
 1384000    1.0393419    -7.629537    430.27464  0.025907674  0.026347476            2 
 1385000      1.04185   -7.5878235    433.88811  0.026106384  0.026340005            2 
 1386000    1.0465877   -7.6387381    432.21798  0.025987132  0.026332576            4 
 1387000    1.0567032   -7.6173753    432.91738  0.026010417  0.026325069            2 
 1388000    1.0366953   -7.5752326    433.65469  0.026035945  0.026317605            1 
 1389000    1.0360929   -7.5887169     433.7674  0.026023962  0.026310128            2 
 1390000    1.0460166   -7.6000598    434.87874  0.026071867   0.02630289            2 
 1391000    1.0318057   -7.6311073    433.33244  0.025960487  0.026295455            3 
 1392000    1.0055297   -7.6056877    433.46952  0.025950043  0.026288066            2 
 1393000    1.0432895   -7.6250943    433.33801  0.025923547  0.026280566            1 
 1394000    1.0452835   -7.6649554    433.31014  0.025903284  0.026273206            2 
 1395000    1.0494535   -7.6023934    435.21353  0.025998419  0.026265802            4 
 1396000    1.0112206    -7.602842    434.89627  0.025960857   0.02625846            2 
 1397000    1.0197042   -7.6319524    436.27791   0.02602469  0.026251234            2 
 1398000     1.009138   -7.6586601    434.36434  0.025892009  0.026243762            2 
 1399000     1.030519   -7.6238508    434.73936   0.02589584  0.026236449            1 
 1400000      1.01652   -7.5925158     436.3957  0.025975935   0.02622904            1 
 1401000    1.0416717   -7.6227631    434.82152  0.025863759  0.026221559            2 
 1402000    1.0272149   -7.5998163    436.21669  0.025928239  0.026214109            3 
 1403000     1.046182   -7.6265417     435.3923  0.025860792  0.026206787            1 
 1404000    1.0158503   -7.6131121    435.45058  0.025845832  0.026199331            2 
 1405000     1.030707    -7.631446    436.29718   0.02587765  0.026191889            1 
 1406000    1.0080952    -7.608514    437.37929  0.025923381  0.026184522            4 
 1407000    1.0173089   -7.6219625    436.01014  0.025823865  0.026177154            3 
 1408000    1.0326372   -7.6222257    436.01125   0.02580559  0.026169729            5 
 1409000     1.014267   -7.6699631    436.52424  0.025817615   0.02616229            2 
 1410000    1.0278748   -7.6478945    437.05873  0.025830894  0.026154739            1 
 1411000    1.0333609    -7.636245    436.67081  0.025789677  0.026147313            2 
 1412000    1.0185367   -7.5875781    437.22055  0.025803857  0.026139965            2 
 1413000    1.0209227   -7.6034426    437.64454    0.0258106  0.026132562            4 
 1414000    1.0195786   -7.6131853    438.24375  0.025827661  0.026125157            2 
 1415000    1.0322775   -7.6202766    437.84477  0.025785911  0.026117568            2 
 1416000    1.0216169   -7.5965479    438.11385  0.025783537  0.026110073            3 
 1417000   0.99917001   -7.5874573    440.22967  0.025889771  0.026102625            1 
 1418000    1.0266815    -7.609882    439.71188  0.025841084  0.026095283            2 
 1419000    1.0120661   -7.6224193    439.65798  0.025819707  0.026087862            3 
 1420000    1.0219356   -7.6078963    438.41278   0.02572845  0.026080445            4 
 1421000    1.0344969   -7.6168772    438.96578  0.025742774  0.026073101            2 
 1422000    1.0224631    -7.561347    438.36407  0.025689408  0.026065771            3 
 1423000    1.0250186   -7.5820166    440.86997  0.025818106  0.026058479            2 
 1424000    1.0153247   -7.5909729    440.71189  0.025790724  0.026051113            1 
 1425000    1.0251285   -7.6303725    440.58231  0.025765047  0.026043713            1 
 1426000    1.0379347   -7.6160642    441.45199  0.025797802  0.026036411            1 
 1427000    1.0354657   -7.6555289    440.61479  0.025730833  0.026029223            3 
 1428000    1.0290831   -7.6310302    441.45176  0.025761657  0.026021767            2 
 1429000    1.0114032   -7.6488262    441.02072  0.025718493  0.026014318            2 
 1430000    1.0329831   -7.6303033    441.05743  0.025702647   0.02600691            4 
 1431000    1.0258489    -7.637374    440.55153  0.025655225  0.025999462            3 
 1432000    1.0214325   -7.6344318    441.32708  0.025682442  0.025991856            2 
 1433000    1.0414721   -7.6068757     441.2961  0.025662718  0.025984427            1 
 1434000     1.021809    -7.615499    443.04118  0.025746233  0.025977176            2 
 1435000    1.0467133   -7.6499355    441.80706  0.025656624  0.025969788            3 
 1436000     1.011756   -7.6382711     441.7876  0.025637628  0.025962326            2 
 1437000    1.0575525   -7.6419045    441.68292  0.025613716  0.025954784            1 
 1438000    1.0086757   -7.6162924    442.65037  0.025651968  0.025947229            2 
 1439000    1.0236209   -7.6214113    442.46931  0.025623657  0.025939759            2 
 1440000    1.0178931   -7.6514803     442.4898  0.025607048  0.025932313            2 
 1441000    1.0278419   -7.6241746    443.47268  0.025646118  0.025924851            1 
 1442000    1.0344087   -7.6401535    443.47441  0.025628433  0.025917559            2 
 1443000    1.0174605   -7.6163877    443.24003  0.025597137  0.025910215            2 
 1444000    1.0322139   -7.6243346    444.77568  0.025668033  0.025902825            1 
 1445000     1.026869   -7.6479427    444.74365  0.025648423  0.025895431            2 
 1446000    1.0179243   -7.6145806    443.80369  0.025576515  0.025888117            2 
 1447000    1.0071402   -7.6435093     443.6774  0.025551566  0.025880681            1 
 1448000    1.0303907   -7.6607018    443.44812  0.025520725  0.025873153            3 
 1449000     1.027722   -7.6575117    444.64189  0.025571767  0.025865746            3 
 1450000    1.0180061   -7.6699513    445.26155  0.025589744  0.025858235            2 
 1451000    1.0077691   -7.6324787    443.95033  0.025496803   0.02585068            3 
 1452000    1.0295521   -7.6339535    444.61457  0.025517365  0.025843237            1 
 1453000    1.0255745   -7.6491406    444.77361  0.025508925  0.025835877            1 
 1454000   0.99038655   -7.6321993    446.02216  0.025562939  0.025828515            1 
 1455000    1.0015886   -7.6007443    446.59606  0.025578239  0.025821252            2 
 1456000    1.0127775   -7.6467838    446.56225  0.025558737  0.025814006            3 
 1457000    1.0425467   -7.6461131    446.41812  0.025532951  0.025806591            1 
 1458000    1.0572704    -7.632126    447.01539  0.025549576   0.02579919            1 
 1459000    1.0320031   -7.6213577    447.25275  0.025545622  0.025791889            2 
 1460000     1.020802   -7.6385615    446.03189  0.025458441  0.025784595            2 
 1461000    1.0158624   -7.6388544    447.31489  0.025514197   0.02577738            2 
 1462000    1.0223044   -7.6388294    448.89177  0.025586626  0.025770084            5 
 1463000    1.0133781   -7.6102997    448.89058  0.025569069  0.025762825            2 
 1464000    1.0171197   -7.6359042     447.5647  0.025476133  0.025755635            6 
 1465000    1.0071753   -7.6218874    448.52696  0.025513479   0.02574849            3 
 1466000     1.003392   -7.6113171    449.20599  0.025534674  0.025741248            1 
 1467000    1.0291479   -7.5765723    450.38788  0.025584406  0.025734061            3 
 1468000    1.0106077   -7.6158333    447.76365  0.025418009  0.025726936            2 
 1469000     1.026962   -7.6247989     449.4024  0.025493669  0.025719729            1 
 1470000   0.98248678   -7.7036661    448.54586   0.02542777  0.025712561            1 
 1471000    1.0334631   -7.6416574    449.54596   0.02546714  0.025705171            1 
 1472000    1.0019619   -7.6466019    447.01567  0.025306593  0.025697752            3 
 1473000    1.0294761   -7.6222133    449.93541  0.025454595  0.025690372            5 
 1474000    1.0183526   -7.6411523    450.88649  0.025491095  0.025683091            1 
 1475000    1.0179985   -7.6798701    449.94233  0.025420471  0.025675751            2 
 1476000    1.0357335   -7.6085301    450.98712  0.025462236  0.025668434            2 
 1477000    1.0224451   -7.6333561    450.84213  0.025436816  0.025661169            1 
 1478000    1.0306239   -7.6482269    450.20093  0.025383454  0.025653769            1 
 1479000    1.0066281   -7.6771648    450.67591  0.025393053  0.025646399            2 
 1480000    1.0227272   -7.6670751    450.06257  0.025341361  0.025639075            4 
 1481000    1.0101434   -7.6586015    451.82882  0.025423634  0.025631884            2 
 1482000    1.0204829   -7.6313899    451.85606   0.02540801  0.025624691            2 
 1483000    1.0090224   -7.6793843    451.64802  0.025379187  0.025617454       -1e+20 
 1484000    1.0098292   -7.6378568    451.05407  0.025328733   0.02561019            3 
 1485000    1.0177673   -7.6419137    452.66836  0.025402265  0.025602816            2 
 1486000    1.0098127   -7.6283471    451.93804  0.025344215  0.025595459            3 
 1487000    1.0181596   -7.6851121    451.13158  0.025281976  0.025588275            2 
 1488000   0.99195147   -7.6445946    453.12456  0.025376599   0.02558117            1 
 1489000    1.0185184   -7.6250569    453.27523  0.025367989  0.025573952            2 
 1490000    1.0251218   -7.6412264    452.91197  0.025330647   0.02556674            2 
 1491000     1.019821    -7.622426    454.20502  0.025385928  0.025559691            2 
 1492000    1.0080113   -7.6454917    453.79505  0.025346015  0.025552582            1 
 1493000    1.0076382   -7.6263628    454.65148  0.025376841   0.02554553            2 
 1494000    1.0251063   -7.5926793    454.88639  0.025372958  0.025538487            2 
 1495000    1.0123591   -7.6615255    453.83082  0.025297147  0.025531447            1 
 1496000    1.0142421   -7.6624903      453.883  0.025283144  0.025524202            3 
 1497000   0.99887789    -7.593049    454.40675   0.02529541  0.025516925            3 
 1498000    1.0121093   -7.6325487    454.29043  0.025272053  0.025509831            2 
 1499000    1.0406331   -7.6671854    454.54851  0.025269541  0.025502611            2 
 1500000    1.0133809   -7.6555378    454.17948  0.025232194  0.025495354            3 
 1501000   0.99487994   -7.6557306    455.00244  0.025261073  0.025488179            2 
 1502000     1.008275   -7.6428024    455.49672  0.025271678   0.02548097            2 
 1503000    1.0130318   -7.6696467    455.34055  0.025246205  0.025473788            3 
 1504000      1.00777   -7.6677801    455.56473   0.02524184  0.025466714            1 
 1505000     1.014457   -7.6576176    456.05705  0.025252328  0.025459609            1 
 1506000    1.0167334   -7.6638626    456.50992   0.02526062  0.025452568            1 
 1507000    1.0346491   -7.6633199    457.07209  0.025274944  0.025445456            1 
 1508000    1.0291354   -7.6473613    457.59054  0.025286834  0.025438466            2 
 1509000    1.0068317   -7.6970358    455.84026  0.025173419  0.025431375            2 
 1510000    1.0073164   -7.6515375    456.36301  0.025185597  0.025424204            5 
 1511000    1.0156597   -7.6390201    457.10033  0.025209592  0.025416986            1 
 1512000   0.99463867   -7.6479537    457.75214  0.025228844  0.025409869            1 
 1513000     1.021089    -7.682445    456.69981  0.025154208  0.025402694            1 
 1514000    1.0021425   -7.6485815    457.41428   0.02517692  0.025395528            3 
 1515000    1.0119408    -7.678008    455.54006  0.025057209  0.025388213            1 
 1516000    1.0362675   -7.6437186    457.88569  0.025169618  0.025380938            3 
 1517000    1.0277826   -7.6372466    458.38066  0.025180216  0.025373827            3 
 1518000    1.0001141   -7.6728293    458.41241  0.025165371  0.025366649            7 
 1519000    1.0047118   -7.6397668    457.83493  0.025117123  0.025359388            3 
 1520000    1.0247351   -7.6614441    458.28807  0.025125443   0.02535213            1 
 1521000   0.99889137    -7.661747    458.03563  0.025095092  0.025344929            1 
 1522000    1.0048907   -7.6447749    458.43064  0.025100232  0.025337718            4 
 1523000   0.99566703   -7.6546314    458.49448  0.025087244  0.025330478            3 
 1524000    1.0252808   -7.6792774    458.93192  0.025094702  0.025323203            3 
 1525000   0.99774106   -7.7340319    456.91141  0.024967837  0.025315778            3 
 1526000    1.0035698   -7.6639958    459.68845  0.025103127  0.025308417            2 
 1527000   0.99228643   -7.6507522    461.46004  0.025183368  0.025301152            4 
 1528000   0.99710845   -7.6636458     459.1767  0.025042359  0.025293878            2 
 1529000     0.993179   -7.6826411    459.82955  0.025061563   0.02528665       -1e+20 
 1530000    1.0004239   -7.6291658    459.62185   0.02503387  0.025279397            2 
 1531000    1.0239511   -7.6927571    460.18769  0.025048318  0.025272104            3 
 1532000       1.0105   -7.6584986    461.79997  0.025119668  0.025265026            1 
 1533000    0.9929053    -7.661641    460.74186  0.025045763  0.025257795            1 
 1534000    1.0161177   -7.6504986    462.16356  0.025106669  0.025250686            3 
 1535000   0.99452508   -7.6856808    461.18072  0.025036955  0.025243544            3 
 1536000   0.99884402   -7.6326038    461.39607  0.025032339  0.025236467            2 
 1537000    1.0126646   -7.6548984    462.04094  0.025051016  0.025229451            2 
 1538000    1.0098678   -7.6795455     461.3291  0.024996159  0.025222396            1 
 1539000     1.012144   -7.6400409    462.66517  0.025052262  0.025215372            3 
 1540000    1.0031691   -7.6366049    464.20967  0.025119571  0.025208348            2 
 1541000    0.9959378   -7.6315542    463.73872  0.025077803  0.025201466            1 
 1542000    1.0260561   -7.6736336    463.00191   0.02502172  0.025194498            3 
 1543000    1.0357491     -7.68138    463.59532  0.025037552   0.02518761            2 
 1544000   0.98938055   -7.6815526    462.70965  0.024973534   0.02518065            3 
 1545000    1.0173506    -7.661963    464.11814  0.025033341  0.025173686            2 
 1546000    1.0052167    -7.660215    464.59247  0.025042716  0.025166783            3 
 1547000    1.0074596   -7.6524965     464.1266  0.025001433  0.025159862            1 
 1548000    1.0042841   -7.7112195    463.93754  0.024975105   0.02515293            3 
 1549000   0.99548153   -7.6673295    464.45129   0.02498662  0.025145956            1 
 1550000    1.0090847   -7.6833528    464.46936  0.024971471  0.025138876            2 
 1551000    1.0154913   -7.6769339    465.52968  0.025012341  0.025131992            3 
 1552000    1.0307955   -7.7048484    465.02375  0.024969059  0.025125046            1 
 1553000   0.99464469    -7.685498    464.70779  0.024936027  0.025118058            1 
 1554000    0.9966769    -7.683491    465.37381  0.024955695   0.02511106            2 
 1555000    1.0066861   -7.6628676    465.24183  0.024932574  0.025104196            3 
 1556000    1.0063287   -7.7232674    465.61808  0.024936701  0.025097256            1 
 1557000    1.0035164   -7.6886582    466.65278  0.024976064  0.025090373            1 
 1558000    1.0008159   -7.6597736    466.13665  0.024932427  0.025083499            1 
 1559000    1.0033561    -7.694854    464.76058  0.024842879  0.025076625            2 
 1560000    1.0115768   -7.6569844    467.13103   0.02495358  0.025069564            1 
 1561000    1.0001525   -7.6833772    466.35957  0.024896411  0.025062467            1 
 1562000    1.0213791   -7.6801969    466.84734  0.024906495  0.025055417            2 
 1563000    1.0081115   -7.6728972    465.58447  0.024823228  0.025048372            1 
 1564000   0.99951272     -7.67041    466.36163  0.024848765  0.025041421            2 
 1565000   0.98639261    -7.701081    467.00196  0.024866984  0.025034452            1 
 1566000    1.0241781   -7.6754954    467.39706   0.02487213  0.025027444            2 
 1567000    1.0204493   -7.6554353    467.71116  0.024872961  0.025020448            5 
 1568000    1.0022192   -7.6895113    468.17284  0.024881635  0.025013454            1 
 1569000    1.0232105   -7.6863186    468.33848  0.024874574  0.025006508            1 
 1570000   0.99341042   -7.6903959    467.62646  0.024820937  0.024999559            2 
 1571000    1.0074028    -7.678995    468.25992   0.02483874  0.024992597            1 
 1572000   0.98713917     -7.68386    468.13026  0.024816065  0.024985618            1 
 1573000   0.99271542   -7.6761948    468.27842  0.024808138   0.02497862            2 
 1574000    1.0127907   -7.6644002    468.74763  0.024817219  0.024971639            1 
 1575000    1.0152385   -7.6950016    468.91227  0.024810173  0.024964681            1 
 1576000    1.0266573   -7.6795279    469.34567  0.024817347  0.024957804            1 
 1577000   0.98470208   -7.7242135    468.01544  0.024731317  0.024950889            3 
 1578000    1.0171014   -7.6948183     469.6327  0.024801051  0.024943948            1 
 1579000   0.99389786   -7.7003241    470.23912  0.024817348  0.024937028            2 
 1580000    1.0122471   -7.6985137    469.86724  0.024782027  0.024930084            3 
 1581000   0.98612075   -7.6933593     471.4625  0.024850438  0.024923275            1 
 1582000   0.98262902   -7.6802538    470.58466  0.024788488  0.024916503            2 
 1583000   0.99889503   -7.7058033    470.24988  0.024755205  0.024909533            1 
 1584000    1.0064443   -7.6772602    470.09322  0.024731335  0.024902729            2 
 1585000   0.99985243   -7.7044065    471.10431  0.024768891  0.024895916            2 
 1586000    1.0082356   -7.6884518    471.86128  0.024793047  0.024889201            1 
 1587000    1.0147146   -7.7033801    471.69852  0.024768878  0.024882379            2 
 1588000    1.0009143   -7.7041126    470.72374  0.024702127  0.024875565            3 
 1589000   0.98106058   -7.6523604    473.25785   0.02481948  0.024868794            3 
 1590000   0.99416712   -7.6860221    471.75057  0.024724873  0.024861911            2 
 1591000    0.9909129   -7.7228575    471.29007  0.024685212   0.02485503            1 
 1592000    1.0023081   -7.6789303    473.86649  0.024804569  0.024848217            3 
 1593000   0.97721572   -7.6376274    472.41991  0.024713324   0.02484143            2 
 1594000    1.0107745   -7.6507663    472.50896  0.024702476  0.024834569            1 
 1595000   0.98879738   -7.6576179    473.81195  0.024755066  0.024827712            2 
 1596000   0.99793252   -7.6895561    470.64687  0.024574293  0.024820872            2 
 1597000   0.99450396   -7.7124262    473.58675  0.024712312  0.024813939            1 
 1598000    1.0083644   -7.7030921    472.30938  0.024630235  0.024806997            1 
 1599000     1.000315   -7.6769216    473.29619   0.02466626  0.024800071            1 
 1600000    1.0090534   -7.7246563     473.2702  0.024649489  0.024793113            1 
 1601000   0.98350947   -7.6888414    474.09979  0.024677274  0.024786163            3 
 1602000   0.99587776   -7.7197504    472.97008  0.024603104  0.024779274            2 
 1603000   0.99015978   -7.7113142    473.05073  0.024591949  0.024772346            1 
 1604000   0.97733105   -7.6903105    474.66357   0.02466041  0.024765497            1 
 1605000    1.0285355     -7.69809    473.87088  0.024603888  0.024758622            2 
 1606000    1.0183173   -7.6789889    472.98864   0.02454279  0.024751789            2 
 1607000   0.97663377   -7.7006022    475.36785  0.024650895  0.024744883            1 
 1608000      1.01106   -7.6806176    475.92595  0.024664488  0.024738182            2 
 1609000    1.0102016   -7.6827511    474.82552  0.024592165   0.02473149            3 
 1610000    1.0003148   -7.7098377    474.68091  0.024569405   0.02472473            3 
 1611000   0.99199139   -7.7281687    475.41707  0.024592234  0.024717932           10 
 1612000   0.98028593    -7.685673    475.71664  0.024592465  0.024711139            1 
 1613000   0.99950003   -7.7178846    475.40745  0.024561245  0.024704379            2 
 1614000    1.0107072   -7.7040932    477.16353  0.024636696  0.024697643            1 
 1615000   0.98300605   -7.6662686    476.61424  0.024593098  0.024690866            6 
 1616000   0.99365415   -7.6936857    476.71686  0.024583171  0.024684007            1 
 1617000   0.97394493   -7.7262356    477.31497  0.024598793  0.024677249            6 
 1618000   0.98091081   -7.7014214    477.69265  0.024603041  0.024670508            1 
 1619000   0.99302077   -7.7291892    477.08904  0.024556776  0.024663824            1 
 1620000   0.98433211   -7.6611463     479.3578  0.024658323  0.024657162            3 
 1621000    0.9793289   -7.6946768    476.92957   0.02451828  0.024650458            2 
 1622000    1.0031201   -7.7344705    478.87003  0.024602858  0.024643724            3 
 1623000   0.98589047   -7.6678678    480.41962  0.024667264  0.024637134            3 
 1624000   0.99628214   -7.7082066    477.13432  0.024483493  0.024630451            3 
 1625000    1.0043989   -7.7061769     479.3429  0.024581687  0.024623777            2 
 1626000   0.96957884   -7.6897225    479.68588  0.024584147  0.024617041            3 
 1627000   0.98634495   -7.6838488    479.84092  0.024576978  0.024610346            2 
 1628000   0.96684161   -7.7166419    478.07459  0.024471468  0.024603626            2 
 1629000   0.99679691   -7.7496684      479.101  0.024508952  0.024596787            3 
 1630000   0.98358631   -7.6848318    479.58876  0.024518853   0.02459001            2 
 1631000    1.0378795   -7.7094609    478.95486  0.024471432  0.024583352            2 
 1632000    1.0036903    -7.701086    479.62088  0.024490445  0.024576674            1 
 1633000    0.9868886   -7.6953631    480.05816  0.024497763  0.024569966            3 
 1634000   0.99476556   -7.6964754    479.90529  0.024474974  0.024563279            1 
 1635000   0.98609712   -7.7263205    479.82813  0.024456072  0.024556603            3 
 1636000   0.99459771   -7.6973911    480.76844   0.02448902  0.024549815            1 
 1637000   0.98623729   -7.7105892    480.97854  0.024484755  0.024543024            3 
 1638000    1.0064812   -7.7079536    480.64327  0.024452751  0.024536288            5 
 1639000   0.98961967   -7.6969964    481.21176  0.024466736  0.024529532            1 
 1640000     1.010523   -7.7463026    480.53757  0.024417559  0.024522643            2 
 1641000    1.0043374   -7.7357997    479.15073  0.024332253  0.024515802            1 
 1642000    1.0188095   -7.7377138    480.28197  0.024374846  0.024508842            2 
 1643000    1.0118372   -7.7281171    480.15078  0.024353357  0.024501902            3 
 1644000   0.97263586   -7.7342646    481.51227  0.024407556  0.024495033            2 
 1645000   0.99181502   -7.7282688    480.74467  0.024353833  0.024488171            2 
 1646000    0.9856792   -7.7069891    482.29498  0.024417526  0.024481299            4 
 1647000   0.99262031    -7.731751    481.47653   0.02436129  0.024474434            2 
 1648000    0.9897758   -7.7472555    481.71326  0.024358478  0.024467625            3 
 1649000   0.97034857   -7.7150053    482.07348   0.02436191  0.024460882            2 
 1650000   0.96704501   -7.7203457    484.12732  0.024450875  0.024454199            1 
 1651000   0.99336698   -7.6891318    483.94823  0.024427026  0.024447507            1 
 1652000   0.99220957   -7.7038119    484.70217  0.024450271  0.024440912            1 
 1653000   0.97165224   -7.7209281    482.88069  0.024343653  0.024434288            2 
 1654000    0.9676694   -7.7146443    483.50145   0.02436021  0.024427633            2 
 1655000   0.98216346   -7.7032732    483.59456  0.024350179  0.024420954            2 
 1656000   0.95502847   -7.7105314    484.01243  0.024356503  0.024414306            3 
 1657000   0.99484722    -7.757554    483.13866  0.024297861  0.024407601            1 
 1658000   0.98985991   -7.7010074    482.93903  0.024273172  0.024400988            2 
 1659000    1.0061322   -7.7294171    484.65622  0.024344797  0.024394431            1 
 1660000    1.0063757   -7.7163651    485.08194  0.024351503  0.024387776            1 
 1661000   0.97804836   -7.7120115    484.37885  0.024301568  0.024380964            2 
 1662000   0.99299774   -7.7500448    481.97102  0.024166216   0.02437414            2 
 1663000   0.96378793    -7.761842    484.22872  0.024264819  0.024367299            1 
 1664000    1.0051545   -7.7245353    484.32226  0.024254921  0.024360522            5 
 1665000   0.99716364   -7.7309555    485.13501  0.024281031  0.024353721            2 
 1666000   0.98978112   -7.7308453    485.26459  0.024272939  0.024346961            2 
 1667000    1.0034527   -7.7053591    485.37536  0.024263915  0.024340268            2 
 1668000   0.98767652    -7.732038    485.78047  0.024269608  0.024333551            4 
 1669000   0.99453998   -7.7302086     485.3746  0.024234801  0.024326848            1 
 1670000   0.96211755   -7.6906029    487.18567  0.024310662  0.024320135            3 
 1671000    0.9708479   -7.7257247    485.07449  0.024190828  0.024313456            2 
 1672000   0.97834827   -7.7556172    484.64466  0.024154937  0.024306769            1 
 1673000   0.99541559   -7.7075039    486.37067  0.024226473  0.024300073            2 
 1674000   0.97906042   -7.7295251    484.83953  0.024135779  0.024293335            2 
 1675000   0.98021728   -7.7381058    485.98856  0.024178535  0.024286551            1 
 1676000    1.0232238   -7.7248268    486.32774  0.024180973  0.024279816            3 
 1677000   0.99485511   -7.7197566    486.68811  0.024184462  0.024273066            1 
 1678000   0.99001758   -7.7348913    485.82546  0.024127208  0.024266258            1 
 1679000   0.98650425   -7.7387635    488.04399   0.02422295  0.024259566            3 
 1680000   0.98784663   -7.7155102    487.57905  0.024185469  0.024252782            5 
 1681000    1.0008019   -7.7380634    486.40972  0.024113113  0.024246025            2 
 1682000   0.99283345   -7.7451544    486.01674  0.024079307  0.024239351            3 
 1683000   0.98220418   -7.7235044    486.93922  0.024110676  0.024232589            2 
 1684000   0.99266078   -7.7321519    489.07739  0.024202167  0.024225856            1 
 1685000   0.98991428   -7.7670038    487.84669  0.024126938  0.024219128            3 
 1686000   0.98375237   -7.7205101    489.29499  0.024184212  0.024212499            2 
 1687000   0.95660906   -7.7179574    490.19775  0.024214471  0.024205946            1 
 1688000   0.97831093   -7.7332248    490.85377  0.024232512  0.024199534            1 
 1689000   0.99044479   -7.7660557    489.05345  0.024129339  0.024192999            3 
 1690000   0.97593254   -7.7409569    489.83261  0.024153482  0.024186383            1 
 1691000   0.97209342    -7.742844    490.08039  0.024151409  0.024179805            1 
 1692000   0.99548908   -7.7388504    490.31159  0.024148522  0.024173194            1 
 1693000    0.9659491   -7.7592863    489.43586  0.024091153  0.024166621            2 
 1694000   0.98928355   -7.7469966    489.51447  0.024080798  0.024160007            3 
 1695000   0.99212012   -7.7889677     488.5814  0.024020718  0.024153378            5 
 1696000   0.98770732   -7.7336462    490.28394  0.024090209  0.024146841            4 
 1697000   0.97530012   -7.7623653    490.55763  0.024089453  0.024140309            3 
 1698000   0.97991078   -7.7227226    491.92046  0.024142151  0.024133819            2 
 1699000   0.97523282   -7.7223144    492.05705  0.024134641  0.024127249            4 
 1700000   0.96791982   -7.7485605    492.50161  0.024142236  0.024120694            2 
 1701000   0.99011503   -7.7542239    491.20474  0.024064508  0.024114095            4 
 1702000    0.9902149   -7.7321429    491.39028  0.024059454  0.024107489            2 
 1703000   0.96733957   -7.7141568    493.46254  0.024146728  0.024101072            5 
 1704000   0.98052658   -7.7234842    494.26093  0.024171603  0.024094676            2 
 1705000   0.98304388   -7.7159864    493.71373  0.024130681  0.024088278            3 
 1706000   0.98381964   -7.7670825    492.23322  0.024044218  0.024081844            3 
 1707000   0.99757926   -7.7631133    492.87036  0.024061236   0.02407537            2 
 1708000     0.975629   -7.7276925    493.36005  0.024071041  0.024068952            2 
 1709000   0.97571919   -7.7223397    493.23841  0.024051025  0.024062409            3 
 1710000   0.99515394   -7.7187403    493.74101  0.024061453  0.024055921            2 
 1711000   0.98827261   -7.7321139    495.09285  0.024113231  0.024049546            4 
 1712000   0.98176034   -7.7376128    494.81895  0.024085813  0.024043074            2 
 1713000   0.96114962   -7.7667506    495.05151  0.024083066  0.024036532            3 
 1714000   0.97954553   -7.7295302    494.16713  0.024026017   0.02403005            2 
 1715000     1.007028   -7.7128618    493.66272  0.023987499  0.024023593            2 
 1716000   0.98442052   -7.7120971    495.13707  0.024045118  0.024017101            5 
 1717000   0.98606824   -7.7451588    494.49473  0.023999938  0.024010607            2 
 1718000   0.97952448   -7.7310977    494.14742  0.023969122  0.024004066            2 
 1719000   0.96486976   -7.7180384    494.00497  0.023948273   0.02399752            1 
 1720000   0.98194876    -7.749159    494.58263  0.023962337  0.023990952            2 
 1721000   0.94785109   -7.7495204    494.11699  0.023925866  0.023984388            1 
 1722000   0.99262282   -7.7131467    496.12731  0.024009258  0.023977863            4 
 1723000    0.9847595   -7.7213523    494.01541  0.023893181  0.023971477            2 
 1724000   0.97471542   -7.7132476    495.97227  0.023973911  0.023964931            2 
 1725000   0.96624844   -7.7344255     494.9554  0.023910889   0.02395836            3 
 1726000   0.96367186    -7.698989    495.72697  0.023934288  0.023951821            2 
 1727000   0.96728841     -7.75404     495.3713  0.023903267  0.023945216            3 
 1728000   0.95518424   -7.7347143    495.78386   0.02390933  0.023938631            6 
 1729000   0.97678297   -7.7473152    494.72648  0.023844538  0.023932117            2 
 1730000   0.97380697   -7.7534441    496.18263  0.023900897  0.023925542            1 
 1731000   0.97369872   -7.7437557    495.17907  0.023838777  0.023918938            2 
 1732000   0.96485429    -7.748744    495.69455  0.023849815  0.023912242            2 
 1733000   0.97665933   -7.7716032    495.66064  0.023834422  0.023905522            2 
 1734000   0.98667931   -7.7571215    495.22553  0.023799766  0.023898851            6 
 1735000   0.98977413   -7.7444405    495.78326  0.023812837  0.023892192            2 
 1736000   0.97051633   -7.8364425    496.29644  0.023823754  0.023885415            2 
 1737000   0.95629362   -7.8002288    494.81314  0.023738876  0.023878599            1 
 1738000   0.95205112   -7.7400136    497.06945  0.023833403  0.023871806            3 
 1739000   0.97258742   -7.7679224    496.72458  0.023803172  0.023865135            1 
 1740000   0.99391102   -7.7610207    496.12958  0.023760995  0.023858469            1 
 1741000    0.9844698   -7.7714161    496.43406  0.023761921  0.023851801            3 
 1742000   0.97256797   -7.7497719     496.9142   0.02377125  0.023845065            1 
 1743000   0.97612711   -7.7262843     496.9548  0.023759552  0.023838363            3 
 1744000   0.96750449   -7.7337665    498.24325  0.023807495  0.023831662            2 
 1745000   0.98575428   -7.7346768    495.72311  0.023673501  0.023824987            2 
 1746000   0.96211706    -7.801725    495.55163  0.023651758  0.023818165            5 
 1747000   0.95969612   -7.7800629    496.93643  0.023704276   0.02381131            2 
 1748000   0.96207583   -7.7229305    498.24566   0.02375313  0.023804514            3 
 1749000   0.95362104   -7.7644936    497.43784   0.02370106  0.023797701            2 
 1750000   0.97424356   -7.7658545    497.61411   0.02369591  0.023790949            1 
 1751000   0.94535981   -7.7623493    498.19312  0.023709934  0.023784138            1 
 1752000    0.9742049   -7.7133783    498.84157  0.023727244   0.02377746            1 
 1753000   0.97617278   -7.7514654    498.37882   0.02369171  0.023770732            2 
 1754000   0.96427311   -7.7183592    498.74259  0.023695486  0.023764017            2 
 1755000   0.94251669    -7.787867    498.22665  0.023657486  0.023757213            2 
 1756000   0.98122746   -7.7979897    497.81508  0.023624482  0.023750371            1 
 1757000   0.96846789   -7.7538995    497.93788   0.02361686  0.023743429            1 
 1758000   0.94779614   -7.7838642    497.41985   0.02357887  0.023736471            2 
 1759000   0.96229501   -7.7186279    499.18243  0.023648968  0.023729574            2 
 1760000   0.97055734   -7.7621459    498.50158  0.023603294  0.023722796            1 
 1761000   0.94247923    -7.764859    500.31672  0.023675787  0.023716027            4 
 1762000    0.9891501   -7.7443097     500.3748  0.023665097  0.023709318            3 
 1763000   0.98660066   -7.7503169    499.81942  0.023625422  0.023702649            2 
 1764000   0.97699641   -7.7704951    498.31764  0.023541083  0.023695787            1 
 1765000   0.97841389   -7.7791602    498.99923  0.023559926  0.023688925            1 
 1766000   0.96448648   -7.7366439    499.15731  0.023554045  0.023681985            2 
 1767000   0.98429037   -7.7280464    499.27727  0.023546372  0.023675183            1 
 1768000   0.96148832   -7.7737875    500.59258   0.02359505  0.023668379            1 
 1769000   0.97651934   -7.7637495     500.8406  0.023593396  0.023661558            5 
 1770000   0.95379276   -7.7521985    500.82487  0.023579326  0.023654749            2 
 1771000   0.94873347   -7.7992264    499.08965  0.023484361  0.023647906            3 
 1772000    0.9593436   -7.7769644    500.92528  0.023557434  0.023641068            2 
 1773000   0.96715589   -7.7918755    498.99429  0.023453388  0.023634174            3 
 1774000   0.99001573   -7.7590739    501.76511  0.023570326  0.023627339            2 
 1775000   0.96176332   -7.7593104    500.68442  0.023506311  0.023620571            3 
 1776000    0.9840129   -7.7836425     501.3925    0.0235263  0.023613818            3 
 1777000   0.96833683   -7.7680084    500.96771  0.023493139  0.023607063            3 
 1778000   0.96910316   -7.7648317    502.59043  0.023555982  0.023600357            2 
 1779000   0.99142356   -7.7835681    500.53577  0.023446495  0.023593575            1 
 1780000   0.97495942   -7.8012764    500.80579  0.023445964  0.023586724            2 
 1781000   0.96464076   -7.7482173    503.73011  0.023569629  0.023579961            1 
 1782000   0.97316608   -7.7946216     500.8148  0.023420071  0.023573231            3 
 1783000   0.97137464   -7.7505891    502.02671  0.023463578  0.023566397            4 
 1784000   0.97841403   -7.7579255    502.75953  0.023484657  0.023559643            4 
 1785000   0.98404037   -7.7806228    503.14785  0.023489629  0.023552873            2 
 1786000   0.97254397   -7.7942907    501.57773  0.023403216  0.023546097            2 
 1787000   0.97370575   -7.7549288    503.93505  0.023500049  0.023539315            2 
 1788000   0.96360511   -7.7961499    501.74529  0.023384847   0.02353243            2 
 1789000   0.95491526   -7.7267883     503.7952  0.023467263  0.023525664            2 
 1790000   0.96660145   -7.7443028    503.27579  0.023429972  0.023518916            2 
 1791000   0.97131851   -7.7463501    503.33793  0.023419781  0.023512169            1 
 1792000   0.99799726   -7.7525785    505.66918  0.023515122  0.023505435            1 
 1793000   0.98038706   -7.7531078    505.01761  0.023471724  0.023498673            1 
 1794000    0.9431306   -7.7547385    505.21786  0.023467942   0.02349188            2 
 1795000   0.97795176   -7.7970651    504.66194  0.023429059  0.023485067            2 
 1796000   0.96700881   -7.7676508    504.26536  0.023397613  0.023478261            4 
 1797000   0.95890431    -7.789935    502.24458  0.023290882  0.023471439            1 
 1798000   0.94806207   -7.8016052    504.78155  0.023395511  0.023464632            2 
 1799000   0.98059034   -7.7489666    505.91944  0.023435216  0.023457822            2 
 1800000   0.95574084   -7.7573349    504.30501  0.023347454  0.023451073            1 
 1801000   0.95793419   -7.7482556    503.78124  0.023310256  0.023444262            1 
 1802000   0.96322581   -7.7468705    505.44624  0.023374317  0.023437583            1 
 1803000   0.96339318   -7.7842079     505.6578  0.023371131  0.023430882            3 
 1804000   0.97723606   -7.7929823    506.10392  0.023378784  0.023424105            1 
 1805000   0.96318182   -7.7772658     505.5073  0.023338287  0.023417245            1 
 1806000   0.97438147    -7.796275     506.4843  0.023370446  0.023410452            1 
 1807000   0.94888552   -7.7932802    506.90456  0.023376894  0.023403656            1 
 1808000   0.95153399   -7.7974472    506.24891  0.023333744  0.023396897            1 
 1809000   0.98061551   -7.7913892    506.22942  0.023319947  0.023390206            3 
 1810000   0.95363395    -7.791004    505.91828  0.023292739  0.023383495            3 
 1811000   0.95169709    -7.763042    508.41193  0.023394622  0.023376795            1 
 1812000   0.94578645   -7.7840811    506.18291  0.023279199  0.023370062            1 
 1813000   0.95473788   -7.7863907    506.55313  0.023283376   0.02336331            2 
 1814000   0.96539476   -7.7858742    507.33188  0.023306316  0.023356568            1 
 1815000   0.95986045   -7.7818166    506.78703  0.023268459  0.023349884            2 
 1816000   0.94698624   -7.7867726    507.85044  0.023304444  0.023343219            3 
 1817000   0.94836574   -7.7837743    506.72199  0.023239864  0.023336461            5 
 1818000   0.96349193   -7.8193619    507.50462  0.023262955  0.023329731            4 
 1819000   0.94907495   -7.8253995    506.77789  0.023216872  0.023322941            2 
 1820000   0.94896956   -7.7820734    507.29784  0.023227923  0.023316183            1 
 1821000   0.94030216    -7.798131    507.72766  0.023234837  0.023309428            2 
 1822000    0.9480029   -7.8303012     506.7581   0.02317774  0.023302573            1 
 1823000   0.96621975   -7.7953045    507.42938  0.023195711  0.023295703            1 
 1824000   0.95300195    -7.783751    509.44682  0.023275166  0.023288986            2 
 1825000   0.94721583   -7.7880132    508.64277  0.023225697  0.023282221            3 
 1826000   0.95350886   -7.7551591    509.18187  0.023237581  0.023275479            9 
 1827000   0.98672382   -7.7937167    509.02611  0.023217757  0.023268828            5 
 1828000    0.9661701   -7.7684119    508.20658  0.023167696  0.023262055            4 
 1829000   0.95885308   -7.7580922    510.04432  0.023238761  0.023255366            1 
 1830000   0.95389907   -7.7931487    508.65049   0.02316259  0.023248662            1 
 1831000   0.94909189   -7.8186178    508.60914  0.023148059  0.023241859            1 
 1832000   0.96386398   -7.8046287    508.87009  0.023147293  0.023235018            2 
 1833000   0.93500461    -7.799155    509.06463  0.023143509   0.02322824            1 
 1834000   0.97893952   -7.7945491     509.7461  0.023161855  0.023221477            4 
 1835000   0.95867351   -7.8002442    509.54553  0.023140124  0.023214767            2 
 1836000   0.94564607   -7.8419549    508.77605  0.023092595  0.023208087            1 
 1837000   0.95882129   -7.8087248    509.93105  0.023132419  0.023201286            1 
 1838000    0.9800223   -7.8467623    508.99726  0.023077497  0.023194541            3 
 1839000     0.952515   -7.7864766     510.9439  0.023153158  0.023187902            1 
 1840000   0.95069008   -7.7604993    511.48425  0.023165048   0.02318124            4 
 1841000   0.95323693   -7.7959394    509.89511  0.023080532   0.02317461            3 
 1842000   0.95921939   -7.8081136    511.08232  0.023121712  0.023167916            2 
 1843000   0.96234793   -7.8234086    511.30176  0.023119089    0.0231613            1 
 1844000   0.96195688   -7.8132106    511.20503   0.02310218  0.023154733            3 
 1845000   0.94273582   -7.7696555    512.22795  0.023135861  0.023148079            4 
 1846000   0.94036456   -7.8099644    510.80666  0.023059167   0.02314139            2 
 1847000   0.94810362   -7.8030469    510.49352  0.023032554  0.023134682            2 
 1848000   0.95054296   -7.7748332    511.69807  0.023074408  0.023128023            1 
 1849000   0.95358782   -7.7775218    512.88651  0.023115491  0.023121393            2 
 1850000   0.96794242   -7.8132846      510.947  0.023015631  0.023114686            2 
 1851000   0.95571271    -7.784842    511.19618  0.023014415  0.023107944            1 
 1852000   0.95476972   -7.8041093    512.56317  0.023063497   0.02310119            3 
 1853000   0.95971073   -7.7571526     513.4914  0.023092795  0.023094392            3 
 1854000    0.9827999   -7.8246392    511.27995   0.02298094  0.023087654            2 
 1855000   0.93927417   -7.8198318    512.54342  0.023025311  0.023080861            4 
 1856000   0.97815375   -7.8065804    511.56291   0.02296888  0.023074214            1 
 1857000   0.97233575   -7.7895967    511.70669  0.022962964   0.02306752            2 
 1858000    0.9503494   -7.7661884    513.66283   0.02303834  0.023060878            1 
 1859000   0.95411369   -7.8135927    511.81144  0.022942955  0.023054152            1 
 1860000   0.93980675   -7.7962593    512.24188  0.022949905  0.023047444            4 
 1861000   0.95264179   -7.7629721    513.71388  0.023003487  0.023040766            1 
 1862000     0.954057   -7.8259439    513.44111  0.022978925  0.023034073            6 
 1863000   0.96279484   -7.8040834     512.8928  0.022942065  0.023027282            2 
 1864000   0.93745049   -7.7638192    513.15007  0.022941259   0.02302047            3 
 1865000   0.95067867   -7.8287508    512.35897  0.022893609   0.02301368            3 
 1866000   0.95710185    -7.800809    512.76809  0.022899611  0.023006903            2 
 1867000   0.95658148   -7.7856801    515.44063  0.023006634  0.023000145            2 
 1868000    0.9499772   -7.8079912    513.73247  0.022918115  0.022993448            3 
 1869000   0.96348069   -7.7861435    514.49649  0.022939918  0.022986784            1 
 1870000   0.95192964   -7.7981371    514.16989  0.022913097  0.022980101            2 
 1871000   0.92542295     -7.83192    514.69982  0.022924453  0.022973416            4 
 1872000   0.95392129   -7.7905391     514.3483  0.022896559  0.022966676            3 
 1873000   0.95481123   -7.8324623    513.04791  0.022826478  0.022959902            1 
 1874000   0.94994949   -7.8101152    513.17037  0.022819742  0.022953141            3 
 1875000   0.94998398   -7.8309088    513.78062  0.022834694  0.022946446            2 
 1876000   0.94336389   -7.8047591    515.60062  0.022903368  0.022939766            5 
 1877000   0.94444348   -7.8327148    515.45497  0.022884699  0.022933045            4 
 1878000   0.93783027   -7.8274417    514.65646  0.022837081  0.022926376            2 
 1879000   0.93497644     -7.82203    515.72837  0.022872466  0.022919665            1 
 1880000   0.95256764   -7.8331042     515.0792  0.022831525   0.02291283            1 
 1881000   0.96652287   -7.8131209    514.83456  0.022808549  0.022906091            1 
 1882000   0.94830189   -7.8078152     514.8274  0.022796112  0.022899339            2 
 1883000   0.94987826   -7.8044723    516.13496  0.022841873  0.022892725            3 
 1884000   0.94951913   -7.7852283    516.41901  0.022842313  0.022886052            3 
 1885000   0.95444712   -7.8240441    516.30998  0.022825375  0.022879343            3 
 1886000   0.93613215    -7.842938    516.22666  0.022809591  0.022872555            2 
 1887000   0.94894021   -7.8091369    516.04315  0.022789399   0.02286583            3 
 1888000   0.93093174    -7.831388    516.00595  0.022775686  0.022859094            3 
 1889000   0.94436345   -7.7870503    517.05038  0.022809705  0.022852413            3 
 1890000   0.94498871   -7.7950871    517.44099  0.022814858  0.022845823            2 
 1891000   0.96250508   -7.7939234    517.69496  0.022813985  0.022839095            5 
 1892000   0.95533658   -7.7933834    517.94373  0.022812884  0.022832427            2 
 1893000   0.95374154   -7.8219485    516.98881  0.022758796  0.022825715            3 
 1894000   0.92897909   -7.8467189    516.71756  0.022734845  0.022818974            2 
 1895000   0.95245121   -7.8482858    517.46997  0.022755935  0.022812206            1 
 1896000   0.95474835   -7.8569044    515.60587  0.022662002  0.022805477            2 
 1897000   0.96295349   -7.8231955    517.76012   0.02274469   0.02279874            6 
 1898000   0.94949967   -7.8056067    517.75185  0.022732343   0.02279206            1 
 1899000   0.95383646   -7.8064949    519.35317  0.022790643  0.022785377            1 
 1900000   0.94209166   -7.8311308    518.65239  0.022747912  0.022778716            2 
 1901000   0.96622855    -7.832493    518.94861  0.022748931  0.022772072            1 
 1902000   0.93295682   -7.8617539    518.49683  0.022717176  0.022765337            1 
 1903000   0.97354968   -7.8187205    518.06745  0.022686436  0.022758589            1 
 1904000   0.94443679   -7.8050481    518.85636  0.022709049  0.022751797            4 
 1905000   0.96722073   -7.8194731     517.8244  0.022651986  0.022744984            2 
 1906000   0.97538476   -7.8397822    517.97294  0.022646596  0.022738103            1 
 1907000   0.95425499   -7.7863661    517.86521  0.022630013  0.022731246            1 
 1908000   0.94937906   -7.8281902     518.3043   0.02263733  0.022724399            2 
 1909000   0.94734151   -7.7927571    518.64817  0.022640483  0.022717628            1 
 1910000   0.95512126   -7.7930661    518.20819  0.022609432  0.022710903            2 
 1911000    0.9285697   -7.7977248    519.85043  0.022669215   0.02270407            2 
 1912000   0.97132008   -7.7922687    518.65068  0.022605068   0.02269728            1 
 1913000   0.94306181   -7.7935111    519.62961  0.022635895  0.022690458            2 
 1914000   0.94711276   -7.8199739    517.24676  0.022520322  0.022683581            1 
 1915000   0.94693836   -7.8225099    519.70269  0.022615435   0.02267674            8 
 1916000   0.94010559   -7.8215501     518.6162  0.022556376  0.022669857            4 
 1917000   0.94519999   -7.8127273    519.60453  0.022587573  0.022663054            1 
 1918000   0.95364249   -7.8324867    519.78814  0.022583774  0.022656141            3 
 1919000   0.94185474   -7.8453235    518.99852  0.022537716   0.02264932            7 
 1920000   0.96799687   -7.7836394     520.9621  0.022611202  0.022642608            1 
 1921000   0.94232483   -7.8174753    520.72222  0.022589026  0.022635926            3 
 1922000   0.95584617   -7.8470002    519.58013  0.022527755  0.022629133            3 
 1923000   0.94720696   -7.8280244    520.84633  0.022570911  0.022622373            1 
 1924000   0.92972446   -7.8212774    520.88019  0.022560646  0.022615707            4 
 1925000   0.94280308   -7.8401578    519.79606  0.022501994  0.022609014            7 
 1926000   0.96107371   -7.8500345     520.3834  0.022515724  0.022602332            2 
 1927000   0.95789069   -7.8286898    520.40338  0.022504903  0.022595613            4 
 1928000   0.94635354   -7.8412075    520.87526  0.022513626  0.022588881            2 
 1929000   0.95393972    -7.816796    521.71794  0.022538359  0.022582241            2 
 1930000   0.94073602   -7.8064192    522.59695  0.022564635  0.022575611            5 
 1931000   0.90366539   -7.8645699    521.20185  0.022492744  0.022569017            2 
 1932000   0.95556201   -7.8587259    520.65263  0.022457412  0.022562306            1 
 1933000   0.93088462   -7.8018468    521.60094  0.022486676  0.022555527            1 
 1934000   0.93715605   -7.8428058    521.22048  0.022458656  0.022548833            1 
 1935000   0.95666247   -7.7944358    522.68343  0.022510053  0.022542112            1 
 1936000   0.95697481   -7.8401739    523.79456  0.022546253   0.02253544            3 
 1937000   0.95460016   -7.8064419    523.32537  0.022514428  0.022528735            2 
 1938000   0.95979703   -7.8543922    520.99648  0.022402669  0.022522094            1 
 1939000    0.9426833   -7.8344454    522.01605  0.022434934   0.02251537            3 
 1940000   0.94813073   -7.8167508    523.78559  0.022499381  0.022508649            2 
 1941000   0.94638129   -7.8629121    523.39348  0.022470955  0.022501951            3 
 1942000   0.95684138   -7.8292024    523.50983  0.022464376  0.022495255            2 
 1943000   0.95765326   -7.8486011    522.46223  0.022407884  0.022488564            2 
 1944000   0.96601128   -7.8414168    522.74782    0.0224086  0.022481797            3 
 1945000   0.94899543   -7.8272807     522.5686    0.0223894  0.022475093            2 
 1946000   0.94450713   -7.8044142    524.66565  0.022467697  0.022468489            2 
 1947000   0.95065259    -7.864405    523.39214   0.02240165  0.022461853            3 
 1948000   0.94551974    -7.812646     523.7469  0.022405326  0.022455161            2 
 1949000   0.96398381   -7.8511375    522.62013  0.022345653  0.022448457            3 
 1950000   0.94207815   -7.8423572    523.67214  0.022379151  0.022441707            3 
 1951000   0.94296434   -7.8420777    524.28127  0.022393699  0.022434929            1 
 1952000   0.92943746   -7.8508426    524.47938  0.022390684  0.022428238            2 
 1953000   0.94611646   -7.8384489    524.73855  0.022390278  0.022421548            4 
 1954000    0.9395477    -7.874156    524.37775  0.022363432   0.02241487            2 
 1955000   0.93547111    -7.797548    524.78704  0.022369439  0.022408193            1 
 1956000   0.93510945   -7.8698099     523.8013  0.022316006  0.022401439            2 
 1957000   0.93185828   -7.8753306    524.42347  0.022331096  0.022394636            2 
 1958000   0.94519691   -7.8718516    524.29038  0.022314027  0.022387837            1 
 1959000   0.93249049   -7.8445983    524.79771  0.022324218  0.022381116            3 
 1960000   0.94577614   -7.8664026    523.88048   0.02227383  0.022374373            2 
 1961000   0.94027209   -7.8741135    525.34949  0.022324898  0.022367664            2 
 1962000   0.92313016   -7.8635943    525.18854  0.022306683  0.022360876            2 
 1963000   0.93914535   -7.8688686    523.93347  0.022242039  0.022354058            2 
 1964000   0.93842225   -7.8530069    525.23679  0.022286015  0.022347305            2 
 1965000   0.92055274   -7.8298969    525.96292  0.022305467  0.022340574            3 
 1966000   0.94873535   -7.8823898    524.57867  0.022235447  0.022333739            5 
 1967000    0.9388927   -7.8223351    525.76826  0.022274541  0.022326989            3 
 1968000   0.93478176   -7.8385424     525.4613  0.022250224  0.022320219            5 
 1969000   0.93948571    -7.830317    526.34797  0.022276451  0.022313446            2 
 1970000   0.93897882   -7.8333324     526.3403  0.022264818  0.022306744            1 
 1971000   0.93751738   -7.8272677    525.56032  0.022220545  0.022300048            3 
 1972000   0.92745285   -7.8492088    526.55289  0.022251221  0.022293372            6 
 1973000   0.95451682   -7.8717972    525.14068  0.022180296  0.022286571            3 
 1974000   0.94330389   -7.8373663    526.66756  0.022233517   0.02227983            1 
 1975000    0.9372652   -7.8868044    526.25662  0.022204921  0.022273073            3 
 1976000   0.93937285   -7.8493959    526.67083  0.022211152  0.022266323            2 
 1977000   0.93643487    -7.874191    526.65954  0.022199441  0.022259521            1 
 1978000   0.93105786   -7.8768923     526.8544  0.022196427  0.022252786            1 
 1979000   0.95968165   -7.8588349    527.63527  0.022218093  0.022246185            2 
 1980000   0.94660384   -7.8608401    525.92165   0.02213475  0.022239563            3 
 1981000   0.90763331   -7.8402367    526.62705  0.022153249  0.022232897            1 
 1982000   0.93979988   -7.8291397    527.87534  0.022194557  0.022226288            2 
 1983000   0.94372329   -7.8668234    528.18568  0.022196406  0.022219595            2 
 1984000    0.9503077   -7.8901302    526.34362  0.022107847  0.022212919            3 
 1985000    0.9558283   -7.8449618    528.84761  0.022201831  0.022206255            3 
 1986000   0.92540116    -7.840883    527.61462  0.022138915  0.022199656            2 
 1987000   0.92673523   -7.8478121    529.01172  0.022186366   0.02219306            1 
 1988000   0.93997786   -7.8322656    528.88727   0.02216999  0.022186453            5 
 1989000   0.93139659   -7.8355047    528.96831  0.022162239  0.022179815            2 
 1990000   0.93346603   -7.8442143     527.3093  0.022081629  0.022173201            1 
 1991000   0.90912068   -7.8628765    529.46398  0.022160722  0.022166532            4 
 1992000   0.92874699   -7.8815685    528.11273  0.022093069   0.02215998            2 
 1993000   0.96754933   -7.8184792    529.17093  0.022126231  0.022153362            2 
 1994000   0.94714495   -7.8581319    528.38093  0.022082118  0.022146723            1 
 1995000   0.91281641   -7.8445914    528.90106  0.022092776  0.022140051            2 
 1996000   0.94045067   -7.8279082    529.77614  0.022118242  0.022133486            5 
 1997000    0.9395986    -7.853763    530.24695  0.022126813  0.022126915            1 
 1998000   0.92942525   -7.8518131    528.94457  0.022061418  0.022120284            2 
 1999000   0.94340251   -7.8294698    530.32184  0.022107797  0.022113657            4 
 2000000   0.91917277    -7.847335    529.81649  0.022075687  0.022107028            1 
 2001000   0.93314341   -7.8520525    529.84636  0.022065899  0.022100419            3 
 2002000   0.91153943   -7.8704515    530.56931   0.02208497  0.022093828            3 
 2003000   0.92164878   -7.8646597    529.33693  0.022022671  0.022087177            1 
 2004000   0.93742811   -7.8940768     530.5122  0.022060554  0.022080528            3 
 2005000   0.92719548   -7.8603328    529.76897  0.022018661  0.022073825            1 
 2006000   0.94089981   -7.8315723    531.77891  0.022091181  0.022067176            5 
 2007000   0.93850078   -7.8342491    530.87205   0.02204252  0.022060541            6 
 2008000   0.89688349   -7.8360405    531.80376  0.022070209  0.022053877            1 
 2009000   0.92758931   -7.8332569    532.31195  0.022080303  0.022047224            2 
 2010000   0.93159218   -7.8537376    530.38615  0.021989476  0.022040563            1 
 2011000   0.92379632   -7.8643297     531.2942  0.022016169  0.022033925            1 
 2012000   0.92850302   -7.8653983    531.10164  0.021997251  0.022027292            3 
 2013000    0.9277583   -7.8849682     531.2862  0.021993964  0.022020611            2 
 2014000   0.94001609   -7.8541697    531.99902  0.022012538  0.022013913            1 
 2015000   0.93297959   -7.8843807     531.3352  0.021974161   0.02200729            2 
 2016000   0.92453881   -7.8684323    531.94417  0.021988433  0.022000654            1 
 2017000     0.915061   -7.8913654    531.21985  0.021947606  0.021993949            1 
 2018000   0.90083895   -7.8510356    531.56908  0.021951151  0.021987235            3 
 2019000   0.93567013   -7.8272384    532.46752  0.021977362  0.021980619            3 
 2020000   0.93937995   -7.8777166     531.8238  0.021939926  0.021974003            1 
 2021000   0.92583741   -7.8976502    531.11815  0.021899973  0.021967349            1 
 2022000    0.9363773   -7.8675725    533.56585   0.02199002  0.021960724            1 
 2023000   0.94007127   -7.8375243    532.08573   0.02191818  0.021954141            2 
 2024000   0.92360429   -7.8380538    533.56868  0.021968407  0.021947482            2 
 2025000   0.93677884   -7.8294671    533.84293  0.021968845  0.021940856            2 
 2026000   0.92735229   -7.8414514    533.56692  0.021946648  0.021934277            5 
 2027000    0.9395484   -7.8389496    532.74403  0.021901991  0.021927679            3 
 2028000   0.90840537   -7.8703403    533.63623  0.021927853  0.021921083            1 
 2029000   0.92074895   -7.8565717    532.78529  0.021882097  0.021914486            3 
 2030000   0.92962489   -7.8716515    532.25467  0.021849535  0.021907794            2 
 2031000   0.90659692   -7.8729867     532.7427  0.021858801  0.021901073            6 
 2032000   0.96511532   -7.8567729    532.99388  0.021858345  0.021894424            4 
 2033000   0.92858272    -7.875653    532.87628  0.021842772  0.021887733            1 
 2034000   0.92750326   -7.9175039    532.04313  0.021797899  0.021880976            2 
 2035000   0.89999073   -7.8780717    533.95671  0.021865549   0.02187424            2 
 2036000   0.91958305   -7.9047766    533.19416  0.021823599  0.021867514            2 
 2037000   0.91434055   -7.9032176    532.18483  0.021771593  0.021860779            3 
 2038000   0.90940531   -7.8320171    535.02664  0.021877112  0.021854053            4 
 2039000   0.93518717   -7.9040327    532.29484  0.021754734  0.021847343            1 
 2040000   0.93949281   -7.8746885    534.06584  0.021816415  0.021840659            4 
 2041000   0.93827318   -7.9055646    533.58274  0.021786001  0.021833983            3 
 2042000   0.92731493   -7.8627357    536.37838  0.021889421   0.02182729            4 
 2043000    0.8972281    -7.905692    532.19115  0.021707911  0.021820584            2 
 2044000   0.92284771   -7.8915524    533.29799  0.021742417  0.021813825            5 
 2045000   0.90588303   -7.8936578    534.00834  0.021760731  0.021807065            1 
 2046000    0.9164496   -7.8745459    533.75469  0.021739764  0.021800371            2 
 2047000   0.91556067   -7.8766485    534.27822  0.021750457  0.021793716            4 
 2048000   0.93837987   -7.8930338     533.2802  0.021699227  0.021787018            3 
 2049000   0.92219541   -7.9106323     534.8213  0.021751313  0.021780305            2 
 2050000   0.92154058   -7.8953515    535.25049   0.02175815  0.021773621            1 
 2051000   0.91481683   -7.8846461    534.52818  0.021718194  0.021766919            2 
 2052000   0.90966121   -7.8837247    535.96554  0.021765982  0.021760219            2 
 2053000    0.9226494   -7.8683165    535.18532   0.02172371  0.021753555            2 
 2054000   0.89836859   -7.8857057    534.68016  0.021692639  0.021746842            3 
 2055000   0.91535347    -7.882262    537.11406  0.021780781  0.021740147            3 
 2056000   0.93201717   -7.8772609    534.78334  0.021675719  0.021733441            1 
 2057000   0.95112258   -7.8850959    535.53511  0.021695637  0.021726854            2 
 2058000   0.93799706   -7.8965284    534.28407  0.021634437  0.021720177            2 
 2059000   0.91113372   -7.8889732    535.10242  0.021657051  0.021713485            1 
 2060000   0.91445153   -7.9006942    535.86185  0.021677259  0.021706787            3 
 2061000   0.91028655   -7.8786986    535.13136  0.021637205  0.021700085            2 
 2062000   0.92175006   -7.8747027     535.5178  0.021642329  0.021693389            3 
 2063000   0.91488877   -7.8825616    535.39364  0.021626824  0.021686683            1 
 2064000   0.93976926    -7.865291    535.49338  0.021620372  0.021679955            2 
 2065000     0.915726   -7.8570184    536.53698  0.021652017  0.021673307            2 
 2066000   0.91448685   -7.8698389    536.74598  0.021649967  0.021666579            3 
 2067000   0.92858514   -7.8644578    536.11645  0.021614113  0.021659859            3 
 2068000   0.94255439   -7.8734514    535.86039  0.021593343  0.021653169            2 
 2069000   0.91508289   -7.9082024    535.40043   0.02156438  0.021646483            1 
 2070000   0.90832334   -7.9201018    535.22833  0.021547034  0.021639687            1 
 2071000   0.91839267   -7.8814911    535.70044  0.021555627  0.021632928            3 
 2072000    0.9080986      -7.8981    536.31467  0.021569927  0.021626184            1 
 2073000   0.92295722    -7.877141     537.0454  0.021588897  0.021619384            2 
 2074000   0.91621468   -7.8837987    536.03252   0.02153779   0.02161258            2 
 2075000   0.92272525   -7.8701888    537.29088  0.021577947  0.021605789            2 
 2076000   0.90364803   -7.8867131    536.19029  0.021523374  0.021599029            2 
 2077000    0.9116211   -7.8688603    536.69855  0.021533404  0.021592277            3 
 2078000   0.90108022   -7.9115844    537.66151  0.021561658  0.021585521            2 
 2079000   0.93303379   -7.8849187    536.61314  0.021509265  0.021578781            2 
 2080000   0.91870533   -7.8904962    538.79557  0.021586361  0.021572107            3 
 2081000   0.93797562   -7.9090371    535.95235  0.021462132  0.021565345            3 
 2082000   0.91629248   -7.8945844    536.42483  0.021470734  0.021558567            3 
 2083000    0.9031764   -7.8620234    537.11775  0.021488148  0.021551838            3 
 2084000   0.93374039   -7.9145604    537.43445  0.021490501  0.021545128            3 
 2085000   0.91569106   -7.9041832    537.45075  0.021480845  0.021538417            1 
 2086000   0.91757451   -7.8815855    538.99457  0.021532221  0.021531724            2 
 2087000   0.91922403   -7.9160052    537.44697  0.021460109  0.021525056            3 
 2088000   0.91276513   -7.8865505    537.91317  0.021468437  0.021518366            2 
 2089000   0.91872059    -7.902391    538.50881  0.021481921  0.021511685            3 
 2090000   0.90946391   -7.9218469    539.01655  0.021491888  0.021505008            3 
 2091000    0.9196152   -7.9065057    538.12108  0.021445922  0.021498384            2 
 2092000   0.90141084   -7.9102882     537.4427  0.021408648  0.021491681            3 
 2093000   0.92561162   -7.9071224    538.79727  0.021452352  0.021485022            1 
 2094000   0.93186815   -7.8994388     538.9089  0.021446549   0.02147835            2 
 2095000   0.92019272   -7.8929383    539.45856  0.021458177  0.021471667            1 
 2096000   0.91588367   -7.8556752    540.57541  0.021492343  0.021465063            3 
 2097000   0.91360168   -7.9105381    540.29823  0.021471079  0.021458465            5 
 2098000   0.91885099   -7.9296512    539.15652  0.021415496  0.021451808            1 
 2099000   0.95868414   -7.9393232    540.35726  0.021452964  0.021445218            4 
 2100000   0.90234591   -7.9033928     539.3412  0.021402429  0.021438568            2 
 2101000   0.92964334   -7.8866695    539.43154  0.021395825  0.021431969            2 
 2102000   0.92313343   -7.8912658    540.62129  0.021432814  0.021425382            4 
 2103000   0.91569538   -7.8778616    541.53215  0.021458716  0.021418786            1 
 2104000   0.91185852   -7.8329234    542.59024  0.021490425  0.021412322            1 
 2105000   0.92882018   -7.9093653    540.67203  0.021404277  0.021405803            1 
 2106000   0.92267995   -7.9029127    539.81653  0.021360261  0.021399203            1 
 2107000    0.9287702   -7.8686185    540.31904  0.021369998  0.021392637            2 
 2108000   0.92130568   -7.9052555    540.94342  0.021384544  0.021386082            2 
 2109000   0.91489698   -7.8774589    542.06769  0.021418827  0.021379553            2 
 2110000   0.92769905   -7.9093725    540.88565  0.021361993  0.021372968            4 
 2111000   0.92643474   -7.9175552    540.09205  0.021320545  0.021366405            1 
 2112000   0.91321557   -7.8692914    540.84625  0.021340209  0.021359861            3 
 2113000   0.90944997   -7.9103091    541.71964  0.021364554  0.021353339            2 
 2114000   0.90009782   -7.8598532    542.97145  0.021403794  0.021346789            3 
 2115000   0.91718808   -7.8933078     541.1383  0.021321446   0.02134027            1 
 2116000   0.90343818   -7.9107295    543.00812  0.021385008  0.021333712            2 
 2117000   0.90937419   -7.9035406    542.27761   0.02134615  0.021327134            2 
 2118000   0.91520115   -7.9056994     542.2205  0.021333825  0.021320522            5 
 2119000   0.91978075   -7.9161102    542.70735  0.021342903  0.021313935            8 
 2120000   0.90014256   -7.9207671    542.34258  0.021318498  0.021307342            2 
 2121000   0.91626828   -7.8858647    543.46993   0.02135274  0.021300774            4 
 2122000   0.90741783   -7.9064783     541.6552  0.021271411  0.021294213            4 
 2123000   0.90968632   -7.9194158    542.94116  0.021311868  0.021287598            3 
 2124000   0.90995827   -7.9279647    540.55727  0.021208305  0.021280968            2 
 2125000   0.91251258   -7.9190921    543.35076  0.021307873   0.02127431            2 
 2126000   0.91193023   -7.9066266    541.90422   0.02124115  0.021267646            2 
 2127000   0.89989219   -7.8857038    541.32822  0.021208597  0.021261056            1 
 2128000   0.92111783   -7.8894845    542.34701  0.021238526  0.021254482            3 
 2129000   0.90576737   -7.8939135    543.63863  0.021279107  0.021247887            5 
 2130000   0.91143112   -7.9021104    543.91176  0.021279803  0.021241266            1 
 2131000   0.89744783   -7.8977618    542.48854  0.021214162  0.021234645            1 
 2132000   0.88857754   -7.8834266    543.84678  0.021257301  0.021228003            1 
 2133000   0.92736169     -7.92822    542.69946   0.02120251  0.021221432            2 
 2134000   0.90748739   -7.9277329    542.87195  0.021199311  0.021214791            2 
 2135000   0.89562133   -7.9596695    542.25144  0.021165162  0.021208087            3 
 2136000   0.93578201   -7.9323223    542.60711  0.021169129  0.021201366            2 
 2137000   0.90941179   -7.9253023    541.93169  0.021132884  0.021194585            2 
 2138000   0.90993887   -7.9017164     543.1298  0.021169699  0.021187935            3 
 2139000   0.90105173   -7.8974951    542.97596  0.021153809   0.02118128            2 
 2140000   0.91962142   -7.9483929    541.52918  0.021087585  0.021174546            2 
 2141000   0.90486957   -7.9446702    542.49416  0.021115295  0.021167833            3 
 2142000   0.91485099    -7.913188    542.95518  0.021123373  0.021161078            2 
 2143000   0.91698883   -7.9600476    541.94367  0.021074182  0.021154349            1 
 2144000   0.91957652   -7.9454036    541.15049  0.021033523    0.0211476            2 
 2145000   0.92195495   -7.9390505    542.00011  0.021056725   0.02114084            4 
 2146000   0.90026506   -7.9332409    543.75406  0.021115023  0.021134126            2 
 2147000   0.91741912   -7.9284228    543.49685  0.021095205  0.021127497            3 
 2148000    0.9011106   -7.9267287    543.64997  0.021091324  0.021120875            2 
 2149000   0.90912955   -7.9203514    545.11226  0.021138214  0.021114269            2 
 2150000   0.90437443    -7.909564    544.45596  0.021102944  0.021107617            1 
 2151000   0.89717029   -7.9060381    545.50086  0.021133615  0.021100997            5 
 2152000   0.89164475   -7.9129369    544.89619  0.021100379  0.021094431            1 
 2153000   0.87944601   -7.9368736    544.15574  0.021061919  0.021087764            3 
 2154000   0.89714268   -7.8864427    546.08615  0.021126824  0.021081168            1 
 2155000   0.90225412   -7.8829024    545.06339  0.021077471  0.021074589            1 
 2156000   0.89640952   -7.9206034    544.43562   0.02104343  0.021068026            4 
 2157000   0.90509476    -7.892795     544.7702    0.0210466  0.021061414            3 
 2158000   0.89962095   -7.9081085    545.02401  0.021046648  0.021054799            1 
 2159000    0.8892611   -7.9307346    544.38523  0.021012244  0.021048172            2 
 2160000   0.92238265   -7.9171257    544.71024  0.021015056  0.021041553            2 
 2161000   0.89614504   -7.9447427    544.46403  0.020995836  0.021034913            1 
 2162000   0.90280222   -7.9173498     545.8844  0.021040873  0.021028292            5 
 2163000    0.8889259   -7.9307545    545.75913  0.021026319  0.021021665            2 
 2164000   0.90164791   -7.9121388    545.30824  0.020999239   0.02101506            1 
 2165000   0.88564376   -7.9089774    546.23071  0.021025046  0.021008484            2 
 2166000   0.91123089   -7.9212809    545.08347  0.020971202  0.021001915            2 
 2167000   0.89698774   -7.8879964    546.42415  0.021013081  0.020995366            2 
 2168000    0.8972335   -7.8971651    546.88259   0.02102101  0.020988849            2 
 2169000   0.91366518   -7.9251392    546.38986  0.020992388  0.020982316            2 
 2170000   0.90870525   -7.9226801    547.11682  0.021010631  0.020975752            2 
 2171000   0.91358112   -7.9219202    547.11291  0.021000803  0.020969179            6 
 2172000   0.88790651   -7.9211648    547.27097  0.020997198  0.020962603            2 
 2173000   0.90761734   -7.9467024    546.79913   0.02096944  0.020955996            1 
 2174000   0.90766463   -7.9887952     545.2335  0.020899782  0.020949411            1 
 2175000   0.90067241   -7.9450424    547.35627  0.020971505  0.020942828            2 
 2176000   0.90734059   -7.9134057    547.51426  0.020967917  0.020936278            5 
 2177000   0.93711432   -7.9460698    546.98705  0.020938105  0.020929699            4 
 2178000   0.90301298   -7.9202008    547.44519   0.02094602  0.020923152            7 
 2179000   0.89754557   -7.9702295    546.02934   0.02088226  0.020916599            3 
 2180000   0.90176718   -7.9391115    547.93253  0.020945433  0.020910075            2 
 2181000   0.88953432   -7.9252021     548.3989  0.020953649  0.020903498            1 
 2182000   0.89502411   -7.9581662    546.73157  0.020880369  0.020896908            1 
 2183000   0.89821211   -7.9193056    547.57282  0.020902917  0.020890305            1 
 2184000   0.92057337   -7.9293493    546.87454  0.020866703  0.020883762            3 
 2185000   0.90551422   -7.9367445    547.08708  0.020865259  0.020877173            3 
 2186000   0.90301823   -7.9373117     547.8976  0.020886612  0.020870626            4 
 2187000   0.90658918   -7.9422255    547.40005  0.020858103  0.020864061            2 
 2188000   0.90583216   -7.9553178     548.8541   0.02090395  0.020857496            2 
 2189000   0.89724204   -7.9091838    548.73882  0.020890011  0.020850932            2 
 2190000   0.89662789   -7.9231684    547.16239  0.020820487  0.020844382            1 
 2191000   0.88334308   -7.9319639    546.43182  0.020783197  0.020837803            2 
 2192000   0.89420241   -7.9649924    548.14865  0.020838985  0.020831139            1 
 2193000   0.88804538   -7.9566993    548.23343  0.020832704   0.02082449            6 
 2194000   0.90378593   -7.9667462    548.20346   0.02082207  0.020817826            3 
 2195000   0.89276251   -7.9706459    547.80385  0.020797413  0.020811198            5 
 2196000   0.90103185   -7.9795958    546.78836  0.020749407  0.020804564            3 
 2197000   0.91307491   -8.0026092    546.99265  0.020747711  0.020797843            6 
 2198000   0.89908489    -7.956192    548.07792  0.020779418  0.020791143            1 
 2199000   0.89362292    -7.947377    547.80008  0.020759439  0.020784503            1 
 2200000   0.90657872   -7.9384036    549.73486   0.02082329  0.020777941            5 
 2201000   0.89664852   -7.9416329    549.50092  0.020804972  0.020771373            1 
 2202000   0.88491994   -7.9829628    548.38685  0.020753363  0.020764825            4 
 2203000   0.88443939   -7.9326525     548.6985  0.020755731  0.020758252            2 
 2204000   0.90793916   -7.9583099    548.27435  0.020730276  0.020751704            1 
 2205000   0.88971605   -7.9636083    549.26342  0.020758255  0.020745162            1 
 2206000   0.90328376   -7.9229169     550.5929  0.020799067  0.020738689            2 
 2207000   0.90158675   -7.9458251    550.46719  0.020784896  0.020732184            2 
 2208000   0.89538178   -7.9279034    550.50807  0.020777025  0.020725683            2 
 2209000   0.89377442   -7.8931279    549.93821  0.020746122  0.020719167            1 
 2210000   0.87490851   -7.9811856    548.51652  0.020683127  0.020712623            1 
 2211000   0.88759597   -7.9374295    549.66549  0.020717077  0.020706014            2 
 2212000   0.88253055   -7.9412286    550.27372  0.020730625  0.020699506            2 
 2213000   0.90859198   -7.9243791    551.70222   0.02077505  0.020692999            5 
 2214000   0.91023101   -7.9204657     549.8731  0.020696819  0.020686514            2 
 2215000   0.88647985   -7.9398533    550.56429   0.02071348  0.020679989            2 
 2216000   0.88879499    -7.941717    550.40394  0.020698102  0.020673465            2 
 2217000   0.89415311   -7.9562225    552.65856  0.020773514   0.02066699            2 
 2218000   0.89754228   -7.9691161    551.11459  0.020706139  0.020660488            3 
 2219000   0.90038993   -7.9469652    550.80704  0.020685258   0.02065393            2 
 2220000   0.91877085   -7.9786414    549.98429  0.020645056  0.020647406            1 
 2221000   0.89719505   -7.9822631     549.7366  0.020626467  0.020640847            4 
 2222000   0.89758898   -7.9676756    551.71621  0.020691427  0.020634346            3 
 2223000   0.91113882   -7.9430524    551.47922  0.020673235  0.020627887            5 
 2224000   0.88622668   -7.9493977    549.95729  0.020606913  0.020621421            2 
 2225000    0.8767713   -7.9668943      552.391  0.020688801  0.020614937            2 
 2226000   0.89186178   -7.9512318    551.51747  0.020646805  0.020608485            3 
 2227000   0.91178657   -7.9364036    553.50061  0.020711743   0.02060207            2 
 2228000   0.90615952   -7.9518355    552.43888  0.020662735  0.020595655            1 
 2229000   0.89780831   -7.9901441    551.22465   0.02060807  0.020589203            3 
 2230000   0.90194728   -8.0044588    550.89398  0.020586472  0.020582675            3 
 2231000   0.87275196   -7.9595303    551.72229  0.020608183  0.020576156            1 
 2232000   0.90463361   -7.9392677    553.85671   0.02067864  0.020569694            2 
 2233000   0.88732263   -7.9865992    551.92862  0.020597426  0.020563251            3 
 2234000   0.88166426   -7.9575843    553.42425  0.020643996  0.020556805            2 
 2235000   0.91906178   -7.9283721    554.19152  0.020663368  0.020550374            1 
 2236000   0.89303177   -7.9709483    552.94601  0.020607707  0.020543931            6 
 2237000   0.89709609   -7.9848235    551.93795  0.020560943    0.0205374            2 
 2238000   0.89866199   -7.9949804    552.17357  0.020560529  0.020530854            4 
 2239000   0.88146669   -7.9661762    552.84421  0.020576307  0.020524348            2 
 2240000   0.89705153    -7.969275    552.37674   0.02054973  0.020517924            2 
 2241000   0.89083308   -7.9529329    553.24578  0.020572876  0.020511473            5 
 2242000   0.88856577   -7.9307946    552.72993  0.020544526  0.020505013            4 
 2243000   0.88252137   -7.9287592    552.37606  0.020522219  0.020498531            4 
 2244000   0.89067709   -7.9689732    552.87626   0.02053165  0.020492045            5 
 2245000   0.88534597   -7.9854742    552.49101  0.020508204  0.020485522            3 
 2246000   0.88481661   -7.9616672    553.63544  0.020541534  0.020479025            4 
 2247000   0.90469585   -7.9691354    553.57272  0.020530067  0.020472541            2 
 2248000   0.89248734   -7.9581081    552.80336  0.020492414  0.020466103            2 
 2249000   0.86858663   -7.9526099    554.14283  0.020532934  0.020459655            1 
 2250000   0.88860288   -7.9851572     553.5217  0.020500804  0.020453191            3 
 2251000   0.90068023   -7.9727167    554.39117  0.020523885   0.02044672            1 
 2252000    0.8783701   -7.9974415      552.757    0.0204543  0.020440278            1 
 2253000   0.87666326   -7.9644265    554.16367  0.020497251  0.020433843            1 
 2254000   0.91705514   -7.9348814    555.00163  0.020519137  0.020427422            1 
 2255000   0.90659075   -7.9416649    552.59827  0.020421222  0.020420998            1 
 2256000   0.90324279   -7.9620466    554.24291  0.020472921  0.020414546            3 
 2257000   0.88383033   -7.9865325    555.16864   0.02049803  0.020408077            6 
 2258000   0.90008782   -7.9542539    554.39836  0.020460524   0.02040167            3 
 2259000   0.90526432   -7.9876459    555.26062  0.020483275  0.020395218            3 
 2260000   0.89127592   -7.9494127    554.38432    0.0204419  0.020388783            1 
 2261000   0.90570917   -7.9636539    553.35457  0.020394905  0.020382361            2 
 2262000   0.87771361   -7.9748724    553.57978  0.020394186  0.020375948            4 
 2263000   0.89757341   -8.0090239    554.24111  0.020409527  0.020369496            2 
 2264000   0.88055218    -8.015961    554.20334  0.020399122  0.020363006            3 
 2265000   0.89567029    -7.952533    555.01867  0.020420113  0.020356547            2 
 2266000    0.8890793   -7.9994882    554.00437    0.0203738  0.020350075            3 
 2267000   0.87986088   -7.9725457     554.8494  0.020395875  0.020343591            4 
 2268000   0.88599119    -8.009192    553.62494  0.020341892  0.020337116            3 
 2269000   0.88465431   -7.9518495    554.22394  0.020354927  0.020330661            2 
 2270000   0.89626869   -7.9713913    555.22436  0.020382686  0.020324232            4 
 2271000   0.88975207    -7.952263    555.13014  0.020370253  0.020317781            2 
 2272000   0.88241683   -7.9857968    555.74943  0.020384002   0.02031131            2 
 2273000   0.88936372   -7.9529432    556.03557  0.020385525  0.020304899            4 
 2274000   0.87815812   -7.9683792    554.37762  0.020315803   0.02029844            3 
 2275000   0.89274143   -7.9757168    554.45569  0.020309732  0.020291957            1 
 2276000   0.88155045   -7.9793276    554.67104  0.020308693  0.020285484            3 
 2277000   0.90391627   -7.9632829    555.90409  0.020344901  0.020278987            1 
 2278000   0.86996615   -7.9762397    556.45372  0.020356077   0.02027254            2 
 2279000   0.89478012   -7.9307687     555.9377  0.020328276  0.020266098            3 
 2280000   0.89641634   -7.9702361    555.42066  0.020300463  0.020259662            1 
 2281000   0.88544907    -7.950219    556.05461  0.020314723   0.02025315            2 
 2282000   0.88697985   -7.9698828    555.70055  0.020292892  0.020246667            2 
 2283000    0.8661906   -8.0054577    554.29445  0.020232678    0.0202402            2 
 2284000   0.89126661   -7.9770211    556.22225  0.020294157  0.020233734            3 
 2285000    0.8992051   -7.9575618    556.51089  0.020295802  0.020227295            2 
 2286000   0.87177067   -7.9755222    554.81184  0.020224987  0.020220848            1 
 2287000   0.89064496   -7.9799885    556.19091  0.020266394  0.020214394            1 
 2288000   0.87500916   -7.9658144    557.00643  0.020287239  0.020207918            3 
 2289000   0.88586698   -8.0023908    556.48228  0.020259294  0.020201442            2 
 2290000   0.88908825   -8.0216712    555.68316  0.020221367  0.020194988            1 
 2291000   0.89310755   -8.0150674    555.64116  0.020211013  0.020188538            3 
 2292000   0.87761615   -7.9752709     555.3443  0.020191401  0.020182023            1 
 2293000    0.8818399   -8.0206102    555.88062  0.020202087  0.020175532            2 
 2294000   0.89515763   -8.0067616     556.3351   0.02020979  0.020169036            4 
 2295000   0.90313213   -7.9754492    557.22333  0.020233236  0.020162584            2 
 2296000   0.89030699   -7.9825033    558.03782  0.020253986  0.020156173            1 
 2297000   0.87092036    -7.994719    557.08507  0.020210603  0.020149723            4 
 2298000   0.87776757   -8.0007986     557.1511  0.020204203  0.020143285            2 
 2299000    0.8789159   -7.9873275     556.9771  0.020189108  0.020136862            1 
 2300000   0.89598215   -7.9837568    556.11063  0.020148936  0.020130432            1 
 2301000   0.87617189   -7.9927732    556.37793   0.02014986  0.020123999            4 
 2302000   0.88608581   -7.9968869     557.4828  0.020181103  0.020117565            4 
 2303000   0.89792271   -7.9856365    558.16665  0.020197085  0.020111097            2 
 2304000   0.87888482   -7.9961916    557.41025  0.020160961  0.020104672            4 
 2305000   0.88823717   -8.0051494    556.02557  0.020102154  0.020098193            4 
 2306000   0.88047312   -7.9967234    557.32567  0.020140419  0.020091745            3 
 2307000    0.8715805    -8.002562    557.28561  0.020130242  0.020085283            3 
 2308000   0.88099774   -7.9936655    557.47877  0.020128494  0.020078801            1 
 2309000   0.88813567   -7.9686498    558.09905  0.020142163  0.020072351            1 
 2310000   0.85774812    -7.997795    556.56275  0.020078021  0.020065975            1 
 2311000   0.89205248   -7.9735648    558.30388  0.020132118  0.020059548            1 
 2312000   0.89160364    -8.008361    558.01719  0.020113076  0.020053131            3 
 2313000   0.88363995   -7.9777579    557.46359  0.020084435  0.020046693            3 
 2314000   0.88977949   -7.9949856    556.71409  0.020048765  0.020040207            2 
 2315000   0.88194478    -7.952841    557.93581  0.020084082   0.02003375            4 
 2316000   0.87700387   -7.9565191    558.07747  0.020080508  0.020027351            1 
 2317000   0.89640626    -7.979487    557.74755  0.020059975  0.020020916            1 
 2318000   0.89495657   -7.9914679    558.16952  0.020066491  0.020014483            1 
 2319000   0.87887598   -7.9851921    558.28474  0.020061979  0.020008032            5 
 2320000   0.88503586   -7.9753065    558.11137  0.020047104  0.020001608            4 
 2321000   0.89397929   -7.9783973     559.2849  0.020080601   0.01999517            2 
 2322000   0.90792399    -7.954852    558.79068  0.020054216  0.019988754            1 
 2323000   0.88688177    -7.966774    557.75999  0.020008609  0.019982348            2 
 2324000   0.87639278   -7.9704389     558.5524  0.020028414   0.01997592            2 
 2325000   0.88506952   -7.9422063    558.97683  0.020035012  0.019969513            1 
 2326000   0.89934603   -7.9751943    558.12876  0.019996015  0.019963127            3 
 2327000   0.87416368   -8.0083797    559.42429  0.020033816  0.019956736            2 
 2328000   0.87772556    -7.979578    558.87968  0.020005716  0.019950371            4 
 2329000    0.8757683   -8.0110954    559.37995  0.020015026  0.019943896            2 
 2330000   0.89279984   -7.9914055    558.20602   0.01996445  0.019937464            3 
 2331000   0.88640017   -7.9547534    559.38879  0.019998169  0.019931055            4 
 2332000   0.87913869   -8.0017253    558.06709  0.019942363  0.019924653            2 
 2333000   0.86708308   -8.0030105    558.16959  0.019937477  0.019918242            1 
 2334000   0.89584468   -7.9850566    558.38639  0.019936675  0.019911741            2 
 2335000    0.8887239   -8.0026229     558.4904  0.019931849  0.019905235            2 
 2336000   0.87015643   -7.9984423    558.70209  0.019930868  0.019898772            1 
 2337000   0.86669856    -7.963129    561.43664  0.020019849  0.019892358            3 
 2338000   0.87779089    -8.018916    560.07807  0.019962862  0.019885981            2 
 2339000   0.89271445   -7.9833335     560.1669  0.019957493  0.019879592            2 
 2340000   0.88127848   -7.9716481    559.91211   0.01993989  0.019873198            2 
 2341000   0.89265438   -8.0421006    559.44778  0.019914843  0.019866729            7 
 2342000   0.88169822   -8.0165999    558.23587  0.019863218  0.019860223            1 
 2343000   0.86483744   -8.0060426    558.66758  0.019870095  0.019853722            2 
 2344000   0.86005678   -8.0135501    559.83994  0.019903297   0.01984722            1 
 2345000   0.87214812   -8.0117926    560.91178  0.019932899  0.019840748            4 
 2346000   0.88087582   -8.0141463     559.0421  0.019857989  0.019834259            1 
 2347000   0.90074833    -8.028249    559.42351   0.01986307  0.019827782            1 
 2348000   0.89391902    -8.030719    559.91365  0.019872006  0.019821293            1 
 2349000   0.87373635   -8.0229038    560.36175  0.019879443  0.019814844            4 
 2350000   0.88679831   -8.0135894    560.02027  0.019858875  0.019808409            3 
 2351000   0.84710009   -7.9789617    560.65214  0.019872825   0.01980201            2 
 2352000   0.86140491   -7.9845336    560.76785  0.019868476  0.019795554            1 
 2353000   0.88143893   -8.0279986    560.46686  0.019849372  0.019789102            3 
 2354000   0.86383846   -8.0162541    558.97396   0.01978809   0.01978262            3 
 2355000   0.88429005   -8.0363579    559.49872  0.019798256  0.019776104            2 
 2356000   0.90144435   -7.9911618    560.45906  0.019823821  0.019769679            2 
 2357000   0.87672141   -8.0381579    560.25555  0.019808215  0.019763228            2 
 2358000   0.87971523   -8.0020958     560.5303  0.019809524  0.019756762            2 
 2359000   0.87443944   -8.0517047    559.44107  0.019762649  0.019750279            2 
 2360000   0.87409222    -8.033105    561.01983  0.019810022  0.019743796            2 
 2361000   0.87440042   -7.9985596    562.03247  0.019837374  0.019737409            1 
 2362000   0.89608293   -7.9909168    561.42316  0.019807478  0.019730978            2 
 2363000   0.90016285   -8.0332563    560.06435  0.019751176  0.019724568            2 
 2364000   0.88157841   -8.0077962     562.2348  0.019819332  0.019718145            2 
 2365000   0.88293794   -8.0238226     560.8626    0.0197626  0.019711745            3 
 2366000   0.89347869   -7.9927061    562.21325  0.019801819  0.019705367            3 
 2367000   0.87821481   -8.0352982    562.74203   0.01981207  0.019699007            1 
 2368000   0.86924291   -8.0106323    562.83913   0.01980712  0.019692693            3 
 2369000   0.88857959   -8.0202603    561.58906  0.019754786  0.019686329            1 
 2370000   0.87749921   -8.0231114    563.21613  0.019803662   0.01967997            2 
 2371000   0.89325352   -8.0353032    562.16956  0.019758525  0.019673593            3 
 2372000   0.87483108    -7.996353    561.96446   0.01974299  0.019667203            2 
 2373000   0.85551271   -8.0386345    560.99018  0.019700456  0.019660839            2 
 2374000   0.86329782   -8.0502654    562.50421  0.019745304  0.019654429            1 
 2375000    0.8580351    -8.020527     561.7903   0.01971194  0.019647991            2 
 2376000   0.86984148   -8.0203054    563.07362  0.019748654  0.019641584            2 
 2377000   0.89085028   -8.0264161    563.26999   0.01974723  0.019635184            3 
 2378000    0.8696954   -8.0362534    563.10978  0.019733311  0.019628791            5 
 2379000   0.90550682   -8.0079758    564.18645  0.019762731  0.019622442            3 
 2380000   0.85910895   -8.0007451    562.15819   0.01968341  0.019616113            7 
 2381000    0.8766732   -8.0154542    563.88302  0.019735511  0.019609756            2 
 2382000   0.86355688   -8.0104203    563.35796  0.019708857  0.019603417            1 
 2383000   0.87894078   -8.0187181    564.48758  0.019740089  0.019597121            2 
 2384000   0.86353872   -8.0425277    563.50875  0.019697593  0.019590829            4 
 2385000   0.86534059   -8.0051888    564.39183   0.01972019  0.019584502            1 
 2386000   0.87683152   -8.0544246    562.81937  0.019657005  0.019578145            4 
 2387000   0.87403024   -8.0487442    562.56148  0.019639767  0.019571824            1 
 2388000   0.86313596   -8.0321397    563.08725   0.01964989  0.019565508            4 
 2389000   0.88096744   -8.0122944    564.69289  0.019697673  0.019559184            2 
 2390000   0.86772622   -8.0420489    562.86338  0.019625641   0.01955287            2 
 2391000   0.86883731   -8.0521966    564.64702  0.019679598  0.019546562            1 
 2392000   0.86413267   -8.0201127     565.3892  0.019697227  0.019540261            3 
 2393000   0.86857781   -8.0171245    563.80451  0.019633811  0.019534013            3 
 2394000   0.86088389   -8.0316453    563.79713  0.019625353  0.019527714            4 
 2395000   0.88686399   -7.9967556    564.79763  0.019651971  0.019521406            1 
 2396000   0.85774815   -8.0068677    565.03311  0.019651958  0.019515121            2 
 2397000   0.86422648   -8.0453275    564.40536  0.019621936  0.019508768            4 
 2398000   0.86970124   -8.0630175    565.41645   0.01964889  0.019502407            1 
 2399000   0.86491249   -8.0914525    564.02442  0.019592345  0.019496036            5 
 2400000   0.86183713   -8.0259456    564.55583  0.019602633  0.019489715            2 
 2401000   0.86525596   -8.0482239    562.75393  0.019531929  0.019483418            1 
 2402000   0.86572157   -8.0817283    564.74765  0.019592966  0.019477123            3 
 2403000   0.87232226   -8.0474049     564.7996  0.019586614   0.01947085            3 
 2404000   0.87040232   -8.0541277    564.72218  0.019575783  0.019464586            1 
 2405000    0.8667097   -8.0515039    564.21583  0.019550098  0.019458288            1 
 2406000   0.88130881    -8.058031    564.42265  0.019549136  0.019451968            1 
 2407000   0.88783625   -8.0499476    564.74796  0.019552277   0.01944566            4 
 2408000    0.8742109   -8.0434422    565.15574  0.019558269   0.01943933            4 
 2409000   0.86316332   -8.0642171    564.59354  0.019530702  0.019433032            2 
 2410000   0.88608019   -8.0543359    565.89384   0.01956756  0.019426722            3 
 2411000   0.87752917   -8.0143747    565.57851  0.019548545  0.019420408            2 
 2412000   0.85649898   -8.0238633    565.64204  0.019542636  0.019414129            1 
 2413000    0.8509789   -8.0009489    566.57371  0.019566712  0.019407875            1 
 2414000   0.84930134   -8.0360032    565.55876  0.019523569  0.019401582            2 
 2415000   0.87885308   -8.0675376    563.64777  0.019449544  0.019395286            3 
 2416000   0.86222639   -8.0436814    566.07087  0.019525072  0.019388991            2 
 2417000   0.87565195   -8.0757792    564.38538  0.019458881  0.019382639            1 
 2418000   0.87926287   -8.0473844    565.02589  0.019472908  0.019376305            2 
 2419000   0.86445854   -8.0495593    565.82519  0.019492393  0.019370003            3 
 2420000   0.86253927   -8.0676665    565.09181  0.019459084  0.019363699            1 
 2421000   0.82763266   -8.0498337    565.37198   0.01946069  0.019357395            2 
 2422000   0.87554732   -8.0396721    567.63166  0.019530404  0.019351082            4 
 2423000   0.83851251   -8.0382652    564.93583  0.019429627  0.019344782            2 
 2424000   0.83809813   -8.0417464      565.149   0.01942894   0.01933848            3 
 2425000   0.86232841   -8.0495437    565.36905   0.01942849  0.019332189            5 
 2426000   0.86254595   -8.0425528    567.68182  0.019499925  0.019325919            2 
 2427000   0.87524437   -8.0540455    565.43164  0.019414628   0.01931967            1 
 2428000    0.8711152   -8.0532933    566.28601  0.019435956  0.019313422            2 
 2429000   0.86682611   -8.0777933    565.43812  0.019398865  0.019307167            1 
 2430000   0.87364857   -8.0371112    566.75784   0.01943614   0.01930089            2 
 2431000   0.85907433   -8.0505746    566.27627  0.019411637  0.019294627            2 
 2432000   0.85720317   -8.0213621    565.84945   0.01938903  0.019288345            1 
 2433000   0.86506719   -8.0290203    566.67988  0.019409504  0.019282128            4 
 2434000   0.84843597   -8.0439762    565.81777  0.019372014  0.019275852            8 
 2435000   0.84773393   -8.0193137    567.61196   0.01942546  0.019269586            1 
 2436000   0.84954257   -8.0438079    567.72282  0.019421279  0.019263321            2 
 2437000   0.87483497   -8.0528035    567.03887  0.019389922  0.019257056            1 
 2438000   0.85482386   -8.0568162    566.93691  0.019378484  0.019250776            2 
 2439000   0.85801589   -8.0562023    566.13304  0.019343072  0.019244528            3 
 2440000   0.86132857    -8.051612    566.28088  0.019340194  0.019238226            3 
 2441000   0.87618831   -8.0482165    566.79383  0.019349783  0.019231912            5 
 2442000   0.84240022    -8.035664    567.14429  0.019353818  0.019225616            1 
 2443000    0.8633473   -8.0604957    566.19072  0.019313369  0.019219327            3 
 2444000   0.83717948   -8.0181983    566.85864  0.019328241  0.019213032            2 
 2445000   0.87110705   -8.0473267    566.19237  0.019297627  0.019206713            3 
 2446000   0.86331104    -8.052751    567.22985  0.019325084  0.019200426            2 
 2447000   0.85342515   -8.0311577    568.21291  0.019350665  0.019194134            6 
 2448000   0.86330123    -8.051788    568.24738  0.019343933  0.019187889            2 
 2449000   0.87384427   -8.0489551    568.38455  0.019340702  0.019181604            2 
 2450000   0.84544679   -8.0157007    568.39785   0.01933326  0.019175374            3 
 2451000   0.86761109   -8.0611256    568.28896   0.01932167    0.0191691            1 
 2452000   0.86186822    -8.056636    568.87897  0.019333842  0.019162873            2 
 2453000   0.85853993   -8.0599824    565.80059  0.019221381  0.019156596            4 
 2454000   0.85745911   -8.0697685     567.5887   0.01927427  0.019150314            2 
 2455000   0.85808085   -8.0269935    567.62534  0.019267663  0.019144027            2 
 2456000   0.85163288   -8.0567205    568.37402   0.01928522  0.019137769            2 
 2457000   0.84851959   -8.0438048    569.17388    0.0193045  0.019131489            3 
 2458000    0.8546505   -8.0567614    567.57414   0.01924241  0.019125178            1 
 2459000   0.85830412   -8.0849076    566.94333  0.019213208  0.019118885            3 
 2460000    0.8455677   -8.0429573    568.28161  0.019250732  0.019112613            4 
 2461000    0.8423319   -8.0329606    568.17954  0.019239453  0.019106378            3 
 2462000   0.86494501    -8.062847    568.05694  0.019227489  0.019100165            7 
 2463000    0.8591013   -8.0650346    567.63392   0.01920537  0.019093867            6 
 2464000   0.85329707   -8.0131348     567.7798   0.01920251  0.019087576            3 
 2465000   0.84664234   -8.0530909    568.02071  0.019202864  0.019081341            8 
 2466000   0.86658212   -8.0614379    566.70408  0.019150584  0.019075063            3 
 2467000   0.86346261   -8.0614865    566.26996  0.019128157  0.019068751            3 
 2468000   0.85640999   -8.0547595     568.8784  0.019208482  0.019062436            4 
 2469000   0.85598847   -8.0882017    568.26173  0.019179888  0.019056105            3 
 2470000   0.84714382    -8.057668    568.48013  0.019179492  0.019049821            3 
 2471000    0.8579193   -8.0800652    567.83013  0.019149809  0.019043542            2 
 2472000   0.86006218   -8.0497014    568.99849  0.019181449  0.019037305            4 
 2473000   0.86858767    -8.053321    567.39129  0.019119534  0.019031073            3 
 2474000   0.86366161   -8.0400445    568.95054  0.019164327  0.019024856            3 
 2475000   0.86498584   -8.0715269    568.88379  0.019154336  0.019018657            2 
 2476000   0.86061621   -8.0852725    568.52557  0.019134544  0.019012395            2 
 2477000   0.86368452   -8.0265244    569.48628   0.01915914  0.019006148            2 
 2478000   0.85810662   -8.1013924    568.02997  0.019102434   0.01899989            2 
 2479000   0.85183344   -8.0896103    568.90238  0.019124055  0.018993638            2 
 2480000   0.85475875   -8.0848188     569.4448   0.01913457  0.018987425            2 
 2481000   0.84594421   -8.0744242    568.39513    0.0190916  0.018981185            5 
 2482000   0.85231661   -8.0726486    569.99226  0.019137532  0.018975019            3 
 2483000   0.86181605   -8.0548192    569.43051  0.019110972  0.018968836            2 
 2484000   0.86004849   -8.0672106    570.16941  0.019128067   0.01896264            2 
 2485000   0.86137521   -8.0783466    569.94436  0.019112822  0.018956382           12 
 2486000    0.8418431   -8.1028336    569.17575  0.019079369  0.018950141            2 
 2487000   0.85764318   -8.0566614    569.40744  0.019079461  0.018943861            3 
 2488000   0.85256343   -8.0553565    569.19603  0.019064712   0.01893762            3 
 2489000   0.85184553   -8.0668569    569.81565  0.019077797   0.01893139            2 
 2490000   0.86057422   -8.0833125    567.97144  0.019008415  0.018925202            4 
 2491000   0.85995668    -8.063086    569.23215   0.01904296  0.018918992            2 
 2492000   0.85533974   -8.0848586    570.99415   0.01909424  0.018912798            1 
 2493000   0.85117683   -8.0943183    570.56659  0.019072289  0.018906612            2 
 2494000   0.86280499   -8.0988041     569.6838  0.019035144  0.018900399            1 
 2495000   0.86821656    -8.090886    570.42227   0.01905218  0.018894183            2 
 2496000   0.84307267   -8.0607326    570.76785  0.019056085  0.018888005            1 
 2497000   0.86181283   -8.0916705    569.18876  0.018995753  0.018881788            2 
 2498000   0.87433506   -8.0920735     569.8372  0.019009781  0.018875562            2 
 2499000   0.87374533   -8.0543153    572.20662  0.019081187  0.018869358            2 
 2500000   0.83916319   -8.0304954    569.82385  0.018994128  0.018863223            1 
 2501000   0.84643128   -8.0599401    571.89923  0.019055685  0.018857112            2 
 2502000   0.84359766   -8.0816479    572.01505  0.019051927  0.018850998            2 
 2503000   0.84272532   -8.0648999    571.65305  0.019032263  0.018844857            5 
 2504000   0.83090125   -8.0911223    571.45534  0.019018083  0.018838699            2 
 2505000   0.86351148   -8.0887652     570.9128  0.018992442  0.018832545            4 
 2506000   0.85442928   -8.0871181    571.22813  0.018995349  0.018826333            2 
 2507000    0.8484907   -8.0797369    571.17338  0.018985952  0.018820183            1 
 2508000   0.83440558   -8.0773701    573.49193   0.01905542  0.018814083            2 
 2509000   0.84789498   -8.0510905    571.71673  0.018988864  0.018807974            2 
 2510000   0.84388148   -8.0528269    571.77934  0.018983378  0.018801862            1 
 2511000    0.8366202   -8.1155158    570.94136  0.018948007  0.018795699            2 
 2512000   0.85267098   -8.0511891    571.71179  0.018966023  0.018789575            2 
 2513000   0.84505776   -8.0630801    571.86906  0.018963691   0.01878351            2 
 2514000   0.87232526   -8.0754238    570.71257  0.018917812  0.018777376            1 
 2515000   0.84597784   -8.0925233    572.18042  0.018958927  0.018771215            2 
 2516000   0.86422352    -8.093808    571.46967  0.018927851  0.018765042            1 
 2517000   0.84820144   -8.0907049    571.12627  0.018908961  0.018758844            1 
 2518000   0.84491282   -8.0490118    573.39969  0.018976691  0.018752737            1 
 2519000    0.8348742   -8.0722121    572.48704  0.018938965  0.018746642            1 
 2520000   0.84779852   -8.1166882    571.23276  0.018889972  0.018740509            3 
 2521000   0.85886434   -8.0920252    571.08234  0.018877507  0.018734333            4 
 2522000   0.84609082   -8.1123097    573.22815  0.018940925  0.018728161            4 
 2523000   0.83862528   -8.0678966    572.46947  0.018908359  0.018722063            5 
 2524000    0.8656738   -8.1044472    571.68765  0.018875054  0.018715929            2 
 2525000    0.8551386   -8.0720328    573.65326  0.018932451  0.018709824            1 
 2526000    0.8419126   -8.0684714    574.17244  0.018942084  0.018703745            2 
 2527000   0.84408139   -8.0702714    573.09394  0.018899022  0.018697643            2 
 2528000   0.85307759   -8.0903373    571.63855   0.01884357  0.018691521            3 
 2529000   0.83132037   -8.0804946    573.14349  0.018885709   0.01868541            3 
 2530000   0.83844573   -8.1113303    573.77657  0.018899096   0.01867931            2 
 2531000   0.83588363   -8.0788459    573.22134  0.018873349  0.018673239            3 
 2532000   0.85777084   -8.0955949    574.30096  0.018901427  0.018667112            5 
 2533000   0.84193048   -8.0823421    573.14708  0.018856004  0.018660987            2 
 2534000   0.86430412   -8.0897361    572.51588  0.018827804  0.018654933            1 
 2535000   0.84852947   -8.0904333    573.33539  0.018847317  0.018648878            2 
 2536000   0.85446176   -8.0529741    574.36092  0.018873584  0.018642837            3 
 2537000   0.83791372   -8.0912098    572.78551  0.018814397  0.018636768            3 
 2538000   0.85688031   -8.0576508    573.10248  0.018817392  0.018630697            1 
 2539000   0.85414491   -8.0712068    574.22837  0.018846933  0.018624635            3 
 2540000   0.85429337   -8.0958493    574.16746  0.018837515  0.018618554            2 
 2541000   0.85577304   -8.0883546    574.26323  0.018833242  0.018612451            2 
 2542000    0.8361045   -8.0924199    573.00918  0.018784723  0.018606348            2 
 2543000   0.84641599   -8.0986305    572.55001  0.018762289  0.018600225            4 
 2544000   0.85388767   -8.0969939    573.32969  0.018780454  0.018594063            2 
 2545000    0.8427882   -8.1174278    572.27033  0.018738387  0.018587909            2 
 2546000   0.84288648    -8.106297    572.03331  0.018723269  0.018581777            2 
 2547000   0.84265547   -8.1076174     572.1686  0.018720344  0.018575647            2 
 2548000   0.84836116   -8.0880346    574.13312  0.018777248  0.018569523            3 
 2549000   0.82693802   -8.1131051    573.43327  0.018747001  0.018563397            2 
 2550000   0.83490351   -8.1186228    572.51379  0.018709601  0.018557274            3 
 2551000   0.85354087   -8.1076255    572.98881  0.018717784  0.018551157            3 
 2552000   0.84787354   -8.0633685    574.11876  0.018747347  0.018545036            4 
 2553000   0.84251864   -8.1178205    573.11048  0.018707092  0.018538881            2 
 2554000   0.85153758   -8.1062507    573.40449  0.018709361   0.01853275            1 
 2555000   0.83950295   -8.0904813    572.77502  0.018681507  0.018526613            2 
 2556000   0.84983614    -8.098073    573.05404  0.018683296  0.018520463            2 
 2557000   0.83822865   -8.0877571     572.9511  0.018672634  0.018514329            3 
 2558000   0.83360955   -8.1182233    572.43464  0.018648509  0.018508188            1 
 2559000   0.84192857   -8.1152837    573.24247  0.018667529  0.018502042            2 
 2560000   0.84229021   -8.0997824    573.72285  0.018675874  0.018495918            2 
 2561000   0.83626665    -8.142545    573.19808  0.018651506  0.018489764            2 
 2562000   0.83734783   -8.1136517    572.86247   0.01863331  0.018483593            3 
 2563000   0.82927238   -8.1343841    573.10842  0.018634036  0.018477436            3 
 2564000   0.84476387   -8.1105143    574.10825  0.018659265  0.018471259            2 
 2565000   0.85088759   -8.1094934    573.73799  0.018639961  0.018465134            3 
 2566000    0.8369067   -8.1226412    573.12506  0.018612791  0.018459006            3 
 2567000   0.84359656   -8.1564672    574.15405  0.018638945  0.018452871            6 
 2568000   0.83776342    -8.087144    573.51868  0.018611068   0.01844676            3 
 2569000   0.86025242   -8.0947116    573.58524  0.018605983   0.01844067            3 
 2570000   0.85651154   -8.1015221    575.55627  0.018662655  0.018434588            4 
 2571000   0.85079408   -8.1031277    575.34064  0.018648407  0.018428541            6 
 2572000   0.85715127   -8.0677306    575.15337  0.018635088  0.018422483            2 
 2573000   0.85075395   -8.1156474    573.41582  0.018571571  0.018416375            4 
 2574000   0.84182165   -8.0762047    575.14219  0.018620247  0.018410232            2 
 2575000   0.84587328   -8.1309771    573.41632  0.018557162  0.018404098            2 
 2576000   0.86228037   -8.0920354    576.20058  0.018640029  0.018397945            2 
 2577000   0.85174822   -8.0797438    575.72085  0.018617283  0.018391867            2 
 2578000   0.85385329   -8.1150144    574.09403  0.018557474  0.018385762            1 
 2579000   0.83761689   -8.0645036    574.87741  0.018575592  0.018379665            3 
 2580000   0.84611438   -8.1163952    573.45378  0.018522409  0.018373561            4 
 2581000   0.82897573    -8.111031    574.73662  0.018556652  0.018367451            2 
 2582000   0.83581783   -8.0944021    573.38353  0.018505794  0.018361345            2 
 2583000   0.82797248   -8.1080379    573.51868   0.01850299  0.018355243            2 
 2584000   0.84971536   -8.1316245    573.96425  0.018510199  0.018349142            4 
 2585000   0.85144367   -8.1032889    575.66615  0.018557903  0.018343041            2 
 2586000   0.85428155   -8.1034153     573.9322   0.01849485  0.018336931            2 
 2587000   0.84623435   -8.1385574    574.16203  0.018495105   0.01833082            2 
 2588000   0.84447873   -8.0985767    574.20437  0.018489321   0.01832469            8 
 2589000   0.83961714   -8.1152971    574.30898  0.018485547  0.018318586            6 
 2590000   0.83468206   -8.1088638    575.16954  0.018506098  0.018312457            4 
 2591000   0.83477041   -8.1541395    575.67359  0.018515168  0.018306326            9 
 2592000   0.84383793   -8.1183796    575.00908   0.01848666  0.018300212            4 
 2593000   0.83124777   -8.1523692    575.48515  0.018494831  0.018294105            5 
 2594000   0.82109392   -8.1094844    576.96207  0.018535148  0.018288033            2 
 2595000   0.82958464   -8.1431667    576.05695  0.018498939  0.018281968            1 
 2596000   0.82991217   -8.0978055    576.00434  0.018490124  0.018275935            4 
 2597000   0.83121694   -8.0881173    574.86731  0.018446519  0.018269885            2 
 2598000   0.81829712   -8.0986705    574.57801  0.018430139  0.018263809            2 
 2599000   0.84649757   -8.0983056    576.05344  0.018470355  0.018257761            2 
 2600000   0.83300206   -8.0995244    577.67535  0.018515236  0.018251738            3 
 2601000   0.82670183   -8.0787486    575.64958  0.018443213  0.018245668            2 
 2602000   0.83341023   -8.1129108     575.8566  0.018442756    0.0182396            6 
 2603000   0.83252927   -8.1102911     576.5245  0.018457053  0.018233546            4 
 2604000   0.84273183    -8.108751    575.01291  0.018401591  0.018227487            5 
 2605000   0.83406922   -8.1123798    575.68973  0.018416178  0.018221398            4 
 2606000   0.84229539   -8.1115855    576.06004  0.018420953  0.018215354            2 
 2607000   0.84642294   -8.0715655    575.88333  0.018408238  0.018209286            1 
 2608000   0.83808364   -8.0767359     577.2249  0.018444047  0.018203246            2 
 2609000   0.83077487   -8.1231151    575.89309  0.018394439  0.018197165            2 
 2610000   0.81238551   -8.1031464    576.79093  0.018416058  0.018191055            3 
 2611000   0.85911346   -8.1072065    575.56739  0.018369954  0.018184978            3 
 2612000   0.84212964   -8.1034212    576.10696  0.018380135  0.018178898            1 
 2613000   0.83519182   -8.1047272     576.2629  0.018378074  0.018172809            1 
 2614000   0.84773242   -8.1268577    573.68861  0.018288976  0.018166708            1 
 2615000   0.83132242   -8.1144087    576.01702  0.018356183  0.018160606            2 
 2616000    0.8257252   -8.1406983    576.55293  0.018366237  0.018154517            1 
 2617000   0.81418707   -8.1028419    575.34668  0.018320809  0.018148418            2 
 2618000   0.82368511   -8.1393902    576.31451  0.018344618  0.018142321            2 
 2619000   0.83507594   -8.1231764    575.49327  0.018311482  0.018136211            5 
 2620000   0.84139317   -8.1280753    575.39802  0.018301464  0.018130115            4 
 2621000   0.83479474   -8.1400512    575.38899  0.018294194  0.018124032            5 
 2622000   0.82765524   -8.1192461    577.77732  0.018363123   0.01811793            2 
 2623000   0.82847341   -8.0891397    576.34372  0.018310577  0.018111863            3 
 2624000   0.81780395   -8.1332673    575.46103  0.018275566   0.01810583            3 
 2625000   0.83340006   -8.1290906     576.8375  0.018312301  0.018099773            3 
 2626000   0.81089435   -8.1183296    576.76338  0.018302976  0.018093703            2 
 2627000   0.82260203   -8.1379126    576.45619  0.018286264  0.018087625            3 
 2628000   0.84094751   -8.1303119    576.12558  0.018268822  0.018081565            4 
 2629000   0.82570739   -8.1344369    575.60678  0.018245428  0.018075497            2 
 2630000   0.83409136   -8.1428751    575.29903   0.01822874  0.018069422            5 
 2631000   0.83964534   -8.1316359    576.05586  0.018245783  0.018063301            4 
 2632000   0.84817282   -8.1394732    575.88526  0.018233449  0.018057188            3 
 2633000   0.83380195   -8.1547211    576.38313  0.018242282  0.018051104            3 
 2634000    0.8388286   -8.1185725    577.29563  0.018264225  0.018045028            2 
 2635000    0.8250346   -8.1243119    577.90844  0.018276674  0.018039023            2 
 2636000   0.81018746     -8.11906    577.01827  0.018241599  0.018033006            2 
 2637000   0.83605705   -8.1281138    577.62824  0.018253958  0.018026952            1 
 2638000   0.82686022   -8.1425298    576.64028  0.018215829  0.018020909            1 
 2639000   0.81953694   -8.1491552    576.81465  0.018214432  0.018014893            2 
 2640000   0.83580903   -8.1170263    577.56853   0.01823133    0.0180089            1 
 2641000   0.81668319   -8.1479788    577.52636  0.018223096  0.018002876            1 
 2642000   0.84090857   -8.1405212    577.56621  0.018217455  0.017996874            3 
 2643000   0.83224805   -8.1248616    577.93133  0.018222075  0.017990862            3 
 2644000   0.83456529   -8.1335122    576.11589  0.018157964  0.017984843            3 
 2645000   0.83044542   -8.1819927    576.35541  0.018158646  0.017978782            3 
 2646000   0.82963538   -8.1785318    578.62002  0.018223105  0.017972704            6 
 2647000   0.84086806   -8.1568184    576.62994  0.018153568  0.017966607            3 
 2648000   0.81855589    -8.159885    576.69847  0.018148869  0.017960515            2 
 2649000   0.83052546   -8.1645964    576.71735  0.018142612  0.017954432            3 
 2650000   0.82989343   -8.1544555    577.23086  0.018151914  0.017948353            2 
 2651000   0.83655816   -8.1440296    577.66113  0.018158592  0.017942341            2 
 2652000   0.83692364   -8.1307837      577.406  0.018143728  0.017936331            2 
 2653000   0.81129107   -8.1446492     577.8325  0.018150286  0.017930314            2 
 2654000   0.81139547   -8.1527047    577.52067  0.018133656   0.01792426            1 
 2655000   0.83711052   -8.1448691    578.73525  0.018164948   0.01791822            4 
 2656000   0.82686889   -8.1583613    577.53586  0.018120478  0.017912192            2 
 2657000   0.82554624   -8.1485087     578.0902  0.018131044  0.017906201            2 
 2658000   0.83397006   -8.1617819     577.3314  0.018100433  0.017900192            2 
 2659000   0.82006191   -8.1567818    578.36685  0.018126077  0.017894191            2 
 2660000   0.83897432     -8.16314    577.56858  0.018094254  0.017888229            1 
 2661000   0.80623659   -8.1276477    579.53868  0.018149151  0.017882301            2 
 2662000   0.83816483    -8.129314    579.30089  0.018134889  0.017876345            3 
 2663000   0.81089766   -8.1127584    579.49937   0.01813429  0.017870368            2 
 2664000   0.82494077   -8.1408704    579.01061  0.018112194  0.017864411            2 
 2665000   0.82128403   -8.1426823     580.6989  0.018158189  0.017858437            4 
 2666000   0.82396617   -8.1206406    578.87368  0.018094326  0.017852478            2 
 2667000   0.82618861   -8.1429456    578.98252  0.018090943  0.017846503            2 
 2668000   0.83303385   -8.1544504    577.00628  0.018022435  0.017840518            2 
 2669000   0.81782306   -8.1098991    579.28522  0.018086837  0.017834555            2 
 2670000   0.78995386   -8.1214112    578.57942  0.018058034   0.01782861            2 
 2671000   0.82354681   -8.1529757    579.20347  0.018070743   0.01782266            5 
 2672000   0.82202707   -8.1420532     579.1052  0.018060916  0.017816672            2 
 2673000   0.79377035     -8.16448    578.76584  0.018043579   0.01781068            1 
 2674000   0.81610804   -8.1314522    579.19237  0.018050124  0.017804689            2 
 2675000    0.8101934   -8.1792941    578.56809  0.018023928  0.017798699            2 
 2676000   0.82658389   -8.1373067    579.61449  0.018049779  0.017792726            3 
 2677000      0.82578   -8.1446474    579.72847  0.018046584  0.017786743            3 
 2678000    0.8043007   -8.1364737    579.52959  0.018033657  0.017780792            7 
 2679000   0.84260615   -8.1658432    576.43646   0.01793071  0.017774851            4 
 2680000   0.81707597   -8.1382952    578.60724  0.017991519  0.017768913            2 
 2681000   0.83604264   -8.1697948    580.00382  0.018028218  0.017762949            2 
 2682000   0.81744896   -8.1480175    579.76255  0.018013999  0.017756983            2 
 2683000   0.82299961   -8.1527728    580.75931  0.018038244  0.017750994            3 
 2684000   0.79929511   -8.1274056    578.84781  0.017972175  0.017745023            2 
 2685000   0.81632607   -8.1374478    579.50665   0.01798593  0.017739109            2 
 2686000   0.83617254   -8.1170013    580.94153  0.018023751  0.017733193            2 
 2687000   0.82915176   -8.1339255    580.59613  0.018006331  0.017727262            3 
 2688000   0.80223959   -8.1797946    578.91873  0.017947629  0.017721316            2 
 2689000   0.82066303   -8.1670075    579.91089  0.017971702  0.017715334            2 
 2690000   0.80063232   -8.1551802    580.28751  0.017976689  0.017709387            1 
 2691000   0.81421287   -8.1730714    579.31075  0.017939761  0.017703418            3 
 2692000    0.8138721   -8.1700752    580.49281  0.017969688  0.017697454            6 
 2693000   0.83279431   -8.1506782    580.50556   0.01796341  0.017691519            1 
 2694000   0.82572226   -8.0957914    581.80454  0.017996924  0.017685609            5 
 2695000   0.81166051   -8.1432263    580.65556  0.017954718  0.017679732            3 
 2696000   0.80637968    -8.150037    578.84669  0.017892146  0.017673828            3 
 2697000   0.83754369   -8.1219822    582.12891  0.017986927  0.017667968            2 
 2698000    0.7992639   -8.1607929    581.97774  0.017975591   0.01766209            6 
 2699000   0.82358626   -8.1260667    580.65084  0.017927962  0.017656248            3 
 2700000   0.81410558   -8.1251746    582.22798  0.017969999  0.017650412            3 
 2701000   0.79415172   -8.1377795    580.97552  0.017924705  0.017644564            2 
 2702000   0.82114756   -8.1838289    581.17368  0.017924182  0.017638706            3 
 2703000   0.80718759   -8.1989035    580.98099   0.01791161  0.017632825            1 
 2704000   0.83535116    -8.166935    581.19132  0.017911468  0.017626921            2 
 2705000   0.81595578   -8.1853444     581.5385  0.017915542  0.017621042            4 
 2706000   0.81861179   -8.1390235    582.21418   0.01792973  0.017615177            3 
 2707000   0.81683313      -8.1735    581.46636  0.017900085  0.017609325            2 
 2708000    0.8126687   -8.1457129    582.78731  0.017934124  0.017603476            2 
 2709000   0.81912817   -8.1673009    580.01764  0.017842305  0.017597633            4 
 2710000   0.83090907   -8.1600417    581.43731  0.017879376  0.017591787            1 
 2711000    0.8190927   -8.1335417    581.76469  0.017882844  0.017585946            2 
 2712000   0.83613566   -8.1459115    582.75517  0.017906685  0.017580128            4 
 2713000   0.81607771   -8.1732126    581.91209  0.017874189  0.017574298            4 
 2714000   0.81516413   -8.1860428     580.6063  0.017827508  0.017568451            5 
 2715000    0.8123197   -8.1673354    583.42287  0.017907393  0.017562596            2 
 2716000   0.80244425   -8.1771449    581.36952  0.017837798  0.017556748            8 
 2717000   0.81803892   -8.1649196    581.54686  0.017836672  0.017550877            1 
 2718000   0.83002582   -8.1867884     581.5103  0.017828989  0.017545028            2 
 2719000   0.83955954   -8.1736405     581.1021  0.017809921  0.017539167            2 
 2720000   0.81574603   -8.1581066    582.32366  0.017840798  0.017533338            4 
 2721000   0.81420619   -8.1830773    580.42459  0.017776081  0.017527489            2 
 2722000   0.80654435   -8.2139143    582.55494   0.01783477  0.017521643            3 
 2723000   0.79626372   -8.2029759    581.99859  0.017811194  0.017515762            2 
 2724000   0.78890831   -8.1906801    581.50453  0.017789541  0.017509879            2 
 2725000   0.80744165   -8.1796478    581.87542  0.017794355  0.017503981            3 
 2726000   0.79826913   -8.1420163    581.29115  0.017769967  0.017498075            2 
 2727000   0.83199465   -8.1796625    580.95688  0.017753236  0.017492203            2 
 2728000   0.81340279   -8.1627752    581.11495  0.017751556  0.017486311            5 
 2729000   0.83353202   -8.1538364    582.11662  0.017775639  0.017480436            3 
 2730000   0.83245842   -8.1619555    581.48182   0.01774975  0.017474598            1 
 2731000   0.81185112   -8.1521049    581.97364  0.017758258  0.017468763            3 
 2732000   0.81338715   -8.1864468    581.41578  0.017734742  0.017462895            2 
 2733000   0.82390531   -8.1555346    582.28008  0.017754607  0.017457026            2 
 2734000    0.8208249   -8.1687311    581.79489  0.017733324  0.017451184            4 
 2735000   0.83231919   -8.1732203    582.73839  0.017755588  0.017445322            4 
 2736000   0.82801546    -8.152389     582.7667   0.01774996  0.017439494            3 
 2737000   0.81854938   -8.1642749     582.7591  0.017743244  0.017433665            2 
 2738000   0.82697122   -8.1745339    582.26203  0.017721635  0.017427806           13 
 2739000   0.81946327   -8.2094718     581.3978  0.017688871  0.017421954            2 
 2740000   0.81379216   -8.2016728    580.03169  0.017640867  0.017416063           15 
 2741000   0.81170312   -8.1761106     582.4007  0.017706454  0.017410181            2 
 2742000   0.80634011   -8.1937485    581.88983  0.017684471   0.01740432            2 
 2743000   0.81163609   -8.1810652    582.56412  0.017698509  0.017398445            3 
 2744000   0.81426175   -8.1999572    581.18441  0.017650158   0.01739256            2 
 2745000   0.81308032   -8.2195125    580.45544  0.017621598  0.017386678            4 
 2746000   0.80894972   -8.2006561    581.30854   0.01764107  0.017380789            3 
 2747000   0.81421436   -8.1821438    581.61024  0.017643801  0.017374905            3 
 2748000   0.80579648   -8.1727474    581.78776  0.017642763  0.017369007            3 
 2749000   0.80389815   -8.2163924    580.48827  0.017596953  0.017363114            7 
 2750000   0.82195887   -8.1819662    581.78483  0.017629843  0.017357229            5 
 2751000   0.83190675    -8.210945    582.41169  0.017642424  0.017351359            3 
 2752000    0.8064161   -8.2119449     582.2517  0.017631168  0.017345492            4 
 2753000   0.81281112   -8.2020718     582.5937  0.017635116  0.017339634            7 
 2754000    0.8027177   -8.1872005    582.52024   0.01762649   0.01733378            3 
 2755000   0.80296057   -8.1707281    582.34888  0.017614909  0.017327963            2 
 2756000   0.84275939   -8.1894781    582.19421   0.01760384  0.017322106            5 
 2757000   0.80304444   -8.1862756    583.01945  0.017622399  0.017316279            1 
 2758000   0.80531822   -8.2011256    581.82577  0.017579942  0.017310431            1 
 2759000   0.82349573    -8.187216    582.42598  0.017591699  0.017304575            3 
 2760000   0.79579881   -8.2097131    582.56769  0.017589604   0.01729872            4 
 2761000   0.81468355   -8.1903731    582.30941  0.017575438  0.017292866            2 
 2762000   0.81163474   -8.2113458    583.21503  0.017596398  0.017287041            4 
 2763000   0.80569604    -8.213533    582.24524  0.017560781  0.017281224            6 
 2764000   0.80869446   -8.1933349    583.53347  0.017593267  0.017275403            1 
 2765000   0.82927337    -8.201031    584.44479   0.01761437  0.017269616            2 
 2766000   0.80710556   -8.1840425     583.1995  0.017570484  0.017263834            4 
 2767000   0.79493168   -8.1880764    583.95451  0.017586872  0.017258055            5 
 2768000   0.81626721    -8.185164    583.79005  0.017575567  0.017252289            2 
 2769000   0.81698967   -8.2169374    584.59748   0.01759352  0.017246544            3 
 2770000   0.80160816   -8.1638957    584.44896    0.0175827  0.017240792            7 
 2771000   0.82038962   -8.1857699    584.10604  0.017566042  0.017235044            4 
 2772000   0.79074978   -8.1946289    584.59594  0.017574433  0.017229275            2 
 2773000   0.81927101   -8.2277862    583.60842  0.017538419  0.017223488            2 
 2774000   0.81589096   -8.2052113    582.85934  0.017509593  0.017217705            3 
 2775000   0.78951166   -8.2040988    584.07736  0.017539861  0.017211917            3 
 2776000   0.81502157   -8.2073089    583.68701  0.017521824  0.017206168            3 
 2777000   0.81838247   -8.2009429    585.09226  0.017557684  0.017200401            3 
 2778000   0.79359896   -8.2148113    583.29636  0.017497491  0.017194636            2 
 2779000   0.81004049    -8.194174    583.42524  0.017495059   0.01718886            1 
 2780000   0.80162366   -8.1861057    584.20205  0.017512052  0.017183067            2 
 2781000   0.80089738    -8.179577     584.6105  0.017517994  0.017177311            2 
 2782000   0.80140721   -8.2243539    584.08713   0.01749602  0.017171562            2 
 2783000   0.82942069   -8.1662987     584.7928  0.017510864   0.01716581            2 
 2784000   0.79368148   -8.1598825     583.5128   0.01746626  0.017160072            2 
 2785000   0.82271599   -8.2066268    584.26254  0.017482422  0.017154318            2 
 2786000   0.79728252    -8.214374    584.35035  0.017478773  0.017148551            4 
 2787000   0.81041214   -8.2318085    583.47813  0.017446422  0.017142772            1 
 2788000   0.80429619   -8.2155606    583.33195  0.017435795  0.017136972            3 
 2789000   0.80372184   -8.2032217    584.92618  0.017477178  0.017131176            2 
 2790000   0.81696071   -8.2190244    582.65984  0.017403221  0.017125356            4 
 2791000   0.81464242   -8.1925035    584.70708  0.017458112  0.017119564            3 
 2792000   0.79288232   -8.2183126    582.79175  0.017394692  0.017113774            1 
 2793000   0.80080039   -8.2257485    583.69095  0.017415293  0.017107962            3 
 2794000    0.8204725    -8.186644    584.29265  0.017427006  0.017102152            2 
 2795000   0.80142027   -8.2248561    585.09567  0.017444713  0.017096345            1 
 2796000   0.81929511   -8.2085137    584.41971  0.017418327  0.017090585            1 
 2797000   0.80797225   -8.2143304    584.48716  0.017414109  0.017084812            2 
 2798000   0.79609268   -8.2178841    583.51902  0.017379051  0.017079029            5 
 2799000    0.8076465   -8.2181251    583.84938  0.017382678  0.017073263            2 
 2800000   0.80178843   -8.1911732    584.05465  0.017382579  0.017067492            1 
 2801000   0.79723073   -8.2241344    582.49195  0.017329881  0.017061708            1 
 2802000   0.80933403   -8.2533225    584.04733  0.017369954  0.017055904            3 
 2803000   0.80820679   -8.2300846    584.95766  0.017390821  0.017050098            1 
 2804000   0.80640814   -8.2010924    585.03138   0.01738681  0.017044334            1 
 2805000   0.81480131   -8.2330773    583.72853  0.017341905  0.017038563            2 
 2806000   0.80679696    -8.178819    585.38017  0.017384776  0.017032823            1 
 2807000    0.8192859   -8.2206565    583.94089  0.017335854  0.017027084            5 
 2808000     0.797384   -8.2160686    584.32193  0.017340988  0.017021363            1 
 2809000   0.81166865   -8.2309581    585.00031   0.01735494  0.017015628            2 
 2810000   0.79353565   -8.2338539    584.05392  0.017320697   0.01700986            1 
 2811000   0.81632647   -8.2165399    585.06384  0.017344475  0.017004105            3 
 2812000   0.80545104   -8.1999169    584.08178  0.017309204  0.016998358            2 
 2813000   0.80832356   -8.2119974    584.86707  0.017326314  0.016992594            5 
 2814000   0.80380229   -8.2134357    585.98726   0.01735333  0.016986832            3 
 2815000   0.78951133    -8.246098    584.54187  0.017304378  0.016981065            2 
 2816000    0.7918093    -8.247063     584.7342  0.017303924  0.016975305            3 
 2817000   0.79967727   -8.2095173    586.18049  0.017340566  0.016969546            5 
 2818000   0.80798255   -8.1903972    584.51087  0.017285039    0.0169638            2 
 2819000    0.7896176   -8.2138635    584.07711  0.017266085  0.016958056            2 
 2820000   0.78649508   -8.2188361    584.45801  0.017271218  0.016952305            1 
 2821000   0.80809209   -8.1958288      585.223  0.017287693  0.016946544            4 
 2822000   0.78839448   -8.2369914    584.13886  0.017249553  0.016940783            3 
 2823000    0.7953975   -8.2153301    584.17948  0.017244642  0.016934984            1 
 2824000   0.82631093   -8.1989884    583.48047  0.017217908  0.016929231            6 
 2825000   0.80500793   -8.2271267    583.55366  0.017213972  0.016923451            4 
 2826000   0.79992115   -8.2298927     584.5409  0.017236993  0.016917657            1 
 2827000   0.82548019   -8.2639925    582.59579  0.017173558  0.016911861            2 
 2828000   0.81452493   -8.2285131    584.43488  0.017221678  0.016906079            6 
 2829000   0.82318387   -8.2455057    584.23615  0.017209737  0.016900308            1 
 2830000   0.79864354    -8.204137    585.33866  0.017236121  0.016894542            3 
 2831000   0.79350762   -8.2369515    585.21431  0.017226372  0.016888771            1 
 2832000   0.79840162   -8.2470219    583.06347  0.017156999  0.016883004            1 
 2833000   0.79140556   -8.2427205    584.46729  0.017192237  0.016877245            2 
 2834000   0.78110319   -8.2159699    585.10208  0.017204836  0.016871495            3 
 2835000   0.80893044   -8.1969352    584.77169  0.017189056  0.016865768            1 
 2836000   0.79575312   -8.2144782    584.84188  0.017185058  0.016860049            3 
 2837000   0.78427335   -8.2186564    585.56345  0.017200195  0.016854326            2 
 2838000   0.78818919   -8.2415478    586.42374  0.017219396  0.016848584            3 
 2839000   0.80532472   -8.2344143    585.24806  0.017178821  0.016842869            2 
 2840000   0.79991985   -8.2025365    584.58342  0.017153269  0.016837145            2 
 2841000   0.80230273   -8.2478707    583.65599  0.017120028  0.016831425            2 
 2842000   0.79771208   -8.2260038    584.55963    0.0171405  0.016825685            3 
 2843000    0.8063442   -8.2436259    585.58897  0.017164643  0.016819964            2 
 2844000   0.80033894   -8.2550915    585.70982  0.017162149  0.016814232            1 
 2845000   0.78968788   -8.2312378    585.09045  0.017137974  0.016808511            2 
 2846000   0.80881142   -8.2183745    584.77923   0.01712284  0.016802799            1 
 2847000   0.79523617   -8.2310743    585.24275  0.017130393  0.016797084            2 
 2848000   0.78239505    -8.234702     584.8569  0.017113088  0.016791352            2 
 2849000   0.78607037   -8.2432445    584.99803  0.017111209  0.016785595            2 
 2850000    0.8135726     -8.25592    583.15646  0.017051359  0.016779846            3 
 2851000   0.79634069   -8.2212297    586.57116  0.017145188  0.016774099            2 
 2852000   0.78360608   -8.2281586    584.35312  0.017074367  0.016768379            3 
 2853000   0.80594222   -8.2201372    584.66603  0.017077522  0.016762662            4 
 2854000    0.7961628   -8.1831601    585.29812  0.017089994  0.016756958            1 
 2855000   0.78405216   -8.2331262    586.35262  0.017114788  0.016751253            2 
 2856000   0.79163563   -8.2619375    584.94229  0.017067644  0.016745521            2 
 2857000    0.7918967   -8.2417204    585.08227  0.017065753  0.016739771            2 
 2858000   0.78953893   -8.2321659    586.42824  0.017099027  0.016734033            2 
 2859000   0.79088341      -8.2441    586.37539  0.017091506   0.01672828            3 
 2860000   0.79750442   -8.2310055    586.32569  0.017084082  0.016722587            2 
 2861000   0.79664823   -8.2246799    586.34554  0.017078689  0.016716875            1 
 2862000   0.79553868   -8.2287195    585.87617  0.017059054  0.016711154            7 
 2863000   0.79840112   -8.2185319    585.57631  0.017044368  0.016705432            6 
 2864000    0.8005858   -8.2490649    585.38538  0.017032861   0.01669971            2 
 2865000   0.78633059   -8.2537389    585.87498  0.017041157  0.016693965            3 
 2866000   0.78642071   -8.2465897    585.74122  0.017031322  0.016688237            2 
 2867000   0.76860149   -8.2508239    585.02011  0.017004421   0.01668251            4 
 2868000   0.78326678   -8.2591859    584.47468  0.016982644  0.016676782            2 
 2869000   0.78700529   -8.2448474    584.72128  0.016983888  0.016671043            4 
 2870000    0.7970483   -8.2645933    585.34102  0.016995965  0.016665306            4 
 2871000   0.78706963   -8.2161493     586.0676  0.017011134  0.016659574            2 
 2872000   0.77703408   -8.2805708    584.95902  0.016973045  0.016653825            3 
 2873000   0.79253048    -8.229669    583.88668  0.016936033  0.016648079            2 
 2874000    0.7734567    -8.258864    585.33493  0.016972133   0.01664233            1 
 2875000   0.79142408   -8.2644999    585.35721  0.016966876  0.016636576            2 
 2876000   0.81109563   -8.2401479    584.55237  0.016937656   0.01663082            1 
 2877000   0.80406801   -8.2493429    583.67268  0.016906288  0.016625051            2 
 2878000   0.79546867   -8.2513381    584.60257  0.016927339  0.016619317            7 
 2879000   0.78401733   -8.2384055    583.48143  0.016889008  0.016613543            2 
 2880000   0.79172518   -8.2757937    584.81327   0.01692168  0.016607789            2 
 2881000   0.78478344   -8.2504344    585.08527  0.016923674  0.016602054            2 
 2882000   0.79441891   -8.2857054    584.92787  0.016913251  0.016596341            3 
 2883000   0.77752049    -8.245191    584.68105   0.01690025  0.016590584            1 
 2884000   0.80101199   -8.2656067      583.843  0.016870175  0.016584819            1 
 2885000   0.78268915   -8.2397113     585.8235  0.016921534  0.016579076            3 
 2886000   0.79391822   -8.2743863    585.24818  0.016899058  0.016573331            3 
 2887000   0.79901704   -8.2613079    585.54779  0.016901853  0.016567583            2 
 2888000   0.77131583   -8.2608831     585.2652  0.016887846  0.016561848            2 
 2889000   0.78971428   -8.2892623    585.35064  0.016884465  0.016556122            2 
 2890000   0.80175069   -8.2842456    584.65952  0.016858694  0.016550387            1 
 2891000   0.79665119   -8.2664766    585.50331  0.016877185  0.016544645            1 
 2892000   0.78074386   -8.2866651    585.30106  0.016865521  0.016538915            2 
 2893000   0.79431224    -8.277958     585.6363  0.016869348  0.016533158            2 
 2894000   0.77517835   -8.2725634     585.3755  0.016856009  0.016527388            3 
 2895000    0.8039796   -8.2746915    585.60309  0.016856738  0.016521628            2 
 2896000   0.78334641   -8.2763308    586.39211  0.016873622  0.016515886            2 
 2897000   0.78859746   -8.2824009    585.49793  0.016842076  0.016510145            1 
 2898000   0.79405839   -8.2750696    584.75369  0.016814863  0.016504399            2 
 2899000   0.78974824   -8.2259072    586.83842   0.01686899  0.016498691            3 
 2900000   0.77131589   -8.2590304    585.03611  0.016811383  0.016492981            6 
 2901000   0.78590527   -8.2717477    584.77655  0.016798131  0.016487256            9 
 2902000   0.78231264   -8.2512716    585.75318  0.016820388  0.016481541            3 
 2903000   0.79867528    -8.258198    585.87874  0.016818198  0.016475835            2 
 2904000   0.76658555   -8.2715534    585.97174  0.016815075  0.016470137            3 
 2905000   0.77689152   -8.2467682    586.32592  0.016819447  0.016464463            2 
 2906000   0.79800006   -8.2596164    586.93226  0.016831047   0.01645879            2 
 2907000   0.77561612   -8.2628247    586.14217  0.016802608  0.016453121            1 
 2908000   0.80018894    -8.256553    586.52916   0.01680792   0.01644747            5 
 2909000   0.77600662   -8.2212659     587.4196   0.01682765  0.016441816            1 
 2910000   0.80099719   -8.2374036    587.43594  0.016822335  0.016436187            5 
 2911000   0.76096321   -8.2125204    586.86941  0.016800338  0.016430548            7 
 2912000    0.7895643    -8.238681    587.38269  0.016809257   0.01642491            1 
 2913000   0.78394081   -8.2700695    587.36685  0.016803034  0.016419266            2 
 2914000   0.78542313   -8.2378861    587.84555  0.016810957  0.016413611            6 
 2915000   0.78252975   -8.2397644    586.73647  0.016773484   0.01640797            2 
 2916000   0.79216761   -8.2633794    588.20108  0.016809587  0.016402295            4 
 2917000   0.80223525   -8.2499031    586.01513  0.016741376  0.016396641            4 
 2918000   0.79593564   -8.2465965    586.22634  0.016741671  0.016390956            2 
 2919000   0.78736864   -8.2686495    585.80909  0.016724023   0.01638527            2 
 2920000   0.77719664   -8.2627283    585.75601  0.016716781  0.016379588            2 
 2921000   0.77093408   -8.2416208    586.46071  0.016731163  0.016373889            2 
 2922000   0.79517879   -8.2642604    585.48388  0.016697578  0.016368204            2 
 2923000   0.78765831   -8.2688797      586.506  0.016721006   0.01636252            8 
 2924000   0.78782215   -8.2334402     586.5527  0.016716618  0.016356837            1 
 2925000   0.78351915   -8.2541653    586.48398  0.016708945  0.016351168            2 
 2926000   0.78112578   -8.2429754    587.21593  0.016724081  0.016345507            2 
 2927000   0.78860673    -8.289061    585.93767  0.016681974  0.016339807            1 
 2928000   0.79371023   -8.2696047    584.91753  0.016647243  0.016334122            2 
 2929000   0.77783233   -8.2817774    586.15409  0.016676741  0.016328428            6 
 2930000   0.76720346    -8.295108    585.92838   0.01666463  0.016322715            1 
 2931000   0.78578795   -8.2975921     585.2099  0.016638516  0.016317015            1 
 2932000   0.79059276       -8.276     585.0303  0.016627737  0.016311331            2 
 2933000   0.80287918   -8.2893007    585.52194  0.016636037  0.016305623            4 
 2934000   0.79178045   -8.2528117    587.10876  0.016675436  0.016299952            2 
 2935000   0.77929854    -8.243678    587.14886  0.016670893   0.01629427            3 
 2936000    0.7964119   -8.2595839    587.56024  0.016676892  0.016288587            3 
 2937000   0.78757003   -8.3167535    585.80749  0.016621481  0.016282905            2 
 2938000   0.78429643   -8.2683055    587.39599   0.01666088  0.016277244            2 
 2939000   0.78666883   -8.2632883    587.34365  0.016653727  0.016271585            3 
 2940000   0.77307462   -8.2781247    586.51415  0.016624551   0.01626593            3 
 2941000   0.79000233   -8.2682869    586.18935  0.016609695  0.016260282            3 
 2942000    0.7688652   -8.2681451    587.00527   0.01662716  0.016254635            3 
 2943000    0.7895253   -8.2608336     586.9934  0.016621175  0.016248999            2 
 2944000    0.7816199   -8.2555852     587.8934  0.016641004  0.016243356            2 
 2945000   0.78225464   -8.2671847    587.95399  0.016637068  0.016237716            3 
 2946000   0.78746616   -8.2590588    586.65899  0.016594789  0.016232089            3 
 2947000   0.77429959   -8.2690244    587.10647  0.016601812   0.01622645            6 
 2948000   0.78373156   -8.2456469    587.58483  0.016609702  0.016220811            3 
 2949000   0.79658847   -8.2300441    588.28278  0.016623793  0.016215177            2 
 2950000    0.7755696   -8.2373362    587.10098  0.016584774  0.016209536            6 
 2951000   0.78063524   -8.2584378    586.93981  0.016574602  0.016203928            2 
 2952000   0.78834478   -8.2641584     587.2026  0.016576406  0.016198304            1 
 2953000    0.7788612   -8.2725997    586.22023   0.01654307  0.016192674            3 
 2954000   0.77733511   -8.2720267    587.62333  0.016577052  0.016187052            1 
 2955000    0.7841443   -8.2818913    586.85655  0.016549818  0.016181447            2 
 2956000   0.80017215   -8.2723559    586.35805  0.016530166  0.016175824            3 
 2957000   0.76528463   -8.2536481    587.90529   0.01656818  0.016170204            2 
 2958000     0.792602   -8.2526462    587.04887  0.016538451  0.016164606            2 
 2959000   0.78046874   -8.2546457    587.42339   0.01654341  0.016159003            3 
 2960000   0.78514329   -8.2941744    587.65578  0.016544363  0.016153398            3 
 2961000   0.77073518   -8.2961491     588.1124  0.016551627  0.016147792            2 
 2962000   0.78600425   -8.2988434    586.25529  0.016493791  0.016142162            3 
 2963000   0.76573653   -8.2916939    588.10641  0.016540286  0.016136535            5 
 2964000   0.78792748   -8.2786311    586.34889  0.016485293  0.016130908            2 
 2965000   0.76109754   -8.2946784    587.42945  0.016510103   0.01612527            3 
 2966000    0.7705969   -8.2902137    587.51749   0.01650701  0.016119643            2 
 2967000   0.79123958   -8.2924135     587.1534   0.01649122  0.016114011            2 
 2968000   0.78960801   -8.2810608    585.57693  0.016441401  0.016108383            4 
 2969000   0.77901633   -8.2929978    586.77646  0.016469531  0.016102763            2 
 2970000   0.76174393   -8.2816953    587.78091  0.016492169   0.01609717            3 
 2971000   0.78168661   -8.3001504    586.00155  0.016436709  0.016091567            2 
 2972000   0.76279034   -8.2835747    587.62992  0.016476837  0.016085957            1 
 2973000   0.76532677   -8.2937632    586.53499  0.016440604  0.016080353            3 
 2974000   0.79581543   -8.3064089    587.20658  0.016453894   0.01607475            2 
 2975000   0.76412939   -8.2923854    587.03355  0.016443517  0.016069153            2 
 2976000   0.75874494   -8.2946929    588.40381  0.016476361  0.016063565            6 
 2977000   0.79055803   -8.2835738    587.74261  0.016452318  0.016057966            2 
 2978000   0.76378129   -8.2950861    587.03701  0.016427049  0.016052369            3 
 2979000   0.78758711   -8.2803697    587.13586    0.0164243  0.016046762            1 
 2980000    0.7877112   -8.2854628    588.44065  0.016455275   0.01604117            2 
 2981000   0.76927655   -8.2897509    587.36503  0.016419687  0.016035582            1 
 2982000   0.77915431   -8.2599992    589.02226  0.016460492  0.016030018            2 
 2983000   0.77263209   -8.2547413    589.28901  0.016462426  0.016024475            2 
 2984000   0.78971588   -8.3029655    588.97505  0.016448142  0.016018927            2 
 2985000   0.77103397   -8.2788529    588.63893  0.016433248  0.016013368            1 
 2986000   0.76960067   -8.2991424    587.93705  0.016408156  0.016007824            4 
 2987000   0.76690343    -8.251817    587.67398  0.016395324   0.01600227            2 
 2988000   0.76696431   -8.2339642    588.33175  0.016408181   0.01599671            2 
 2989000   0.75753817   -8.2606674    588.33058  0.016402659  0.015991151            5 
 2990000   0.77835301   -8.2744708    588.29709   0.01639624  0.015985591            2 
 2991000   0.78033273   -8.2658647    588.04082  0.016383618  0.015980028            3 
 2992000   0.76023608   -8.3050604    587.15779  0.016353548  0.015974485            3 
 2993000   0.78035503   -8.2813901    589.11121  0.016402473   0.01596892            4 
 2994000   0.77464581   -8.2931263    588.76363   0.01638732  0.015963362            3 
 2995000   0.76086878   -8.2765827    589.11058  0.016391502  0.015957809            2 
 2996000   0.76336078   -8.2958201    588.75209  0.016376059  0.015952281            2 
 2997000   0.77663065    -8.290677     587.9697  0.016348841  0.015946738            2 
 2998000   0.77414784   -8.2801817    588.86437  0.016368256  0.015941219            2 
 2999000   0.75485343   -8.3106205    588.41688  0.016350363  0.015935683            1 
 3000000   0.76195396    -8.306853    589.65046   0.01637918  0.015930123            2 
 3001000   0.77178764   -8.2833668    588.80515  0.016350249   0.01592459            1 
 3002000   0.76913919   -8.2900285    589.42897  0.016362119   0.01591906            6 
 3003000   0.76070957   -8.2781791    588.19966  0.016322557  0.015913511            2 
 3004000   0.78347597   -8.3100965    588.28701  0.016319546  0.015907976            2 
 3005000   0.78458043   -8.3018975    588.62835  0.016323582  0.015902405            7 
 3006000   0.77611547   -8.2959951    589.16007  0.016332892  0.015896832            2 
 3007000   0.76827383   -8.2981645     588.7236  0.016315364  0.015891287            3 
 3008000    0.7691059   -8.3169878    588.91336  0.016315197  0.015885762            2 
 3009000   0.77764021   -8.3213494    587.94301  0.016282902  0.015880209            1 
 3010000   0.76910224   -8.3111601    587.61794  0.016268492  0.015874653            6 
 3011000   0.75370124   -8.2980027    589.29906  0.016309616  0.015869098            2 
 3012000   0.75856532   -8.2820244     587.5918  0.016256966  0.015863569            1 
 3013000   0.75888011   -8.2796788    587.59489  0.016251656  0.015858056            1 
 3014000   0.75566083   -8.2888046    589.08328  0.016287416  0.015852561            4 
 3015000   0.77731263    -8.316454     588.3202  0.016260923  0.015847066            4 
 3016000   0.77686965    -8.294429    588.64645  0.016264546  0.015841561            3 
 3017000   0.77747025   -8.3061768    588.45074  0.016253749   0.01583606            3 
 3018000   0.79750095   -8.3037544    588.47858  0.016249132   0.01583056            1 
 3019000   0.77174495   -8.3075175    589.98426  0.016285311   0.01582505            3 
 3020000   0.78843649    -8.306072    588.54731  0.016240268  0.015819539            3 
 3021000   0.74934752      -8.3124    589.32741  0.016256411  0.015814031            2 
 3022000   0.78165347   -8.2991968    588.17108  0.016219145  0.015808524            2 
 3023000   0.74066757     -8.29341    589.14737  0.016240693  0.015803004            1 
 3024000   0.77640461   -8.3045092    588.74675  0.016224282  0.015797502            3 
 3025000   0.78363693   -8.3188191    588.65659  0.016216435  0.015791989            4 
 3026000   0.77271932   -8.3085286    588.51251  0.016207108  0.015786504            1 
 3027000   0.76000339   -8.3146897    589.86279  0.016238927  0.015781015            8 
 3028000   0.76982458   -8.3152957    589.45501  0.016222342  0.015775518            3 
 3029000   0.76665903   -8.3081697    589.92783  0.016229994  0.015770027            5 
 3030000   0.76553642   -8.2865742    590.32194  0.016235477  0.015764545            3 
 3031000    0.7780003   -8.3048553    589.69932  0.016213002  0.015759058            2 
 3032000   0.78240021   -8.3310559    589.55167  0.016203597  0.015753566            4 
 3033000   0.75682231   -8.3014384    588.69682  0.016174767  0.015748094            2 
 3034000   0.76615379   -8.3101338     589.8421  0.016200893  0.015742627            3 
 3035000   0.76846596   -8.3213552    588.42685  0.016156695  0.015737145            3 
 3036000   0.79040212   -8.3166504    589.01545   0.01616753  0.015731657            2 
 3037000   0.77063637   -8.2952281    589.15005    0.0161659  0.015726192            1 
 3038000   0.76502795   -8.2877862    589.22201  0.016162552  0.015720749            1 
 3039000   0.76400117   -8.2947486     589.8232  0.016173719  0.015715302            3 
 3040000   0.77609345   -8.3053211    589.92164  0.016171098   0.01570985            3 
 3041000   0.75668621   -8.3204876     589.7573  0.016161276  0.015704394            3 
 3042000   0.75910887   -8.2965095    589.93828  0.016160921  0.015698952            3 
 3043000   0.74798291   -8.3039498    590.03317  0.016158209  0.015693493            5 
 3044000   0.76749378   -8.3044981    591.56939  0.016194957  0.015688061            1 
 3045000   0.75344537   -8.3037224    590.96353  0.016173058   0.01568265            3 
 3046000   0.77503754   -8.2923121    589.42557  0.016125672  0.015677237            5 
 3047000    0.7696841   -8.2885769    590.34819  0.016145613  0.015671816            7 
 3048000   0.75879279   -8.2905325    590.43392   0.01614266  0.015666394            2 
 3049000      0.76216   -8.3251775    589.51777  0.016112326  0.015660955            1 
 3050000   0.74414951   -8.3164976    589.34759  0.016102393  0.015655517            7 
 3051000   0.76931711    -8.309229    589.66297   0.01610573  0.015650081            1 
 3052000   0.78303419   -8.3252587    589.65733  0.016100298  0.015644636            2 
 3053000   0.76655174   -8.2870993    591.25181  0.016138547  0.015639216            5 
 3054000   0.78318917   -8.2928832    589.37826   0.01608214  0.015633792            1 
 3055000   0.75362938   -8.3044229    589.18096  0.016071494  0.015628352            1 
 3056000   0.75835535   -8.3361652    589.70614  0.016080556  0.015622894            2 
 3057000   0.77705106   -8.3490188     589.4979  0.016069619  0.015617445            5 
 3058000   0.77079756   -8.3369578    589.04499  0.016052022  0.015611991            2 
 3059000   0.76458515   -8.3276085     590.0134  0.016073156  0.015606553            2 
 3060000   0.75011604   -8.3194988    589.51474  0.016054323  0.015601099            2 
 3061000   0.75831787   -8.3099954    587.69819  0.015999624  0.015595645            1 
 3062000   0.74793645   -8.3401468    589.45113  0.016042106  0.015590209            4 
 3063000    0.7566761   -8.3418443    589.75729  0.016045198  0.015584773            2 
 3064000   0.75189292   -8.3541541    589.95176   0.01604525  0.015579328            2 
 3065000   0.76969506   -8.3342536    588.53096  0.016001386  0.015573892            5 
 3066000   0.75674044   -8.3452916    589.44811  0.016021095  0.015568444            5 
 3067000   0.76631456   -8.3042207    590.74379  0.016051076  0.015563017            2 
 3068000   0.76129089   -8.3164034    588.62488   0.01598829  0.015557592            1 
 3069000   0.78131094   -8.3250486    589.86757  0.016016823  0.015552165            1 
 3070000   0.76008014   -8.3061988    589.36045  0.015997841  0.015546746            3 
 3071000   0.75667699   -8.3061784    590.77776  0.016031091   0.01554133            2 
 3072000    0.7782342   -8.2956249    591.27693  0.016039413  0.015535918            2 
 3073000   0.76237926     -8.33141    589.52012  0.015986553  0.015530494            3 
 3074000     0.753156   -8.3317368    590.06185  0.015996038  0.015525067            3 
 3075000   0.73089368   -8.3263273    588.25387  0.015941839  0.015519656            1 
 3076000   0.75172842   -8.3060168    589.65191  0.015974531  0.015514226            3 
 3077000   0.75042994   -8.3060543     590.5463  0.015993562  0.015508794            2 
 3078000   0.76301906   -8.3358587    588.80066  0.015941105  0.015503354            1 
 3079000   0.75242634   -8.3158837    589.94655  0.015966941  0.015497908            3 
 3080000   0.74626028   -8.3335735    588.55687  0.015924158   0.01549248            4 
 3081000   0.75705056    -8.345104    587.98391  0.015903492  0.015487048            3 
 3082000   0.74156989   -8.3448651     588.9452  0.015924324  0.015481598            3 
 3083000   0.74219104   -8.3488682     588.9225  0.015918545  0.015476149            5 
 3084000   0.76099578   -8.3555553    590.58064  0.015958188  0.015470728            3 
 3085000   0.74683375   -8.3376483     589.1084  0.015913247  0.015465315            6 
 3086000   0.75940104   -8.3103626    589.78199   0.01592628  0.015459911            9 
 3087000   0.76402731   -8.3213793    590.58005  0.015942664  0.015454486            3 
 3088000   0.75606311   -8.3311506    589.35961  0.015904566  0.015449063            4 
 3089000   0.75034335    -8.351305    590.53967  0.015931253  0.015443656            2 
 3090000   0.76351792   -8.3541537    590.04061  0.015912638  0.015438233            3 
 3091000   0.75472687   -8.3228036     590.3068  0.015914666  0.015432823            2 
 3092000   0.75917984   -8.3391158    589.90971  0.015898817  0.015427416            5 
 3093000   0.74009147   -8.3470092    590.39294  0.015906696  0.015422002            2 
 3094000   0.77188713   -8.3317226    589.09526  0.015866604  0.015416612            3 
 3095000   0.77589776   -8.3128871    591.23306  0.015919038  0.015411221            6 
 3096000   0.75395764   -8.3070337     590.5776  0.015896253  0.015405845            2 
 3097000    0.7790473   -8.3518534    589.78916  0.015869905  0.015400481            3 
 3098000   0.75681614   -8.3612361    590.67716  0.015888669  0.015395097            4 
 3099000   0.75676543   -8.3502787     589.8019  0.015860006  0.015389693            4 
 3100000   0.75113746   -8.3444643    591.26255  0.015894155  0.015384303            2 
 3101000   0.75325226   -8.3442491    590.58415  0.015870798  0.015378918            4 
 3102000   0.75428319    -8.353089    590.65267  0.015867523  0.015373532            3 
 3103000   0.75634548   -8.3456855    589.68463  0.015836412   0.01536814            4 
 3104000   0.74122987    -8.357916     589.3172  0.015821445  0.015362731            2 
 3105000   0.76044775   -8.3639206    588.63775  0.015798115  0.015357321            2 
 3106000   0.75777553   -8.3560232    589.35667  0.015812317  0.015351917            6 
 3107000   0.75675882   -8.3735859    589.94379  0.015822975  0.015346517            3 
 3108000   0.75774169   -8.3796329    589.59761  0.015808602  0.015341104            1 
 3109000   0.75533262   -8.3675967    587.82919  0.015756116  0.015335677            3 
 3110000   0.76009304   -8.3759991    589.87282   0.01580581  0.015330257            6 
 3111000   0.75424168   -8.3471659    589.36349  0.015787086  0.015324857            5 
 3112000   0.75888511   -8.3580398    590.12831  0.015802493  0.015319452            9 
 3113000    0.7637565   -8.3699764    589.66239  0.015784944  0.015314074            5 
 3114000   0.75136745   -8.3720886    590.22039  0.015794808  0.015308685            3 
 3115000   0.74678665   -8.3622631    589.47066   0.01576968  0.015303302            3 
 3116000   0.76526107   -8.3512345    590.33059  0.015787617  0.015297926            5 
 3117000   0.75634036   -8.3239983    590.48574    0.0157867  0.015292559            2 
 3118000    0.7674053   -8.3246411    590.78687  0.015789685  0.015287201            3 
 3119000   0.74863207   -8.3385837     589.3695  0.015746754  0.015281854            2 
 3120000   0.74678664   -8.3501901    589.38485  0.015742117  0.015276486            2 
 3121000   0.75374521   -8.3752768    589.83324  0.015749045  0.015271097            6 
 3122000   0.76101961   -8.3547888    589.60342  0.015737866  0.015265735            3 
 3123000    0.7397894   -8.3486446    589.47446  0.015729386  0.015260377            7 
 3124000   0.76543226   -8.3597074    589.52565  0.015725716  0.015255004            3 
 3125000   0.74303499   -8.3681214    591.10847  0.015762893  0.015249655            3 
 3126000   0.76534771   -8.3701076     589.3482  0.015710924  0.015244296            1 
 3127000   0.74206269   -8.3534551    589.30189  0.015704666   0.01523892            4 
 3128000   0.74326337   -8.3693306    589.34208  0.015700716  0.015233553            2 
 3129000   0.74671003   -8.3528113     590.5288  0.015727304  0.015228212            3 
 3130000   0.76286369   -8.3624333     589.3719  0.015691478  0.015222864            7 
 3131000   0.74523843   -8.3858987    591.72133  0.015748997  0.015217514            5 
 3132000   0.76776959   -8.3502572    590.99845  0.015724735  0.015212173            2 
 3133000   0.74760589   -8.3480173    590.64306  0.015710263  0.015206838            3 
 3134000   0.74425862   -8.3947585    589.92322   0.01568611    0.0152015            3 
 3135000   0.73428077   -8.3869949    590.28708  0.015690778  0.015196152            3 
 3136000     0.753976     -8.40066    590.63777  0.015695094  0.015190792            1 
 3137000   0.74899898   -8.3889937    590.93836  0.015698076  0.015185443            5 
 3138000   0.75322479    -8.380044    590.09953  0.015670797  0.015180081            2 
 3139000   0.75081555   -8.3639829    591.44194  0.015701443  0.015174734            3 
 3140000   0.76548078   -8.3588089    590.40776  0.015668996  0.015169395            3 
 3141000   0.76415577   -8.3625243    589.90494  0.015650667  0.015164055            3 
 3142000     0.761149   -8.3463564    590.80507   0.01566956  0.015158733            2 
 3143000   0.74319903   -8.3587636    589.61299  0.015632967  0.015153401            2 
 3144000   0.74164366   -8.3561413    591.01734  0.015665218  0.015148093            2 
 3145000   0.75732423   -8.3471781    591.51025  0.015673298  0.015142784            2 
 3146000    0.7473528   -8.3682349    591.31485   0.01566314  0.015137483            7 
 3147000    0.7550257   -8.3341976    591.32665  0.015658475  0.015132188            2 
 3148000   0.76135891   -8.3406955    589.85809  0.015614625  0.015126909            1 
 3149000   0.72423868   -8.3464469    590.70327  0.015632033  0.015121626            1 
 3150000   0.73266649   -8.3739664    591.75488  0.015654891  0.015116352            2 
 3151000   0.73378595   -8.3895732    590.65885  0.015620936  0.015111085            2 
 3152000   0.75042317   -8.3722759    591.59446  0.015640716  0.015105804            6 
 3153000    0.7409213   -8.3627845    590.92436  0.015618045   0.01510055            5 
 3154000   0.72995472    -8.361859    592.41464  0.015652469  0.015095308            3 
 3155000   0.74763085   -8.3638561    589.61858  0.015573655  0.015090035            3 
 3156000   0.73152706    -8.349484    592.27726  0.015638922  0.015084755            2 
 3157000    0.7427168   -8.3414121    592.88357  0.015649973  0.015079473           12 
 3158000   0.76328294    -8.340741    591.04014  0.015596373  0.015074217            2 
 3159000   0.73746568   -8.3725067    591.23279  0.015596518  0.015068949            4 
 3160000   0.75353781   -8.3716296    591.28224  0.015592886  0.015063685            3 
 3161000   0.73581596   -8.3483079    592.55346  0.015621466  0.015058418            3 
 3162000   0.73973241   -8.3560298     591.5625   0.01559041  0.015053161            2 
 3163000   0.74275854   -8.3777909    592.75534  0.015616907  0.015047907            3 
 3164000   0.74647699   -8.3816394    590.74782  0.015559098  0.015042667            2 
 3165000   0.74468083   -8.3722683    591.43586  0.015572297  0.015037408            4 
 3166000   0.75462598   -8.3822487    591.50578  0.015569219  0.015032142            6 
 3167000   0.74473157   -8.3498934    591.65391  0.015568201  0.015026895            4 
 3168000   0.74210141   -8.3749487    591.46655  0.015558358  0.015021655            2 
 3169000   0.75309102    -8.341042    592.67728  0.015585287  0.015016425            7 
 3170000   0.73498715   -8.3558865    592.76297  0.015582623  0.015011199            3 
 3171000    0.7435646   -8.3631095     592.1425  0.015561403  0.015005971            2 
 3172000    0.7489088   -8.3595108     592.5157  0.015566301  0.015000748            5 
 3173000   0.74320483   -8.3644118    592.17892  0.015552551   0.01499551            5 
 3174000   0.73680062    -8.358853    592.83102  0.015564772  0.014990272            2 
 3175000   0.73338114   -8.3728086    592.16112  0.015542287  0.014985017            1 
 3176000   0.75669874   -8.3816738    590.90513  0.015504438  0.014979773            2 
 3177000   0.73497805   -8.3737797    591.05241  0.015503421  0.014974537            3 
 3178000   0.72938736   -8.3506882    591.71613  0.015515946  0.014969298            3 
 3179000   0.74672478   -8.3400931    593.46611  0.015556939  0.014964074            1 
 3180000   0.74493081   -8.4155056    590.65205  0.015478303  0.014958836            2 
 3181000   0.74156507   -8.3811489    591.94652  0.015507349    0.0149536            5 
 3182000   0.74646714   -8.3932349     590.7815  0.015471965  0.014948361            3 
 3183000   0.74855818   -8.3930845    591.52364  0.015486534   0.01494311            4 
 3184000   0.74917572   -8.3816977    590.83792  0.015463723  0.014937869            2 
 3185000   0.72753033   -8.3865618     590.5732  0.015451941  0.014932626            2 
 3186000   0.75799815   -8.3627058    592.11323  0.015487373   0.01492739            3 
 3187000   0.73498669   -8.3735783    591.86335  0.015475979  0.014922156            3 
 3188000   0.74672261   -8.3623742    592.47602   0.01548714   0.01491695            6 
 3189000   0.74846106   -8.3652043    591.73494  0.015462918  0.014911763            4 
 3190000    0.7420764   -8.3655268    591.75447  0.015458581  0.014906551            2 
 3191000   0.72785228   -8.3726543    591.75208  0.015453674  0.014901353            6 
 3192000   0.74138152   -8.4059227    590.87099   0.01542583  0.014896149            2 
 3193000   0.73283278   -8.3788676    591.73384  0.015443518  0.014890949            2 
 3194000   0.74928059   -8.3573789     592.6661  0.015463006  0.014885762            5 
 3195000   0.76283948   -8.3798971    592.43049  0.015452021  0.014880588            3 
 3196000    0.7358964   -8.3916331    590.99245  0.015409691  0.014875403            1 
 3197000   0.74238674   -8.3574929    593.08158  0.015459326  0.014870205            4 
 3198000   0.74785937   -8.3765919    591.05178  0.015401599  0.014865004            6 
 3199000   0.73064468   -8.3527514     593.3705  0.015457187  0.014859825            4 
 3200000   0.72345489   -8.3714573    592.39297    0.0154269  0.014854675            2 
 3201000   0.75404121   -8.3679308    592.60303   0.01542755  0.014849503            1 
 3202000    0.7358322   -8.3958802    590.53895  0.015369013  0.014844318            3 
 3203000   0.74663071   -8.3787924    592.79304   0.01542286  0.014839143            1 
 3204000   0.73758067   -8.3467541    593.41656  0.015434263     0.014834            3 
 3205000    0.7439629   -8.4062123    593.30924  0.015426657  0.014828837            2 
 3206000   0.73196518   -8.3852558    593.03455  0.015414706  0.014823683            1 
 3207000   0.72024802   -8.3797279    593.40886  0.015419625    0.0148185            2 
 3208000   0.73084718   -8.3854879    593.98488  0.015429782  0.014813337            3 
 3209000   0.73235665   -8.3873812    592.65996  0.015390567  0.014808176            1 
 3210000   0.73783455   -8.3815872    593.35477   0.01540381  0.014803015            2 
 3211000   0.73367999   -8.3967855    592.50193   0.01537688  0.014797854            2 
 3212000   0.73239376   -8.3829011    593.53597   0.01539892  0.014792691            1 
 3213000   0.73058396   -8.3843699    592.82857   0.01537578  0.014787511            2 
 3214000    0.7530794   -8.3981486     592.4701  0.015361701  0.014782318            3 
 3215000   0.73413327   -8.3850681    592.04228  0.015345834  0.014777146            1 
 3216000   0.73917144   -8.3625947    593.10643  0.015368637   0.01477198            3 
 3217000   0.72504473   -8.3682591    592.84498  0.015357087  0.014766806            4 
 3218000   0.73881849   -8.3878278    591.84738  0.015326481  0.014761636            2 
 3219000   0.74747232   -8.3694846    592.55252  0.015339974  0.014756474            7 
 3220000   0.72640178   -8.4234873    590.45961  0.015281046  0.014751292            3 
 3221000   0.73311172   -8.3785366    593.18351  0.015346774  0.014746103            1 
 3222000   0.75557313   -8.4272244    592.04895  0.015312667    0.0147409            1 
 3223000    0.7484512   -8.3851802    590.67642  0.015272428    0.0147357            4 
 3224000   0.73387783   -8.3888482    591.84893  0.015297998  0.014730521            2 
 3225000   0.74641052   -8.4006901    592.19218  0.015302124  0.014725345            1 
 3226000   0.74191318   -8.3822922    592.46815  0.015304509  0.014720191            2 
 3227000   0.72148091   -8.3909341    592.60165  0.015303214  0.014715034            1 
 3228000   0.72322837   -8.4079161    591.21441   0.01526266  0.014709859            1 
 3229000   0.75410692   -8.4140464    591.29933  0.015260125  0.014704684            2 
 3230000   0.73944857   -8.4095007    591.70063  0.015265754  0.014699515            2 
 3231000   0.73261893   -8.3885746    592.15787  0.015272822   0.01469436            1 
 3232000   0.72651995   -8.3809054       592.46  0.015275887  0.014689221            3 
 3233000   0.74445576   -8.4125618    592.31264  0.015267364  0.014684085            2 
 3234000   0.74992165   -8.3912693    593.15386  0.015284319  0.014678962            2 
 3235000   0.72445621   -8.4000773    592.41514  0.015260565  0.014673823            1 
 3236000   0.73530172   -8.3905181    593.09274  0.015273299  0.014668692            2 
 3237000   0.72842074   -8.3803922    592.80908  0.015261278  0.014663574            3 
 3238000    0.7256687   -8.3866827    593.45756  0.015273254  0.014658465            2 
 3239000   0.72475364   -8.3818975     592.3059  0.015238908   0.01465337            2 
 3240000   0.73896395   -8.3747738    593.50501  0.015265047  0.014648256            2 
 3241000    0.7367532   -8.4047922    591.36848  0.015205402  0.014643131            2 
 3242000   0.74105589   -8.4077032    592.96227  0.015241679  0.014637999            6 
 3243000   0.73794115   -8.4106536    592.26563  0.015219078  0.014632872            6 
 3244000     0.727467   -8.3986484    592.02988   0.01520833  0.014627727            4 
 3245000   0.72930016   -8.4115395    592.12069  0.015205976  0.014622595            1 
 3246000   0.72209538   -8.4239744    592.76142   0.01521774  0.014617465            2 
 3247000   0.73679264    -8.419419    592.76488  0.015213142  0.014612361            1 
 3248000   0.71863029    -8.400731    592.57407  0.015203563  0.014607237            1 
 3249000   0.73512437   -8.4205543    592.12873  0.015187461  0.014602101            2 
 3250000   0.73126956   -8.4064808    592.45125  0.015191058  0.014596977            2 
 3251000   0.73003795   -8.4025572    593.17028  0.015204816  0.014591867            2 
 3252000   0.72845704   -8.4243966    593.74556  0.015214882  0.014586736            1 
 3253000      0.75069   -8.4168876    592.32258  0.015173752   0.01458161            2 
 3254000   0.72363991    -8.402303    592.39739  0.015171005  0.014576495            2 
 3255000   0.73397826   -8.4088624    592.28008   0.01516334  0.014571379            3 
 3256000   0.73435395   -8.4322106    592.30659  0.015159362  0.014566269            5 
 3257000   0.72127859   -8.4270152    591.48814  0.015133767  0.014561143            2 
 3258000   0.72749501   -8.4415991    592.16178  0.015146352  0.014556026            2 
 3259000   0.72185741   -8.4303934    593.91117  0.015186437   0.01455091            1 
 3260000   0.74063416   -8.4023474    593.22132  0.015164144  0.014545812            4 
 3261000   0.73890924   -8.4258646    592.89052  0.015151041   0.01454072            2 
 3262000   0.70931434   -8.4382985     592.0199  0.015124155  0.014535603            3 
 3263000   0.72096407   -8.4284286    592.46173  0.015130803  0.014530503            2 
 3264000   0.73383711    -8.395288    593.10143    0.0151425  0.014525421            1 
 3265000    0.7304969   -8.4216583    592.07227  0.015111594   0.01452034            6 
 3266000   0.72539823   -8.4169729    591.69677  0.015097386  0.014515242            4 
 3267000    0.7227714   -8.3936283     592.7426  0.015119442  0.014510148            1 
 3268000   0.72424704   -8.4544073    592.11376   0.01509878  0.014505059            2 
 3269000   0.72485793   -8.4249565    592.70187  0.015109153   0.01449997            3 
 3270000   0.73121863   -8.4187548    591.76181  0.015080576  0.014494886            2 
 3271000   0.73311877   -8.4415272    591.81269  0.015077262  0.014489796            5 
 3272000   0.73693679   -8.4092202    592.53501  0.015091051  0.014484698            3 
 3273000   0.72425791   -8.4383668    590.76945  0.015041487  0.014479593            4 
 3274000   0.71867093   -8.4641298    591.17383  0.015047186  0.014474489            3 
 3275000   0.73578615   -8.4358113    592.05069  0.015064903  0.014469396            2 
 3276000    0.7255111   -8.4137659     591.6848  0.015050997  0.014464301            1 
 3277000   0.71101801   -8.4273038    592.76527   0.01507388  0.014459192            2 
 3278000    0.7177484   -8.4411369    592.38981  0.015059737  0.014454095            2 
 3279000   0.72403896   -8.4401036    592.28847  0.015052569  0.014448995            1 
 3280000   0.72960357   -8.4284742    593.25748  0.015072599   0.01444391            4 
 3281000   0.74614826    -8.430924    591.70645  0.015028611  0.014438825            2 
 3282000   0.72201115   -8.4067063    593.07884  0.015058878  0.014433751            3 
 3283000   0.72656304   -8.4493452    592.63637   0.01504306  0.014428663            4 
 3284000   0.72254603   -8.4309297    591.99941  0.015022315  0.014423582            3 
 3285000   0.71723506    -8.428223    592.38912  0.015027629  0.014418506            6 
 3286000   0.71065286    -8.439057    592.78806  0.015033173   0.01441344            9 
 3287000   0.73824675   -8.4265746    591.44969  0.014994668  0.014408371            1 
 3288000   0.71208891   -8.4279194    590.54037  0.014967061  0.014403311            5 
 3289000   0.72464326   -8.4139259    592.85442  0.015021142  0.014398249            2 
 3290000   0.70796565   -8.4214834    593.78493  0.015040145  0.014393185            1 
 3291000   0.70979388   -8.4243755    592.66144  0.015007127  0.014388125            2 
 3292000   0.73628785   -8.4314979    592.87566  0.015007991  0.014383051            6 
 3293000   0.71724923   -8.4298977    593.17139  0.015010917  0.014377965            3 
 3294000    0.7203185   -8.4321327    591.94826  0.014975416  0.014372887            6 
 3295000   0.71402013   -8.4155828    592.99555  0.014997358  0.014367818            1 
 3296000   0.72803037   -8.4180485    592.95088  0.014991679  0.014362742            2 
 3297000   0.72127122   -8.4530829    591.12986  0.014941104  0.014357676            2 
 3298000   0.73077054    -8.432826    593.96883  0.015008309  0.014352607            3 
 3299000   0.73032714    -8.451019    592.02557  0.014954672  0.014347535            2 
 3300000   0.74229107   -8.4497982    591.95237  0.014948292  0.014342458            3 
 3301000   0.71666081     -8.47022    591.63666  0.014935794  0.014337373            3 
 3302000   0.73091344   -8.4388364    590.91908  0.014913161    0.0143323            1 
 3303000   0.72907288    -8.456914    592.89952  0.014958611  0.014327232            3 
 3304000   0.73527162   -8.4380347    592.47452  0.014943365   0.01432215            2 
 3305000   0.72366589   -8.4325203     592.6965   0.01494444  0.014317081            2 
 3306000   0.72707221   -8.4601343    591.89062  0.014919606  0.014312018            3 
 3307000   0.73358145   -8.4421418    592.45243  0.014929252  0.014306929            2 
 3308000   0.72990094   -8.4411415    592.79919  0.014933474  0.014301861            4 
 3309000   0.73050521   -8.4543957    592.39553  0.014918795  0.014296805            1 
 3310000   0.72313797   -8.4520161    593.17782  0.014933983  0.014291741            3 
 3311000   0.73034052   -8.4270267    593.43583  0.014935967  0.014286679            5 
 3312000   0.71491582   -8.4507861    592.36859  0.014904604  0.014281652            5 
 3313000   0.72041896    -8.456477    592.28341  0.014897963  0.014276614            5 
 3314000   0.72393049    -8.453419    592.14086  0.014889883  0.014271581            2 
 3315000   0.72118124   -8.4729716    592.73023  0.014900207  0.014266547            2 
 3316000   0.74301721   -8.4293855    592.55161  0.014891225   0.01426152            2 
 3317000   0.71186343   -8.4461263    591.24949  0.014854022  0.014256483            1 
 3318000   0.73398845   -8.4691912    592.52849  0.014881668   0.01425144            2 
 3319000   0.72441534   -8.4439277    592.40351  0.014874046    0.0142464            3 
 3320000   0.73775236   -8.4333754     591.3185  0.014842332  0.014241378            3 
 3321000   0.71763986   -8.4209735    593.42056  0.014890609  0.014236353            3 
 3322000   0.71899058   -8.4448997    593.80195  0.014895694  0.014231326            3 
 3323000   0.72747653   -8.4513275    592.42105  0.014856582  0.014226299            3 
 3324000   0.72538308   -8.4579759    592.38806  0.014851285  0.014221277            2 
 3325000   0.72945062   -8.4697855    591.75145  0.014830863  0.014216237            3 
 3326000   0.74030015    -8.464869    591.77133  0.014826902  0.014211195            3 
 3327000   0.72888879   -8.4471953    592.02317  0.014828754  0.014206157            3 
 3328000   0.72473746   -8.4229813    593.05233  0.014850068  0.014201134            3 
 3329000   0.72472083   -8.4513381    592.71099  0.014837063  0.014196117            2 
 3330000    0.7242423    -8.457207    591.36789  0.014798996  0.014191108            3 
 3331000   0.72963809   -8.4582402     591.8082  0.014805569  0.014186091            4 
 3332000   0.71416832   -8.4232863    592.89714   0.01482836  0.014181085            3 
 3333000   0.73340489     -8.42794    593.21969  0.014831975  0.014176089           11 
 3334000   0.72582602   -8.4221727    592.68825  0.014814243  0.014171087            4 
 3335000   0.71655639   -8.4333243    592.39096  0.014802373   0.01416608            4 
 3336000   0.72473863   -8.4605813    592.07148  0.014789955  0.014161061            3 
 3337000   0.73283447   -8.4842184    592.61662  0.014799136  0.014156039            2 
 3338000    0.7168953   -8.4380475    591.00126  0.014754375  0.014151024            6 
 3339000   0.71098755   -8.4883439    591.66836  0.014766606  0.014146018            4 
 3340000   0.72033149   -8.4620273    591.55933  0.014759464  0.014140991            4 
 3341000   0.71539156   -8.4741667     591.2768     0.014748  0.014135985            1 
 3342000   0.71230586   -8.4855573    592.14867  0.014765327  0.014130968            4 
 3343000   0.73022535   -8.4538484    593.60333  0.014797172  0.014125964            8 
 3344000     0.721457   -8.4796068    591.37521  0.014737221   0.01412096            5 
 3345000    0.7193912   -8.4602151    591.98116  0.014747911  0.014115962            3 
 3346000    0.7088944     -8.48004    591.83712  0.014739916  0.014110954            4 
 3347000   0.72386705   -8.4712343    592.39991  0.014749525   0.01410596            3 
 3348000   0.71421769   -8.4839825     591.6981  0.014727651  0.014100965            3 
 3349000   0.71502939   -8.4573214    592.08727  0.014732937  0.014095967            2 
 3350000   0.72283531   -8.4724936    592.09039  0.014728617  0.014090968            4 
 3351000   0.71325521   -8.4501656    590.98497  0.014696732   0.01408598            2 
 3352000   0.71449619   -8.4803631    592.78572  0.014737115  0.014080983            3 
 3353000   0.72651331   -8.4641992    593.41284  0.014748306  0.014076005            4 
 3354000   0.69272441   -8.4488254    593.00217  0.014733705  0.014071019            2 
 3355000   0.71797131   -8.4606325    592.94323   0.01472785  0.014066039            6 
 3356000     0.713046    -8.458669    592.96367  0.014723969  0.014061071            3 
 3357000   0.71798311   -8.4608019    592.59675  0.014710474  0.014056098            4 
 3358000   0.68966882   -8.4748981    592.22382  0.014696839  0.014051126            2 
 3359000   0.71755086   -8.4669891    593.56003  0.014725613  0.014046146            1 
 3360000   0.70980996   -8.4422349    593.14864  0.014711028   0.01404118            2 
 3361000    0.6880648   -8.4575853    593.61973  0.014718331  0.014036212            8 
 3362000   0.71798695   -8.4445099    594.38926  0.014733028  0.014031265            4 
 3363000   0.71290417   -8.4579882     592.7858  0.014688914  0.014026316            5 
 3364000   0.70872323   -8.4420156     593.7405  0.014708197  0.014021355            3 
 3365000   0.71517032   -8.4800436    593.21627  0.014690844  0.014016369            4 
 3366000   0.71492416   -8.4880044    592.33878  0.014664755  0.014011378            3 
 3367000   0.70558574   -8.4643844    592.54813  0.014665581    0.0140064            6 
 3368000   0.70270379   -8.4863969    592.76897  0.014666691  0.014001416            6 
 3369000   0.72088299   -8.4639101     591.8684  0.014640061  0.013996437            5 
 3370000   0.70682531   -8.4439324    593.05365  0.014665026  0.013991465            3 
 3371000   0.71167183   -8.4708948    591.20718   0.01461503  0.013986501            5 
 3372000   0.69982559   -8.4888155    592.74201  0.014648626   0.01398153            5 
 3373000   0.71511262   -8.4860112     592.1697  0.014630144  0.013976565            2 
 3374000   0.72834522   -8.4715247    591.96965  0.014620867  0.013971602            3 
 3375000   0.71416916   -8.4633778    592.78781  0.014636736  0.013966645            8 
 3376000   0.70806262   -8.4537419      593.181  0.014642106  0.013961693            9 
 3377000   0.69809494   -8.4604815    592.34148  0.014617053  0.013956732           11 
 3378000   0.71573365   -8.4754956    591.86746  0.014601033  0.013951764            2 
 3379000   0.69970627   -8.4698298     591.4914  0.014587437  0.013946783            5 
 3380000   0.70746124   -8.5022729    590.98957  0.014570749  0.013941802            4 
 3381000   0.70028073   -8.4779184    591.90788  0.014589073  0.013936814            2 
 3382000   0.70987074   -8.4564958     591.6835  0.014579231   0.01393182            8 
 3383000   0.70052041   -8.4845411    592.17543  0.014587039  0.013926843            6 
 3384000   0.72418253    -8.492631     591.1964  0.014558619   0.01392187            7 
 3385000   0.71877894   -8.4785106     591.9823  0.014573666  0.013916897           10 
 3386000   0.70269709   -8.4710169    593.58926  0.014608911  0.013911953            6 
 3387000   0.70323956   -8.4908709    591.86486   0.01456217  0.013907011            8 
 3388000   0.72366016   -8.4698633    592.82072  0.014581383  0.013902081            5 
 3389000   0.70299828   -8.4753888     592.8829   0.01457861  0.013897157            4 
 3390000   0.71259148   -8.4787965    593.57789  0.014591394  0.013892223            5 
 3391000   0.69823666   -8.4747423    593.06238  0.014574422  0.013887303            7 
 3392000    0.7181917   -8.4465409    592.71296  0.014561541  0.013882378            4 
 3393000   0.69531174   -8.4899549     592.2199   0.01454514  0.013877452            2 
 3394000    0.7026957   -8.4576428    593.75067  0.014578439  0.013872535           15 
 3395000   0.70373939   -8.4695581    591.96268  0.014530257  0.013867613            3 
 3396000   0.70805599   -8.4903841    592.04984  0.014528117  0.013862687            4 
 3397000   0.72121796   -8.4890048    591.74859   0.01451645  0.013857771            4 
 3398000   0.69766702   -8.4707068    592.21417  0.014523596  0.013852856            1 
 3399000   0.70380888   -8.4895012    592.37809  0.014523342  0.013847941            2 
 3400000   0.71637282   -8.4862818    593.39477   0.01454399  0.013843026            4 
 3401000   0.70962587   -8.4775022    593.65537  0.014546098  0.013838112            2 
 3402000   0.69892041   -8.4413753    592.79911  0.014520848  0.013833212            3 
 3403000   0.71043415   -8.4623112    594.50673  0.014558398  0.013828327            6 
 3404000   0.70667983   -8.4480753    593.13711  0.014520591  0.013823439            2 
 3405000   0.70351315   -8.4987706    591.42936  0.014474532  0.013818555            2 
 3406000   0.70813148   -8.4795506    592.73749  0.014502287  0.013813659            1 
 3407000   0.70711292   -8.4702776    592.77271  0.014498892  0.013808775            2 
 3408000   0.69988095   -8.4844203    592.94828  0.014498931  0.013803897            3 
 3409000   0.70506251   -8.4752941    591.69188  0.014463965  0.013799008            2 
 3410000   0.71468967   -8.4634507    593.13138  0.014494902   0.01379412            2 
 3411000   0.70389793   -8.4788068    592.46353  0.014474336   0.01378923            2 
 3412000    0.7123514   -8.4769047    593.07336  0.014484988  0.013784345            3 
 3413000   0.70316688   -8.4719159    593.41269  0.014489029  0.013779458            2 
 3414000   0.72275325   -8.4996936    592.92051  0.014472772  0.013774582            2 
 3415000   0.70599895   -8.4822325    592.27694  0.014452829  0.013769709            3 
 3416000   0.70657563    -8.461666    592.94835  0.014464977  0.013764841            2 
 3417000   0.71331068   -8.4782243    592.63762  0.014453166  0.013759964            3 
 3418000   0.69786797   -8.4935227    592.78737  0.014452589  0.013755073            2 
 3419000   0.70369193   -8.4927959    592.81117  0.014448941  0.013750178            4 
 3420000    0.7079718   -8.5001181    592.09123  0.014427174  0.013745296            4 
 3421000   0.69922392   -8.5196224     593.2003  0.014449973  0.013740416            4 
 3422000    0.7151996   -8.4920063    592.41449  0.014426614  0.013735536            5 
 3423000   0.69887161   -8.4981054    591.51223  0.014400434  0.013730656            6 
 3424000   0.71806966   -8.4779408    593.67863  0.014448954  0.013725792            1 
 3425000    0.7040287   -8.4731398    594.07327  0.014454338   0.01372093            3 
 3426000   0.70201096   -8.4753859    591.30219  0.014382715  0.013716063            4 
 3427000    0.6968641    -8.490333    592.69941  0.014412494  0.013711201            2 
 3428000   0.70890389   -8.4881674    592.44258  0.014402046   0.01370633            5 
 3429000   0.69491185   -8.5070885    593.26506  0.014417835  0.013701461            5 
 3430000    0.7009398   -8.4888004    593.88725  0.014428748  0.013696603            3 
 3431000   0.69117464   -8.5195687     592.3489  0.014387178   0.01369174            3 
 3432000   0.70546841   -8.4753939    593.89597  0.014420551  0.013686877            9 
 3433000   0.69042929   -8.5041894    592.41645  0.014380436  0.013682014            3 
 3434000   0.69740687   -8.4850563    592.59828  0.014380661  0.013677153            5 
 3435000   0.70428618   -8.4854523    592.67467  0.014378328  0.013672274            5 
 3436000   0.70984737   -8.4960433    592.89446  0.014379474  0.013667407            3 
 3437000   0.68845763    -8.480048    592.51366  0.014366057  0.013662545            3 
 3438000   0.69769132   -8.4852204    592.09045   0.01435162  0.013657692            3 
 3439000   0.69429053   -8.5175353    592.62454  0.014360389  0.013652832            4 
 3440000   0.69825606   -8.4951033    592.41355  0.014351103  0.013647979            2 
 3441000   0.70626148   -8.5099437    593.66768  0.014377305  0.013643117            5 
 3442000   0.70402559   -8.4801289    592.29157  0.014339811  0.013638261            2 
 3443000   0.70546112   -8.5128286    592.29179  0.014335652  0.013633416            3 
 3444000   0.69638075   -8.4886213    592.67265  0.014340705  0.013628581            4 
 3445000   0.70216646   -8.4870324    593.68333   0.01436099  0.013623743            6 
 3446000   0.70938039   -8.4748149    592.42653   0.01432643  0.013618908            4 
 3447000   0.69080238   -8.5193145    592.02418  0.014312547  0.013614064            4 
 3448000   0.70010204   -8.5087088    592.52576  0.014320518  0.013609225            9 
 3449000   0.70843658   -8.4787586    592.40381   0.01431342  0.013604393            3 
 3450000   0.69433978   -8.5090427    591.66188   0.01429135   0.01359956            4 
 3451000   0.72003096   -8.4924104    593.01626  0.014319913  0.013594717            1 
 3452000    0.6879324   -8.4948136    593.39162  0.014324827  0.013589882            2 
 3453000   0.70055526   -8.4828153    592.95034  0.014310029  0.013585058            8 
 3454000   0.69982392   -8.4974386    593.12852  0.014310184  0.013580245            2 
 3455000   0.69870965     -8.49663    592.72527  0.014296316  0.013575427            3 
 3456000   0.68942198   -8.5018178    591.89591  0.014272181  0.013570599            2 
 3457000    0.7086226   -8.5235443    593.34077  0.014302882  0.013565777            3 
 3458000   0.70291677   -8.4985856    591.80858  0.014261822  0.013560966            3 
 3459000   0.68864017   -8.4726692    594.23599   0.01431618  0.013556164            2 
 3460000   0.68667882   -8.5096543    593.34367  0.014290551  0.013551363            4 
 3461000   0.69148629   -8.4957632    592.81224  0.014273626  0.013546559            5 
 3462000   0.69622003   -8.5012009    593.20984  0.014279074  0.013541756            2 
 3463000   0.69914858   -8.5011889    593.32605  0.014277747  0.013536956            2 
 3464000   0.70448527   -8.5227742    593.26018   0.01427204   0.01353215            2 
 3465000   0.69966206   -8.5110975    593.01431  0.014262008  0.013527336            3 
 3466000   0.70791278   -8.4974895    592.58171  0.014247492  0.013522521            3 
 3467000    0.7123118   -8.5067033    592.70741  0.014246404  0.013517714            5 
 3468000   0.69263989   -8.5101095    593.15665  0.014253091  0.013512906            2 
 3469000   0.68238605    -8.507027    592.58349  0.014235214  0.013508099            4 
 3470000   0.68318812   -8.5167265    591.49344  0.014204934  0.013503293            3 
 3471000   0.68691113    -8.520686    591.70347  0.014205884  0.013498485            5 
 3472000   0.68780325   -8.5026978    593.01626  0.014233301  0.013493683            3 
 3473000    0.6998293   -8.4829193    594.02506  0.014253409  0.013488897            5 
 3474000   0.70519438   -8.4806943    594.23023  0.014254227  0.013484115            4 
 3475000   0.68626729      -8.4908    593.55575  0.014233951  0.013479347            6 
 3476000   0.69233569   -8.4857257    593.88511  0.014237752  0.013474575            4 
 3477000   0.69516779   -8.4712595    594.35312  0.014244874  0.013469808            3 
 3478000   0.68985142   -8.4859453    592.49737  0.014196314   0.01346503            2 
 3479000   0.71032852   -8.4941307    592.60315  0.014194767  0.013460253            1 
 3480000    0.6991141   -8.5080221    592.44696  0.014186948  0.013455474            5 
 3481000   0.72257548   -8.5075835    592.39814  0.014181704  0.013450692            2 
 3482000   0.68880889   -8.4827535    593.54639  0.014205112  0.013445935            7 
 3483000    0.7035037   -8.4943235    592.72369   0.01418135  0.013441184            8 
 3484000   0.68779956   -8.4871983    593.85306  0.014204292  0.013436427            6 
 3485000   0.69218242   -8.4756554    593.75973  0.014197985  0.013431671            3 
 3486000   0.69805711   -8.4963718    593.58143   0.01418965  0.013426921            4 
 3487000   0.68678255   -8.4715214    593.57551  0.014185439  0.013422172            3 
 3488000   0.68156532   -8.4836593    593.93915   0.01419006  0.013417428            2 
 3489000   0.68989121   -8.4946471    593.16734  0.014167559  0.013412681            6 
 3490000    0.7045174   -8.5036877    593.56304  0.014172947  0.013407926            4 
 3491000   0.68985749   -8.4943161     592.6464  0.014147007  0.013403175            4 
 3492000   0.69927736   -8.5151318    593.53696  0.014164208  0.013398429            3 
 3493000   0.68967175   -8.4896805    592.18724  0.014127952  0.013393683            2 
 3494000     0.705874   -8.4755709    592.96378   0.01414243  0.013388929            1 
 3495000   0.70141039   -8.5101833    593.25175  0.014145249  0.013384181            6 
 3496000   0.69416253   -8.5046083    593.91564  0.014157028  0.013379437            8 
 3497000   0.69907017   -8.5277634    593.65671  0.014146809  0.013374694            5 
 3498000   0.68429545   -8.5258329    593.39976  0.014136644  0.013369951            2 
 3499000   0.69630568   -8.5096732    591.93428  0.014097701  0.013365216            4 
 3500000   0.69746838   -8.4998787    593.68755  0.014135418   0.01336048            4 
 3501000   0.69301807   -8.5285472    592.87878  0.014112129  0.013355745            3 
 3502000   0.68339693   -8.4877747    593.39852  0.014120467  0.013351013            1 
 3503000   0.67885663   -8.4915291    593.10535  0.014109462  0.013346279            8 
 3504000   0.68400266   -8.4960343    592.67012  0.014095085  0.013341544            4 
 3505000   0.68744582   -8.5084295    592.64099  0.014090371  0.013336806            4 
 3506000   0.69328032    -8.519859    592.59887  0.014085351  0.013332062            4 
 3507000   0.68780177   -8.5402151     592.8083  0.014086311  0.013327323            3 
 3508000   0.68909968   -8.5309973    592.19277  0.014067673  0.013322577            2 
 3509000   0.68806237   -8.5374146    592.38203  0.014068159  0.013317835            3 
 3510000   0.68232449   -8.5387366    591.70882  0.014048168  0.013313103            2 
 3511000   0.68571447   -8.5384878    592.65693   0.01406667  0.013308353            3 
 3512000   0.67757985    -8.542347    593.27605  0.014077355  0.013303602            5 
 3513000     0.701969    -8.520208     591.1575  0.014023093  0.013298856            3 
 3514000   0.69369998   -8.5217436    591.16628   0.01401931  0.013294108            9 
 3515000   0.69559537      -8.5482    591.64609  0.014026697  0.013289373            1 
 3516000   0.67248647   -8.5308935    593.06218  0.014056271  0.013284639            3 
 3517000   0.68518336    -8.502684    593.34632  0.014059007  0.013279905            1 
 3518000   0.68723475   -8.5212942    592.55232  0.014036202  0.013275181            2 
 3519000   0.69169876   -8.5177515    592.90634  0.014040597  0.013270453            3 
 3520000   0.66668318   -8.5481166    592.02313  0.014015699   0.01326572            2 
 3521000   0.68844912   -8.5604922    592.27313  0.014017635  0.013260989            1 
 3522000    0.6756231   -8.5343104    593.35369  0.014039222  0.013256263            4 
 3523000    0.6914131   -8.5527684    592.35008  0.014011498  0.013251531            5 
 3524000   0.68363159   -8.5058277    593.23695  0.014028494  0.013246814            6 
 3525000   0.69600834   -8.5401383    592.21414  0.014000334  0.013242089            3 
 3526000     0.687943   -8.5297421    592.10254  0.013993726  0.013237366            4 
 3527000   0.70172605   -8.5500668    593.54988  0.014023955  0.013232647            2 
 3528000   0.69180857   -8.5555597    592.86005  0.014003686   0.01322793            3 
 3529000   0.69389349   -8.5394435    592.07694  0.013981226  0.013223206            2 
 3530000   0.69225034   -8.5319881    592.21237  0.013980462  0.013218484            3 
 3531000   0.68306222   -8.5431332    592.41218  0.013981218  0.013213769            2 
 3532000   0.67725536   -8.5427564    592.37091  0.013976286  0.013209054            3 
 3533000   0.67655821   -8.5449017    593.03893  0.013988087  0.013204331            2 
 3534000   0.68956314   -8.5313847    592.72089  0.013976629  0.013199616           10 
 3535000   0.68861152   -8.5221498    593.52748   0.01399169  0.013194903            8 
 3536000   0.68185975   -8.5533324    590.66412  0.013920252  0.013190184            8 
 3537000    0.6784336   -8.5171377    593.02375   0.01397191  0.013185475            6 
 3538000   0.68462867   -8.5202864    592.02141  0.013944352  0.013180767            6 
 3539000   0.69507658   -8.5231794    592.41784  0.013949747  0.013176047            4 
 3540000   0.68521483   -8.5479772     592.1521   0.01393955  0.013171332            2 
 3541000   0.67847298   -8.5335076    593.68531  0.013971696   0.01316663            2 
 3542000   0.68578907   -8.5419975     592.3507  0.013936352  0.013161918            5 
 3543000   0.67977846   -8.5472013    591.92045  0.013922299  0.013157211            4 
 3544000   0.67206164   -8.5762243    591.88864  0.013917622  0.013152507            2 
 3545000   0.66645161   -8.5438583    592.63818  0.013931316  0.013147802           10 
 3546000   0.69283495   -8.5520767    591.36802  0.013897538  0.013143089           13 
 3547000   0.69488653   -8.5546933    592.62821  0.013923226  0.013138378            8 
 3548000   0.68913881   -8.5364421    592.02732  0.013905189   0.01313367           10 
 3549000   0.67835243   -8.5518347    592.18494  0.013904972  0.013128962           16 
 3550000   0.67520496   -8.5446396    592.71011  0.013913383  0.013124265           11 
 3551000   0.67515542   -8.5565569    591.82496  0.013888692  0.013119565            8 
 3552000   0.69001937   -8.5449383     592.4555  0.013899575  0.013114864           12 
 3553000    0.6847518    -8.537323    591.66315  0.013877079  0.013110165           10 
 3554000    0.6886386   -8.5579054    591.82197  0.013876899  0.013105477           10 
 3555000   0.67396868   -8.5343008    591.61359   0.01386811  0.013100782           10 
 3556000   0.68413619   -8.5559714    591.95452    0.0138722  0.013096087           12 
 3557000   0.69303199   -8.5526227    591.71973  0.013862799  0.013091393           10 
 3558000   0.66822619   -8.5587796     592.5052    0.0138773  0.013086709            9 
 3559000   0.69233651   -8.5415833    592.97601  0.013884425  0.013082024            9 
 3560000    0.6773366    -8.560868    591.34788  0.013842413  0.013077334            7 
 3561000   0.67135534   -8.5770023    592.33481  0.013861622  0.013072646            7 
 3562000   0.68326491   -8.5853316    591.64399  0.013841568  0.013067962            6 
 3563000    0.6828156   -8.5708999    591.65174  0.013837865  0.013063275           10 
 3564000   0.67557969   -8.5516063    591.07893  0.013820589  0.013058584            2 
 3565000   0.67117216   -8.5561683    591.70067  0.013831245  0.013053916            6 
 3566000   0.67668554    -8.546175    591.64586  0.013826086  0.013049239           10 
 3567000   0.67758346   -8.5633949    592.34735  0.013838598  0.013044558           14 
 3568000   0.69141978   -8.5653811    593.50841  0.013861837  0.013039882            7 
 3569000    0.6843907   -8.5522461    591.53933  0.013811976  0.013035197            5 
 3570000   0.66990334   -8.5643369    591.55619  0.013808501  0.013030514           15 
 3571000   0.68733914   -8.5909339    592.09384  0.013817181  0.013025833            9 
 3572000   0.67518857   -8.5835604     591.5521  0.013800674  0.013021159           12 
 3573000   0.67370494   -8.5671083    591.76957  0.013801884  0.013016488           13 
 3574000   0.68960921    -8.577395    590.49572   0.01376832  0.013011818            7 
 3575000   0.67946598   -8.5601513    591.60099  0.013790233  0.013007154            7 
 3576000    0.6850056   -8.5578513    591.08406   0.01377433  0.013002483            5 
 3577000   0.67648996   -8.5754334    592.26668  0.013798031  0.012997821            4 
 3578000   0.67882591    -8.579928     592.0016  0.013788001  0.012993163            9 
 3579000   0.69037016   -8.5518377    591.81685  0.013779847  0.012988504           17 
 3580000    0.6693664   -8.5604978    591.77203  0.013774954  0.012983836           12 
 3581000   0.68023987   -8.5496732    591.85015  0.013772925  0.012979164            8 
 3582000   0.68988675   -8.5815487    591.22863  0.013754621  0.012974501           10 
 3583000   0.68040792   -8.5697603    591.89724  0.013766333  0.012969832           16 
 3584000    0.6722999   -8.6052475    590.89193  0.013739117  0.012965157            9 
 3585000   0.68154421   -8.5859541    592.40711  0.013770505  0.012960491            6 
 3586000   0.66852582   -8.5679201    590.66051  0.013726076  0.012955817            9 
 3587000   0.67646078   -8.5910892    590.41614  0.013716572  0.012951158            5 
 3588000   0.67628387   -8.6034505    591.27596  0.013732719  0.012946503           11 
 3589000   0.68147813    -8.556084    590.97265   0.01372185  0.012941841            9 
 3590000   0.67932219   -8.5789017    591.02501  0.013719244  0.012937186           12 
 3591000    0.6679592   -8.5822158    591.28713  0.013721506  0.012932534            9 
 3592000   0.68466447   -8.5851109    591.56466  0.013724124  0.012927878            8 
 3593000   0.66386395   -8.5929494    591.31888  0.013714604  0.012923231           13 
 3594000   0.68467577   -8.5899391    591.24947  0.013709179  0.012918577            3 
 3595000   0.66682811   -8.5672349    590.96074  0.013698673  0.012913923            5 
 3596000   0.68221914   -8.5719253    592.31942  0.013726349  0.012909283            5 
 3597000   0.66840428   -8.5703074    592.18797  0.013719488  0.012904641            7 
 3598000   0.67037183    -8.599161    591.18485  0.013692441  0.012899994            7 
 3599000   0.67356434   -8.5755726     592.2206  0.013712619  0.012895352           13 
 3600000    0.6708749   -8.5776536    591.17951  0.013684711  0.012890716            8 
 3601000    0.6707003    -8.608237    591.53428  0.013689121  0.012886081           11 
 3602000   0.69011895   -8.5925832    592.02907  0.013696767  0.012881445            6 
 3603000   0.69032491   -8.6128576    590.74834  0.013663344  0.012876819            7 
 3604000   0.68388883   -8.5778811    591.65582  0.013680536  0.012872191           10 
 3605000   0.67018385   -8.6013004    590.66797  0.013653906  0.012867564            8 
 3606000    0.6795363   -8.5679597    591.89519   0.01367848   0.01286293            2 
 3607000   0.66264075   -8.5911817    591.52323  0.013666094  0.012858301            6 
 3608000   0.67893759   -8.5855619    591.68666  0.013666081  0.012853676            3 
 3609000   0.66807571   -8.5882003    591.32256  0.013653887   0.01284905            8 
 3610000   0.66987252   -8.5629138    592.29793  0.013672621  0.012844444            2 
 3611000    0.6714057   -8.5713096     591.4205  0.013648585  0.012839827            8 
 3612000   0.67508516   -8.6165358    590.98964  0.013634866  0.012835201            8 
 3613000   0.67972481   -8.5961946    590.64373  0.013623114  0.012830582            3 
 3614000   0.66570473   -8.5864307    592.36877  0.013659121  0.012825964            4 
 3615000   0.66062716   -8.5948419    590.38721  0.013609664  0.012821343            7 
 3616000   0.66505032   -8.5916536    591.94595  0.013641822  0.012816744            3 
 3617000   0.66775519    -8.588547    591.07651  0.013618019  0.012812143            3 
 3618000   0.66527935   -8.5769896    591.63365  0.013627088  0.012807553            2 
 3619000   0.67748333    -8.585604    591.42337   0.01361848  0.012802951            2 
 3620000   0.66924007   -8.5830473    592.17858  0.013632104  0.012798351            2 
 3621000   0.67074626    -8.578462    592.18409  0.013628466  0.012793738            2 
 3622000    0.6838935   -8.5919488    591.25427   0.01360331  0.012789139            3 
 3623000   0.67597818   -8.6007871    591.31209  0.013600885  0.012784528            2 
 3624000   0.67580356   -8.5886795    591.12352  0.013592796   0.01277992            4 
 3625000   0.67139907    -8.582793    592.12849  0.013612149  0.012775314            3 
 3626000   0.66106525   -8.5711558    592.08471  0.013607389  0.012770709            2 
 3627000   0.68044983   -8.5876656    590.13446  0.013558829  0.012766103            3 
 3628000   0.67645248   -8.5734745    592.06671  0.013599474  0.012761514            3 
 3629000   0.68125012   -8.6081839    591.32141  0.013578612  0.012756916            3 
 3630000   0.68295724   -8.5850236    591.67597  0.013583011  0.012752326            3 
 3631000   0.68433111   -8.6135055    591.18776  0.013568066  0.012747742            3 
 3632000   0.66225023   -8.5814284    591.31679  0.013567291  0.012743143            2 
 3633000   0.67566664    -8.601998    590.74758    0.0135505  0.012738555            2 
 3634000   0.67073698   -8.6172114     590.5516  0.013542277  0.012733959            2 
 3635000   0.67440266   -8.5880469    591.63963  0.013563494  0.012729356            3 
 3636000   0.66401522   -8.6226453    591.27833  0.013551483  0.012724763            2 
 3637000   0.66326918   -8.5912748    591.36109  0.013549654  0.012720167            6 
 3638000   0.67165628   -8.5983907    590.99928  0.013537642  0.012715587            4 
 3639000   0.66465692   -8.6190834    592.03413   0.01355762  0.012710999            3 
 3640000   0.65862587   -8.5922915     591.6284  0.013544606   0.01270642            1 
 3641000    0.6654512   -8.6029444    591.30576  0.013533502   0.01270184            3 
 3642000    0.6678265   -8.6003876    590.57448  0.013513053  0.012697273            2 
 3643000   0.64334436   -8.5995414    591.15557  0.013522636  0.012692697            2 
 3644000   0.67294989   -8.6052338     591.4941  0.013526667  0.012688128            2 
 3645000   0.66814549   -8.5817987    590.67129  0.013504145  0.012683556            2 
 3646000   0.67202029     -8.60362    590.66194  0.013500227  0.012678982            2 
 3647000   0.67229513   -8.6141671     590.1721  0.013485333  0.012674415            2 
 3648000   0.65648413   -8.6054106    591.08365  0.013502459  0.012669842            3 
 3649000   0.67165662   -8.6314031    591.17694  0.013500889  0.012665268            3 
 3650000   0.66848548   -8.6380176    591.82524  0.013511992  0.012660714            5 
 3651000   0.67275217   -8.6146623    591.35247    0.0134975  0.012656154            2 
 3652000   0.66908565   -8.5903891    592.27451  0.013514844  0.012651601            3 
 3653000   0.67680994   -8.6257442    590.65505    0.0134742   0.01264706            4 
 3654000   0.66094982   -8.6079613    591.72752  0.013494972   0.01264251            3 
 3655000   0.66237702   -8.6025018     591.3889  0.013483559  0.012637953            1 
 3656000   0.66572166   -8.6182611     591.6648   0.01348616  0.012633402            6 
 3657000   0.66649293   -8.6090556    590.83148  0.013463483  0.012628846            4 
 3658000    0.6802495   -8.6382551    590.72807  0.013457447  0.012624295            4 
 3659000   0.65227348   -8.5868125    591.65543  0.013474889  0.012619747            4 
 3660000   0.66561864   -8.6028408    590.80604  0.013451868  0.012615204            4 
 3661000   0.64749994   -8.5996443     591.4579  0.013463032  0.012610659            4 
 3662000   0.68369889    -8.602002    590.25388  0.013431956  0.012606123            2 
 3663000   0.65846131   -8.6012626    590.25663  0.013428352  0.012601591            3 
 3664000   0.66283774   -8.6073711     591.8835  0.013461688  0.012597059            4 
 3665000   0.66826536   -8.6038349    590.86181  0.013434784  0.012592528            6 
 3666000   0.65638475   -8.5859114    592.11068  0.013459508  0.012588004            2 
 3667000    0.6671548    -8.603845    591.64278  0.013445205  0.012583478            6 
 3668000   0.65842229   -8.5822206    591.73565  0.013443649  0.012578957            5 
 3669000   0.65833751   -8.5961247    591.86859  0.013443004  0.012574438            7 
 3670000    0.6533526   -8.5953606    591.50931  0.013431183  0.012569908            4 
 3671000   0.66199796   -8.6000458    590.12809   0.01339617  0.012565381           10 
 3672000   0.66680565   -8.6319729    591.15641  0.013415859  0.012560847            9 
 3673000   0.66024313   -8.6186756    591.25754  0.013414501  0.012556318           11 
 3674000   0.65390843   -8.6320263    590.59358   0.01339579  0.012551794            4 
 3675000    0.6601789   -8.6193192    590.97898  0.013400884   0.01254727            9 
 3676000   0.66025425   -8.6285617    590.45956  0.013385463  0.012542738            8 
 3677000   0.66653353   -8.6110542    590.72488  0.013387836  0.012538213            9 
 3678000   0.66021657   -8.6314896    591.05922  0.013391771  0.012533692            7 
 3679000   0.66192977   -8.6021835    591.39807  0.013395807  0.012529175           13 
 3680000   0.66609963   -8.5991395    591.37629  0.013391673  0.012524662            9 
 3681000   0.67000095   -8.6191793    591.03211  0.013380243  0.012520148            8 
 3682000   0.66081868   -8.6448826    590.85117  0.013372514  0.012515644           12 
 3683000   0.65424768   -8.6026635      590.627  0.013363811  0.012511135            7 
 3684000   0.66555857   -8.6046398     592.1644   0.01339496  0.012506622           10 
 3685000   0.65009927   -8.5953668    591.19104  0.013369313  0.012502124            7 
 3686000   0.65892653   -8.6093638    590.97386  0.013360776  0.012497624           13 
 3687000   0.66738087   -8.6186111    592.35891  0.013388457  0.012493118           13 
 3688000   0.66302879   -8.6220238    591.57616   0.01336714  0.012488609            7 
 3689000   0.66842277   -8.5971038    590.84989  0.013347111  0.012484102           14 
 3690000    0.6772579   -8.6256371    591.06551  0.013348363  0.012479603            4 
 3691000   0.66689746    -8.641454    591.16438  0.013346979  0.012475104            6 
 3692000   0.67065156   -8.6422184    590.44859  0.013327207    0.0124706           13 
 3693000   0.66429311   -8.6488987    589.98516  0.013313141  0.012466097           17 
 3694000   0.66897816   -8.6065012    591.22809  0.013337576  0.012461606            4 
 3695000   0.64916272   -8.6275639    591.37883  0.013337366  0.012457108            7 
 3696000   0.66038937   -8.6308337    591.11362  0.013327778  0.012452625            3 
 3697000   0.65721853   -8.6378086    591.08055  0.013323428  0.012448132            8 
 3698000   0.64779079   -8.6040954    592.06402  0.013341987  0.012443644            2 
 3699000   0.65688979   -8.6438444    591.66795  0.013329457   0.01243915            3 
 3700000   0.65309386   -8.6253582    591.08375  0.013312697  0.012434672           10 
 3701000   0.66779799   -8.6285954    590.77795  0.013302215  0.012430185            3 
 3702000   0.66691968   -8.6057294    591.01058  0.013303858  0.012425704            2 
 3703000   0.65883322   -8.6116281    591.94148  0.013321214  0.012421224            5 
 3704000   0.66830169   -8.6264527    591.58443  0.013309585  0.012416753            9 
 3705000   0.66585686   -8.6325221    590.70165  0.013286137  0.012412281            9 
 3706000   0.66742498   -8.6033158    590.66938  0.013281826  0.012407808            5 
 3707000   0.65915636   -8.6084701    590.84252  0.013282136  0.012403337            4 
 3708000   0.65168975   -8.6252959    591.42478  0.013291639  0.012398873            1 
 3709000   0.66464924   -8.6128808    591.69083  0.013294033  0.012394409            8 
 3710000   0.66836297   -8.6466564    590.73729  0.013269032  0.012389939            4 
 3711000   0.66889514   -8.6158012    591.16737  0.013275114  0.012385479           11 
 3712000   0.65632092   -8.6053089    591.72433  0.013284041  0.012381013           13 
 3713000   0.66474353   -8.6470579    590.04858  0.013242853   0.01237654            2 
 3714000   0.66308759    -8.639491    589.95508   0.01323719  0.012372076            8 
 3715000   0.66457872   -8.6454093    589.84251  0.013231102  0.012367604            5 
 3716000   0.66134444   -8.6271502    590.45706  0.013241323  0.012363132            4 
 3717000   0.65940554   -8.6191837    588.91644   0.01320322  0.012358662            8 
 3718000   0.66437676   -8.6404028    589.84463  0.013220473  0.012354198            8 
 3719000   0.64149624   -8.6333785    590.50926  0.013231811  0.012349728           10 
 3720000   0.65662825   -8.6385418    590.33874  0.013224434  0.012345266           10 
 3721000   0.64448276   -8.6132851     590.4282  0.013222884    0.0123408            6 
 3722000   0.66395037   -8.6323918     590.6602  0.013224525   0.01233634            8 
 3723000    0.6546555   -8.6287337    590.95486  0.013227569  0.012331889           13 
 3724000   0.65167208   -8.6353693    590.31511  0.013209701   0.01232744           11 
 3725000   0.64570148   -8.6295741    590.92272  0.013219748  0.012322997            6 
 3726000   0.65864301   -8.6216265    591.05453  0.013219148  0.012318557            5 
 3727000   0.66774196   -8.6500137    591.34953  0.013222197  0.012314122            4 
 3728000   0.64525289   -8.6438506    589.72257  0.013182282  0.012309686            6 
 3729000   0.66030879   -8.6287658    590.81737  0.013203213  0.012305255            1 
 3730000   0.63855985   -8.6226035    591.10515  0.013206103  0.012300831            4 
 3731000   0.66853914   -8.6204933    592.09722  0.013224721  0.012296404           12 
 3732000   0.66159121   -8.6270523    591.72416  0.013212847   0.01229198           18 
 3733000   0.65486827    -8.625533    591.12564  0.013195947  0.012287559           12 
 3734000   0.64659642   -8.6344032    591.42513  0.013199097  0.012283129            3 
 3735000   0.65539851   -8.6440245    589.49121  0.013152414  0.012278701           19 
 3736000   0.64461275   -8.6306261    590.53645  0.013172208   0.01227427           15 
 3737000   0.63351735   -8.6194647    591.41443  0.013188262  0.012269848            4 
 3738000   0.65099376   -8.6330066    591.25796  0.013181246  0.012265426           12 
 3739000   0.65803999   -8.6287269    590.05689  0.013150952  0.012261009            8 
 3740000   0.65064808   -8.6293698    591.38956  0.013177129   0.01225659           12 
 3741000   0.63491166   -8.6338915    590.95329  0.013163889  0.012252175            4 
 3742000   0.65172245   -8.6216258    589.90812  0.013137095  0.012247761           12 
 3743000    0.6573802   -8.6489492     590.3312  0.013143005  0.012243351           12 
 3744000    0.6569909   -8.6326308    590.93823  0.013153005  0.012238936            4 
 3745000   0.64757572   -8.6209261    591.44988  0.013160879  0.012234522            6 
 3746000   0.64655374   -8.6423511    590.10325  0.013127408  0.012230107            5 
 3747000    0.6423541   -8.6662529    590.40924   0.01313071  0.012225699            3 
 3748000   0.65535008   -8.6432015    590.35521  0.013126005   0.01222129            6 
 3749000   0.65706485   -8.6622608    589.87234  0.013111771  0.012216872           11 
 3750000   0.64523666   -8.6610016    590.36096  0.013119132  0.012212471            5 
 3751000   0.65049997   -8.6667791    590.79904  0.013125367  0.012208059            5 
 3752000   0.64655479    -8.648036    589.03912  0.013082781  0.012203651           13 
 3753000   0.65623595   -8.6300971    591.62966  0.013136816  0.012199252            6 
 3754000   0.65645677   -8.6319441    590.28612  0.013103492  0.012194852            5 
 3755000   0.64960521   -8.6185565    591.30008  0.013122505   0.01219045            9 
 3756000   0.65764115   -8.6713602    590.39009  0.013098822  0.012186054           17 
 3757000   0.65222796   -8.6529355    590.27697  0.013092826  0.012181664            5 
 3758000   0.65211772   -8.6397798    590.43827  0.013092919  0.012177277            5 
 3759000   0.64412157   -8.6498817    590.54067  0.013091706  0.012172885           15 
 3760000   0.66575963   -8.6355551     591.6883  0.013113659  0.012168496           13 
 3761000   0.64262139   -8.6526169    590.35035  0.013080527  0.012164107            8 
 3762000   0.64838129   -8.6530239    590.23971  0.013074599  0.012159724            5 
 3763000   0.65418952   -8.6468592    589.12593   0.01304646  0.012155339           14 
 3764000   0.64471943   -8.6297918    591.25114  0.013090045  0.012150953           14 
 3765000   0.64219447   -8.6357992    590.81089  0.013076824  0.012146575            2 
 3766000   0.64127102   -8.6484859    590.83601  0.013073907  0.012142195           12 
 3767000   0.65307314   -8.6556087     589.9542  0.013050929   0.01213782            2 
 3768000   0.63921281   -8.6454558    589.71643  0.013042207  0.012133441           10 
 3769000   0.64827476   -8.6553529    590.52128  0.013056542  0.012129062            5 
 3770000   0.65474236   -8.6397255    590.96763  0.013062945  0.012124692            4 
 3771000   0.66029928    -8.659456    590.66435  0.013052779  0.012120315            3 
 3772000   0.64714127   -8.6476026    589.91631  0.013032792  0.012115939           10 
 3773000   0.64247916   -8.6529316    589.35496   0.01301694  0.012111559            5 
 3774000   0.64886675   -8.6489325    590.19402  0.013032018  0.012107188            2 
 3775000   0.63619676    -8.639975    591.69355  0.013061668  0.012102812           10 
 3776000   0.63747248   -8.6361633    590.92458  0.013041238   0.01209844            4 
 3777000   0.65525478   -8.6461831    590.46202   0.01302758  0.012094067            8 
 3778000   0.63723753   -8.6673022    590.03269  0.013014661  0.012089696            4 
 3779000    0.6410592   -8.6653224    591.44803  0.013042428  0.012085324            7 
 3780000   0.64975072   -8.6535809    590.38333  0.013015505  0.012080955            4 
 3781000   0.64729929   -8.6636975    590.04655  0.013004641  0.012076584            2 
 3782000   0.64839774   -8.6701771    589.49846  0.012989125  0.012072214            5 
 3783000   0.64059349   -8.6468901    589.17397  0.012978544   0.01206785            6 
 3784000   0.64894981   -8.6644892    589.86655  0.012990366  0.012063492            4 
 3785000   0.66347161   -8.6636361    590.16521   0.01299351  0.012059131            1 
 3786000    0.6441125   -8.6494742    589.93908    0.0129851  0.012054775            1 
 3787000   0.64071692   -8.6601879    591.20232  0.013009469  0.012050415            2 
 3788000   0.63895206   -8.6792756     589.5809  0.012970365  0.012046052            3 
 3789000   0.65395802   -8.6608032     590.9411  0.012996857  0.012041695            4 
 3790000   0.64279638   -8.6444387    589.84928  0.012969421  0.012037346            1 
 3791000   0.66076768   -8.6576828     590.2678    0.0129752  0.012032998            2 
 3792000   0.66318547   -8.6365766    589.61378  0.012957406  0.012028659            2 
 3793000   0.64391429    -8.677725    589.35967  0.012948407  0.012024313            2 
 3794000   0.63823721   -8.6688406    589.24218  0.012942413  0.012019964            5 
 3795000   0.64131229   -8.6707087    589.52036  0.012945111  0.012015613            2 
 3796000   0.64646628   -8.6264366    591.40395  0.012983051  0.012011269            1 
 3797000   0.65653695   -8.6591253    589.73676  0.012943042  0.012006924            1 
 3798000   0.63168758   -8.6513666    590.24744  0.012950839  0.012002587            2 
 3799000    0.6360512    -8.633391    590.08639  0.012943897  0.011998258            3 
 3800000   0.62706107   -8.6638155    590.22583  0.012943549  0.011993923            3 
 3801000   0.64222345   -8.6613938    589.08922  0.012915225  0.011989591            2 
 3802000   0.64699572   -8.6688158    588.17752  0.012891845  0.011985258            3 
 3803000   0.65439787   -8.6574733    590.56849  0.012940847  0.011980924            3 
 3804000   0.64589762   -8.6704095    590.92809  0.012945323  0.011976593            2 
 3805000   0.63548603   -8.6500974    589.54349  0.012911596  0.011972262            2 
 3806000    0.6458789   -8.6567608    590.59256  0.012931174  0.011967934            2 
 3807000   0.64419286   -8.6630159    590.53641  0.012926548  0.011963621            2 
 3808000   0.63322002   -8.6754647    590.06042  0.012912737  0.011959306            4 
 3809000   0.64578516   -8.6734375    589.59987  0.012899271   0.01195498            3 
 3810000   0.64022055   -8.6501403    590.44294  0.012914325   0.01195066            3 
 3811000   0.65394862   -8.6612748    590.36684  0.012909272   0.01194634            4 
 3812000   0.64311461   -8.6553127     589.5177  0.012887323  0.011942031            1 
 3813000   0.63624904   -8.6548252    590.09643  0.012896591  0.011937719            3 
 3814000   0.64822973   -8.6431126    591.32169  0.012919981  0.011933413            2 
 3815000    0.6380277   -8.6692991    590.38106  0.012896048  0.011929103            4 
 3816000   0.64026128   -8.6458779    588.76656  0.012857411  0.011924794            5 
 3817000   0.63303845   -8.6583983    589.63156  0.012872927  0.011920485            3 
 3818000   0.64440502   -8.6571167    589.86593  0.012874671  0.011916174            3 
 3819000   0.64266332   -8.6547796    589.29162  0.012858768  0.011911864            2 
 3820000   0.64024097   -8.6624251    590.25053   0.01287632  0.011907556            2 
 3821000   0.64732538   -8.6796943    589.84996  0.012864214  0.011903254            6 
 3822000   0.64327542   -8.6586325    588.47833  0.012830942  0.011898952            5 
 3823000   0.63370764    -8.655651     590.5791  0.012873378  0.011894649            2 
 3824000   0.64265506   -8.6604844    590.46262  0.012867473  0.011890353            3 
 3825000   0.63888287   -8.6523671    590.27375  0.012859995   0.01188605            2 
 3826000   0.62778305   -8.6727735    590.18789  0.012854763  0.011881746            2 
 3827000   0.63577931   -8.6558903    590.19467  0.012851552  0.011877444            3 
 3828000   0.64604339   -8.6716173    588.01943  0.012800841  0.011873141            2 
 3829000   0.65302808   -8.6500771    589.66424  0.012833295  0.011868842            2 
 3830000   0.63233678    -8.670147        588.7  0.012808964  0.011864543            4 
 3831000    0.6598365   -8.6993344    589.15922   0.01281561  0.011860245            1 
 3832000   0.63347886   -8.6922186    589.09802  0.012810935  0.011855949            4 
 3833000   0.65338607   -8.6578481    589.56093  0.012817656  0.011851656            2 
 3834000   0.64362192   -8.6504715    588.87864  0.012799484  0.011847364            2 
 3835000   0.63599853   -8.6831419    588.84658  0.012795449   0.01184307            4 
 3836000   0.65019159   -8.6625281    590.32968  0.012824333  0.011838778            2 
 3837000   0.62669083   -8.6721167    590.08423   0.01281566  0.011834493            4 
 3838000   0.63495447   -8.6681125     588.7937  0.012784299  0.011830204            3 
 3839000    0.6449251   -8.6807422    589.55854  0.012797572  0.011825916            3 
 3840000   0.63070162    -8.672874    589.10851  0.012784473  0.011821635            4 
 3841000   0.65311999   -8.6373894    589.28178  0.012784904  0.011817357            5 
 3842000   0.63269279   -8.6785894    588.93911  0.012774143  0.011813081            5 
 3843000   0.62575824   -8.6931866      589.094  0.012774178  0.011808798            3 
 3844000   0.64861134   -8.6837152     588.7979  0.012764436  0.011804511            2 
 3845000   0.63657029   -8.6988038    587.31343  0.012728943  0.011800223            3 
 3846000   0.64727488   -8.6593978     588.9782  0.012761705  0.011795941            7 
 3847000   0.62790671   -8.6779733    588.69461  0.012752244  0.011791663            3 
 3848000   0.64332159   -8.6606117    588.67868  0.012748585  0.011787377            3 
 3849000   0.62435483   -8.6757015    588.65078  0.012744669  0.011783092            1 
 3850000   0.63771034   -8.6655724     590.3082  0.012777234  0.011778817            2 
 3851000   0.63370868   -8.6623795    589.04406  0.012746561  0.011774548            2 
 3852000   0.61274165   -8.6987125    588.41234  0.012729585  0.011770273            3 
 3853000   0.63196052   -8.6753383    590.15404  0.012763951  0.011766004            1 
 3854000   0.62372291     -8.68118    588.68489  0.012728872  0.011761733            1 
 3855000   0.64778806   -8.6780205    589.45546  0.012742228  0.011757468            3 
 3856000   0.63463603   -8.6829041      588.618  0.012720825  0.011753212            1 
 3857000     0.645005   -8.6976147    587.88063  0.012701595  0.011748954            2 
 3858000   0.62976206   -8.6775719    589.55117  0.012734387  0.011744692            4 
 3859000   0.63913801    -8.679104    590.14857  0.012743988  0.011740434            2 
 3860000   0.63365611   -8.7033332    588.74026  0.012710282  0.011736173            2 
 3861000   0.62001196   -8.6831078     589.6919   0.01272753  0.011731916            2 
 3862000   0.63620503   -8.6924495      588.361  0.012695516  0.011727666            5 
 3863000   0.63308733   -8.6670264    588.40835  0.012693251  0.011723416            4 
 3864000    0.6291274   -8.6724928    589.34677  0.012710205  0.011719174            5 
 3865000   0.63938753   -8.6777347     589.6823   0.01271415  0.011714929            2 
 3866000   0.63939421   -8.6762332    588.58574  0.012687225  0.011710679            4 
 3867000    0.6316082   -8.6912343    588.04953  0.012672389  0.011706437            4 
 3868000   0.65161994    -8.693328    589.18008   0.01269347  0.011702191            4 
 3869000   0.61227947   -8.6815524    589.40238  0.012694977  0.011697947            3 
 3870000   0.64752992   -8.6903576    588.63854  0.012675248  0.011693705            3 
 3871000    0.6210859   -8.6975258     588.4503  0.012667922  0.011689465            2 
 3872000   0.64612546   -8.6755079     589.3088  0.012683127   0.01168523            2 
 3873000   0.64843743   -8.6942921     589.3772  0.012681324  0.011680995            2 
 3874000   0.62986988   -8.6911431    589.31204  0.012676649  0.011676761            1 
 3875000   0.62791087   -8.6811575    588.94514  0.012665487  0.011672523            2 
 3876000   0.63900745   -8.6900845    588.83843  0.012659925  0.011668292            3 
 3877000   0.64337115   -8.7118629    587.88804  0.012636232   0.01166406            5 
 3878000   0.63625762   -8.7059888    588.60343  0.012648346  0.011659837            4 
 3879000   0.64071717   -8.7058118    587.10348  0.012612862  0.011655606            6 
 3880000   0.62907804   -8.6943579    589.58378  0.012662882  0.011651383            2 
 3881000   0.64734466   -8.6832696    589.33277  0.012654229  0.011647159            4 
 3882000   0.64007357    -8.693731    588.83283  0.012640238  0.011642934            2 
 3883000   0.64330753   -8.6923978    589.04847   0.01264161  0.011638707            2 
 3884000   0.64410787   -8.6963201    588.77807  0.012632554  0.011634497            4 
 3885000   0.62703378   -8.6663359    588.81235  0.012630038  0.011630287            3 
 3886000   0.63798837   -8.6863238    589.74525  0.012646793  0.011626084            3 
 3887000   0.63628568   -8.6967817    589.03527  0.012628318  0.011621878            2 
 3888000   0.63453093   -8.6912181    590.14761  0.012648911  0.011617673            4 
 3889000   0.63245882   -8.6598876    589.92465  0.012640881  0.011613477            3 
 3890000   0.62506088   -8.7036194    588.72882  0.012612014  0.011609276            3 
 3891000   0.61980481   -8.6749671    588.59466    0.0126059  0.011605083            4 
 3892000   0.63401317   -8.6767826    589.11162  0.012613729  0.011600889            3 
 3893000    0.6263872   -8.6819176    588.71017  0.012601896  0.011596696            8 
 3894000   0.63848991    -8.690704    588.49288   0.01259401  0.011592503            1 
 3895000   0.63383948   -8.6838525    588.28161  0.012586256  0.011588313            6 
 3896000    0.6275832    -8.682017    588.64357  0.012590768  0.011584125            4 
 3897000   0.61957079   -8.6810629    588.18638   0.01257776  0.011579932           12 
 3898000   0.63216037   -8.6978171     588.5055  0.012581356  0.011575746            5 
 3899000   0.63073823   -8.6802621    590.12896  0.012612827  0.011571567            6 
 3900000   0.62669948   -8.6776566    589.70899   0.01260062  0.011567386            5 
 3901000   0.64884509   -8.6851102     589.1087  0.012584566  0.011563204           10 
 3902000    0.6267891   -8.6886588    587.84788  0.012554414  0.011559026            6 
 3903000   0.64125365   -8.6733377    588.95508  0.012574837  0.011554857            6 
 3904000   0.61982069   -8.6919794    590.27193  0.012599725  0.011550683            6 
 3905000   0.61248931   -8.6877829    589.67471  0.012583754  0.011546511            7 
 3906000    0.6328687   -8.7124313    588.21312   0.01254935  0.011542344            7 
 3907000   0.63247538   -8.7027591    587.73012  0.012535836  0.011538173           12 
 3908000   0.63162594   -8.7096138    590.02331  0.012581528  0.011534006            9 
 3909000   0.62808753   -8.6990048    589.96477  0.012577061  0.011529839            9 
 3910000   0.64276881   -8.6923946     589.0088   0.01255347  0.011525673           12 
 3911000   0.64195779   -8.7074781    588.49087  0.012539224  0.011521514           22 
 3912000    0.6172158   -8.6947138    588.73164  0.012541148  0.011517352            8 
 3913000   0.62261802   -8.7044047    588.41463  0.012531191  0.011513186            8 
 3914000   0.61771374   -8.7138181    589.21092  0.012544944  0.011509019           14 
 3915000   0.62673601   -8.6692118    589.28738  0.012543367  0.011504868            9 
 3916000   0.63313995    -8.714605    588.39245   0.01252112  0.011500712            8 
 3917000   0.63767705   -8.7208256    588.69403  0.012524339  0.011496553           10 
 3918000   0.61801178   -8.6855058    588.92124  0.012525975    0.0114924           20 
 3919000   0.62148298   -8.7242321    588.55701  0.012515034  0.011488249           18 
 3920000   0.62565263   -8.7013267    588.72177  0.012515344  0.011484099            9 
 3921000   0.61776855   -8.6960253    588.21577  0.012501398  0.011479953           10 
 3922000   0.61442017   -8.6794796     589.4066  0.012523513  0.011475808            3 
 3923000   0.62202907   -8.7364672    589.01442   0.01251199  0.011471658           16 
 3924000   0.62683654    -8.704943    588.72825  0.012502724  0.011467515           12 
 3925000   0.60578107   -8.6920194    588.93052  0.012503833  0.011463371            5 
 3926000   0.62316018   -8.6877218    588.45819  0.012490622  0.011459231            5 
 3927000   0.63049664   -8.7014981    588.46356  0.012487555  0.011455093            7 
 3928000   0.63265526   -8.7005936    588.36741  0.012482336  0.011450958           16 
 3929000   0.63295433   -8.6969328     588.1029  0.012473549  0.011446819            9 
 3930000   0.62700058   -8.6994033    588.44376  0.012477603   0.01144268           16 
 3931000   0.63052609   -8.6841847    589.25674  0.012491663  0.011438548           13 
 3932000   0.62624436   -8.6985316    589.02725  0.012483623  0.011434423            8 
 3933000    0.6283154   -8.7024535     587.6896  0.012452106  0.011430293            5 
 3934000   0.61945015    -8.713062    587.68994  0.012448948   0.01142616           10 
 3935000   0.63479552   -8.6993709    588.17874  0.012456136  0.011422036            8 
 3936000   0.61787384   -8.7120919    590.18241  0.012495393  0.011417909           12 
 3937000   0.62572886   -8.6980181    588.36824  0.012453819  0.011413786            9 
 3938000   0.63180337   -8.6811366    588.53169  0.012454116  0.011409661           14 
 3939000   0.61585467   -8.7036114      589.782  0.012477405  0.011405546           15 
 3940000   0.62541355   -8.6924096     588.8979  0.012455539  0.011401427            9 
 3941000   0.61629748   -8.6999278     589.5402   0.01246596  0.011397316            6 
 3942000   0.61774499   -8.7130899    588.35687  0.012437783  0.011393198           11 
 3943000   0.62057598   -8.6950641    588.11017  0.012429414  0.011389088            6 
 3944000   0.61269041   -8.6926008    588.40411  0.012432474  0.011384981           11 
 3945000   0.61198455   -8.6864615    588.42678  0.012429801  0.011380875            5 
 3946000    0.6146066   -8.6798095    589.06882   0.01244021  0.011376773            6 
 3947000   0.62142651   -8.7046314    588.96744  0.012434918   0.01137267            4 
 3948000   0.61053982   -8.7151675    588.35086  0.012418753  0.011368567            8 
 3949000   0.62568348   -8.6915303    589.29999  0.012435637  0.011364465            9 
 3950000   0.62102177   -8.6950324     589.0794  0.012427836  0.011360365           11 
 3951000     0.625174   -8.7181162    588.76289  0.012418014  0.011356264            7 
 3952000   0.61417551   -8.6935404    589.46023  0.012429576  0.011352166            6 
 3953000   0.62683136   -8.7020432    588.88928  0.012414396  0.011348069            8 
 3954000   0.62394732   -8.6797104    588.72942  0.012407887  0.011343972           16 
 3955000   0.61853938   -8.6982433    588.91666  0.012408695  0.011339875           11 
 3956000   0.61816914    -8.709709    588.28408  0.012392233   0.01133578           15 
 3957000   0.62011129   -8.6979521    589.14104  0.012407149  0.011331686            7 
 3958000   0.61189493   -8.6916035    589.04831  0.012402062  0.011327597            4 
 3959000   0.62604559   -8.6969817    588.30516  0.012383286  0.011323505            3 
 3960000   0.62082119    -8.718285    589.16554  0.012398265  0.011319421            2 
 3961000   0.60223159   -8.7264698    588.43945  0.012379859  0.011315336            4 
 3962000   0.61179339   -8.7229289    589.06698  0.012389933  0.011311249            6 
 3963000   0.60527974   -8.7030672    588.54393  0.012375808  0.011307163            3 
 3964000   0.61198537   -8.7197128    589.14438  0.012385309  0.011303081            4 
 3965000     0.613944   -8.7278344      587.354  0.012344556  0.011299003            9 
 3966000   0.62038764   -8.7062566    587.83786  0.012351611  0.011294926            5 
 3967000   0.62649417   -8.7071478    589.27255  0.012378635  0.011290855           10 
 3968000   0.61027383    -8.706432    588.43998   0.01235803  0.011286782            3 
 3969000   0.61738108   -8.6991205     588.7154    0.0123607  0.011282716            6 
 3970000   0.61391227   -8.7082876     588.5594  0.012354312  0.011278652            3 
 3971000   0.60835228   -8.7082724     587.6368  0.012331839  0.011274588           10 
 3972000   0.61579785   -8.7064032    588.18042   0.01234014  0.011270518            6 
 3973000   0.60915424   -8.7050686    588.14179  0.012336224  0.011266453            4 
 3974000   0.62236205   -8.7057134     588.7272  0.012345395  0.011262387            6 
 3975000   0.61960694   -8.6997408    588.57652   0.01233913  0.011258327            2 
 3976000   0.61340766   -8.7097761    588.55972  0.012335675   0.01125427           10 
 3977000   0.61283241    -8.729319    587.86337  0.012317982  0.011250207            5 
 3978000   0.61693909   -8.7144805    588.34119  0.012324895  0.011246147            5 
 3979000   0.62155922   -8.7175253    587.53146  0.012304839  0.011242085            8 
 3980000   0.61069506   -8.7382672    588.18435  0.012315418  0.011238029           11 
 3981000   0.60954494   -8.7030987    588.32822  0.012315336  0.011233975            9 
 3982000   0.61687687   -8.6910032    588.65144  0.012319007  0.011229919           13 
 3983000   0.60434512    -8.723577    589.68765  0.012337594  0.011225871           12 
 3984000   0.61828507   -8.7031357    589.34693  0.012327371   0.01122182           15 
 3985000    0.6184726   -8.7100731     589.3936  0.012325253  0.011217772            8 
 3986000   0.62760397   -8.7115125    588.82541  0.012310282   0.01121373            5 
 3987000   0.61266091     -8.73877    588.50764  0.012300553   0.01120969            2 
 3988000   0.61836453   -8.6986458    589.22065  0.012312367  0.011205653           17 
 3989000   0.61992965   -8.7093562    588.46446  0.012293483  0.011201617           15 
 3990000   0.60443201    -8.723257    587.77837  0.012276073  0.011197586           10 
 3991000    0.6066291   -8.7130585     589.0173  0.012298866  0.011193556           14 
 3992000   0.61736838   -8.7203083    588.40076  0.012282915  0.011189524           11 
 3993000   0.60961881   -8.7219479    587.97707  0.012270996  0.011185495           13 
 3994000   0.61783035   -8.7160771      588.542  0.012279711  0.011181469            4 
 3995000   0.60324048   -8.7134233    588.32143  0.012272037  0.011177443            5 
 3996000   0.62206073   -8.7097419    588.42921  0.012271213  0.011173418           10 
 3997000   0.60993937    -8.739005    589.45699  0.012289571  0.011169395            7 
 3998000   0.61921824   -8.7198162    588.51126  0.012266785  0.011165375           12 
 3999000    0.6161005   -8.7294896    588.85326  0.012270844   0.01116135            7 
 4000000    0.6026377   -8.7105556     588.7461  0.012265544  0.011157333           17 
 4001000   0.60586908   -8.7179998    589.39686  0.012276032  0.011153316            8 
 4002000   0.62316339   -8.7100936    588.27547  0.012249614  0.011149299            5 
 4003000   0.61851114   -8.7330422    588.44083  0.012249996  0.011145285            5 
 4004000   0.61710002   -8.7211921    588.91674  0.012256842  0.011141275           17 
 4005000   0.61638099   -8.7291995    588.61956  0.012247598  0.011137262            7 
 4006000   0.60786654   -8.7291738    588.86983  0.012249747  0.011133247            5 
 4007000   0.61329894   -8.7134248    588.77974  0.012244816  0.011129244           10 
 4008000   0.60565659   -8.7209378    587.60815  0.012217402  0.011125235            5 
 4009000    0.5960142   -8.7154186     587.9175  0.012220784   0.01112123           14 
 4010000   0.60261702   -8.7285785    586.84664  0.012195483  0.011117223           16 
 4011000   0.60838512   -8.7420982    586.96211  0.012194841  0.011113222           11 
 4012000   0.61273384   -8.7259975    588.23041  0.012218146  0.011109213           12 
 4013000   0.61337156   -8.7368256    587.42112  0.012198295  0.011105206           13 
 4014000   0.61752318   -8.7366074    588.67392  0.012221266  0.011101199           11 
 4015000   0.61995104    -8.741995    588.28657  0.012210182    0.0110972           11 
 4016000   0.62835936   -8.7103082    588.22292  0.012205821  0.011093205           21 
 4017000    0.6199229   -8.7310716    589.26806  0.012224464  0.011089211           14 
 4018000   0.60752897   -8.7259175    588.91398  0.012214078   0.01108522           16 
 4019000   0.61150653   -8.7412676    588.04917  0.012193107  0.011081224           21 
 4020000   0.61575682   -8.7332484     587.9894  0.012188835  0.011077233            6 
 4021000   0.60539821   -8.7392925    588.18998  0.012189961   0.01107324            3 
 4022000   0.59223784   -8.7088717    587.69464  0.012176667  0.011069251           14 
 4023000    0.6027553   -8.7327306    588.27071  0.012185573  0.011065264           10 
 4024000   0.61512044   -8.7255291    587.87324  0.012174313  0.011061278           14 
 4025000   0.62003414   -8.7321509    586.44873  0.012141796  0.011057294           16 
 4026000   0.60843732   -8.7402008    587.95925  0.012170046  0.011053312           23 
 4027000   0.61359208   -8.7417477    586.97019  0.012146556  0.011049331            9 
 4028000    0.6049256   -8.7389612     587.1076  0.012146384  0.011045348           11 
 4029000   0.61572506   -8.6994158    587.08233  0.012142846  0.011041368           15 
 4030000   0.61062085   -8.7357159    587.53577   0.01214921  0.011037386           25 
 4031000   0.59769254   -8.7474045    587.36444  0.012142654  0.011033407           17 
 4032000   0.60208722   -8.7382033      588.056  0.012153935  0.011029428           14 
 4033000   0.60359926    -8.733493    588.24551  0.012154837  0.011025456           19 
 4034000    0.6029898   -8.7315408    587.01649  0.012126435  0.011021484           13 
 4035000   0.60927616   -8.7468509    587.46047    0.0121326  0.011017512           26 
 4036000   0.60386076   -8.7310222    587.99395  0.012140609   0.01101354           17 
 4037000   0.61291053   -8.7384307    588.98314   0.01215802  0.011009575           10 
 4038000   0.60496696   -8.7330023    588.72184  0.012149617  0.011005609           22 
 4039000   0.60157751   -8.7352459    587.51552   0.01212172  0.011001649           15 
 4040000   0.60066468   -8.7474943    587.50019  0.012118403  0.010997692           20 
 4041000   0.60020763   -8.7273919    587.63145  0.012118111  0.010993735           17 
 4042000   0.61454524   -8.7461327     586.8797  0.012099614  0.010989781           13 
 4043000   0.60313008   -8.7217736    587.94453   0.01211857  0.010985827            6 
 4044000   0.61742067   -8.7223206    589.05445  0.012138445  0.010981871           19 
 4045000    0.6140859   -8.7364942    586.74496  0.012087865  0.010977919           14 
 4046000   0.61066099   -8.7416932    588.02745  0.012111292  0.010973966           13 
 4047000   0.60740973   -8.7176548    587.65488  0.012100628   0.01097002           12 
 4048000   0.60646192   -8.7308852    587.81249  0.012100883  0.010966071           13 
 4049000   0.59978799   -8.7359897     587.7583  0.012096779  0.010962121           21 
 4050000   0.59374869   -8.7322851    587.75199  0.012093662  0.010958176           15 
 4051000    0.6112235    -8.762913    587.19434  0.012079206  0.010954237           10 
 4052000   0.60242462   -8.7149562    587.20474  0.012076438  0.010950288            9 
 4053000   0.60448133     -8.74537    587.08536  0.012071004  0.010946341            9 
 4054000   0.57621071   -8.7306388    587.45204  0.012075564  0.010942401            5 
 4055000   0.61481734   -8.7649628    587.60637  0.012075758  0.010938461           13 
 4056000   0.59841202   -8.7263787    587.65261   0.01207373  0.010934522           20 
 4057000   0.59603566   -8.7307844    587.37103  0.012064971  0.010930581            9 
 4058000    0.5963303   -8.7451011    587.35042  0.012061574  0.010926646            9 
 4059000   0.59688439   -8.7517722    588.36496  0.012079432  0.010922708            8 
 4060000   0.58795772   -8.7335917    588.93759   0.01208821   0.01091877           13 
 4061000   0.59997791   -8.7307213    586.97965  0.012045056  0.010914841           13 
 4062000   0.59978075   -8.7318548    588.19599  0.012067044   0.01091091           14 
 4063000   0.61336589   -8.7497782    586.91913  0.012037885  0.010906985           10 
 4064000   0.59340445   -8.7323643    587.02666  0.012037128   0.01090307           18 
 4065000   0.60929925   -8.7406468    587.96821  0.012053469  0.010899147           18 
 4066000   0.59691645   -8.7182405    586.82085  0.012026989  0.010895225            8 
 4067000   0.59594004   -8.7460526    587.86386  0.012045403  0.010891309            9 
 4068000   0.59215833   -8.7398664     588.3598  0.012052602  0.010887392           19 
 4069000   0.59020404   -8.7688993    587.85335  0.012039267  0.010883482           17 
 4070000   0.59851152   -8.7225969     587.5055  0.012029187  0.010879572            8 
 4071000   0.60812846   -8.7700351     587.5545  0.012027235  0.010875661            8 
 4072000   0.59919747    -8.731496    587.74488  0.012028178  0.010871755           10 
 4073000   0.59335437   -8.7348894    587.85014  0.012027378  0.010867846            9 
 4074000   0.58460669   -8.7357421    587.14987  0.012010102   0.01086394           12 
 4075000     0.618123   -8.7591299    587.34356  0.012011116  0.010860032           11 
 4076000   0.60275226   -8.7184895    587.32773  0.012007845  0.010856127           16 
 4077000   0.60050162   -8.7432005    587.33834  0.012005117   0.01085223           25 
 4078000   0.60786886   -8.7418687    587.34084  0.012002224  0.010848336           22 
 4079000   0.60129282   -8.7279559    587.58125  0.012004193   0.01084444           13 
 4080000   0.60053368   -8.7572808    588.33768  0.012016701  0.010840543           25 
 4081000   0.60727194   -8.7532539    587.69942  0.012000723  0.010836648           12 
 4082000   0.59640835   -8.7822155     586.8039  0.011979501   0.01083275           15 
 4083000   0.61265703   -8.7505304    586.84423  0.011977391  0.010828861           18 
 4084000   0.58886133   -8.7476872    587.03943  0.011978441  0.010824976           20 
 4085000   0.60464868   -8.7414482    587.85755  0.011992198  0.010821093           23 
 4086000   0.60029556   -8.7501507    588.85471    0.0120096  0.010817218           13 
 4087000   0.59391857     -8.75517    587.91252   0.01198745  0.010813339           12 
 4088000   0.59928459    -8.739585    588.21989  0.011990784  0.010809466           17 
 4089000   0.60022157   -8.7589222    587.44864  0.011972133  0.010805588           22 
 4090000   0.59291717   -8.7509112    587.63373  0.011972977  0.010801712           20 
 4091000   0.60143761   -8.7381038    587.94273  0.011976345  0.010797836           19 
 4092000   0.59967974   -8.7560641    587.00168  0.011954254  0.010793964           13 
 4093000   0.60113788   -8.7343089    587.65118  0.011964557  0.010790091           12 
 4094000   0.59362871   -8.7371659    587.54807  0.011959536  0.010786222           19 
 4095000   0.59633074   -8.7451604    588.26312  0.011971167   0.01078235           12 
 4096000    0.5804227   -8.7601125    587.46823  0.011952072  0.010778478            9 
 4097000   0.60467346   -8.7692141    587.85655  0.011957053  0.010774612            7 
 4098000   0.59542054   -8.7460103    587.75128  0.011951994  0.010770752            8 
 4099000   0.58706982    -8.748391    588.05986  0.011955352  0.010766896           15 
 4100000   0.58836337   -8.7468564    588.28325  0.011956977  0.010763038            6 
 4101000   0.58618834   -8.7723349     587.4134  0.011936385  0.010759177           18 
 4102000   0.59481375   -8.7319118    588.92891  0.011964263  0.010755322            9 
 4103000   0.60359628     -8.73749    585.58734  0.011893479  0.010751464           26 
 4104000   0.60728124   -8.7448405    587.96356  0.011938831  0.010747611           18 
 4105000   0.61099883   -8.7713429    587.12768  0.011918954  0.010743757           24 
 4106000   0.59447639   -8.7456965    587.36081  0.011920783  0.010739903           25 
 4107000   0.59882411    -8.758875    588.22142  0.011935342  0.010736053           23 
 4108000   0.59492009   -8.7642413    587.51686  0.011918145  0.010732205            6 
 4109000   0.59597424   -8.7554249    587.27243  0.011910287  0.010728357           11 
 4110000   0.58733862   -8.7557053    587.17079  0.011905328  0.010724514           12 
 4111000   0.59399748   -8.7507128    587.75474  0.011914269  0.010720669           13 
 4112000   0.58944865   -8.7441709    588.35708  0.011923579  0.010716829           20 
 4113000   0.59521892   -8.7638856    587.72051  0.011907783  0.010712985           16 
 4114000   0.59277129   -8.7478313     587.1682    0.0118937  0.010709142           17 
 4115000   0.59438092   -8.7655976    586.93795  0.011886147  0.010705303           21 
 4116000   0.61120665   -8.7550009    587.53647  0.011895377  0.010701467           17 
 4117000   0.58059979   -8.7628217    586.52774   0.01187207  0.010697628           15 
 4118000   0.59974232   -8.7532134    587.54895  0.011889852  0.010693793           13 
 4119000   0.59549835   -8.7548957    587.50777  0.011886133   0.01068996           19 
 4120000    0.6096621   -8.7521443    587.15337  0.011876079  0.010686132           22 
 4121000   0.58304794   -8.7635213    586.57771  0.011861557  0.010682304           19 
 4122000   0.60600332   -8.7608181    587.14337  0.011870115  0.010678476           25 
 4123000   0.59396524    -8.769044    586.89849  0.011862287  0.010674645           14 
 4124000   0.58832614   -8.7684432    587.69096  0.011875424  0.010670822            8 
 4125000   0.58732275   -8.7535327    587.34358  0.011865527  0.010667004            5 
 4126000   0.58278273   -8.7401155    587.70752  0.011870002  0.010663185           15 
 4127000   0.59674123   -8.7514059    587.35876  0.011860083  0.010659365           19 
 4128000   0.58694373   -8.7561622    588.85127   0.01188734  0.010655554            9 
 4129000   0.59743426   -8.7629325    587.68213  0.011860865  0.010651744           13 
 4130000   0.59416734   -8.7575322    586.85918  0.011841388  0.010647933           17 
 4131000   0.59907715   -8.7658025    587.69246  0.011855331  0.010644126           11 
 4132000   0.57714631   -8.7475907    587.97802  0.011858221   0.01064032           15 
 4133000   0.58807457   -8.7639987    587.12059  0.011838063  0.010636512           18 
 4134000   0.59114783   -8.7613232    586.33675  0.011819399  0.010632704           25 
 4135000   0.58671255   -8.7443739    587.89316  0.011847907  0.010628896           15 
 4136000   0.58883019   -8.7750691    586.30371  0.011813018  0.010625092           19 
 4137000   0.58207104   -8.7428979    587.95815  0.011843489  0.010621293           12 
 4138000   0.59450635   -8.7608413    587.25936  0.011826554  0.010617495           11 
 4139000   0.58086403   -8.7606663    587.16445  0.011821786  0.010613697           16 
 4140000   0.58750697   -8.7595166    587.30914  0.011821843  0.010609905           14 
 4141000   0.58611582    -8.790409    587.14741  0.011815733  0.010606113           11 
 4142000   0.60195881   -8.7578392    586.41182  0.011798081  0.010602317           14 
 4143000   0.57754178   -8.7899799    587.32871  0.011813676  0.010598525           13 
 4144000   0.58915614    -8.756105    587.47469  0.011813761  0.010594735           17 
 4145000   0.59115143    -8.761735    586.71224  0.011795582  0.010590947           17 
 4146000   0.59247125   -8.7681811    586.54748  0.011789425  0.010587161           11 
 4147000   0.58412293   -8.7660817    586.27905  0.011781188  0.010583372           13 
 4148000   0.57547798   -8.7701321    587.42116  0.011801293  0.010579588           12 
 4149000   0.59587938   -8.7595397    587.21582  0.011794324  0.010575809           19 
 4150000   0.59859201   -8.7583221    587.54767  0.011798146   0.01057203            8 
 4151000   0.58215684   -8.7660304    586.93792  0.011783063  0.010568253            3 
 4152000   0.57678383   -8.7682221    586.72674  0.011775986  0.010564477           11 
 4153000   0.58452383   -8.7574173    586.97644  0.011778161  0.010560699           17 
 4154000   0.60708437    -8.765623    586.61318  0.011768038  0.010556928           14 
 4155000   0.57945262    -8.765994     587.4798  0.011782587  0.010553155           13 
 4156000   0.58917285   -8.7386296    588.31091  0.011796417  0.010549388           16 
 4157000   0.58661448   -8.7744486    587.10544  0.011769414  0.010545617           18 
 4158000   0.58942732   -8.7586026    587.38935  0.011772273  0.010541848           14 
 4159000   0.57583267   -8.7604355    587.07506  0.011763145  0.010538079           10 
 4160000   0.60166431   -8.7787544    587.00745  0.011758963  0.010534311           23 
 4161000     0.585595   -8.7667291    587.05023  0.011756994  0.010530544           11 
 4162000    0.5955221   -8.7886505    587.21179  0.011757404  0.010526785           13 
 4163000   0.57925986   -8.7397062    586.89567  0.011748252  0.010523023           19 
 4164000   0.58186658   -8.7732985     585.8803   0.01172511  0.010519264           11 
 4165000   0.58068197   -8.7819315    586.74574  0.011739611  0.010515504           14 
 4166000   0.59320518   -8.7746839    586.74287  0.011736735  0.010511742           22 
 4167000   0.58654845   -8.7616284    586.13437   0.01172175  0.010507983           11 
 4168000   0.58924019   -8.7897242     586.6925  0.011730096  0.010504226            8 
 4169000    0.5853255   -8.7769471    586.78835  0.011729199  0.010500475            6 
 4170000   0.57966528   -8.7659156    587.29497   0.01173651   0.01049672           15 
 4171000   0.56687259   -8.7586787    588.83452  0.011764455   0.01049297           15 
 4172000   0.58749637   -8.7682153    588.56839   0.01175632  0.010489223            8 
 4173000   0.57354767   -8.7637185    586.51775  0.011712552  0.010485477            6 
 4174000   0.60550242   -8.7831883    586.63364   0.01171206  0.010481733           21 
 4175000    0.5822279   -8.7776515    586.36976  0.011703987  0.010477996           17 
 4176000   0.57861691   -8.7662857    587.08108  0.011715379  0.010474258           14 
 4177000   0.57701288   -8.7847539    585.60128  0.011683052  0.010470522           13 
 4178000   0.58486397   -8.7972679    586.71447  0.011702459  0.010466785           15 
 4179000   0.58876475   -8.7728001    586.62739  0.011697922  0.010463048            7 
 4180000   0.58712338   -8.7809786    586.88757   0.01170031   0.01045931           11 
 4181000   0.57817524    -8.770444    588.15876  0.011722849  0.010455577           16 
 4182000   0.58896487   -8.7645565    586.95123  0.011695983  0.010451847           11 
 4183000   0.58545174   -8.8040818    586.08497   0.01167593  0.010448114           14 
 4184000   0.59975428   -8.7928555    585.95185  0.011670488  0.010444384           14 
 4185000   0.57715357   -8.7953585    586.41417  0.011676905  0.010440652            9 
 4186000   0.57113388   -8.7742305     586.8699  0.011683188  0.010436923           13 
 4187000   0.58008858   -8.7742211    586.34734  0.011669997  0.010433195           24 
 4188000   0.58710193   -8.7622258    587.13783   0.01168294  0.010429473           21 
 4189000   0.57605627   -8.7775541    587.06516  0.011678705   0.01042575           23 
 4190000    0.5754377   -8.7723795    586.36009  0.011661895  0.010422029           14 
 4191000   0.57194005   -8.7810498    585.69529  0.011645894  0.010418306            6 
 4192000   0.58656948   -8.7885159    587.56518  0.011680287  0.010414587           20 
 4193000   0.57715128   -8.7861545    587.25537  0.011671344  0.010410871           12 
 4194000   0.58097991   -8.7744708    587.31991  0.011669844  0.010407157            9 
 4195000   0.59775239   -8.7948798    585.38655  0.011628656  0.010403438           23 
 4196000   0.58044163   -8.7845891    587.18408  0.011661584  0.010399725            8 
 4197000   0.58887474   -8.7972024    586.31951  0.011641639   0.01039601            9 
 4198000   0.57530374   -8.7630539    586.79306  0.011648266  0.010392303           12 
 4199000   0.57721017   -8.7662445    587.59568  0.011661421  0.010388592           11 
 4200000    0.5812973   -8.7830386    586.48556  0.011636618  0.010384882            9 
 4201000   0.59843218   -8.7918768    586.17059    0.0116276  0.010381175            9 
 4202000   0.56232244   -8.7811275    585.82614  0.011618002  0.010377474           11 
 4203000   0.58512883   -8.7803294    586.72754   0.01163311  0.010373772           13 
 4204000   0.57751698   -8.7942317    587.11564  0.011638036  0.010370073            3 
 4205000   0.59116795   -8.7955898    586.59175  0.011624886  0.010366376           15 
 4206000   0.57504628   -8.7940459    587.23815  0.011634929  0.010362679           10 
 4207000   0.56970376   -8.7771432    586.95961  0.011626646  0.010358986           11 
 4208000   0.58534962   -8.7729182    586.60142   0.01161679  0.010355297           11 
 4209000   0.56809949   -8.7798127    586.99212  0.011621765   0.01035161           17 
 4210000   0.58099022   -8.7871083    586.10236  0.011601393   0.01034792           13 
 4211000   0.57949752   -8.7689845    585.96278  0.011595875  0.010344225            9 
 4212000   0.58575445   -8.7855328    586.51107   0.01160397  0.010340531           15 
 4213000   0.57888539   -8.8057495    586.16783  0.011594427   0.01033684           18 
 4214000   0.56917703   -8.7862109    586.46376  0.011597527  0.010333151           12 
 4215000   0.58810387   -8.7969907    587.22832  0.011609892  0.010329467            8 
 4216000   0.58803033   -8.7627212    586.52912  0.011593318  0.010325784           13 
 4217000   0.59038453   -8.7722926    586.82807  0.011596476  0.010322102           13 
 4218000    0.5833564   -8.7982532    586.50009  0.011587247   0.01031842           12 
 4219000   0.57296753    -8.801913    585.78518   0.01157038  0.010314739           13 
 4220000   0.58036304   -8.8002922     586.3554  0.011578898   0.01031106           15 
 4221000   0.57401355   -8.7782944    586.13463  0.011571796  0.010307382            8 
 4222000    0.5750619   -8.7727512    587.69559  0.011599866   0.01030371           14 
 4223000   0.57710767    -8.794905    586.91456  0.011581707  0.010300042            5 
 4224000   0.57207599    -8.782438    586.75131  0.011575744  0.010296372           12 
 4225000   0.57922777   -8.7951226    586.62635  0.011570539  0.010292704           17 
 4226000   0.57524103   -8.7813152    587.60666  0.011587132  0.010289039           16 
 4227000   0.58405687   -8.7939558    586.68574  0.011566236  0.010285374           15 
 4228000   0.57487458   -8.7948565    586.95817   0.01156887   0.01028171            8 
 4229000   0.57672846    -8.789712    586.96395  0.011566248   0.01027805           15 
 4230000    0.5865077   -8.8089741    586.92598  0.011562766  0.010274391           13 
 4231000   0.56697286   -8.7688812    586.29494  0.011547604  0.010270728           21 
 4232000   0.57869635   -8.8193947    586.74972   0.01155383  0.010267068           11 
 4233000   0.57060529   -8.7986123    586.40774  0.011544368   0.01026341           10 
 4234000   0.57240825    -8.790261    586.26369  0.011538807  0.010259755            8 
 4235000   0.58033373   -8.7852614    585.51305  0.011521312  0.010256103           18 
 4236000   0.57803767   -8.7996878    586.53716  0.011538739  0.010252449           19 
 4237000   0.58038488   -8.8022101    586.03039  0.011526048  0.010248802            6 
 4238000   0.55549302   -8.8029705     586.1521  0.011525722  0.010245152           17 
 4239000    0.5682519   -8.8141848    585.93558  0.011518746  0.010241502           11 
 4240000    0.5785472    -8.810773    585.78611  0.011513092  0.010237856            9 
 4241000   0.57143416     -8.80179    587.03342  0.011534886  0.010234212           13 
 4242000    0.5773894   -8.8197497    585.37476  0.011499583  0.010230568           18 
 4243000   0.57016365   -8.7973826    585.54329  0.011500182  0.010226921           26 
 4244000   0.58456255   -8.7971447    586.86505  0.011523426  0.010223278           14 
 4245000   0.57099907   -8.7907741     586.1208  0.011506101   0.01021964           21 
 4246000   0.56473493   -8.8102718    585.34983   0.01148826  0.010216001           15 
 4247000   0.57668949   -8.8163512     585.7991  0.011494371  0.010212365           22 
 4248000   0.55742228   -8.8014783     586.3861   0.01150318  0.010208729           13 
 4249000   0.57120119   -8.8188465    586.36911  0.011500139  0.010205091           16 
 4250000   0.56320458   -8.8044422     585.6325   0.01148299  0.010201457           15 
 4251000   0.57369107   -8.8036633    586.91866  0.011505502  0.010197823           15 
 4252000   0.58783381   -8.8028929    586.50629  0.011494714  0.010194194           18 
 4253000   0.56572416   -8.8187401    586.61996  0.011494239  0.010190567           17 
 4254000   0.57176545   -8.7984089    586.31718  0.011485605  0.010186941           12 
 4255000    0.5737994   -8.8062195     585.6636  0.011470106  0.010183315           13 
 4256000   0.57706394   -8.8218812    586.91411  0.011491896  0.010179689           11 
 4257000   0.58886274    -8.793072    586.99909   0.01149086  0.010176071           12 
 4258000    0.5734177   -8.8120001    585.77337  0.011464173  0.010172448           19 
 4259000   0.56048738   -8.8213958     585.2774  0.011451777  0.010168825           15 
 4260000   0.57320379    -8.811248    586.56607  0.011474297  0.010165207            9 
 4261000   0.58292859   -8.8183543    586.56185  0.011471522  0.010161589           14 
 4262000   0.57425507   -8.8148909    585.65306  0.011451061  0.010157972           16 
 4263000    0.5605253   -8.8117413    586.34363  0.011461874  0.010154362            8 
 4264000   0.56748504   -8.7985964    586.20905  0.011456556  0.010150755           16 
 4265000   0.57128438   -8.7992218     587.1301  0.011471866  0.010147148           21 
 4266000   0.56600782   -8.8046435    586.80725   0.01146287   0.01014354           24 
 4267000   0.54954446   -8.8142069    585.66995  0.011437973  0.010139933           18 
 4268000   0.57102599   -8.8098144    586.29163  0.011447431  0.010136323           13 
 4269000   0.55298647   -8.8022717    585.98375   0.01143874  0.010132715            8 
 4270000   0.55949303   -8.8000523    585.37878  0.011424254  0.010129107            6 
 4271000   0.57870113   -8.8188855    585.16932  0.011417492  0.010125504            9 
 4272000   0.57903173   -8.8339626    585.88951  0.011428868  0.010121901           17 
 4273000   0.58162547   -8.8172092    587.26943  0.011453105    0.0101183           10 
 4274000   0.56101369   -8.8246744    585.89921   0.01142371  0.010114701            7 
 4275000   0.56987307     -8.80052    585.50281   0.01141331  0.010111108           10 
 4276000   0.54969764   -8.8094889    585.80493  0.011416529  0.010107517           20 
 4277000    0.5699662   -8.8197842    585.88827  0.011415483  0.010103925           15 
 4278000   0.57409186   -8.8111715    586.36461  0.011422094  0.010100333           15 
 4279000   0.56963169   -8.8083287    586.08538  0.011413987  0.010096742           17 
 4280000    0.5798826   -8.8066085    585.74646  0.011404721   0.01009315           15 
 4281000   0.55447045   -8.8144441    584.72882  0.011382247  0.010089557           11 
 4282000   0.56290585   -8.8256028    586.19657  0.011408154   0.01008597           13 
 4283000   0.57417728   -8.8211229    585.83072  0.011398372  0.010082382           14 
 4284000   0.56619792   -8.8059068    585.44096  0.011388129  0.010078798           16 
 4285000    0.5597815   -8.8120787    586.57142  0.011407457  0.010075217           15 
 4286000   0.56600549   -8.8094265    586.09408  0.011395514  0.010071643           14 
 4287000   0.55922352   -8.7933868    585.27581   0.01137695  0.010068067           15 
 4288000   0.55236981   -8.7923807    585.20081  0.011372839  0.010064487           12 
 4289000   0.55768929    -8.784306     584.3343  0.011353352  0.010060911           11 
 4290000   0.55832883   -8.8047297    585.72427  0.011377705  0.010057332           15 
 4291000   0.57422463   -8.8056205    585.66779  0.011373957  0.010053757           16 
 4292000   0.57293959   -8.8094666    585.57252  0.011369457  0.010050183           12 
 4293000   0.56277579   -8.8194471    585.30124  0.011361543  0.010046608           18 
 4294000   0.56843761   -8.7961957    585.93435  0.011371184  0.010043036           11 
 4295000    0.5690279   -8.8408157    586.18501    0.0113734  0.010039469           14 
 4296000   0.56938172   -8.8302339    585.46535  0.011356792  0.010035899           16 
 4297000   0.58068025   -8.8187467    586.00096  0.011364537  0.010032333           12 
 4298000    0.5686379   -8.8095477     586.2137  0.011366017  0.010028769           16 
 4299000   0.57134137   -8.8302093    584.86688  0.011337266  0.010025207           14 
 4300000   0.56198246   -8.8147343    585.93068  0.011355246  0.010021644           13 
 4301000   0.56358043   -8.8102497    585.40083   0.01134234  0.010018082           17 
 4302000   0.57919849   -8.7972681    585.17927  0.011335411  0.010014523           12 
 4303000   0.57408918   -8.8271166    585.45742  0.011338164   0.01001096           20 
 4304000   0.55862589   -8.8310329    586.18896  0.011349693  0.010007408            2 
 4305000   0.56779121   -8.8163606    585.16988   0.01132733  0.010003851           17 
 4306000   0.56325585   -8.8072414    585.48522  0.011330802  0.010000295           13 
 4307000   0.55606269   -8.8231355    586.04524  0.011339007 0.0099967444           19 
 4308000    0.5562335   -8.8098734    585.27972  0.011321567 0.0099931955           15 
 4309000   0.57366947   -8.8240817    585.72178  0.011327489 0.0099896478           19 
 4310000   0.55465559   -8.8114295    586.57117  0.011341283 0.0099861002            9 
 4311000   0.55665381   -8.8245576    585.01158  0.011308505 0.0099825543           10 
 4312000   0.55883496   -8.8279927    585.93322  0.011323694 0.0099790124           15 
 4313000    0.5572558   -8.8137389    584.60324  0.011295371 0.0099754722           16 
 4314000   0.57217671   -8.8219736    585.84484  0.011316737 0.0099719311           18 
 4315000    0.5553287   -8.8151526    585.72064  0.011311716 0.0099683921           15 
 4316000   0.55419291    -8.838123    584.51975  0.011285908 0.0099648528           18 
 4317000   0.55316859    -8.813801    585.78414  0.011307701  0.009961313            9 
 4318000   0.56013875    -8.816627    584.99894  0.011289929 0.0099577768           17 
 4319000   0.56193825   -8.8157378    586.75721   0.01132124 0.0099542479           18 
 4320000   0.56111781   -8.8420733    586.02698  0.011304533 0.0099507184           12 
 4321000   0.55713616   -8.8138549     585.2423  0.011286784 0.0099471908           16 
 4322000   0.55466609   -8.8247723    585.40649  0.011287338 0.0099436659           13 
 4323000   0.57591981   -8.8160092    585.79745  0.011292263 0.0099401407           12 
 4324000    0.5665415   -8.8242522    585.75445  0.011288823 0.0099366195           16 
 4325000   0.56310962   -8.8272929     585.7854  0.011286809  0.009933096           17 
 4326000   0.56447811   -8.8202824    585.61616   0.01128094 0.0099295712           25 
 4327000   0.54473935   -8.8323255    585.09083  0.011268216 0.0099260486           19 
 4328000   0.55976056   -8.8193742    585.66164  0.011276603 0.0099225303           10 
 4329000   0.56610716   -8.8144888    585.59283  0.011272673 0.0099190171           18 
 4330000   0.56581199   -8.8302086    586.22917  0.011282317 0.0099155038           13 
 4331000   0.54510602   -8.8270057    585.47784  0.011265255 0.0099119938           11 
 4332000   0.56337223    -8.827648    585.25077  0.011258287 0.0099084847           24 
 4333000   0.56239738   -8.8190071    585.28902  0.011256424 0.0099049741           16 
 4334000   0.55899932   -8.8253892    585.82051  0.011264046 0.0099014692           14 
 4335000   0.54755859     -8.82445    585.94711  0.011263881 0.0098979605           23 
 4336000    0.5453364   -8.8173428    584.75317  0.011238337 0.0098944536           12 
 4337000   0.56719115   -8.7936303    586.30941  0.011265648 0.0098909513           14 
 4338000   0.55965923     -8.84121    585.10595  0.011239933 0.0098874523            5 
 4339000   0.56617952   -8.8247797    585.57272  0.011246307  0.009883951           16 
 4340000    0.5602864   -8.8324536    586.31636  0.011257995 0.0098804514           16 
 4341000    0.5597853   -8.8420495    585.24702  0.011234873 0.0098769507           18 
 4342000    0.5618528   -8.8220321    585.33283  0.011233933 0.0098734529           17 
 4343000   0.56033921   -8.8162746     585.4595  0.011233777 0.0098699532           18 
 4344000   0.55498253   -8.8314549    584.73832  0.011217356 0.0098664581           14 
 4345000   0.56568232   -8.8266016    585.83086  0.011235728 0.0098629626           17 
 4346000    0.5461462   -8.8459638    585.49417  0.011226687 0.0098594697            9 
 4347000   0.55487033   -8.8378956    585.50488   0.01122431 0.0098559744            9 
 4348000   0.54156507    -8.832205     586.1204  0.011233525 0.0098524851           10 
 4349000   0.55341167   -8.8363647     585.0062  0.011209592 0.0098490003           12 
 4350000   0.55994922   -8.8298001    585.82403  0.011222683 0.0098455163            8 
 4351000   0.54732286   -8.8240318    586.08997  0.011225197 0.0098420274           10 
 4352000   0.53336354   -8.8189922    584.96091  0.011200998 0.0098385455            6 
 4353000   0.55658092   -8.8363655    585.03443  0.011199832 0.0098350611           22 
 4354000   0.55792432   -8.8242357    585.63946   0.01120884 0.0098315803           13 
 4355000   0.55751895   -8.8151067    585.89441  0.011211145 0.0098281017           11 
 4356000   0.54920701   -8.8240202    585.22216   0.01119571 0.0098246248           11 
 4357000   0.54389536   -8.8343775    584.48119  0.011178969 0.0098211494           12 
 4358000   0.55077493   -8.8289131    585.62465  0.011198269 0.0098176724           15 
 4359000   0.56264065   -8.8155862    586.04651  0.011203764 0.0098142016           15 
 4360000   0.54996174   -8.8381761    585.48622  0.011190486 0.0098107291           17 
 4361000   0.55063953    -8.826737    585.11392  0.011180806  0.009807253           11 
 4362000   0.54696594   -8.8456507    585.52271  0.011186052 0.0098037825           13 
 4363000   0.55480117   -8.8256972    585.09387  0.011175297  0.009800312           12 
 4364000   0.56134377   -8.8359445     585.4692  0.011179904 0.0097968479           18 
 4365000   0.55571604   -8.8322281    585.13741  0.011171008 0.0097933817           15 
 4366000   0.55101583   -8.8321833    585.56532  0.011176617 0.0097899156           15 
 4367000   0.55929471   -8.8217943    584.77129  0.011158906 0.0097864533           18 
 4368000   0.54919034   -8.8411187    585.66462  0.011173394 0.0097829916           16 
 4369000   0.55841811   -8.8456151    585.93914  0.011176073 0.0097795303           13 
 4370000   0.54852237   -8.8336298    584.05773  0.011137638 0.0097760688           13 
 4371000    0.5487794    -8.826111    584.51163  0.011143743   0.00977261           12 
 4372000   0.54894694   -8.8538162    584.10465  0.011133437 0.0097691527           16 
 4373000   0.55859623   -8.8282513    584.88237  0.011145712 0.0097656967           12 
 4374000   0.56012473   -8.8402287    584.34317  0.011132891 0.0097622424           17 
 4375000    0.5551725   -8.8519066    584.28989  0.011129331   0.00975879           19 
 4376000   0.55479339   -8.8456687    583.70007  0.011115556 0.0097553362           18 
 4377000    0.5589111   -8.8341166    585.63635  0.011149881 0.0097518874           13 
 4378000   0.55103601   -8.8385176    584.39868  0.011123776 0.0097484432           16 
 4379000   0.55772737   -8.8459073    584.85193  0.011129861 0.0097449954           17 
 4380000   0.55193894   -8.8441428    584.81608  0.011126638 0.0097415494           18 
 4381000   0.55182871   -8.8677172     585.1241  0.011129957 0.0097381064           18 
 4382000   0.54749273   -8.8395773    584.47525  0.011115078 0.0097346629           16 
 4383000   0.53263138   -8.8329934    584.77914   0.01111832 0.0097312244           20 
 4384000   0.56236036   -8.8552401    584.93064  0.011118663 0.0097277854           16 
 4385000   0.56093648   -8.8409635    586.39102  0.011143881 0.0097243482           12 
 4386000   0.55308825   -8.8491921    584.51169  0.011105633 0.0097209112           23 
 4387000   0.53623032   -8.8230409    585.39878  0.011119953 0.0097174791           20 
 4388000   0.52985641   -8.8406175    585.72273  0.011123571 0.0097140504           13 
 4389000   0.54523726   -8.8415765    585.66659   0.01111997 0.0097106201           17 
 4390000   0.54341973   -8.8368394    585.18525    0.0111083 0.0097071892           12 
 4391000   0.53396536    -8.840539    585.69337  0.011115414 0.0097037602           17 
 4392000   0.53891794   -8.8272215    585.43328  0.011107948 0.0097003341           14 
 4393000   0.55539351   -8.8485413    585.15989  0.011100233 0.0096969098           16 
 4394000   0.53523034   -8.8404413    583.86529  0.011073154 0.0096934875           17 
 4395000   0.55497723   -8.8468779    584.06021  0.011074331 0.0096900634           20 
 4396000   0.55004898   -8.8399832    584.44033  0.011079018  0.009686641           23 
 4397000   0.54308229   -8.8638096    584.51695   0.01107795 0.0096832191           16 
 4398000   0.55723871   -8.8370957    585.15981  0.011087612 0.0096797991            9 
 4399000   0.55590452   -8.8616364    585.45547  0.011090692 0.0096763819           18 
 4400000   0.55356032    -8.848014    584.44162   0.01106897 0.0096729698           15 
 4401000   0.55303425   -8.8361402    584.95918  0.011076255 0.0096695541            8 
 4402000   0.53913862   -8.8573349    584.38301  0.011062831  0.009666142           15 
 4403000   0.55891984   -8.8515962    584.54913  0.011063463 0.0096627294           15 
 4404000   0.55414632   -8.8396019    583.51451  0.011041374 0.0096593185           14 
 4405000   0.54595954   -8.8597388    584.30136  0.011053753  0.009655908            9 
 4406000   0.53840192   -8.8551827    584.13475  0.011048093 0.0096524961           16 
 4407000   0.54752589   -8.8646301    585.28115  0.011067263  0.009649088           14 
 4408000   0.54319129   -8.8537825    583.94159  0.011039428 0.0096456851           14 
 4409000   0.54496045   -8.8469934     583.5943   0.01103036 0.0096422804           17 
 4410000   0.53365981   -8.8347411    584.65372  0.011047878 0.0096388804           18 
 4411000    0.5474783   -8.8488246    584.13098  0.011035498   0.00963548           20 
 4412000   0.54053905   -8.8448522    584.68447  0.011043451  0.009632082           13 
 4413000    0.5398579   -8.8474985     584.3383  0.011034412 0.0096286856           16 
 4414000   0.54642226   -8.8381739    584.39273  0.011032939  0.009625288           12 
 4415000   0.54151388   -8.8443642     584.6525  0.011035343   0.00962189           16 
 4416000   0.52830429   -8.8519126    584.46833  0.011029369 0.0096184954           14 
 4417000   0.52933543   -8.8517099    584.03962  0.011018784 0.0096151051           20 
 4418000   0.55442129   -8.8460852    585.28291  0.011039741 0.0096117147           21 
 4419000   0.54541035   -8.8404042    584.60891  0.011024533 0.0096083249           16 
 4420000   0.55122042   -8.8734485    584.64711  0.011022759 0.0096049411           16 
 4421000   0.55526459   -8.8657374    584.59946  0.011019367 0.0096015549           11 
 4422000   0.54693538   -8.8586393    585.20605  0.011028306 0.0095981711           18 
 4423000   0.52746615     -8.84996    584.38156  0.011010279 0.0095947861           13 
 4424000   0.53796965   -8.8566929    583.83638  0.010997521 0.0095914017           19 
 4425000   0.54231021   -8.8589221    584.84332  0.011013999  0.009588023           17 
 4426000   0.53155434   -8.8578384    584.37098  0.011002617 0.0095846431           15 
 4427000   0.54498577   -8.8489041    583.74736  0.010988392 0.0095812641           13 
 4428000   0.54504923    -8.859427    584.80204   0.01100576 0.0095778942           13 
 4429000   0.54541678   -8.8547607    584.73542  0.011002021 0.0095745216           10 
 4430000    0.5514656   -8.8515384    584.55355  0.010996116 0.0095711506           19 
 4431000   0.53052976   -8.8724387    584.51848  0.010992975 0.0095677787           19 
 4432000   0.53914979     -8.85312    584.42016  0.010988646 0.0095644073           21 
 4433000   0.53222396   -8.8549797    585.02781   0.01099759 0.0095610422            8 
 4434000   0.55151588   -8.8517521    585.95663  0.011012566 0.0095576771           14 
 4435000   0.54822626   -8.8428374    584.81185  0.010988573 0.0095543121            9 
 4436000   0.53828687   -8.8706929    584.03893  0.010971576 0.0095509479           16 
 4437000    0.5217697   -8.8565475     585.1791  0.010990517 0.0095475854           12 
 4438000   0.53962755   -8.8392592    584.31502  0.010971816 0.0095442224           18 
 4439000   0.54717125   -8.8677622    585.47136  0.010991052 0.0095408699           16 
 4440000   0.53339064   -8.8646193    585.63477  0.010991643 0.0095375134           19 
 4441000   0.54551344   -8.8761255    584.54693  0.010968756 0.0095341592           18 
 4442000   0.55972995   -8.8409549    585.52286  0.010984595 0.0095308023           16 
 4443000    0.5462848   -8.8441296    585.26394  0.010977267 0.0095274528           18 
 4444000   0.53649749   -8.8600813    585.54695  0.010980103 0.0095241012           10 
 4445000   0.54716943   -8.8635202    584.49663  0.010957942  0.009520751           15 
 4446000   0.53937458   -8.8670965     584.4731  0.010955036  0.009517397           16 
 4447000   0.52945315   -8.8447022    584.89516  0.010960482 0.0095140459            9 
 4448000   0.54181063   -8.8753482    583.89144  0.010939213  0.009510695           14 
 4449000   0.54075627   -8.8478235    584.54095   0.01094892 0.0095073459           12 
 4450000   0.53573975   -8.8394802    584.45761  0.010944899 0.0095040013           17 
 4451000   0.55193674   -8.8546522    584.27472  0.010939016  0.009500656           14 
 4452000   0.53802629   -8.8634064    584.08665  0.010933039  0.009497314           15 
 4453000   0.53869057   -8.8581691     584.3979  0.010936408 0.0094939754           11 
 4454000   0.54219445   -8.8573141    584.48408  0.010935565 0.0094906306           25 
 4455000   0.53140101   -8.8591562    584.35912  0.010930773 0.0094872921           13 
 4456000   0.52993853   -8.8668608    584.69725  0.010934643 0.0094839532           11 
 4457000   0.52914098   -8.8592248    585.00152  0.010937879 0.0094806178           14 
 4458000   0.54688764   -8.8747772     583.8283  0.010913494 0.0094772843           11 
 4459000    0.5353635   -8.8711754    583.71196  0.010908873 0.0094739527           15 
 4460000   0.53227619   -8.8596697    583.97957  0.010911427 0.0094706203           15 
 4461000   0.55036162   -8.8597427    584.67607  0.010921992 0.0094672914            9 
 4462000   0.54054316   -8.8502535     584.9331  0.010924344 0.0094639696           16 
 4463000   0.52752489   -8.8615529    583.27737  0.010890981 0.0094606455           16 
 4464000    0.5337421   -8.8660341    583.84968  0.010899225 0.0094573223           17 
 4465000   0.53210276   -8.8830037    584.17301  0.010902818 0.0094540014           14 
 4466000   0.52776783   -8.8702347    583.97206  0.010896627 0.0094506805           11 
 4467000   0.54069219   -8.8626043    584.14358  0.010897388 0.0094473605            9 
 4468000   0.52794805   -8.8567979    585.22403    0.0109151 0.0094440429           11 
 4469000   0.53214448   -8.8649274    584.10137  0.010891724 0.0094407271           13 
 4470000   0.53018389   -8.8726916    583.72562  0.010882282 0.0094374102           18 
 4471000   0.52419781    -8.878269    584.29071  0.010890381 0.0094340997           17 
 4472000    0.5370169     -8.85597    584.47107  0.010891306 0.0094307884           14 
 4473000   0.54114073   -8.8930314    584.31198  0.010885908 0.0094274761           10 
 4474000   0.54214254   -8.8806984    584.21733  0.010881712 0.0094241671           14 
 4475000    0.5415844     -8.85685    583.20411  0.010860412 0.0094208614           17 
 4476000   0.52084557   -8.8618504    584.80885  0.010887862 0.0094175544           12 
 4477000   0.52646278   -8.8722448    585.05999  0.010890105 0.0094142485           15 
 4478000   0.53516359   -8.8638955    584.73567  0.010881637  0.009410946           15 
 4479000   0.53118628   -8.8792752    584.54339  0.010875631 0.0094076493           15 
 4480000   0.53406846   -8.8713742    584.16732  0.010866208 0.0094043483           13 
 4481000   0.53445143   -8.8658409    584.36063  0.010867378 0.0094010458           13 
 4482000   0.52979633   -8.8665426    584.17332   0.01086147 0.0093977486           18 
 4483000   0.53592694    -8.884738    583.82714  0.010852612 0.0093944512           17 
 4484000    0.5427499   -8.8572381    583.81488  0.010849964 0.0093911553           13 
 4485000   0.54534763   -8.8668006    584.02164  0.010851387 0.0093878603           11 
 4486000    0.5499993   -8.8603242    584.01428  0.010848831 0.0093845675           18 
 4487000   0.53971661   -8.8728989    582.73084  0.010822577 0.0093812754           15 
 4488000   0.52956861   -8.8520743    583.98623  0.010843476 0.0093779847           16 
 4489000   0.54402325   -8.8718045    583.86949  0.010838893 0.0093746927           11 
 4490000   0.51845674   -8.8797642    583.92805  0.010837566 0.0093714037           11 
 4491000   0.53055412   -8.8783349    584.19569  0.010840119  0.009368113           15 
 4492000   0.54483778   -8.8620267    584.32316   0.01084007 0.0093648253           15 
 4493000   0.52476209   -8.8777585    584.49188  0.010840787  0.009361541           16 
 4494000   0.54016549   -8.8707167    584.27322   0.01083432 0.0093582547           15 
 4495000   0.52771009   -8.8884096    583.69973  0.010821278 0.0093549722           18 
 4496000   0.54141479   -8.8571008     583.9742  0.010823958 0.0093516919           13 
 4497000   0.53513196   -8.8683667    584.00058   0.01082204 0.0093484127           12 
 4498000   0.53226167   -8.8777827    585.24977  0.010842778  0.009345136           14 
 4499000      0.53877   -8.8873611    582.45828  0.010788662 0.0093418606           15 
 4500000   0.53741909   -8.8785015    583.36581  0.010803071 0.0093385846           13 
 4501000   0.53296866   -8.8872598    583.52656  0.010803647 0.0093353094           13 
 4502000    0.5281747   -8.8712262    584.44561  0.010818259 0.0093320381           18 
 4503000   0.52449239   -8.8819156    584.51708  0.010817179 0.0093287624           12 
 4504000   0.51651744   -8.8814463    583.73179  0.010800248  0.009325493           13 
 4505000     0.539841   -8.8678355     583.9617  0.010802103 0.0093222247           14 
 4506000   0.53419479   -8.8893261    584.16193  0.010803409  0.009318957           11 
 4507000   0.52286995   -8.8723942    583.54349  0.010789577 0.0093156927           13 
 4508000   0.51816799   -8.8803296     583.2272  0.010781337 0.0093124271            9 
 4509000   0.52800963   -8.8965213    583.50422  0.010784066 0.0093091628           13 
 4510000   0.51852651   -8.8683933    583.15764  0.010775271 0.0093059013           17 
 4511000   0.53264191   -8.8777765    584.78576  0.010802959 0.0093026395           13 
 4512000   0.52743948   -8.8809223    583.53406  0.010777446 0.0092993788           11 
 4513000   0.53521064   -8.8716409    584.10581  0.010785616 0.0092961212           10 
 4514000   0.52870386    -8.883321    584.64747  0.010793226 0.0092928629           16 
 4515000   0.52549512   -8.9019747    583.73022  0.010773906 0.0092896046           12 
 4516000   0.53700576   -8.8673335    584.34661  0.010782894 0.0092863505           17 
 4517000   0.53152851   -8.8829664    584.24186  0.010778575 0.0092830985           10 
 4518000   0.52213504   -8.8834566    584.72146  0.010785035 0.0092798492           13 
 4519000   0.52607977   -8.8785357    584.03694  0.010770025 0.0092765983           15 
 4520000   0.52376658   -8.8876736    584.36424  0.010773677 0.0092733485           17 
 4521000   0.53128935   -8.8969049    583.55582  0.010756393 0.0092701006           15 
 4522000   0.53065256   -8.8820438    583.32221  0.010749709 0.0092668514           13 
 4523000   0.53476896   -8.8918373    584.35302  0.010766324 0.0092636072           13 
 4524000   0.52568569   -8.8851831    583.18058  0.010742348 0.0092603633           16 
 4525000   0.53313693   -8.8784358    583.40334  0.010744076  0.009257121           14 
 4526000   0.52289423   -8.9010838    584.04483  0.010753514 0.0092538799           12 
 4527000   0.52417437   -8.8862601    584.70773  0.010763341 0.0092506387           19 
 4528000   0.52859205   -8.8977269    583.69757  0.010742373 0.0092474004           14 
 4529000   0.52234952    -8.890691    583.36498  0.010733881 0.0092441624           16 
 4530000    0.5206442   -8.8730174    583.55134   0.01073494 0.0092409266           17 
 4531000   0.52036281   -8.8858517    583.34903   0.01072885 0.0092376932           14 
 4532000   0.53255287     -8.88866    583.60251  0.010731143 0.0092344631           16 
 4533000   0.50864059   -8.8817621    583.53935  0.010727615 0.0092312302           13 
 4534000   0.52551281   -8.8853795    583.57055  0.010725823 0.0092280006           14 
 4535000   0.54061092   -8.8815621    583.42841  0.010720845 0.0092247724           11 
 4536000   0.52428487   -8.8770198    584.11836  0.010731157 0.0092215461           14 
 4537000   0.52718284   -8.8856905    583.30031  0.010713767 0.0092183154           13 
 4538000   0.53684647   -8.8657633    584.30347  0.010729827 0.0092150908           10 
 4539000   0.53694676   -8.8982986    583.54376  0.010713515 0.0092118693           19 
 4540000    0.5372649   -8.9061475    583.23843  0.010705551 0.0092086487           17 
 4541000   0.52182785   -8.8813273    583.49618  0.010707924 0.0092054318           15 
 4542000   0.52741089   -8.8866023    584.45601  0.010723176  0.009202216           11 
 4543000   0.52130101   -8.8814377     583.7988  0.010708761 0.0091989978           15 
 4544000   0.51784497   -8.8657527    583.97606  0.010709655 0.0091957861           14 
 4545000   0.51952147   -8.8793853    583.10639  0.010691353 0.0091925713           12 
 4546000   0.53088833   -8.8764272    584.06918   0.01070665 0.0091893578           15 
 4547000   0.52031644   -8.8795547    583.76845  0.010698784  0.009186146            9 
 4548000   0.52720887   -8.8580463    583.84497  0.010697834 0.0091829335            9 
 4549000   0.53115751   -8.8783967    585.02461  0.010717092  0.009179726           16 
 4550000   0.52884987   -8.8917321    583.45073  0.010685911 0.0091765205           11 
 4551000   0.53820527   -8.8903762    583.89186   0.01069164 0.0091733159           12 
 4552000   0.52947602    -8.882035    583.56614  0.010683329 0.0091701147           15 
 4553000   0.52102975   -8.8910753    584.28144  0.010694074 0.0091669114           20 
 4554000   0.52598142   -8.8984176    582.59589  0.010660882 0.0091637091           16 
 4555000   0.51477831   -8.8995954    584.02446  0.010684677 0.0091605107           16 
 4556000   0.51738693   -8.8978304    583.02413  0.010664035  0.009157313           11 
 4557000   0.51740503   -8.8918604    583.14119  0.010663836 0.0091541166           18 
 4558000    0.5388046   -8.8917917    583.30617  0.010664512 0.0091509212           12 
 4559000   0.53111498   -8.8623049    583.37473  0.010663426 0.0091477258           18 
 4560000   0.52330335   -8.8846073    583.51563  0.010663663 0.0091445337           12 
 4561000   0.52071595   -8.8881797    584.07082  0.010671469 0.0091413409           13 
 4562000   0.52029548   -8.8914579    582.98493  0.010649294 0.0091381483           15 
 4563000   0.50607098   -8.8867458    583.96535  0.010664865 0.0091349561           14 
 4564000   0.52763551   -8.9005087    581.67545  0.010620717  0.009131765           17 
 4565000   0.52630013   -8.8889276    583.41514  0.010650149  0.009128581           19 
 4566000   0.52918637   -8.9100846    582.84812  0.010637468 0.0091253974           13 
 4567000   0.52109306   -8.9036707    582.87925  0.010635706 0.0091222146           18 
 4568000   0.52199451   -8.8921275    582.53517  0.010627101 0.0091190327           20 
 4569000    0.5211192   -8.8795858    583.63015  0.010644746 0.0091158484           16 
 4570000   0.52321464   -8.8766366    583.65116    0.0106428 0.0091126682           13 
 4571000   0.52913035   -8.8916501     583.7562  0.010642387 0.0091094912           14 
 4572000   0.51322409   -8.8937305    583.27785   0.01063134 0.0091063154           16 
 4573000   0.51561517   -8.9101883    583.05674  0.010624986 0.0091031416            9 
 4574000   0.51772976   -8.8990133    583.31681  0.010627401 0.0090999645           17 
 4575000   0.51970191   -8.9131561    582.30551  0.010606658 0.0090967881           10 
 4576000   0.52114902    -8.897383    583.21471  0.010620897 0.0090936141           18 
 4577000   0.51126155   -8.8852436    582.96572  0.010614043  0.009090438           26 
 4578000   0.52859953   -8.8864332    583.25482  0.010616987 0.0090872694           19 
 4579000    0.5186433   -8.9044522    583.00994  0.010610212 0.0090841038           19 
 4580000   0.52015132   -8.9110528    582.96819  0.010607136 0.0090809371           13 
 4581000   0.52749653   -8.8855434    583.43882  0.010613382 0.0090777715           13 
 4582000   0.51939443   -8.8997328     583.0689  0.010604338 0.0090746042           20 
 4583000   0.52524954   -8.9145895    583.78895  0.010615117 0.0090714427           18 
 4584000   0.51972172   -8.8967505    582.94774  0.010597508 0.0090682797           18 
 4585000   0.51016413    -8.905558    583.06934  0.010597407 0.0090651191           18 
 4586000   0.52584472   -8.9066491    583.06583  0.010595033 0.0090619623           12 
 4587000   0.51573827   -8.9135977    583.47373  0.010600133 0.0090588051           13 
 4588000   0.52639126   -8.8871497    583.93426  0.010606187 0.0090556486           15 
 4589000   0.51593927   -8.8935989    583.94678  0.010604104 0.0090524954           17 
 4590000   0.50835101   -8.8949633    583.16835  0.010587661 0.0090493409           20 
 4591000   0.52382944   -8.8945244    582.98603  0.010582045 0.0090461917           14 
 4592000   0.51639206   -8.8877921    582.32049  0.010567663 0.0090430454           14 
 4593000   0.50236116    -8.900855    583.74385  0.010591187  0.009039898           17 
 4594000   0.52389478   -8.9025952    584.29319  0.010598846 0.0090367486           17 
 4595000   0.50973938   -8.8901057    583.31965  0.010578884 0.0090336025           14 
 4596000   0.51088083   -8.8899694    582.95876  0.010570038 0.0090304592           18 
 4597000   0.52045833    -8.895147    583.59433   0.01057926 0.0090273182           16 
 4598000   0.51981591   -8.8896146    584.03728  0.010584988 0.0090241754           18 
 4599000   0.52649002   -8.9123625    583.59356  0.010574646 0.0090210366           21 
 4600000   0.51030548   -8.8912666    583.56472  0.010571825 0.0090178986           15 
 4601000    0.5282571   -8.8979048    583.15744   0.01056215 0.0090147594           20 
 4602000   0.50438546    -8.901671    582.12097  0.010541087 0.0090116235           20 
 4603000   0.51840411   -8.9065778    582.75878  0.010550344 0.0090084849           16 
 4604000   0.51940429    -8.908136    582.53008  0.010543912 0.0090053521           15 
 4605000   0.51089408   -8.9016476    582.95807  0.010549368 0.0090022186           11 
 4606000   0.52709785   -8.8957636    582.28328  0.010534869 0.0089990879           15 
 4607000   0.50878377   -8.8912549    582.81741  0.010542244 0.0089959578           12 
 4608000   0.52784216   -8.9093807    583.22698  0.010547363 0.0089928336           14 
 4609000   0.51082271   -8.9074319    582.80936  0.010537524 0.0089897074           11 
 4610000   0.52217979   -8.9062809    583.09836  0.010540462 0.0089865837           22 
 4611000   0.52114531   -8.9096794    583.11014  0.010538389 0.0089834598           20 
 4612000   0.52141852   -8.9112378    583.10641  0.010536037 0.0089803379           19 
 4613000   0.50951328   -8.9145477    583.51551  0.010541143 0.0089772155           15 
 4614000   0.50915281   -8.8980942    583.66986  0.010541646 0.0089740969           18 
 4615000   0.52591911    -8.915897    583.10238  0.010529115 0.0089709782           14 
 4616000   0.51828319   -8.8975402    583.47307  0.010533526 0.0089678606           17 
 4617000   0.52310648   -8.8990175    583.60594  0.010533643 0.0089647429           17 
 4618000   0.52036809   -8.9020555    582.99683   0.01052037 0.0089616296           15 
 4619000   0.51470358   -8.9205015    582.12814   0.01050242 0.0089585171           10 
 4620000   0.52571945   -8.9070623    583.18568  0.010519222 0.0089554045           11 
 4621000   0.51501472   -8.9028885    582.59461  0.010506287 0.0089522948           22 
 4622000   0.51503466   -8.9093928    582.75199  0.010506851 0.0089491869           14 
 4623000     0.524927   -8.9176311    583.12828  0.010511361 0.0089460754           18 
 4624000   0.49968613   -8.8981522    583.16225    0.0105097 0.0089429666           11 
 4625000   0.51020602   -8.9024195    582.64308  0.010498074 0.0089398602           11 
 4626000   0.51404041   -8.9136107    583.02471  0.010502679 0.0089367569           11 
 4627000   0.50976824   -8.9012477    582.91479  0.010498429 0.0089336543           10 
 4628000   0.52098461   -8.9125397    583.12307  0.010499911  0.008930552           13 
 4629000   0.50970531   -8.9127313    583.00451  0.010495509 0.0089274497           17 
 4630000   0.51042075   -8.9092623    582.43306  0.010482956 0.0089243493           22 
 4631000    0.5027418    -8.915118    583.12809    0.0104932 0.0089212523           15 
 4632000   0.50983349   -8.9340628    581.92937  0.010469368 0.0089181562           20 
 4633000   0.51693443   -8.9224599    582.11124   0.01047038 0.0089150593           15 
 4634000   0.50877704   -8.9177677    582.67829  0.010478318  0.008911965           22 
 4635000   0.50708975   -8.9186656    582.56123  0.010473952 0.0089088713           19 
 4636000   0.50276191   -8.9081859    582.88706   0.01047755 0.0089057807           19 
 4637000   0.51582251   -8.9059998    583.02889  0.010477839 0.0089026888           14 
 4638000    0.5119135   -8.9183952    582.25743  0.010461719 0.0088996011           12 
 4639000   0.50371366   -8.9184604    582.66439  0.010466774 0.0088965134           18 
 4640000   0.50942125   -8.9152193    581.78915  0.010448799 0.0088934288           20 
 4641000   0.51461088    -8.925757    582.49527  0.010459227 0.0088903479           14 
 4642000   0.50479398    -8.913309    581.89356  0.010446172 0.0088872653           17 
 4643000   0.50399427    -8.940652    582.69524  0.010458311  0.008884182           19 
 4644000    0.5142074   -8.9094499    582.86513  0.010459107 0.0088811009           20 
 4645000   0.50933321   -8.9178859    583.20147   0.01046289 0.0088780216           23 
 4646000   0.50831845   -8.9234687    582.40595  0.010446369 0.0088749456           14 
 4647000    0.5026607   -8.9052582    582.68257  0.010449081 0.0088718713           16 
 4648000   0.50746768   -8.8918078    583.01496  0.010452793 0.0088687976           15 
 4649000    0.5124647   -8.9178808    582.10362  0.010434208 0.0088657245           22 
 4650000   0.50799023   -8.9162886    581.91617  0.010428605 0.0088626499           11 
 4651000   0.49438661   -8.9248044    582.75873  0.010441459 0.0088595795           14 
 4652000   0.50206458   -8.9203879    583.49641  0.010452429 0.0088565085           18 
 4653000   0.51038244   -8.8906023    583.54089   0.01045098 0.0088534419           14 
 4654000   0.51002209   -8.9167662    583.04871  0.010439921 0.0088503763           17 
 4655000   0.50307166   -8.9209712    582.10364   0.01042076 0.0088473085           19 
 4656000   0.51724441   -8.9145208    582.79243   0.01043085 0.0088442439           16 
 4657000   0.51615898   -8.9187705    582.90793  0.010430677 0.0088411812           16 
 4658000   0.49776015   -8.9295813    582.46112  0.010420444 0.0088381188           13 
 4659000   0.50992635   -8.9248995     583.6286  0.010439089 0.0088350562           11 
 4660000   0.50379349   -8.9347549    582.69043  0.010420072 0.0088319977           16 
 4661000   0.50332493   -8.9225204    582.48831  0.010414223 0.0088289384           12 
 4662000   0.49534794   -8.9291366    582.83405  0.010418169 0.0088258811           13 
 4663000   0.50787621   -8.9155043    582.54955  0.010410851 0.0088228248           12 
 4664000    0.5067538   -8.9114082    583.74007   0.01042989 0.0088197696           21 
 4665000   0.50457279   -8.9228933    583.63037  0.010425694 0.0088167165           15 
 4666000   0.51163466   -8.9313536    582.54922  0.010404151 0.0088136655           15 
 4667000   0.50663942   -8.9287117    581.87566  0.010389895 0.0088106137           12 
 4668000   0.50835272   -8.9010313    582.71903  0.010402725 0.0088075647           12 
 4669000   0.51439602   -8.9255261    582.52994  0.010397122 0.0088045167           13 
 4670000   0.51109835   -8.9182013    582.40142  0.010392602 0.0088014688           10 
 4671000   0.51150995   -8.9123054    582.33906  0.010389265 0.0087984257           25 
 4672000   0.50110347   -8.8946579     582.1979  0.010384523 0.0087953847           18 
 4673000   0.50323888   -8.9031604    583.59099  0.010407144 0.0087923436           13 
 4674000   0.51071483    -8.917318    582.94438  0.010393389 0.0087893041           16 
 4675000   0.50364782   -8.9160723    582.51077  0.010383436 0.0087862631           12 
 4676000    0.5086306    -8.921911    582.06341  0.010373243 0.0087832212           13 
 4677000   0.49603358   -8.9269004    582.99338  0.010387595 0.0087801838           12 
 4678000   0.50804201   -8.9277898    582.23651  0.010371892 0.0087771465           18 
 4679000   0.50410972   -8.9298348    583.02886  0.010383787 0.0087741126           17 
 4680000   0.50817491   -8.9304104    582.36645  0.010369773 0.0087710775           12 
 4681000   0.49988203   -8.9176107    581.47015  0.010351601 0.0087680467           18 
 4682000    0.5018055   -8.9169555    582.81019  0.010373241  0.008765017           18 
 4683000   0.50215934   -8.9427068    582.25526  0.010361151 0.0087619851           12 
 4684000   0.50492595   -8.9280902    582.40246  0.010361558 0.0087589563           17 
 4685000   0.51448309   -8.9251958    581.82066  0.010348998 0.0087559289           12 
 4686000   0.49214033   -8.9449625    581.56086  0.010342169  0.008752901           20 
 4687000   0.50639753   -8.9327004    582.53387  0.010357262 0.0087498746           18 
 4688000   0.49900447   -8.9194542    582.50796  0.010354593 0.0087468496           10 
 4689000   0.49461931   -8.9301461    582.84921  0.010358449 0.0087438258           18 
 4690000   0.50365494   -8.9174196    581.97575  0.010340721 0.0087408015           15 
 4691000    0.5096522   -8.9396272    582.04993  0.010339834 0.0087377821           16 
 4692000    0.5095833   -8.9157946    582.00222  0.010336783 0.0087347624           24 
 4693000   0.49422517    -8.917766    582.12316  0.010336728 0.0087317448           14 
 4694000    0.4944757   -8.9341876    580.87952  0.010312447 0.0087287295           16 
 4695000   0.50349363   -8.9329338    582.53524  0.010339639 0.0087257152           14 
 4696000    0.5090888    -8.926005    582.49255  0.010336679 0.0087227003            6 
 4697000   0.49743028    -8.936273    582.65387  0.010337341 0.0087196862           16 
 4698000   0.50729477   -8.9110092    581.82494  0.010320437 0.0087166748           13 
 4699000   0.50773073   -8.9199781     582.4713  0.010329703 0.0087136663           17 
 4700000   0.49905534   -8.9168862     582.8584  0.010334369 0.0087106586           13 
 4701000   0.50784157   -8.9252767    581.89002  0.010315004  0.008707649           13 
 4702000   0.49485294   -8.9311056    582.57328   0.01032492 0.0087046449           16 
 4703000   0.48955825   -8.9230336    582.88889  0.010328317 0.0087016416           20 
 4704000   0.50416018   -8.9269852     581.9359  0.010309239 0.0086986393            8 
 4705000    0.5001936   -8.9551825    583.00756  0.010326028 0.0086956395           16 
 4706000   0.48614276   -8.9501586    581.96594  0.010305389 0.0086926379           14 
 4707000   0.49645332   -8.9346166    582.15449  0.010306538 0.0086896394           26 
 4708000   0.50376801   -8.9213504    581.25381  0.010288406 0.0086866441           16 
 4709000   0.50392154   -8.9437836    582.49751  0.010308231 0.0086836495           15 
 4710000   0.49956127   -8.9324761    582.70923  0.010309788 0.0086806561           18 
 4711000    0.4956034   -8.9231848    581.64099  0.010288704 0.0086776644           19 
 4712000   0.50338198   -8.9465826    583.26567  0.010315253 0.0086746736           18 
 4713000   0.50648084   -8.9350756    581.32268  0.010278709  0.008671683           15 
 4714000   0.48807802   -8.9265301    583.10668  0.010308066 0.0086686939           25 
 4715000   0.48832984   -8.9295038    582.24472  0.010290645 0.0086657082           16 
 4716000   0.49587271   -8.9321393    581.49773  0.010275264 0.0086627231           20 
 4717000    0.4928167   -8.9239696    581.79436  0.010278326 0.0086597397           14 
 4718000   0.49819497   -8.9412022    582.12783  0.010282037 0.0086567564           22 
 4719000   0.50212329   -8.9298158    581.78832  0.010273863 0.0086537745           11 
 4720000   0.49211012   -8.9403999    582.21361  0.010279195 0.0086507944           16 
 4721000   0.49555548   -8.9503159    582.67691  0.010285196  0.008647814           21 
 4722000   0.49946805     -8.94167    581.07077  0.010254673 0.0086448358           19 
 4723000   0.49965379   -8.9467874    582.49273  0.010277591 0.0086418584           20 
 4724000   0.50906895   -8.9372159    581.61157  0.010259871 0.0086388834           22 
 4725000   0.50325664   -8.9209286    582.09645  0.010266251 0.0086359111           16 
 4726000   0.49066009   -8.9243763    582.30857  0.010267819 0.0086329365           15 
 4727000   0.49052287   -8.9280023     581.8078  0.010256819 0.0086299654           16 
 4728000   0.50112167   -8.9387175     582.5937  0.010268501  0.008626992           20 
 4729000   0.48918533    -8.932719    582.33278  0.010261732 0.0086240218           16 
 4730000   0.49269783   -8.9295844     581.8023  0.010250217 0.0086210557            9 
 4731000   0.50200323   -8.9210122    583.10255  0.010270953 0.0086180892           13 
 4732000   0.50153587   -8.9469057    581.72201   0.01024447 0.0086151257           16 
 4733000   0.49439216   -8.9565619     582.5606  0.010257071 0.0086121633           18 
 4734000   0.49779257   -8.9241066    581.79742   0.01024147 0.0086092007           18 
 4735000   0.50049069   -8.9364908     581.8407  0.010240069 0.0086062387           14 
 4736000   0.48417664   -8.9399111    582.46919  0.010248965 0.0086032795           13 
 4737000   0.49841288   -8.9226509    581.76695  0.010234448 0.0086003219           16 
 4738000   0.49522432   -8.9325684    581.45701  0.010226836 0.0085973645           17 
 4739000   0.49018039   -8.9355402    582.16082  0.010237055 0.0085944089           23 
 4740000   0.49399029   -8.9288932    582.07991  0.010233472 0.0085914546           16 
 4741000   0.49187391   -8.9513271    582.08385  0.010231383    0.0085885           23 
 4742000   0.49827644   -8.9368472    582.45716  0.010235786 0.0085855485           14 
 4743000    0.4882388   -8.9292518    582.16904  0.010228566 0.0085825984           15 
 4744000   0.49431015    -8.942062    582.36555  0.010229861 0.0085796479           22 
 4745000   0.48471824   -8.9335325    581.82324  0.010218181 0.0085766994           12 
 4746000   0.49183896   -8.9335625    581.69308  0.010213743 0.0085737514           17 
 4747000   0.50203552   -8.9346564    582.59509  0.010227426 0.0085708039           23 
 4748000   0.48940312   -8.9323372    582.47291  0.010223128 0.0085678584           22 
 4749000   0.49562976   -8.9405846    581.67969  0.010207056 0.0085649163           14 
 4750000    0.4967417   -8.9364095    581.87527  0.010208338 0.0085619745           14 
 4751000   0.49486776   -8.9342051    580.96272  0.010190183 0.0085590325           20 
 4752000   0.48299723   -8.9340397    582.02688    0.0102067 0.0085560932           17 
 4753000   0.49731051    -8.936344    581.35162  0.010192714 0.0085531561           17 
 4754000   0.48024028   -8.9350456    582.71776  0.010214517 0.0085502228           11 
 4755000   0.48563731   -8.9361106    582.34493  0.010205835 0.0085472872           19 
 4756000   0.48575608   -8.9271504    582.20984  0.010201322 0.0085443554           12 
 4757000   0.48695286   -8.9362361    582.00518  0.010195592 0.0085414225           17 
 4758000   0.48795878   -8.9424688    581.17275   0.01017887   0.00853849           15 
 4759000   0.48892676   -8.9454939    582.78446  0.010204953 0.0085355587           16 
 4760000   0.50455721    -8.933485    581.46364  0.010179686 0.0085326271           19 
 4761000   0.49867806   -8.9580531     581.7131  0.010181914 0.0085296974           17 
 4762000   0.48261262   -8.9466689    581.64808  0.010178638 0.0085267684           16 
 4763000   0.49192885   -8.9501981    583.25784  0.010204665 0.0085238428           17 
 4764000   0.48976598   -8.9352498    581.58496  0.010173261 0.0085209174           17 
 4765000   0.47844807   -8.9446319    582.25995   0.01018293 0.0085179962           20 
 4766000   0.49240965   -8.9504634     582.3962  0.010183176 0.0085150737           19 
 4767000   0.48610074   -8.9439824    582.74499  0.010187137  0.008512153           16 
 4768000    0.4782058   -8.9528029    581.66289  0.010166088  0.008509234           16 
 4769000   0.49707571   -8.9467992    581.26843  0.010157063 0.0085063161           15 
 4770000    0.4927083   -8.9538671    581.87406  0.010165515 0.0085034007           20 
 4771000   0.48487728   -8.9438726    580.77026  0.010144104 0.0085004837           21 
 4772000   0.49176494   -8.9526484     580.9537  0.010145182 0.0084975693           15 
 4773000   0.48829427   -8.9577179    581.92881  0.010160081 0.0084946563           15 
 4774000    0.4986658   -8.9577121    581.80981  0.010155876 0.0084917439           16 
 4775000   0.49061738   -8.9743879    582.68445  0.010169013  0.008488834           18 
 4776000   0.48743874   -8.9311787    581.97273  0.010154465 0.0084859233           11 
 4777000    0.4816931   -8.9401976    581.78669  0.010149094 0.0084830151           18 
 4778000    0.4901271   -8.9557929    581.72673  0.010145925 0.0084801114           17 
 4779000   0.49230496   -8.9692915    581.58457  0.010141323 0.0084772054           21 
 4780000   0.48307662   -8.9356559    581.35265  0.010135158 0.0084743004           16 
 4781000    0.4883204   -8.9491828    582.28799  0.010149341 0.0084713971           19 
 4782000   0.48267544   -8.9444556    580.76228  0.010120631 0.0084684927           12 
 4783000   0.49220949   -8.9440219    581.72793  0.010135339 0.0084655934           21 
 4784000   0.47305612   -8.9532132    581.81435  0.010134726 0.0084626952           18 
 4785000   0.49066949   -8.9586423    581.25234   0.01012282 0.0084597978           19 
 4786000   0.48547721   -8.9451353    581.71933  0.010128836 0.0084569019           17 
 4787000   0.48868065   -8.9436226    581.93681  0.010130506  0.008454006           11 
 4788000   0.49314161   -8.9298103    581.46793   0.01012023 0.0084511135           15 
 4789000   0.48042004   -8.9679228    581.24098  0.010114167 0.0084482202           15 
 4790000   0.48925067   -8.9545823    581.91839  0.010123841 0.0084453294           17 
 4791000   0.48912309   -8.9439429    581.97174  0.010122656  0.008442439           16 
 4792000   0.47502304   -8.9483708    581.09678  0.010105328 0.0084395514           13 
 4793000   0.48180785    -8.962389    580.95254  0.010100712 0.0084366641           17 
 4794000   0.47684139   -8.9416233    582.01207  0.010117023 0.0084337784           20 
 4795000    0.4837658   -8.9490676    582.22218  0.010118564 0.0084308941           20 
 4796000   0.48112173   -8.9489429    582.27453  0.010117364  0.008428011           19 
 4797000   0.48498449   -8.9470041    581.34041  0.010099027  0.008425128           18 
 4798000   0.47227781   -8.9404111    580.89055  0.010089109 0.0084222456           12 
 4799000   0.48227528    -8.946003    582.24433  0.010110515 0.0084193649           16 
 4800000   0.48889614   -8.9512509    581.25055  0.010091155  0.008416486           15 
 4801000    0.4925782   -8.9673369    581.53706  0.010094027 0.0084136101           19 
 4802000   0.47666005   -8.9378868    581.77206  0.010096003 0.0084107339           17 
 4803000   0.47978142   -8.9530873    580.76694  0.010076462 0.0084078586           18 
 4804000   0.47696701   -8.9569792    582.10692  0.010097608 0.0084049863           22 
 4805000   0.48177491   -8.9694539    581.11674  0.010078334 0.0084021162           17 
 4806000   0.47937907   -8.9585957     582.3024  0.010096796  0.008399245           13 
 4807000   0.48449588   -8.9626015    581.30293  0.010077369 0.0083963762           15 
 4808000   0.48287477   -8.9457587    582.22799  0.010091306 0.0083935097           16 
 4809000   0.48474895    -8.949056    581.62329  0.010078729 0.0083906429           12 
 4810000   0.47365947   -8.9754804    581.47326  0.010074034  0.008387781           17 
 4811000   0.47814395   -8.9429463    581.06525  0.010064873 0.0083849191           15 
 4812000   0.47486175   -8.9575598    581.95158  0.010078131  0.008382056           25 
 4813000   0.47654815   -8.9679065    581.18172  0.010062707 0.0083791962           25 
 4814000   0.47458429    -8.942418    581.25761  0.010061931 0.0083763366           13 
 4815000   0.48153403   -8.9454206    581.61805  0.010066079 0.0083734762           13 
 4816000   0.48067484   -8.9654799    581.30849  0.010058632 0.0083706189           16 
 4817000   0.47306435   -8.9594918    581.07479  0.010052501 0.0083677596           13 
 4818000   0.49104625   -8.9560521    581.56017   0.01005881 0.0083649041           21 
 4819000   0.47937921   -8.9612501    581.55616  0.010056653 0.0083620508           13 
 4820000   0.47775385   -8.9543452    581.02118  0.010045318 0.0083591982           16 
 4821000   0.48822174   -8.9466309    581.49553  0.010051433 0.0083563464           12 
 4822000   0.46863059    -8.955487    582.33119  0.010063791 0.0083534962           23 
 4823000   0.47695047   -8.9604517    581.02946  0.010039213 0.0083506477           11 
 4824000   0.48377818   -8.9458066    581.02068   0.01003698  0.008347801           23 
 4825000   0.48098606    -8.954182    581.80317  0.010048414 0.0083449544           18 
 4826000   0.47938732   -8.9718682    580.92843  0.010031227 0.0083421121           17 
 4827000   0.47634664   -8.9834046    581.18333   0.01003355 0.0083392682           14 
 4828000   0.49073412   -8.9673581     581.0533  0.010029227 0.0083364261           19 
 4829000   0.48615592   -8.9571634    581.18607  0.010029441 0.0083335864           16 
 4830000   0.48962893   -8.9632555    581.39813  0.010031024 0.0083307459           16 
 4831000   0.47435482   -8.9736915    581.97074  0.010038825 0.0083279078           12 
 4832000   0.46258022   -8.9543693    581.64872  0.010031193 0.0083250688            9 
 4833000   0.47574805   -8.9601154    580.83589  0.010015103 0.0083222328           24 
 4834000    0.4906386   -8.9567056    581.23933  0.010019986  0.008319399           11 
 4835000   0.47292208   -8.9546064    581.28776  0.010018748 0.0083165658           18 
 4836000   0.47863821   -8.9662745    581.91616  0.010027505  0.008313734           10 
 4837000   0.47371322   -8.9790546    581.41743   0.01001684 0.0083109006           15 
 4838000   0.46883651   -8.9647639    581.68347  0.010019351 0.0083080699           14 
 4839000    0.4692965   -8.9710837    580.57877 0.0099982567 0.0083052381           11 
 4840000   0.47758734    -8.963467    581.01981  0.010003785  0.008302409           12 
 4841000   0.48120564   -8.9686912    581.29659  0.010006483 0.0082995789           22 
 4842000   0.47513555    -8.969704    581.26201  0.010003821  0.008296753           23 
 4843000   0.48387618   -8.9644506    580.91253 0.0099957418 0.0082939294           17 
 4844000   0.47011841   -8.9648221    581.40389  0.010002131 0.0082911059           17 
 4845000   0.47543694   -8.9508795    581.09254 0.0099947117 0.0082882838           16 
 4846000    0.4778752   -8.9492879    582.68241  0.010019989  0.008285465           15 
 4847000   0.48682314    -8.963219    581.34758 0.0099949726 0.0082826465           13 
 4848000   0.47415079   -8.9662082    582.31567  0.010009552 0.0082798294           20 
 4849000   0.47905821   -8.9764421    580.92344 0.0099835609 0.0082770107           17 
 4850000   0.47836766   -8.9586514    581.54803 0.0099922343 0.0082741958           17 
 4851000   0.48849321    -8.954036    581.12456 0.0099828998 0.0082713829           20 
 4852000   0.47590685   -8.9727872    582.15738 0.0099985809 0.0082685708           14 
 4853000   0.47084419    -8.973531    580.99757 0.0099766051 0.0082657609           24 
 4854000   0.47103689   -8.9735283     581.1256 0.0099767478 0.0082629536           18 
 4855000   0.46754358   -8.9879195    581.03314 0.0099731057 0.0082601446           17 
 4856000   0.47879805   -8.9523623    581.03497 0.0099710833 0.0082573348           17 
 4857000   0.46921053   -8.9586507     581.6465 0.0099795226 0.0082545273           20 
 4858000   0.47431276   -8.9563296    580.93697 0.0099652972 0.0082517223           20 
 4859000   0.47646421   -8.9842675    581.08641 0.0099658093 0.0082489181           17 
 4860000   0.47951013   -8.9682398    581.28922 0.0099672363 0.0082461139           17 
 4861000   0.47395642   -8.9717397    581.22699  0.009964119 0.0082433112           20 
 4862000    0.4645593   -8.9698007    581.41889 0.0099653588  0.008240508           11 
 4863000   0.47551503   -8.9593565    581.36248 0.0099623429 0.0082377078           22 
 4864000   0.47600547   -8.9807597    580.84923 0.0099515013  0.008234908           19 
 4865000   0.48323111   -8.9756701    581.82452 0.0099661617 0.0082321138           14 
 4866000   0.47155901   -8.9740833    580.78549 0.0099463195 0.0082293186           13 
 4867000   0.47728815    -8.971989    581.07388 0.0099492138 0.0082265249           17 
 4868000   0.47324831   -8.9652953     580.4702 0.0099368357 0.0082237316           19 
 4869000   0.47435077    -8.965254    581.36247 0.0099500662 0.0082209401           12 
 4870000   0.47541179    -8.973863     581.0416 0.0099425325 0.0082181492           16 
 4871000   0.47441345   -8.9560305    579.92282 0.0099213512 0.0082153581           16 
 4872000   0.47539874   -8.9864854     581.0775  0.009939065  0.008212569           12 
 4873000   0.46637457   -8.9697021    580.69896  0.009930552 0.0082097804           16 
 4874000   0.46443688   -8.9526816    582.06008 0.0099517863  0.008206995           19 
 4875000   0.46718564   -8.9646304    581.21196 0.0099352471 0.0082042129           16 
 4876000   0.46604656   -8.9772751    581.41075 0.0099366071  0.008201429           16 
 4877000   0.47268707   -8.9702632     580.6129 0.0099209366  0.008198645           16 
 4878000   0.48088452   -8.9626861    581.43955  0.009933025 0.0081958638           11 
 4879000   0.47735192   -8.9587181    581.74556 0.0099362158 0.0081930842           28 
 4880000   0.47271872   -8.9682227    580.88027 0.0099194035 0.0081903062           13 
 4881000    0.4713841    -8.970403    581.15468 0.0099220562 0.0081875267           14 
 4882000   0.47189502   -8.9660759    581.50438 0.0099259931 0.0081847478           16 
 4883000   0.46763073   -8.9810868     581.3459 0.0099212557 0.0081819724           10 
 4884000   0.47256571   -8.9741737    581.10286 0.0099150775  0.008179198           18 
 4885000   0.47547843   -8.9786407    580.90746 0.0099097144 0.0081764266           21 
 4886000   0.46735099   -8.9714445    580.92779 0.0099080329 0.0081736569           20 
 4887000   0.47038655    -8.972862    581.31878 0.0099126728 0.0081708859           11 
 4888000   0.47291631   -8.9797161    580.78322 0.0099015143 0.0081681153           18 
 4889000   0.46398764   -8.9840066    580.88612 0.0099012429  0.008165347           19 
 4890000   0.46943229   -8.9742101    581.44705 0.0099087773 0.0081625773           27 
 4891000   0.47664072   -8.9774473    581.22039 0.0099028895 0.0081598107           21 
 4892000   0.47886933   -8.9705672    581.24495 0.0099012836 0.0081570435           19 
 4893000   0.47282389   -8.9845411    580.47275 0.0098861086 0.0081542788           15 
 4894000   0.47247157   -8.9629935    581.25538 0.0098974149 0.0081515146           15 
 4895000   0.45841094   -8.9909623     581.0717  0.009892266  0.008148753           12 
 4896000   0.47884801   -8.9877535    581.54079 0.0098982297 0.0081459916           15 
 4897000   0.46567128   -8.9635237     580.3642  0.009876186 0.0081432307           14 
 4898000   0.46673934   -8.9760065    580.93469 0.0098838758 0.0081404722           15 
 4899000   0.45782994    -8.981285    581.01875 0.0098832882  0.008137715           16 
 4900000   0.46055338   -8.9814594    581.14667 0.0098834468 0.0081349573           21 
 4901000   0.46479772   -8.9898957    581.38693 0.0098855154 0.0081322017           17 
 4902000   0.46374723    -8.970843    580.59604 0.0098700538 0.0081294475           13 
 4903000   0.46442386   -8.9726947    580.66472 0.0098692079 0.0081266959           16 
 4904000   0.48564491   -8.9935405    580.78545  0.009869247 0.0081239448           20 
 4905000   0.47342478   -8.9654194    581.68691 0.0098825503 0.0081211925           17 
 4906000   0.47167591   -8.9740464    581.23363 0.0098728365 0.0081184451           14 
 4907000   0.46316371   -8.9751434    580.95903 0.0098661611 0.0081156971           16 
 4908000   0.46415231    -8.980625    580.54812  0.009857174 0.0081129511           16 
 4909000   0.46574069    -8.969381    581.57561 0.0098726082 0.0081102058           19 
 4910000   0.46064761   -8.9733477    581.14692 0.0098633217 0.0081074628           19 
 4911000   0.46507043   -8.9870076    581.51228 0.0098675131 0.0081047211           16 
 4912000   0.47015978   -8.9902264    580.59467 0.0098499368  0.008101981           19 
 4913000   0.46284769   -8.9717311     580.7886 0.0098512212  0.008099244           20 
 4914000   0.47232959   -8.9863566    580.25799 0.0098402182 0.0080965065           17 
 4915000   0.46976855   -8.9837451    580.67175 0.0098452315 0.0080937681           20 
 4916000     0.466156   -8.9810969    581.12875 0.0098509756 0.0080910311           21 
 4917000    0.4676837   -8.9775586    580.69553 0.0098416298  0.008088297           13 
 4918000   0.46330242   -8.9702381    580.22016 0.0098315738 0.0080855621           17 
 4919000   0.46973435   -8.9886218    581.27762 0.0098474897 0.0080828306           14 
 4920000   0.45937277   -8.9753363    580.96984  0.009840275 0.0080800984           13 
 4921000   0.45701339   -8.9877986    580.45592 0.0098295727 0.0080773664           11 
 4922000   0.45301783   -8.9655944    581.46336 0.0098446323 0.0080746359           21 
 4923000   0.47509577   -8.9850264     580.8166 0.0098316846 0.0080719092           23 
 4924000   0.46583075   -8.9925135    581.03178 0.0098333296 0.0080691828           16 
 4925000   0.45860681   -8.9827496    581.37746 0.0098371821 0.0080664568           16 
 4926000   0.47011678   -8.9799267    581.89602 0.0098439576 0.0080637327           22 
 4927000   0.46549077   -8.9840196      580.143 0.0098123097 0.0080610087           23 
 4928000   0.46440042   -8.9864745     580.8421 0.0098221404 0.0080582869           19 
 4929000   0.45340331   -8.9875147    581.10987 0.0098246748 0.0080555657           21 
 4930000   0.45823445   -8.9781703    580.75441 0.0098166735 0.0080528471           21 
 4931000   0.46832692   -8.9861946    580.70281 0.0098138108 0.0080501273           21 
 4932000   0.46551364   -8.9877872    581.24735 0.0098210217 0.0080474093           14 
 4933000   0.46532863   -8.9988764    580.55885 0.0098073999 0.0080446918           22 
 4934000   0.46588881    -9.000079    580.87343 0.0098107255 0.0080419762           13 
 4935000   0.46246605   -8.9873474    580.65154 0.0098049905 0.0080392624           17 
 4936000    0.4571854   -8.9884306    580.21198 0.0097955832 0.0080365481           14 
 4937000   0.46256956    -8.989111    581.13691 0.0098092112 0.0080338357           13 
 4938000   0.46133736   -8.9875608    580.88568  0.009802985 0.0080311259           15 
 4939000   0.46086767   -8.9737388    581.80988 0.0098165938 0.0080284164           16 
 4940000   0.46019533   -8.9814875    580.48957 0.0097923342 0.0080257083           17 
 4941000   0.45843106   -9.0009458    579.33504 0.0097708804 0.0080230011           15 
 4942000    0.4611553   -8.9938941    579.97442 0.0097796847 0.0080202915           22 
 4943000   0.46467724   -8.9975823    580.67107 0.0097894509 0.0080175862           17 
 4944000   0.46166276   -8.9747888    580.38186 0.0097825961 0.0080148836           23 
 4945000   0.45490787   -8.9869543     580.4485 0.0097817408 0.0080121826           14 
 4946000   0.46791622   -8.9985632    580.36488 0.0097783542 0.0080094808           13 
 4947000   0.46929854   -8.9813982    580.77272 0.0097832478  0.008006782           13 
 4948000   0.46132698    -8.981931     580.8004 0.0097817368 0.0080040831           21 
 4949000   0.46520612   -8.9865229    581.00531 0.0097832106  0.008001386           18 
 4950000   0.45611974   -9.0019887    580.89285 0.0097793409 0.0079986898           14 
 4951000   0.46018803   -8.9946222    580.95743 0.0097784527 0.0079959937           14 
 4952000   0.46091701    -8.976606    580.98319 0.0097769115 0.0079933019           20 
 4953000   0.46527477   -9.0005561    581.70063 0.0097870083 0.0079906087           13 
 4954000   0.45722124   -8.9933223    580.45593 0.0097640951 0.0079879161           12 
 4955000   0.45136491   -8.9915264    579.69549 0.0097493354 0.0079852248           13 
 4956000   0.46613069   -8.9756331    581.11101 0.0097711698 0.0079825361           20 
 4957000   0.44907049   -8.9976516    579.95079 0.0097496939 0.0079798458           18 
 4958000   0.45688185   -8.9889438    581.25875 0.0097697113 0.0079771598           16 
 4959000   0.47461301   -8.9854183    580.04479 0.0097473414  0.007974472           15 
 4960000   0.46147378   -9.0078974    580.56546  0.009754124 0.0079717874           18 
 4961000   0.45755115   -8.9985653    579.85697 0.0097402568 0.0079691025           24 
 4962000   0.45481414   -8.9931274    581.40918 0.0097643621 0.0079664194           11 
 4963000   0.45582202   -8.9840345    579.44245 0.0097293715 0.0079637385           12 
 4964000   0.46377648   -8.9954319    580.56084 0.0097461865 0.0079610596           10 
 4965000   0.46121024   -8.9864749    579.84835 0.0097322651 0.0079583819           11 
 4966000   0.45336298   -8.9778392    580.98775 0.0097494252 0.0079557052           16 
 4967000   0.45249937   -9.0057722    581.15291 0.0097502333 0.0079530287           11 
 4968000   0.46138937   -8.9996105    580.07434 0.0097301789 0.0079503548           18 
 4969000   0.45794598   -8.9939251    580.99565 0.0097436716 0.0079476808           11 
 4970000   0.45332771   -9.0106113     581.0868 0.0097432395  0.007945007           18 
 4971000   0.45362099   -8.9917561    580.61293 0.0097333355 0.0079423344           16 
 4972000    0.4607415   -8.9934466    580.68634 0.0097326083 0.0079396639           19 
 4973000    0.4544223   -8.9876061    580.81106 0.0097327412 0.0079369941           13 
 4974000   0.45669695   -9.0003726    580.58023 0.0097269171 0.0079343257           23 
 4975000   0.45873569   -8.9995012    580.86708 0.0097297669 0.0079316579           16 
 4976000   0.45654197   -9.0049556    580.69702 0.0097249635 0.0079289892           17 
 4977000   0.45548771   -8.9908159    580.43828 0.0097186773 0.0079263214           12 
 4978000   0.44850596   -8.9867453    579.56148 0.0097020471 0.0079236582           19 
 4979000   0.45251382   -8.9845992    580.96699 0.0097236223 0.0079209948           16 
 4980000   0.45698542   -9.0091633     581.1145 0.0097241383 0.0079183317           16 
 4981000   0.45323137   -9.0093541    580.47503 0.0097114876 0.0079156718           17 
 4982000   0.45668986   -8.9905986    579.29914 0.0096898692 0.0079130123           19 
 4983000   0.45036281   -9.0027406    580.08243  0.009701024 0.0079103535           12 
 4984000   0.44677838   -8.9939424    579.86059 0.0096953684 0.0079076978           15 
 4985000   0.45407967     -8.99294    581.33692  0.009718103  0.007905042           11 
 4986000    0.4547362    -8.988349    580.46521 0.0097015846 0.0079023881           14 
 4987000   0.45500653   -9.0056312    580.82959  0.009705728 0.0078997342           21 
 4988000   0.45566992   -9.0130356    579.70372 0.0096849725 0.0078970801           10 
 4989000    0.4497906   -8.9902187    580.31816 0.0096932946 0.0078944287           23 
 4990000    0.4525739   -8.9994003    580.77701 0.0096990148 0.0078917807           21 
 4991000   0.46331694   -9.0166367    580.08819 0.0096855706 0.0078891325           16 
 4992000   0.44477267   -9.0133766    580.03883 0.0096828063 0.0078864846           21 
 4993000   0.45224847   -9.0116068    580.15635 0.0096828285 0.0078838391           19 
 4994000    0.4569718   -9.0013439    580.09721 0.0096799028  0.007881193           20 
 4995000   0.45149259    -9.001107    579.44394 0.0096670661 0.0078785489           19 
 4996000   0.46590854    -9.000431    580.42096 0.0096814278 0.0078759057           16 
 4997000   0.44505281   -9.0096968    580.34174 0.0096781692 0.0078732642           20 
 4998000    0.4595951   -8.9977976    580.19466 0.0096737805  0.007870622           19 
 4999000   0.44411828   -9.0112439    580.25844 0.0096729086 0.0078679824           13 
 5000000   0.45772063   -9.0105653    580.57733 0.0096762888 0.0078653445           16 
 5001000   0.44985359   -9.0106609    579.94609 0.0096638354 0.0078627073           16 
 5002000   0.45242943   -8.9973403    580.26669 0.0096672446 0.0078600711           18 
 5003000   0.45124848    -8.994752    580.68682 0.0096723103 0.0078574346           21 
 5004000   0.45011984   -9.0054175    580.04287 0.0096596534 0.0078547999           15 
 5005000   0.45150833   -8.9854006    581.19901 0.0096769733 0.0078521681           12 
 5006000   0.43776747   -9.0097787    580.69406 0.0096666343 0.0078495363           19 
 5007000   0.45563208   -9.0024607    580.43909 0.0096604601 0.0078469052           14 
 5008000   0.46014742   -9.0002697    580.35665 0.0096571594 0.0078442751           14 
 5009000   0.44982337   -8.9884849     579.7193 0.0096446279 0.0078416439           19 
 5010000    0.4459468   -8.9987648     579.5428  0.009639767  0.007839015           21 
 5011000   0.44738174   -9.0052498     579.6248 0.0096392071  0.007836388           16 
 5012000   0.45392713   -8.9913797    580.55542 0.0096527571 0.0078337633           14 
Loop time of 12369.8 on 48 procs for 5000000 steps with 4000 atoms

Performance: 69847.503 tau/day, 404.210 timesteps/s
99.4% CPU use with 48 MPI tasks x no OpenMP threads

MPI task timing breakdown:
Section |  min time  |  avg time  |  max time  |%varavg| %total
---------------------------------------------------------------
Pair    | 848.92     | 899.53     | 967.57     |  97.0 |  7.27
Neigh   | 81.812     | 84.722     | 87.601     |  16.9 |  0.68
Comm    | 779.1      | 851.5      | 907.92     | 106.7 |  6.88
Output  | 13.802     | 13.807     | 13.9       |   0.4 |  0.11
Modify  | 10391      | 10408      | 10424      |   8.6 | 84.14
Other   |            | 111.8      |            |       |  0.90

Nlocal:        83.3333 ave          88 max          78 min
Histogram: 3 1 6 3 8 2 4 7 9 5
Nghost:        2183.67 ave        2204 max        2161 min
Histogram: 2 0 6 7 5 8 12 6 0 2
Neighs:        14493.0 ave       15930 max       13290 min
Histogram: 3 3 6 10 7 6 7 2 1 3
FullNghs:      28984.3 ave       30866 max       26772 min
Histogram: 3 3 4 4 6 7 5 7 5 4

Total # of neighbors = 1391246
Ave neighs/atom = 347.81150
Neighbor list builds = 267005
Dangerous builds = 0

#clear
#
#next RN
#
#jump SELF
Total wall time: 3:26:13
