
units lj                  # Use reduced LJ style units
atom_style atomic         # Uncharged point particles
atom_modify map hash      # Needed for indexing of clusters etc
                          # Used to be able to find where atoms are in relation to each other.

lattice fcc 1.0 spacing 1 1 1
Lattice spacing in x,y,z = 1.5874011 1.5874011 1.5874011
region box block 0 10 0 10 0 10 units lattice
create_box 2 box
Created orthogonal box = (0.0000000 0.0000000 0.0000000) to (15.874011 15.874011 15.874011)
  3 by 4 by 4 MPI processor grid
create_atoms 1 box
Created 4000 atoms
  using lattice units in orthogonal box = (0.0000000 0.0000000 0.0000000) to (15.874011 15.874011 15.874011)
  create_atoms CPU = 0.003 seconds
set type 1 type/fraction 2 0.71 78393
Setting atom values ...
  2865 settings made for type/fraction
mass 1 1.0
mass 2 1.0
pair_style lj/cut  3.5
pair_modify tail  yes
pair_coeff 1  1  1.0  1.0   # Intearaction between 1 and 1 set with epsilon = 1 and sigma = 1
pair_coeff 1  2  1.5  0.8
pair_coeff 2  2  0.5  0.88

write_data data.0
System init for write_data ...
Neighbor list info ...
  update every 1 steps, delay 10 steps, check yes
  max neighbors/atom: 2000, page size: 100000
  master list distance cutoff = 3.8
  ghost atom cutoff = 3.8
  binsize = 1.9, bins = 9 9 9
  1 neighbor lists, perpetual/occasional/extra = 1 0 0
  (1) pair lj/cut, perpetual
      attributes: half, newton on
      pair build: half/bin/atomonly/newton
      stencil: half/bin/3d
      bin: standard
WARNING: Not all mixed pair coeffs generated from mixing. Use write_data with 'pair ij' option to store all pair coeffs. (../write_data.cpp:312)


#############################
#   M E L T   S Y S T E M   #
#############################

velocity all create 2.4 5300450 mom yes dist gaussian # Assign velocities
                                                    # Temperature 2.4, random number seed, zero linear momentum
                                                                                # Gaussian distribution

timestep 0.002   # simulation timestep
thermo 1000       # output thermodynamic data every 1000 steps bf 100

# Define a fix  in this case with index 1 applied to all
# particles in the simulation. This fix is for simulations
# in the anisotropic NPT ensemble. Note that we use the MTK
# correction.
fix 1 all npt temp 2.4 2.4 0.1 iso 5.68 5.68 0.5 mtk yes tchain 5 pchain 5 # Use NPT ensemble
                                                                         # Set temperature and pressure and damping
                                                                         # Numbers of thermostats in chain and in barostat
run 10000          # run for 10000 steps
Per MPI rank memory allocation (min/avg/max) = 3.642 | 3.644 | 3.648 Mbytes
Step Temp E_pair E_mol TotEng Press Volume 
       0          2.4   -4.1166387            0   -0.5175387   -3.7043072         4000 
    1000    2.3918198   -3.7353989            0  -0.14856614    5.6703283    3659.1139 
    2000    2.4286433   -3.6393116            0 0.0027426719    5.7686145    3705.5462 
    3000     2.436068   -3.6681902            0 -0.015001714    6.0559625    3663.8329 
    4000    2.4308386   -3.6828285            0 -0.037482175     5.670125    3678.0723 
    5000    2.4085381    -3.682014            0  -0.07011003    5.7261948     3684.918 
    6000    2.4402223   -3.7449809            0 -0.085562534    5.6514465    3651.5055 
    7000    2.3895053   -3.6801685            0 -0.096806561    5.5440094    3691.7196 
    8000    2.3713625   -3.6597672            0  -0.10361281    5.6196501    3707.7216 
    9000    2.3891642   -3.7227046            0  -0.13985417    5.8202669    3633.4049 
   10000    2.3629381   -3.6793183            0  -0.13579735    5.6400218    3678.1704 
Loop time of 2.89241 on 48 procs for 10000 steps with 4000 atoms

Performance: 597425.451 tau/day, 3457.323 timesteps/s
99.2% CPU use with 48 MPI tasks x no OpenMP threads

MPI task timing breakdown:
Section |  min time  |  avg time  |  max time  |%varavg| %total
---------------------------------------------------------------
Pair    | 1.1783     | 1.2521     | 1.3294     |   2.3 | 43.29
Neigh   | 0.21287    | 0.22295    | 0.23173    |   0.8 |  7.71
Comm    | 0.8517     | 0.90954    | 0.99195    |   3.1 | 31.45
Output  | 0.00025196 | 0.0002618  | 0.00060687 |   0.0 |  0.01
Modify  | 0.43391    | 0.49213    | 0.52483    |   3.0 | 17.01
Other   |            | 0.01546    |            |       |  0.53

Nlocal:        83.3333 ave          98 max          75 min
Histogram: 5 6 7 11 6 7 4 1 0 1
Nghost:        1733.73 ave        1761 max        1696 min
Histogram: 1 0 2 3 10 10 9 4 5 4
Neighs:        10398.1 ave       12350 max        9205 min
Histogram: 6 6 9 7 2 9 6 1 1 1

Total # of neighbors = 499107
Ave neighs/atom = 124.77675
Neighbor list builds = 908
Dangerous builds = 209

# Equilibrate just above the melting temperature to avoid step fn in T

fix 1 all npt temp 1.25 1.25 0.1 iso 5.68 5.68 0.5 mtk yes tchain 5 pchain 5
run 2000
Per MPI rank memory allocation (min/avg/max) = 3.644 | 3.646 | 3.650 Mbytes
Step Temp E_pair E_mol TotEng Press Volume 
   10000    2.3629381   -3.6793183            0  -0.13579735    5.6400218    3678.1704 
   11000    1.2315996   -5.4568836            0   -3.6099461    5.5998516     2807.687 
   12000    1.2252619   -5.4814344            0    -3.644001    5.7745504    2792.0495 
Loop time of 0.647839 on 48 procs for 2000 steps with 4000 atoms

Performance: 533466.193 tau/day, 3087.189 timesteps/s
99.7% CPU use with 48 MPI tasks x no OpenMP threads

MPI task timing breakdown:
Section |  min time  |  avg time  |  max time  |%varavg| %total
---------------------------------------------------------------
Pair    | 0.29911    | 0.32127    | 0.34585    |   1.8 | 49.59
Neigh   | 0.041569   | 0.043758   | 0.046621   |   0.5 |  6.75
Comm    | 0.20532    | 0.23388    | 0.26146    |   2.4 | 36.10
Output  | 5.1534e-05 | 5.2977e-05 | 6.6472e-05 |   0.0 |  0.01
Modify  | 0.040424   | 0.044105   | 0.047046   |   1.0 |  6.81
Other   |            | 0.004771   |            |       |  0.74

Nlocal:        83.3333 ave          95 max          75 min
Histogram: 1 0 10 10 11 8 4 3 0 1
Nghost:        2085.54 ave        2111 max        2063 min
Histogram: 2 3 5 11 5 8 7 3 1 3
Neighs:        13653.9 ave       15196 max       12314 min
Histogram: 2 5 7 8 7 4 5 5 1 4

Total # of neighbors = 655389
Ave neighs/atom = 163.84725
Neighbor list builds = 144
Dangerous builds = 10

#############################
# L I N E A R  Q U E N C H  #
#############################

# Define solid atoms. This closely follows ten Wolde  Ruiz-Montero and Frenkel  Faraday Discuss  1996  104  93-110
# Compute components of the per-atom q6 vector
compute q6 all orientorder/atom degrees 1 6 components 6 nnn NULL cutoff 1.3 # compute the Q6 parameter.
                                                                             # Use all neighbours within 1.3 unit cell.

# get number of connections
compute coord_number all coord/atom orientorder q6 0.5

# An atom is solid if it has 8 or more connections (of a possible 14)
variable is_solid atom c_coord_number>=8
group solid dynamic all var is_solid    # Must be dynamic to update
dynamic group solid defined

# do clustering
compute cluster solid cluster/atom 1.3 # Create a cluster where all atoms within are solid and max 1.3 units from another member

# define chunks one chunk per cluster
compute clus_chunks solid chunk/atom c_cluster nchunk every compress yes  # Says which atoms are in which chunk

# count the size of each chunk
compute size_chunks solid property/chunk clus_chunks count


# Find the maximum entry in the vector of chunk sizes
variable max_n equal max(c_size_chunks)


# Thermo style which includes this variable
# thermo_style custom step temp pe vol v_max_n

thermo ${N}  # Print the thermo information every 100 steps
thermo 1000  

# Reset the npt fix at a lower temperature (below freezing)
fix 1  all npt temp  ${temp} ${temp}  0.1  iso  5.68  5.68  0.5  mtk yes tchain  5  pchain  5
fix 1  all npt temp  0.45 ${temp}  0.1  iso  5.68  5.68  0.5  mtk yes tchain  5  pchain  5
fix 1  all npt temp  0.45 0.45  0.1  iso  5.68  5.68  0.5  mtk yes tchain  5  pchain  5

dump dmp2 all dcd ${N} traj.dcd
dump dmp2 all dcd 1000 traj.dcd


compute msd all msd com yes
variable twopoint equal c_msd[4]/6/(step*dt+1.0e-6)
fix 9 all vector 10 c_msd[4]
variable fit equal slope(f_9)/6/(10*dt)
thermo_style custom step temp pe c_msd[4] v_twopoint v_fit v_max_n

fix 1 all npt temp 1.25 ${temp} 0.1 iso 5.68 5.68 0.5 mtk yes tchain 5 pchain 5
fix 1 all npt temp 1.25 0.45 0.1 iso 5.68 5.68 0.5 mtk yes tchain 5 pchain 5
run 2000000 # 5000000  # Run for this many steps
Neighbor list info ...
  update every 1 steps, delay 10 steps, check yes
  max neighbors/atom: 2000, page size: 100000
  master list distance cutoff = 3.8
  ghost atom cutoff = 3.8
  binsize = 1.9, bins = 8 8 8
  4 neighbor lists, perpetual/occasional/extra = 1 3 0
  (1) pair lj/cut, perpetual
      attributes: half, newton on
      pair build: half/bin/atomonly/newton
      stencil: half/bin/3d
      bin: standard
  (2) compute orientorder/atom, occasional
      attributes: full, newton on
      pair build: full/bin/atomonly
      stencil: full/bin/3d
      bin: standard
  (3) compute coord/atom, occasional
      attributes: full, newton on
      pair build: full/bin/atomonly
      stencil: full/bin/3d
      bin: standard
  (4) compute cluster/atom, occasional
      attributes: full, newton on
      pair build: full/bin/atomonly
      stencil: full/bin/3d
      bin: standard
Per MPI rank memory allocation (min/avg/max) = 9.843 | 9.849 | 9.854 Mbytes
Step Temp PotEng c_msd[4] v_twopoint v_fit v_max_n 
   12000    1.2252619   -5.4814344 1.8380459e-30 1.2764207e-32 8.3333333e+20            2 
   13000    1.2383367    -5.490723   0.62451069 0.0040032735  0.052046057            3 
   14000    1.2443725   -5.5146225    1.2288637 0.0073146648   0.05093952            1 
   15000    1.2443135    -5.486915    1.8309658  0.010172032  0.050463647            3 
   16000     1.245256   -5.4710682    2.4446591  0.012732599   0.05026171            2 
   17000    1.2567866   -5.5427486     3.084113    0.0151182  0.050673816            2 
   18000    1.2833605   -5.5332159     3.793236  0.017561277  0.051587611            1 
   19000    1.2570395   -5.5379715    4.3771407  0.019197985  0.052161154            2 
   20000    1.2229136   -5.4925062    5.0258259  0.020940941  0.052252627            4 
   21000    1.2368437   -5.5244605    5.6034187  0.022235788  0.052325498            2 
   22000      1.24584   -5.5217805    6.2498131  0.023673534   0.05234193            3 
   23000     1.279734   -5.5119101    6.9267937  0.025097078  0.052502644            3 
   24000     1.261798   -5.5286229     7.649923  0.026562232  0.052751796            2 
   25000    1.2432634   -5.4973096    8.2523977  0.027507992  0.053030499            3 
   26000    1.2578229   -5.5391402    8.7807517  0.028143435  0.053056078            3 
   27000    1.2469689   -5.5196733    9.3913504  0.028985649  0.052939995            2 
   28000    1.2633596   -5.5258565    10.203415  0.030367307  0.053023095            8 
   29000    1.2514584   -5.5236321    10.871534  0.031240041  0.053132981            2 
   30000    1.2531175   -5.5510142    11.448403   0.03180112  0.053183595            4 
   31000     1.255046   -5.5278476     12.06347  0.032428681  0.053191924            2 
   32000    1.2684247   -5.5226031    12.824594   0.03339738  0.053229907            5 
   33000    1.2443248   -5.4821088    13.542496  0.034198221  0.053418357            1 
   34000     1.251953   -5.5220076    14.243835  0.034911361  0.053647044            5 
   35000    1.2245175   -5.5430777    14.655237  0.034893421  0.053700467            8 
   36000    1.2449373   -5.5319205    15.406248   0.03566261  0.053690853            2 
   37000    1.2180802   -5.5129463    16.045999  0.036139637   0.05370537            2 
   38000    1.2361373   -5.5633663    16.562752  0.036321825  0.053663614            3 
   39000    1.2391268   -5.5480619    17.233373  0.036823447  0.053616805            2 
   40000    1.2350863   -5.5107268     17.94013  0.037375271  0.053620743            1 
   41000     1.227281   -5.5163705    18.660977  0.037928814  0.053660859            2 
   42000    1.2497572   -5.5424202    19.266806   0.03822779  0.053729798            1 
   43000    1.2199328   -5.5534795    19.902773  0.038571266  0.053740701            1 
   44000    1.2283672   -5.5790104    20.524555  0.038872263  0.053754562           10 
   45000    1.2291876   -5.5355959    21.369018  0.039572255  0.053806876            3 
   46000    1.2474197     -5.60921    21.994371  0.039844875  0.053856247            2 
   47000    1.2065979   -5.5194208    22.724886   0.04029235  0.053924437            3 
   48000    1.2254794    -5.526015    23.333983  0.040510386  0.054006725            2 
   49000     1.256549   -5.5289088    24.035529  0.040876749  0.054080291            2 
   50000    1.2227487   -5.5489812    24.577242   0.04096207  0.054168324            2 
   51000    1.2326471    -5.550086    25.192091  0.041163547  0.054187189            2 
   52000    1.2149006   -5.5359765    26.059576   0.04176214  0.054232933            3 
   53000    1.2113966   -5.5472972    26.854237  0.042223642  0.054317614            3 
   54000    1.2263147   -5.5441366    27.551959  0.042518455  0.054420357            2 
   55000    1.2281257    -5.513176    28.249398  0.042802117  0.054521983            2 
   56000    1.2327562   -5.5228469    28.636115  0.042613266   0.05457444            2 
   57000    1.2055378   -5.5782151    29.155224  0.042624596  0.054578019            1 
   58000    1.2336691   -5.5750887    29.612863  0.042547217  0.054548397            3 
   59000     1.273721   -5.5672701    30.352773  0.042871147  0.054505221            2 
   60000    1.2295045   -5.5378389    30.983402  0.043032503  0.054477367            2 
   61000    1.2426089   -5.5948641    31.677547  0.043275337  0.054454055            3 
   62000    1.2283644   -5.5596702    32.308167  0.043424956  0.054442812            3 
   63000    1.2212507   -5.5256453    33.150853  0.043850334  0.054444488            1 
   64000    1.2426528   -5.5665469    33.703827  0.043885191  0.054434843            2 
   65000    1.2533041   -5.5507155    34.153248  0.043786216  0.054412316            3 
   66000     1.215737   -5.5155682    34.616292  0.043707439  0.054341195            2 
   67000    1.2026826   -5.5830175    35.185255  0.043762755  0.054264397            4 
   68000    1.2232985   -5.5617344    35.692286  0.043740547  0.054190853            2 
   69000    1.2211589   -5.5392916    36.367213  0.043921755  0.054103769            2 
   70000    1.2418447   -5.5381216    36.892678  0.043919855  0.054021375            3 
   71000     1.223127   -5.5377837    37.334978  0.043820396  0.053920342            1 
   72000    1.2272803   -5.5554583    37.881905  0.043844797  0.053812033            5 
   73000    1.1939436   -5.5530865     38.52306  0.043976095  0.053699877            3 
   74000    1.2052083   -5.5943126    39.057768  0.043983972  0.053598352            2 
   75000    1.2214076   -5.5522268    39.515091  0.043905656  0.053490869            2 
   76000    1.2264888   -5.5580823    40.045548  0.043909592  0.053386081            6 
   77000    1.2306018   -5.5384101    40.779305  0.044133446  0.053270959            3 
   78000    1.2284495   -5.6180633    41.190403  0.044006841  0.053159219            5 
   79000    1.2316377   -5.5588889      41.9815  0.044284283  0.053064234            2 
   80000    1.2178538   -5.5996174    42.276897  0.044038434  0.052969579            1 
   81000    1.2172459   -5.6017323    42.878735  0.044113925  0.052867758            3 
   82000    1.2165177   -5.6057172    43.746904  0.044458235  0.052766807            4 
   83000    1.2260855   -5.6160814     44.09314  0.044270221  0.052679269            2 
   84000    1.2190699   -5.6216195    44.747339  0.044392202  0.052602486            2 
   85000    1.2063931   -5.5965579    45.412624   0.04452218  0.052525108            3 
   86000    1.1727325   -5.5704255    46.179194  0.044747281  0.052455235            2 
   87000    1.2240268   -5.5713009    46.496056  0.044536451  0.052375056            3 
   88000    1.2137958   -5.5470934    47.135529  0.044635918  0.052287171            4 
   89000    1.2123866     -5.56346      47.6064   0.04457528   0.05221205            2 
   90000     1.186388   -5.5591564    47.892566  0.044344968    0.0521216            2 
   91000     1.219882   -5.6073317    48.651002    0.0445522  0.052039712            1 
   92000    1.2448906   -5.5715856    49.178507  0.044545749  0.051959508            2 
   93000    1.2151705   -5.5690236    49.919188  0.044730455  0.051883754            1 
   94000    1.2229559   -5.5954258    50.199189  0.044502827  0.051806368            3 
   95000    1.2153935   -5.5777671     51.15222  0.044870368  0.051732613            2 
   96000    1.1951099   -5.5520236    51.584338  0.044778071  0.051649197            1 
   97000    1.1989212   -5.5731578    51.913291  0.044599047  0.051569811            3 
   98000    1.2345315    -5.571828    52.599194  0.044727206  0.051483814            1 
   99000    1.2156932   -5.5334895    53.276839  0.044845824  0.051409237            2 
  100000    1.2414548   -5.5744891    53.674939  0.044729116  0.051343854            2 
  101000    1.2119267   -5.5574769     54.51975  0.044983292  0.051281713            2 
  102000    1.1851966   -5.5374705    55.000388  0.044934957  0.051211314            2 
  103000    1.2282215   -5.6008253    55.565166  0.044955636  0.051145078            2 
  104000    1.1963786   -5.5986157    55.973893  0.044850876  0.051083497            2 
  105000    1.2161345   -5.6537275    56.772899  0.045057856  0.051027746            2 
  106000    1.2074167   -5.5794587     57.47148  0.045181981  0.050967461            2 
  107000    1.1893369   -5.6001709     57.88216  0.045079564  0.050915314            4 
  108000     1.193953   -5.5694891    58.663377  0.045264951  0.050870041            2 
  109000    1.2269867   -5.6205787    59.397565  0.045410982  0.050831088            4 
  110000    1.2099338   -5.5737135    59.741317  0.045258574  0.050790675            3 
  111000    1.2074603    -5.590931    60.314281  0.045280992  0.050744491            2 
  112000    1.2008233   -5.5690616    61.254174  0.045576022  0.050709759            2 
  113000    1.1899112     -5.59958    61.774971  0.045556763   0.05067912            3 
  114000    1.2124666   -5.6330281    62.169851  0.045445798  0.050649523            5 
  115000    1.2109621   -5.5824046    62.950242  0.045616117  0.050614939            4 
  116000    1.2296492   -5.5973438    63.107691  0.045335984  0.050586074            3 
  117000    1.2132105   -5.5945904    63.944971  0.045544851  0.050545904            2 
  118000    1.1766143   -5.5844566    64.543513  0.045581577  0.050506738            2 
  119000    1.1977677   -5.5561692    64.773541  0.045359623  0.050462318            2 
  120000    1.2182615   -5.6083016    64.813531  0.045009396  0.050410192            3 
  121000    1.2073818    -5.588551    65.580798  0.045165839  0.050351397            2 
  122000    1.1948377   -5.6219926    65.617955  0.044821007  0.050282468            2 
  123000    1.1946481   -5.5668227     66.41243  0.044994871  0.050215279            2 
  124000    1.2154653   -5.6096223     66.75289  0.044860813  0.050150117            6 
  125000    1.1957294   -5.6001572    67.661611  0.045107741  0.050088895            4 
  126000    1.1908538   -5.5661566    68.184547  0.045095599  0.050028513            5 
  127000    1.2225938    -5.612397     68.39267   0.04487708  0.049966114            2 
  128000    1.1878419   -5.5808316    69.350946  0.045150356  0.049908241            6 
  129000    1.2067421   -5.5858477    69.494473   0.04489307  0.049852116            3 
  130000    1.1914712    -5.621698    69.615508  0.044625326  0.049785659            3 
  131000    1.1966459   -5.5734517     70.28838   0.04471271  0.049716135            1 
  132000    1.1780275   -5.5885504    70.625403  0.044586744  0.049637794            1 
  133000    1.2042225   -5.5570644    71.115378  0.044558507  0.049561571            2 
  134000    1.2193331   -5.6326586    71.613055  0.044535482  0.049484433            2 
  135000     1.230084   -5.6029349     72.14973   0.04453687  0.049413469            2 
  136000     1.207665   -5.6095344    72.808617  0.044613123  0.049341796            5 
  137000    1.1901354   -5.6007117    73.352858  0.044618527  0.049272124            2 
  138000    1.1813488   -5.6248101    73.891018   0.04462018  0.049210867            2 
  139000    1.2108855   -5.5828633    74.733156   0.04480405  0.049148501            1 
  140000    1.1973501   -5.6234039    75.086848  0.044694552  0.049091833            1 
  141000    1.2228782   -5.6381555    75.496875  0.044619903  0.049035787            1 
  142000    1.2068254   -5.6136062    76.016432  0.044610582   0.04898016            2 
  143000    1.1853501   -5.5922713    76.748617  0.044725301  0.048921852            3 
  144000    1.2055469   -5.5963415    77.350788  0.044763187   0.04886722            1 
  145000    1.2071885   -5.5721179    77.768619  0.044694608  0.048807837            3 
  146000    1.2009228   -5.6483271    78.088675  0.044571162  0.048747814            3 
  147000    1.1936315   -5.6292207    78.500154  0.044501221  0.048688061            2 
  148000      1.20052   -5.6317958    79.264027  0.044630645   0.04863225            1 
  149000    1.2005155   -5.6242935    79.198426  0.044294421   0.04857659            4 
  150000    1.1936629   -5.6148603    80.256088  0.044586715  0.048522118            2 
  151000     1.168278   -5.6114427    81.231044  0.044829494  0.048476609            1 
  152000    1.2027034    -5.597632    82.035926  0.044975836  0.048439675            6 
  153000    1.1903854   -5.6203586    82.327007  0.044840418  0.048402185            2 
  154000    1.2039256   -5.6220839    82.940717   0.04488134  0.048365757            3 
  155000    1.2033027   -5.6300318    83.053868  0.044652617  0.048323404            3 
  156000    1.1755592    -5.578881    83.886833  0.044811342  0.048279156            2 
  157000    1.2118804   -5.6473858    83.668082   0.04440981  0.048226928            4 
  158000    1.1932148   -5.6474755    84.417764  0.044524137  0.048172671            2 
  159000    1.2058757   -5.6435594    84.613381  0.044346636  0.048119764            5 
  160000    1.1446969    -5.618677     85.49883   0.04453064   0.04806817            4 
  161000    1.1754785   -5.6409846    85.808196   0.04441418  0.048019053            3 
  162000    1.1924154   -5.6407006    86.397287  0.044443049  0.047972462            2 
  163000    1.1874994   -5.6441883    87.167604  0.044564215  0.047926622            4 
  164000    1.1821972     -5.61078    87.885688  0.044657362  0.047889726            2 
  165000    1.2021637   -5.6679628    88.506171  0.044700086  0.047859207            2 
  166000    1.1921617   -5.6470427    88.793659   0.04457513  0.047825644            6 
  167000    1.1884346   -5.6148954    89.751343  0.044786099  0.047792898            1 
  168000    1.1876992   -5.6393317    90.477144  0.044879536  0.047765359            3 
  169000    1.1865334   -5.6549064     90.34434  0.044548491  0.047733687            2 
  170000    1.1538703   -5.6735138    91.046056   0.04463042  0.047697832            2 
  171000    1.2112419   -5.6119451    91.831383  0.044752136  0.047663091            2 
  172000    1.1986767     -5.68476    91.792957  0.044473332  0.047627204            1 
  173000    1.1867045   -5.6830782    92.625165  0.044617131    0.0475933            2 
  174000    1.1847482   -5.6567755    93.434871  0.044748501   0.04756162            2 
  175000    1.1766159   -5.5952462    94.099508  0.044809289  0.047531752            3 
  176000    1.1852047   -5.6285676    94.740138   0.04485802  0.047507632            4 
  177000    1.1697449   -5.6285324    95.246337  0.044842908  0.047484818            3 
  178000    1.1884491   -5.6546079    96.010036  0.044948519  0.047460063            1 
  179000    1.1658634     -5.64877    96.783238  0.045057373  0.047437312            2 
  180000    1.1704229   -5.6432969    97.198376  0.044999248  0.047418999            2 
  181000    1.2097935   -5.6584171    97.544613  0.044910043  0.047398664            1 
  182000    1.1890081   -5.6579808    98.564984  0.045130487  0.047379512            3 
  183000    1.1967112   -5.6182511    98.716725  0.044952971   0.04736454            2 
  184000    1.1684272   -5.6333144    98.927652   0.04480419  0.047346461            5 
  185000    1.1503519   -5.6865761     100.2869  0.045174278  0.047331668            1 
  186000    1.1778388   -5.6547603     101.0314  0.045264962  0.047320302            1 
  187000    1.1784526   -5.6683696    101.17633   0.04508749  0.047312133            2 
  188000    1.1952983    -5.648566    101.99855  0.045212125  0.047303927            3 
  189000    1.2109887   -5.6553379    102.94705  0.045391115  0.047298379            2 
  190000    1.1770201   -5.6952919    103.02831  0.045187855  0.047292961            3 
  191000    1.1839304   -5.6836531    103.54685  0.045177508  0.047291181            2 
  192000    1.1634379   -5.6568309     104.7174  0.045450259  0.047288144            5 
  193000    1.1766593   -5.6546326    105.43408  0.045524216  0.047286939            1 
  194000    1.1491326   -5.6424711    105.79719  0.045445528  0.047283222            2 
  195000    1.1803225   -5.6500216    106.70207  0.045599173  0.047279408            3 
  196000    1.1763865   -5.7163056    106.43123  0.045251372  0.047274669            4 
  197000    1.1883842   -5.6925774    106.88715  0.045214529  0.047269301            2 
  198000    1.1736554   -5.6462921     108.1793   0.04553001  0.047263143            2 
  199000    1.1751328   -5.6879289    108.38934  0.045389171  0.047259004            4 
  200000    1.1700022   -5.6531519    109.03557  0.045431488  0.047253998            4 
  201000    1.1905977   -5.6755998    109.27816  0.045306035  0.047251223            3 
  202000    1.2108368   -5.6290733    110.49958  0.045585634  0.047247116           10 
  203000    1.1579275   -5.7076826    110.54785  0.045380892  0.047242819            2 
  204000     1.166717   -5.6673938    111.15529  0.045406573  0.047234153            3 
  205000    1.1499668   -5.6201867    111.61511  0.045371996  0.047224238            1 
  206000    1.2046532    -5.669317    112.13112  0.045360484  0.047216627            2 
  207000    1.1804137    -5.667693    112.15016  0.045149016  0.047204737            2 
  208000    1.1812842   -5.6745806    112.67992  0.045144199  0.047192078            6 
  209000    1.1758705   -5.6475497    113.63175  0.045307714  0.047176709            3 
  210000    1.1451424   -5.6220798    114.16756  0.045304586  0.047162089            2 
  211000    1.1644411   -5.6940227    114.13825  0.045078299  0.047147954            2 
  212000    1.1586072   -5.7089639    114.77749  0.045116937   0.04713316            2 
  213000    1.1625026   -5.6844056    114.94267  0.044969744  0.047116429            9 
  214000    1.1532504   -5.6776099    115.25719  0.044882085  0.047098924            2 
  215000    1.1579996    -5.662702    116.39514  0.045114395  0.047080653            4 
  216000    1.1825351    -5.687957    116.56964  0.044972855  0.047059414            4 
  217000    1.1701776   -5.6620418    116.76052   0.04483891  0.047036788            1 
  218000    1.1654411   -5.6925106    116.96174  0.044710145  0.047012883            6 
  219000    1.1352952   -5.7066113    117.47997  0.044703185  0.046988623            8 
  220000    1.1712213   -5.6769407    118.12145  0.044742974  0.046962053            4 
  221000    1.1582911   -5.6974824    118.64445  0.044737728  0.046937095            2 
  222000    1.1749965   -5.6908633    118.99219  0.044666737  0.046912541            4 
  223000    1.1826361   -5.6908812    119.73978  0.044745806  0.046885416            7 
  224000    1.1778062   -5.7164989     119.4966  0.044455582  0.046859954            3 
  225000    1.1516874     -5.67843    120.49933   0.04462938  0.046833029            2 
  226000    1.1748719   -5.6660489    120.99445  0.044614473  0.046805316            2 
  227000    1.1588756   -5.6988853    121.67243  0.044666825  0.046780162            3 
  228000    1.1517067   -5.7106833    121.83944  0.044531959  0.046755921            3 
  229000    1.1681568   -5.6895033    122.80651  0.044689415  0.046733628            2 
  230000    1.1759342   -5.7184589    122.33581  0.044324567  0.046706126            2 
  231000    1.1713487   -5.7079991    122.70863  0.044267181  0.046676232            2 
  232000     1.144403   -5.7310206    122.65865  0.044058422  0.046644364            7 
  233000     1.170195   -5.6817267     123.7158  0.044247426  0.046612078            3 
  234000     1.178154   -5.6979438    124.38965  0.044298308  0.046582675            2 
  235000    1.1385332   -5.7031855    124.61556  0.044189914  0.046554149            3 
  236000     1.167176    -5.714996    125.29019  0.044240887  0.046525633            2 
  237000    1.1631122   -5.6871177    126.39851  0.044443922   0.04649927            7 
  238000    1.1541176   -5.7210776    126.73352  0.044374483  0.046473637            2 
  239000    1.1626302   -5.7054766    127.24241   0.04436625   0.04644854            2 
  240000    1.1738813   -5.7139798    127.42925  0.044246267  0.046420777            3 
  241000    1.1555005   -5.7206938    128.33034  0.044374254    0.0463941            2 
  242000    1.1842963    -5.719012    128.90409  0.044388462  0.046367623            3 
  243000    1.1692906   -5.7182009    128.78549  0.044165119  0.046342972            3 
  244000    1.1644568   -5.7359353    129.08774  0.044087342  0.046315985            6 
  245000    1.1546429   -5.7019908    130.03801  0.044230616  0.046288056            2 
  246000    1.1815865   -5.7294874     130.4826  0.044201424  0.046261314            2 
  247000    1.1593851   -5.6895992    131.12568  0.044239434  0.046234866            2 
  248000    1.1355986   -5.7428018     131.3738  0.044144422  0.046210041            3 
  249000    1.1276214   -5.7313599    132.10838  0.044212977  0.046185264            3 
  250000     1.155473   -5.7345725    132.76772  0.044255908   0.04615997            2 
  251000    1.1659643   -5.7554884    132.51384  0.043995298  0.046135834            2 
  252000    1.1352951   -5.7169429    133.60573  0.044181788  0.046109779            5 
  253000    1.1400557    -5.704038    134.74122  0.044381165  0.046084937            1 
  254000    1.1628205    -5.732341    134.42527  0.044102779  0.046063663            3 
  255000    1.1475307   -5.6640545    135.60948  0.044316823  0.046043369            1 
  256000    1.1337939   -5.7121468    136.11396   0.04430793  0.046021505            6 
  257000    1.1586971   -5.6491638    137.48156  0.044578974  0.046001294            2 
  258000    1.1403649   -5.6965985    137.31959  0.044353871  0.045983148            3 
  259000     1.133069   -5.7311902    137.44535  0.044223085   0.04596511            4 
  260000    1.1420316   -5.7017784    138.08721  0.044258722   0.04594514            7 
  261000    1.1317265   -5.7192665    138.75501  0.044302367  0.045927909            3 
  262000    1.1396951   -5.7164508    139.70162  0.044434356  0.045911564            5 
  263000    1.1514178   -5.7594469    140.05646   0.04437784  0.045895799            2 
  264000     1.163199   -5.7131136    140.87153  0.044467022  0.045881534            2 
  265000    1.1454242   -5.7157941    141.40592  0.044467271  0.045866097            4 
  266000    1.1624096   -5.7055675    142.33423  0.044590924  0.045851908            3 
  267000    1.1687301   -5.7630412    141.57625  0.044187343  0.045833686            2 
  268000    1.1547375   -5.7249218    142.46223  0.044297956  0.045813311            2 
  269000    1.1357879   -5.7241905    142.88427  0.044264024  0.045792867            4 
  270000    1.1641311   -5.7327427    142.97793  0.044128991  0.045773737            5 
  271000     1.152157   -5.7754234    143.03619  0.043984069  0.045755791            2 
  272000    1.1460197   -5.7492335     144.4142  0.044244547  0.045736738            2 
  273000    1.1239397     -5.72226    145.20213  0.044322995  0.045719213            3 
  274000    1.1369879   -5.7129688    145.92831  0.044382091  0.045705679            4 
  275000    1.1509127   -5.7142193    146.52117  0.044400353  0.045690058            2 
  276000    1.1341878   -5.7483748    146.76714  0.044313749  0.045675853            4 
  277000     1.141494   -5.7399941    147.53467  0.044384678  0.045662612            2 
  278000    1.1357548   -5.7276874    147.87269  0.044326347  0.045649126            2 
  279000    1.1492931    -5.724896    148.32112  0.044301411   0.04563635            3 
  280000    1.1647674   -5.7506823    148.99549  0.044343896  0.045621453            2 
  281000    1.1273625   -5.7002006    149.68806  0.044391476  0.045609876            1 
  282000    1.1557231   -5.7294406     150.0456  0.044339715  0.045595754            4 
  283000    1.1270961   -5.8058629    149.64771  0.044065873  0.045579295            2 
  284000    1.1206119   -5.7319232    150.47734  0.044154148  0.045562156            1 
  285000     1.166353   -5.7474121    151.17295  0.044202616  0.045544452            3 
  286000    1.1244955   -5.7628725    150.86137  0.043957276  0.045528168            3 
  287000    1.1291869   -5.7266877     151.5266  0.043997272  0.045509177            2 
  288000    1.1265658   -5.7602456    151.81093  0.043926772  0.045488346            3 
  289000    1.1348165   -5.7620573    151.56637  0.043704259  0.045467915            5 
  290000     1.126218   -5.7636567    153.31586  0.044056282  0.045446725            3 
  291000    1.1469644    -5.705983    154.08605  0.044125444  0.045428358            2 
  292000    1.1512203   -5.7350881    154.34604  0.044048529  0.045409722            7 
  293000    1.1580329   -5.7459628    154.85921  0.044044143  0.045392381            1 
  294000    1.1063426   -5.7626215    154.66738  0.043839959  0.045372071            2 
  295000    1.1205977   -5.7540947    155.85258  0.044026153  0.045352967            3 
  296000    1.1242016   -5.7049503    156.31114  0.044006514  0.045334371            2 
  297000    1.1410064   -5.7499634    155.95688  0.043758944  0.045313425            4 
  298000    1.1033298   -5.7933623    155.45371  0.043471394  0.045290021            4 
  299000    1.1387677   -5.7666293    156.46424  0.043607646  0.045264766            2 
  300000    1.1378253   -5.7643509    156.60808  0.043502244  0.045239388            3 
  301000    1.1328731   -5.7382498    157.49595   0.04360353  0.045217273            3 
  302000    1.1344806   -5.7448578    158.31083  0.043684004  0.045195919            2 
  303000    1.1167613   -5.7752292    158.80578  0.043675956  0.045174249            3 
  304000    1.1572139   -5.7327935     159.6368  0.043760087  0.045154144            3 
  305000    1.1224345   -5.7825868    159.82152  0.043667083  0.045135223            7 
  306000    1.1389628   -5.7558593     160.4461  0.043694471  0.045115841            4 
  307000    1.1157279   -5.7663032    160.98153  0.043697485  0.045095311            2 
  308000    1.1171019   -5.7828584    161.15408  0.043602294  0.045076048            4 
  309000    1.1214267   -5.7499577    162.32892  0.043778025  0.045058469            3 
  310000    1.1322216   -5.7666557    162.60809  0.043711851  0.045039617            2 
  311000    1.1068065    -5.767869    162.54116  0.043553367  0.045021315            2 
  312000    1.1241189   -5.7243191    163.43024  0.043651238  0.045001162            2 
  313000    1.1725285   -5.7601787      163.975  0.043656817  0.044983708            3 
  314000    1.1551404   -5.7810177    164.18616  0.043573821  0.044965071            3 
  315000    1.0905618   -5.7786667    165.02481  0.043657357  0.044946507            4 
  316000    1.1338725   -5.7295112    165.92888  0.043757616  0.044927491            3 
  317000    1.1229479   -5.7640457    165.81655  0.043590049  0.044908063            4 
  318000    1.1088231   -5.7659918    166.53068  0.043640115  0.044890285            4 
  319000     1.128523   -5.7924504    167.00954  0.043628407  0.044871748            2 
  320000    1.1201517   -5.7700758    167.32268  0.043573614  0.044851906            2 
  321000    1.1146007   -5.7790469    167.76028  0.043551475  0.044833703            6 
  322000    1.1318959   -5.8162689    167.77197  0.043419246   0.04481301            2 
  323000    1.1282131   -5.7632126      168.628  0.043505675   0.04479122            3 
  324000    1.1185034    -5.801465    168.69252  0.043387993  0.044768508            2 
  325000    1.1462242   -5.8155119    169.80283  0.043539188  0.044748827            8 
  326000    1.1375217   -5.7812042    169.74618  0.043391149  0.044731424            3 
  327000    1.1414727    -5.747431    170.80191    0.0435275  0.044713204            3 
  328000    1.1346386    -5.756551    170.73387  0.043377508  0.044693172            2 
  329000    1.1051177   -5.7551256    171.24185  0.043374329  0.044673829            3 
  330000     1.108876   -5.8241236    170.84206  0.043141934  0.044651633            3 
  331000    1.1283412   -5.7795538    172.34646  0.043390347  0.044631142            3 
  332000    1.1343525   -5.7705223    171.69901  0.043097141  0.044608536            3 
  333000    1.1204243   -5.7715625    172.81589   0.04324722  0.044584858            4 
  334000    1.1151463   -5.8024244    172.65766  0.043078258  0.044561501            4 
  335000    1.1131243   -5.7944051    173.43237  0.043142382  0.044536975            6 
  336000    1.1042874   -5.7989441    173.72719  0.043087101  0.044513221            3 
  337000    1.1186578   -5.7949921    174.08477  0.043047667  0.044490087            3 
  338000    1.1142536   -5.8096505    174.26395  0.042964485  0.044466242            3 
  339000    1.1122131   -5.7822212    175.09398  0.043041785  0.044440731            4 
  340000     1.122525   -5.8185219    174.83345  0.042851337  0.044415957            2 
  341000    1.1187996   -5.7865737    175.51861  0.042893111  0.044391908            4 
  342000    1.1384739   -5.7850041    175.91042  0.042863162  0.044368313            2 
  343000    1.0980315   -5.7703429    176.80612  0.042955811  0.044343082            3 
  344000    1.1286919   -5.8274783    176.70146  0.042805586  0.044318889            3 
  345000    1.1093669   -5.7818839    177.12436  0.042783661  0.044293313            7 
  346000    1.1200923   -5.8184202     177.2042  0.042679239  0.044266468            3 
  347000    1.0922335   -5.8090299    177.42768  0.042609914  0.044240858            3 
  348000    1.1005762   -5.8005671    178.41604  0.042724147  0.044215089            2 
  349000    1.1297806   -5.8408953    178.56836    0.0426381  0.044188401            2 
  350000    1.1305924   -5.7898649     178.7098  0.042549951   0.04416057            4 
  351000    1.0950611   -5.7742026    179.18146  0.042540707  0.044133053            4 
  352000     1.109037   -5.7705016    180.16593  0.042652919  0.044104871            1 
  353000    1.1343098   -5.7921018    180.35799  0.042577429  0.044078882            3 
  354000    1.1278105   -5.7915917    180.52852  0.042497298  0.044051406            4 
  355000    1.1262891   -5.7869406    181.00529  0.042489505  0.044023569            3 
  356000    1.1209277   -5.8310031    180.96832  0.042361499  0.043995119            3 
  357000    1.1159433   -5.8188775    181.31116  0.042322867  0.043967012            2 
  358000    1.1237071   -5.7894396    181.80593  0.042319815  0.043936609            2 
  359000    1.1319475   -5.8338199    181.93378  0.042231611  0.043906239            2 
  360000    1.1176918   -5.8020507    182.96254   0.04235244  0.043877911            2 
  361000    1.1451275   -5.7639153    183.15565  0.042279698  0.043850251            2 
  362000    1.1121986   -5.7904879    184.10606   0.04238169   0.04382252            4 
  363000    1.1154474   -5.7765637    184.54057  0.042364686  0.043795593            2 
  364000    1.1017788   -5.7662651    185.35634  0.042435059  0.043768642            4 
  365000    1.1223122   -5.8016848    185.11291  0.042263222  0.043741748            3 
  366000    1.1157365   -5.7741294    185.38471  0.042209633  0.043715283            2 
  367000    1.1331669   -5.7723434    186.19668  0.042278992  0.043687106            3 
  368000    1.1047429   -5.8110594      185.977  0.042114357   0.04365801            5 
  369000    1.1018207   -5.7909067    186.25553  0.042063127  0.043628551            2 
  370000    1.1043874   -5.8099646    186.30277  0.041960084   0.04359871            3 
  371000    1.1046438   -5.7916501    187.15131  0.042037581  0.043568057            3 
  372000    1.0737952   -5.8093197    187.42393  0.041985648  0.043538252            2 
  373000    1.1082149   -5.7791318    187.79816  0.041956694  0.043508477            2 
  374000     1.098342   -5.7930249    188.36679  0.041971211  0.043478111            2 
  375000    1.1045022   -5.8232504    187.96328  0.041769618  0.043447804            3 
  376000    1.1200438   -5.8252442    188.43655  0.041763419  0.043416409            4 
  377000    1.1028617   -5.8375624    189.14472  0.041809177    0.0433845            2 
  378000    1.0903326   -5.8315078    188.98335  0.041662996  0.043353149            3 
  379000    1.0855962   -5.7854304    189.89709  0.041753978   0.04332203            6 
  380000     1.083736   -5.8254913    190.58211  0.041794322  0.043291464            1 
  381000    1.0985559   -5.8036459    190.81893  0.041736424   0.04326047            2 
  382000    1.0775151   -5.8200714    190.16425  0.041484347  0.043229421            4 
  383000    1.1006429   -5.8358399    191.29329  0.041621692  0.043198234            3 
  384000    1.0907697   -5.8106324    191.47598  0.041552947  0.043166166            2 
  385000    1.0922473   -5.8178832    191.43259  0.041435627  0.043134548            3 
  386000    1.1076831   -5.8116833    191.73708  0.041394016  0.043101696            6 
  387000    1.1109226   -5.8694187    191.77975  0.041296242  0.043069431            2 
  388000    1.0574101   -5.8193529    192.92654  0.041436112  0.043037395            9 
  389000    1.0888458   -5.8373326    192.41024  0.041218989  0.043004237            4 
  390000    1.1050661   -5.8580913    193.01827   0.04124322  0.042970895            5 
  391000    1.1069449   -5.8321438    193.95223  0.041336792  0.042937779            6 
  392000    1.1129677   -5.8176386    194.33389  0.041312478  0.042906041            3 
  393000    1.1144915   -5.8212796    194.30456  0.041201137  0.042872922            3 
  394000    1.1111874   -5.8443669    194.39937  0.041116619  0.042838516            4 
  395000    1.1199826   -5.8540663      193.625  0.040849157  0.042804141            3 
  396000    1.0745706   -5.8562608    194.57673  0.040946281  0.042770379            6 
  397000    1.0875925   -5.8320918    195.65299  0.041069058  0.042735672            7 
  398000    1.0899716   -5.7920489    196.76181  0.041198034  0.042703559            2 
  399000    1.0894013   -5.8261925    195.90753   0.04091636  0.042670392            5 
  400000    1.1035877   -5.8906617    195.96779  0.040826623  0.042635318            2 
  401000    1.0972014   -5.8226355    196.99513  0.040938305  0.042601349            3 
  402000     1.103844   -5.8149641    197.69174  0.040980874  0.042568317            4 
  403000    1.0934643   -5.8619872    198.28389  0.041001632   0.04253565            2 
  404000     1.100624    -5.819675    198.76052  0.040998456  0.042503921            2 
  405000    1.0944995   -5.8222886    198.26165  0.040794578  0.042471717            4 
  406000    1.0993211   -5.8165632    199.93972  0.041038531  0.042441183            5 
  407000    1.0940583   -5.8464916    199.92964  0.040935635  0.042409578            2 
  408000     1.087804   -5.8746259    199.89072  0.040827352  0.042379175            2 
  409000    1.0933097   -5.8942031     200.3856  0.040828363   0.04234704            4 
  410000    1.0818609   -5.8218758    201.88991  0.041034534  0.042316595            5 
  411000    1.0940372   -5.8110331    202.16482  0.040990433  0.042285756            3 
  412000    1.1014907   -5.8533917    201.64999   0.04078681  0.042255188            4 
  413000    1.0975144   -5.8549905    202.32126  0.040823498  0.042225401            3 
  414000    1.1125278   -5.8527664    203.32638  0.040927211  0.042195648            2 
  415000    1.0853743   -5.8479023      203.109   0.04078494  0.042166741            4 
  416000    1.0948623   -5.8291103     203.2689  0.040718931  0.042137648            3 
  417000    1.0714255    -5.858813     203.9606  0.040759511  0.042109692            4 
  418000     1.067878   -5.8155913    205.83395  0.041035476  0.042081619           10 
  419000    1.0927809   -5.8759971    204.12409  0.040597472  0.042051777            4 
  420000    1.1034266   -5.9159326    204.66968  0.040609063  0.042022262            6 
  421000     1.068439   -5.8601843    205.29483  0.040636347  0.041991698            4 
  422000    1.0869698   -5.8667868    205.71713  0.040623445  0.041961592            4 
  423000    1.0875382   -5.8764374    205.65381  0.040514935  0.041931659            4 
  424000    1.0611391    -5.865818    206.44758  0.040575389  0.041903202            4 
  425000    1.0909988   -5.8703684    206.66394  0.040522342  0.041874419            4 
  426000     1.081191   -5.8750181    207.58484  0.040607363   0.04184562            4 
  427000    1.0982927   -5.8877619    208.47534  0.040686054  0.041818052            2 
  428000    1.0937066   -5.8872034    208.37734  0.040571913   0.04178935            3 
  429000    1.0519928   -5.8308572    209.33688  0.040663729  0.041761368            2 
  430000    1.0760803   -5.8661226    209.09005  0.040521327  0.041734031            3 
  431000    1.0702636    -5.905296    209.55787  0.040517763  0.041705643            4 
  432000    1.0871196   -5.8577301     209.6231  0.040436555  0.041676948            2 
  433000    1.0841461   -5.9002266    210.22597  0.040459194   0.04164917            2 
  434000    1.0890679   -5.8614389    211.10428  0.040534615  0.041620967            2 
  435000    1.0960287   -5.8857055    209.75405  0.040182769  0.041592858            5 
  436000    1.0968983   -5.8694463    211.31691  0.040389318  0.041564048            2 
  437000    1.0982214    -5.868345    211.33956  0.040301214  0.041536182            2 
  438000    1.0750815   -5.8971965    211.06376  0.040156727  0.041506839            5 
  439000    1.0877105   -5.9057306    211.98952  0.040240988  0.041478238            3 
  440000    1.0723282   -5.8628222    212.84121  0.040310836  0.041450245            5 
  441000    1.0976644   -5.8953762    212.25191   0.04010807  0.041421044            2 
  442000    1.0939748   -5.8706371    213.48455  0.040249728  0.041392471            5 
  443000    1.1107394   -5.8939209    213.77662  0.040213811  0.041363943            3 
  444000    1.0794263   -5.8735177    214.38773  0.040237937  0.041334947            5 
  445000    1.0967826   -5.9064066    214.67042  0.040200453  0.041307176            8 
  446000    1.0706773   -5.8702492    214.99181  0.040170369  0.041278952            5 
  447000    1.0730666   -5.8969988    214.73707  0.040033011  0.041250531            4 
  448000    1.0626758   -5.8589578    216.01084  0.040180589  0.041222246            1 
  449000    1.0952716   -5.8905844    216.55118  0.040191385  0.041194022            2 
  450000    1.0739691     -5.88202    216.14249  0.040026388  0.041165528            2 
  451000    1.0679761   -5.8728906    216.77606  0.040054704  0.041137416            4 
  452000    1.0774916   -5.8656523    217.25495  0.040054379  0.041109437            2 
  453000    1.0867349   -5.8990037    217.58037  0.040025822  0.041081728            3 
  454000    1.0708564   -5.8957171    218.11303  0.040035432  0.041054485            5 
  455000    1.0689061   -5.8841966    218.44086  0.040007484  0.041026806            2 
  456000    1.0947614   -5.9163365    218.37464  0.039907646   0.04099863            4 
  457000    1.0574956   -5.9212595     218.6184  0.039864769  0.040970765            3 
  458000    1.0942782   -5.9001455    219.41914  0.039923424  0.040942829            2 
  459000    1.0543563   -5.9279498    219.10278  0.039779009   0.04091378            3 
  460000    1.0473721   -5.8823374     220.2038  0.039891993  0.040884839            2 
  461000    1.0836054   -5.8907307    220.36225  0.039834101  0.040857731            4 
  462000    1.0541929   -5.8864479    221.32794  0.039922066  0.040830537            4 
  463000    1.0808393   -5.8779569    221.34176  0.039838329   0.04080336            6 
  464000    1.0872947   -5.8877314    221.26811  0.039739243  0.040775572            5 
  465000    1.0697252   -5.8949531    221.56297  0.039706625   0.04074708            3 
  466000    1.0657533   -5.8659446    221.32257  0.039578428   0.04071892            2 
  467000    1.0756403   -5.8876785    221.81016  0.039580686  0.040689813            6 
  468000    1.0500824   -5.8825828    221.99723  0.039529421  0.040661409            2 
  469000    1.0747088   -5.9179458    222.48305  0.039531459  0.040632367            3 
  470000    1.0822159   -5.8974018    222.80746  0.039504869  0.040603771            5 
  471000    1.0740256   -5.9139399    222.78001  0.039416138  0.040575175            4 
  472000    1.0738133   -5.9442324     222.5375  0.039289814  0.040546964            2 
  473000    1.0457061   -5.8958698    224.84157   0.03961268  0.040519245            2 
  474000    1.0695762   -5.9181618    224.60363  0.039487277  0.040491393            3 
  475000    1.0687723   -5.9380986    223.47797  0.039206661  0.040463655            4 
  476000    1.0950512   -5.8909084    225.78853  0.039528804   0.04043633            4 
  477000    1.0624778    -5.904504    226.38873  0.039550792  0.040409758            4 
  478000    1.0587617   -5.9017282    225.90861  0.039384346  0.040383283            4 
  479000    1.0379812    -5.927295    227.16424   0.03952057  0.040357867            3 
  480000    1.0846228   -5.9463244    227.19979  0.039444409  0.040332814            4 
  481000    1.0525841   -5.9364292    227.21708  0.039365398  0.040306166            6 
  482000    1.0679258   -5.8922218    228.47879  0.039501866  0.040280044            3 
  483000    1.0673571   -5.9109711     228.4623  0.039417236   0.04025382            4 
  484000     1.090511   -5.9427099    227.62411  0.039191479  0.040228312            4 
  485000    1.0474351   -5.9044678    228.89649  0.039329294  0.040202308            3 
  486000    1.0498944   -5.9098578    228.85929  0.039241991  0.040176594            5 
  487000    1.0793328   -5.9418617    229.85661   0.03933207  0.040150541            8 
  488000    1.0631772   -5.9050946      230.552  0.039370219  0.040125248            4 
  489000    1.0392362   -5.9266797    230.68741  0.039312782  0.040100133           11 
  490000    1.0376287   -5.9332217    231.13891  0.039309339  0.040075731            5 
  491000    1.0619525   -5.9017762    232.33513  0.039432303  0.040051567            6 
  492000    1.0621843   -5.9115885    232.77942  0.039427408  0.040026754            4 
  493000    1.0822133   -5.9539737    232.15453  0.039241807   0.04000279            3 
  494000    1.0464603   -5.9450225    233.19044  0.039337119  0.039979431            2 
  495000    1.0682891   -5.9049295    234.58637  0.039492655    0.0399571            3 
  496000    1.0391076   -5.9426787     234.2392  0.039354705  0.039935391            6 
  497000    1.0569118   -5.9678971    234.55362  0.039328239  0.039912258            2 
  498000    1.0373246    -5.932432    235.10422  0.039341402  0.039889235            2 
  499000    1.0568612   -5.9380024    235.67293  0.039357536   0.03986709            2 
  500000    1.0383663   -5.9082455    235.95547  0.039325912  0.039844764            5 
  501000    1.0378691   -5.9537779    235.99102   0.03925333  0.039822821            3 
  502000    1.0304008   -5.9206296    236.72136  0.039296374  0.039800666            5 
  503000    1.0622807   -5.9466122      236.816  0.039233929  0.039778384            4 
  504000    1.0619954   -5.9479504    237.36555   0.03924695  0.039755654            5 
  505000     1.075608   -5.9317656     238.1622  0.039300694  0.039733364            4 
  506000    1.0571527   -5.9545448    237.22247  0.039068259  0.039711177            4 
  507000    1.0504478   -5.9550816    238.08163  0.039132418  0.039688745            2 
  508000    1.0558196   -5.9158142    239.16636  0.039233326  0.039666509            3 
  509000    1.0317499   -5.9348819    239.44149  0.039201291  0.039644924            4 
  510000    1.0692429     -5.94479    239.83101  0.039188074  0.039622646            3 
  511000    1.0701497   -5.9299737    240.53804  0.039226686  0.039601002            2 
  512000    1.0626356   -5.9527844    241.06341  0.039235582   0.03957951            4 
  513000    1.0288512   -5.9495671    240.12725  0.039007026  0.039557443            3 
  514000    1.0333905   -5.9339961    241.54537  0.039161052  0.039535644            3 
  515000    1.0501394   -5.9379781    241.13539  0.039018672  0.039514288            4 
  516000     1.056282   -5.9342465    241.92668  0.039070847  0.039493287            3 
  517000    1.0528737   -5.9612927    242.38645  0.039069382  0.039472493            4 
  518000    1.0405191   -5.9233742    242.59458  0.039027443   0.03945088            4 
  519000    1.0542975   -5.9463786     242.7822   0.03898237  0.039429433            2 
  520000    1.0697454   -5.9604986    242.26828  0.038825044  0.039408162            4 
  521000    1.0246409   -5.9483974    243.13296  0.038888829  0.039386238            4 
  522000    1.0249633   -5.9181693    243.72692   0.03890915  0.039364237            4 
  523000    1.0393598   -5.9432301    244.36853  0.038936987  0.039342719            3 
  524000    1.0321043   -5.9176765    245.30213  0.039011153  0.039321315            5 
  525000    1.0365825   -5.9666884    245.05991  0.038898398  0.039300236            4 
  526000    1.0487864   -5.9547151    245.33131  0.038867444  0.039278756            2 
  527000    1.0538793   -5.9390923    245.47416  0.038816282  0.039257346            4 
  528000    1.0447472   -5.9468868    246.63671  0.038926249  0.039236621            5 
  529000    1.0383117    -5.954731     247.6448  0.039011469  0.039216304            1 
  530000    1.0560713   -5.9842154    246.58911  0.038771872  0.039195877            6 
  531000    1.0287172   -5.9310097    247.46489  0.038836298  0.039175639            6 
  532000    1.0550814   -5.9710928    247.85571  0.038824515  0.039154708            5 
  533000    1.0301463   -5.9381167     247.7869  0.038740916  0.039134077            3 
  534000    1.0303283   -5.9466761    247.93679  0.038691759  0.039113084            2 
  535000    1.0265659   -5.9835799    247.89882  0.038613523  0.039092549            3 
  536000     1.043378   -5.9462887    249.03396  0.038717967  0.039072041            3 
  537000    1.0529957   -5.9355881    249.59304  0.038732626  0.039051529            4 
  538000    1.0430456   -5.9551853    250.60847  0.038817917   0.03903181            5 
  539000     1.045391   -5.9958712    250.38614  0.038711524  0.039011526            3 
  540000    1.0292848   -5.9599619    250.65208  0.038680876  0.038991795            2 
  541000    1.0162014    -5.942184    250.94574  0.038654612  0.038971463            2 
  542000    1.0326872   -5.9892975    250.93494  0.038581633  0.038951457            4 
  543000    1.0356356   -5.9859044     251.4006  0.038582044  0.038930547            5 
  544000    1.0522849   -5.9769759    251.48574  0.038524164  0.038910088            4 
  545000    1.0319182   -5.9801886     252.1434  0.038554036  0.038889401            5 
  546000    1.0459004   -5.9719216    252.45747   0.03853136  0.038868982            5 
  547000    1.0324199   -5.9648199    252.62516  0.038486466  0.038847993            2 
  548000    1.0484659    -5.999887    254.11522  0.038642825  0.038827256            8 
  549000     1.030033   -5.9739742    253.47737  0.038475618  0.038807241            3 
  550000    1.0231782   -5.9745773    254.60181  0.038576031   0.03878791            3 
  551000    1.0388242   -6.0117758    254.62306  0.038509235  0.038767863            3 
  552000    1.0216448   -6.0132443    254.84719  0.038473307  0.038747791            4 
  553000    1.0418408   -5.9636742    255.36004  0.038481019  0.038728311            4 
  554000    1.0338564   -6.0055296    255.33393  0.038407631  0.038708624            3 
  555000    1.0388809   -5.9918885    255.68883  0.038391716  0.038689142            2 
  556000    1.0113774   -5.9658029    256.22181   0.03840255   0.03866965            4 
  557000    1.0346883    -5.954428    256.95557  0.038443383  0.038650158            2 
  558000    1.0294125   -5.9714045    257.38376  0.038438435  0.038630536            3 
  559000     1.034047   -5.9644959    257.03551  0.038317757  0.038610533            2 
  560000    1.0365921    -5.994361    257.83769  0.038368704   0.03859004            2 
  561000    1.0254735   -5.9510037    258.56803  0.038408798  0.038570561            4 
  562000     1.012393   -5.9936518    258.80275   0.03837526  0.038550958            3 
  563000    1.0152283   -5.9754195    258.62872  0.038281338  0.038531578            5 
  564000    1.0511668   -6.0288465    257.89461  0.038104995  0.038511483            2 
  565000    1.0186863   -5.9831843    258.61124  0.038143251   0.03849111            3 
  566000    1.0145699   -5.9831093    259.18627  0.038160522  0.038470338            3 
  567000    1.0222769   -5.9794992    259.32865  0.038114147  0.038449604            3 
  568000    1.0524303   -5.9903817     259.6818  0.038098855  0.038428836            7 
  569000    1.0423206   -5.9812133     259.2864  0.037973989  0.038408099            4 
  570000    1.0054824   -5.9797622    260.28738   0.03805371  0.038387444            4 
  571000    1.0298012   -6.0242438    260.65136  0.038040186   0.03836706            4 
  572000    1.0279782   -5.9759184    261.16668  0.038048758  0.038346779            3 
  573000    1.0327581   -6.0226644    260.62594  0.037903715  0.038325884            3 
  574000    1.0448705   -5.9837716    261.25662  0.037929243  0.038304891            2 
  575000    1.0279833   -5.9768339     261.8023  0.037942362  0.038283438            3 
  576000    1.0096685    -5.976638    262.15049  0.037926865  0.038262349            8 
  577000    1.0262216   -6.0025666    261.83075  0.037814955  0.038241332            3 
  578000    1.0430757   -6.0303372    262.76499  0.037884225  0.038220993            3 
  579000    1.0298473   -5.9920455     262.7493  0.037816537  0.038200765            5 
  580000     1.019824   -6.0071016    263.00896  0.037788644  0.038179956            3 
  581000    1.0133904   -6.0096996    264.05999  0.037874353  0.038159455            3 
  582000    1.0077944   -5.9675626    263.61598  0.037745701   0.03813899            4 
  583000    1.0333282   -6.0122468    264.64581   0.03782816  0.038118091            4 
  584000    1.0422811   -6.0333499    264.23511  0.037704781  0.038096889            3 
  585000    1.0251725   -5.9918085    265.62247  0.037837959  0.038076118            4 
  586000    1.0307433   -6.0257164    265.55186  0.037763348  0.038054913            4 
  587000    1.0051585   -6.0101677    266.28868  0.037803617  0.038034082            2 
  588000   0.98799806   -6.0336987    265.62525  0.037645302  0.038012746            3 
  589000    1.0100006   -6.0288274    266.52509  0.037708699   0.03799198            2 
  590000    1.0265171   -6.0464331    265.90844  0.037557689  0.037971358            6 
  591000   0.99145967   -5.9882032    267.85299  0.037768329   0.03795109            4 
  592000    1.0314055   -6.0393651    267.12636  0.037602247  0.037930798            8 
  593000    1.0006969   -6.0423486    267.91363   0.03764947  0.037910659            4 
  594000     1.022249   -5.9973578    268.00965  0.037599559  0.037889986            2 
  595000      1.00484   -6.0103353    268.44184  0.037596896  0.037869579            4 
  596000    1.0280811   -6.0268516    268.87415   0.03759426  0.037849003           11 
  597000    1.0377787   -6.0288758    268.95124  0.037542049  0.037828307            3 
  598000    1.0446941   -6.0301418    269.32707  0.037531643  0.037807529            5 
  599000   0.99616132    -6.042146    270.38323  0.037615919  0.037786929            4 
  600000      1.01894   -6.0483192    269.09154  0.037373825  0.037766251            7 
  601000    1.0429674    -6.020773    270.89509  0.037561716  0.037746512            6 
  602000   0.99325887   -6.0017305    271.41529   0.03757133  0.037727071            3 
  603000    1.0115638   -6.0496934    271.38042  0.037504204  0.037707585            6 
  604000    1.0034702    -6.057118    271.04132  0.037395326  0.037687964            5 
  605000    1.0228121   -6.0635215    271.39948  0.037382849  0.037667825            3 
  606000    1.0138143   -5.9938203    272.70318  0.037500437  0.037647881            3 
  607000    1.0168774   -6.0445992    271.27781  0.037242973  0.037627706            3 
  608000    1.0049419   -6.0698489    271.54925  0.037218921  0.037607213           10 
  609000    1.0114244   -6.0602262    272.98237  0.037353909  0.037586403            3 
  610000   0.99472104   -6.0358601     272.9945  0.037294331  0.037565927            7 
  611000   0.99823345   -6.0321482    273.11668  0.037249957  0.037545556            6 
  612000    1.0293862   -6.0659432    272.64216  0.037124477  0.037524833            3 
  613000    1.0078076   -6.0331601     273.2175  0.037142129  0.037503486            3 
  614000    1.0357166   -6.0292868    273.92512  0.037177677  0.037482223            2 
  615000   0.99430856   -6.0232584     274.0264  0.037130948  0.037461267            6 
  616000   0.98222092   -6.0718912    273.27891   0.03696955  0.037440011            6 
  617000    1.0083439   -6.0814956    273.69666  0.036966053  0.037418256            6 
  618000    1.0192041    -6.086779    273.64758  0.036899619  0.037396769            7 
  619000    1.0227958   -6.0477489    274.51098  0.036956244  0.037374961            3 
  620000     1.000338   -6.0674927     275.2446  0.036995242  0.037353575            4 
  621000   0.97669368   -6.0750688    274.84146   0.03688157  0.037332343            4 
  622000    1.0151334   -6.0204134    277.21094  0.037139729  0.037311179            2 
  623000   0.99783567   -6.0349433    277.04863  0.037058404  0.037290298            3 
  624000   0.99829798    -6.044629    277.41849  0.037048409  0.037269882            4 
  625000    1.0091418   -6.0841018    276.27355  0.036836473  0.037248694            5 
  626000    1.0056037   -6.0551871    277.23978  0.036906254  0.037227571            6 
  627000   0.98992569   -6.0699462    276.98291  0.036813253  0.037206663            2 
  628000   0.97979552   -6.0638501    278.06105  0.036897698  0.037185651            3 
  629000    1.0169114    -6.047813     277.5828  0.036775675  0.037164682            6 
  630000    1.0072417    -6.032645     278.4365  0.036830224  0.037143499            6 
  631000    1.0147676   -6.0979743    278.26562  0.036749289  0.037122245            2 
  632000   0.97346418   -6.1117888    278.04837  0.036662497  0.037100476            7 
  633000    0.9909861   -6.0681691     279.2914   0.03676822  0.037079182            3 
  634000    1.0067632   -6.0401269    279.96205  0.036798377  0.037058181            6 
  635000     1.001574    -6.109275    278.96675   0.03660981  0.037036829            4 
  636000    1.0026436   -6.0622213    280.72564  0.036782709  0.037015143            3 
  637000   0.99635772   -6.0516587    279.72989    0.0365947  0.036993603            2 
  638000    1.0129433   -6.0770836     279.4307  0.036498263  0.036971843            3 
  639000   0.99228638   -6.0865419    278.81148  0.036360391  0.036949367            2 
  640000   0.98885549   -6.0298629     281.0792  0.036598854  0.036927173            4 
  641000   0.99716294   -6.0549158    281.05642  0.036538796  0.036905384            5 
  642000    1.0267576   -6.0537694    281.14588  0.036493494  0.036883722            8 
  643000    1.0090217   -6.0297333     281.5235   0.03648568  0.036862212            4 
  644000   0.99880288   -6.0304932    282.76166  0.036589241  0.036840696            2 
  645000    1.0048818   -6.0974872    281.72356  0.036398393  0.036819232            3 
  646000   0.99380475   -6.0883925    281.80402  0.036352428  0.036797413            6 
  647000   0.97591707   -6.0814618    282.63619  0.036403425  0.036775867            4 
  648000   0.98123376   -6.0810861    282.82594  0.036371648  0.036753542            6 
  649000    1.0024078   -6.1374241    282.07449  0.036219118  0.036731011            8 
  650000   0.97408183   -6.0792829    283.05518  0.036289125  0.036708765            3 
  651000   0.99370533   -6.0767955    283.67718  0.036313003   0.03668655            5 
  652000    1.0234721   -6.0436644    284.59988   0.03637524  0.036664836            4 
  653000    1.0147083   -6.0701365    284.01449   0.03624483  0.036642856            4 
  654000   0.98737987   -6.0802799    283.70438  0.036149895  0.036620894            4 
  655000   0.97570912   -6.0751592    284.38517  0.036181319  0.036598397           11 
  656000   0.97646025   -6.0508251      284.994  0.036203506  0.036576067            4 
  657000    1.0099901   -6.0845733     284.5376  0.036090512  0.036553963            8 
  658000    1.0042153   -6.0430817    285.28728  0.036130608  0.036531141            6 
  659000   0.99608233   -6.1084553    285.21159  0.036066211   0.03650831            5 
  660000    1.0038525    -6.074586    285.76316  0.036081207  0.036485106            3 
  661000    1.0008878    -6.042384    285.96747  0.036052379   0.03646264            4 
  662000    1.0083112   -6.1131788    286.37887  0.036049706  0.036440312            6 
  663000   0.98661778   -6.0944308      286.737  0.036040347  0.036417899            7 
  664000   0.98330219   -6.0897589    287.32854  0.036060308  0.036395119            4 
  665000   0.99573369   -6.0993875    286.31447  0.035879006  0.036372963            4 
  666000   0.99918681   -6.1064381    287.57827  0.035983267  0.036350994            5 
  667000   0.99371397   -6.1121991    287.60422  0.035932561  0.036329047            3 
  668000   0.98744887   -6.1051623    287.71721  0.035892865  0.036307065            2 
  669000   0.97642612   -6.1149863    287.96013  0.035869473  0.036285315            4 
  670000    0.9803401   -6.0890327    289.01171   0.03594673  0.036263021            3 
  671000   0.97309605   -6.0815735    288.27519  0.035801688  0.036240732            3 
  672000   0.99127971    -6.067684    288.77768  0.035810724  0.036218572            4 
  673000   0.96732487   -6.0821086     289.5463  0.035852687  0.036196495            6 
  674000    0.9983647   -6.1208958     288.6016  0.035682691  0.036174049            4 
  675000   0.98964379   -6.0941109    288.54434  0.035622759  0.036151675            5 
  676000   0.97463348    -6.105959    289.88512  0.035735345  0.036129204            5 
  677000   0.99247661   -6.1125688    290.05912  0.035703979  0.036107206            3 
  678000   0.99199823   -6.0920354    289.64485  0.035600399  0.036085301            5 
  679000   0.98410464   -6.0739071     290.7365  0.035681947  0.036063379            5 
  680000   0.98748512   -6.1125972    290.42562  0.035591375   0.03604121            2 
  681000   0.98538659   -6.1160395    290.39003  0.035534756  0.036018852            4 
  682000   0.97288482   -6.1034357    291.11347   0.03557105  0.035996092            3 
  683000   0.97851038   -6.0777124    292.97105  0.035745614  0.035973414            3 
  684000   0.98697458   -6.1563762    291.61549  0.035528202  0.035951544            5 
  685000    0.9765751   -6.1264229    291.53989   0.03546714   0.03592923            2 
  686000   0.97776697    -6.100722    293.20755  0.035618021  0.035907373            5 
  687000   0.96836015   -6.1072291    293.26349   0.03557296  0.035885628            8 
  688000   0.99746488   -6.1333221     293.8949  0.035597735  0.035864144            3 
  689000   0.97550061    -6.148148    294.68692  0.035641863  0.035842509            5 
  690000   0.97040989   -6.1368939    292.65536  0.035344851  0.035820958            6 
  691000   0.99234837   -6.0937813    294.55709  0.035523045  0.035799291            3 
  692000   0.97843224   -6.1224566    294.83938  0.035505705   0.03577783            8 
  693000   0.98826169   -6.1387602    295.22629  0.035500997  0.035756663            4 
  694000   0.96688428   -6.1023339    295.74469   0.03551209  0.035735319            5 
  695000   0.97898052   -6.1129849    295.77529  0.035464663  0.035714423            5 
  696000   0.97415907   -6.1259362    296.39631  0.035488063  0.035693729            3 
  697000   0.99340551   -6.1100606    296.98103  0.035507057  0.035672997            6 
  698000   0.97390389   -6.0872926    297.71667  0.035544015  0.035652722            5 
  699000   0.97529651   -6.1408811    297.31812  0.035445651  0.035632533            4 
  700000    1.0102713   -6.1404925    297.42772  0.035408062   0.03561201            6 
  701000   0.98929065   -6.0843305    298.15828  0.035444398  0.035591628            5 
  702000   0.94633215   -6.1267323     298.8977  0.035481683  0.035571959            7 
  703000   0.97548499   -6.1303883    299.28265  0.035476844  0.035551931            4 
  704000   0.98052338   -6.1366305     299.3193  0.035430788  0.035531728            3 
  705000   0.99776621   -6.1473466    298.32313  0.035262781  0.035511147            3 
  706000   0.98519867   -6.1338475    299.22831  0.035319678  0.035490421            6 
  707000   0.98206653    -6.129837    300.04298  0.035365745  0.035469942            4 
  708000   0.97781047    -6.133642     300.5562    0.0353762  0.035449737            3 
  709000   0.96395884   -6.1244897    300.49545  0.035319164  0.035429811            4 
  710000   0.97308135   -6.1475765    300.77143  0.035301811  0.035409531            5 
  711000   0.97870756   -6.1191221    300.94573  0.035272589  0.035389613            4 
  712000   0.98209992    -6.140563    301.44252  0.035281194  0.035369635            7 
  713000   0.96574054   -6.1433251    300.83465  0.035160665  0.035349195            4 
  714000   0.95049669   -6.1373506    300.64007   0.03508871   0.03532886            3 
  715000   0.98782649   -6.1223904    301.35579  0.035123052  0.035308188            8 
  716000   0.96543768   -6.1612006    301.90634  0.035138075  0.035287869            6 
  717000   0.98275674   -6.1665763    302.75693  0.035187927  0.035267709            4 
  718000    0.9577841   -6.1470731    301.57635  0.035001897  0.035247429            4 
  719000   0.95577853   -6.1281614    302.81191   0.03509642  0.035227508            3 
  720000   0.97801576   -6.1405146    302.35689  0.034995011  0.035207232            5 
  721000   0.97986674   -6.1418361    303.58244  0.035088123   0.03518723            3 
  722000   0.96115331   -6.1242795    303.95628  0.035082673  0.035167399            4 
  723000   0.96191684   -6.1546888    303.65162  0.034999034  0.035147314            5 
  724000   0.95459475   -6.1160115    305.23404  0.035132831  0.035126853            7 
  725000   0.96854742    -6.158626     303.5735  0.034893506  0.035106703            4 
  726000   0.94132943   -6.1079162    305.07997  0.035018363  0.035086464            6 
  727000   0.96188371   -6.1445111    304.43142  0.034895853  0.035066289            2 
  728000   0.95677819   -6.1588397    305.60291  0.034982018  0.035046354            3 
  729000   0.96727643   -6.1275995    305.57894  0.034931292  0.035026899            2 
  730000   0.96272605    -6.122302    306.02908  0.034934827  0.035006981            3 
  731000   0.98137262   -6.1674077    305.64308  0.034843033  0.034987147            5 
  732000   0.96473646   -6.1767161     305.7501  0.034807616  0.034967256            5 
  733000   0.94567786   -6.1636463    307.38339  0.034945815  0.034947298            5 
  734000   0.96554416   -6.1706262    306.24582  0.034769053  0.034927033            4 
  735000    1.0063811   -6.1670462    307.59252  0.034874436  0.034907398            3 
  736000   0.94422206   -6.1240618    308.28924  0.034905937  0.034888009            5 
  737000   0.96022336   -6.1571279     307.6388  0.034785029  0.034868616            9 
  738000   0.98182195    -6.191328    307.85917  0.034762779  0.034849322            6 
  739000   0.95342963   -6.1670307    309.09656  0.034855273  0.034829884            5 
  740000    0.9749665   -6.1564764    308.39293  0.034728933  0.034810304            2 
  741000   0.96684718   -6.1646925    308.78393  0.034726037  0.034790664            7 
  742000    0.9695963   -6.1738871    309.70727  0.034782937  0.034771186            5 
  743000   0.93553538   -6.1570614    309.50374  0.034713295  0.034751663            9 
  744000   0.93892846   -6.1702633    310.13156  0.034736957  0.034732021            5 
  745000   0.97932504     -6.17699    309.44267  0.034613274   0.03471247            3 
  746000   0.96971642   -6.1767263    309.99003  0.034628019  0.034692546            3 
  747000   0.96667972   -6.1823875    309.83303  0.034564149   0.03467266            3 
  748000   0.96560419   -6.1885423    309.40363  0.034470101  0.034652762            5 
  749000   0.96635795    -6.193664    309.89778  0.034479058  0.034632896            5 
  750000   0.94072981   -6.2056893    309.52154  0.034391282  0.034612984            6 
  751000   0.96348236   -6.1602379    310.79455  0.034486745  0.034592867            2 
  752000   0.94407824   -6.1420604    312.33245  0.034611309  0.034573505            4 
  753000   0.95718407   -6.1476007    312.10106  0.034539737  0.034553912            9 
  754000   0.94777295   -6.2177321    310.75328  0.034344969  0.034533966            3 
  755000    0.9535427   -6.1935899    311.79404  0.034414353  0.034513882            3 
  756000   0.96658181    -6.164915    311.14847  0.034297671  0.034493747            5 
  757000    0.9541783   -6.1373359    312.94874  0.034450543  0.034473483            4 
  758000   0.94214401   -6.1731258    312.88995  0.034398631  0.034453096            5 
  759000   0.94970457   -6.1771804    313.05574  0.034371513  0.034433064            4 
  760000   0.95034001    -6.208789    312.24808  0.034237728  0.034412959            6 
  761000   0.93311911   -6.1820558    312.13987  0.034180889    0.0343924            3 
  762000   0.95150382   -6.2018908    312.76386  0.034204272  0.034372306            5 
  763000   0.94725479    -6.162846    314.47306  0.034346118  0.034352219            4 
  764000   0.93636549   -6.1843855    313.90005  0.034238661  0.034332308           11 
  765000   0.92858444   -6.1717002    313.32935  0.034131738  0.034311793            5 
  766000   0.96310526   -6.1836818    313.32008   0.03408617  0.034291217            5 
  767000   0.95246008   -6.1481792    314.32496  0.034150908  0.034270782            4 
  768000    0.9420157   -6.1862758    314.28782  0.034102411  0.034250539            5 
  769000   0.94477378   -6.2034556    313.25464  0.033946103  0.034230093            6 
  770000   0.94330858   -6.1989085    314.29202  0.034014288  0.034209161            6 
  771000   0.93959711   -6.1882827    315.62322  0.034114053  0.034188246            8 
  772000   0.94041796   -6.1987473    316.10544  0.034121917  0.034167544            3 
  773000   0.95101197    -6.175395    316.66438  0.034138031  0.034147154            2 
  774000   0.94868488   -6.2002304    315.97655   0.03401987  0.034127075            4 
  775000   0.93187102   -6.1643841    316.32136   0.03401305  0.034107158            7 
  776000   0.95028061   -6.2161636    316.77063  0.034017464  0.034087424            5 
  777000   0.91936066   -6.1812562    318.09424  0.034115641  0.034067691            6 
  778000   0.95985918   -6.1994576    317.75722  0.034035692   0.03404796            8 
  779000   0.94526258   -6.1984526    317.34003  0.033947371  0.034028173            4 
  780000   0.95241057   -6.2165502    317.80703  0.033953742  0.034008405            6 
  781000   0.96307417   -6.2333838    318.13854  0.033945641  0.033988752            7 
  782000   0.93974995   -6.1894107    318.85063  0.033978115  0.033969246            3 
  783000   0.92075447   -6.1924126    319.00272  0.033950907  0.033949801            8 
  784000   0.92987227    -6.192513    319.59989  0.033971077  0.033930654            7 
  785000   0.95352218   -6.2354096    319.04031  0.033868398  0.033911073            3 
  786000   0.91991757   -6.2147333     320.1818  0.033946331  0.033891968            5 
  787000   0.93830261   -6.1836811    320.52444  0.033939479  0.033873015            5 
  788000   0.96950539   -6.2180189    320.44495  0.033888002  0.033854255            3 
  789000   0.92223805   -6.1984531    320.53466  0.033854527  0.033835424            5 
  790000   0.93690513   -6.1893102    321.78391   0.03394345  0.033816727            3 
  791000   0.95806975   -6.2177435    321.48072  0.033868597  0.033797512           11 
  792000   0.95336866   -6.2310088    320.77513  0.033751592  0.033778437            5 
  793000   0.92233898   -6.2383518     320.1712  0.033645565  0.033759209            7 
  794000   0.92230401    -6.219117    321.73159   0.03376696  0.033739979            2 
  795000   0.92927947    -6.227775     322.2238   0.03377608   0.03372084            6 
  796000   0.91777927   -6.2521911    321.27594  0.033634416  0.033701537            3 
  797000   0.93629023   -6.2414696    321.91664  0.033659206  0.033682069            4 
  798000   0.94307887   -6.2261305    321.70132  0.033594541  0.033662376            4 
  799000   0.93344805   -6.1898144      322.864  0.033673759  0.033642683            3 
  800000   0.94891827   -6.2113022    323.18875  0.033665495  0.033623355            3 
  801000   0.92041729   -6.2366624    323.62889  0.033669256  0.033603735            5 
  802000   0.92134873    -6.235946    323.31107  0.033594251  0.033584403            5 
  803000   0.91426185   -6.2360853    323.14668  0.033535354  0.033564896            5 
  804000   0.93377956   -6.2083577    324.41282  0.033624878  0.033545705            5 
  805000    0.9391658   -6.1888726    324.40978  0.033582793  0.033526926            3 
  806000   0.94464763   -6.2151825    324.96846   0.03359889  0.033508051           13 
  807000   0.93261108    -6.242405    324.16335  0.033474117  0.033488874            5 
  808000   0.92692757   -6.2777309     324.1429   0.03343058  0.033469478            7 
  809000   0.92485558   -6.2539451    325.24464  0.033502744  0.033450182            4 
  810000   0.93451913   -6.2404054    324.85456  0.033421251  0.033430818            7 
  811000   0.92386892   -6.2348524     325.2907  0.033424856  0.033411475            5 
  812000   0.92621061   -6.2367188    326.40962  0.033498524  0.033392288            4 
  813000   0.92052691   -6.1935852    326.94523  0.033512221  0.033373406            3 
  814000    0.9075164   -6.2557179    326.16366  0.033391038  0.033354536            5 
  815000    0.9260433   -6.2427783    326.26855  0.033360792  0.033335091            4 
  816000   0.92023243   -6.2631665     324.6952  0.033159232  0.033315744            7 
  817000   0.95647329   -6.2327441    326.28023  0.033280317  0.033296268            8 
  818000    0.9324007   -6.2554662    326.69582   0.03328197  0.033276967           10 
  819000   0.92115655   -6.2437451    326.37161  0.033208345  0.033257419            4 
  820000   0.93393238   -6.2215215    326.70506  0.033201734  0.033238202            4 
  821000   0.91687829    -6.229698    327.56336  0.033248412  0.033218922            3 
  822000    0.9115085   -6.2647736     325.7811  0.033027281  0.033199218            4 
  823000   0.91652058   -6.2798869    327.18425  0.033129227   0.03317957            4 
  824000   0.91296612   -6.2547088    328.21252  0.033193014  0.033160237           10 
  825000   0.92864112   -6.2101703    329.58614  0.033291529  0.033141114            4 
  826000    0.9275764   -6.2426373    328.37741  0.033129278  0.033122141            5 
  827000   0.94929236   -6.2436873    326.89451  0.032939794   0.03310308            7 
  828000   0.91996605   -6.2582244    327.91341  0.033002558  0.033083334            7 
  829000   0.93472596   -6.2554151    329.78338  0.033150722  0.033063573            2 
  830000   0.93202002   -6.2504061    328.61485  0.032993459  0.033044086            8 
  831000   0.92597936   -6.2831935    329.14919   0.03300734   0.03302506           11 
  832000   0.90648622   -6.2738292     329.1043  0.032963172  0.033005701            5 
  833000   0.92457472   -6.2497926    330.55132   0.03306836  0.032986471            3 
  834000   0.92882024   -6.2553102    330.19441  0.032993046  0.032967103            4 
  835000   0.93169912   -6.2532814    330.74531  0.033008514  0.032947415            7 
  836000   0.90537251   -6.2534376    331.00226  0.032994643  0.032928213            6 
  837000   0.92439405   -6.2225666    331.42856  0.032997667  0.032909076            4 
  838000   0.93333091   -6.2258522    332.30923  0.033045866   0.03289014           15 
  839000   0.91232655   -6.2896249    330.69881  0.032846525  0.032870983            7 
  840000   0.92539565   -6.2805456    330.11925  0.032749926  0.032851343            5 
  841000   0.89963356   -6.2800576    330.58626  0.032757259  0.032831643            6 
  842000    0.9037978   -6.2700722    331.02564  0.032761841  0.032811955            8 
  843000   0.91918169   -6.2938974    331.69175  0.032788825  0.032792311            8 
  844000   0.90774302   -6.2611693    331.90364  0.032770897  0.032772877            6 
  845000   0.91402367   -6.2899634    332.12851  0.032754291  0.032753136            4 
  846000   0.89780166   -6.2323761    332.68674  0.032770562  0.032733705           15 
  847000   0.91831333   -6.3135429    332.06795  0.032670991  0.032714178           14 
  848000   0.92297489   -6.2989919    332.39896  0.032664992  0.032694375            3 
  849000   0.91187538   -6.2942858    333.08956  0.032694304  0.032674803            8 
  850000   0.91522214   -6.2663159    333.43674  0.032689877  0.032655655            3 
  851000   0.90080694   -6.2767362    333.92138  0.032698921  0.032636758            5 
  852000   0.90791109   -6.2439981    334.16726  0.032684591  0.032618194            9 
  853000   0.92047675   -6.2674306    333.61549  0.032592369  0.032599158           14 
  854000   0.90103072   -6.2880475    334.11377  0.032602826  0.032580143            2 
  855000   0.91233426   -6.2673681     334.9697  0.032648119  0.032561133            5 
  856000   0.92416243   -6.2512131    335.55368   0.03266683  0.032542283            3 
  857000   0.89788146   -6.2842417    335.79412  0.032652093  0.032523512            9 
  858000   0.92948751   -6.2610684    335.16701  0.032553128  0.032504432            6 
  859000   0.89570143    -6.309437    335.56567  0.032553907  0.032485522            7 
  860000   0.89379544   -6.2782608    336.35208  0.032592255  0.032466849            7 
  861000   0.88945259   -6.2640764    336.68071  0.032586209  0.032448501            5 
  862000    0.9154913   -6.2698432    337.22372  0.032600901  0.032429923            3 
  863000   0.90566558   -6.2921373    336.72999  0.032515449  0.032411389            5 
  864000   0.90714244    -6.299079    335.89967   0.03239773  0.032392609            4 
  865000   0.91297612   -6.2657499    337.20725  0.032486247  0.032373801            5 
  866000   0.91750016   -6.2899719    338.52095  0.032575149  0.032355129            4 
  867000   0.89978846   -6.3048685    337.20263  0.032410864  0.032336598           11 
  868000   0.90575426    -6.296217    338.62705  0.032510277  0.032318042            5 
  869000   0.90440979    -6.309554     337.6232  0.032376602  0.032299489            5 
  870000    0.9154125   -6.3125945    338.24066  0.032398531  0.032280908            6 
  871000   0.92416802   -6.2999431    337.93572  0.032332158  0.032262305            4 
  872000   0.91399483    -6.294993    338.74487  0.032372408  0.032243825            7 
  873000    0.9242763   -6.2615004    339.85915  0.032441691   0.03222554            5 
  874000   0.89146251   -6.2890948    339.98992   0.03241704   0.03220698            6 
  875000   0.90579796   -6.2970601    338.86347  0.032272712  0.032188358            6 
  876000   0.91765993   -6.2725651    340.60707  0.032401738  0.032169855            4 
  877000   0.91630949   -6.3290763    339.47502  0.032257224  0.032151411            4 
  878000   0.91035776   -6.3181363    339.68616  0.032240524  0.032132863            3 
  879000   0.91411587   -6.3228443    340.15761  0.032248541  0.032114419            5 
  880000    0.8978636   -6.3005003    340.51099  0.032245359  0.032096098            6 
  881000    0.8909905   -6.3308639    340.06633  0.032166698  0.032077672            9 
  882000   0.91544793   -6.2902968    341.51647   0.03226724  0.032059282            5 
  883000   0.90815801   -6.3058481    340.24526  0.032110726  0.032040843            5 
  884000   0.90590017   -6.3122366    340.45492  0.032094167   0.03202224            5 
  885000    0.8992709   -6.3101681    341.88023  0.032192112  0.032003618           10 
  886000   0.89001764   -6.3101987    341.31908  0.032102998  0.031984996            6 
  887000   0.91621438   -6.3131671    340.99274  0.032036146  0.031966128            7 
  888000   0.90189132   -6.3376988    341.57224  0.032054452  0.031947515            5 
  889000    0.8956154   -6.3188896    341.93272  0.032052186  0.031929067            4 
  890000   0.90471445   -6.3531892    341.69616  0.031994022  0.031910503            7 
  891000   0.88410206   -6.3537676    342.39772   0.03202373  0.031891975            5 
  892000   0.90428244   -6.3272266    342.34415  0.031982824  0.031873149           10 
  893000   0.89692411   -6.3152724    342.23026  0.031936381  0.031854551            7 
  894000   0.89241604   -6.3187269     343.7108  0.032038665  0.031836267            5 
  895000   0.88150193   -6.2880167    344.35644  0.032062983   0.03181801            6 
  896000   0.91097784     -6.25733    344.52216  0.032042612  0.031800046           10 
  897000   0.88029949   -6.2987321    344.09958  0.031967631  0.031781955            4 
  898000   0.90837146   -6.2870246    345.13518  0.032028135  0.031764081            3 
  899000   0.88880396   -6.2888866    344.41297  0.031925562  0.031746283            4 
  900000   0.90947597   -6.3534482    343.44476  0.031800441  0.031728373            5 
  901000   0.89522099   -6.3122973     344.6301  0.031874778  0.031710443           10 
  902000    0.8913809   -6.3117241    346.09837  0.031975089  0.031692451            8 
  903000   0.90187395   -6.3509878    344.76913  0.031817011  0.031674341            5 
  904000   0.89476466   -6.3022797    345.85361  0.031881786  0.031656058            4 
  905000   0.90619828   -6.3061637    344.88219  0.031757108  0.031637918            3 
  906000   0.89035976   -6.3152427    345.37903  0.031767754  0.031619696            7 
  907000   0.90543073   -6.3795393    344.24761  0.031628777  0.031601159            9 
  908000   0.89613682   -6.3487242    345.16085  0.031677758  0.031582556            6 
  909000   0.90593844   -6.3250344    345.90774  0.031711381  0.031563841            5 
  910000   0.88467188   -6.3326338    345.88174  0.031674152  0.031545194            7 
  911000   0.89658192   -6.3512979     346.3491  0.031682135  0.031526533            4 
  912000   0.89688521   -6.3294691    346.97236  0.031704346  0.031507851           11 
  913000   0.87438508   -6.3645832    345.17818  0.031505858   0.03148909            3 
  914000   0.87389335   -6.3264872    346.03814  0.031549794   0.03147048            3 
  915000   0.89300139   -6.3448088    345.78825  0.031492555  0.031451776            6 
  916000   0.88212288   -6.3365707    347.57922  0.031621108  0.031433163            7 
  917000   0.89830948   -6.3413235    345.39481  0.031388114  0.031414261            4 
  918000   0.90332993   -6.3259186    346.77092  0.031478842  0.031395423            8 
  919000   0.88723953   -6.3307691    346.83336   0.03145025  0.031376872            6 
  920000   0.88930162   -6.3254892    347.19168  0.031448521  0.031358118            6 
  921000   0.85794638   -6.3603984    346.23256  0.031327593  0.031338965            7 
  922000    0.8879601   -6.3199285    346.68453  0.031334466  0.031319852           11 
  923000    0.9084031   -6.3346026    347.91973  0.031412038  0.031300924            9 
  924000   0.87198129   -6.3070991    348.18938  0.031402361  0.031282227            8 
  925000   0.88587724   -6.3573489    347.11799  0.031271891  0.031263487            4 
  926000   0.85372659   -6.3585399    347.99085  0.031316671  0.031244218            8 
  927000   0.86160625    -6.364774     348.4208  0.031321539  0.031225076            5 
  928000   0.88509096    -6.389468    348.20128  0.031268074  0.031205977            3 
  929000   0.90901349   -6.3309718    349.42357  0.031344059  0.031187197            3 
  930000   0.88324543   -6.3236158    349.80604  0.031344627  0.031168589           10 
  931000   0.88983018   -6.3303142    349.51622  0.031285018  0.031150062            9 
  932000   0.88925279   -6.3713003     349.3425  0.031235917   0.03113143            6 
  933000   0.88341912   -6.3532432    349.37577   0.03120541  0.031112851           10 
  934000   0.91389301   -6.3676545    349.38173  0.031172531  0.031094199           10 
  935000   0.88154501   -6.3654359    349.90368  0.031185711  0.031075497            3 
  936000   0.88804949   -6.3435208    350.12832  0.031172393  0.031056728            8 
  937000   0.86433271   -6.3701391    349.95426  0.031123645  0.031037891            6 
  938000   0.88198359   -6.3612364    349.05162  0.031010271  0.031018885            5 
  939000   0.87776123   -6.3994231    348.99537  0.030972255   0.03099966            5 
  940000    0.8826868   -6.3502205    350.03888  0.031031816   0.03098033            7 
  941000    0.8984278     -6.35241    351.30769  0.031111202   0.03096133            4 
  942000   0.87779749   -6.3520339    350.34458  0.030992974  0.030942566           14 
  943000   0.85775814    -6.347392    351.30847  0.031045288  0.030923554           11 
  944000   0.85858333   -6.3543672    351.42316  0.031022525  0.030904847            8 
  945000   0.85714642   -6.3326595    351.58591  0.031004048  0.030886054            7 
  946000    0.8749604   -6.3564627    350.35244  0.030862618  0.030867254            6 
  947000   0.87786996   -6.3659856    351.56482  0.030936714  0.030848073            3 
  948000    0.8833192   -6.3601673    351.38785  0.030888524  0.030829019            5 
  949000   0.87093689   -6.4084738    350.97179  0.030819441  0.030809848            5 
  950000   0.87273394   -6.3488674    352.72947  0.030941182  0.030790718            6 
  951000    0.8663749    -6.369001    352.41826  0.030881376  0.030771434            7 
  952000   0.86371989   -6.3768513    353.00046    0.0308999  0.030752218            5 
  953000   0.86133295   -6.3575926    352.26443  0.030803116   0.03073301            5 
  954000   0.86825247   -6.4125888    351.57043  0.030710206  0.030713675            6 
  955000    0.8678065   -6.3683187    353.23275  0.030823102  0.030694547           14 
  956000   0.86630083   -6.3840805    353.65275  0.030827471   0.03067576            3 
  957000   0.86224978   -6.3440804    354.03496  0.030828541  0.030656951            5 
  958000   0.88236826   -6.3731319    353.10065  0.030715088  0.030638208            5 
  959000   0.87248298   -6.3644837    353.37268  0.030706698  0.030619529            4 
  960000   0.87693708   -6.3831856    353.68789  0.030702074  0.030600453            8 
  961000   0.87771391   -6.3648695    354.38498  0.030730574  0.030581716            8 
  962000   0.87332775   -6.3873885    352.76306  0.030558131  0.030562784            4 
  963000   0.87800416   -6.3864888    354.39912  0.030667975  0.030543795            4 
  964000   0.87148059   -6.3830136    355.42131  0.030724525  0.030525142            5 
  965000   0.88279084   -6.4111297    353.15999  0.030497409  0.030506165            3 
  966000   0.84881273   -6.3879809    353.65734  0.030508743   0.03048711            3 
  967000   0.86590583   -6.3705313     355.5339  0.030638909  0.030468208            6 
  968000   0.86271572   -6.3719456    354.85852  0.030549115  0.030449436            9 
  969000   0.87369274   -6.3871847    355.19652  0.030546657  0.030430587           10 
  970000   0.87762549   -6.3817136    355.29783  0.030523869  0.030411936            7 
  971000   0.86519184   -6.4297321    354.13914  0.030392992  0.030393014            6 
  972000   0.87563132   -6.3812823    355.69616  0.030495212  0.030374342            7 
  973000   0.87550642   -6.3672858    355.57202  0.030453239  0.030355401            3 
  974000   0.86762841   -6.4247822    354.89122  0.030363726  0.030336506            5 
  975000   0.82915078   -6.3859909    356.18123   0.03044284  0.030317368            4 
  976000   0.87498887   -6.3371543    356.29593  0.030421443  0.030298572            9 
  977000   0.86527192   -6.3760834    355.91007  0.030357392  0.030279969            5 
  978000   0.89165593   -6.3740888    356.83418  0.030405094  0.030261378            4 
  979000   0.87938537   -6.3954962    356.77134  0.030368687  0.030242537            5 
  980000    0.8720996   -6.4056535    356.12637  0.030282854  0.030223733           18 
  981000   0.88888961   -6.3904925    357.68242  0.030384167  0.030204934            8 
  982000   0.85802672   -6.4149999    357.16403  0.030309236  0.030185943            7 
  983000   0.86254169   -6.4459327    356.89605  0.030255684  0.030166795            5 
  984000   0.87808872   -6.4275783     357.4331  0.030270419  0.030147754            5 
  985000   0.87158205   -6.4219006    357.23315  0.030222771  0.030128793            6 
  986000   0.86836676   -6.4321923    356.78778  0.030154477  0.030109803            6 
  987000   0.84162219   -6.4002969    358.26553  0.030248694  0.030090839            9 
  988000   0.87504724   -6.3885388    358.34446  0.030224735  0.030072086            6 
  989000   0.86050577   -6.4115921      358.001  0.030165235  0.030053447            9 
  990000   0.86601532   -6.4334704    358.63431  0.030188073  0.030034842            5 
  991000   0.85739943   -6.4124253    360.07674  0.030278905  0.030016145            6 
  992000   0.86207865   -6.3947004    359.12738  0.030168631  0.029997611            3 
  993000   0.84151422   -6.3940924    358.92414  0.030121193  0.029979206            4 
  994000   0.83134943    -6.425315    360.06998  0.030186953  0.029960736            7 
  995000   0.86412058   -6.4095139    358.96269  0.030063877  0.029942153            3 
  996000   0.86468795   -6.3985054    359.81022  0.030104604  0.029923612            5 
  997000   0.86457105   -6.4337523    360.44193  0.030127209  0.029905099            7 
  998000   0.85646225   -6.4180044    359.68903  0.030034154  0.029886516            4 
  999000   0.84094827   -6.4543209    359.51244   0.02998936   0.02986785           10 
 1000000   0.85171995   -6.4396275    359.72248  0.029976873  0.029849462            8 
 1001000   0.84192463   -6.4291737    360.55113  0.030015911   0.02983114            7 
 1002000   0.86450463   -6.4034171    360.97786  0.030021445  0.029812736           15 
 1003000   0.85405245   -6.4113086    360.45245   0.02994786  0.029794238            3 
 1004000   0.84271615   -6.4556132    359.76382  0.029860875   0.02977563            6 
 1005000   0.84463239   -6.4476757     359.7441  0.029829528  0.029756812           13 
 1006000   0.86159515   -6.4486815    360.14283  0.029832905   0.02973787            4 
 1007000   0.85952754   -6.4168189    360.77207  0.029855351  0.029718843            7 
 1008000    0.8732694   -6.4307725    361.20883  0.029861841   0.02969999            4 
 1009000   0.83806316   -6.4282483    360.49237  0.029773073   0.02968132            9 
 1010000    0.8385396   -6.4491873    360.88608  0.029776079  0.029662684           13 
 1011000   0.84991079   -6.4751924    360.51585   0.02971611  0.029643872            7 
 1012000   0.85079713   -6.4430402    362.30612  0.029834166  0.029625131            4 
 1013000   0.83543192   -6.4218465    362.11967  0.029789377  0.029606703            8 
 1014000   0.86961589    -6.439599    362.50408  0.029791591  0.029588192            4 
 1015000   0.83515229   -6.4266649    361.93096  0.029715185  0.029569724            5 
 1016000   0.85409897   -6.4398941    362.02889  0.029693971  0.029551264            7 
 1017000   0.84799144   -6.4359636    362.23645  0.029681781  0.029532785            7 
 1018000   0.87010488   -6.4536623    362.30747  0.029658437  0.029514087            6 
 1019000   0.85537534    -6.421526    362.23839  0.029623682  0.029495356            7 
 1020000   0.85123878   -6.4413539    362.63639  0.029627156  0.029476726           10 
 1021000   0.86118056     -6.42763    362.76211    0.0296084  0.029458052            6 
 1022000   0.84620577   -6.5004715    361.15272    0.0294482  0.029439361            6 
 1023000   0.84582967   -6.4893836    361.56821  0.029453259   0.02942032            8 
 1024000   0.84895389   -6.4613284    363.31825  0.029566915  0.029401432            3 
 1025000   0.85324306   -6.4468335    363.31361  0.029537692   0.02938264            7 
 1026000   0.87112891   -6.4629406    363.01805  0.029484897   0.02936376           11 
 1027000   0.85494141   -6.4687747    362.80545  0.029438936  0.029345134            5 
 1028000   0.85666952   -6.4453222    363.70051  0.029482856  0.029326636           10 
 1029000   0.82800483   -6.4432316    364.60817   0.02952771  0.029308077            5 
 1030000   0.83689807   -6.4520045    363.99756  0.029449641  0.029289701            6 
 1031000   0.85984643   -6.4056588    364.41498  0.029454816  0.029271175            6 
 1032000   0.85055696   -6.4679397    362.80392  0.029296182  0.029252656            8 
 1033000   0.82223401   -6.4653178    363.75851   0.02934483   0.02923402            4 
 1034000   0.82648675   -6.4615604    364.10924  0.029344717  0.029215193            4 
 1035000   0.82412065   -6.4373148    365.47634  0.029426437  0.029196519            5 
 1036000   0.84869143   -6.4539502     364.0533  0.029283566  0.029177921            6 
 1037000   0.83622889   -6.4749576    364.08695  0.029258032  0.029158885            6 
 1038000   0.83901283   -6.4532181      364.552   0.02926718  0.029139747            9 
 1039000    0.8344552    -6.487134    363.53007  0.029157048  0.029120685            9 
 1040000   0.82381822   -6.4844097    363.94298  0.029162098  0.029101732            8 
 1041000    0.8394273   -6.4658206    365.51395  0.029259843  0.029082747            6 
 1042000   0.84406053   -6.4752172    365.33336  0.029217319  0.029064007            4 
 1043000   0.81557449   -6.4753034    364.98493  0.029161468  0.029045062            9 
 1044000    0.8294801    -6.458318    364.85941  0.029123517  0.029026546            5 
 1045000    0.8154323   -6.4624281    365.81297  0.029171688  0.029007843            7 
 1046000   0.84557017   -6.4634899    365.11878  0.029088494  0.028989268            6 
 1047000   0.84714802   -6.4864553    364.96044  0.029048109  0.028970609           10 
 1048000   0.83074451   -6.5039737    366.39324  0.029134322  0.028951949           13 
 1049000   0.82898431   -6.5107092    364.50656  0.028956669  0.028933045            7 
 1050000   0.84444019   -6.4563976    366.04775  0.029051409  0.028914264            3 
 1051000   0.85206369   -6.4943604    365.95673   0.02901655  0.028895616           10 
 1052000    0.8249216   -6.4966568    367.58455  0.029117914  0.028877038            5 
 1053000   0.83833697   -6.4515078    367.80675  0.029107846  0.028858562            5 
 1054000   0.83722534   -6.4841125     367.2902   0.02903939  0.028840226            6 
 1055000   0.83193901    -6.471625    366.99749  0.028988743  0.028821718            6 
 1056000   0.82676903   -6.4699268      367.588  0.029007891  0.028803463            9 
 1057000   0.84351727    -6.523967      366.047  0.028858956  0.028784828            4 
 1058000    0.8285134   -6.4781777    367.76655  0.028967119  0.028766286           14 
 1059000   0.83719754    -6.482411     367.7515  0.028938582  0.028747743            9 
 1060000   0.84014077   -6.4848986    366.78562  0.028835347  0.028729101           15 
 1061000   0.83276466   -6.4737594    367.51265  0.028865273  0.028710623            8 
 1062000   0.82422136   -6.4964135    366.70165  0.028774455  0.028692034           19 
 1063000   0.84097692   -6.4909833    367.79314  0.028832952  0.028673522            6 
 1064000   0.85675413   -6.5192418    367.18636   0.02875833  0.028654948            7 
 1065000   0.83421742   -6.4965652    368.19299  0.028810093  0.028636292           12 
 1066000   0.81751248   -6.5187168    368.27737  0.028789663  0.028617689           11 
 1067000   0.83743232   -6.4791531    369.38703  0.028849347  0.028599265            5 
 1068000   0.81288722   -6.4777946    368.85249  0.028780625  0.028580859            6 
 1069000   0.82288969   -6.4786746    369.43252  0.028798918  0.028562419            5 
 1070000   0.82288047    -6.458745    369.33747  0.028764601  0.028544235            6 
 1071000   0.82759377   -6.5104612    369.21143  0.028727936   0.02852589            4 
 1072000   0.82934847   -6.4423575    369.98454  0.028761236  0.028507551            7 
 1073000   0.83447665   -6.5134217    369.06884  0.028663315  0.028489359            6 
 1074000   0.84474993   -6.4683854    368.54765  0.028596186  0.028470958            5 
 1075000   0.81795267   -6.4764281    368.67982  0.028579831  0.028452566           13 
 1076000   0.81212419   -6.5001992    369.64586  0.028628087  0.028434154            8 
 1077000    0.7949406   -6.4908824    370.06276  0.028633763  0.028415736           10 
 1078000    0.8365719   -6.5186876    368.91365  0.028518371  0.028397234            6 
 1079000   0.80572144   -6.5010333    369.50251   0.02853742  0.028378765           15 
 1080000   0.83355852   -6.4857436    370.34857  0.028576279  0.028360427           17 
 1081000   0.83378193   -6.4822582    369.98251  0.028521624  0.028342099            8 
 1082000   0.82113724   -6.5294266    369.36216  0.028447486  0.028323707            5 
 1083000   0.82931759   -6.5171133    369.81837  0.028456323  0.028305167            7 
 1084000   0.80696682   -6.5250179    370.12699  0.028453797  0.028286605            9 
 1085000   0.81662224   -6.5377108    370.94567  0.028490451  0.028268202           10 
 1086000   0.82466649   -6.5562224    370.50867  0.028430684  0.028249683            9 
 1087000   0.80631765   -6.5086011     371.0208   0.02844379  0.028231252            7 
 1088000   0.83728354   -6.5275998    371.14522  0.028427177    0.0282128            9 
 1089000    0.8347049   -6.5158391    370.62019  0.028360896   0.02819438           12 
 1090000    0.8288634   -6.5050015    371.17194  0.028377059  0.028175977            6 
 1091000   0.81660363   -6.5418072    370.21196  0.028277724  0.028157286            5 
 1092000   0.81863236   -6.5439313    369.92887  0.028230225  0.028138623            7 
 1093000   0.79928794   -6.5358065    370.09609  0.028217146  0.028119858           12 
 1094000   0.80817176   -6.5195674    371.07425  0.028265863  0.028101273           12 
 1095000   0.81478143   -6.5174621    370.90413  0.028227102   0.02808267            9 
 1096000   0.81603164   -6.5091268    372.01324  0.028285678  0.028064031            6 
 1097000   0.80585107   -6.5149164    371.48325  0.028219633  0.028045585            9 
 1098000   0.81061849   -6.5232026    370.94086  0.028152767   0.02802693            6 
 1099000   0.81973943   -6.5739638    369.91717  0.028049528   0.02800826            8 
 1100000     0.825642   -6.5635437    371.24117  0.028124331   0.02798958            9 
 1101000   0.79647979   -6.5412735    371.14873   0.02809179  0.027970882            8 
 1102000   0.80994925   -6.5335153    370.90248  0.028047677  0.027952266           18 
 1103000   0.81727739   -6.5227551    372.01906  0.028106608  0.027933495            9 
 1104000   0.80287307   -6.5376884    372.07731  0.028085546  0.027914803            9 
 1105000   0.84028281   -6.5742977    371.15653  0.027990688  0.027895989            7 
 1106000   0.81991648   -6.5750921    371.60988  0.027999539  0.027877293           11 
 1107000    0.8047476   -6.5765474    371.74272  0.027984246  0.027858479            5 
 1108000   0.79681221   -6.5553181     371.8162  0.027964516  0.027839667            6 
 1109000   0.81744204   -6.5655163    371.06052  0.027882516  0.027820976            6 
 1110000   0.83544216   -6.5647583    371.58072   0.02789645  0.027802066           12 
 1111000   0.82854437   -6.5295355    373.05614  0.027982009  0.027783447            5 
 1112000   0.79755767   -6.5394514    372.67272  0.027928111  0.027764917           13 
 1113000    0.7894091   -6.5553676    372.06192  0.027857287  0.027746506            6 
 1114000   0.79686385   -6.5482155    372.30574  0.027850519  0.027727974           12 
 1115000   0.80179298   -6.5474447    372.37426  0.027830662  0.027709467           14 
 1116000   0.80540755   -6.5303522    373.59247   0.02789669  0.027691024            8 
 1117000   0.80499552   -6.5231637    373.57978  0.027870768  0.027672569            8 
 1118000   0.82452563   -6.5807894    373.36881  0.027830114   0.02765402           10 
 1119000   0.82234399   -6.5401908    372.58126  0.027746593  0.027635458            6 
 1120000   0.82336321    -6.545523    372.99444  0.027752563  0.027616872            5 
 1121000   0.81189213   -6.5622271    372.91613  0.027721984  0.027598292           10 
 1122000   0.83662021   -6.5488902    373.77798  0.027761288  0.027579936            7 
 1123000   0.79394615   -6.5414897    373.77774  0.027736549  0.027561439            7 
 1124000   0.80353998   -6.5306088    374.37265   0.02775598  0.027543008            8 
 1125000   0.81181568   -6.5185074    375.28373  0.027798795  0.027524566            6 
 1126000   0.80436576   -6.5451143    373.28529  0.027626205  0.027506196           15 
 1127000   0.81768566   -6.5501437    375.00027  0.027728503  0.027487626           12 
 1128000   0.80406059   -6.5622004    373.45293  0.027589608  0.027469196           11 
 1129000   0.80505948   -6.5590453    374.61808  0.027651172  0.027450817           13 
 1130000   0.79671653    -6.572174    374.49697  0.027617771  0.027432326           10 
 1131000   0.78993072   -6.5651857    375.20021  0.027645167  0.027413837            9 
 1132000   0.79611705   -6.5535363     374.9418  0.027601722  0.027395524            7 
 1133000   0.80677167   -6.5486168    375.04985  0.027585308  0.027377127           11 
 1134000   0.80067156   -6.5500754    374.73404  0.027537775  0.027358858            9 
 1135000   0.81179264   -6.5727044    375.94993  0.027602785    0.0273407           12 
 1136000   0.79749804   -6.5454479    376.41998  0.027612968  0.027322591            5 
 1137000   0.81763042   -6.5519615    377.01644  0.027632398  0.027304619           11 
 1138000   0.81111793   -6.5687631    376.48033  0.027568859  0.027286484            9 
 1139000   0.80800075   -6.5871088    375.07565  0.027441883  0.027268355            6 
 1140000    0.7896009   -6.5787518    375.32456  0.027436006  0.027250146           15 
 1141000   0.78435235   -6.5529003    376.48073  0.027496401  0.027231973            6 
 1142000   0.79161749   -6.5753192    375.27579  0.027384398  0.027213622            7 
 1143000   0.77686697   -6.5764935    376.61356  0.027457973  0.027195281            7 
 1144000   0.77796826   -6.5687087    376.60107  0.027433061  0.027177156            4 
 1145000   0.80568382   -6.5557143     377.4134  0.027468224  0.027159163            5 
 1146000    0.8054919     -6.57052    377.37977   0.02744181  0.027141144           21 
 1147000    0.7871207   -6.5749626    376.96839  0.027387997     0.027123           18 
 1148000   0.77997924   -6.5702725    376.74217  0.027347718  0.027105029            4 
 1149000    0.7981729   -6.6018942    376.10729  0.027277871  0.027086983            6 
 1150000   0.79635523   -6.5648058    377.41497  0.027348911  0.027069074            9 
 1151000   0.79184197    -6.570519    377.87421  0.027358399   0.02705122           17 
 1152000    0.7962709   -6.5755673    377.93482  0.027339035  0.027033424            4 
 1153000   0.80139902     -6.55923    378.80483  0.027378204  0.027015725           12 
 1154000   0.77612003   -6.5838928    377.89823  0.027289011  0.026998004           10 
 1155000   0.79671775   -6.5670858     378.0298  0.027274877   0.02698022            5 
 1156000   0.78402076   -6.5654211    377.69387  0.027227066  0.026962484            8 
 1157000   0.78801613   -6.5792837     378.6595  0.027273084  0.026944824            7 
 1158000   0.79144975   -6.5580009    378.03234  0.027204399  0.026927004           14 
 1159000   0.77802009   -6.5539536    378.07933  0.027184306  0.026909282           10 
 1160000   0.78173279   -6.5477818    378.98627  0.027226025  0.026891578            4 
 1161000   0.77846398   -6.5546569    378.07299  0.027137022  0.026873775            5 
 1162000   0.78422232   -6.6122834    377.98097  0.027107069  0.026855833           10 
 1163000   0.79035694   -6.5962626    377.55964  0.027053571  0.026837759            8 
 1164000   0.78670188   -6.5916057    378.25931   0.02708042  0.026819645            8 
 1165000    0.7962558   -6.6347568    376.62849  0.026940521  0.026801515            8 
 1166000    0.7880583   -6.6033025    377.21174  0.026959101  0.026783154           10 
 1167000   0.78180456   -6.6142292    378.30524  0.027014084    0.0267649            5 
 1168000   0.78164318   -6.6017801    377.64723  0.026944009  0.026746838            6 
 1169000   0.77247325   -6.5971669    377.37808  0.026901774  0.026728665            6 
 1170000   0.77227734   -6.6091477    376.92719  0.026846666  0.026710517           12 
 1171000   0.78286191    -6.590099    378.72731  0.026951844  0.026692365            8 
 1172000   0.77171779   -6.6030716    379.04318  0.026951307  0.026674259            7 
 1173000   0.79834205   -6.5900059    379.57162  0.026965872  0.026656268            5 
 1174000   0.76944142   -6.6251071     378.5646  0.026871422  0.026638216            9 
 1175000   0.77217893   -6.5651108    380.51947  0.026987197  0.026620392            8 
 1176000   0.77082213    -6.586513    378.71782   0.02683658  0.026602487           16 
 1177000   0.80051809   -6.6045625    377.62186  0.026736184  0.026584503            9 
 1178000   0.78503828   -6.5763592     379.2005  0.026825163  0.026566487            5 
 1179000   0.78079163   -6.5902826    378.54402  0.026756009  0.026548597            8 
 1180000   0.76228408    -6.598163    379.17048  0.026777576   0.02653054            6 
 1181000   0.78163664    -6.594955    379.39654  0.026770854  0.026512458            8 
 1182000   0.77664269    -6.625089    378.77755  0.026704565   0.02649439            5 
 1183000    0.7790225   -6.6278423    379.12512  0.026706475  0.026476103           12 
 1184000   0.77674093   -6.5987166     379.1441  0.026685255  0.026457888           20 
 1185000   0.78464318   -6.6139658    378.96239  0.026649957  0.026439655           10 
 1186000   0.77777036   -6.6487515    378.07973  0.026565467  0.026421307            7 
 1187000   0.77156524   -6.6593093    378.31593  0.026559669  0.026403017            8 
 1188000    0.7865873   -6.6436573    378.66676  0.026561922  0.026384642           13 
 1189000   0.78240309   -6.6212557    378.87148  0.026553931  0.026366384            6 
 1190000   0.74752164    -6.627467    379.97846  0.026609136  0.026348294            6 
 1191000   0.78885834   -6.6361469    378.56277  0.026487739  0.026330054           13 
 1192000   0.78624396   -6.6460396    379.34352  0.026520101  0.026311711           11 
 1193000   0.76193496   -6.6312494    379.94911  0.026540173    0.0262935            9 
 1194000   0.78542819   -6.6174126    380.63797  0.026566022  0.026275422            6 
 1195000   0.79711026   -6.6376182    379.67248  0.026476463  0.026257392           14 
 1196000   0.77036651   -6.6207643    381.29158  0.026567139  0.026239272            8 
 1197000   0.77096911   -6.6172906    380.87242  0.026515763  0.026221185           10 
 1198000   0.78784357   -6.6400517    380.12629  0.026441729  0.026203018           12 
 1199000   0.78595302   -6.6312703    381.21611  0.026495421  0.026185067            7 
 1200000   0.77744887   -6.6584508      380.485  0.026422569  0.026167062           18 
 1201000   0.77045856   -6.6215315    380.73633  0.026418008  0.026149153           14 
 1202000   0.78417269    -6.628087    381.43486  0.026444458  0.026131263           18 
 1203000   0.75497926   -6.6305713    380.79039  0.026377833  0.026113237            6 
 1204000   0.77307194    -6.661507    379.64934  0.026276948  0.026095213            9 
 1205000   0.78831634   -6.6510403    380.18994  0.026292527  0.026077138            8 
 1206000   0.79058182   -6.6135125    381.15828  0.026337637  0.026059153            9 
 1207000    0.7740849   -6.6468992    381.42376  0.026334145  0.026041302           13 
 1208000    0.7906234   -6.6488151    381.90617  0.026345624  0.026023362           10 
 1209000   0.77852877   -6.6466756    381.25543  0.026278979  0.026005261            8 
 1210000   0.77147457    -6.673126    381.58017  0.026279626  0.025987217            5 
 1211000   0.76621975   -6.6498965    380.76627  0.026201918  0.025969229           16 
 1212000   0.76049657   -6.6591529    381.18875  0.026209348  0.025951101            5 
 1213000   0.76518092   -6.6666388    381.17254  0.026186626  0.025932984            5 
 1214000   0.75114561    -6.648482    380.67326  0.026130784  0.025914904            6 
 1215000   0.77534249   -6.6518912    379.87151  0.026054287  0.025896749           13 
 1216000   0.76121287   -6.6634885    381.45403  0.026141312  0.025878724           10 
 1217000   0.75834926   -6.6463532    381.86117  0.026147711  0.025860791            9 
 1218000   0.76842248   -6.6724686    380.88908  0.026059735  0.025842727           10 
 1219000    0.7706091   -6.6259695    382.24818  0.026131267   0.02582462           16 
 1220000   0.78827048    -6.662461    381.75126  0.026075906  0.025806721            5 
 1221000   0.76433143   -6.6504814    381.91742   0.02606589  0.025788776           15 
 1222000   0.76772378   -6.6659104     381.2704  0.026000436  0.025770878           15 
 1223000   0.76272894   -6.6482446    382.20266    0.0260427  0.025753036            9 
 1224000   0.76267126   -6.6619807    382.09411  0.026014032  0.025735211           15 
 1225000   0.75454066    -6.636251     383.0907  0.026060592  0.025717339           13 
 1226000   0.74908414   -6.6434269    383.16286   0.02604424  0.025699664           10 
 1227000   0.77001993   -6.6580178    382.10987  0.025951499  0.025681732            5 
 1228000   0.76273004   -6.7005488     382.3403  0.025946003  0.025663939           16 
 1229000   0.76709052   -6.6918278    382.27957  0.025920773  0.025646149            8 
 1230000   0.76281098   -6.6491058    382.51498  0.025915649  0.025628319            6 
 1231000   0.74804184   -6.6829617     382.0291  0.025861705  0.025610559           21 
 1232000   0.74550343   -6.6577378    384.12507  0.025982486  0.025592909           15 
 1233000   0.75205615   -6.6886584    383.21834  0.025900131  0.025575139            8 
 1234000   0.75785328   -6.6810352    382.83391  0.025853182  0.025557314           11 
 1235000   0.77121332   -6.6824428    382.74198  0.025826045  0.025539465           15 
 1236000   0.75843108   -6.6568174    383.23912  0.025838667  0.025521601            7 
 1237000   0.76248507   -6.6767965    382.79618   0.02578794   0.02550378           19 
 1238000   0.76143139   -6.6969931    382.91354  0.025775009  0.025485986           10 
 1239000   0.76943448   -6.7118703    382.39045  0.025719024  0.025468138           14 
 1240000   0.75603287   -6.6681021    382.92229  0.025734025  0.025450225            8 
 1241000   0.74416929   -6.6744364    383.29142  0.025738076  0.025432458           13 
 1242000   0.74919361   -6.6613261    383.80947  0.025752111  0.025414698            7 
 1243000   0.77714827   -6.6899754    383.57329   0.02571556  0.025397095            5 
 1244000    0.7574549     -6.66203    383.37875  0.025681856  0.025379414            7 
 1245000    0.7434282   -6.6957979    383.18401  0.025648193  0.025361619           14 
 1246000   0.75964033   -6.6560271    383.72074  0.025663506  0.025344012           11 
 1247000   0.76577753   -6.6680592    384.27735  0.025680122  0.025326484           10 
 1248000   0.76632354   -6.6875771    383.65676  0.025618106  0.025308853           10 
 1249000    0.7673404   -6.6398347    384.75628  0.025670955  0.025291214            8 
 1250000   0.74838092   -6.6569766    383.85144  0.025590096  0.025273505            7 
 1251000   0.72510593   -6.6898217    384.09503  0.025585867  0.025255721            7 
 1252000   0.76061138   -6.7065927    383.40637  0.025519593  0.025237833            8 
 1253000   0.74869952   -6.7103324    382.91504   0.02546655  0.025219924            9 
 1254000   0.75736863   -6.7262964    383.37965  0.025477117  0.025201936           12 
 1255000   0.76691309   -6.6774688    383.04696  0.025434725  0.025184007           12 
 1256000   0.77243505   -6.7109377    383.30597  0.025431659   0.02516611           13 
 1257000   0.77253064   -6.6934165    384.23365  0.025472929  0.025148207            7 
 1258000   0.73851899   -6.6995394    383.62771   0.02541254  0.025130471            9 
 1259000   0.73689324   -6.6994114    383.76014  0.025401121  0.025112678           43 
 1260000   0.75227996   -6.7075456    384.76592  0.025447481  0.025094958            8 
 1261000   0.75586878   -6.6792339     384.6843  0.025421907   0.02507718           10 
 1262000   0.74602788   -6.7084357    384.23493   0.02537209  0.025059525           13 
 1263000    0.7478128   -6.7103145    383.61231  0.025310921  0.025041819            8 
 1264000    0.7468163   -6.7214374     384.0003  0.025316476  0.025024008           12 
 1265000   0.75170314   -6.7055249    383.37458  0.025255242  0.025006148            6 
 1266000   0.74192536   -6.7209461    384.37898  0.025301408  0.024988253           10 
 1267000   0.74343262   -6.7354901     383.7698  0.025241371  0.024970372           14 
 1268000   0.75567444   -6.7009597    383.76058  0.025220858  0.024952524            9 
 1269000   0.75755407   -6.7083355    384.31205  0.025237198  0.024934679           17 
 1270000    0.7465762    -6.703227    383.50891  0.025164626  0.024916842            8 
 1271000   0.75106969   -6.7066355      385.106  0.025249541  0.024898962            9 
 1272000   0.73202925   -6.7315919    384.48096  0.025188742  0.024881072            9 
 1273000   0.73865087   -6.7200264    383.99489  0.025137136  0.024863102           12 
 1274000   0.75059944   -6.6957754    385.48567  0.025214918  0.024845342            4 
 1275000   0.73401928   -6.7605285    384.69144  0.025143232  0.024827596            8 
 1276000   0.73658088   -6.7239127    384.58724  0.025116721  0.024809796           12 
 1277000   0.75336059   -6.7182917    385.28255  0.025142427  0.024792071            7 
 1278000   0.74781807   -6.7008367    385.63472  0.025145717  0.024774402           16 
 1279000   0.75580258   -6.7280132    384.75473  0.025068721  0.024756715           30 
 1280000   0.74768352   -6.7421012    384.11773  0.025007665   0.02473906           13 
 1281000    0.7386868   -6.7268576    384.21297  0.024994338  0.024721295           10 
 1282000   0.73240542   -6.7533513    385.10738  0.025032981  0.024703507           20 
 1283000   0.73565426    -6.734627    384.48784   0.02497323   0.02468578           15 
 1284000   0.75238898   -6.7265864    385.13385  0.024995707  0.024668045           13 
 1285000   0.73953636   -6.7202721     386.4896  0.025064177  0.024650347           14 
 1286000   0.73768067    -6.742547     385.2205  0.024962448   0.02463267            7 
 1287000   0.73162989   -6.7553109     385.0866  0.024934382  0.024614832            8 
 1288000   0.73629892   -6.7591318    385.36579  0.024933087  0.024597085           18 
 1289000   0.74201948   -6.7885927    383.98086  0.024824208  0.024579217            8 
 1290000   0.72643234   -6.7672459    385.43459  0.024898875  0.024561387           12 
 1291000    0.7337084   -6.7398343    385.83274  0.024905289  0.024543542            8 
 1292000    0.7366469   -6.7689937    384.42375  0.024795134  0.024525857           17 
 1293000   0.74791418   -6.7243249    385.36831  0.024836833  0.024508186           19 
 1294000   0.72477643   -6.7703937     384.5482  0.024764825  0.024490439           25 
 1295000   0.75229386   -6.7557863    385.45112  0.024803804  0.024472723           28 
 1296000   0.73950697   -6.7737135    385.05977  0.024759502  0.024454941           23 
 1297000   0.73793153   -6.7423136    385.46301  0.024766321  0.024437189            8 
 1298000   0.72298871   -6.7887857    384.62205  0.024693249  0.024419363           21 
 1299000   0.72588794    -6.777462    384.22639  0.024648858  0.024401665            9 
 1300000   0.75124165   -6.7468321    384.17781  0.024626783   0.02438396            7 
 1301000    0.7222503   -6.7574682    384.82017  0.024648999   0.02436617           22 
 1302000   0.73133959   -6.7462862    385.42808  0.024668976  0.024348379           18 
 1303000   0.73530243   -6.7607715    385.39956  0.024648219  0.024330559           44 
 1304000   0.72653569   -6.7835393     385.3265  0.024624649  0.024312762           33 
 1305000    0.7223186   -6.7500478    385.24135  0.024600342  0.024295053           15 
 1306000   0.73534691   -6.7352702    385.32854  0.024587069  0.024277372           12 
 1307000   0.75300039   -6.7285748    385.90911  0.024605274  0.024259783            9 
 1308000   0.72251512   -6.7485226    385.80513  0.024579837  0.024242133           11 
 1309000   0.73054909    -6.780031    384.74379  0.024493493  0.024224403           12 
 1310000   0.73614582   -6.7345992    386.03349  0.024556838  0.024206692            9 
 1311000   0.73268192   -6.7587076    385.88563  0.024528708  0.024189061           14 
 1312000   0.72982444   -6.7695262    385.07436  0.024458483  0.024171465           17 
 1313000   0.72529638   -6.7506456    385.27596   0.02445265  0.024153951           10 
 1314000   0.73330232   -6.7518782    385.46674   0.02444614  0.024136496           31 
 1315000    0.7349682   -6.7755451    385.77276  0.024446943  0.024118957           11 
 1316000   0.72582902   -6.7782297    386.64247  0.024483439  0.024101321           23 
 1317000   0.72368743    -6.741756    385.81883  0.024412733  0.024083694           12 
 1318000   0.72837774   -6.7398224    386.37334   0.02442927  0.024066039           18 
 1319000   0.72872506   -6.7763305    385.19228  0.024336131  0.024048416           19 
 1320000    0.7203492   -6.7660355    385.00126  0.024305635  0.024030749            9 
 1321000   0.73757961   -6.7580267    385.61891  0.024326199  0.024013137           50 
 1322000   0.72384971   -6.7621624    386.47687  0.024361881  0.023995537           26 
 1323000   0.72891918   -6.7506925    387.48743  0.024407119  0.023977991            7 
 1324000   0.72321836   -6.7542297    386.60658  0.024333244  0.023960498            8 
 1325000    0.7280864   -6.7701339    386.37136  0.024300085  0.023943023           10 
 1326000   0.72960714   -6.7649266    387.04222   0.02432392  0.023925578           10 
 1327000   0.71102864   -6.7750688    385.37364  0.024200807  0.023908111           10 
 1328000   0.72120686   -6.7802718    386.54853  0.024256308  0.023890565            8 
 1329000   0.73586345   -6.7686913    386.06341  0.024207638  0.023872994           13 
 1330000   0.71709543   -6.7780434    386.79124   0.02423504  0.023855439           15 
 1331000   0.71209359    -6.791871    385.74406  0.024151268   0.02383784           10 
 1332000    0.7128688   -6.7990723    385.94273  0.024145566  0.023820145           28 
 1333000   0.71357924   -6.8066519    384.96633  0.024066412  0.023802429           25 
 1334000   0.70733522    -6.794784    386.64988  0.024153541  0.023784733           16 
 1335000   0.72688237   -6.8046242    385.35341   0.02405452  0.023767028           12 
 1336000   0.70788269   -6.8083241    385.34664  0.024036093  0.023749298           14 
 1337000   0.72240392   -6.7768101    386.73211  0.024104469   0.02373175           25 
 1338000   0.73233271   -6.8090662    386.31332  0.024060371  0.023714157           28 
 1339000   0.72074996     -6.78726    386.37462  0.024046217  0.023696645           32 
 1340000   0.71282985   -6.7606624    386.19985  0.024017403  0.023679116           21 
 1341000   0.71763474   -6.8059595    386.81122  0.024037485  0.023661505           19 
 1342000   0.71309457    -6.806543    385.87241  0.023961277  0.023643863            9 
 1343000   0.71248176   -6.8104086    386.24242  0.023966395  0.023626255            9 
 1344000   0.72296441   -6.7933294    385.70377  0.023915164  0.023608734           17 
 1345000   0.72206503   -6.7852642    385.86607   0.02390744  0.023591155           18 
 1346000   0.71930418   -6.7955119    386.69482  0.023940987  0.023573567           17 
 1347000   0.71240239   -6.7908053    386.43664  0.023907241  0.023556093           14 
 1348000   0.71697016    -6.820807    386.14213  0.023871299  0.023538635            8 
 1349000   0.71286112   -6.8106798    386.10541  0.023851335  0.023521074           14 
 1350000    0.7047337   -6.7990492    385.91229  0.023821746    0.0235035           30 
 1351000   0.71217416   -6.8079759    386.12098  0.023816986  0.023485933           12 
 1352000   0.70537029    -6.783835    386.44504  0.023819344  0.023468439           17 
 1353000   0.69206964   -6.7837001    386.14831  0.023783463  0.023450887           12 
 1354000   0.71269328   -6.8276162    386.55764  0.023791091  0.023433322           12 
 1355000    0.7017902   -6.8025416     385.7651  0.023724791  0.023415728           11 
 1356000   0.71767271   -6.7988344    386.24583  0.023736838  0.023398192           27 
 1357000    0.7167534   -6.8380178    385.19833  0.023655019   0.02338056           14 
 1358000   0.72824465   -6.8277974    385.51717  0.023657165   0.02336292           23 
 1359000   0.71311534   -6.8350788    386.29872  0.023687682  0.023345232           12 
 1360000   0.70828499   -6.8322403    386.53729  0.023684883  0.023327678           19 
 1361000   0.71645022   -6.7979673    386.83697  0.023685829  0.023310087           12 
 1362000   0.70874731   -6.8170184    386.69482  0.023659742  0.023292579           15 
 1363000   0.70466207   -6.8010645    386.40495   0.02362466  0.023274995           32 
 1364000   0.72540448   -6.8326493    385.86774   0.02357452  0.023257432           34 
 1365000   0.70399903   -6.8509113    384.59239  0.023479389  0.023239765           35 
 1366000   0.70330949   -6.8400601    386.39748   0.02357232  0.023222184           18 
 1367000   0.70282281   -6.8329262    386.29343  0.023548734  0.023204589           14 
 1368000   0.70114973   -6.8409334    385.21389  0.023465758  0.023187085           13 
 1369000   0.70532262   -6.8240353    386.50737  0.023527354  0.023169522           18 
 1370000   0.72255558   -6.7993533    386.90866   0.02353459  0.023152152           10 
 1371000   0.69527832    -6.814212    387.13083  0.023530928  0.023134752           10 
 1372000   0.70679692   -6.8102734    387.30141  0.023524138  0.023117448           24 
 1373000   0.69667583   -6.7954399    388.39264  0.023573236  0.023100179            9 
 1374000   0.70218679   -6.8244883    387.16982  0.023481916   0.02308285           12 
 1375000   0.68708002   -6.7967482    387.05931   0.02345814  0.023065479           15 
 1376000   0.68933944    -6.854393    386.45891  0.023404731  0.023048057            9 
 1377000   0.69685283    -6.837683    387.24649  0.023435397  0.023030721           16 
 1378000   0.70616391   -6.8094365    387.28765  0.023420878  0.023013389           23 
 1379000   0.69777899   -6.8366404    387.02325  0.023387917  0.022996047           12 
 1380000   0.71076992   -6.8234094    387.65459  0.023409093  0.022978764           10 
 1381000   0.71418023   -6.8312052    386.73042  0.023336376   0.02296144           10 
 1382000   0.69983333   -6.8535737    386.59208  0.023311148  0.022944073           22 
 1383000   0.70772472   -6.8576001     386.8979   0.02331272  0.022926665           12 
 1384000   0.68580677   -6.8522741    385.97678  0.023240413  0.022909374           10 
 1385000    0.7000057   -6.8611235    385.95964  0.023222601  0.022891947           38 
 1386000   0.69941327   -6.8394881    386.53065  0.023240179  0.022874622           51 
 1387000   0.70127987   -6.8406475    386.96366  0.023249439  0.022857236           25 
 1388000   0.68834114   -6.8277451    387.29048   0.02325231   0.02283996           19 
 1389000   0.69248939   -6.8588931    386.17809  0.023168832  0.022822784           14 
 1390000   0.69525274   -6.8675762    385.92942  0.023137255  0.022805532           17 
 1391000   0.70132446   -6.8543443    387.35978  0.023206313   0.02278827           40 
 1392000   0.69710937   -6.8389458    387.70556  0.023210343  0.022771078           40 
 1393000    0.6990252   -6.8720862    388.21037   0.02322388  0.022753959           15 
 1394000   0.69163174   -6.8567406     387.5805  0.023169566  0.022736778           16 
 1395000   0.68547965   -6.8374325    387.89237  0.023171587   0.02271967           18 
 1396000   0.69331707   -6.8424545    387.88087  0.023154302  0.022702604           45 
 1397000   0.70334589   -6.8494051    387.68713  0.023126171  0.022685494           14 
 1398000   0.68672022    -6.839207    387.59262  0.023103995  0.022668368           12 
 1399000    0.6975713   -6.8619353    386.88266  0.023045191  0.022651273           16 
 1400000   0.68534254   -6.8584611    387.54152  0.023067947  0.022634034           10 
 1401000    0.6940745   -6.8545222     387.4193  0.023044212  0.022616906           16 
 1402000   0.71269324   -6.8341086    388.09633  0.023068018  0.022599789            8 
 1403000   0.68289055   -6.8558219    388.09342  0.023051403  0.022582719           19 
 1404000   0.68408799   -6.8674302    387.80288   0.02301774  0.022565606           11 
 1405000   0.69651553   -6.8609855    388.17172  0.023023233  0.022548454           23 
 1406000   0.69582339   -6.8622893    387.93135  0.022992612  0.022531353           15 
 1407000   0.68620695   -6.8883166    387.38379   0.02294384   0.02251422           30 
 1408000   0.71113587   -6.8680928    387.84767  0.022954999  0.022497143           12 
 1409000   0.70200413   -6.8556621    388.07893  0.022952385  0.022480087           14 
 1410000   0.69722747   -6.8432153    388.81048  0.022979343  0.022463149           25 
 1411000   0.68816444   -6.8616784    387.96989  0.022913412  0.022446092           20 
 1412000   0.68784648    -6.853968    387.86035   0.02289072  0.022429036           35 
 1413000   0.70322402   -6.8927464      387.898   0.02287674  0.022412017           30 
 1414000   0.70255484   -6.8596439    388.90316  0.022919799  0.022394929           56 
 1415000    0.6765587   -6.8487485    387.93833  0.022846781  0.022377857           33 
 1416000   0.69099166   -6.8720402    387.09769  0.022781173  0.022360864           71 
 1417000   0.69386883   -6.8634637    387.71588  0.022801451  0.022343835           23 
 1418000   0.68907897   -6.8543409    388.23746  0.022816024  0.022326902           55 
 1419000   0.68507376   -6.8731275    387.63358  0.022764481  0.022309902           52 
 1420000   0.68024871   -6.8595108    389.20473  0.022840653  0.022292981           25 
 1421000   0.68446738   -6.8774505    387.52453  0.022726046  0.022275958           28 
 1422000   0.67832509   -6.8693651    388.13442  0.022745805  0.022258964           21 
 1423000   0.68171898   -6.8779697    388.09572  0.022727555  0.022241972           29 
 1424000   0.67791092   -6.8916156    387.75955  0.022691921  0.022225092           44 
 1425000    0.6795659   -6.9091459    388.22879  0.022703438  0.022208269           27 
 1426000   0.67889805   -6.9047278    386.89884  0.022609797  0.022191406           30 
 1427000   0.69446571   -6.8818267     387.9791  0.022657037  0.022174525           21 
 1428000    0.6897867    -6.881276    388.38899  0.022665091  0.022157544           41 
 1429000    0.6920402   -6.8950376    387.99409    0.0226262  0.022140633           22 
 1430000   0.67766613   -6.8925633    387.69759    0.0225931  0.022123716           28 
 1431000   0.68344448   -6.8856758    388.04787   0.02259771  0.022106884           15 
 1432000   0.67886765   -6.8961858    388.09683  0.022584778  0.022089978           38 
 1433000   0.69375795   -6.8871395    387.71306    0.0225467   0.02207303           23 
 1434000    0.6836548   -6.9016515      387.901  0.022541899  0.022056117           42 
 1435000   0.68223086   -6.8931213     388.4699  0.022559227  0.022039134           46 
 1436000   0.68009727   -6.8885998    387.35047  0.022478556  0.022022213           89 
 1437000   0.67915724   -6.8894599    387.90675  0.022495172  0.022005339           64 
 1438000   0.68564088   -6.9022151    387.98147  0.022483859  0.021988458           77 
 1439000   0.69040857   -6.9177653    387.03981  0.022413702  0.021971457           34 
 1440000   0.67953036   -6.9189695    387.31995  0.022414349  0.021954488           50 
 1441000   0.67221693   -6.9257527    386.78405  0.022367803  0.021937546           97 
 1442000   0.67951338   -6.9058424    387.09892  0.022370488  0.021920568           58 
 1443000   0.67814435   -6.8881548    387.77657  0.022394119  0.021903668           78 
 1444000   0.67557801   -6.9218296    387.17348  0.022343806  0.021886768           86 
 1445000   0.68215176   -6.8810872    388.60032   0.02241063  0.021869869          101 
 1446000    0.6717769   -6.9000681    387.53833  0.022333929  0.021853004          114 
 1447000   0.67825551   -6.8711963    388.12864   0.02235249  0.021836194           80 
 1448000   0.67010715   -6.8923759    387.28748  0.022288644  0.021819418           99 
 1449000   0.67303653   -6.8965285    387.62779  0.022292833  0.021802629           45 
 1450000   0.67553522   -6.9089134    388.07515  0.022303169  0.021785902           56 
 1451000    0.6563432   -6.8939822    387.81212  0.022272693    0.0217692           55 
 1452000   0.65985396    -6.902287    387.36453  0.022231665  0.021752478          100 
 1453000   0.69149914   -6.9079966    388.14144  0.022260922  0.021735727           66 
 1454000   0.67538757   -6.9101612     387.4816  0.022207795  0.021718903           81 
 1455000   0.66725482   -6.9266792    388.04754  0.022224945  0.021702089          102 
 1456000   0.67346327   -6.9379679    386.95869  0.022147361  0.021685301           93 
 1457000   0.67748485   -6.9218812    387.02538  0.022135975  0.021668504          110 
 1458000   0.68315072   -6.9235533    387.28347  0.022135544  0.021651709           42 
 1459000   0.66656604    -6.937837    387.09442  0.022109574  0.021634901           40 
 1460000   0.67362876   -6.9316618     387.2946  0.022105856  0.021618079           52 
 1461000   0.65710425   -6.9131609    387.35417  0.022094123  0.021601246           22 
 1462000   0.67716602   -6.9331109    387.31128  0.022076566  0.021584448           34 
 1463000    0.6762252   -6.9455737     387.6877  0.022082918  0.021567683           15 
 1464000   0.67900141   -6.9154699    387.91209  0.022080606  0.021550894           28 
 1465000   0.66992029   -6.9371267    387.11265  0.022020059  0.021534099           25 
 1466000   0.66995456   -6.9065735    387.41433  0.022022188  0.021517343           30 
 1467000   0.66267187   -6.9348571    387.13274   0.02199118  0.021500592           31 
 1468000   0.67883008   -6.9231629    387.52352  0.021998384  0.021483881           26 
 1469000   0.66906615   -6.9188005    387.48042  0.021980963   0.02146717           24 
 1470000   0.68069091   -6.9121002    387.62011  0.021973929  0.021450455           38 
 1471000   0.65624049   -6.9367347    387.59007  0.021957289  0.021433703           25 
 1472000   0.66683818   -6.9288934    386.71444  0.021892801  0.021416964           25 
 1473000   0.66462696   -6.9551441    387.01383  0.021894876  0.021400236           11 
 1474000   0.66223143   -6.9604653    386.66832  0.021860488  0.021383543           21 
 1475000    0.6626692   -6.9309053    386.91428  0.021859564  0.021366814           20 
 1476000   0.66375902    -6.955964    387.00374  0.021849805  0.021350104           12 
 1477000   0.66098094   -6.9712795    386.80513  0.021823806  0.021333405           50 
 1478000   0.66948518    -6.940092    388.22603  0.021889154  0.021316739           12 
 1479000   0.67316458   -6.9483414    386.85382  0.021797037   0.02130011           17 
 1480000   0.68160786   -6.9637823    387.44687  0.021815702  0.021283506           15 
 1481000   0.66933464   -6.9646643    387.77352  0.021819352  0.021266887           12 
 1482000   0.67067124   -6.9553178    386.99217  0.021760693  0.021250304           25 
 1483000   0.66713794   -6.9717001    387.25522  0.021760801  0.021233748           22 
 1484000   0.65724453   -6.9515148    387.66616  0.021769214  0.021217154           43 
 1485000   0.65723067   -6.9704232    387.50309  0.021745403  0.021200573           66 
 1486000   0.65619108   -6.9514448    387.76717  0.021745579  0.021184011           31 
 1487000   0.64200741   -6.9533791    387.19685  0.021698994  0.021167415           46 
 1488000   0.65869276   -6.9760099     386.8128  0.021662903  0.021150814           63 
 1489000     0.665041   -6.9764041    387.72815  0.021699583  0.021134227           38 
 1490000   0.66428438   -6.9399538    386.99985  0.021644287  0.021117715           46 
 1491000   0.65986812   -6.9703676    387.27238  0.021645003  0.021101157           42 
 1492000   0.66255766   -6.9964511    387.66363  0.021652347  0.021084588           66 
 1493000   0.65659066   -6.9873692    387.03541   0.02160278  0.021067997           54 
 1494000   0.65388722   -6.9846419    387.02977  0.021588006  0.021051397           78 
 1495000   0.65414233   -6.9742036     388.5147  0.021656338  0.021034866           44 
 1496000    0.6670719     -6.97554    387.34144  0.021576506  0.021018361          146 
 1497000   0.64819379   -6.9999654    387.05914  0.021546378  0.021001816           80 
 1498000   0.63975735   -6.9904028    387.14339  0.021536682  0.020985261           50 
 1499000   0.66031209   -6.9343957     387.6361  0.021549705  0.020968756           65 
 1500000   0.65856252   -6.9570661    387.87983  0.021548879  0.020952289           26 
 1501000   0.65570356   -6.9641762     387.0031  0.021485848  0.020935807           31 
 1502000   0.66159948   -6.9843891    386.81147  0.021460911  0.020919269           47 
 1503000    0.6511203   -6.9751916    387.35672  0.021476864  0.020902731           26 
 1504000   0.64814498   -6.9881274    387.78682  0.021486415  0.020886249           69 
 1505000   0.65034528   -6.9586683    386.57389  0.021404977  0.020869706           60 
 1506000   0.64845669   -6.9767177     387.1569  0.021423025  0.020853192           51 
 1507000    0.6555336   -6.9921568    385.66902  0.021326533  0.020836666           51 
 1508000   0.65315047   -6.9953883    387.27442  0.021401106  0.020820155           46 
 1509000   0.64351202   -6.9998127    388.23894  0.021440189  0.020803696           27 
 1510000   0.64243073   -7.0205418    387.53871  0.021387346  0.020787264           50 
 1511000   0.65856515   -6.9780508    387.20634  0.021354861  0.020770856           70 
 1512000   0.66650282   -6.9925639    387.10339  0.021335064  0.020754474           25 
 1513000   0.65249002    -6.986655    387.69787  0.021353705  0.020738132           34 
 1514000   0.65531916   -6.9816738    387.02257  0.021302431  0.020721743           54 
 1515000   0.63741797   -7.0126416    387.13231  0.021294407  0.020705387           68 
 1516000     0.649782   -7.0011009    386.50376  0.021245809  0.020688978           60 
 1517000   0.63707108   -6.9987546    386.38535  0.021225299  0.020672563           61 
 1518000   0.65558056    -7.018741    386.48801  0.021216953   0.02065615           50 
 1519000   0.63886957   -7.0079054    386.88702  0.021224875  0.020639773           62 
 1520000   0.63463096   -6.9875955    387.13533  0.021224525  0.020623421           26 
 1521000   0.64774353   -6.9895039    387.75748  0.021244657  0.020607075           35 
 1522000   0.64877536   -6.9885847    387.06222  0.021192631  0.020590708           65 
 1523000   0.64372607   -7.0183415    386.34489  0.021139467  0.020574316           57 
 1524000    0.6314625   -7.0084754     385.5619  0.021082781  0.020557905           57 
 1525000   0.64676948   -7.0273404    386.12275  0.021099604  0.020541532           58 
 1526000   0.63732833   -7.0202212    387.51317  0.021161707  0.020525178           59 
 1527000   0.64556671   -7.0395939    386.23499  0.021078094  0.020508839           62 
 1528000   0.64955439   -7.0381162    386.41505  0.021074119  0.020492417           92 
 1529000   0.65270567    -7.039235    386.18461  0.021047777  0.020475977          138 
 1530000   0.63978997   -7.0078124    386.43745  0.021047791  0.020459554           85 
 1531000   0.63382206   -7.0377284    387.04786  0.021067269  0.020443197           62 
 1532000   0.65908106   -7.0244588    386.74408  0.021036993  0.020426792           47 
 1533000   0.64268406   -7.0186339    386.10458  0.020988507  0.020410431           73 
 1534000   0.63441115   -6.9980455    386.81758  0.021013558  0.020394057           75 
 1535000    0.6396564   -7.0431133    386.53935  0.020984764   0.02037767          122 
 1536000   0.64767262    -7.022413    386.32948  0.020959716  0.020361251           54 
 1537000   0.64388844   -7.0261579    385.56157  0.020904444  0.020344875           34 
 1538000   0.63191475   -7.0236022    385.81405  0.020904532  0.020328535          111 
 1539000   0.64009693    -7.025278    386.28766  0.020916594  0.020312191           51 
 1540000   0.64322787   -7.0532642    385.57831  0.020864627  0.020295917          119 
 1541000    0.6445803   -7.0164213    386.38892  0.020894923  0.020279655           59 
 1542000   0.64934482   -7.0299348    386.97695  0.020913151  0.020263431           62 
 1543000   0.62384277   -7.0264117    386.58396  0.020878374  0.020247202          120 
 1544000   0.63661519    -7.026289    386.36112  0.020852824  0.020230963           38 
 1545000   0.64420957   -7.0157896    386.06227  0.020823207  0.020214757          152 
 1546000     0.637185   -7.0333261    385.96579  0.020804538  0.020198527          100 
 1547000   0.62671632   -7.0209684    386.26871  0.020807407  0.020182254           72 
 1548000   0.62210177   -7.0140727    386.34366  0.020798001  0.020166014           36 
 1549000   0.64086741   -7.0536524    385.76652  0.020753525  0.020149823          130 
 1550000    0.6297888   -7.0305659    386.79885  0.020795637  0.020133636          153 
 1551000   0.62892813   -7.0377052    386.23242  0.020751796  0.020117491          178 
 1552000   0.63190842   -7.0451576    385.98973  0.020725394  0.020101341           87 
 1553000   0.64099136   -7.0255025    386.05442  0.020715519  0.020085202          163 
 1554000   0.64669493   -7.0343637    386.07237  0.020703151  0.020069047          140 
 1555000   0.63959015   -7.0451457    385.81874  0.020676246   0.02005293           48 
 1556000   0.62867999   -7.0658912    385.65277  0.020654069  0.020036779           54 
 1557000    0.6201839   -7.0463334    385.78002  0.020647614  0.020020642           70 
 1558000   0.63609335   -7.0634192    386.14622  0.020653948  0.020004503          100 
 1559000     0.636484   -7.0511131    385.71427  0.020617611  0.019988337           87 
 1560000    0.6303448   -7.0611755    385.57212  0.020596801  0.019972193           39 
 1561000   0.62157488   -7.0354497    386.55606  0.020636134  0.019956091           22 
 1562000    0.6316194    -7.065836    385.64462  0.020574297   0.01994004           29 
 1563000   0.62636086   -7.0812979     385.8239  0.020570692  0.019923936           93 
 1564000    0.6416067    -7.063617    385.61782  0.020546559   0.01990788           42 
 1565000   0.65250315   -7.0535177    385.88004  0.020547393   0.01989181           93 
 1566000   0.63372902   -7.0414048    386.87917   0.02058744  0.019875815          119 
 1567000   0.61326271    -7.051041     386.2294  0.020539747    0.0198598           89 
 1568000    0.6241769   -7.0472128    386.71637  0.020552528  0.019843817          111 
 1569000   0.64308206   -7.0744294    386.05324  0.020504209  0.019827874           37 
 1570000   0.62884148    -7.045791    386.11416  0.020494382  0.019811914           46 
 1571000   0.63122875   -7.0639371     385.2378   0.02043485  0.019795987           65 
 1572000   0.62384103   -7.0883005    386.07883  0.020466435   0.01978005           79 
 1573000   0.62113952   -7.0750574    386.12526  0.020455884  0.019764118           43 
 1574000    0.6139208   -7.0497007    386.22173  0.020447995  0.019748198           59 
 1575000   0.62080088    -7.064037    385.93915  0.020420061  0.019732228           55 
 1576000   0.62118655   -7.0614876    386.19742   0.02042076   0.01971629           82 
 1577000   0.62376515   -7.0964647    385.90475  0.020392346  0.019700347           60 
 1578000   0.62186607   -7.0677946    385.86023  0.020377071  0.019684403           56 
 1579000   0.61690782   -7.0685256     385.6977  0.020355589  0.019668505           46 
 1580000   0.62360889   -7.0861886    384.71792   0.02029103    0.0196526           50 
 1581000   0.62323123    -7.058263    385.88661  0.020339796  0.019636672           34 
 1582000   0.62116669    -7.055448    386.32128  0.020349836  0.019620788           72 
 1583000   0.62995844   -7.0767055    384.56701  0.020244631  0.019604901           71 
 1584000   0.60207737   -7.0854199    385.19456  0.020264865  0.019589022           54 
 1585000   0.60674686   -7.0647491    386.30832  0.020310637  0.019573178           68 
 1586000   0.62849945   -7.0841932    384.92315   0.02022505  0.019557294           71 
 1587000   0.61223332   -7.0830325    385.35123  0.020234784  0.019541409          173 
 1588000   0.63311819   -7.0932818    385.04717  0.020206086  0.019525536           79 
 1589000   0.61220008   -7.0818156    385.84993  0.020235469  0.019509638           48 
 1590000   0.61940704   -7.0956629    385.50593  0.020204713  0.019493727          156 
 1591000   0.62580286   -7.0968951    385.57748  0.020195761  0.019477897           69 
 1592000   0.60828552   -7.0902596    385.28928   0.02016799  0.019462043          111 
 1593000   0.61580713   -7.1062223    385.01536     0.020141  0.019446179           90 
 1594000   0.61329335   -7.0909701    385.13048  0.020134383  0.019430295           84 
 1595000   0.61457833   -7.0909644    385.29502  0.020130356  0.019414436           47 
 1596000   0.62171127   -7.1364468    384.67514  0.020085377   0.01939862          137 
 1597000   0.61460541   -7.0899387    384.94501  0.020086882  0.019382771          167 
 1598000    0.6084744   -7.0815819    384.73771  0.020063502  0.019366965           87 
 1599000   0.61209404   -7.0981348    384.58545  0.020043019  0.019351174          168 
 1600000   0.60409345   -7.1245187    384.86256  0.020044925  0.019335383          149 
 1601000   0.61136099   -7.0787426    385.22124  0.020051074   0.01931966          119 
 1602000   0.61822243   -7.0734402    385.59154   0.02005782  0.019303965           77 
 1603000   0.62014293   -7.1063981    384.38585  0.019982629  0.019288298          132 
 1604000    0.6182135   -7.0878008    385.21346  0.020013168  0.019272658           75 
 1605000   0.62330432   -7.0724711    386.46838  0.020065856  0.019257061           61 
 1606000   0.60809126   -7.0905176    385.30681  0.019993089  0.019241455          116 
 1607000   0.60932656   -7.0891058    385.92995  0.020012961  0.019225857           58 
 1608000    0.6096024   -7.0878408    385.38003  0.019972017  0.019210231           63 
 1609000   0.60748234   -7.0964828    385.57621  0.019969764   0.01919459           50 
 1610000   0.59240653   -7.1188708    385.07881  0.019931615  0.019178989           48 
 1611000   0.62273469   -7.1352659    384.76383   0.01990295  0.019163359          137 
 1612000   0.61115207   -7.0898535    385.32407  0.019919565  0.019147734           78 
 1613000   0.61509479   -7.1187242    385.05753  0.019893446  0.019132082          123 
 1614000   0.59763229   -7.1020268    385.10416  0.019883527  0.019116461          109 
 1615000   0.60755805   -7.0990411    385.26477  0.019879503  0.019100857          175 
 1616000   0.62221082   -7.1147192     384.9663   0.01985181  0.019085231           80 
 1617000   0.60076716   -7.1199083    384.89226  0.019835717  0.019069628          140 
 1618000   0.60014559    -7.128752    384.97078  0.019827502  0.019054045          187 
 1619000   0.61321901   -7.1170145    385.13356  0.019823634  0.019038466           69 
 1620000   0.59686202   -7.1149893    384.78006  0.019793213  0.019022936          120 
 1621000    0.6089565   -7.1173577    385.12329  0.019798647  0.019007375          149 
 1622000   0.59999552   -7.1230104    384.42506  0.019750568  0.018991823          115 
 1623000   0.59462823   -7.1222724    384.50331  0.019742417   0.01897627          179 
 1624000   0.59838732   -7.1246842    384.02351   0.01970564  0.018960737          203 
 1625000   0.60190792   -7.1285039    384.05314  0.019695033  0.018945231          433 
 1626000   0.59710367   -7.1220153     384.4485  0.019703183  0.018929738          304 
 1627000   0.59502978   -7.1187987    384.33399  0.019685207  0.018914236          320 
 1628000   0.60719001   -7.1142174    384.96596  0.019705465  0.018898778          161 
 1629000   0.60692687    -7.132168    385.80901  0.019736495  0.018883351          100 
 1630000   0.61954048   -7.1391544    384.65756  0.019665519  0.018867903          267 
 1631000   0.60718521   -7.1389981    384.32307  0.019636372  0.018852457          361 
 1632000   0.61327346   -7.1282176    383.54705  0.019584714  0.018836989          368 
 1633000   0.60703059   -7.1281579    385.29482  0.019661912  0.018821593          362 
 1634000   0.61045799   -7.1389549     383.9257  0.019580054  0.018806181          241 
 1635000    0.6008734   -7.1254041    384.80469  0.019612879  0.018790754          259 
 1636000   0.59798704   -7.1371497    384.39614  0.019580081  0.018775353          344 
 1637000   0.60677099   -7.1481559      383.109  0.019502596  0.018759931          360 
 1638000   0.59015881   -7.1251642    384.45321  0.019559076  0.018744569          253 
 1639000   0.60000374   -7.1449755    384.67608  0.019558475  0.018729239          138 
 1640000   0.58984392   -7.1294983    384.77848  0.019551752   0.01871392          285 
 1641000   0.59447665   -7.1558596    384.24175  0.019512581  0.018698563          345 
 1642000   0.59160364   -7.1398479    384.85392  0.019531766  0.018683232          247 
 1643000   0.59883754   -7.1365057    384.46839  0.019500324  0.018667926          303 
 1644000   0.59653386   -7.1322823    384.96072  0.019513418  0.018652676          353 
 1645000   0.60054846   -7.1250644    383.49835  0.019427475  0.018637439          332 
 1646000   0.60377324   -7.1280275    384.77202  0.019480155  0.018622177          276 
 1647000   0.59498756   -7.1479347    384.32542  0.019445731  0.018606956          374 
 1648000   0.60644415   -7.1582166    384.35545   0.01943545  0.018591735          346 
 1649000   0.59227961   -7.1634488    383.74127  0.019392625  0.018576517          399 
 1650000   0.60014746    -7.142932     384.3397  0.019411096  0.018561266          376 
 1651000    0.5951673    -7.159267    384.57072     0.019411  0.018546034          314 
 1652000   0.60156909   -7.1461117     383.7035  0.019355503  0.018530805          293 
 1653000   0.59461464   -7.1517326    384.36167  0.019376975  0.018515582          272 
 1654000   0.59581118   -7.1634273    384.18182  0.019356198  0.018500413          450 
 1655000   0.59251188   -7.1523121    383.70254   0.01932037  0.018485229          362 
 1656000    0.5921729   -7.1481919    383.88939  0.019318105  0.018470051          524 
 1657000   0.59776738   -7.1365055    383.68311  0.019296073  0.018454877          416 
 1658000    0.5992992   -7.1513051    384.30827  0.019315856  0.018439731          438 
 1659000   0.59246183    -7.143486    383.35721   0.01925644  0.018424604          449 
 1660000   0.58713103   -7.1749341    384.01976    0.0192781  0.018409461          285 
 1661000   0.59094628   -7.1617228    384.01252  0.019266131  0.018394342          488 
 1662000   0.59706964   -7.1602328    384.47459  0.019277707  0.018379219          414 
 1663000   0.58597006   -7.1770624    383.68693  0.019226645  0.018364081          512 
 1664000   0.57528998    -7.170163    384.09334  0.019235444  0.018348958          260 
 1665000    0.5996192    -7.162654    383.48136  0.019193261  0.018333819          353 
 1666000   0.57958477   -7.1890216    383.70362  0.019192858  0.018318676          242 
 1667000   0.58483406    -7.181071     382.9256  0.019142451  0.018303544          349 
 1668000   0.59186362   -7.1704774    383.08957  0.019139167  0.018288446          354 
 1669000   0.58465934   -7.1767796    384.30082  0.019188178  0.018273376          359 
 1670000   0.59004387   -7.1697576    383.12157  0.019117843   0.01825828          219 
 1671000   0.57504551   -7.1857998    383.35095  0.019117841  0.018243183          216 
 1672000   0.57942798    -7.171116    383.34376  0.019106049  0.018228089          372 
 1673000   0.58252132   -7.1748864    383.73334  0.019114033  0.018213059          292 
 1674000   0.58579625   -7.1859347    383.03004  0.019067605   0.01819801          360 
 1675000   0.59762486   -7.1775211    383.35687  0.019072481  0.018182965          336 
 1676000   0.59653937   -7.1924044    383.21267  0.019053931  0.018167942          381 
 1677000   0.59629483     -7.18372     383.0652  0.019035242  0.018152944          315 
 1678000   0.57731542   -7.1783818    383.68268  0.019054563  0.018137979          384 
 1679000   0.57795984   -7.1935195    382.85076  0.019001924  0.018123006          398 
 1680000     0.584453   -7.1637747    383.35014  0.019015384  0.018108071          411 
 1681000   0.57487272   -7.1686794    383.41507  0.019007291  0.018093166          238 
 1682000   0.57850712   -7.1904314     383.1039  0.018980574  0.018078229          336 
 1683000    0.5777121   -7.1768271    384.00757  0.019014041  0.018063347          323 
 1684000    0.5822771   -7.1769081    384.24744   0.01901462   0.01804846          387 
 1685000   0.59233362   -7.1883475    383.85187  0.018983772  0.018033593          205 
 1686000    0.5763378   -7.1864784    383.92453  0.018976104  0.018018747          273 
 1687000   0.57973916   -7.1877869    382.72809  0.018905754  0.018003931          403 
 1688000   0.59090896   -7.1890865    383.79939  0.018947442  0.017989097          475 
 1689000    0.5799488   -7.2071373     382.5698  0.018875557  0.017974274          438 
 1690000   0.57428423   -7.1855567    384.08779   0.01893924  0.017959437          424 
 1691000   0.57137906   -7.1890604    383.67935  0.018907912  0.017944614          469 
 1692000   0.58672169   -7.1871229    383.74946   0.01890019  0.017929827          506 
 1693000   0.58921228   -7.1854471    383.52354  0.018877906  0.017915056          444 
 1694000   0.58399868   -7.1856122     384.3366  0.018906759  0.017900324          467 
 1695000   0.58922504   -7.1999229     383.3696  0.018848063  0.017885581          393 
 1696000   0.59681295    -7.210253    383.64309  0.018850388  0.017870863          491 
 1697000   0.57893336   -7.1970557    383.04571  0.018809944  0.017856139          546 
 1698000   0.57958026   -7.2215718    383.39377  0.018815949  0.017841415          491 
 1699000   0.55914076   -7.2100604    383.32162  0.018801335   0.01782671          354 
 1700000   0.57432137   -7.2122743    383.70377  0.018809008  0.017812006          490 
 1701000   0.56890702   -7.1931984    383.14599  0.018770625  0.017797327          531 
 1702000   0.57652453   -7.2127612    383.27265  0.018765798  0.017782667          572 
 1703000   0.58319135   -7.2136064    383.49166  0.018765495   0.01776802          537 
 1704000   0.55999608    -7.207474    382.67608  0.018714597  0.017753376          470 
 1705000   0.56322133   -7.1952337    384.29333  0.018782665  0.017738748          301 
 1706000   0.57954352   -7.1979538    383.53955  0.018734836  0.017724124          505 
 1707000    0.5770945   -7.1886153    384.01897  0.018747265  0.017709536          511 
 1708000   0.57033438   -7.2179312    382.82571   0.01867807  0.017694932          497 
 1709000   0.56328145   -7.2236999    383.05394  0.018678269  0.017680359          623 
 1710000   0.57297176   -7.2288924     382.9587  0.018662705  0.017665796          609 
 1711000   0.57315891   -7.2116514    382.46962  0.018627977   0.01765121          579 
 1712000   0.57893455   -7.2235982    382.09544  0.018598882  0.017636638          582 
 1713000   0.57522024      -7.2195    383.15119  0.018639384  0.017622101          606 
 1714000   0.54823354   -7.2211483    383.88555  0.018664214  0.017607557          517 
 1715000   0.56640286   -7.2029819     382.7497  0.018598139  0.017593054          580 
 1716000   0.56910413    -7.222889    382.05879  0.018553748  0.017578544          441 
 1717000   0.56625948   -7.2144116    382.39195  0.018559112   0.01756402          548 
 1718000   0.57019456   -7.2195816    382.41197  0.018549281  0.017549508          560 
 1719000   0.57487811   -7.2257017    382.36027  0.018535983  0.017535022          572 
 1720000   0.55991177   -7.2436823    382.97708  0.018555091  0.017520555          581 
 1721000   0.55853249    -7.231333    383.10589  0.018550547  0.017506082          592 
 1722000   0.55327253   -7.2189814    382.83035   0.01852644  0.017491619          619 
 1723000   0.56676967   -7.2237924    382.42991   0.01849632  0.017477186          635 
 1724000   0.57292898   -7.2281361    382.56413  0.018492079   0.01746275          606 
 1725000   0.56646767   -7.2333567    382.66406  0.018486186  0.017448294          698 
 1726000   0.57538669   -7.2358931      382.456  0.018465431  0.017433877          561 
 1727000   0.57325037   -7.2464398    381.72076  0.018419261  0.017419464          631 
 1728000   0.55659775   -7.2284001    382.48812  0.018445608  0.017405038          669 
 1729000   0.56512563   -7.2419141    382.20894  0.018421484  0.017390634          677 
 1730000   0.55827319   -7.2720369    382.78488  0.018438578  0.017376221          637 
 1731000   0.55825691   -7.2487193    381.95917  0.018388175  0.017361842          713 
 1732000   0.56758335   -7.2360498    382.07807  0.018383279  0.017347485          548 
 1733000   0.56217547   -7.2646196    382.59305  0.018397434   0.01733315          516 
 1734000   0.55447629   -7.2567855    381.99012  0.018357849  0.017318809          576 
 1735000   0.55850767   -7.2244932    383.42447  0.018416161  0.017304483          549 
 1736000   0.55916108   -7.2145291    382.56214  0.018364158  0.017290194          671 
 1737000   0.55785441    -7.246554    381.46832  0.018301109   0.01727591          696 
 1738000    0.5545165   -7.2265167    382.89252  0.018358866  0.017261629          563 
 1739000   0.55439635   -7.2269978     381.9653  0.018303877  0.017247369          614 
 1740000   0.56402355   -7.2253148    382.84236  0.018335362  0.017233118          614 
 1741000    0.5555373   -7.2570518    382.02052  0.018285493  0.017218877          632 
 1742000   0.55364178   -7.2641846    381.82592  0.018265687  0.017204615          629 
 1743000   0.55674214   -7.2577166    381.54279  0.018241671  0.017190365          512 
 1744000   0.55006352    -7.253714    382.43228  0.018273714  0.017176143          710 
 1745000   0.55019816   -7.2512889    381.67673   0.01822716  0.017161925          637 
 1746000   0.54926671   -7.2476058    382.27063  0.018245066  0.017147736          626 
 1747000   0.56035518   -7.2570933    382.39584  0.018240595  0.017133572          647 
 1748000    0.5522971   -7.2589326    381.85131    0.0182042  0.017119406          652 
 1749000    0.5649245   -7.2426848     382.5172  0.018225519  0.017105244          611 
 1750000   0.56647164   -7.2587002    382.69326  0.018223489  0.017091103          633 
 1751000   0.55220873   -7.2482212    382.10257  0.018184969   0.01707699          751 
 1752000   0.54331163   -7.2609457    382.18176  0.018178356   0.01706287          649 
 1753000   0.55146026   -7.2637546    381.30093  0.018126114  0.017048763          701 
 1754000   0.54659977   -7.2657055    381.92696  0.018145523  0.017034655          671 
 1755000    0.5539538   -7.2700654    381.66179  0.018122592  0.017020555          839 
 1756000   0.54764961   -7.2644691     381.6377  0.018111128  0.017006444          728 
 1757000   0.55688484   -7.2432054    381.66005   0.01810188  0.016992334          655 
 1758000   0.55435376   -7.2702229    382.00096  0.018107744  0.016978267          774 
 1759000   0.54503656   -7.2491077    381.76675  0.018086353  0.016964222          657 
 1760000   0.54821377   -7.2727095    381.88259  0.018081562  0.016950185          767 
 1761000   0.55775976   -7.2659774    381.94699  0.018074342  0.016936143          673 
 1762000   0.54165775    -7.256492    381.53614  0.018044653  0.016922112          730 
 1763000   0.54987706   -7.2677465    381.63578  0.018039127  0.016908083          699 
 1764000   0.54786842   -7.2717363    381.53204     0.018024  0.016894071          763 
 1765000   0.54113879     -7.28699    381.60251  0.018017116  0.016880082          743 
 1766000   0.54474092   -7.2818734    381.25949  0.017990727  0.016866077          743 
 1767000   0.55112734   -7.2768236    381.87399  0.018009526  0.016852091          835 
 1768000   0.54011042   -7.2624193    381.84099  0.017997784  0.016838102          755 
 1769000   0.56203349   -7.2939733    381.63012  0.017977677  0.016824143          808 
 1770000   0.55509466   -7.2812805    381.45659   0.01795935  0.016810228          775 
 1771000   0.55368862   -7.2613129    381.75403  0.017963205    0.0167963          685 
 1772000   0.54595221   -7.2667112    381.47263  0.017939834  0.016782378          666 
 1773000   0.53995408   -7.2724402    380.96827   0.01790601  0.016768475          708 
 1774000    0.5484649   -7.2825546     380.8944  0.017892446  0.016754597          734 
 1775000   0.54236783   -7.2872997    381.56101  0.017913662  0.016740726          791 
 1776000   0.54327526   -7.2852089    381.61564  0.017906139  0.016726885          717 
 1777000   0.54598115    -7.281812    382.08613  0.017918127  0.016713037          854 
 1778000   0.54186403   -7.2880356    380.81466  0.017848456  0.016699191          756 
 1779000   0.54340603   -7.2747433    381.80437  0.017884784  0.016685346          716 
 1780000   0.53725378   -7.2753865    381.11654  0.017842535  0.016671517          672 
 1781000   0.53015424   -7.2733409    381.00781  0.017827429  0.016657683          838 
 1782000   0.53902915   -7.2893783    381.29462  0.017830837  0.016643849          795 
 1783000    0.5486203   -7.2787198    381.16474  0.017814766  0.016630046          809 
 1784000   0.55272258   -7.2954861     381.3805  0.017814859  0.016616255          879 
 1785000   0.54640684   -7.2982391     380.9699   0.01778571  0.016602486          826 
 1786000   0.54088902   -7.3021975    381.35811  0.017793865  0.016588726          870 
 1787000   0.55231089   -7.3167577    381.40649  0.017786163   0.01657498          921 
 1788000   0.53479965   -7.3148049    381.21742  0.017767404  0.016561228          864 
 1789000   0.55256196   -7.3109535    380.44843  0.017721652  0.016547488          793 
 1790000   0.54026829     -7.30682    380.95725   0.01773544  0.016533766          803 
 1791000   0.53223076   -7.2927393    381.04301  0.017729528  0.016520079          814 
 1792000   0.54431359   -7.2867557     381.5148  0.017741574  0.016506391          770 
 1793000   0.53746136    -7.302999    380.78219  0.017697629  0.016492723          833 
 1794000   0.54258269   -7.2816018    381.02667  0.017699121  0.016479075          779 
 1795000   0.54742569   -7.2934066    381.41954    0.0177075  0.016465442          805 
 1796000   0.52934161   -7.3020125    381.37815   0.01769572  0.016451814          841 
 1797000   0.53773326   -7.3151586     380.7237  0.017655523  0.016438194          837 
 1798000   0.53975113   -7.2895813    380.75243  0.017647035  0.016424585          814 
 1799000   0.54665067   -7.3037566       381.26  0.017660738  0.016410996          801 
 1800000   0.54045764    -7.296115    381.04148  0.017640809  0.016397434          759 
 1801000   0.52843252   -7.3099735    381.16325  0.017636649  0.016383849          860 
 1802000    0.5328808   -7.3200717    380.33335  0.017588483  0.016370289          813 
 1803000   0.54694725   -7.2988359    380.98689  0.017608934  0.016356723          913 
 1804000    0.5293268   -7.3087078    380.87228  0.017593878  0.016343207          812 
 1805000   0.52888853    -7.310774    380.19074  0.017552666  0.016329698          797 
 1806000    0.5342861   -7.3166118    380.94605  0.017577798  0.016316171          860 
 1807000   0.53152231   -7.3157906    380.73199  0.017558199  0.016302657          781 
 1808000   0.52548029   -7.3043266    380.52215  0.017538816  0.016289148          827 
 1809000   0.52560432   -7.3295061    379.59973  0.017486628   0.01627564          874 
 1810000    0.5415876   -7.3214674    381.02797  0.017542724  0.016262157          745 
 1811000    0.5256914   -7.3094989    380.94233  0.017529097  0.016248687          738 
 1812000   0.53595844    -7.317669    379.99224  0.017475729  0.016235195          793 
 1813000   0.52984034   -7.3010042    380.85899  0.017505929  0.016221749          733 
 1814000   0.51619079   -7.3247763     380.3436  0.017472602  0.016208305          759 
 1815000   0.51780675   -7.3187536    381.04372   0.01749512   0.01619485          807 
 1816000   0.54305969   -7.3155281    380.15758  0.017444823  0.016181417          833 
 1817000   0.52535296   -7.3058932     380.7759   0.01746358  0.016167997          752 
 1818000   0.53243842   -7.3113177    380.66626  0.017448949    0.0161546          770 
 1819000   0.53412892   -7.3141988    380.50098  0.017431784  0.016141205          811 
 1820000   0.52590914   -7.3163199    381.26765   0.01745731  0.016127825          722 
 1821000   0.52534101   -7.3189366    380.70688  0.017422061  0.016114451          756 
 1822000   0.53711666   -7.3309381    380.13329  0.017386265  0.016101099          814 
 1823000   0.52485158   -7.3198886      380.843   0.01740917  0.016087785          858 
 1824000   0.53034174   -7.3254724    380.80334  0.017397814  0.016074461          846 
 1825000   0.52457438   -7.3255567    379.31894    0.0173205  0.016061144          757 
 1826000   0.52813232    -7.312013     380.4204  0.017361281  0.016047851          728 
 1827000   0.51996453   -7.3108451    380.02461  0.017333726  0.016034577          742 
 1828000   0.53063919   -7.3279087    380.09567  0.017327483  0.016021306          791 
 1829000   0.52398571   -7.3055956    380.57108   0.01733967  0.016008056          802 
 1830000   0.52678274    -7.331854    380.23565   0.01731492  0.015994833          770 
 1831000   0.52364513   -7.3117903    380.91061  0.017336183   0.01598162          663 
 1832000    0.5240031   -7.3288561    380.37585  0.017302395  0.015968432          764 
 1833000   0.51547613   -7.3126046    380.35323  0.017291927  0.015955244          777 
 1834000   0.51671594   -7.3208054    380.56312  0.017292036  0.015942079          771 
 1835000   0.52165009   -7.3419226    380.51672  0.017280505  0.015928925          849 
 1836000   0.53227315   -7.3173053    379.82796  0.017239831  0.015915789          812 
 1837000    0.5128941   -7.3359142    381.05605  0.017286157   0.01590266          746 
 1838000   0.52342751   -7.3307864    380.55996   0.01725426  0.015889542          564 
 1839000   0.51796645   -7.3233631    380.62407  0.017247783  0.015876437          857 
 1840000    0.5220224   -7.3342641    380.45262  0.017230644  0.015863354          880 
 1841000   0.51023739   -7.3462673    379.92375  0.017197345   0.01585026          831 
 1842000   0.52452012   -7.3379524    380.16779  0.017199049  0.015837179          680 
 1843000   0.50528962   -7.3209969    379.97409  0.017180959  0.015824152          764 
 1844000   0.51271813    -7.346185    380.10356  0.017177493  0.015811116          779 
 1845000    0.5138732   -7.3269315    379.74005  0.017151764  0.015798072          723 
 1846000   0.53356227    -7.319047     380.3057  0.017168007  0.015785043          762 
 1847000   0.51799676   -7.3395499    380.19532  0.017153732  0.015772031          711 
 1848000    0.5139803   -7.3261701    379.32489  0.017105199  0.015759033          769 
 1849000   0.51720531   -7.3362215    380.18708  0.017134806  0.015746047          663 
 1850000   0.51157902   -7.3183486    379.89801  0.017112523  0.015733068          728 
 1851000   0.51035034    -7.345097    380.21244  0.017117434  0.015720078          779 
 1852000   0.51833833   -7.3495371    380.42549  0.017117777  0.015707113          763 
 1853000   0.50336661   -7.3390258    380.28475   0.01710221   0.01569419          755 
 1854000   0.52348285   -7.3343093    379.47895  0.017056767  0.015681261          772 
 1855000   0.50790723   -7.3511364    379.51373  0.017049134  0.015668328          868 
 1856000   0.52311986   -7.3493756    379.99113  0.017061383   0.01565543          758 
 1857000    0.5135173   -7.3585614    380.34539  0.017068093  0.015642531          849 
 1858000   0.51534702   -7.3398952    380.26118   0.01705513  0.015629635          748 
 1859000   0.50194817   -7.3355551    380.50548  0.017056907   0.01561675          812 
 1860000   0.51118985   -7.3483631    379.58368  0.017006437  0.015603883          850 
 1861000   0.50346829   -7.3543647     379.6929   0.01700219  0.015591028          867 
 1862000   0.50683014   -7.3354532    379.24529  0.016973026  0.015578182          883 
 1863000   0.52333075   -7.3522378    379.82085  0.016989661  0.015565333          927 
 1864000   0.50794619   -7.3615707    379.92214  0.016985074  0.015552503          834 
 1865000   0.51597956   -7.3656239    379.63606  0.016963184  0.015539673          845 
 1866000   0.50094455   -7.3694796    379.75059  0.016959208  0.015526877          867 
 1867000   0.51350772     -7.36408    379.85407  0.016954744  0.015514081          841 
 1868000   0.50077444   -7.3654226    379.79571  0.016943063  0.015501277          868 
 1869000   0.50492676    -7.355669    379.82888  0.016935477  0.015488491          843 
 1870000   0.50583286   -7.3558744    379.53994  0.016913544  0.015475736          864 
 1871000   0.49963102   -7.3456828    380.06718  0.016927988  0.015462995          834 
 1872000   0.51029182   -7.3526282    378.86769  0.016865549   0.01545027          860 
 1873000   0.50201666   -7.3578071     379.3666  0.016878742  0.015437538          880 
 1874000   0.50104788   -7.3628998    379.14677  0.016859959  0.015424819          792 
 1875000   0.49876304    -7.358442    379.49761   0.01686656  0.015412106          881 
 1876000   0.51746816   -7.3600942    379.71477  0.016867216  0.015399405          834 
 1877000   0.49655043   -7.3689263    379.58806  0.016852604  0.015386714          781 
 1878000   0.51691068    -7.351984    379.24942  0.016828604  0.015374058          751 
 1879000   0.49987878   -7.3655502    379.45991  0.016828983  0.015361412          852 
 1880000   0.50714172   -7.3738832    379.23596  0.016810105  0.015348779          812 
 1881000   0.50677141   -7.3784615    379.40202  0.016808525   0.01533615          832 
 1882000   0.50773863   -7.3601802    379.57349  0.016807186  0.015323535          770 
 1883000   0.50223079   -7.3528276    380.00119  0.016817188  0.015310932          838 
 1884000   0.51504245   -7.3685118     379.4314  0.016783059  0.015298331          899 
 1885000   0.50169124   -7.3564111    378.78256  0.016745471   0.01528575          823 
 1886000   0.49891653    -7.381802     379.4768  0.016767267  0.015273192          812 
 1887000   0.50275085    -7.376132    379.37331  0.016753812  0.015260651          861 
 1888000   0.49733896   -7.3664565    379.23983  0.016739046  0.015248121          830 
 1889000   0.50273876   -7.3528421    379.77611  0.016753843  0.015235596          743 
 1890000   0.49454235   -7.3737047    380.13235  0.016760686   0.01522308          811 
 1891000   0.48868097   -7.3615634    379.39436    0.0167193  0.015210583          688 
 1892000   0.49487925    -7.380379    379.89829  0.016732659  0.015198106          828 
 1893000   0.49408398    -7.378844    379.60919  0.016711093  0.015185645          841 
 1894000   0.49484758   -7.3584498    379.84185  0.016712507  0.015173201          789 
 1895000   0.49274386   -7.3747536    378.91349  0.016662862  0.015160742          854 
 1896000   0.50486591    -7.396405    379.49949   0.01667983  0.015148296          841 
 1897000   0.49560259   -7.3749884    379.14814  0.016655603  0.015135863          825 
 1898000   0.49558376   -7.3622649    379.20357  0.016649261  0.015123454          776 
 1899000   0.49433554   -7.3783029     379.2581  0.016642887  0.015111052          857 
 1900000   0.49621152   -7.3599253    379.44021  0.016642114  0.015098651          901 
 1901000   0.49403481   -7.3861717    379.15085  0.016620675  0.015086268          871 
 1902000   0.49729725   -7.3800308    379.25789  0.016616627  0.015073895          888 
 1903000   0.49365866   -7.3830162      378.781  0.016587012  0.015061544          899 
 1904000    0.4990397   -7.3768362    379.47865  0.016608834  0.015049208          879 
 1905000   0.49590543   -7.3722431    378.81554  0.016571109  0.015036869          812 
 1906000   0.49213135   -7.3835793     379.3464  0.016585624   0.01502455          788 
 1907000   0.49793249   -7.3803278    379.17927  0.016569624  0.015012237          861 
 1908000   0.48926127   -7.3726144    379.16113  0.016560147  0.014999947          859 
 1909000   0.49300531    -7.367668    378.76537  0.016534196  0.014987666          888 
 1910000   0.47795162   -7.3808624     379.5486  0.016559712  0.014975388          833 
 1911000   0.49267924   -7.3810452     379.1051  0.016531707  0.014963121          870 
 1912000   0.48912759   -7.3778064     378.5212  0.016497611  0.014950862          855 
 1913000   0.49445195   -7.3846308    378.78166  0.016500334   0.01493863          857 
 1914000   0.47990112   -7.3775884    379.08433  0.016504891  0.014926399          736 
 1915000   0.48235912   -7.3913308    378.72867  0.016480795  0.014914175          837 
 1916000   0.49652282    -7.382416    378.64941  0.016468746  0.014901972          851 
 1917000   0.48512248   -7.3678359    379.02391  0.016476435  0.014889773          862 
 1918000   0.49051038   -7.3836507    378.39911  0.016440698  0.014877587          857 
 1919000   0.48269316   -7.3837407    379.82626  0.016494105  0.014865415          827 
 1920000   0.48658506   -7.3665703    379.28059  0.016461831  0.014853264          807 
 1921000   0.49569123   -7.3842374    379.19813  0.016449684  0.014841137          866 
 1922000   0.49073693   -7.3735949    379.25574  0.016443624  0.014829003          807 
 1923000    0.4922345   -7.3967012    378.26346  0.016392072   0.01481689          833 
 1924000     0.482843   -7.3967427    379.20441  0.016424307  0.014804786          813 
 1925000   0.47970737   -7.3852649    378.26076  0.016374925  0.014792685          807 
 1926000   0.47622412   -7.4011602    378.80702  0.016390058  0.014780603          797 
 1927000   0.48482849   -7.3820421    378.60674  0.016372891  0.014768534          826 
 1928000   0.48118134   -7.4009611     378.7346  0.016369926  0.014756483          786 
 1929000   0.48648944   -7.3912213    378.25468  0.016340707  0.014744425          777 
 1930000   0.47273611   -7.3897744    378.93521  0.016361624  0.014732378          744 
 1931000   0.49380695   -7.3980888    378.68397  0.016342308   0.01472036          838 
 1932000   0.48659563   -7.3828988    379.49467  0.016368818  0.014708338          838 
 1933000   0.47137438   -7.3953322    378.67389  0.016324965  0.014696336          837 
 1934000   0.48027304   -7.3998098     378.8871  0.016325711  0.014684348          809 
 1935000   0.47019599   -7.3872403    379.23575  0.016332289  0.014672378          707 
 1936000    0.4805357   -7.3968116    379.47647  0.016334215  0.014660415          802 
 1937000   0.48288153   -7.3998444    379.21512  0.016314538  0.014648454          760 
 1938000   0.48093463   -7.3826525    378.41269  0.016271615  0.014636509          813 
 1939000   0.47873301   -7.4164069    378.64442  0.016273183   0.01462456          853 
 1940000   0.48129777   -7.4018561    378.85591  0.016273879  0.014612626          738 
 1941000   0.48843856   -7.4106469     378.3658  0.016244453   0.01460071          811 
 1942000    0.4823986   -7.4053529    379.08219  0.016266829  0.014588799          805 
 1943000   0.46992083   -7.3944426    378.70538  0.016242296  0.014576902          826 
 1944000   0.47069069   -7.4082309    378.18302  0.016211549   0.01456502          841 
 1945000   0.46042076   -7.4130488    377.96028  0.016193671   0.01455314          835 
 1946000   0.47019444   -7.4116827    378.69295  0.016216725  0.014541291          768 
 1947000   0.47086941   -7.4058561     378.1421  0.016184819  0.014529448          838 
 1948000   0.47352609   -7.4048543    378.36064  0.016185859  0.014517613          853 
 1949000   0.47567751   -7.3971215    379.24483   0.01621536   0.01450579          782 
 1950000   0.47782166   -7.4263115    378.28439  0.016165999  0.014493981          760 
 1951000    0.4779182   -7.4135799    378.29303  0.016158082  0.014482191          795 
 1952000   0.46986133   -7.4170387    378.47009  0.016157364  0.014470402          861 
 1953000   0.47136828   -7.4133792    378.47312   0.01614922  0.014458616          846 
 1954000    0.4719429   -7.4183401    378.44772  0.016139872   0.01444685          824 
 1955000   0.46525889   -7.4125105    378.74517  0.016144296  0.014435087          794 
 1956000   0.47904355   -7.4137909     379.2066    0.0161557  0.014423335          766 
 1957000   0.45058378   -7.4078104    378.15435  0.016102638  0.014411596          831 
 1958000   0.47921937   -7.4080536    378.53941  0.016110802  0.014399877          743 
 1959000   0.46752128   -7.4175598    377.96647  0.016078206  0.014388164          781 
 1960000   0.46354363   -7.4070061    378.29341  0.016083903   0.01437646          845 
 1961000   0.46406646   -7.4164878    377.46105   0.01604033  0.014364761          851 
 1962000   0.45538311    -7.412662    378.20174  0.016063614  0.014353089          775 
 1963000   0.45935681   -7.4194768     378.0085  0.016047228  0.014341416          773 
 1964000   0.47514549   -7.4272281    378.19015  0.016046765  0.014329751          820 
 1965000   0.46606374   -7.4237488    378.52785   0.01605292    0.0143181          774 
 1966000   0.47739419   -7.4277733    377.88746   0.01601761  0.014306473          751 
 1967000   0.46395945   -7.4118604    378.42279  0.016032147  0.014294845          757 
 1968000   0.48074521   -7.4081976    377.74708  0.015995388  0.014283227          776 
 1969000   0.46835806   -7.4255368    378.05835  0.016000438  0.014271641          899 
 1970000   0.46410489   -7.4206977    378.25645  0.016000696  0.014260052          850 
 1971000   0.46602794   -7.4218921    378.55604  0.016005244  0.014248477          799 
 1972000    0.4608989   -7.4159693    377.83798  0.015966784  0.014236922          797 
 1973000   0.47161994   -7.4087137     378.6294  0.015992118  0.014225372          849 
 1974000   0.47464016   -7.4338672    377.65101  0.015942714  0.014213842          864 
 1975000   0.45984775   -7.4276145    377.82515  0.015941989  0.014202313          813 
 1976000    0.4712531   -7.4172692    377.83246   0.01593423  0.014190804          811 
 1977000   0.45950432   -7.4171526    378.24747  0.015943663  0.014179293          809 
 1978000   0.46452546   -7.4209516    378.21678   0.01593431  0.014167784          788 
 1979000   0.45872378   -7.4299905    377.91169  0.015913411  0.014156292          831 
 1980000   0.46292583   -7.4364748    377.93839  0.015906498  0.014144818          805 
 1981000   0.46615008   -7.4248596    378.01501  0.015901691   0.01413336          847 
 1982000   0.45702182   -7.4252172    377.89191  0.015888493  0.014121899          869 
 1983000   0.46496272   -7.4335276    378.53588  0.015907543  0.014110454          809 
 1984000   0.45978993   -7.4281023    377.47472  0.015854953   0.01409902          842 
 1985000   0.46664425   -7.4386654      377.402  0.015843913  0.014087601          847 
 1986000   0.46650907   -7.4234106    377.81304  0.015853182  0.014076183          911 
 1987000   0.46300677   -7.4413143    377.52095  0.015832954   0.01406479          810 
 1988000   0.46437372   -7.4321124    378.80602  0.015878857  0.014053402          855 
 1989000   0.46032784   -7.4322767    377.73446  0.015825979  0.014042026          873 
 1990000   0.45582483   -7.4278074    377.80285   0.01582089  0.014030662          813 
 1991000   0.46217461   -7.4373896    378.18665  0.015829008  0.014019302          846 
 1992000   0.44590231    -7.417819    377.91376  0.015809645  0.014007961          830 
 1993000   0.46053502   -7.4114036      377.687  0.015792231  0.013996642          834 
 1994000   0.45406237   -7.4281511    378.24303  0.015807549  0.013985329          832 
 1995000   0.46162251   -7.4337024    377.21586  0.015756719   0.01397403          856 
 1996000   0.46246669   -7.4380421    377.07294  0.015742858  0.013962741          895 
 1997000    0.4619668   -7.4354864    377.56441  0.015755484  0.013951456          864 
 1998000   0.45923102   -7.4352458    378.38125  0.015781667  0.013940188          911 
 1999000   0.45583015   -7.4236208    378.03873  0.015759494  0.013928924          866 
 2000000   0.44961285   -7.4334858    378.15166  0.015756319  0.013917675          863 
 2001000   0.46002487   -7.4425082    378.03557   0.01574361  0.013906433          934 
 2002000   0.44947924   -7.4388448    377.94535  0.015731991  0.013895221          813 
 2003000   0.45159022   -7.4456084    377.50039  0.015705624  0.013883999          905 
 2004000   0.45192002   -7.4221943    378.09629  0.015722567  0.013872785          821 
 2005000   0.45606673   -7.4435735    377.42297   0.01568674  0.013861594          846 
 2006000   0.44538456    -7.448235     377.7339  0.015691837  0.013850398          840 
 2007000   0.45622951   -7.4472958    377.13189  0.015659022  0.013839207          930 
 2008000   0.44554394   -7.4426236     377.6774  0.015673863  0.013828034          832 
 2009000   0.45747097   -7.4543222    377.92081  0.015676158  0.013816869          877 
 2010000    0.4434739   -7.4444932    378.08571  0.015675195  0.013805723          838 
 2011000   0.45696207   -7.4449753    378.09896   0.01566795  0.013794593          879 
 2012000   0.45152499   -7.4595749    376.97712  0.015613698  0.013783466          883 
Loop time of 5242.02 on 48 procs for 2000000 steps with 4000 atoms

Performance: 65928.790 tau/day, 381.532 timesteps/s
99.4% CPU use with 48 MPI tasks x no OpenMP threads

MPI task timing breakdown:
Section |  min time  |  avg time  |  max time  |%varavg| %total
---------------------------------------------------------------
Pair    | 388.52     | 416.43     | 443.84     |  70.7 |  7.94
Neigh   | 36.413     | 37.635     | 38.905     |  10.0 |  0.72
Comm    | 342.8      | 366.51     | 396.46     |  77.3 |  6.99
Output  | 4.9583     | 4.9602     | 5.0104     |   0.3 |  0.09
Modify  | 4352.9     | 4367.1     | 4382.7     |  10.5 | 83.31
Other   |            | 49.43      |            |       |  0.94

Nlocal:        83.3333 ave          89 max          74 min
Histogram: 1 0 1 2 8 5 11 8 11 1
Nghost:        2415.46 ave        2436 max        2388 min
Histogram: 3 1 3 5 4 8 8 7 5 4
Neighs:        16777.8 ave       19237 max       13927 min
Histogram: 1 3 4 8 4 7 7 7 5 2
FullNghs:      33555.3 ave       35908 max       29816 min
Histogram: 1 0 2 3 7 8 6 14 6 1

Total # of neighbors = 1610654
Ave neighs/atom = 402.66350
Neighbor list builds = 106959
Dangerous builds = 0

#clear
#
#next RN
#
#jump SELF
Total wall time: 1:27:26
