
units lj                  # Use reduced LJ style units
atom_style atomic         # Uncharged point particles
atom_modify map hash      # Needed for indexing of clusters etc
                          # Used to be able to find where atoms are in relation to each other.

lattice fcc 1.0 spacing 1 1 1
Lattice spacing in x,y,z = 1.5874011 1.5874011 1.5874011
region box block 0 10 0 10 0 10 units lattice
create_box 2 box
Created orthogonal box = (0.0000000 0.0000000 0.0000000) to (15.874011 15.874011 15.874011)
  3 by 4 by 4 MPI processor grid
create_atoms 1 box
Created 4000 atoms
  using lattice units in orthogonal box = (0.0000000 0.0000000 0.0000000) to (15.874011 15.874011 15.874011)
  create_atoms CPU = 0.002 seconds
set type 1 type/fraction 2 0.34 78393
Setting atom values ...
  1376 settings made for type/fraction
mass 1 1.0
mass 2 1.0
pair_style lj/cut  3.5
pair_modify tail  yes
pair_coeff 1  1  1.0  1.0   # Intearaction between 1 and 1 set with epsilon = 1 and sigma = 1
pair_coeff 1  2  1.5  0.8
pair_coeff 2  2  0.5  0.88

write_data data.0
System init for write_data ...
Neighbor list info ...
  update every 1 steps, delay 10 steps, check yes
  max neighbors/atom: 2000, page size: 100000
  master list distance cutoff = 3.8
  ghost atom cutoff = 3.8
  binsize = 1.9, bins = 9 9 9
  1 neighbor lists, perpetual/occasional/extra = 1 0 0
  (1) pair lj/cut, perpetual
      attributes: half, newton on
      pair build: half/bin/atomonly/newton
      stencil: half/bin/3d
      bin: standard
WARNING: Not all mixed pair coeffs generated from mixing. Use write_data with 'pair ij' option to store all pair coeffs. (../write_data.cpp:312)


#############################
#   M E L T   S Y S T E M   #
#############################

velocity all create 2.4 6229865 mom yes dist gaussian # Assign velocities
                                                    # Temperature 2.4, random number seed, zero linear momentum
                                                                                # Gaussian distribution

timestep 0.002   # simulation timestep
thermo 1000       # output thermodynamic data every 1000 steps bf 100

# Define a fix  in this case with index 1 applied to all
# particles in the simulation. This fix is for simulations
# in the anisotropic NPT ensemble. Note that we use the MTK
# correction.
fix 1 all npt temp 2.4 2.4 0.1 iso 5.68 5.68 0.5 mtk yes tchain 5 pchain 5 # Use NPT ensemble
                                                                         # Set temperature and pressure and damping
                                                                         # Numbers of thermostats in chain and in barostat
run 10000          # run for 10000 steps
Per MPI rank memory allocation (min/avg/max) = 3.642 | 3.644 | 3.648 Mbytes
Step Temp E_pair E_mol TotEng Press Volume 
       0          2.4   -6.2108987            0   -2.6117987   -4.0679274         4000 
    1000    2.3532016   -5.0677919            0    -1.538872    5.5630406    4021.8226 
    2000    2.4122667    -4.969766            0   -1.3522706    6.2171456    4028.4015 
    3000    2.4133006   -5.0224802            0   -1.4034343    5.9079407    4032.0562 
    4000    2.3917748   -5.0802978            0   -1.4935325    6.0036546    3988.3282 
    5000    2.4273738   -4.9810443            0   -1.3408939    6.2205228     4020.454 
    6000    2.4037402   -5.0552227            0   -1.4505138    5.5003195      4047.32 
    7000    2.3760937   -4.9683132            0   -1.4050637    5.7818431    4054.1126 
    8000    2.3873313   -5.0373313            0   -1.4572296    5.5868093    4045.1865 
    9000    2.3764608   -4.9794114            0   -1.4156113    5.8194448    4051.5313 
   10000     2.428219   -4.9812539            0    -1.339836    5.8127704    4054.5451 
Loop time of 2.4518 on 48 procs for 10000 steps with 4000 atoms

Performance: 704789.387 tau/day, 4078.642 timesteps/s
99.6% CPU use with 48 MPI tasks x no OpenMP threads

MPI task timing breakdown:
Section |  min time  |  avg time  |  max time  |%varavg| %total
---------------------------------------------------------------
Pair    | 1.0644     | 1.1374     | 1.2155     |   3.2 | 46.39
Neigh   | 0.20315    | 0.21223    | 0.22657    |   1.1 |  8.66
Comm    | 0.75759    | 0.84408    | 0.93215    |   4.5 | 34.43
Output  | 0.00024199 | 0.0002477  | 0.00031642 |   0.0 |  0.01
Modify  | 0.21192    | 0.24259    | 0.27301    |   3.2 |  9.89
Other   |            | 0.01529    |            |       |  0.62

Nlocal:        83.3333 ave          98 max          70 min
Histogram: 1 2 3 9 10 14 5 3 0 1
Nghost:        1621.44 ave        1649 max        1592 min
Histogram: 1 5 3 7 8 5 8 3 5 3
Neighs:        9398.94 ave       11283 max        7624 min
Histogram: 1 1 5 6 12 12 7 3 0 1

Total # of neighbors = 451149
Ave neighs/atom = 112.78725
Neighbor list builds = 900
Dangerous builds = 176

# Equilibrate just above the melting temperature to avoid step fn in T

fix 1 all npt temp 1.25 1.25 0.1 iso 5.68 5.68 0.5 mtk yes tchain 5 pchain 5
run 2000
Per MPI rank memory allocation (min/avg/max) = 3.643 | 3.645 | 3.649 Mbytes
Step Temp E_pair E_mol TotEng Press Volume 
   10000     2.428219   -4.9812539            0    -1.339836    5.8127704    4054.5451 
   11000    1.2194503   -6.9000008            0   -5.0712827    5.7045498    3248.6777 
   12000    1.2650182   -6.9621471            0   -5.0650943    5.8958727    3224.2037 
Loop time of 0.587345 on 48 procs for 2000 steps with 4000 atoms

Performance: 588410.173 tau/day, 3405.151 timesteps/s
99.6% CPU use with 48 MPI tasks x no OpenMP threads

MPI task timing breakdown:
Section |  min time  |  avg time  |  max time  |%varavg| %total
---------------------------------------------------------------
Pair    | 0.25958    | 0.27949    | 0.30703    |   2.2 | 47.59
Neigh   | 0.037913   | 0.040184   | 0.044113   |   0.7 |  6.84
Comm    | 0.19047    | 0.21865    | 0.23899    |   2.7 | 37.23
Output  | 5e-05      | 5.1934e-05 | 6.7591e-05 |   0.0 |  0.01
Modify  | 0.040568   | 0.044331   | 0.049105   |   1.2 |  7.55
Other   |            | 0.004635   |            |       |  0.79

Nlocal:        83.3333 ave          92 max          75 min
Histogram: 3 4 4 8 5 9 1 7 4 3
Nghost:        1902.35 ave        1929 max        1870 min
Histogram: 1 2 2 8 6 8 9 6 4 2
Neighs:        11878.9 ave       13933 max       10217 min
Histogram: 2 4 9 6 8 8 4 4 2 1

Total # of neighbors = 570187
Ave neighs/atom = 142.54675
Neighbor list builds = 142
Dangerous builds = 9

#############################
# L I N E A R  Q U E N C H  #
#############################

# Define solid atoms. This closely follows ten Wolde  Ruiz-Montero and Frenkel  Faraday Discuss  1996  104  93-110
# Compute components of the per-atom q6 vector
compute q6 all orientorder/atom degrees 1 6 components 6 nnn NULL cutoff 1.3 # compute the Q6 parameter.
                                                                             # Use all neighbours within 1.3 unit cell.

# get number of connections
compute coord_number all coord/atom orientorder q6 0.5

# An atom is solid if it has 8 or more connections (of a possible 14)
variable is_solid atom c_coord_number>=8
group solid dynamic all var is_solid    # Must be dynamic to update
dynamic group solid defined

# do clustering
compute cluster solid cluster/atom 1.3 # Create a cluster where all atoms within are solid and max 1.3 units from another member

# define chunks one chunk per cluster
compute clus_chunks solid chunk/atom c_cluster nchunk every compress yes  # Says which atoms are in which chunk

# count the size of each chunk
compute size_chunks solid property/chunk clus_chunks count


# Find the maximum entry in the vector of chunk sizes
variable max_n equal max(c_size_chunks)


# Thermo style which includes this variable
# thermo_style custom step temp pe vol v_max_n

thermo ${N}  # Print the thermo information every 100 steps
thermo 1000  

# Reset the npt fix at a lower temperature (below freezing)
fix 1  all npt temp  ${temp} ${temp}  0.1  iso  5.68  5.68  0.5  mtk yes tchain  5  pchain  5
fix 1  all npt temp  0.45 ${temp}  0.1  iso  5.68  5.68  0.5  mtk yes tchain  5  pchain  5
fix 1  all npt temp  0.45 0.45  0.1  iso  5.68  5.68  0.5  mtk yes tchain  5  pchain  5

dump dmp2 all dcd ${N} traj.dcd
dump dmp2 all dcd 1000 traj.dcd


compute msd all msd com yes
variable twopoint equal c_msd[4]/6/(step*dt+1.0e-6)
fix 9 all vector 10 c_msd[4]
variable fit equal slope(f_9)/6/(10*dt)
thermo_style custom step temp pe c_msd[4] v_twopoint v_fit v_max_n

fix 1 all npt temp 1.25 ${temp} 0.1 iso 5.68 5.68 0.5 mtk yes tchain 5 pchain 5
fix 1 all npt temp 1.25 0.45 0.1 iso 5.68 5.68 0.5 mtk yes tchain 5 pchain 5
run 500000 # 5000000  # Run for this many steps
Neighbor list info ...
  update every 1 steps, delay 10 steps, check yes
  max neighbors/atom: 2000, page size: 100000
  master list distance cutoff = 3.8
  ghost atom cutoff = 3.8
  binsize = 1.9, bins = 8 8 8
  4 neighbor lists, perpetual/occasional/extra = 1 3 0
  (1) pair lj/cut, perpetual
      attributes: half, newton on
      pair build: half/bin/atomonly/newton
      stencil: half/bin/3d
      bin: standard
  (2) compute orientorder/atom, occasional
      attributes: full, newton on
      pair build: full/bin/atomonly
      stencil: full/bin/3d
      bin: standard
  (3) compute coord/atom, occasional
      attributes: full, newton on
      pair build: full/bin/atomonly
      stencil: full/bin/3d
      bin: standard
  (4) compute cluster/atom, occasional
      attributes: full, newton on
      pair build: full/bin/atomonly
      stencil: full/bin/3d
      bin: standard
Per MPI rank memory allocation (min/avg/max) = 9.816 | 9.821 | 9.826 Mbytes
Step Temp PotEng c_msd[4] v_twopoint v_fit v_max_n 
   12000    1.2650182   -6.9621471 7.8886091e-34 5.4782005e-36 8.3333333e+20            1 
   13000     1.276716     -6.98205   0.50377616 0.0032293342  0.041388385            1 
   14000    1.2579089   -6.9854285    1.0087502 0.0060044652  0.041256837            1 
   15000    1.2103355   -6.9274154    1.4867355 0.0082596416  0.040870928            1 
   16000    1.2388337   -7.0350724    1.9309866  0.010057221  0.040134189            1 
   17000    1.1971633   -7.0466647    2.4180333  0.011853104  0.039588749            1 
   18000    1.2216929   -6.9789877    2.9392755  0.013607757    0.0398567            4 
   19000    1.2213563   -6.9978864    3.4234231  0.015015013  0.040013083            2 
   20000    1.2444189   -7.0396721    3.7816557  0.015756899  0.039780742            1 
   21000    1.2478968   -7.0032922    4.2453117  0.016846475  0.039374533            2 
   22000    1.2223886   -7.0850748    4.7179164  0.017870895  0.039228104            3 
   23000    1.2474072   -6.9911107    5.1391203  0.018620001  0.038982483            2 
   24000    1.2432492   -6.9956462    5.6487471  0.019613705  0.038768068            1 
   25000    1.2288363   -6.9835733    6.1357802    0.0204526  0.038761178            2 
   26000    1.2601566   -6.9751797    6.5798897   0.02108939  0.038774589            3 
   27000    1.1864104   -7.0597622    7.0785825  0.021847477  0.038743746            1 
   28000    1.2236791   -7.0441282    7.6206983  0.022680649  0.038880384            1 
   29000    1.2092297    -7.009541    7.9939837  0.022971217  0.038967068            4 
   30000     1.197895   -7.0373437    8.3819145  0.023283095  0.038879957            2 
   31000    1.1768689   -7.0306576      8.73034  0.023468656  0.038686752            1 
   32000    1.2488542   -7.0245441    9.0823445  0.023651938  0.038408003            1 
   33000    1.2439062   -7.0403314    9.5602295  0.024141993  0.038163257            3 
   34000    1.1941533   -7.0504198    9.9840298  0.024470661  0.037981618            2 
   35000    1.1907814   -7.0869665    10.383547  0.024722731   0.03779996            2 
   36000    1.2033348   -7.0320288    10.789656  0.024976055  0.037587725            2 
   37000    1.2244188    -7.063876     11.18704  0.025196035  0.037404058            1 
   38000    1.2118878   -7.0705667    11.513031  0.025247876  0.037204998            2 
   39000    1.2033399   -7.0152099    11.969677  0.025576233  0.037044105            1 
   40000    1.2038774   -7.0918701    12.304401  0.025634168  0.036860454            2 
   41000    1.2073278   -7.0667068     12.76341  0.025941891    0.0366522            1 
   42000      1.19157   -7.0951076    13.164941  0.026120915  0.036507237            1 
   43000    1.2379051   -7.0893928    13.619892  0.026395139  0.036363625            1 
   44000      1.21508    -7.073533    14.091192  0.026687864  0.036269849            2 
   45000    1.1851008   -7.0992971    14.439985  0.026740712  0.036182409            1 
   46000    1.1858596    -7.088173    14.796939  0.026806048  0.036066766            2 
   47000    1.2193532   -7.1135188    15.316179  0.027156346   0.03596642            1 
   48000    1.2026358   -7.0960992    15.648141  0.027166911   0.03588811            2 
   49000    1.1915401   -7.1021998     15.89801  0.027037432  0.035770962            1 
   50000    1.1990784   -7.1366321    16.200921  0.027001535  0.035612099            1 
   51000    1.2012011   -7.1040977    16.565334   0.02706754  0.035434208            1 
   52000    1.1989145   -7.1330986    16.857709  0.027015559  0.035262759            1 
   53000    1.1829236   -7.0676751    17.308069  0.027213944  0.035115544            4 
   54000    1.2144149    -7.131959    17.500078  0.027006293  0.034965994            2 
   55000    1.1799674   -7.1129713     17.86959  0.027075136  0.034780251            1 
   56000    1.1932626   -7.1438943    18.221466  0.027115276  0.034616613            2 
   57000     1.184321   -7.0918474    18.527346  0.027086764   0.03444347            2 
   58000    1.1724501   -7.1708144      18.7287  0.026909052  0.034257177            2 
   59000    1.1720828   -7.1527649    19.049534  0.026906121  0.034065368            2 
   60000    1.1748956   -7.1684702    19.467392  0.027038044   0.03389397            3 
   61000    1.1590827   -7.1318226    19.788358  0.027033275  0.033729666            1 
   62000    1.1604464   -7.1571219    20.334016  0.027330666  0.033584165            2 
   63000    1.1501574   -7.1917506    20.593879   0.02724058  0.033466507            1 
   64000    1.1539235   -7.1188577    21.035916  0.027390515   0.03334521            1 
   65000     1.169738   -7.2067671    21.231265   0.02721957   0.03322519            1 
   66000    1.1464751   -7.1685501    21.558571  0.027220418  0.033089296            1 
   67000    1.1534974   -7.1579501    21.894364  0.027231796  0.032960679            2 
   68000    1.1397537   -7.1686277    22.191769  0.027195795  0.032831008            3 
   69000    1.1895799   -7.2141198    22.555537  0.027240987  0.032703245            2 
   70000    1.1623559   -7.1990586    22.916078  0.027281045   0.03258732            1 
   71000    1.1767651   -7.1827118    23.355773  0.027412879  0.032491235            2 
   72000    1.1693241   -7.1667777    23.657631  0.027381517  0.032396949            1 
   73000    1.1614025   -7.1590991    24.096277  0.027507166  0.032308133            1 
   74000    1.1671143   -7.1984097    24.501984  0.027592324  0.032233254            3 
   75000    1.1380067    -7.187246    24.937942  0.027708824  0.032166713            2 
   76000    1.1467455   -7.2214913    25.174506  0.027603625  0.032092081            4 
   77000    1.1627994   -7.2235015     25.34043  0.027424708  0.032014062            2 
   78000    1.1321634   -7.2314861    25.500117  0.027243715  0.031921838            3 
   79000    1.1425339   -7.2234199    25.889356  0.027309448  0.031824558            2 
   80000    1.1590189   -7.1986936    26.215027   0.02730732  0.031731103            2 
   81000    1.1458878   -7.2485007    26.577093  0.027342688  0.031644662            2 
   82000    1.1392802   -7.2375732    27.080142  0.027520469  0.031564735            1 
   83000    1.1364777   -7.2559137    27.349477  0.027459314  0.031488095            3 
   84000    1.1367109   -7.2570853    27.814691   0.02759394  0.031416738            1 
   85000    1.1179927   -7.2363806    28.037847  0.027488085  0.031352282            2 
   86000    1.1220529   -7.2534661     28.40402  0.027523275  0.031288488            1 
   87000    1.1239807   -7.2308873    28.599092  0.027393766  0.031215426            2 
   88000    1.1284221   -7.2521436    28.690931  0.027169442  0.031130492            1 
   89000    1.1187004   -7.2794197    29.123274  0.027268983  0.031047107            1 
   90000    1.1192981   -7.2446955    29.303306  0.027132691  0.030961776            1 
   91000    1.1275075   -7.2743328    29.660401  0.027161539   0.03087215            2 
   92000    1.1000003   -7.2607288    29.870742  0.027056831   0.03078168            2 
   93000    1.1092845   -7.2703938    30.148653  0.027014922  0.030694621            1 
   94000     1.117049   -7.3058962    30.341528  0.026898518  0.030602054            2 
   95000    1.1252824   -7.2727819    30.856208  0.027066849  0.030517956            5 
   96000    1.1195678   -7.2467307    31.286351  0.027158291  0.030441864            1 
   97000    1.1082542   -7.2729667    31.585057  0.027134928  0.030367732            2 
   98000    1.1256709   -7.3078441    31.778572  0.027022595  0.030293473            1 
   99000    1.1152856   -7.2802992    32.221597  0.027122556  0.030224856            3 
  100000    1.1001759   -7.2911709    32.431366  0.027026138  0.030158553            1 
  101000     1.106494   -7.3333397    32.588976  0.026888594  0.030086153            2 
  102000    1.1123575   -7.3166374    33.025731  0.026981806  0.030014404            1 
  103000    1.1128056   -7.2876469    33.433267  0.027049569  0.029951334            1 
  104000    1.1183687   -7.3211084     33.58553  0.026911482  0.029886823            1 
  105000    1.1066524   -7.2987134    33.765521  0.026798032  0.029815171            2 
  106000     1.073786   -7.2965618    34.131727  0.026833118  0.029740344            6 
  107000    1.1079901   -7.2638877    34.425566  0.026811188  0.029666451            1 
  108000    1.1135511   -7.3466683    34.631845  0.026722103  0.029591184            3 
  109000    1.0777442   -7.2902397    34.887796  0.026672627   0.02951784            3 
  110000    1.0878639   -7.3031848    35.256025   0.02670911  0.029446064            1 
  111000    1.0921456   -7.2970405    35.625188  0.026745637  0.029377288            1 
  112000    1.0825121   -7.3467666     35.76006  0.026607187  0.029308483            2 
  113000    1.0717664   -7.3625128     35.94612  0.026508938  0.029235018            2 
  114000     1.093811   -7.3268156    36.264574  0.026509191  0.029159305            2 
  115000    1.0821302   -7.3745529    36.567344  0.026498075   0.02908494            2 
  116000    1.0776201   -7.3353681    36.763634  0.026410656  0.029013905            2 
  117000    1.0732777   -7.3364606    36.926376  0.026300837  0.028941327            1 
  118000    1.0490217   -7.3394458    37.297613  0.026340122  0.028867889            2 
  119000    1.0779289   -7.3896896    37.598899  0.026329761  0.028797169            1 
  120000    1.0814214   -7.3795022    37.667425  0.026157934   0.02872513            1 
  121000     1.111294   -7.3606611    38.054151  0.026208093  0.028650764            2 
  122000    1.0835923   -7.3521855    38.226741  0.026111162  0.028578049            2 
  123000    1.0658785    -7.386276    38.413395  0.026025335  0.028500839            3 
  124000    1.0881462   -7.3601933    38.650096  0.025974527  0.028423641            2 
  125000    1.0498851   -7.3802632    38.976384  0.025984256  0.028344779            2 
  126000    1.0509079   -7.3963516    39.071747  0.025841102  0.028265715            1 
  127000    1.0988066   -7.3982369    39.208889  0.025727617  0.028184748            2 
  128000    1.0549846   -7.4202454    39.542324    0.0257437  0.028104241            1 
  129000    1.0580622   -7.3893789    39.717743  0.025657457  0.028025301            2 
  130000    1.0556247    -7.407639    39.942104  0.025603913  0.027944138            1 
  131000    1.0472796   -7.3887343    40.191994  0.025567426   0.02786187            2 
  132000    1.0955246   -7.4319912    40.372958  0.025487979  0.027780877            1 
  133000    1.0616922   -7.4192924    40.744714   0.02552927  0.027701065            2 
  134000    1.0458225   -7.4364545    41.127359  0.025576716  0.027629254            2 
  135000    1.0501242   -7.4141764    41.312073   0.02550128  0.027562575            2 
  136000    1.0642332   -7.4240402    41.689823  0.025545234  0.027493704            1 
  137000    1.0790703   -7.4256561    41.876706  0.025472449  0.027425213            2 
  138000    1.0235136   -7.4354903    41.934494  0.025322762  0.027358147            3 
  139000    1.0523558   -7.4361168    42.404519  0.025422373  0.027291416            1 
  140000    1.0354077   -7.4166707     42.48861  0.025290839  0.027224583            4 
  141000     1.040421   -7.4404892     42.91755  0.025364982  0.027156499            3 
  142000    1.0247829   -7.4609233    43.003899   0.02523703  0.027089503            3 
  143000    1.0354762   -7.4445364    43.282908   0.02522314   0.02702361            2 
  144000    1.0531625   -7.4229894     43.50425  0.025176071  0.026958194            4 
  145000    1.0471126   -7.4678539    43.758711  0.025148684  0.026892983            2 
  146000    1.0343613   -7.4608875    44.063782   0.02515056  0.026830029            2 
  147000    1.0322897   -7.4545216    44.312249  0.025120322  0.026766323            2 
  148000    1.0663061   -7.4615018    44.506218  0.025059808  0.026703758            4 
  149000    1.0402735   -7.4710823    44.642148  0.024967644  0.026639758            2 
  150000    1.0332663   -7.4997478    44.833399  0.024907444  0.026574045            2 
  151000     1.024548   -7.4664412    45.202344  0.024946106  0.026510955            1 
  152000    1.0234616   -7.4601632    45.342037  0.024858573    0.0264482            2 
  153000    1.0147278   -7.4985532    45.417801  0.024737364  0.026383676            3 
  154000    1.0202444   -7.5059798    45.881652  0.024827734  0.026323517            1 
  155000    1.0136588   -7.5100954    46.121469  0.024796489  0.026264467            1 
  156000     1.034196   -7.5012062    46.279841  0.024722137  0.026203708            2 
  157000     1.017151   -7.4754828    46.760531  0.024819814  0.026145906            1 
  158000    1.0213149   -7.4698734    46.877639  0.024724493  0.026090698            2 
  159000    1.0106631   -7.5194065    47.092499  0.024681603   0.02603521            2 
  160000    1.0001711   -7.5008763    47.487329  0.024732984   0.02598022            2 
  161000   0.98885353   -7.5256077    47.539309  0.024606267  0.025926099            1 
  162000    1.0047314   -7.5291361    47.771107  0.024573615  0.025870629            1 
  163000    1.0230094   -7.5215048    47.784702  0.024429807  0.025813328            1 
  164000   0.99456898   -7.5461217    48.086895  0.024434398  0.025755448            2 
  165000    1.0208483   -7.5117503    48.273612  0.024380612  0.025697945            2 
  166000    1.0251244   -7.5698025    48.326704  0.024260393  0.025639668            6 
  167000   0.99844206   -7.5211918    48.669758  0.024286306  0.025582317            2 
  168000    1.0034287   -7.5366111    48.966989  0.024289181  0.025522847            2 
  169000   0.99943505   -7.5504304    49.077487  0.024199944  0.025465489            1 
  170000    1.0019812   -7.5210769    49.332834  0.024182762  0.025406953            2 
  171000      1.03063   -7.5632608    49.525816  0.024135388   0.02535127            1 
  172000    0.9726987   -7.5701656    49.734325  0.024096087  0.025295528            1 
  173000   0.97966596   -7.5482397    49.995941  0.024082823  0.025239922            4 
  174000   0.99124262   -7.5662671    50.250809  0.024066479  0.025186636            1 
  175000    1.0199776   -7.5846997    50.285656  0.023945551  0.025131132            2 
  176000   0.96789779   -7.5703277    50.538427   0.02392918  0.025073493            2 
  177000   0.99112517   -7.5640595    50.733122   0.02388565  0.025016715            2 
  178000   0.97237054   -7.5940503    50.785969  0.023776203  0.024958254            2 
  179000   0.99504648   -7.5720637    51.120456  0.023799095  0.024900321            1 
  180000   0.97699265   -7.5855169    51.278272  0.023739941  0.024842181            3 
  181000   0.97183604   -7.5681129    51.506208  0.023713724  0.024785996            2 
  182000   0.97385854   -7.5892484     51.79102  0.023713837  0.024731577            2 
  183000   0.96865511   -7.6191031    51.699407  0.023542535  0.024676584            3 
  184000   0.98412624   -7.6049553    51.920343  0.023514648  0.024619803            2 
  185000   0.97567672   -7.6222735    52.230708  0.023527346   0.02456456            1 
  186000   0.97031128   -7.6327543    52.342629  0.023450999  0.024508253            3 
  187000   0.99904036   -7.6365012    52.459763  0.023377791   0.02445168            1 
  188000   0.97407807   -7.6136326    52.509665  0.023275561  0.024394133            4 
  189000   0.95550753    -7.613727    52.844178  0.023299902  0.024335902            2 
  190000   0.97272381   -7.6220743    52.869499  0.023188377  0.024278826            1 
  191000   0.95168967   -7.6354587    53.303587  0.023256364  0.024223854            1 
  192000   0.96980892    -7.586273    53.330358  0.023146857  0.024168675            2 
  193000   0.95529457   -7.6300785    53.584881  0.023136822  0.024111953            3 
  194000   0.97239265   -7.6886036    53.600757   0.02302438  0.024054665            6 
  195000   0.94424533   -7.6558273    53.933914  0.023048681  0.023997216            1 
  196000   0.96340206   -7.6113197    54.252114  0.023066375  0.023942674            2 
  197000    0.9476151   -7.6327188    54.440796  0.023029102  0.023887421            2 
  198000   0.94584503   -7.6568627    54.293817  0.022850933  0.023831181            2 
  199000    0.9452652   -7.6692073    54.543234   0.02284055  0.023775084            3 
  200000    0.9536723   -7.6479875    54.739665  0.022808194  0.023719329            3 
  201000   0.93978876   -7.6709328    54.968649  0.022789655  0.023663445            1 
  202000   0.94998929   -7.6713796    54.813397  0.022612788  0.023606646            3 
  203000   0.96137195   -7.6603882    55.021699  0.022586904  0.023549165            5 
  204000   0.94772599   -7.6979899    54.921994  0.022435455  0.023489192            2 
  205000    0.9487762   -7.7081886    55.035813  0.022372282  0.023427552            1 
  206000   0.94578738   -7.6611271     55.16738  0.022316901  0.023365102            2 
  207000   0.94040596   -7.6570056    55.401791  0.022303458  0.023303897            2 
  208000   0.91788551   -7.6700397    55.407281   0.02219843  0.023242452            2 
  209000   0.92186466    -7.694937    55.582819  0.022162208  0.023180079            3 
  210000   0.91723258   -7.7070277    55.721245  0.022111605  0.023117634            1 
  211000    0.9265424   -7.7270465    55.884272  0.022071197  0.023055654            4 
  212000   0.92949871   -7.7288105    55.959462  0.021996644  0.022994138            2 
  213000   0.93747081   -7.7199461    56.062593  0.021933722  0.022932573            1 
  214000   0.92835464   -7.7009062    56.258335  0.021907451  0.022870705            2 
  215000   0.92998414   -7.6942889    56.273452  0.021811415  0.022808537            1 
  216000   0.92833427   -7.7004271    56.423675  0.021768393  0.022746118            2 
  217000   0.91288962   -7.7144981    56.423321  0.021667942  0.022683081            2 
  218000   0.90713594   -7.7517844    56.585009  0.021630355  0.022619822            4 
  219000   0.89728451    -7.708262    56.979849   0.02168183  0.022557907            1 
  220000   0.91111849   -7.7314038    56.942421  0.021569099  0.022496534            2 
  221000    0.9077095   -7.7649608    56.898701  0.021455015  0.022435096            2 
  222000   0.91700964   -7.7349463    57.106309  0.021436302  0.022372073            1 
  223000   0.89883225   -7.7773271    57.158231  0.021359578  0.022309209            4 
  224000   0.91690803   -7.7460402     57.45552  0.021374821  0.022247163            2 
  225000    0.8830493   -7.7238367     57.60489  0.021335144  0.022185481            3 
  226000   0.90786116   -7.7774726    57.596346  0.021237591  0.022124434            2 
  227000   0.89428755   -7.7758228    57.769045  0.021207432  0.022062659            2 
  228000   0.89847935   -7.7553109    57.887425  0.021157685  0.022001116            2 
  229000   0.89182196   -7.8232235    57.880858  0.021062903  0.021938909            1 
  230000   0.90614012    -7.800117    57.961116  0.021000404  0.021876734            1 
  231000   0.90003847   -7.7994444    58.003578  0.020924812  0.021814513            4 
  232000   0.89904919   -7.7847923    58.444118  0.020992858  0.021753455            1 
  233000   0.89965432   -7.8131432    58.308362  0.020854207  0.021692336            1 
  234000   0.89030515   -7.7862033     58.56992  0.020858234  0.021630912            1 
  235000   0.88474768   -7.8147061    58.655341  0.020799766  0.021570156            2 
  236000   0.89559224   -7.8132001    58.765494  0.020750528  0.021509922            1 
  237000   0.90533832   -7.8039164    58.825057  0.020683916  0.021448591            2 
  238000   0.89555942   -7.8443102    58.898719  0.020622801  0.021387862            4 
  239000   0.88313465   -7.8244611    58.966342  0.020560091  0.021327388            5 
  240000   0.89150426    -7.838194    58.999254  0.020485852  0.021266959            3 
  241000   0.88210074   -7.8069546    59.210757  0.020473982  0.021206639            5 
  242000   0.89627421   -7.8277396    59.452639  0.020472672  0.021146677            3 
  243000   0.88959031   -7.8256932    59.579813  0.020432034  0.021086747            3 
  244000   0.86861899   -7.8403947    59.592176  0.020352519  0.021027052            3 
  245000   0.88303616    -7.855849    59.586216   0.02026742  0.020967287            1 
  246000   0.87133029   -7.8460771    59.502054  0.020156522  0.020906022            3 
  247000   0.86263647   -7.8213986    59.635337  0.020119884  0.020845221            3 
  248000   0.86203476    -7.814427    59.800294  0.020094185  0.020784207            1 
  249000   0.88584206    -7.830126     59.87684  0.020039103  0.020723991            1 
  250000   0.87666462   -7.8454606    60.044401    0.0200148  0.020663617            1 
  251000   0.85607312   -7.8250169    59.949024  0.019903394  0.020602784            2 
  252000   0.86873467    -7.856879    60.141364  0.019888017  0.020542282            2 
  253000    0.8691222   -7.8703691    60.112612  0.019799938  0.020481433            2 
  254000   0.83716576   -7.8789235    60.175236  0.019742531  0.020420089            2 
  255000   0.86776982   -7.9009141    60.119888  0.019647022  0.020358687            2 
  256000   0.85290798    -7.896586    60.235151  0.019607796  0.020297108            2 
  257000   0.85268504   -7.9025487     60.29886  0.019552159  0.020235874            2 
  258000   0.85503374   -7.9008768    60.463319  0.019529496  0.020174523            3 
  259000   0.85386819   -7.9139243    60.497143  0.019464975  0.020114019            2 
  260000   0.85322013   -7.8878829    60.677354   0.01944787  0.020054857            1 
  261000   0.85704041   -7.9215769    60.816817  0.019417885  0.019994957            2 
  262000   0.84779514   -7.9064078      60.8348  0.019349491  0.019935252            2 
  263000   0.86044015   -7.8980147    60.995658  0.019326888  0.019875815            3 
  264000   0.83724775   -7.9243367    61.082524    0.0192811  0.019817257            1 
  265000   0.85604427   -7.9267128    61.160446  0.019232845  0.019759152            1 
  266000   0.84305054   -7.9453921    61.154581  0.019158703  0.019700988            2 
  267000   0.84445348   -7.9310524    61.356259  0.019149893  0.019642611            2 
  268000     0.840443   -7.9333958    61.403788  0.019093218  0.019583945            4 
  269000    0.8381715    -7.962911    61.313109  0.018994148  0.019525044            1 
  270000   0.84565738   -7.9471642    61.299425  0.018919576  0.019466231            3 
  271000   0.82913936   -7.9883255     61.38156  0.018875018  0.019406838            2 
  272000   0.83544318   -7.9824535    61.479322  0.018835577  0.019347642            5 
  273000   0.84898321   -7.9972798    61.363093  0.018731103  0.019288619            4 
  274000   0.82722258    -7.965029     61.49928   0.01870416  0.019229644            3 
  275000   0.85290323   -7.9510418    61.678288   0.01869039  0.019171209            3 
  276000   0.82657889   -7.9725861    61.632546   0.01860886  0.019112687            2 
  277000   0.82273539   -7.9705782    61.639688  0.018543829  0.019053905            1 
  278000   0.80622997   -7.9646394    61.951641  0.018570636  0.018995439            3 
  279000   0.81254829   -7.9954493    61.846694  0.018472728   0.01893704            2 
  280000   0.80983419   -7.9986469    61.939096  0.018434255  0.018878222            5 
  281000   0.84594027   -7.9765212    62.148908  0.018430874  0.018820026            1 
  282000   0.80927415   -8.0194489    61.948855  0.018306399  0.018761978            3 
  283000   0.81282998   -8.0018584    61.904421  0.018228628  0.018702747            2 
  284000   0.80590322   -8.0173558    62.033674  0.018202369  0.018644172            4 
  285000   0.80240555   -8.0309408    61.942566  0.018111861  0.018585672            2 
  286000   0.78683207   -7.9904886    62.098371  0.018093931  0.018527484            3 
  287000   0.82295849    -8.008276    62.402353   0.01811915  0.018470146            2 
  288000   0.79249755   -8.0263886    62.357837  0.018043356  0.018412654            1 
  289000    0.8125262   -8.0353664    62.238608  0.017946542  0.018355157            6 
  290000   0.79723823   -8.0373297    62.315989  0.017906893  0.018297538            3 
  291000   0.81156022   -8.0335685    62.182398  0.017807101  0.018239408            1 
  292000   0.79414662   -8.0586394     62.34799  0.017793376  0.018180985            2 
  293000   0.79883814   -8.1035772    62.462611  0.017765248  0.018122705            2 
  294000   0.79939587   -8.0871242    62.453555  0.017702255  0.018064662            2 
  295000   0.78804706   -8.0752437     62.38675  0.017623376  0.018006868            1 
  296000   0.78584236   -8.0816888    62.551299  0.017610163  0.017949151            3 
  297000   0.81212782   -8.1061442    62.335075  0.017490201  0.017891057            2 
  298000   0.79762046   -8.0773872    62.350507  0.017435824  0.017832682            2 
  299000   0.79070884   -8.0608033    62.660253  0.017463839  0.017775222            3 
  300000   0.77044243   -8.0792005    62.529375  0.017369271  0.017717583            2 
  301000    0.7919641   -8.0864952    62.453289  0.017290501  0.017659671            2 
  302000   0.79815523   -8.1006274    62.599813  0.017273679  0.017602095            1 
  303000   0.78795841   -8.1246518    62.744893  0.017256571  0.017545071            1 
  304000   0.78026777   -8.1150823    62.608603  0.017162446  0.017487828            4 
  305000   0.77810855   -8.1100154    62.772764  0.017151028  0.017430579            2 
  306000   0.77332378   -8.1184836    62.747083  0.017087986  0.017373855            1 
  307000   0.77988352   -8.0587352      62.8796  0.017068295  0.017317043            1 
  308000   0.78054125   -8.0969097    63.115303  0.017076651  0.017261003            3 
  309000   0.76372707   -8.1142667    62.960054  0.016979518   0.01720492            2 
  310000   0.78111132   -8.1239144    63.040989  0.016946502  0.017149252            2 
  311000   0.78637506   -8.1466108    62.946293  0.016866638  0.017093517            1 
  312000   0.75731088   -8.1314639    63.068177  0.016845133  0.017037924            1 
  313000    0.8017713   -8.1356343    63.088325  0.016796679  0.016982794            1 
  314000   0.76304641   -8.1527681    63.141015   0.01675717  0.016927997            3 
  315000   0.77115697   -8.1126897    63.380912  0.016767437  0.016873381            2 
  316000   0.75271438   -8.1385928    63.198468  0.016666263  0.016819088            1 
  317000   0.77190243   -8.1466837    63.228642   0.01662162  0.016764567            1 
  318000   0.74450295    -8.153959    63.063442  0.016526059  0.016710122            3 
  319000   0.74988866    -8.153439    63.255298  0.016524372  0.016655957            2 
  320000   0.74016962   -8.1496731    63.371696  0.016503046  0.016601801            4 
  321000   0.75220637   -8.2059879    63.358269  0.016448149  0.016547562            1 
  322000   0.75951401    -8.180813    63.300692  0.016382167  0.016493258            1 
  323000   0.74265886   -8.1780861    63.285989  0.016327654  0.016439247            3 
  324000   0.73873982   -8.1874903    63.291897   0.01627878  0.016385381            2 
  325000   0.77046423   -8.1994945    63.393731  0.016254803  0.016331645            3 
  326000   0.75356037   -8.1812559    63.511094  0.016234942  0.016278205            2 
  327000   0.74061408     -8.20222    63.442569  0.016167831  0.016224841            4 
  328000   0.75044178   -8.1902939    63.294712  0.016080974  0.016171468            4 
  329000   0.71998489   -8.1950215    63.541434  0.016094588  0.016118451            4 
  330000    0.7380921   -8.2107981    63.558493  0.016050125  0.016065656            3 
  331000   0.75717101   -8.2296799    63.460516  0.015976968  0.016012766            3 
  332000   0.72169972   -8.1878254    63.603966  0.015964851  0.015959998            6 
  333000   0.71948884   -8.2091803    63.383701  0.015861787  0.015907332            1 
  334000   0.73342984   -8.2006324    63.545171  0.015854583  0.015854822            4 
  335000   0.73474467   -8.1940513    63.651491  0.015833704  0.015802406            2 
  336000   0.73170304   -8.2080633    63.628181  0.015780799  0.015750271            2 
  337000   0.72627171   -8.2296091    63.634288  0.015735482  0.015698484            1 
  338000   0.72530233    -8.214604    63.631307  0.015688192  0.015646961            3 
  339000   0.72963576   -8.2535987    63.515997  0.015613569  0.015595471            3 
  340000   0.72295644   -8.2716571    63.568321  0.015580471  0.015543932            2 
  341000   0.71951977   -8.2424847    63.573107   0.01553595  0.015492341            2 
  342000   0.70872417   -8.2449821    63.638551   0.01550647  0.015440874            4 
  343000   0.71241444   -8.2460101    63.590177  0.015449508  0.015389415            2 
  344000   0.72452142   -8.2415949    63.722169  0.015436572  0.015338077            2 
  345000   0.72417103   -8.2611064    63.489085  0.015335528  0.015286885            1 
  346000   0.71729587   -8.2701695    63.586923  0.015314769  0.015235867            2 
  347000   0.70712962   -8.2849274    63.607687  0.015275621  0.015184715            1 
  348000   0.70738882   -8.2908359     63.62568  0.015236035   0.01513387            3 
  349000   0.72323229   -8.2915817    63.613131  0.015189382  0.015083148            1 
  350000   0.71526945   -8.2727335    63.772981  0.015184043  0.015032496            3 
  351000   0.69367483   -8.3206616     63.73485  0.015131731   0.01498238            3 
  352000   0.71422007   -8.3158653    63.764889  0.015095854  0.014932235            1 
  353000   0.70228101   -8.3150598    63.650705  0.015026134  0.014882366            2 
  354000   0.70698452    -8.285559    63.770312  0.015011844  0.014832653            3 
  355000   0.70176394   -8.2944471    63.694049  0.014951655  0.014783146            2 
  356000   0.70231691   -8.2760076    63.841556  0.014944184  0.014733785            2 
  357000   0.71241862    -8.314354    63.882726  0.014911934   0.01468455            2 
  358000   0.70154771   -8.3096884    63.886097  0.014871065  0.014635491            2 
  359000    0.7026874   -8.3107342    63.949107  0.014844268   0.01458661            2 
  360000   0.69927421   -8.3386019    63.894857  0.014790476  0.014537918            2 
  361000   0.68899093   -8.3532982    63.919275  0.014755142  0.014489474            2 
  362000   0.69568224   -8.3397284     63.94686  0.014720732  0.014441154            2 
  363000   0.68691186   -8.3687607    63.821191  0.014651329  0.014392935            1 
  364000    0.6847075   -8.3651883    63.812063  0.014608989  0.014344771            4 
  365000   0.69094354    -8.350286     63.82841  0.014572696  0.014296789            4 
  366000   0.68930736   -8.3539005    63.825073   0.01453212  0.014248914            1 
  367000   0.68598425   -8.3616309    63.834215  0.014494599  0.014201145            1 
  368000   0.66788534   -8.3749066    63.721998    0.0144298  0.014153377            2 
  369000   0.68507124   -8.3793055    63.801901   0.01440874  0.014105791            2 
  370000   0.68831126    -8.399185    63.813259  0.014372356  0.014058275            2 
  371000   0.67816818   -8.3748112    63.775726  0.014325185  0.014010876            5 
  372000   0.67096898   -8.3908876    63.740648  0.014278819  0.013963669            3 
  373000   0.66621944     -8.39419    63.851621  0.014265331  0.013916509            4 
  374000    0.6884064   -8.4075074    63.779646  0.014211151  0.013869623            3 
  375000   0.67957115   -8.3910786    63.792142  0.014176032  0.013822481            3 
  376000   0.66089147   -8.4235187        63.77  0.014133422   0.01377552            2 
  377000   0.67037898   -8.3931157     63.79189  0.014100771  0.013728634            1 
  378000   0.64637323   -8.4036976    63.745996   0.01405335  0.013681705            2 
  379000   0.66876482   -8.4138615    63.720891   0.01401075  0.013635027            5 
  380000   0.64979889   -8.4030911    63.669218  0.013962548  0.013588623            1 
  381000   0.63750435   -8.4213233     63.67594  0.013927371  0.013542221            2 
  382000   0.65723408   -8.4083949    63.772096  0.013911888  0.013495981            1 
  383000   0.66850191   -8.4396792    63.681232  0.013855795  0.013449885            2 
  384000   0.65747909   -8.4295036    63.732402  0.013830816  0.013404125            1 
  385000   0.65533193   -8.4197572    63.744155  0.013797436  0.013358573            3 
  386000   0.65315499   -8.4500393    63.701207   0.01375242  0.013313175            1 
  387000   0.64533057   -8.4489317     63.77805   0.01373343  0.013267897            3 
  388000   0.64457439   -8.4320201    63.657045  0.013672046  0.013222903            2 
  389000   0.65336598   -8.4253069    63.749413  0.013656687  0.013177895            2 
  390000   0.65623539    -8.446296    63.756258  0.013623132  0.013133017            2 
  391000   0.64505999   -8.4544175    63.768349  0.013590867    0.0130885            2 
  392000   0.63370948   -8.4698988    63.828377  0.013568958  0.013044049            3 
  393000   0.64802943   -8.4774011    63.754446  0.013518755  0.012999823            2 
  394000   0.62990234   -8.4843147    63.704476  0.013473874  0.012955761            2 
  395000   0.64403916   -8.4694499    63.719353  0.013442901  0.012911754            2 
  396000    0.6229019   -8.4660055    63.680388  0.013400755  0.012867918            1 
  397000   0.63711596   -8.4562391    63.710574  0.013373336  0.012824288            2 
  398000   0.61772328   -8.4997534    63.716082  0.013340888  0.012780801            1 
  399000   0.62689019   -8.4603071    63.790635  0.013323023   0.01273745            1 
  400000   0.61952845   -8.4678038    63.774104  0.013286272  0.012694232            1 
  401000   0.62518781    -8.467321    63.819176  0.013262505  0.012651078            1 
  402000   0.62424737   -8.4778522     63.79772  0.013225066  0.012608337            3 
  403000   0.63319436   -8.4872206    63.724599   0.01317713   0.01256576            2 
  404000   0.61746761   -8.4786456      63.8202  0.013164233  0.012523433            2 
  405000   0.61410372   -8.5017533    63.729299  0.013113024  0.012481128            2 
  406000   0.61408964   -8.4842144    63.716601   0.01307812  0.012438911            2 
  407000   0.61364712   -8.4760723    63.754498  0.013053746  0.012396897            2 
  408000   0.60579545   -8.4957239    63.713154  0.013013308  0.012355028            4 
  409000   0.60556051   -8.5112956    63.614711  0.012961433  0.012313301            2 
  410000   0.60887138   -8.4889282    63.588932   0.01292458  0.012271577            2 
  411000   0.60912275   -8.5049052    63.709386  0.012917556  0.012230081            2 
  412000   0.60648031   -8.5085484     63.61272  0.012866651  0.012188712            5 
  413000   0.60874407   -8.5192533    63.590143  0.012830941  0.012147328            2 
  414000    0.6055538   -8.5374758    63.688383  0.012819723   0.01210613            3 
  415000   0.60515393     -8.50649    63.628934  0.012776894  0.012065121            4 
  416000    0.5942202   -8.5296097    63.618109  0.012744012  0.012024215            4 
  417000   0.59416886   -8.5220733    63.700948  0.012730006  0.011983429            5 
  418000   0.58789474   -8.5258912    63.599002  0.012679227  0.011942779            2 
  419000   0.60857731   -8.5534644    63.715624  0.012672161  0.011902275            1 
  420000   0.58714332   -8.5422011    63.546185   0.01260837  0.011861923            2 
  421000   0.59648536   -8.5363953    63.675137  0.012603946  0.011821679            4 
  422000   0.58952049    -8.553835    63.574198  0.012554147  0.011781689            4 
  423000   0.59232275   -8.5449764    63.576672  0.012524955  0.011741883            2 
  424000   0.59334259    -8.535775    63.562404  0.012492611  0.011702153            2 
  425000   0.57783304   -8.5218938    63.432939  0.012437831  0.011662503            2 
  426000   0.58602863    -8.573872    63.614489  0.012444149  0.011623069            2 
  427000   0.58928692   -8.5766036    63.612198  0.012414559  0.011583806            1 
  428000   0.58730773   -8.5509776    63.579152  0.012379118   0.01154465            1 
  429000   0.58946405   -8.5717716    63.668652  0.012367648  0.011505592            2 
  430000   0.58539932   -8.5726396    63.591552  0.012323944   0.01146669            5 
  431000   0.58515116   -8.5755092    63.542391  0.012285845  0.011427927            4 
  432000   0.57133051   -8.5841254    63.556386  0.012260105  0.011389265            4 
  433000   0.56432117   -8.5621669    63.335415  0.012189264  0.011350777            2 
  434000   0.55889931   -8.5854174    63.462652  0.012185609  0.011312324            3 
  435000   0.57698974   -8.5832031    63.326224  0.012131461  0.011274008            1 
  436000   0.57637388    -8.584531    63.488863  0.012134721  0.011235847            2 
  437000   0.57138792   -8.5904098     63.34667  0.012079838  0.011197842            2 
  438000   0.58005272   -8.5875296     63.35687  0.012054199  0.011159909            2 
  439000   0.57025347   -8.5964266    63.352343  0.012025881  0.011122137            2 
  440000   0.56099264   -8.5869187     63.55243  0.012036445  0.011084554            3 
  441000   0.56739686   -8.6210532    63.363369  0.011973426  0.011047066            3 
  442000   0.56606556   -8.6043346    63.386674   0.01195073  0.011009797            3 
  443000   0.54873234   -8.5952718    63.308567  0.011909061  0.010972764            1 
  444000   0.56186595   -8.6200353    63.520161  0.011921952  0.010935845            2 
  445000   0.56209416    -8.620776    63.336165  0.011860705  0.010899043            2 
  446000   0.55559731   -8.6128745     63.45264  0.011855874  0.010862521            3 
  447000   0.55994161    -8.625316    63.398794  0.011819313  0.010826057            3 
  448000   0.54315756   -8.6178336    63.315099  0.011777362  0.010789717            2 
  449000   0.54046505    -8.620627    63.450202  0.011776207  0.010753531            4 
  450000   0.54585092   -8.6381739    63.480287  0.011755609  0.010717463            2 
  451000   0.54323509   -8.6320671     63.33519  0.011702733  0.010681538            2 
  452000   0.55365075   -8.6211581    63.435476  0.011695331  0.010645814            2 
  453000   0.54989736   -8.6306348    63.414895  0.011665728   0.01061022            4 
  454000   0.53175615   -8.6619208    63.325021  0.011623535  0.010574681            3 
  455000   0.54136111   -8.6238808    63.380284  0.011608111  0.010539226            2 
  456000   0.53874775   -8.6521847    63.370623  0.011580889  0.010503997            4 
  457000   0.53891984   -8.6466223    63.376539  0.011556626   0.01046884            2 
  458000   0.52668223   -8.6463977    63.316023  0.011520383  0.010433858            3 
  459000   0.53336166   -8.6375078    63.313512  0.011494828  0.010398999            1 
  460000   0.53630342   -8.6710886    63.341369  0.011474886  0.010364288            2 
  461000   0.52716975   -8.6506738    63.268378    0.0114368  0.010329655            1 
  462000   0.52017644   -8.6656783    63.252301  0.011409145  0.010295206            2 
  463000   0.51971055   -8.6656174    63.339455   0.01140019  0.010260861            3 
  464000   0.53286427   -8.6625625    63.291299  0.011366972  0.010226642            1 
  465000   0.52311754   -8.6674408    63.246298  0.011334462  0.010192554            3 
  466000   0.51144362   -8.6547659    63.241854  0.011309344  0.010158659            2 
  467000   0.53022014   -8.6846035    63.351075  0.011304617  0.010124812            4 
  468000   0.52348295   -8.6866786    63.196374  0.011252916  0.010091181            2 
  469000   0.52121383   -8.7043388    63.274531  0.011242809  0.010057598            3 
  470000   0.51631382   -8.6820985    63.196849  0.011205115  0.010024145            2 
  471000   0.52031146   -8.6940305     63.23416  0.011187926 0.0099908496            4 
  472000   0.51429052    -8.679997    63.274721  0.011171384 0.0099576943            3 
  473000   0.49921956   -8.6952473    63.205101  0.011135501 0.0099247372            3 
  474000   0.51272431   -8.7145902      63.2573  0.011121185 0.0098918527            3 
  475000   0.51065507   -8.6985642    63.188074  0.011085627  0.009859205            3 
  476000   0.51311132   -8.6904708     63.04117  0.011036619 0.0098266222            5 
  477000   0.49240025   -8.6955943    63.179313  0.011037616 0.0097941457            2 
  478000   0.51488203   -8.7119217    63.103955  0.011001387 0.0097618083            3 
  479000   0.50968283   -8.7195582    63.278515  0.011008788 0.0097296433            2 
  480000   0.50650509    -8.719042    63.142259  0.010962198 0.0096975612            3 
  481000    0.5017533   -8.7022856      63.1479  0.010940385 0.0096656352            3 
  482000   0.49791907   -8.7141058    63.019994  0.010895573 0.0096338324            3 
  483000    0.4914758   -8.7330941     63.13457  0.010892783 0.0096021907            1 
  484000   0.50887961   -8.7265757    63.114916  0.010866893 0.0095706288            2 
  485000   0.48704639   -8.7083337    63.193803  0.010858042 0.0095392198            3 
  486000    0.4877178   -8.7305277    63.151644  0.010828471 0.0095079064            2 
  487000   0.49957208    -8.731962    63.100227  0.010797438  0.009476721            2 
  488000   0.49478417   -8.7469495    63.161768  0.010785821 0.0094456546            2 
  489000   0.47758795   -8.7240066    63.110032  0.010754947 0.0094146878            2 
  490000   0.48010889   -8.7440854    63.130099  0.010736411 0.0093838132            3 
  491000   0.47463706   -8.7523844    63.050613  0.010701054 0.0093530832            3 
  492000    0.4782611   -8.7285158    63.062795  0.010681368 0.0093224623            2 
  493000   0.48164899    -8.753161    63.107499  0.010667258 0.0092919727            3 
  494000    0.4778381   -8.7403096    63.091174  0.010642911 0.0092616082            2 
  495000   0.47989984   -8.7547258    62.960829  0.010599466  0.009231385            4 
  496000   0.48004652    -8.762643    62.992581  0.010583431 0.0092012741            2 
  497000   0.47550383   -8.7496842    62.999697  0.010563329 0.0091713115            1 
  498000   0.46783562   -8.7479378    63.070226   0.01055392 0.0091414615            4 
  499000   0.47655661   -8.7659986    63.039686   0.01052767 0.0091117459            1 
  500000   0.46267955   -8.7436585    63.049822  0.010508304 0.0090821261            2 
  501000   0.47426326   -8.7657321    63.049647    0.0104873 0.0090526268            3 
  502000   0.46436215   -8.7649071    62.945373  0.010449099 0.0090232405            2 
  503000   0.46746941   -8.7691545    62.992005  0.010436051 0.0089939492            6 
  504000   0.45740624   -8.7754845    62.980944  0.010413516 0.0089648047            3 
  505000    0.4653627   -8.7727151    62.972449  0.010391493 0.0089358069            3 
  506000   0.47244767   -8.7798638    62.974762  0.010371338 0.0089068835            2 
  507000   0.45812253   -8.7713485    62.934191  0.010344213 0.0088780707            2 
  508000   0.46394797     -8.78323    63.000676  0.010334757 0.0088493748            1 
  509000   0.44076166   -8.7860552    62.885379  0.010295576 0.0088207912            2 
  510000   0.45115632   -8.7798118    62.921852  0.010281348 0.0087923367            2 
  511000   0.45795471   -8.7943016    62.957776  0.010267087 0.0087639886            4 
  512000   0.45302862   -8.7965166    62.828665   0.01022602 0.0087357439            2 
Loop time of 1211.92 on 48 procs for 500000 steps with 4000 atoms

Performance: 71291.658 tau/day, 412.567 timesteps/s
99.4% CPU use with 48 MPI tasks x no OpenMP threads

MPI task timing breakdown:
Section |  min time  |  avg time  |  max time  |%varavg| %total
---------------------------------------------------------------
Pair    | 75.784     | 81.789     | 87.026     |  30.9 |  6.75
Neigh   | 8.0148     | 8.3163     | 8.8376     |   6.3 |  0.69
Comm    | 78.622     | 83.857     | 90.312     |  35.1 |  6.92
Output  | 0.84298    | 0.84348    | 0.85288    |   0.2 |  0.07
Modify  | 1021.6     | 1025.1     | 1028       |   3.8 | 84.59
Other   |            | 12         |            |       |  0.99

Nlocal:        83.3333 ave          91 max          75 min
Histogram: 1 1 2 12 4 12 8 3 3 2
Nghost:        2110.29 ave        2124 max        2095 min
Histogram: 3 2 6 5 5 9 4 7 3 4
Neighs:        13834.1 ave       15576 max       12124 min
Histogram: 2 2 4 10 8 9 5 6 0 2
FullNghs:      27668.4 ave       30248 max       24728 min
Histogram: 1 1 2 11 6 9 8 6 1 3

Total # of neighbors = 1328081
Ave neighs/atom = 332.02025
Neighbor list builds = 26752
Dangerous builds = 0

#clear
#
#next RN
#
#jump SELF
Total wall time: 0:20:15
