
units lj                  # Use reduced LJ style units
atom_style atomic         # Uncharged point particles
atom_modify map hash      # Needed for indexing of clusters etc
                          # Used to be able to find where atoms are in relation to each other.

lattice fcc 1.0 spacing 1 1 1
Lattice spacing in x,y,z = 1.5874011 1.5874011 1.5874011
region box block 0 10 0 10 0 10 units lattice
create_box 2 box
Created orthogonal box = (0.0000000 0.0000000 0.0000000) to (15.874011 15.874011 15.874011)
  3 by 4 by 4 MPI processor grid
create_atoms 1 box
Created 4000 atoms
  using lattice units in orthogonal box = (0.0000000 0.0000000 0.0000000) to (15.874011 15.874011 15.874011)
  create_atoms CPU = 0.003 seconds
set type 1 type/fraction 2 0.79 78393
Setting atom values ...
  3145 settings made for type/fraction
mass 1 1.0
mass 2 1.0
pair_style lj/cut  3.5
pair_modify tail  yes
pair_coeff 1  1  1.0  1.0   # Intearaction between 1 and 1 set with epsilon = 1 and sigma = 1
pair_coeff 1  2  1.5  0.8
pair_coeff 2  2  0.5  0.88

write_data data.0
System init for write_data ...
Neighbor list info ...
  update every 1 steps, delay 10 steps, check yes
  max neighbors/atom: 2000, page size: 100000
  master list distance cutoff = 3.8
  ghost atom cutoff = 3.8
  binsize = 1.9, bins = 9 9 9
  1 neighbor lists, perpetual/occasional/extra = 1 0 0
  (1) pair lj/cut, perpetual
      attributes: half, newton on
      pair build: half/bin/atomonly/newton
      stencil: half/bin/3d
      bin: standard
WARNING: Not all mixed pair coeffs generated from mixing. Use write_data with 'pair ij' option to store all pair coeffs. (../write_data.cpp:312)


#############################
#   M E L T   S Y S T E M   #
#############################

velocity all create 2.4 6583654 mom yes dist gaussian # Assign velocities
                                                    # Temperature 2.4, random number seed, zero linear momentum
                                                                                # Gaussian distribution

timestep 0.002   # simulation timestep
thermo 1000       # output thermodynamic data every 1000 steps bf 100

# Define a fix  in this case with index 1 applied to all
# particles in the simulation. This fix is for simulations
# in the anisotropic NPT ensemble. Note that we use the MTK
# correction.
fix 1 all npt temp 2.4 2.4 0.1 iso 5.68 5.68 0.5 mtk yes tchain 5 pchain 5 # Use NPT ensemble
                                                                         # Set temperature and pressure and damping
                                                                         # Numbers of thermostats in chain and in barostat
run 10000          # run for 10000 steps
Per MPI rank memory allocation (min/avg/max) = 3.642 | 3.644 | 3.648 Mbytes
Step Temp E_pair E_mol TotEng Press Volume 
       0          2.4   -3.7530074            0  -0.15390738    -3.337815         4000 
    1000    2.3913084    -3.207094            0   0.37897195    5.2335856     3765.913 
    2000    2.3832437    -3.211366            0   0.36260576    5.6888418    3725.7296 
    3000    2.4184649   -3.1561328            0   0.47065762    5.8406069    3764.7278 
    4000    2.3922019   -3.1504536            0   0.43695228     5.680013    3768.0697 
    5000    2.3875924    -3.154796            0   0.42569732    5.6484223    3771.6792 
    6000    2.3882952   -3.1287327            0   0.45281449    5.6595964    3785.2591 
    7000    2.4349914   -3.1668334            0   0.48474054    5.4409868    3796.7388 
    8000    2.3795964   -3.1775705            0   0.39093169    5.4843363    3766.2545 
    9000    2.4042388    -3.175452            0   0.43000462    5.5010731    3779.9725 
   10000    2.3700983   -3.1109876            0   0.44327113    5.4105415    3820.9385 
Loop time of 2.5303 on 48 procs for 10000 steps with 4000 atoms

Performance: 682921.765 tau/day, 3952.094 timesteps/s
99.7% CPU use with 48 MPI tasks x no OpenMP threads

MPI task timing breakdown:
Section |  min time  |  avg time  |  max time  |%varavg| %total
---------------------------------------------------------------
Pair    | 1.1606     | 1.2166     | 1.2696     |   2.4 | 48.08
Neigh   | 0.21186    | 0.21791    | 0.23034    |   0.8 |  8.61
Comm    | 0.78478    | 0.84808    | 0.93339    |   3.6 | 33.52
Output  | 0.00024555 | 0.00024975 | 0.0003136  |   0.0 |  0.01
Modify  | 0.20424    | 0.23214    | 0.2655     |   3.5 |  9.17
Other   |            | 0.01537    |            |       |  0.61

Nlocal:        83.3333 ave          93 max          73 min
Histogram: 1 1 5 6 8 5 8 10 3 1
Nghost:        1689.25 ave        1714 max        1665 min
Histogram: 3 5 5 3 8 6 9 4 3 2
Neighs:        9982.38 ave       11314 max        8743 min
Histogram: 3 4 5 6 8 3 10 5 2 2

Total # of neighbors = 479154
Ave neighs/atom = 119.78850
Neighbor list builds = 902
Dangerous builds = 173

# Equilibrate just above the melting temperature to avoid step fn in T

fix 1 all npt temp 1.25 1.25 0.1 iso 5.68 5.68 0.5 mtk yes tchain 5 pchain 5
run 2000
Per MPI rank memory allocation (min/avg/max) = 3.644 | 3.646 | 3.649 Mbytes
Step Temp E_pair E_mol TotEng Press Volume 
   10000    2.3700983   -3.1109876            0   0.44327113    5.4105415    3820.9385 
   11000    1.2305212   -4.6611345            0   -2.8158141    5.4643943    2894.9372 
   12000    1.3019713   -4.6699642            0   -2.7174955    5.5585576    2896.7955 
Loop time of 0.628395 on 48 procs for 2000 steps with 4000 atoms

Performance: 549972.582 tau/day, 3182.712 timesteps/s
99.7% CPU use with 48 MPI tasks x no OpenMP threads

MPI task timing breakdown:
Section |  min time  |  avg time  |  max time  |%varavg| %total
---------------------------------------------------------------
Pair    | 0.28768    | 0.30856    | 0.33528    |   1.8 | 49.10
Neigh   | 0.040967   | 0.042926   | 0.045316   |   0.5 |  6.83
Comm    | 0.19906    | 0.22863    | 0.25285    |   2.4 | 36.38
Output  | 5.8481e-05 | 5.9734e-05 | 7.3363e-05 |   0.0 |  0.01
Modify  | 0.040525   | 0.043431   | 0.046602   |   0.9 |  6.91
Other   |            | 0.004793   |            |       |  0.76

Nlocal:        83.3333 ave          90 max          74 min
Histogram: 1 2 1 8 2 10 10 2 8 4
Nghost:        2041.21 ave        2063 max        2019 min
Histogram: 4 1 5 4 9 10 5 2 6 2
Neighs:        13188.8 ave       14575 max       11865 min
Histogram: 4 2 9 6 3 8 1 5 7 3

Total # of neighbors = 633061
Ave neighs/atom = 158.26525
Neighbor list builds = 145
Dangerous builds = 22

#############################
# L I N E A R  Q U E N C H  #
#############################

# Define solid atoms. This closely follows ten Wolde  Ruiz-Montero and Frenkel  Faraday Discuss  1996  104  93-110
# Compute components of the per-atom q6 vector
compute q6 all orientorder/atom degrees 1 6 components 6 nnn NULL cutoff 1.3 # compute the Q6 parameter.
                                                                             # Use all neighbours within 1.3 unit cell.

# get number of connections
compute coord_number all coord/atom orientorder q6 0.5

# An atom is solid if it has 8 or more connections (of a possible 14)
variable is_solid atom c_coord_number>=8
group solid dynamic all var is_solid    # Must be dynamic to update
dynamic group solid defined

# do clustering
compute cluster solid cluster/atom 1.3 # Create a cluster where all atoms within are solid and max 1.3 units from another member

# define chunks one chunk per cluster
compute clus_chunks solid chunk/atom c_cluster nchunk every compress yes  # Says which atoms are in which chunk

# count the size of each chunk
compute size_chunks solid property/chunk clus_chunks count


# Find the maximum entry in the vector of chunk sizes
variable max_n equal max(c_size_chunks)


# Thermo style which includes this variable
# thermo_style custom step temp pe vol v_max_n

thermo ${N}  # Print the thermo information every 100 steps
thermo 1000  

# Reset the npt fix at a lower temperature (below freezing)
fix 1  all npt temp  ${temp} ${temp}  0.1  iso  5.68  5.68  0.5  mtk yes tchain  5  pchain  5
fix 1  all npt temp  0.45 ${temp}  0.1  iso  5.68  5.68  0.5  mtk yes tchain  5  pchain  5
fix 1  all npt temp  0.45 0.45  0.1  iso  5.68  5.68  0.5  mtk yes tchain  5  pchain  5

dump dmp2 all dcd ${N} traj.dcd
dump dmp2 all dcd 1000 traj.dcd


compute msd all msd com yes
variable twopoint equal c_msd[4]/6/(step*dt+1.0e-6)
fix 9 all vector 10 c_msd[4]
variable fit equal slope(f_9)/6/(10*dt)
thermo_style custom step temp pe c_msd[4] v_twopoint v_fit v_max_n

fix 1 all npt temp 1.25 ${temp} 0.1 iso 5.68 5.68 0.5 mtk yes tchain 5 pchain 5
fix 1 all npt temp 1.25 0.45 0.1 iso 5.68 5.68 0.5 mtk yes tchain 5 pchain 5
run 2000000 # 5000000  # Run for this many steps
Neighbor list info ...
  update every 1 steps, delay 10 steps, check yes
  max neighbors/atom: 2000, page size: 100000
  master list distance cutoff = 3.8
  ghost atom cutoff = 3.8
  binsize = 1.9, bins = 8 8 8
  4 neighbor lists, perpetual/occasional/extra = 1 3 0
  (1) pair lj/cut, perpetual
      attributes: half, newton on
      pair build: half/bin/atomonly/newton
      stencil: half/bin/3d
      bin: standard
  (2) compute orientorder/atom, occasional
      attributes: full, newton on
      pair build: full/bin/atomonly
      stencil: full/bin/3d
      bin: standard
  (3) compute coord/atom, occasional
      attributes: full, newton on
      pair build: full/bin/atomonly
      stencil: full/bin/3d
      bin: standard
  (4) compute cluster/atom, occasional
      attributes: full, newton on
      pair build: full/bin/atomonly
      stencil: full/bin/3d
      bin: standard
Per MPI rank memory allocation (min/avg/max) = 9.836 | 9.841 | 9.846 Mbytes
Step Temp PotEng c_msd[4] v_twopoint v_fit v_max_n 
   12000    1.3019713   -4.6699642 2.1847503e-30 1.5171876e-32 8.3333333e+20            2 
   13000    1.2597628   -4.6697226   0.77614272 0.0049752736  0.065591381            1 
   14000    1.2476838     -4.70046    1.4933549 0.0088890172  0.062654007            2 
   15000    1.2215623   -4.6844627    2.2988867  0.012771592  0.062977678            1 
   16000     1.232538   -4.6976508    3.1057579  0.016175822  0.064380855            2 
   17000    1.2537976   -4.6571488     3.829833  0.018773691  0.064483821            2 
   18000    1.2420883   -4.6396642    4.6078393  0.021332589  0.064062471            1 
   19000    1.2517115    -4.692858    5.4061931  0.023711373  0.064222737            3 
   20000    1.2538036   -4.6965422     6.137043  0.025571012   0.06428673            1 
   21000    1.2746677   -4.6642622    6.9756448   0.02768113  0.064557455            2 
   22000    1.2436154   -4.6411653    7.7592131  0.029390958  0.064639729            1 
   23000    1.2508078   -4.6884881    8.5110384  0.030837095  0.064717629            2 
   24000    1.2492145   -4.6578301    9.2072801  0.031969722  0.064528052            2 
   25000    1.2347473   -4.6860554    10.052885  0.033509618  0.064360536            3 
   26000    1.2372223   -4.7167195    10.838719  0.034739484  0.064393013            2 
   27000    1.2410374   -4.6737551    11.679105  0.036046621  0.064587548            2 
   28000    1.2453907   -4.6991725    12.502162  0.037208816  0.064860034            1 
   29000    1.2562563   -4.6626041    13.299907  0.038218122  0.064996871            2 
   30000    1.2460146    -4.691641    14.021677  0.038949103  0.065038685            4 
   31000    1.2616154    -4.703154     14.79632  0.039775054  0.065075764            2 
   32000    1.2472994    -4.683179     15.65934  0.040779529  0.065226458            4 
   33000    1.2605721   -4.7023075    16.599785  0.041918648  0.065379597            2 
   34000    1.2359249   -4.7014547    17.455704  0.042783588   0.06560564            1 
   35000    1.2218766   -4.7152898    18.074344  0.043034151  0.065745264            2 
   36000    1.2385794   -4.6476396    18.900783  0.043751812  0.065739287            3 
   37000    1.2560865   -4.6699916    19.833648  0.044670377  0.065806435            2 
   38000    1.2405019   -4.7232319    20.580136  0.045131877  0.065958137            5 
   39000    1.2417694   -4.6978791    21.425645  0.045781292  0.066082939            2 
   40000    1.2302558   -4.7025134    22.305716  0.046470242  0.066251305            1 
   41000    1.2205528   -4.6599937    23.191966  0.047138141  0.066352726            2 
   42000    1.2282316   -4.7025919    23.764812  0.047152404  0.066428264            2 
   43000    1.2483891   -4.6520861    24.707231   0.04788223  0.066451826            1 
   44000    1.2448399   -4.7047302    25.286686   0.04789145  0.066480452            2 
   45000    1.2371113   -4.7051527    26.074953   0.04828695  0.066505327            4 
   46000    1.2685048   -4.6799673    27.005319  0.048922678  0.066526676            2 
   47000    1.2630344   -4.6758362    27.992019  0.049631239   0.06658714            2 
   48000    1.2342873   -4.7028296    28.536573  0.049542662  0.066663636            2 
   49000    1.2444477   -4.7027014    29.624414  0.050381655  0.066708322            7 
   50000    1.2244464   -4.7136047    30.519883  0.050866471  0.066804992            2 
   51000     1.228752   -4.6921016    31.109345  0.050832263  0.066867953            3 
   52000    1.2351842   -4.6967239    31.916776  0.051148679  0.066922057            1 
   53000    1.2128891    -4.718725    32.746077  0.051487542  0.066933886            2 
   54000    1.2628822   -4.7167602    33.533382  0.051749046  0.066963288            1 
   55000    1.2279683   -4.6744319    34.576954  0.052389324  0.067012396            1 
   56000    1.2386317   -4.6745653    35.208309  0.052393317  0.067037744            1 
   57000    1.2383289   -4.7211652    35.905091  0.052492823  0.067066545            1 
   58000    1.2343172   -4.6519282    36.935137  0.053067726  0.067106095            2 
   59000    1.2157135   -4.7029026    37.800039  0.053389886  0.067170706            2 
   60000    1.2217699   -4.6790294    38.559121  0.053554334  0.067202417            5 
   61000      1.20611   -4.6993214     39.33237  0.053732746  0.067229403            3 
   62000    1.2330902   -4.7071809    40.119383  0.053923902  0.067257199            1 
   63000    1.2080336   -4.6953469    41.004276   0.05423846  0.067280121            2 
   64000    1.2433319   -4.7329635    41.835355  0.054473119  0.067299417            2 
   65000    1.2371341   -4.6976159    42.603141  0.054619411  0.067333926            2 
   66000     1.219889   -4.6858338    43.299957  0.054671662  0.067337505            3 
   67000    1.2320879   -4.6626445    44.258097  0.055047384  0.067326216            2 
   68000    1.2472016   -4.6870508    44.838469  0.054949104  0.067332861            3 
   69000    1.2215043   -4.7086657    45.502034  0.054954146   0.06733165            2 
   70000     1.218014   -4.6829514    46.421183  0.055263313   0.06730145            1 
   71000    1.2534532   -4.6709167    47.268037  0.055478917  0.067262454            2 
   72000    1.2238473   -4.7177997    47.943863  0.055490582  0.067237636            2 
   73000    1.2165846   -4.7043912     48.70152  0.055595342  0.067212078            2 
   74000    1.2171187   -4.7119158    49.261297  0.055474434  0.067184421            2 
   75000    1.2561265   -4.7626799    49.894444  0.055438271  0.067138429            5 
   76000    1.2147472   -4.7363746    50.868505  0.055776869  0.067095577            3 
   77000    1.2286375   -4.7132758     51.71417  0.055967716  0.067059548            3 
   78000    1.2216126   -4.6979574    52.398466  0.055981267  0.067014465            3 
   79000    1.2420429   -4.7507498    53.227071  0.056146699  0.066970976            2 
   80000    1.2173382   -4.7132636    53.826658  0.056069435  0.066918412            2 
   81000    1.2016731   -4.6994775    54.375265  0.055941631  0.066852889            2 
   82000    1.2185143   -4.7122972    54.729261  0.055619168  0.066762495            1 
   83000    1.2312901   -4.7044033    55.641989   0.05586545  0.066662796            3 
   84000    1.1810648   -4.7467195    56.165763  0.055720003  0.066564978            3 
   85000     1.212882   -4.7253422    57.131541  0.056011314  0.066466694            5 
   86000    1.2239832   -4.7243173    57.783184  0.055991457   0.06637722            3 
   87000    1.2258206   -4.6989261    58.596779  0.056127182  0.066290315            3 
   88000    1.2444089   -4.6994404    59.379768  0.056230841   0.06619725            7 
   89000    1.2304106   -4.7083378    60.243479  0.056407751  0.066111209            2 
   90000    1.1977176   -4.7318356    60.711386  0.056214246  0.066023008            4 
   91000    1.2032944   -4.7317717    61.652598  0.056458422  0.065947347            1 
   92000    1.2059817   -4.7068546    62.466908  0.056582344  0.065878447            2 
   93000    1.2257512   -4.6986011    62.979254  0.056433023  0.065799611            2 
   94000    1.2157075    -4.705157    63.830712  0.056587511  0.065727891            1 
   95000    1.2339621   -4.7519563     64.32497  0.056425412  0.065644806            2 
   96000    1.1932473   -4.7483414    65.107809  0.056517195  0.065566034            3 
   97000    1.2007184   -4.7601703    65.520819  0.056289363  0.065479505            2 
   98000    1.2274764   -4.7293578    66.169149  0.056266283  0.065386739            2 
   99000    1.1997128    -4.720095     66.92523  0.056334368  0.065281648            3 
  100000    1.2327369    -4.739841    67.950018  0.056625015  0.065193882            2 
  101000    1.2051984   -4.7273352    68.507022  0.056523945  0.065110472            1 
  102000    1.2114135   -4.7577356    68.830521  0.056234086  0.065006996            2 
  103000    1.2173373   -4.7444449    69.819682  0.056488415  0.064907779            2 
  104000    1.2212424   -4.6972742    70.279888  0.056314012   0.06480828            2 
  105000    1.1986586   -4.7350005    70.756715  0.056156123  0.064706541            3 
  106000    1.2156631   -4.7786492    71.296614  0.056050797  0.064599326            1 
  107000    1.2383825   -4.7233373    72.758542  0.056665531  0.064505481            1 
  108000    1.1911822   -4.7150767    73.936792  0.057049994  0.064428985            4 
  109000    1.2207457   -4.7376333    74.106716   0.05665651  0.064353234            5 
  110000    1.2345341   -4.7270784     74.71528  0.056602485  0.064279701            2 
  111000    1.2212038   -4.7553108    75.343882  0.056564476  0.064203545            3 
  112000    1.1723051   -4.7200835    75.984733  0.056536259  0.064123047            4 
  113000    1.1898426   -4.7180227    76.466495   0.05639122  0.064028514            5 
  114000    1.2102654   -4.7492908    76.815709  0.056151834  0.063931069            2 
  115000    1.2068833   -4.7360337     77.55508  0.056199333  0.063841363            1 
  116000    1.2104564   -4.7392735    78.171791  0.056157895  0.063752451            4 
  117000    1.2411906   -4.7238272    79.574965  0.056677325  0.063670363            2 
  118000    1.2166534   -4.7883569    79.556158  0.056183727  0.063586634            2 
  119000    1.2104111   -4.7490233    80.490311  0.056365764  0.063497672            3 
  120000     1.217282   -4.7281949    81.306056  0.056462539  0.063417783            2 
  121000    1.1951075   -4.7362781    82.444583  0.056780016  0.063339883            4 
  122000     1.190729   -4.7434332    82.843268  0.056586932  0.063272018            1 
  123000    1.2129549   -4.6966173    83.949416  0.056876298  0.063196826            4 
  124000    1.2097189   -4.7535123    83.880161  0.056371076  0.063130104            2 
  125000    1.2214915   -4.7267443     84.94503   0.05663002  0.063063484            1 
  126000    1.2128198   -4.7183541    85.691097  0.056674006  0.062995373            4 
  127000    1.2071524   -4.7385357    86.254888  0.056597695  0.062930116            2 
  128000    1.1832322   -4.7632792    87.413824  0.056910042  0.062868106            1 
  129000    1.2115598   -4.7365849    88.323282  0.057056384  0.062818426            1 
  130000    1.1882186   -4.7394683    89.043621  0.057079244  0.062776587            2 
  131000    1.2233369   -4.7561921    89.757478  0.057097632   0.06273386            2 
  132000    1.1886723   -4.7602166     90.47978  0.057121073  0.062695913            1 
  133000    1.2012535   -4.7228616    91.691549  0.057450845   0.06266362            1 
  134000    1.2037479   -4.7664365    92.157335  0.057311775   0.06263182            1 
  135000    1.2145716   -4.7623052     92.64526  0.057188432  0.062601529            4 
  136000    1.2051781   -4.7081861    94.151844  0.057691081  0.062577788            2 
  137000    1.1863549   -4.7255751     94.48064  0.057469976   0.06255847            3 
  138000    1.1910973   -4.8232204    95.010499   0.05737349  0.062537027            4 
  139000    1.1987935   -4.7262188    96.095687  0.057611323  0.062514502            1 
  140000    1.1978853    -4.756504    96.804812  0.057621912  0.062496099            3 
  141000    1.2056496   -4.7392457    97.568943   0.05766486  0.062482908            3 
  142000    1.2101378   -4.7742032    98.295588  0.057685204  0.062469163            4 
  143000    1.2085564    -4.779092    98.855564  0.057608137  0.062447081            2 
  144000    1.1801001   -4.7671086     99.61447  0.057647263  0.062425549            3 
  145000    1.1977201    -4.754657    100.62654  0.057831347   0.06240677            2 
  146000     1.198464   -4.7461895    101.44876  0.057904542  0.062388197            3 
  147000    1.1812134    -4.764262    101.95516  0.057797709  0.062372672            2 
  148000    1.1751936   -4.7362513    103.00171  0.057996459  0.062357331            2 
  149000    1.2173543   -4.7268143    103.47255  0.057870551  0.062343582            4 
  150000    1.2047781   -4.8050421    103.95984  0.057755467  0.062326627            1 
  151000    1.1804424   -4.7682211    105.22778  0.058072729  0.062316365            3 
  152000    1.2141148   -4.7742072     105.8474  0.058030372  0.062309745            2 
  153000    1.2041792   -4.7590137    106.63359  0.058079295   0.06230368            1 
  154000    1.1909175   -4.7722882    107.19706  0.058007066  0.062296811            3 
  155000    1.1745848   -4.7702814    107.88811  0.058004362  0.062285437            2 
  156000    1.1619933   -4.7386356     108.8548   0.05814893  0.062268801            5 
  157000    1.2100976   -4.7426478    109.52695  0.058135321  0.062247412            3 
  158000    1.1991938   -4.7906202    109.32756  0.057662215   0.06222186            3 
  159000    1.1826604   -4.7573365    110.21195  0.057763074  0.062192901            3 
  160000    1.1901433   -4.7540888    110.96098  0.057792177  0.062167456            1 
  161000     1.173408   -4.7744505    111.70239   0.05781697  0.062142477            2 
  162000    1.2180743   -4.7914968    111.92816  0.057576214  0.062111203            2 
  163000    1.1859622   -4.7988592    112.67715  0.057605907  0.062085065            4 
  164000    1.1754627   -4.7981335    113.35629  0.057599738  0.062050526            3 
  165000    1.1606847   -4.7887805    114.29726   0.05772589  0.062019481            2 
  166000    1.1557877   -4.7482905    115.26728  0.057865101  0.061992954            2 
  167000    1.2109568   -4.7640426    115.49876  0.057634113  0.061964607            3 
  168000    1.1932747   -4.7720573    116.51284   0.05779407  0.061934621            3 
  169000    1.1878656   -4.8101674    116.82279  0.057604926  0.061905435            3 
  170000    1.1717423   -4.7622746     117.5803  0.057637403  0.061877381            6 
  171000    1.1766909   -4.7763019    118.58149   0.05778825  0.061851368            2 
  172000    1.1771977   -4.7686807     119.4258  0.057861338  0.061822827            2 
  173000    1.1658304   -4.7779363    120.08536  0.057844587  0.061803252            2 
  174000    1.1890847   -4.7879507     121.1475  0.058020833  0.061783042            2 
  175000    1.2058727   -4.7706889    122.30615  0.058241022  0.061770291            2 
  176000    1.1710561   -4.7584229      123.377   0.05841714  0.061761329            1 
  177000    1.1880709    -4.742313     123.6636  0.058222034  0.061751439            3 
  178000    1.1919263   -4.7724029    124.64296  0.058353443  0.061745472            2 
  179000    1.1603127   -4.7577058    125.68368  0.058511955  0.061739101            1 
  180000    1.1855612   -4.7733105    125.25063  0.057986403   0.06173294            1 
  181000    1.1944852   -4.7887068    126.53275  0.058256331  0.061720341            3 
  182000    1.1811677   -4.7722838    126.84685   0.05808006  0.061708623            1 
  183000    1.1871586   -4.7784561    127.95312  0.058266447  0.061692672            2 
  184000    1.1913221   -4.7973805    128.40315  0.058153599  0.061677737            4 
  185000    1.1874165   -4.7332869    129.88489  0.058506705  0.061670649            2 
  186000    1.1871545   -4.7864692    129.68269  0.058101562  0.061660751            1 
  187000    1.1900853   -4.7327556    131.32556  0.058522975  0.061655028            3 
  188000    1.1623194   -4.8129175    131.35733  0.058225765  0.061646462            3 
  189000    1.1618491   -4.7971823    132.09591  0.058243346   0.06163506            4 
  190000    1.2048449   -4.7867896    132.85603  0.058270186  0.061619846            2 
  191000    1.1555994   -4.8018254    133.23178  0.058129047  0.061596345            2 
  192000    1.1413984   -4.8092575    133.61906  0.057994382  0.061573929            2 
  193000    1.2106921   -4.7926291    133.98626  0.057852445  0.061549242            2 
  194000    1.1828594   -4.7758926    135.08671  0.058026936  0.061522804            4 
  195000    1.1777393   -4.7874255    135.93281  0.058090944  0.061500444            3 
  196000    1.1494941   -4.8118119    135.65751  0.057677513  0.061477597            4 
  197000    1.1714539   -4.7907572    136.56853  0.057770105  0.061454271            3 
  198000    1.1638141   -4.7925797    137.40653  0.057831032  0.061429135            4 
  199000     1.170929    -4.771098    138.37643  0.057946578  0.061400502            3 
  200000    1.1700936   -4.7729062    139.43153  0.058096469  0.061377322            1 
  201000    1.1736326   -4.7560967    140.11514  0.058090853  0.061353892            2 
  202000    1.1869637   -4.7775552    141.13967  0.058225936  0.061334542            4 
  203000    1.1696129   -4.8386515    140.55846  0.057700518  0.061313435            3 
  204000     1.196303   -4.8123196    141.58069  0.057835249   0.06128989            2 
  205000    1.1859712   -4.7986467    141.93967  0.057699051  0.061267612            8 
  206000    1.1847723    -4.807398    142.94292  0.057824805  0.061243076            6 
  207000    1.1681562   -4.7957159     144.3424  0.058108859  0.061224237            3 
  208000    1.1892044   -4.8072477    144.85076  0.058033156  0.061206624            1 
  209000    1.1821897   -4.8358536    145.38124  0.057967001  0.061188558            2 
  210000    1.1592662   -4.7817074    146.71986  0.058222165  0.061167515            2 
  211000    1.1844248   -4.8260945    146.02263  0.057670864  0.061149695            5 
  212000    1.1694049   -4.7811225    147.88185  0.058129659  0.061131715            2 
  213000    1.1433017   -4.7989239    148.88859  0.058250622  0.061111135            2 
  214000     1.177569   -4.8190462    149.30443  0.058140355  0.061094906            5 
  215000    1.1716184   -4.8042665    150.66676  0.058397968  0.061081756            3 
  216000    1.1714228   -4.7924241    150.50498  0.058065192  0.061065684            2 
  217000    1.1858399   -4.8167067    150.16617  0.057667501  0.061048494            3 
  218000    1.1764331   -4.8226538    151.36905  0.057862788  0.061030679            2 
  219000    1.1507733   -4.7751699    152.78198  0.058136219  0.061008132            4 
  220000    1.1824197   -4.7909513    153.05361  0.057974851  0.060983438            1 
  221000    1.1731633    -4.832626    152.33621  0.057442008  0.060956528            2 
  222000    1.1496693   -4.8131818     153.7814   0.05772575  0.060929291            2 
  223000    1.1595276   -4.8123105    154.63323  0.057785214  0.060907345            2 
  224000    1.1409063    -4.804099    155.49132  0.057846472  0.060881586            2 
  225000    1.1808436   -4.8279736    154.87404  0.057360757  0.060851728            1 
  226000    1.1573648   -4.8238515    156.28376  0.057626754  0.060821311            2 
  227000    1.1634203   -4.8118144    156.49448   0.05745025  0.060790921            1 
  228000    1.1663962   -4.8292556    157.57571  0.057593461  0.060759914            2 
  229000     1.162769   -4.8207569    158.45351  0.057661394   0.06073009            3 
  230000    1.1410639   -4.8107678    159.00161  0.057609279   0.06069935            2 
  231000    1.1446038   -4.8189172    159.82049  0.057655301  0.060670417            6 
  232000    1.1502893   -4.8050724    160.70238  0.057723555  0.060646515            2 
  233000    1.1545675   -4.8578601    160.94387  0.057562185  0.060620593            5 
  234000    1.1749603   -4.8047921    161.71903  0.057592248  0.060593665            2 
  235000    1.1825445   -4.8631386    161.91505  0.057416684  0.060568088            3 
  236000    1.1669008   -4.8203143    163.99751  0.057908724  0.060545313            1 
  237000     1.176247   -4.8383688    163.81738  0.057601048   0.06052599            2 
  238000    1.1474175   -4.8163665    163.88576  0.057382969   0.06050388            3 
  239000    1.1330376   -4.8181764    164.57229  0.057382248  0.060478788            3 
  240000    1.1664396   -4.7937845    166.12245  0.057681407  0.060454827            2 
  241000    1.1419119   -4.7976625     166.8678  0.057699792  0.060428517            6 
  242000    1.1496987   -4.8195679    166.58138  0.057362735  0.060402118            1 
  243000    1.1399258   -4.8585379    166.89454  0.057234068  0.060374914            2 
  244000    1.1607952   -4.8318652    168.39303  0.057511282  0.060348556            1 
  245000    1.1476042   -4.8149749    169.04027  0.057496689  0.060323081            1 
  246000    1.1610443   -4.8176374    169.61941  0.057459151  0.060298561            3 
  247000    1.1419182   -4.8328284    170.57126   0.05754766  0.060273707            2 
  248000    1.1443462   -4.8242015    171.15826  0.057512855  0.060249776            3 
  249000    1.1548303   -4.8601108    171.54686  0.057411935  0.060224884            1 
  250000    1.1667135   -4.8094775     172.6587  0.057552899  0.060198525            3 
  251000    1.1551595   -4.7968385    173.68977  0.057665926  0.060175467            5 
  252000    1.1360026   -4.8813615    173.29617  0.057306934  0.060151281            4 
  253000    1.1388676   -4.8519365    173.69304  0.057211145  0.060126379            3 
  254000    1.1678071   -4.8695971    174.03626   0.05709851  0.060098814            6 
  255000    1.1521498   -4.8121153    175.25035  0.057271355   0.06007251            3 
  256000    1.1620663   -4.8516695    176.09476  0.057322513  0.060046006            3 
  257000    1.1727917   -4.8540264    176.13309  0.057111895  0.060015504            1 
  258000    1.1107591   -4.7999179    177.66338  0.057384812  0.059985745            3 
  259000    1.1554914   -4.7751012    178.49483  0.057430767  0.059958595            2 
  260000    1.1277501   -4.8646792    178.08868  0.057079705  0.059928932            4 
  261000    1.1553761   -4.8702997    178.69087  0.057053278   0.05989902            1 
  262000    1.1399092   -4.8310069    179.34421  0.057043323  0.059865089            1 
  263000     1.132367    -4.828121    179.53933  0.056888255  0.059831321            2 
  264000    1.1627305   -4.8541438    179.95637   0.05680441  0.059800603            2 
  265000    1.1759347   -4.8863086    179.99218  0.056601314  0.059769095            1 
  266000    1.1690359   -4.8397111    181.73881  0.056935718  0.059738683            2 
  267000    1.1660071   -4.8446934     182.2151  0.056871131  0.059707776            3 
  268000    1.1416204    -4.813641    183.37666  0.057020107  0.059676479            3 
  269000    1.1348381   -4.8528242    183.20879  0.056756132  0.059646257            2 
  270000    1.1519357   -4.8471127    183.65471  0.056683552  0.059611602            3 
  271000    1.1350216    -4.824545    183.96111  0.056568605  0.059575277            3 
  272000    1.1447007   -4.8310559     184.9784  0.056672303  0.059538847            2 
  273000    1.1359921   -4.8533167    184.13895   0.05620847  0.059502004            4 
  274000     1.167973   -4.8504546    185.59769  0.056446985  0.059463781            2 
  275000    1.1325023   -4.8666936    186.41536  0.056489503  0.059427649            3 
  276000    1.1821235   -4.8603914    186.84374  0.056414173  0.059390875            3 
  277000    1.1416389   -4.8453666    188.08703  0.056584545  0.059353256            6 
  278000    1.1187383   -4.8990245    187.02637  0.056063059  0.059316286            2 
  279000    1.1304022   -4.8607922    188.93982  0.056433638  0.059280904            2 
  280000    1.1465807   -4.8367696    190.10998  0.056580352  0.059249647            3 
  281000    1.1244369   -4.8382828    190.86251  0.056602168  0.059217463            3 
  282000    1.1525557   -4.8815702    191.24928  0.056515746  0.059185044            2 
  283000    1.1281062   -4.8528921    192.85024  0.056787468  0.059154823            2 
  284000    1.1431075   -4.8738336     192.6014  0.056514496  0.059126099            5 
  285000    1.1364925   -4.8837666    192.91559  0.056408068  0.059095089            4 
  286000    1.1573023   -4.8659454    193.34121   0.05633485  0.059062864            3 
  287000    1.1513994    -4.867438    194.10395  0.056360033  0.059031334            1 
  288000     1.126441   -4.8476523    195.10533  0.056454089  0.058998338            2 
  289000    1.1398814   -4.8371569    196.42809  0.056640166    0.0589659            3 
  290000    1.1338816   -4.8558926    196.06938  0.056341775  0.058933168            4 
  291000    1.1458539   -4.8499934    196.95127  0.056400709  0.058902135            4 
  292000    1.1493566   -4.8755043    197.97845  0.056500699   0.05887041            2 
  293000     1.142188   -4.8609498    197.82641  0.056264621  0.058839988            4 
  294000    1.1202054   -4.8722619    198.45076  0.056250216   0.05880902            2 
  295000    1.1417122    -4.910499    199.48113  0.056350603  0.058778779            2 
  296000    1.1563584   -4.8784092    199.46241  0.056154958  0.058748293            2 
  297000      1.16066   -4.8864903    200.64322    0.0562972  0.058716372            2 
  298000    1.1576267   -4.9059082    200.78133  0.056146903  0.058685409            3 
  299000     1.149658   -4.8844493    202.74006  0.056505034   0.05865758            3 
  300000    1.1303189   -4.8884619    202.55582  0.056265507  0.058629496            2 
  301000    1.1297302    -4.864673    203.65182  0.056382009  0.058601072            2 
  302000    1.1213282   -4.8572972    204.94479  0.056552093  0.058574243            2 
  303000    1.1590876   -4.8613036    205.69001  0.056570409  0.058550265            4 
  304000       1.1335   -4.8485534    207.00495  0.056744777  0.058528786            4 
  305000    1.1095802   -4.8498566     207.3505  0.056653143  0.058508453            3 
  306000    1.1362364   -4.8611907    208.28276  0.056721883  0.058490985            3 
  307000    1.1551292    -4.909632    208.37136  0.056561172  0.058472369            2 
  308000    1.1155428   -4.8813037    209.17636  0.056595336  0.058454289            2 
  309000     1.138766   -4.9045978    209.79275  0.056578411  0.058436799            2 
  310000    1.1457053   -4.8887984    210.95115  0.056707297  0.058418276            2 
  311000    1.1346914   -4.8771328    211.50674  0.056673831  0.058401524            4 
  312000    1.1301722   -4.8686237    212.16216  0.056667243  0.058382711            3 
  313000    1.1193929   -4.8856516    212.88747  0.056679305  0.058363777            3 
  314000     1.138247   -4.9091744    212.24384  0.056327984  0.058342547            2 
  315000    1.1282611   -4.9005629    213.41301  0.056458468  0.058321954            4 
  316000    1.1337734   -4.8641198    214.96737  0.056689708  0.058303102            2 
  317000    1.1394375   -4.8785407    214.67435  0.056433846  0.058283042            3 
  318000    1.1126143   -4.9180339    214.61956  0.056242023  0.058262112            6 
  319000    1.1158776   -4.8609575    216.21243  0.056481825  0.058242066            3 
  320000    1.1242089   -4.8903712     215.3389  0.056077839  0.058221886            2 
  321000     1.109976   -4.8854004    217.44158  0.056449009  0.058200908            4 
  322000     1.119058   -4.8317743    218.85215  0.056638755  0.058180977            1 
  323000    1.1261564   -4.8708408    218.15199  0.056282764  0.058162296            2 
  324000    1.1137504   -4.9015688    218.45048  0.056185823  0.058139941            2 
  325000    1.1082184    -4.900173    218.47379  0.056018921  0.058115625            6 
  326000    1.1499593   -4.8823531    220.04117  0.056247743  0.058092011            3 
  327000    1.1169441   -4.8792894    220.79774  0.056268538  0.058068009            3 
  328000    1.1086121   -4.9238226    220.32572  0.055977062  0.058042932            5 
  329000    1.1312356   -4.9108571    220.88367  0.055948245  0.058015657            2 
  330000    1.1010264   -4.9012462    221.50097  0.055934589  0.057988592            3 
  331000    1.1018776   -4.8973588    221.55774  0.055779894  0.057961377            2 
  332000    1.1208456   -4.8724484     222.9008  0.055948996   0.05793346            2 
  333000    1.1007023   -4.9109963    221.77788  0.055499971  0.057905323            3 
  334000    1.1013866   -4.9253065    223.28867  0.055710746  0.057876661            2 
  335000     1.108229   -4.8991753    224.57994  0.055865655  0.057847678            2 
  336000    1.1143251   -4.8959119     224.4488  0.055666865  0.057818594            4 
  337000    1.1218131   -4.9336717    224.48009  0.055509418  0.057790081            1 
  338000     1.107777   -4.9017848     225.9447  0.055706286  0.057760222            3 
  339000    1.1009122   -4.9459121    225.08018  0.055329446  0.057727366            4 
  340000    1.1345773   -4.8834725    226.41711  0.055494391  0.057695455            2 
  341000    1.1326006    -4.923633    227.24344  0.055533588  0.057665443            2 
  342000    1.1088836   -4.9310132    227.70718  0.055484205  0.057635329            3 
  343000    1.0777974   -4.8967271     227.7243  0.055326603  0.057604623            2 
  344000    1.1139917   -4.9709846    226.46772  0.054861367  0.057570429            3 
  345000    1.1392906   -4.8942123     228.4221   0.05517442  0.057534549            2 
  346000    1.1308307    -4.909193    228.61052  0.055060337  0.057498939            5 
  347000    1.1126286   -4.9069693    227.44491  0.054621735  0.057460066            1 
  348000    1.1227982   -4.8986369    228.40335  0.054694289  0.057422526            2 
  349000    1.1214306   -4.9123628    229.23243  0.054735538  0.057384687            3 
  350000    1.1312024   -4.9015937    230.92679  0.054982569   0.05734987            4 
  351000    1.1407814   -4.8546562     232.7577  0.055260613  0.057314913            2 
  352000    1.0999897   -4.9202436    231.74759  0.054864486  0.057280337            3 
  353000    1.1159756   -4.9133493    232.60416  0.054911274  0.057243802           11 
  354000    1.1145257   -4.9150078    232.47077  0.054724758  0.057206661            4 
  355000    1.0954805   -4.9010821    233.69631  0.054858289  0.057168902            3 
  356000    1.1293121   -4.8900611    233.53842  0.054667232  0.057132039            3 
  357000    1.1164704   -4.9337893    233.90999  0.054600838  0.057093111            6 
  358000    1.1085063    -4.903404       234.19    0.0545135  0.057054496            3 
  359000    1.1261405   -4.9202986    234.98093  0.054545249  0.057015161            4 
  360000    1.1231657   -4.8766745    235.16006  0.054435199  0.056975104            3 
  361000     1.129365   -4.9187504    235.86938  0.054448148  0.056934087            5 
  362000    1.1257704   -4.9122646    236.02745  0.054334127  0.056892724            2 
  363000    1.1019304   -4.8887245    238.07451  0.054654387  0.056853472            2 
  364000    1.1364783      -4.9022    236.86035   0.05422627  0.056815524            3 
  365000     1.101893   -4.9442501    238.02549  0.054343719  0.056777581            3 
  366000    1.1274197   -4.9428478     238.3144  0.054261019  0.056739034            1 
  367000    1.1226315   -4.9044341    238.75909  0.054214145  0.056699783            2 
  368000    1.1060458   -4.9125077    239.06066  0.054135113  0.056659453            4 
  369000    1.0857756   -4.9161296    240.05551  0.054213077  0.056620114            2 
  370000    1.1033727   -4.9113225    240.24917  0.054110174  0.056579343            5 
  371000    1.1099571   -4.9242453    240.86931  0.054103618  0.056540445            4 
  372000    1.1040359   -4.9349975    241.00238  0.053987987  0.056500901            2 
  373000    1.1203341   -4.9456134    241.75917  0.054012325  0.056462896            3 
  374000    1.1084564   -4.9120107    242.51241  0.054035741  0.056424423            2 
  375000    1.1253046   -4.9153534    242.92791  0.053983981  0.056386126            3 
  376000    1.1148673   -4.9498951    243.09319  0.053877036  0.056347479            2 
  377000    1.1277219   -4.9180538    244.14758  0.053967193  0.056309187            2 
  378000    1.1012948   -4.9589072    245.22586  0.054062139  0.056271464            1 
  379000    1.1013918   -4.9259684    245.64119  0.054010815  0.056234386            3 
  380000    1.1047274   -4.9155395    245.63712  0.053867789  0.056197711            6 
  381000    1.0937425   -4.9277061    246.36755  0.053886166  0.056159582            1 
  382000    1.1169044   -4.8907071    248.17168  0.054138674  0.056121796            4 
  383000    1.0994849   -4.9353621    247.63391  0.053880311  0.056083483            4 
  384000    1.1007606    -4.923983     247.5281  0.053717036  0.056044781            3 
  385000    1.0900143   -4.9373845    248.82571  0.053858378  0.056008201            3 
  386000     1.117779   -4.9743619    247.77969  0.053493024  0.055969989            5 
  387000     1.107699   -4.9241762    249.06906  0.053632443  0.055932717            2 
  388000    1.0784986   -4.9326758    250.19531  0.053736106  0.055892576            1 
  389000    1.1124547   -4.9347025    250.45497  0.053653593  0.055854057            3 
  390000    1.0927878    -4.932928    251.43012  0.053724385  0.055816332            2 
  391000    1.1135613   -4.9529422    252.24051  0.053759699   0.05577859            2 
  392000    1.1018863   -4.9172494     252.9237  0.053767793  0.055740634            2 
  393000    1.0790027   -4.9608172    251.87924  0.053409508  0.055702659            3 
  394000    1.1025311   -4.9134583      253.097  0.053531515  0.055664329            4 
  395000     1.074303     -4.98933    252.29583  0.053226968   0.05562448            4 
  396000    1.1259981   -4.9433892    253.30566  0.053305062  0.055583493            2 
  397000    1.0976616   -4.9690873    254.47243  0.053415708  0.055543783            1 
  398000    1.0744614   -4.9506693    253.90477  0.053162641    0.0555023            3 
  399000    1.1126649   -4.9371417    253.87784  0.053023776  0.055459721            3 
  400000    1.1113888   -4.9551573    254.24393  0.052967485  0.055416273            2 
  401000     1.104866   -4.9349618    254.58506  0.052906288  0.055371826            2 
  402000    1.1045019   -4.9437697     255.2456  0.052911608  0.055328664            2 
  403000    1.1194638   -4.9397799    256.35838  0.053010419  0.055287369            2 
  404000    1.0856482   -4.9495891    256.16769   0.05283987  0.055246006            4 
  405000    1.1008182   -4.9440136    256.53191  0.052784343  0.055204721            4 
  406000    1.0739849    -4.966164    257.02168   0.05275486  0.055162996            3 
  407000    1.0864413   -4.9637007    258.60159  0.052948728   0.05512072            3 
  408000    1.0945082    -4.945431    258.21131  0.052739238   0.05507936            1 
  409000    1.0978699    -4.959601    259.04726  0.052780615  0.055038501            7 
  410000    1.0989624   -4.9313906    259.53347  0.052750704  0.054997648            2 
  411000    1.0748705   -4.9785529    259.00531   0.05251527  0.054957093            2 
  412000    1.0859809   -4.9643338    260.38331  0.052666527  0.054915042            2 
  413000    1.1170172   -4.9513671    261.30822   0.05272563   0.05487273            3 
  414000    1.0824037   -4.9599332    261.50407  0.052637694  0.054831336            2 
  415000    1.0970017   -4.9449348    262.21859  0.052654335  0.054789899            2 
  416000    1.0610958   -4.9679981    261.55767  0.052395367  0.054748158            4 
  417000    1.0699602   -4.9531769    261.84396  0.052326931  0.054705295            1 
  418000    1.0779334    -4.973299    261.87746  0.052208425  0.054663435            3 
  419000    1.0835123   -4.9699894    263.08519  0.052324023  0.054619846            6 
  420000    1.0959175   -4.9840092    263.68765  0.052318977  0.054576192            6 
  421000    1.0773124   -4.9642806    264.52967  0.052361375  0.054535208            3 
  422000    1.0820324   -4.9497925    264.43477  0.052218556  0.054495358            8 
  423000    1.1148926   -4.9827052    265.82735  0.052369454  0.054455264            3 
  424000     1.070471   -4.9935991    266.02357  0.052284507  0.054414734            3 
  425000    1.0704136   -4.9547303    267.37947  0.052427346  0.054375707            3 
  426000    1.1096848   -4.9284304    267.94192  0.052414304  0.054337557            3 
  427000    1.0880504   -4.9328918    268.34182  0.052369598  0.054300061            2 
  428000     1.102214   -4.9804776    269.00746  0.052376842  0.054262716            5 
  429000     1.109565   -4.9790332    270.54309  0.052553047  0.054226276            2 
  430000    1.0772278   -4.9787247    271.31746  0.052580903  0.054191274            3 
  431000    1.0833331   -4.9884373     271.6126   0.05251597  0.054156151            4 
  432000     1.080325   -4.9640732     271.4228  0.052357794  0.054121226            2 
  433000    1.0684938   -5.0090842    272.66461  0.052475867  0.054086049            4 
  434000    1.0931845   -4.9872783    272.02163  0.052231496  0.054052565            3 
  435000    1.0764373   -4.9849731    273.46731  0.052388373  0.054019597            5 
  436000    1.1065199   -4.9624309    273.54503  0.052283072  0.053986474            4 
  437000     1.076555   -4.9725168    275.31324  0.052500617  0.053954043            2 
  438000    1.0628968   -4.9763083    276.13431  0.052536969  0.053921409            2 
  439000    1.0866259   -4.9483913    277.00015  0.052581653  0.053890525            5 
  440000    1.0974625   -4.9401159    277.15114  0.052490746  0.053859091            5 
  441000    1.0662999   -4.9840025    277.28932   0.05239783  0.053826985            5 
  442000    1.0683869   -4.9441209    278.18943  0.052448988  0.053795997            2 
  443000    1.0718257   -4.9842796    277.83579  0.052264069  0.053764324            4 
  444000     1.065418   -5.0045494    278.38476  0.052249393   0.05373255            5 
  445000    1.0835743   -4.9907894    279.11512  0.052268748  0.053701924            3 
  446000    1.0582982   -4.9973537    279.52446  0.052228038   0.05367128            2 
  447000    1.0824919   -5.0028739    279.60721  0.052126624  0.053638482            3 
  448000    1.0752542   -4.9794804    282.37005  0.052524191  0.053607088            3 
  449000    1.0762965   -4.9978479    280.96021  0.052145547  0.053575142            2 
  450000    1.0720354   -5.0292556    282.44495   0.05230462  0.053544227            1 
  451000    1.0554186    -4.996753    283.46006  0.052376211  0.053514889            6 
  452000    1.0814292   -4.9804727    283.31825  0.052234191  0.053486667            9 
  453000    1.0706352   -4.9942496    284.77164  0.052386248  0.053459935            2 
  454000    1.0911199   -4.9608107     286.0855  0.052512023  0.053434181            5 
  455000    1.0890162   -4.9959548     285.3751  0.052266502  0.053408008            3 
  456000    1.0759679     -4.98741     285.4653  0.052168367  0.053380665            2 
  457000    1.0943556   -4.9882115    286.07917   0.05216615  0.053353517            6 
  458000    1.0805948   -4.9918039    285.78666  0.051999029  0.053325464            2 
  459000    1.0725625   -4.9831515    288.40282  0.052360715  0.053298851            3 
  460000    1.0773798   -5.0000507    287.63748  0.052108239  0.053272574            2 
  461000    1.0777988   -4.9664088    288.97146  0.052236346  0.053245783            3 
  462000    1.0618453   -5.0222023    288.68604  0.052071796  0.053219052            3 
  463000    1.0889085    -5.000428    289.47869  0.052101996  0.053191247            2 
  464000    1.0627132   -5.0124592    290.35982  0.052147956    0.0531637            3 
  465000     1.038924   -4.9781524    291.02904  0.052155741   0.05313546            2 
  466000    1.0698093   -4.9787068    290.98445  0.052035847  0.053107249            6 
  467000    1.0628315   -4.9819895    290.47655  0.051833789   0.05307911            2 
  468000    1.0646323    -5.023176    291.51755  0.051908396  0.053050308            3 
  469000    1.0308577   -5.0276887    292.23345   0.05192492  0.053023298            2 
  470000    1.0732551   -4.9838292    293.37482  0.052016812  0.052995602            3 
  471000    1.0513332   -4.9863836    294.23915  0.052059298  0.052968533            3 
  472000    1.0884393   -5.0421647    293.41198  0.051802963   0.05294116            4 
  473000    1.0665971     -5.01807    293.38282  0.051688305  0.052912621            4 
  474000    1.0663522   -5.0276446    294.50666  0.051776839  0.052884394            3 
  475000    1.0814388   -5.0006117    296.09933  0.051947251  0.052855743            2 
  476000    1.0634222   -5.0294698    294.35521  0.051532775  0.052827303            3 
  477000    1.0643258   -5.0444748    296.13315  0.051735351  0.052799311            4 
  478000    1.0596914   -5.0133353    296.49204  0.051689686  0.052771012            3 
  479000    1.0574671   -5.0122956    297.71923  0.051795272  0.052743414            8 
  480000     1.053275   -5.0106004    297.22219  0.051601074   0.05271531            6 
  481000    1.0671511   -5.0021451    298.90436  0.051785233  0.052687797            6 
  482000    1.0704815   -5.0280867    298.20996  0.051557739  0.052659288            2 
  483000    1.0672775   -5.0010395    298.17623  0.051445174   0.05263083            6 
  484000     1.056069   -4.9950933    299.37058  0.051544521   0.05260239            3 
  485000    1.0695774   -4.9855348    300.44249  0.051622421  0.052575459            3 
  486000    1.0475848    -5.033828    300.65227  0.051552173  0.052548365            4 
  487000    1.0472825   -5.0021984    302.10583  0.051695042  0.052522099           10 
  488000    1.0276392   -4.9992294     300.8931  0.051382019  0.052495658            2 
  489000    1.0414786   -5.0288351    301.67417  0.051410049  0.052469053            3 
  490000    1.0676254   -5.0114702    303.27099  0.051576699   0.05244176            3 
  491000    1.0526522   -4.9835367     303.8252  0.051565717   0.05241516            2 
  492000    1.0759713   -4.9761086    305.05456  0.051669134  0.052390322            2 
  493000    1.0780012   -4.9897699    306.02392  0.051728181  0.052365948            2 
  494000    1.0420547   -5.0193747    305.59051  0.051550356  0.052340793            4 
  495000    1.0438973   -5.0399474    306.75936  0.051642989  0.052317181            4 
  496000    1.0628885   -5.0432647    307.45532    0.0516558  0.052293741            3 
  497000    1.0518188   -4.9807082    309.21875  0.051847543  0.052270133            3 
  498000    1.0621423   -5.0183665    308.49942  0.051623063  0.052246983            3 
  499000    1.0757057   -5.0103259    308.38917  0.051501197  0.052224738            3 
  500000     1.060481   -5.0039786    307.88281  0.051313802  0.052202286            3 
  501000    1.0713063   -5.0642064    309.61435  0.051499393  0.052178424            1 
  502000     1.084584   -5.0040298    311.39834  0.051692952  0.052155288            3 
  503000     1.054807   -5.0226331    310.53138  0.051446551  0.052132408            3 
  504000    1.0656206   -4.9933185    312.39695  0.051652935  0.052109984            3 
  505000    1.0437728   -5.0062165    312.09975  0.051501608  0.052087103            4 
  506000    1.0533105   -5.0161924    312.37275  0.051444787   0.05206337            7 
  507000    1.0624315   -5.0199071    312.68674  0.051394928  0.052038735            2 
  508000    1.0325144   -5.0430424    311.72602  0.051136158  0.052014182            2 
  509000    1.0493989   -5.0184609    313.20765  0.051278266  0.051989586            2 
  510000    1.0684791   -5.0187784    313.92735  0.051295319  0.051964814            2 
  511000     1.049312   -5.0402828    314.34121  0.051262429  0.051940533            1 
  512000    1.0779897   -5.0393121     313.9432  0.051097526  0.051916438            1 
  513000    1.0527782   -5.0329043    313.97215  0.051002623  0.051893076            5 
  514000    1.0551091    -5.053428    315.53036  0.051156025  0.051869012            3 
  515000    1.0603432    -5.037648    315.93983  0.051122949   0.05184445            2 
  516000    1.0578177   -5.0581217    317.03745  0.051201138  0.051820439            2 
  517000     1.055634   -5.0361156    315.49597  0.050853638  0.051795197            4 
  518000    1.0537358   -5.0494783    317.69542  0.051109302  0.051769989            4 
  519000    1.0650311   -5.0485908    316.08486  0.050752226  0.051743769            2 
  520000    1.0365546   -5.0317854    317.02308  0.050804981  0.051716788            3 
  521000    1.0207581   -5.0122866    318.75831  0.050985015  0.051689796            3 
  522000    1.0537905   -5.0462667    318.28115  0.050811168  0.051663287            3 
  523000    1.0622988    -5.046543    318.92918  0.050817268  0.051636827            5 
  524000    1.0452308   -5.0300252    320.49984  0.050970076  0.051611262            2 
  525000    1.0367382   -5.0330893    320.25076  0.050833454   0.05158622            2 
  526000     1.040441   -5.0316519    321.00909  0.050856954  0.051560499            3 
  527000    1.0332262    -5.047991    321.39487  0.050821453  0.051534312            2 
  528000    1.0365387   -5.0204319    321.85062  0.050797131  0.051508238            1 
  529000    1.0347465   -5.0532286    321.75226  0.050685611  0.051482058            2 
  530000    1.0523584   -5.0552963    321.50003  0.050550318  0.051455745           10 
  531000    1.0555273   -5.0556777    321.52617  0.050459223  0.051428692            5 
  532000    1.0339777   -5.0479761    321.93718  0.050428756  0.051401465            3 
  533000    1.0553927   -5.0829109    321.55698    0.0502747  0.051374662            2 
  534000    1.0608791   -5.0849091    323.59297  0.050498278  0.051347863            4 
  535000    1.0378017   -5.0733911    323.48948   0.05038777  0.051321499            3 
  536000    1.0105333   -5.0499275    324.08693   0.05038665  0.051294761            1 
  537000    1.0389209   -5.0409029    324.13594  0.050300425  0.051267457            7 
  538000    1.0278833   -5.0297663    325.08848  0.050354473  0.051239969            3 
  539000    1.0265376   -5.0217525    326.67101  0.050505722  0.051212479            2 
  540000    1.0258646   -5.0418691    325.83607  0.050283344  0.051185604            3 
  541000    1.0681158   -5.0341496    326.70873  0.050324819  0.051158618            5 
  542000     1.050543   -5.0434146    326.16684  0.050148653  0.051131142            2 
  543000    1.0338986   -5.0356173    326.28375  0.050074241  0.051103586            6 
  544000    1.0386993   -5.0168499    327.90543  0.050230611  0.051075561            2 
  545000    1.0355278   -5.0293744    328.39958  0.050214003  0.051047602            1 
  546000    1.0334396   -5.0516709    328.08494  0.050074014  0.051019658            6 
  547000    1.0469132   -5.0878609     329.1113  0.050138834  0.050992857            2 
  548000    1.0333947   -5.0607393    329.17669  0.050057283   0.05096601            4 
  549000    1.0427568   -5.0571028    329.66452  0.050040151  0.050938283            2 
  550000    1.0213972   -5.0267853    330.09885  0.050014977  0.050911416            6 
  551000    1.0510397   -5.0657628    330.08285  0.049921787  0.050883943            5 
  552000    1.0270738   -5.0207315    332.40297  0.050181608  0.050856927            3 
  553000    1.0234827   -5.0660643     332.5256  0.050109343  0.050830652            2 
  554000     1.042645   -5.0818703    331.10566  0.049805303  0.050803837            2 
  555000    1.0283825   -5.0876641    331.55856  0.049783568  0.050776305            2 
  556000    1.0416565   -5.0333223    333.60684  0.050001025  0.050749336            3 
  557000    1.0291125   -5.0528201    333.04145  0.049826669  0.050721328            3 
  558000    1.0414837   -5.0669908    333.42317   0.04979438  0.050693323            2 
  559000    1.0337083   -5.0643561    333.08298  0.049654589  0.050666028            4 
  560000     1.052781   -5.0604669    335.06305  0.049860574  0.050638405            2 
  561000    1.0441882   -5.0743626    333.64513  0.049561071  0.050610414            6 
  562000     1.019034   -5.0843625    334.12599  0.049544186   0.05058256            4 
  563000    1.0519816   -5.0844393    334.86099  0.049564978  0.050554125            4 
  564000    1.0153249   -5.0543944    335.71851  0.049603799  0.050526308            3 
  565000    1.0157534   -5.0397054    337.41542  0.049766286  0.050498733            2 
  566000    1.0200216   -5.0602785    337.11939  0.049634774  0.050471708            4 
  567000    1.0139378   -5.0323736    336.99007  0.049528229  0.050444032            4 
  568000     1.028358   -5.0462887    338.57038  0.049672884  0.050416101            6 
  569000    1.0051073   -5.0785537    339.80234  0.049766014  0.050387665            2 
  570000    1.0287882   -5.0631702    339.55988  0.049643257  0.050359588            2 
  571000    1.0328792   -5.0753343    339.77909  0.049588309  0.050332848            3 
  572000    1.0398139   -5.0873369    340.26943  0.049573052  0.050305824            3 
  573000    1.0225128   -5.0813298    339.49322  0.049373651  0.050278427            3 
  574000    1.0261452   -5.0658317    340.00009  0.049361221  0.050250618            3 
  575000    1.0321909   -5.0727634    341.88867  0.049549082  0.050222864            2 
  576000    1.0113768   -5.0610299    342.08726  0.049491791  0.050195254            3 
  577000    1.0174117   -5.0715795    342.07445  0.049404167  0.050167866            4 
  578000    1.0222918   -5.1120328    340.67759  0.049117299  0.050140215            4 
  579000    1.0285938    -5.072876    343.09645  0.049380605  0.050113204            3 
  580000    1.0121386   -5.0735355    343.61109  0.049369409  0.050086289            4 
  581000    1.0261908   -5.0860412    344.59882  0.049426107  0.050058878            7 
  582000     1.048846   -5.0678942    344.95606  0.049392334  0.050031959            2 
  583000    1.0474344     -5.09967    344.60626  0.049257612  0.050005892           12 
  584000    1.0269643   -5.0956675     344.6513  0.049179694  0.049979658            6 
  585000    1.0174249   -5.0517709    346.35157  0.049337831  0.049953702            2 
  586000    1.0126524   -5.1374003    344.61186  0.049006236  0.049927334            4 
  587000    1.0319434   -5.1395243    346.18477  0.049146049  0.049899928            3 
  588000    1.0339973   -5.0545104    345.43462  0.048956154  0.049872661            2 
  589000    1.0195499   -5.1271899    346.27959  0.048992585  0.049844989            4 
  590000    1.0269618   -5.0895255     345.8094  0.048843136  0.049817937            4 
  591000    1.0210977   -5.0958702    347.54959  0.049005864  0.049790902            2 
  592000    1.0470359   -5.1022273    348.19926  0.049014535  0.049763719            5 
  593000    1.0418876   -5.0917396     349.4956  0.049114053  0.049736829            3 
  594000   0.99825224   -5.0714956    350.58848  0.049184691  0.049710315            2 
  595000    1.0126153   -5.0913289    348.43252  0.048800072  0.049683896            2 
  596000    1.0212754   -5.0991941    349.91063  0.048924865  0.049657104            1 
  597000     1.005959   -5.1140422    349.61611  0.048801802  0.049630069            7 
  598000    1.0049466   -5.1219164     348.6776  0.048589409  0.049602454            1 
  599000    1.0182585   -5.0859383     350.8485  0.048810309   0.04957493            3 
  600000    1.0155583   -5.1218338    351.84128  0.048866844  0.049546552            3 
  601000    1.0259257   -5.1303846    350.56654  0.048608783  0.049518892            6 
  602000    1.0066381   -5.0969995    351.66528  0.048680132  0.049490662            4 
  603000    1.0242344   -5.1120208    350.92329  0.048496862  0.049461702            2 
  604000    1.0179983   -5.1087861    352.86084  0.048683891  0.049432805            3 
  605000    1.0277037   -5.0858564     353.1596  0.048644573  0.049404433            3 
  606000     1.016828   -5.1048581    353.09903  0.048555973  0.049375525            2 
  607000    1.0138559   -5.1103445    353.18857  0.048488272  0.049347138           14 
  608000    1.0007498   -5.1095473    353.73436  0.048483327  0.049317867            3 
  609000    1.0291528   -5.1076963    353.31475  0.048346298  0.049289615            4 
  610000    1.0277672   -5.1245973    354.50612  0.048429798  0.049261016            3 
  611000   0.99643434   -5.1268813    354.20399  0.048309327  0.049232793            5 
  612000   0.99149892   -5.1068311    355.41377  0.048395121  0.049204922            6 
  613000    1.0073164   -5.0943662    355.83235  0.048373077  0.049176648            5 
  614000    1.0126861   -5.0946221    357.17698  0.048476789  0.049148475            4 
  615000     1.004849   -5.1195006    355.79789  0.048211096  0.049120942            2 
  616000   0.99649266    -5.112936    357.27877  0.048333167  0.049093425            4 
  617000    1.0179561   -5.0984052    358.15688   0.04837343  0.049065937            2 
  618000    1.0055508   -5.1321534    358.22499   0.04830434  0.049038743            3 
  619000    0.9942002   -5.1409902    359.71582  0.048427009  0.049010948            4 
  620000    1.0039428   -5.1273627    359.64687  0.048339633  0.048983462            3 
  621000    1.0104179   -5.1337176    359.89386  0.048294936  0.048956097            8 
  622000    1.0020924   -5.1419558     359.8855  0.048216172  0.048928564            3 
  623000   0.99785484   -5.0890772     361.1356  0.048305992  0.048901596            3 
  624000   0.99567865   -5.1186119    361.13913  0.048229051  0.048875097            4 
  625000    1.0024916   -5.1476517     361.0143  0.048135239  0.048848249            4 
  626000    1.0162292    -5.113683    361.34179  0.048101942   0.04882064            3 
  627000   0.97504569    -5.140133    362.02858  0.048116505   0.04879307            4 
  628000   0.99976738   -5.1222744    362.12066  0.048052105  0.048765623            2 
  629000    1.0177542   -5.1436667    361.43157  0.047884415  0.048737832            7 
  630000     1.024833   -5.0594912    363.62913  0.048099091  0.048710205            6 
  631000    1.0142971   -5.1054052    362.90055  0.047926644  0.048682555            3 
  632000   0.99859703    -5.140082     362.4162  0.047786946  0.048654445            2 
  633000   0.97343095   -5.1480739    364.06288  0.047928236  0.048626539            5 
  634000     1.022471    -5.120807    364.21799  0.047873027  0.048599204            3 
  635000     1.024067   -5.1172543    364.92367  0.047890246  0.048571856            6 
  636000    1.0100741   -5.1034142    364.63061  0.047776548  0.048544627            4 
  637000   0.97625637   -5.1180677    365.47937   0.04781258  0.048516513            2 
  638000    1.0014319   -5.1218758    366.08252  0.047816421  0.048487958            3 
  639000    1.0155392   -5.1256229    364.77022  0.047570452  0.048459429            2 
  640000    1.0043345   -5.1605319    366.33146  0.047699409  0.048431297            2 
  641000    1.0134366   -5.1544529    366.04278  0.047587465  0.048402823            2 
  642000   0.99263888   -5.0998347    367.05926  0.047645283  0.048374679            6 
  643000    1.0007206   -5.1500588    367.41965  0.047617891  0.048346058            3 
  644000   0.98108745   -5.1443072    367.83876  0.047598183  0.048317215            2 
  645000     0.995589   -5.1396867    367.45614  0.047474953  0.048288964            2 
  646000    1.0144545     -5.13715    368.81172  0.047576331  0.048261444            3 
  647000    1.0137968   -5.1327511    369.20948  0.047554029  0.048233856            5 
  648000   0.99925486   -5.1131098    368.48667  0.047387688  0.048205733            2 
  649000    1.0168576   -5.1160058    370.68708  0.047597211  0.048177877            3 
  650000   0.97928243   -5.1458452    369.21099  0.047334742  0.048149422            3 
  651000     0.977903   -5.1623284    370.99418  0.047490294  0.048120735            2 
  652000   0.99358156   -5.1355299    370.66133  0.047374914  0.048092741            2 
  653000    1.0090237   -5.1961836    368.40358  0.047014239  0.048064107            4 
  654000   0.98362102   -5.1566005     368.5525  0.046961328  0.048035234            4 
  655000   0.98612419   -5.1379157    371.23832  0.047231338  0.048006477            3 
  656000    0.9725469   -5.1239042    372.12185  0.047271576  0.047977749            8 
  657000    1.0073883   -5.1660066    371.41874  0.047110444  0.047949113            2 
  658000   0.98338177   -5.1714056    371.48609  0.047047377  0.047920261            6 
  659000   0.97957159   -5.1770396    370.89962  0.046901824   0.04789111            2 
  660000   0.99544999   -5.1439016      373.037  0.047100631  0.047862764            5 
  661000   0.98898263   -5.1407512    373.80216  0.047125839  0.047834602            3 
  662000   0.99797174   -5.1670246     374.1683  0.047100743  0.047806248            2 
  663000   0.98439544   -5.1396244    374.11691  0.047023241  0.047778103            1 
  664000    1.0109235   -5.1354995     374.6308  0.047016917  0.047749832            4 
  665000   0.96680106   -5.1877283    375.96327  0.047113192  0.047721978            8 
  666000   0.98906788   -5.1536247    376.35372  0.047091307  0.047694384            3 
  667000   0.98905762   -5.1901932     376.7127  0.047065554  0.047667406            4 
  668000   0.99323455   -5.1424897    377.12187  0.047046141  0.047640055            2 
  669000   0.97787206   -5.1520814    377.19084   0.04698441  0.047613086            7 
  670000   0.97060712   -5.1762088    377.18871  0.046914019  0.047585856            2 
  671000   0.97790271   -5.1624785    377.94158  0.046937603  0.047559243            3 
  672000   0.98562255   -5.1629567    378.37133  0.046921047  0.047532632            3 
  673000   0.98059516   -5.1624545    379.53703  0.046995669   0.04750606            3 
  674000   0.98530773   -5.1958073    379.14865  0.046877924  0.047478845            4 
  675000   0.97831577   -5.1684187    378.98707  0.046788527  0.047451593            4 
  676000     1.000205   -5.1627446     380.0805  0.046854105   0.04742491            3 
  677000    0.9712574   -5.1700943    380.79978  0.046873434  0.047398001            2 
  678000   0.97929578   -5.1553437    381.14372  0.046846573  0.047371792            4 
  679000   0.98870707   -5.1869202    381.41482  0.046810852  0.047345284            2 
  680000   0.97849473   -5.1570321     381.5381   0.04675712  0.047319076            2 
  681000   0.97627528   -5.1726034    383.30152  0.046904249  0.047292672            3 
  682000   0.97205398   -5.1701504    381.41958   0.04660552  0.047266033            7 
  683000    0.9970097   -5.1699079    383.01549  0.046732002  0.047239675            6 
  684000   0.96824614   -5.1866077    382.91405  0.046651322  0.047213406            2 
  685000    0.9704231    -5.189641    384.16043  0.046734846  0.047187407            4 
  686000   0.96835256   -5.1642366    384.23711  0.046676033  0.047160749            3 
  687000   0.98515906   -5.1796438    384.02138  0.046581924  0.047134314            6 
  688000   0.96636965   -5.1779177    385.11654  0.046646867  0.047107751            3 
  689000   0.97959703   -5.1762541     385.2128  0.046590808  0.047081715            4 
  690000   0.98681611   -5.1862258    385.76367  0.046589815  0.047054958           16 
  691000   0.96617612   -5.1517346    386.57126  0.046619785   0.04702802            3 
  692000   0.95855258   -5.1787337    386.69076  0.046566806  0.047001206            4 
  693000   0.97971392   -5.1800254    385.17565  0.046317418  0.046974419            5 
  694000   0.97584381   -5.2085534    385.93807  0.046342228    0.0469471            4 
  695000   0.96866419   -5.1901003    387.10994   0.04641606  0.046919406            2 
  696000    0.9376972   -5.1534785    387.24042  0.046364993  0.046892527            5 
  697000   0.96073845    -5.193906    386.89665  0.046257371  0.046865654            4 
  698000   0.98616629   -5.1840849    386.72181  0.046170226  0.046839017            1 
  699000    0.9764829   -5.2158472    386.25276  0.046048254  0.046811848            5 
  700000   0.99396786   -5.1773929    388.15299  0.046208689  0.046785185            5 
  701000   0.96298688   -5.2085143    388.04381  0.046129792  0.046758286            2 
  702000    0.9866955    -5.184774    389.92552  0.046287455  0.046731472            4 
  703000   0.96200188   -5.1933649     387.8171  0.045971681  0.046703974            4 
  704000   0.96207671   -5.1616426    389.54048  0.046110379  0.046676647            6 
  705000   0.95397381   -5.1921417    388.72203   0.04594823  0.046649277            5 
  706000   0.98277273   -5.1878577    390.17543  0.046054702  0.046622067            4 
  707000   0.95742995    -5.194832    391.95411  0.046199211  0.046594652            5 
  708000   0.96988156   -5.1993472    390.60365  0.045975006  0.046567147            4 
  709000   0.98018099    -5.175085    390.47158  0.045894638  0.046539623            6 
  710000   0.96614602    -5.203115    390.57194  0.045841777  0.046512088            2 
  711000   0.99143701   -5.2077125    391.47295  0.045882905  0.046484142            7 
  712000    0.9729896   -5.2099087     391.0436  0.045768212  0.046456321            5 
  713000   0.96540969   -5.1665275    391.62942   0.04577249  0.046428222            3 
  714000   0.96791421   -5.2213015    391.40596  0.045682301  0.046400063            4 
  715000   0.97626943   -5.2140322    391.34081  0.045610817  0.046371958            4 
  716000   0.97703382   -5.1919177    393.01974  0.045742521  0.046344463            7 
  717000   0.97938082   -5.1681199    393.02418  0.045679239  0.046316842            3 
  718000    0.9594239   -5.1959059    393.25737  0.045642684  0.046289361            2 
  719000   0.98053467   -5.2123031    393.41257  0.045597192  0.046262138            2 
  720000   0.94704943   -5.2126716    394.84066  0.045699151  0.046235176            6 
  721000   0.96342871   -5.2037946    394.52144  0.045598871  0.046208464           14 
  722000   0.95920022   -5.2319579    395.58291  0.045658231  0.046181459            4 
  723000   0.96240607   -5.2015983    394.92661  0.045519435  0.046153716            4 
  724000   0.96102273   -5.2062212    395.82555  0.045560031  0.046126576            3 
  725000   0.95813848   -5.2277589    395.31356   0.04543834  0.046098516            6 
  726000   0.98103476   -5.2246131    394.49075  0.045281307  0.046070379            3 
  727000   0.97942817   -5.2099253    397.08342   0.04551621  0.046042277            4 
  728000   0.97637433   -5.2167881    395.87492  0.045315352  0.046014427            3 
  729000   0.95076783   -5.2155648    395.90689  0.045256846  0.045986447            7 
  730000   0.97951458   -5.1949093    396.46103  0.045258109   0.04595809            3 
  731000   0.94867252     -5.18771    396.50059  0.045200706  0.045929653            4 
  732000   0.94577819    -5.163059    396.51738  0.045140868  0.045900853            3 
  733000   0.97260678   -5.1860636    398.11289  0.045260674  0.045871937            3 
  734000   0.97625512   -5.2035062    396.44775  0.045009962   0.04584285            5 
  735000   0.97693146   -5.2070316    397.17847  0.045031572  0.045813828            5 
  736000   0.96014704   -5.2197372    400.52314  0.045349087  0.045785231            9 
  737000   0.96877114   -5.1931469    398.81242  0.045094122  0.045756282            3 
  738000   0.96529495   -5.1956618    397.21004  0.044852082  0.045727727            3 
  739000   0.95318632   -5.2266819    398.43602  0.044929637  0.045698508            5 
  740000   0.96917574   -5.2017795    399.59608  0.044999559  0.045669893            4 
  741000   0.94502822   -5.2424641    398.75984  0.044844786  0.045641217            3 
  742000     0.960924   -5.2164257    399.50223  0.044867725   0.04561249            5 
  743000   0.95770439   -5.2265649    400.60334  0.044930837  0.045583729            3 
  744000   0.97608595   -5.2357174    400.86542  0.044899801  0.045555406            4 
  745000    0.9368838   -5.2461172    401.46302  0.044906379   0.04552734            5 
  746000   0.94726242   -5.2122072    401.84604  0.044888967  0.045499204            4 
  747000   0.95404001   -5.1963298    404.65667  0.045142422  0.045471207            5 
  748000   0.95924542   -5.2092077    403.36338  0.044937987  0.045443484            6 
  749000   0.94495378   -5.1988775     404.3014  0.044982354  0.045415531            4 
  750000   0.92978151   -5.2335565    402.63261  0.044736956  0.045387842            5 
  751000    0.9556402    -5.223162    402.93355   0.04471078  0.045359956            6 
  752000   0.95523486   -5.2166488    403.31205  0.044693268  0.045331855            5 
  753000   0.94887895   -5.2279643    405.07173  0.044828656    0.0453044           12 
  754000   0.94442593   -5.2460712    404.81577  0.044740912  0.045276281            4 
  755000   0.94996857    -5.236544    404.34777  0.044629997  0.045247974            2 
  756000   0.96156674   -5.2449769    406.63035  0.044822569  0.045220451            3 
  757000   0.95393822   -5.2472651    406.73879  0.044775297  0.045193248            4 
  758000   0.94009289   -5.2619484    405.40624  0.044569727  0.045166343            6 
  759000   0.96569609    -5.229274    407.50419  0.044741347  0.045138997            4 
  760000   0.94868699   -5.2299856    408.63725  0.044806717  0.045112123            2 
  761000    0.9316976    -5.266003    407.89411   0.04466646  0.045085807            6 
  762000   0.95851776   -5.2327593    408.15994  0.044636913  0.045059436            7 
  763000   0.94531969   -5.2391087    408.26397  0.044589774  0.045032969            8 
  764000   0.94246597   -5.2521836    407.38965  0.044436043  0.045006407            2 
  765000   0.96020577   -5.2398575    408.50874  0.044499863  0.044979577            7 
  766000   0.94471504   -5.2258982    409.08066  0.044503988  0.044953189            4 
  767000   0.94252526   -5.2195185    408.60926  0.044394748  0.044926501            3 
  768000   0.96261245   -5.2597919    408.68208  0.044344844  0.044899911            3 
  769000   0.92895036    -5.222428    412.36742  0.044686544  0.044873334            2 
  770000   0.95338882   -5.2452875     410.9021  0.044469924   0.04484707            5 
  771000    0.9371775   -5.2709821    411.38634  0.044464584  0.044820706            5 
  772000   0.95398048   -5.2345551    411.31661  0.044399462  0.044794438            3 
  773000   0.95396573    -5.269861    411.81016   0.04439523  0.044768395            8 
  774000   0.95993092   -5.2514435    411.61971  0.044317368  0.044742806            2 
  775000   0.94258071    -5.208627    413.22844  0.044433165   0.04471702            3 
  776000   0.95508297   -5.2666117    412.86017  0.044336358  0.044691146            8 
  777000   0.93137228   -5.2419727     414.1147  0.044413846  0.044665074            4 
  778000   0.94690314   -5.2294561    414.53391  0.044401662  0.044639264            3 
  779000   0.93934779   -5.2478344    413.41566  0.044225039  0.044613229            2 
  780000    0.9237614   -5.2596673    413.72786  0.044201695  0.044587085            4 
  781000   0.97205474   -5.2805676    412.85788   0.04405227  0.044560954            2 
  782000   0.94198788   -5.2509627    413.35434  0.044048843   0.04453471            2 
  783000   0.98843266   -5.2452893    415.48062  0.044218882   0.04450831            7 
  784000   0.93063397   -5.2229359    414.90312  0.044101097  0.044482451            3 
  785000   0.94571153   -5.2324092    415.02808  0.044058182   0.04445645            2 
  786000    0.9584574   -5.2837668    414.94557  0.043993381   0.04442962            4 
  787000   0.95919402   -5.2544731    415.13413  0.043957447  0.044403012            3 
  788000   0.94573714   -5.2280985    416.12883  0.044006856  0.044376493            9 
  789000   0.96755433    -5.245986    416.90503  0.044033062  0.044349926            4 
  790000   0.95369199    -5.270003    415.57209  0.043836718  0.044323353            5 
  791000   0.94003965   -5.2667465    417.61284  0.043996296  0.044296522            6 
  792000   0.94254519   -5.2217169    418.78322  0.044063891  0.044270243            2 
  793000   0.93444521   -5.2870337    415.75955  0.043690579  0.044243782            8 
  794000    0.9222883   -5.2519682     415.3785  0.043595561   0.04421673            5 
  795000   0.95618422   -5.2619443    417.82302  0.043796963  0.044189291            4 
  796000   0.92842853   -5.2588697    417.15038  0.043671522  0.044162073            8 
  797000   0.93226164   -5.2632485    416.96104   0.04359693  0.044134633            2 
  798000   0.95066401   -5.2625518     418.1668  0.043668213  0.044107186            4 
  799000   0.94476385   -5.2850359    417.04693   0.04349676  0.044079934            7 
  800000   0.92911737   -5.2560701    417.07704  0.043445525  0.044052766            2 
  801000   0.92880614    -5.315279     418.6872  0.043558801  0.044025626            9 
  802000   0.94231387   -5.2529031    419.93057  0.043633683  0.043998821            5 
  803000   0.91845213    -5.266688    420.26413  0.043613961  0.043972309            7 
  804000   0.94741896   -5.2438097    420.19599  0.043552652  0.043945644            6 
  805000   0.93474299   -5.2800669    420.35777  0.043515297   0.04391838            3 
  806000   0.92121038   -5.2681163     419.6256  0.043385608  0.043891463            5 
  807000   0.91646562   -5.2628501    419.95509   0.04336587  0.043864327            5 
  808000   0.92543129   -5.2944946    420.60288   0.04337901  0.043837734            5 
  809000   0.93222951   -5.2552388    421.58516  0.043426572  0.043810644            4 
  810000   0.92470874   -5.2621462    422.07826  0.043423689  0.043783783            3 
  811000   0.95395877   -5.2858551    423.06168  0.043471196  0.043757255            6 
  812000   0.92404086   -5.2336652    422.99529  0.043410846  0.043730899            3 
  813000   0.92939674   -5.2833393    422.17293  0.043273158  0.043704108            3 
  814000   0.92524528   -5.3012759    421.42614  0.043143544  0.043676986            4 
  815000   0.92436804   -5.2659922    423.49928  0.043302584  0.043650204            4 
  816000   0.92400209    -5.293851    422.59484  0.043157153  0.043623696            6 
  817000   0.95598868   -5.3169735    422.03467  0.043047192  0.043596885            4 
  818000   0.93975283   -5.2721431    424.23789  0.043219019  0.043570665           11 
  819000   0.91859491   -5.2578535    425.02636  0.043246476  0.043544478            3 
  820000   0.92134941   -5.2918433    424.87858  0.043178717  0.043517944            3 
  821000   0.91731776   -5.3056812    425.37961  0.043176981  0.043491749            7 
  822000   0.92733491   -5.2870888    425.08521  0.043094607    0.0434655            4 
  823000   0.91510955   -5.2679298    425.45611    0.0430798  0.043439504            8 
  824000   0.90813285   -5.2796448    426.41143  0.043124133  0.043413586            4 
  825000   0.94395595   -5.2860521     426.0384  0.043034181  0.043387285            2 
  826000   0.92637304   -5.2589592    426.23721   0.04300214   0.04336131            4 
  827000   0.92897492   -5.2487283    426.81519  0.043008383  0.043335244            3 
  828000   0.91048444   -5.2865414    426.89531  0.042964504  0.043308922            5 
  829000   0.92008419   -5.3013849    427.33991  0.042957369  0.043282384            2 
  830000   0.91242645   -5.2799429    426.79556   0.04285096  0.043255923            3 
  831000   0.91765024   -5.3013879    427.41169   0.04286118  0.043229507            6 
  832000   0.93952553   -5.2721326    426.98265  0.042766692  0.043202896            7 
  833000   0.91616476   -5.2918268    427.80162  0.042797281   0.04317622            5 
  834000   0.92455981   -5.2809022    429.50635  0.042916302  0.043149683            4 
  835000   0.91268316   -5.3073775    427.38087  0.042652782  0.043123301            8 
  836000    0.9362304   -5.2564313    428.31987  0.042695362  0.043096731            8 
  837000   0.90944204   -5.2739273    429.59134  0.042770942  0.043070797            7 
  838000   0.92408556    -5.298585    429.70712  0.042731416  0.043044799            3 
  839000   0.90784948   -5.3006943    430.94197  0.042803136  0.043018997            4 
  840000   0.90844625   -5.3212686     429.9533  0.042654097  0.042993047            3 
  841000   0.90933858   -5.3163503    430.40084  0.042647725   0.04296735           11 
  842000    0.9135083   -5.3312446    430.62719  0.042619476  0.042941054            6 
  843000   0.90294887   -5.3176162    430.91073  0.042596949  0.042915313            3 
  844000   0.92980325   -5.3305467     430.4968  0.042505608  0.042889464            5 
  845000   0.90213393   -5.2706932    432.67114  0.042669738  0.042864137            8 
  846000   0.91262546   -5.3001371    433.46948   0.04269794  0.042838581            4 
  847000   0.90066577   -5.2933685      434.379  0.042737013  0.042812504            4 
  848000   0.92989411   -5.3127708    432.99976  0.042551077  0.042786477            5 
  849000   0.91697054   -5.2928328    432.51914  0.042453783  0.042760475            4 
  850000   0.89928198   -5.2780271    433.58028  0.042507871  0.042734988            5 
  851000   0.90532063   -5.3259817    434.08702  0.042507542  0.042709408           10 
  852000   0.90758844   -5.2945239    434.62802  0.042510565  0.042683612            3 
  853000   0.89824258   -5.3142745    434.07253   0.04240646  0.042657579            4 
  854000   0.89058723   -5.3266422    434.04646  0.042354261  0.042631325            7 
  855000    0.9110141   -5.2963808    433.77464   0.04227823  0.042605336           14 
  856000   0.91717383   -5.2974394    434.22902  0.042273074  0.042579121            6 
  857000   0.90169107   -5.3041268    434.59644  0.042259475  0.042553339            3 
  858000   0.88204228   -5.2913612    436.48192  0.042393349  0.042527899            4 
  859000   0.93039539   -5.2979926    435.89218  0.042286785  0.042502449            6 
  860000   0.90250509   -5.3193878    435.65454  0.042214588  0.042476997            5 
  861000   0.89899046   -5.3190755    436.50436  0.042247809  0.042451734            2 
  862000   0.92471919   -5.3064812    436.03015  0.042152953  0.042426465            4 
  863000   0.89384275   -5.3143957     437.4442  0.042240653  0.042401022            5 
  864000   0.90174328   -5.3032569    437.63845  0.042210499  0.042376081            4 
  865000   0.91543173   -5.3171149    437.94719  0.042191445  0.042350794            6 
  866000    0.9200681   -5.3230101    438.37201  0.042183604  0.042325551            6 
  867000   0.92591656   -5.2817477    439.40247  0.042233993  0.042300719            1 
  868000   0.91987888   -5.3133916    439.56266  0.042200716  0.042275595            3 
  869000   0.90151915   -5.3172238     438.3123   0.04203225   0.04225035            6 
  870000   0.89323216   -5.3321683    438.95956  0.042045935  0.042224986            4 
  871000   0.90329208   -5.3025764    440.82898  0.042176519  0.042199551            5 
  872000   0.88668376   -5.3741789    440.13058  0.042061408  0.042174789            6 
  873000   0.91330854   -5.3215641     440.7408  0.042071478  0.042149614            3 
  874000   0.90117549   -5.3149433    441.26015  0.042072859  0.042124971            5 
  875000   0.89288157   -5.3236191    440.75872  0.041977021  0.042100547            4 
  876000   0.89008083   -5.3249457    440.86733  0.041939434  0.042076091            5 
  877000   0.91458459   -5.3376254    441.92447  0.041992063  0.042051295            6 
  878000   0.90326187   -5.3281656    441.65757  0.041918903  0.042026665            9 
  879000   0.90072571   -5.3299489    443.41894  0.042038201  0.042002368            4 
  880000    0.8952629    -5.298403     443.8692  0.042033068  0.041978197            8 
  881000   0.89824199    -5.326118    443.42867  0.041943688  0.041954117            6 
  882000   0.88563991    -5.319234    443.95319   0.04194569  0.041929649            3 
  883000   0.89862059   -5.3497298    443.02823  0.041810893  0.041905087            3 
  884000   0.89758643   -5.3201397    443.02254   0.04176306  0.041880487            4 
  885000   0.88204888   -5.3221035    444.60728  0.041865092  0.041856183            4 
  886000   0.91030024   -5.3475755    444.75813  0.041832029  0.041831802            3 
  887000   0.89544468   -5.3043546    447.43955  0.042036786  0.041808087            5 
  888000   0.88591096    -5.333568    445.18193  0.041777583  0.041783975           10 
  889000   0.88388362   -5.3325757    447.95498   0.04199053  0.041759639            3 
  890000    0.9021141   -5.3426344    444.93057  0.041660166  0.041735605            5 
  891000   0.90127326   -5.3440279    445.17747  0.041636501  0.041711383            3 
  892000   0.88462444   -5.3298788    444.67013  0.041542426  0.041687105            4 
  893000   0.89759639   -5.3576708    446.39127   0.04165652  0.041662518            3 
  894000   0.88375608    -5.359483    445.74565  0.041549744  0.041637566            6 
  895000   0.89559762   -5.3410767    446.08812  0.041535207  0.041613004            8 
  896000   0.91087597   -5.3476594    447.05014  0.041578324  0.041588671            4 
  897000   0.90842574   -5.3812454    446.16768  0.041449989  0.041564545            4 
  898000   0.90485857   -5.3511864    447.36154   0.04151462  0.041540307            6 
  899000   0.89720526   -5.3320034    449.08058  0.041627788  0.041516076            5 
  900000   0.88904621   -5.3470269    448.64105  0.041540838  0.041492185            4 
  901000   0.90356611   -5.3655271    448.67968  0.041498305  0.041467907            7 
  902000   0.89271161   -5.3119064     448.9849  0.041480497  0.041443803            3 
  903000   0.89400251   -5.3562142    448.48525  0.041388451  0.041419698            5 
  904000   0.89429419   -5.3586333     448.3642  0.041331508  0.041395547            5 
  905000   0.88615119    -5.360236    450.51866  0.041484222  0.041371929            4 
  906000   0.89284678   -5.3578757    450.13542  0.041403185  0.041348467            3 
  907000   0.90497551    -5.347596    450.54564  0.041395226  0.041324712            3 
  908000   0.88100902   -5.3623205    450.84515  0.041377125  0.041300968            5 
  909000   0.91580551   -5.3563537    452.33993   0.04146864  0.041277247            3 
  910000   0.88130035   -5.3384534    450.35497  0.041241298  0.041253869            4 
  911000    0.8946928   -5.3830139     451.8296  0.041330919  0.041230595            9 
  912000    0.8934821   -5.3594272    451.48716  0.041254309  0.041206829            8 
  913000    0.8744271   -5.3597471    453.27286  0.041372112  0.041183005            4 
  914000   0.87379568    -5.365207     452.1409  0.041223642  0.041158619            4 
  915000   0.88821833   -5.3766014    451.06748  0.041080827  0.041134384            5 
  916000   0.90060964   -5.3585909    451.16161  0.041044543  0.041110156            9 
  917000    0.9034631   -5.3697428    453.90526  0.041249115   0.04108621            4 
  918000   0.88941289   -5.3587325    453.71294  0.041186723  0.041062507            6 
  919000   0.88975738   -5.3479596    454.87804  0.041247556  0.041039103            7 
  920000   0.90391186   -5.3400738    455.47168  0.041256493  0.041015797            7 
  921000     0.874829   -5.3759616    455.06319  0.041174736  0.040992742            6 
  922000   0.88616498   -5.3689158    453.46292  0.040985441  0.040969562            3 
  923000   0.87964063   -5.3998872    454.75453   0.04105765  0.040946216            7 
  924000   0.88858373    -5.379931    455.72181  0.041100452  0.040922645            7 
  925000   0.89213421   -5.3719823    456.23171  0.041101956  0.040899327            3 
  926000   0.88694509   -5.3594195    455.71261  0.041010854  0.040875777            7 
  927000   0.87937007   -5.3716599    455.38029  0.040936739  0.040852211            5 
  928000   0.86872984   -5.3640095    455.69375  0.040920775  0.040828922            5 
  929000   0.86882117   -5.3827593    455.16111  0.040828947  0.040805226            2 
  930000   0.87746365   -5.3691179     455.5352  0.040818566  0.040781532            3 
  931000   0.88992979   -5.3834668     455.6947  0.040788999  0.040757971           14 
  932000   0.88634571   -5.3762278    456.89817  0.040852841  0.040734132            4 
  933000   0.87614769   -5.3959669    455.12427  0.040650613  0.040710579            3 
  934000   0.87654552   -5.3731098    458.35833   0.04089564  0.040687018            4 
  935000   0.87950588   -5.3794138    457.34495  0.040761582  0.040663661            4 
  936000   0.88660987    -5.390049    458.40964  0.040812824  0.040640235            4 
  937000   0.89258568   -5.3548366    458.68069  0.040793374  0.040616498            6 
  938000   0.88616405   -5.3634497    458.42348  0.040727033  0.040593032            2 
  939000   0.90292709   -5.3848709    458.13393  0.040657964  0.040569709           14 
  940000   0.86471621   -5.3683723     458.2033   0.04062086  0.040546611            6 
  941000   0.89880883   -5.4007561    458.21244  0.040578501  0.040523017            4 
  942000   0.87090442   -5.3551192    460.15648  0.040707403  0.040499518            6 
  943000   0.85658755    -5.397535    459.50917  0.040607032  0.040475947            5 
  944000   0.87238329   -5.3763115    460.13651  0.040619396  0.040452198            4 
  945000   0.88732307   -5.3991907    459.70112  0.040538018  0.040428624            3 
  946000   0.88944967   -5.3673123    461.29874  0.040635901  0.040405233            7 
  947000   0.88201782   -5.3944774     459.1653  0.040405254  0.040381762           12 
  948000   0.89553844   -5.4031884    460.02475  0.040438181  0.040358151            6 
  949000   0.88900331   -5.3429075    461.99055   0.04056819  0.040334757            3 
  950000   0.88067718   -5.4078371     458.9572  0.040259403  0.040311144            6 
  951000   0.88529373   -5.4027185    461.05557  0.040400944  0.040287394            4 
  952000    0.8909548   -5.4080702    459.93933  0.040260795  0.040263748            3 
  953000    0.8780735   -5.3930226    460.73871  0.040288449  0.040239883            4 
  954000   0.85921608   -5.4171474    461.42597  0.040306252   0.04021584            5 
  955000   0.87240733   -5.3983688    460.05367  0.040144299   0.04019219            4 
  956000   0.86970292   -5.3839576    460.77075  0.040164814  0.040168631            6 
  957000   0.85772131   -5.3849365    462.07177  0.040236135  0.040144705            6 
  958000   0.87145104   -5.4183514    462.33321  0.040216876  0.040120892            6 
  959000   0.88086638   -5.4117289    462.73575  0.040209919  0.040097122            2 
  960000   0.85422794   -5.3736707    462.70415  0.040165291  0.040073283            2 
  961000   0.85557474   -5.4073005    461.52307  0.040021078  0.040049575            8 
  962000   0.87132557    -5.402611    462.66899  0.040078741  0.040025516            4 
  963000   0.85325254   -5.4127773    463.38811  0.040099352  0.040001362            6 
  964000    0.8732851   -5.4194986    462.12822  0.039948843  0.039977169            7 
  965000   0.86179499   -5.3856958    463.39999  0.040017271  0.039953089            3 
  966000   0.87041575   -5.4359734      462.968  0.039938578  0.039929079            6 
  967000   0.87023461   -5.4186246    462.95512  0.039896167  0.039905089            9 
  968000   0.85879085   -5.3904751    463.30226  0.039884837  0.039880947            6 
  969000   0.87265577   -5.4266785    462.70325  0.039792162    0.0398566            5 
  970000   0.85662698   -5.3897502    464.31131  0.039889287  0.039832405            4 
  971000   0.86028032   -5.4166996    464.48841  0.039863407  0.039808134            4 
  972000   0.88734178   -5.4387965    465.11308   0.03987595  0.039783886           11 
  973000   0.87045689   -5.3985652    463.41858  0.039689841  0.039759576            3 
  974000   0.86234413   -5.4314993    463.75236  0.039677649  0.039735431            5 
  975000   0.86555853   -5.3835512    465.65592  0.039799651  0.039711157            5 
  976000   0.85420056    -5.385694    465.93198  0.039782443  0.039687031            4 
  977000    0.8693664   -5.4277713    463.69616   0.03955102  0.039663038            4 
  978000   0.85248692   -5.4118015    465.39733  0.039655532  0.039638832           12 
  979000   0.88247859    -5.418669    466.57265  0.039715071  0.039614686            3 
  980000   0.87129435   -5.4213367     465.9651  0.039622883  0.039590591            3 
  981000   0.85805692   -5.3805097    469.09533  0.039848397   0.03956662            6 
  982000   0.85790331   -5.4136582     467.5219  0.039674295  0.039542837            2 
  983000   0.87554052    -5.420081    465.69987  0.039479473  0.039518981            5 
  984000   0.86140814   -5.4430484     466.1732  0.039479438  0.039494939            7 
  985000   0.86777479   -5.3877723    467.82024    0.0395787  0.039470994            8 
  986000   0.85647707   -5.4232683    467.74991  0.039532616  0.039446771            4 
  987000   0.85264833   -5.4231042    467.83691  0.039499908  0.039422256            6 
  988000   0.84692659    -5.400553    468.08057   0.03948048  0.039398262            9 
  989000   0.85812173   -5.4432729    467.36401  0.039380183  0.039374507            6 
  990000   0.86254946   -5.4100201    470.38183   0.03959443  0.039351003            5 
  991000    0.8663868   -5.4294914    467.93677  0.039348871  0.039327585            4 
  992000   0.86360609    -5.425536    469.39471  0.039431679  0.039303765            3 
  993000   0.86062152   -5.4346689     468.8006  0.039342111  0.039279967            4 
  994000   0.85838018   -5.4237543    470.62924  0.039455839  0.039256526            5 
  995000   0.85133487   -5.4113478    470.10693   0.03937244  0.039233341            5 
  996000   0.86814658   -5.4000428    471.76362  0.039471521  0.039210533            7 
  997000   0.85338401   -5.4501347    470.28179  0.039308073  0.039187663            6 
  998000   0.85163029   -5.4254134    470.66106  0.039300356  0.039164382            9 
  999000    0.8409658   -5.4328934    472.94245  0.039451322  0.039141169            5 
 1000000   0.84741779   -5.4263571    472.17526  0.039347938  0.039118049            3 
 1001000   0.86382807   -5.4389764    473.10841  0.039386314  0.039094844            4 
 1002000   0.85642574    -5.447704    471.93317  0.039249265  0.039072055            5 
 1003000   0.83756426   -5.4695803    470.86364  0.039121273  0.039049017            4 
 1004000   0.84389401   -5.4326036    473.13255   0.03927063  0.039026111            8 
 1005000   0.85648281   -5.4635066    473.08025  0.039227218  0.039003114            5 
 1006000   0.85172656   -5.4520351    473.06509  0.039186969  0.038980093            5 
 1007000   0.84052625   -5.4396421    472.98289  0.039141252  0.038957046            3 
 1008000   0.86188859   -5.4189271    475.00055  0.039269225  0.038933801            4 
 1009000   0.86024804   -5.4724304    473.36412  0.039095154  0.038910518            8 
 1010000   0.84069971   -5.4272769    473.86081  0.039097426  0.038887554            2 
 1011000   0.84713319   -5.4694771     474.4889  0.039110525   0.03886452            3 
 1012000   0.85265833   -5.4292327    473.92577  0.039025508   0.03884116            4 
 1013000   0.84713392   -5.4691903    472.93545  0.038905516  0.038817908            5 
 1014000    0.8339867   -5.4358179    474.17797  0.038969261  0.038794667            5 
 1015000   0.86046571   -5.4548044    475.92502  0.039074304  0.038771441            5 
 1016000   0.84949048   -5.4556173    473.71463  0.038854547  0.038748172            7 
 1017000   0.84103853   -5.4477355    475.41465  0.038955642  0.038725282            9 
 1018000   0.83555434   -5.4668553    475.66996  0.038938275  0.038702463            5 
 1019000   0.85616719   -5.4653075    477.40913   0.03904229  0.038679866           11 
 1020000   0.85086422   -5.4500436    476.68302  0.038944691   0.03865738            7 
 1021000   0.85087438   -5.4924057    475.71315  0.038827387  0.038634766            8 
 1022000   0.82903905   -5.4424387    477.30309  0.038919038  0.038612154            2 
 1023000   0.87325585   -5.4363139    475.92144  0.038768445  0.038589479            5 
 1024000   0.84064106   -5.4708037    477.14363  0.038830048  0.038566859            3 
 1025000     0.864778   -5.4228149     477.8802  0.038852049  0.038544193            2 
 1026000   0.85709814   -5.4644165     475.9202  0.038654987  0.038521587            6 
 1027000   0.86475451   -5.4264275    480.08077  0.038954947  0.038498946            2 
 1028000   0.84820468   -5.5085511    477.14453  0.038679031  0.038476296            5 
 1029000   0.83468646   -5.4540782    478.45161  0.038747296  0.038453601            3 
 1030000   0.86185943   -5.5052883    479.01441  0.038755211  0.038431321            3 
 1031000   0.82802096   -5.4478615    478.36406  0.038665055  0.038408717           10 
 1032000   0.85052185   -5.4708298    477.75582  0.038578474  0.038385991            3 
 1033000   0.84383327   -5.4935347    478.24726  0.038580773  0.038363323            2 
 1034000    0.8506661   -5.4812887    479.92947  0.038679035  0.038340869            5 
 1035000   0.81789523   -5.4356742    479.78779  0.038630257  0.038318256            7 
 1036000   0.84677271   -5.4568811    479.39846  0.038561652  0.038295696            6 
 1037000   0.85666614   -5.4415093    480.57351  0.038618894  0.038273049           11 
 1038000   0.85090364   -5.4703498    478.93934  0.038450493  0.038249891            3 
 1039000   0.83825249   -5.5016439    478.80934  0.038403059  0.038226823            3 
 1040000   0.83451516   -5.4505281    479.74702  0.038441267  0.038203644           11 
 1041000   0.83377344   -5.4578617    480.17738  0.038438791  0.038180892            4 
 1042000   0.85162976   -5.4857257    479.61106  0.038356611  0.038157834            6 
 1043000    0.8311083   -5.4819416    479.42934  0.038305317  0.038134821            3 
 1044000   0.84703351   -5.4821604    480.47545  0.038352127  0.038111579            4 
 1045000   0.84221145    -5.428591    480.93292  0.038351907  0.038088589            4 
 1046000   0.84450746   -5.4637398    481.17096  0.038334207  0.038065619            5 
 1047000   0.83238516   -5.4755037    481.52668  0.038325906  0.038042798            4 
 1048000   0.85562759   -5.5012471    480.37862  0.038198046  0.038019827            6 
 1049000    0.8464064   -5.4703332    481.65445  0.038262984  0.037996677            9 
 1050000   0.82026635   -5.4905527    481.47329  0.038212166  0.037974005            3 
 1051000   0.83796817   -5.4827972    482.37084  0.038246974  0.037951647           14 
 1052000   0.82276932   -5.4824247    480.98645  0.038100955  0.037928705            3 
 1053000   0.83075422   -5.4635045    481.42449  0.038099438  0.037905621            6 
 1054000   0.84238316   -5.4751825    483.09023  0.038194989  0.037882919           13 
 1055000   0.84142456    -5.475486    481.46467  0.038030385  0.037859995            4 
 1056000   0.83102602   -5.4874435    482.44783  0.038071956  0.037837155            6 
 1057000   0.84314468   -5.4803797    482.95825  0.038076178   0.03781432            4 
 1058000   0.83079513   -5.5139961    481.74179  0.037944375  0.037791602            5 
 1059000   0.83228593   -5.4891264    482.73462  0.037986671  0.037768711            5 
 1060000   0.82734065   -5.4917957    482.23615  0.037911647  0.037745874            5 
 1061000   0.81773261   -5.4923581    483.82187  0.038000461  0.037722934            5 
 1062000   0.83269972   -5.5019371    484.38441  0.038008821  0.037699895           10 
 1063000   0.82115356   -5.4616254    483.98255  0.037941561  0.037677056           16 
 1064000   0.82420404   -5.4805294    484.08895  0.037914235  0.037654145           10 
 1065000   0.82955684   -5.4841932    484.69885  0.037926358   0.03763146            7 
 1066000   0.83467714   -5.5078037     484.5271  0.037877353  0.037608902            5 
 1067000   0.83120879   -5.4996993     485.0817  0.037885169  0.037586234            3 
 1068000   0.84092095   -5.4810467    485.72013  0.037899511  0.037563742            5 
 1069000    0.8299344   -5.5318022    485.51556   0.03784811  0.037541143            6 
 1070000   0.84065799   -5.4943151     485.6512  0.037823302  0.037518825            8 
 1071000   0.81218181   -5.5100747    484.89662  0.037729273  0.037496468            7 
 1072000   0.82888479   -5.5343167    487.13068  0.037867746  0.037474057            4 
 1073000   0.82309016   -5.4935095    485.23871  0.037685516  0.037451506           10 
 1074000   0.83542551   -5.4769073    487.46146  0.037822894  0.037429326            4 
 1075000   0.82734142   -5.4712559    484.68768  0.037572688  0.037406951            8 
 1076000   0.80887011   -5.4913997    485.41506  0.037594103  0.037384566            3 
 1077000   0.82565417   -5.4999597    488.18724  0.037773695  0.037362196            5 
 1078000   0.83605656    -5.520267    486.03546  0.037572314  0.037339834           15 
 1079000   0.84023328   -5.5174049    486.84365  0.037599911  0.037317594            6 
 1080000   0.83734245   -5.5073596    487.39875  0.037607929  0.037295548            3 
 1081000   0.80007127   -5.5324058    486.97463  0.037540443   0.03727316            8 
 1082000   0.83168805   -5.5018931    488.41819  0.037616928  0.037250981            6 
 1083000   0.80376472   -5.5134167    488.53501  0.037591182  0.037228858            6 
 1084000   0.80740261    -5.512882    488.03864  0.037518346  0.037206632            6 
 1085000   0.84232705   -5.5391984    489.29138  0.037579983  0.037184559           10 
 1086000   0.83710314   -5.5136504    488.58324   0.03749104  0.037162641            9 
 1087000   0.83623366   -5.5027743    489.20797  0.037504444   0.03714074            7 
 1088000   0.82844639   -5.4901933    490.38497  0.037560123   0.03711882            8 
 1089000   0.80396901   -5.5500856    488.98746  0.037418691  0.037096941            5 
 1090000   0.82070274   -5.5371875    490.17172  0.037474902  0.037074896            7 
 1091000   0.80332654   -5.5057553    491.41437   0.03753547  0.037052927            4 
 1092000    0.7950077   -5.5155753    489.24367  0.037335445  0.037031123            9 
 1093000   0.80918018   -5.5312342    490.76902  0.037417583  0.037009102            5 
 1094000   0.80878418   -5.5336781    489.88825   0.03731629  0.036987196            6 
 1095000   0.81333911   -5.5219149    491.26528  0.037387007  0.036965235            4 
 1096000   0.82091315   -5.5341887     490.6186  0.037303725  0.036943349            7 
 1097000   0.81364806   -5.5226745    491.33539  0.037324171  0.036921602            6 
 1098000   0.82856251   -5.5534443    491.91275  0.037333997  0.036899878            6 
 1099000   0.79516877   -5.5147311    491.62303  0.037278058   0.03687809           10 
 1100000   0.79933694   -5.5379913    492.91941  0.037342379  0.036856282            5 
 1101000   0.81508935    -5.525877    493.27215  0.037335161  0.036834431            9 
 1102000   0.80298831    -5.501568    493.32301  0.037305128  0.036812578            4 
 1103000   0.81284563   -5.5304807     491.7901  0.037155492  0.036790648            7 
 1104000   0.82041661   -5.5290163    492.66409  0.037187808   0.03676891            5 
 1105000   0.81166493   -5.5144067    493.77477  0.037237916  0.036747137            3 
 1106000   0.80608081   -5.5116959    493.69595  0.037198308  0.036725433            5 
 1107000   0.81073695   -5.5434738    493.22342  0.037129134  0.036703996            4 
 1108000   0.80414364   -5.5275805     493.6602  0.037128475  0.036682122            5 
 1109000   0.81390499   -5.5509868    493.94283  0.037116233  0.036660358           19 
 1110000   0.82230478   -5.5064425    495.28437  0.037183511  0.036638627            8 
 1111000   0.81664114   -5.5200056    495.40265  0.037158914  0.036617118            7 
 1112000   0.81456559   -5.5408073    495.42314  0.037127034  0.036595617            8 
 1113000   0.81135088    -5.529948    495.80141  0.037121999  0.036574129            4 
 1114000   0.80836057   -5.5235483    494.32765   0.03697843  0.036552735           10 
 1115000   0.80037268   -5.5502611    496.29159  0.037092047  0.036531454           14 
 1116000   0.79481244   -5.5425013    495.85028  0.037025858  0.036510202            4 
 1117000   0.80036806   -5.5306358     495.3105   0.03695244  0.036488555            4 
 1118000   0.83407013   -5.4904346    495.81074  0.036956674  0.036466994           10 
 1119000    0.8084961   -5.5480942    495.76545  0.036920275  0.036445753            4 
 1120000   0.80181402    -5.550005    495.03328  0.036832833  0.036424013           17 
 1121000   0.79538897   -5.5574237    495.23165  0.036814723  0.036402203            3 
 1122000   0.81784391   -5.5522051    496.75678  0.036895185  0.036380675            4 
 1123000   0.79969574   -5.5365413    495.38029  0.036760187  0.036358992           14 
 1124000   0.81788263   -5.5589737    495.95128  0.036769816  0.036337367            6 
 1125000   0.82213776   -5.5661895    494.65669  0.036641236  0.036315602           12 
 1126000   0.80430154   -5.5613307    496.11748  0.036716806  0.036293914            9 
 1127000    0.7851914   -5.5341916    496.41122  0.036705947  0.036271986            9 
 1128000   0.79186544   -5.5688835    494.74434  0.036550262   0.03625006           10 
 1129000    0.7906684   -5.5604542    496.34956  0.036636371  0.036228356           11 
 1130000    0.8199736   -5.5247416     499.1224  0.036808436  0.036206901            8 
 1131000   0.80609329   -5.5349789    497.63754  0.036666486  0.036185557           13 
 1132000   0.80581815   -5.5450432    499.28793   0.03675559  0.036164284            5 
 1133000   0.78897998   -5.5437162    497.80544   0.03661411  0.036142897            5 
 1134000   0.78174867   -5.5519482     498.7883  0.036654049  0.036121733            5 
 1135000   0.80041846   -5.5612005    497.74082  0.036544847  0.036100338            5 
 1136000    0.8137234   -5.5411889    499.71389  0.036657416  0.036078964            5 
 1137000    0.7901965   -5.5349511    498.16673   0.03651178  0.036057743            5 
 1138000   0.79628955   -5.5729686    498.09398  0.036474369  0.036036508           11 
 1139000    0.7791598   -5.5870436     499.4194  0.036539318  0.036015303            6 
 1140000   0.80102152   -5.5583877    498.90467   0.03646964  0.035993861            9 
 1141000   0.79334006   -5.5717744    498.81426  0.036431074  0.035972468            8 
 1142000    0.7782737   -5.5239732    501.96628   0.03662918  0.035951513            5 
 1143000   0.80184972   -5.5899742    497.73367  0.036288544  0.035930216            5 
 1144000   0.80060661   -5.5817346    499.88884  0.036413814  0.035908826            7 
 1145000   0.81595479   -5.5894332     498.8662  0.036307583  0.035887489           11 
 1146000   0.78499248   -5.5719427    499.63701  0.036331953  0.035865967           10 
 1147000   0.78685566   -5.5676707    500.34846  0.036351966  0.035844696            9 
 1148000   0.80159763     -5.57692    500.23316  0.036311931  0.035823309           10 
 1149000   0.80013207   -5.5753333    501.23816  0.036353217  0.035802078            6 
 1150000   0.80065722   -5.5532754     502.4543  0.036409732     0.035781           11 
 1151000   0.77680675     -5.54023    502.33016  0.036369111    0.0357598           15 
 1152000    0.8024777   -5.5742776    500.74104  0.036222587   0.03573871            5 
 1153000   0.80924687   -5.5454323    502.60059   0.03632557  0.035717579            6 
 1154000   0.78306498   -5.5881104    501.22159  0.036194511  0.035696326            8 
 1155000   0.82217716   -5.6032414    500.62647  0.036120236  0.035674955           11 
 1156000   0.80462373   -5.5637627    500.64238  0.036090137  0.035653612           10 
 1157000   0.78404395   -5.5683132    501.89442  0.036149123  0.035632173            3 
 1158000   0.77183107   -5.5679326    501.76661  0.036108708  0.035610676            5 
 1159000   0.79486098    -5.571412    502.90393  0.036159328  0.035589365            7 
 1160000   0.78814203   -5.5832767    501.79979  0.036048836  0.035568201            5 
 1161000   0.78774366   -5.5978577    502.53648  0.036070663  0.035547023           11 
 1162000   0.79104423   -5.5715019    503.08371  0.036078867  0.035525803            4 
 1163000   0.78168544   -5.5957165    503.09198  0.036048436  0.035504737            7 
 1164000   0.77531019   -5.5673206    503.32364  0.036034052  0.035483467           12 
 1165000   0.80415295   -5.5801007    504.02477  0.036053274  0.035462394            9 
 1166000   0.79151825   -5.5671344    503.40194   0.03597784  0.035441314            6 
 1167000   0.77667686   -5.5983722    503.95043  0.035986178  0.035420078            8 
 1168000     0.782798   -5.5943424    502.26222  0.035834919  0.035398913            4 
 1169000   0.79885909   -5.5745272    505.11581  0.036007685  0.035377756            6 
 1170000   0.78430042   -5.5806591    504.65264   0.03594392  0.035356726            8 
 1171000   0.78463228   -5.5870694    504.10633  0.035874347    0.0353357           11 
 1172000   0.80063884    -5.598721    504.48688  0.035870796  0.035314698            8 
 1173000   0.77257433    -5.592638    503.51074  0.035770868  0.035293373            7 
 1174000   0.78169007   -5.6040069    503.72303  0.035755468  0.035272166           15 
 1175000   0.78158522   -5.5675145    506.26752  0.035905498   0.03525111           17 
 1176000   0.80073667   -5.5878931    504.09699  0.035721159  0.035229903            6 
 1177000   0.77712654    -5.638479    503.99139  0.035683333  0.035208832            3 
 1178000   0.78324953   -5.6008123    505.39517  0.035752347  0.035187831            7 
 1179000   0.78336281   -5.5763201     506.6938  0.035813811  0.035166762            6 
 1180000   0.77551228   -5.5956737    504.75909  0.035646828  0.035145726           14 
 1181000   0.77434578    -5.590061    507.14821  0.035785225  0.035124533            5 
 1182000   0.78763036    -5.597472    505.61596  0.035646923  0.035103634            5 
 1183000   0.79303753   -5.5936799    504.84539   0.03556251  0.035082682            8 
 1184000   0.76615108   -5.6172841    505.92206  0.035608253  0.035061511           20 
 1185000   0.77459454   -5.6184036    505.34061  0.035537315  0.035040084            6 
 1186000   0.78678212   -5.5939616    506.84625  0.035613143  0.035019034            6 
 1187000   0.75806447   -5.5977577     505.5077  0.035489167  0.034997963            8 
 1188000   0.78551126   -5.6076026    504.58255  0.035394399  0.034976725            2 
 1189000   0.77880667   -5.5835949    505.80213  0.035450107  0.034955427            8 
 1190000    0.8060448   -5.5982328    505.67459  0.035411386   0.03493414           11 
 1191000   0.79369019   -5.5613581    506.86458  0.035464916  0.034913161           10 
 1192000   0.75700571   -5.6199991    506.30738   0.03539621  0.034891961            5 
 1193000   0.76293785   -5.6015407    506.72515  0.035395722  0.034870611           16 
 1194000   0.76301954   -5.5923583    507.16249  0.035396601   0.03484943            3 
 1195000   0.77057614   -5.6190353    506.25698  0.035303834  0.034828077            9 
 1196000    0.7690539   -5.5631516    507.12976  0.035335128  0.034806919            4 
 1197000   0.77800313    -5.593565    507.63372  0.035340693  0.034785911           11 
 1198000   0.78182194   -5.6006567    506.63184  0.035241502  0.034764702            6 
 1199000   0.78734866   -5.6348347    506.37105  0.035193985  0.034743476           14 
 1200000   0.75440227   -5.5870651    508.22338   0.03529329  0.034722198            8 
 1201000   0.76213217   -5.6287124    507.22192  0.035194416  0.034700973           14 
 1202000   0.77533924   -5.6062192    508.03922  0.035221798  0.034679717            6 
 1203000   0.76989329   -5.5978942    506.83078   0.03510881  0.034658702            4 
 1204000   0.76741747   -5.6067124    507.56588  0.035130529  0.034637449            7 
 1205000   0.76366166   -5.6239683    507.85872  0.035121627   0.03461625            3 
 1206000   0.76575499   -5.6152824    507.19673  0.035046761  0.034595102            8 
 1207000   0.77395388   -5.6343551    507.25283  0.035021599  0.034574054            9 
 1208000   0.77844803    -5.623178    509.19538  0.035126613  0.034552958            3 
 1209000   0.76282325   -5.6371266    507.50881  0.034981308  0.034531826           10 
 1210000   0.74955433   -5.6520258    508.71911  0.035035751  0.034510804            7 
 1211000   0.77624265   -5.6425917    509.79445  0.035080818  0.034489687           11 
 1212000    0.7685984   -5.6100776     507.9759  0.034926836   0.03446849           12 
 1213000   0.77416834   -5.6048663    509.54005    0.0350055  0.034447488            9 
 1214000   0.75965975    -5.626904    510.28432  0.035027754  0.034426665           13 
 1215000   0.76235261   -5.5977179    510.09878  0.034986199  0.034405862            4 
 1216000   0.77216528   -5.6418363    510.65311  0.034995416  0.034385235            8 
 1217000   0.78130173   -5.6327943    510.34003  0.034945222  0.034364392           11 
 1218000   0.76924675   -5.6314781    510.09223  0.034899578  0.034343525           11 
 1219000   0.75216051   -5.6195196    511.67335  0.034979037  0.034322669            7 
 1220000   0.75022871    -5.644732    509.15897  0.034778618  0.034301779            3 
 1221000   0.77204422   -5.6232983    511.53073  0.034912007  0.034280784            9 
 1222000   0.76568384   -5.6467873     508.0324  0.034644872  0.034259602            9 
 1223000   0.76824981   -5.6448406    508.92495  0.034677361  0.034238518            6 
 1224000   0.76459904   -5.6195949    510.67332  0.034768064  0.034217269            4 
 1225000   0.76225117   -5.6276828    510.64309  0.034737625  0.034196201            8 
 1226000   0.75992184   -5.6442092    509.92559  0.034660521   0.03417514            9 
 1227000   0.75547294   -5.6412343    510.36505   0.03466212  0.034154112           14 
 1228000   0.75432314   -5.6259162     511.0001  0.034676988  0.034132975            6 
 1229000   0.75747707   -5.6127198    512.06296  0.034720841     0.034112           12 
 1230000   0.75752293   -5.6478998    510.51022  0.034587414  0.034091127            6 
 1231000   0.76102753   -5.6477045    511.86008  0.034650696  0.034070324            9 
 1232000   0.76659902    -5.653219    512.59315  0.034672156  0.034049461            9 
 1233000   0.76436229   -5.6355942    512.76148  0.034655413  0.034028448            5 
 1234000   0.77403597   -5.6461749    511.68621  0.034554714  0.034007676            9 
 1235000   0.75462518   -5.6325905    512.58324  0.034587263  0.033986955           10 
 1236000    0.7681805   -5.6264825    513.48591  0.034620139  0.033966307            6 
 1237000   0.74906578   -5.6412383    511.71119  0.034472594  0.033945599            6 
 1238000   0.76867577   -5.6310906    514.01165    0.0345996   0.03392491            6 
 1239000    0.7555347   -5.6524203    512.41063  0.034463992  0.033903996            4 
 1240000   0.76478578   -5.6294382     512.6704  0.034453656  0.033883211            8 
 1241000   0.76114299   -5.6300361    513.52599  0.034483346  0.033862499            4 
 1242000   0.77952141    -5.661403    512.65678  0.034397261  0.033841771            4 
 1243000   0.75745769   -5.6251733    514.45616  0.034490222  0.033820977           17 
 1244000   0.76350942   -5.6554212    513.66224  0.034409314  0.033800093            3 
 1245000   0.76243488   -5.6624379    513.52471   0.03437247   0.03377921            8 
 1246000    0.7490226   -5.6739752    511.77916  0.034228141  0.033758304            9 
 1247000   0.76002181   -5.6563295    513.98348     0.034348    0.0337373            6 
 1248000   0.75002576   -5.6544669    511.93794   0.03418389  0.033716378           11 
 1249000   0.75713476   -5.6744247    513.33696  0.034249864  0.033695548            8 
 1250000   0.74054115   -5.6589653    513.03992  0.034202662  0.033674689            7 
 1251000   0.76529894   -5.6810065    513.72182  0.034220745  0.033653989            5 
 1252000   0.76208178   -5.6613549    512.98298  0.034144234  0.033633205            5 
 1253000   0.76131826   -5.6609735    515.52348  0.034285946  0.033612432           12 
 1254000   0.75721936   -5.6533316    514.91246     0.034218  0.033591633           15 
 1255000   0.75570321   -5.6831953     512.5241  0.034032145  0.033570569            6 
 1256000   0.74498003   -5.6666578     514.5509  0.034139524  0.033549617           10 
 1257000   0.75373684   -5.6745826    514.32721  0.034097534  0.033528711            5 
 1258000   0.76058927   -5.7162538    513.83295  0.034037689  0.033507511           10 
 1259000   0.74590738   -5.6733397     513.6486  0.033998451  0.033486322            4 
 1260000    0.7419264   -5.6742056     514.0662  0.033999087  0.033465311            7 
 1261000   0.74499954   -5.6786667    513.39958  0.033928072  0.033444342            5 
 1262000   0.73300411   -5.6270058    514.42074  0.033968617  0.033423225            3 
 1263000   0.75309577    -5.680282    513.80409  0.033901035  0.033402204           12 
 1264000   0.76766545   -5.6916684    513.15064  0.033831134  0.033381064            5 
 1265000   0.75742685   -5.6960919    514.16375   0.03387113   0.03335995            5 
 1266000   0.74055192   -5.6658449    514.13169  0.033842265  0.033338896            6 
 1267000   0.74496173   -5.6624534    516.55471  0.033974922  0.033318022            6 
 1268000   0.74488395    -5.693213     514.8728  0.033837592  0.033297118            8 
 1269000   0.74467494   -5.6754606    516.07659  0.033889978  0.033276172            4 
 1270000   0.74246465   -5.6862348    515.31919  0.033813595  0.033255073            9 
 1271000   0.75594379   -5.6814704    514.39947  0.033726689    0.0332341            7 
 1272000   0.74434593   -5.6708591    516.10069  0.033811628  0.033213153            7 
 1273000    0.7458431     -5.65999     516.1127  0.033785853  0.033192313            9 
 1274000   0.75244691   -5.6772802    515.21368  0.033700529  0.033171273            5 
 1275000    0.7417077   -5.6876968    515.28742  0.033678916  0.033150399           11 
 1276000   0.73615671   -5.7069984    514.79563  0.033620404  0.033129503           17 
 1277000   0.73342597    -5.687212    514.38097  0.033567017  0.033108367            8 
 1278000   0.74870154   -5.6804155    515.91537  0.033640804  0.033087313            8 
 1279000    0.7581004   -5.6862925    516.03633  0.033622382  0.033066382            6 
 1280000    0.7323209   -5.6582715    516.39477  0.033619451  0.033045429            8 
 1281000   0.75434224   -5.7264321    515.36313  0.033526095  0.033024624            7 
 1282000   0.73047014   -5.6897601    517.56134  0.033642833  0.033003786            5 
 1283000   0.73456399   -5.6606127    517.69675  0.033625406  0.032982945            7 
 1284000   0.74615535   -5.6843561    516.66928  0.033532534  0.032962112            4 
 1285000   0.74313841   -5.6699433    516.36296  0.033486573  0.032941187            7 
 1286000   0.72255113   -5.6737723    515.28266   0.03339053  0.032920284            5 
 1287000    0.7354976    -5.704822    515.15962  0.033356619  0.032899034            8 
 1288000   0.74221215   -5.6644815    516.60349  0.033424139  0.032877923           12 
 1289000   0.73563225   -5.6848278     516.9417  0.033420073   0.03285684            5 
 1290000   0.74335018   -5.6549943    516.47756  0.033364183  0.032835714            7 
 1291000    0.7278564   -5.7093503    517.66704   0.03341512   0.03281474            9 
 1292000   0.73804901   -5.6757044    517.63772  0.033387366   0.03279368            9 
 1293000    0.7355018   -5.6977217    516.07757  0.033260993  0.032772742            6 
 1294000   0.74992707    -5.706106    516.53493  0.033264743  0.032751703            3 
 1295000   0.72890316   -5.6982408    515.62133  0.033180266  0.032730533           12 
 1296000   0.71921222   -5.7273503    516.61344  0.033218457  0.032709265           15 
 1297000   0.72925849   -5.7209815     515.1675  0.033099942  0.032688015            9 
 1298000   0.74867694   -5.7169259    514.73644  0.033046767  0.032666887            8 
 1299000   0.72703988   -5.6872994     517.2011  0.033179439  0.032645762            7 
 1300000   0.73470056   -5.7014059    516.17439  0.033088102  0.032624536            5 
 1301000   0.73114896   -5.7192222    516.55779  0.033087227  0.032603153            9 
 1302000   0.72607178   -5.7036901    516.53061  0.033060075  0.032581811           14 
 1303000   0.73628687    -5.697076    515.78281  0.032986877  0.032560557           10 
 1304000    0.7185571   -5.7039953    517.35794   0.03306224  0.032539367            3 
 1305000   0.73561003   -5.7284838    514.41225  0.032848803  0.032518047            9 
 1306000   0.71771546   -5.7113285    515.72245  0.032907251  0.032496686           18 
 1307000    0.7259064   -5.6965073     516.8059  0.032951154  0.032475359           10 
 1308000   0.73878969   -5.7140883    517.18951  0.032950402  0.032454042            9 
 1309000   0.72471087   -5.6884224    518.43952  0.033004808  0.032432818            8 
 1310000   0.73217315   -5.7086565    517.77773  0.032937515  0.032411588            9 
 1311000   0.75138995   -5.7140197    515.55378  0.032771026  0.032390312            6 
 1312000    0.7266337   -5.6964986    517.40032  0.032863333  0.032368996           13 
 1313000   0.74589584   -5.7265062    516.88849  0.032805819  0.032347765            7 
 1314000   0.72845375   -5.7197433    517.87989  0.032843727  0.032326627            8 
 1315000   0.71334986   -5.7365972    515.17871  0.032647573  0.032305321            9 
 1316000   0.72540641   -5.7352808    516.53787  0.032708832  0.032284129            9 
 1317000   0.72546172   -5.7288666     517.5432  0.032747608  0.032262833            6 
 1318000   0.74386173   -5.7137807    518.50007  0.032783262  0.032241745            7 
 1319000   0.72027808   -5.7153959     517.2921  0.032682088   0.03222071            7 
 1320000   0.72139008   -5.7108543    518.17979  0.032713371  0.032199759            6 
 1321000   0.73101014   -5.7199084    518.42481  0.032704063  0.032178756           13 
 1322000   0.71354785   -5.7171284    519.17012  0.032726306  0.032157691            7 
 1323000   0.71292049   -5.7286655    518.50178  0.032659472  0.032136493            5 
 1324000   0.72725898   -5.7192707    517.97178  0.032601446  0.032115371            5 
 1325000   0.70208358   -5.7241792    517.14668  0.032524948  0.032094101           13 
 1326000   0.71628325   -5.7396925    518.62425  0.032593279  0.032072719            8 
 1327000   0.72426633   -5.7322003    517.07438  0.032471388  0.032051428            9 
 1328000   0.72762259   -5.7573651    515.59975  0.032354402  0.032030174            9 
 1329000   0.72998028   -5.7279378    518.46965  0.032510011  0.032008882           12 
 1330000   0.71846095     -5.72842    517.21628  0.032407035  0.031987716            6 
 1331000   0.71330842   -5.7623371    516.42047  0.032332862  0.031966339            6 
 1332000   0.72110881   -5.7521664     517.8386   0.03239731  0.031945024           19 
 1333000   0.73249625   -5.7675264     518.9274  0.032441073  0.031923742            6 
 1334000   0.71136669   -5.7174209    518.39977  0.032383794  0.031902591            4 
 1335000   0.71318616   -5.7498551    517.41758  0.032298226  0.031881392           10 
 1336000   0.72687155   -5.7570329    518.99009  0.032372136  0.031860038            8 
 1337000   0.71735688   -5.7331249    519.02511  0.032350107  0.031838821            7 
 1338000   0.71672931   -5.7424522    519.26497  0.032340868  0.031817889            6 
 1339000   0.71545624   -5.7475025    518.64471  0.032278112  0.031796778            8 
 1340000   0.72006532   -5.7166883    519.73566  0.032321869  0.031775656            5 
 1341000    0.7143349   -5.7639828    518.90156  0.032245933  0.031754446           12 
 1342000   0.69727063   -5.7497355    517.17196  0.032114503  0.031733168            8 
 1343000   0.72174202   -5.7650664    517.30729  0.032098988  0.031711767           14 
 1344000   0.71539301   -5.7267611    519.74911  0.032226507  0.031690391            8 
 1345000    0.7166689   -5.7400733    517.34904  0.032053844   0.03166908            7 
 1346000   0.71432995   -5.7379466    517.98912  0.032069658  0.031647798           20 
 1347000   0.72617369   -5.7431176    518.84587  0.032098854  0.031626557            9 
 1348000   0.70045127   -5.7696445    519.20538  0.032097267  0.031605203           13 
 1349000   0.71293165   -5.7510668    519.45993  0.032089198  0.031583931           13 
 1350000   0.72260905    -5.754823    519.80941     0.032087  0.031562681            6 
 1351000   0.71366745   -5.7584287    520.11442  0.032082064   0.03154145           15 
 1352000    0.7137808   -5.7789876    518.48444  0.031957868  0.031520258            7 
 1353000   0.71179083   -5.7711366    519.91885  0.032022595  0.031499135            5 
 1354000   0.71005119   -5.7670818    519.27455   0.03195929   0.03147798           11 
 1355000   0.71144017   -5.7393885    519.18144  0.031929978  0.031456753           18 
 1356000   0.72071611   -5.7726674     519.6692  0.031936406  0.031435683           21 
 1357000   0.71231658   -5.7474093    519.86926  0.031925157  0.031414538           12 
 1358000   0.70155587   -5.7447176    519.40536  0.031873181  0.031393417            8 
 1359000   0.69529683    -5.790519    517.47898  0.031731603  0.031372203            9 
 1360000   0.70822905   -5.7653249    520.87746  0.031916511  0.031350944           12 
 1361000   0.70758013   -5.7718643    519.63786   0.03181716  0.031329698           10 
 1362000   0.70648393   -5.7570398    519.92054  0.031811095  0.031308532            7 
 1363000   0.70854673   -5.7796072    518.78225  0.031718162  0.031287335           13 
 1364000   0.72221526   -5.7387606    520.57047  0.031804159  0.031266236            9 
 1365000   0.69779331   -5.7687893    519.11613  0.031692071  0.031245218           11 
 1366000    0.6868779   -5.7770944    519.35079  0.031683186  0.031224207           14 
 1367000   0.70243899   -5.7439548    520.86961  0.031752597   0.03120321            6 
 1368000    0.7084732   -5.7755407    519.81153  0.031664933  0.031182128            5 
 1369000   0.70701045   -5.7867017    519.43543  0.031618908  0.031161037           19 
 1370000   0.71821404     -5.77282    519.49326  0.031599347  0.031139872           10 
 1371000   0.69987709   -5.7813832    519.98561  0.031606225  0.031118895            8 
 1372000   0.71528862   -5.7539834    522.05674  0.031708986   0.03109793            6 
 1373000   0.69393946   -5.7676509    520.11682  0.031568149  0.031076991            8 
 1374000   0.72031114   -5.7790213    519.47484  0.031506237  0.031055808            8 
 1375000   0.71833253   -5.7966097    517.62267  0.031371071  0.031034516            6 
 1376000   0.71366352    -5.778981    520.39599   0.03151623  0.031013355           11 
 1377000   0.71020956   -5.7651164    519.69261  0.031450775  0.030992189           10 
 1378000   0.69803163   -5.7811663    520.40128  0.031470808  0.030970988            5 
 1379000   0.69578707   -5.7819555    519.35607  0.031384824  0.030949845            7 
 1380000   0.69801583   -5.7801348    519.28742  0.031357936  0.030928695            9 
 1381000   0.68824991    -5.801954    521.13056   0.03144645  0.030907515            7 
 1382000   0.69793751   -5.7759008    519.31785   0.03131439  0.030886332            7 
 1383000   0.70709359   -5.8093637    521.38846  0.031416514  0.030865196           11 
 1384000   0.68368521   -5.7967258    521.07271  0.031374802  0.030844075           12 
 1385000   0.69948404   -5.7768369    521.28513   0.03136493  0.030823003           10 
 1386000    0.6928062   -5.7938723    520.49632  0.031294872  0.030801991            6 
 1387000   0.70750309   -5.7677984    521.00361  0.031302788  0.030780981           14 
 1388000     0.701302   -5.7626367    521.34771  0.031300895  0.030760015            9 
 1389000   0.69814331   -5.8018355    519.52742  0.031169152  0.030738944           16 
 1390000   0.70568435   -5.8060125    519.42479  0.031140575  0.030717857           11 
 1391000   0.69023218   -5.7818216    521.03075  0.031214399   0.03069682           15 
 1392000   0.71027628   -5.7939611    520.65435  0.031169441  0.030675951           15 
 1393000   0.69557386   -5.7856982    522.51771  0.031258538  0.030654961           31 
 1394000   0.70174079   -5.8045593    521.20682  0.031157749  0.030633956            8 
 1395000   0.69239997   -5.8112316    519.75882  0.031048914  0.030612943            7 
 1396000   0.69727934   -5.7937227    520.69006  0.031082263  0.030591924            6 
 1397000   0.70194145   -5.7808287    521.41492  0.031103252  0.030570934            7 
 1398000   0.70129952   -5.7953605    520.40847   0.03102101  0.030549925           11 
 1399000   0.69302971   -5.7627708    521.26377  0.031049784  0.030528961           13 
 1400000   0.67789645   -5.7941556    521.65283  0.031050764  0.030507986            9 
 1401000   0.69246278   -5.7871176    521.35854  0.031011095  0.030487048            8 
 1402000   0.70337012   -5.8123251    522.70172  0.031068814  0.030466293            5 
 1403000   0.69905518    -5.781786    521.79936  0.030993072  0.030445421           11 
 1404000   0.68874844   -5.7922387    521.79234   0.03097058  0.030424573            6 
 1405000   0.70698692   -5.8281925    520.59169  0.030877324    0.0304035           12 
 1406000   0.69821923   -5.8135459     521.1634  0.030889249  0.030382583            4 
 1407000   0.68854551   -5.8096924    521.14258  0.030866062  0.030361761           10 
 1408000   0.68323826   -5.8027411    522.57174  0.030928725  0.030340941           10 
 1409000   0.68444559   -5.7983848    521.18572    0.0308248  0.030320176           13 
 1410000   0.68875216   -5.8251078    522.40424  0.030874955  0.030299341           15 
 1411000   0.68569693   -5.8250916    520.83764   0.03076055  0.030278457            8 
 1412000    0.6867577   -5.8043839    522.86499  0.030858415  0.030257749            5 
 1413000    0.6906225    -5.797489    522.68232  0.030825803  0.030237112            6 
 1414000   0.68796837   -5.8038178    523.40699  0.030846711  0.030216382            9 
 1415000   0.68706064   -5.8347695    521.53632  0.030714742  0.030195649           19 
 1416000   0.67399269   -5.8115041    521.70824  0.030703169  0.030174847           15 
 1417000   0.67525005    -5.850912     520.3626  0.030602364  0.030153803           11 
 1418000   0.68664962   -5.8459949      521.129  0.030625823  0.030132881           13 
 1419000   0.70735182     -5.80644    522.42831  0.030680544  0.030112034            7 
 1420000   0.68424635   -5.8266291    523.49131  0.030721321  0.030091393           15 
 1421000   0.67133241   -5.8126808    523.74582  0.030714627  0.030070793           11 
 1422000   0.69899969   -5.8026565    522.69736  0.030631584  0.030050208           26 
 1423000   0.69329003   -5.8230875     522.2704  0.030585055  0.030029575           11 
 1424000   0.69245521   -5.8216013    521.95166  0.030544924  0.030008999            6 
 1425000   0.68434109   -5.8310008    524.07633  0.030647738  0.029988293           13 
 1426000   0.67441625   -5.8048938    523.17764  0.030573728  0.029967653           13 
 1427000   0.67001365   -5.8204191    523.70298  0.030582982  0.029947105           16 
 1428000   0.69089178   -5.8255922    523.14788  0.030529172   0.02992666           17 
 1429000   0.68910709   -5.8312446    523.48266   0.03052733  0.029905984           11 
 1430000   0.67044107   -5.8361463    522.95134   0.03047502  0.029885263           12 
 1431000   0.68310962   -5.8423881    522.57023   0.03043153  0.029864516           11 
 1432000   0.68730287   -5.8296153    521.99912  0.030377044  0.029843873           26 
 1433000   0.67861802   -5.8256246    522.56913  0.030388994  0.029823272           16 
 1434000   0.69029599   -5.8569223    523.78091  0.030438221  0.029802678           15 
 1435000   0.67016742   -5.8455057    523.66788  0.030410446  0.029782093           12 
 1436000   0.67576262   -5.8309211    523.71882  0.030392225  0.029761602            7 
 1437000   0.68121132   -5.8340198    523.13598  0.030337276   0.02974121            7 
 1438000   0.69985598   -5.8489914    524.35434  0.030386784  0.029720765           10 
 1439000   0.69210868   -5.8460099    522.89802  0.030281331  0.029700194            9 
 1440000   0.66573416   -5.8476241    524.04602  0.030326737  0.029679596            9 
 1441000   0.68348733   -5.8377424    524.05968  0.030306481  0.029659151            8 
 1442000   0.66551649   -5.8444309    521.68873  0.030148447  0.029638733           18 
 1443000   0.67202847   -5.8643649    522.76916  0.030189949  0.029618266            7 
 1444000   0.66721924   -5.8455931    523.88663  0.030233531  0.029597808            8 
 1445000   0.66751235   -5.8340997    523.71415  0.030202661  0.029577378            8 
 1446000   0.67064825   -5.8510988    525.42008  0.030280088  0.029556997           10 
 1447000    0.6886016   -5.8345195    523.37736   0.03014152  0.029536602           10 
 1448000   0.66888085   -5.8312028    523.72066  0.030140462  0.029516306            6 
 1449000   0.67076166   -5.8238328    524.35635   0.03015622  0.029496016           10 
 1450000   0.68513321   -5.8589849    524.67026  0.030153463  0.029475822           14 
 1451000   0.67727431    -5.857402    524.76183  0.030137941  0.029455612           21 
 1452000   0.67149576   -5.8542821    524.74969  0.030116488  0.029435367            9 
 1453000   0.67975004   -5.8505367    525.54944  0.030141629  0.029415216            6 
 1454000   0.67667724     -5.86998    524.57107  0.030064825   0.02939515            7 
 1455000   0.65846739   -5.8314274    526.30999  0.030143756  0.029375036           21 
 1456000   0.65757645   -5.8680566    525.20351  0.030059724  0.029355011            6 
 1457000   0.68649934   -5.8695046     525.2351    0.0300409  0.029334939           12 
 1458000   0.66398116   -5.8459241    524.75303  0.029992743  0.029314775           16 
 1459000   0.65952681   -5.8344097    524.49606  0.029957508  0.029294623           16 
 1460000   0.68316696   -5.8465512    524.64157  0.029945295  0.029274599            9 
 1461000   0.66927299   -5.8484919    525.05672  0.029948478  0.029254582           20 
 1462000   0.66385378   -5.8502585    525.24021  0.029938452  0.029234424            8 
 1463000   0.64326405   -5.8591051     524.8247  0.029894321  0.029214225            5 
 1464000   0.66641251   -5.8563743    525.67667  0.029922397  0.029194016           12 
 1465000   0.66442254   -5.8604892    525.40685  0.029886624   0.02917392           11 
 1466000   0.66259672   -5.8774426    526.63986  0.029936327  0.029153931           16 
 1467000   0.66039159   -5.8502621    525.74662   0.02986518  0.029133882           18 
 1468000   0.67512027   -5.8521894    526.44736  0.029884614  0.029114005           23 
 1469000   0.64933289   -5.8722034    525.41445  0.029805675  0.029093988           11 
 1470000   0.66698916   -5.8728907    526.93645  0.029871681   0.02907397            6 
 1471000   0.66690391   -5.9121613    525.16997  0.029751301   0.02905385           10 
 1472000   0.65274076   -5.8779683    525.70401  0.029761323  0.029033747           14 
 1473000   0.65573784   -5.8654755    525.75907  0.029744234  0.029013814            6 
 1474000   0.66661105   -5.9018131    525.71491  0.029721558  0.028993844           12 
 1475000   0.67098882   -5.8676166     526.2502   0.02973165  0.028973917           27 
 1476000   0.67770579   -5.8953424    525.93936  0.029693957  0.028953895            6 
 1477000   0.66154713   -5.8944586    526.08865  0.029682276  0.028933874           18 
 1478000   0.66812271   -5.8721318    526.38776  0.029679058  0.028913952            9 
 1479000   0.68935725   -5.8657543    525.00696   0.02958119  0.028894062           17 
 1480000   0.65805186   -5.9028633    525.82985  0.029607536   0.02887415           22 
 1481000   0.66876835   -5.8819395    526.30965  0.029614542  0.028854276           18 
 1482000   0.66228491   -5.8883031    526.62797  0.029612459  0.028834434           11 
 1483000   0.66083514   -5.8825648    525.43371  0.029525383  0.028814474           10 
 1484000   0.66025725   -5.9020103    526.86511  0.029585866  0.028794627           13 
 1485000   0.65510147    -5.899972    526.75457   0.02955974  0.028774824           21 
 1486000   0.66985695   -5.8881714    525.89576  0.029491687  0.028754988           13 
 1487000   0.65953072   -5.9065364     525.1076  0.029427684  0.028735093           10 
 1488000   0.65686131    -5.884825    525.84268  0.029449075  0.028715138           10 
 1489000   0.66710075   -5.8833623    525.72335  0.029422619  0.028695207           12 
 1490000   0.65632933   -5.8990781    525.81365  0.029407922  0.028675234           10 
 1491000   0.64381736   -5.8725388    527.32962  0.029472928   0.02865539            8 
 1492000   0.65366556   -5.9082415    525.86153  0.029371176  0.028635554            9 
 1493000   0.66669071   -5.8982862    525.47637  0.029330005  0.028615709            8 
 1494000   0.65855892   -5.8847051    526.79686  0.029384028   0.02859588           11 
 1495000   0.64954409   -5.8882809    525.63648  0.029299692  0.028576083           15 
 1496000   0.64857105   -5.8746027    527.42497  0.029379733  0.028556347           11 
 1497000    0.6589002   -5.9071009    526.68513  0.029318923  0.028536545           16 
 1498000   0.65683857   -5.8791398    527.37343  0.029337641  0.028516921           10 
 1499000   0.66008449   -5.8596734    526.63999  0.029277295  0.028497299           10 
 1500000   0.64697348   -5.8941282    526.56159  0.029253422  0.028477542           21 
 1501000   0.63984052   -5.9231936     527.2861  0.029274156  0.028457757           12 
 1502000   0.65828164   -5.8977278    526.06557  0.029186949  0.028437937            7 
 1503000   0.66599338   -5.8899218    526.27402  0.029179088  0.028418073           13 
 1504000   0.65954713    -5.901944    526.51533  0.029173057  0.028398151           11 
 1505000   0.63923616    -5.912795    526.51497  0.029153653  0.028378224            5 
 1506000   0.65304323   -5.9117027     525.0452  0.029052966  0.028358291           11 
 1507000    0.6451915    -5.909439    527.16064  0.029150666  0.028338544           18 
 1508000    0.6580311   -5.9133266    525.65828  0.029048313  0.028318775            6 
 1509000   0.66490148   -5.8875398    527.10616  0.029109021  0.028299132           17 
 1510000   0.66486434   -5.8967911    526.95923  0.029081635  0.028279531           18 
 1511000    0.6541432   -5.9035296    526.22102  0.029021675  0.028259933           21 
 1512000   0.65508947   -5.9078954    527.64113   0.02908075  0.028240352           11 
 1513000   0.64869158   -5.8926998    526.12784   0.02897818   0.02822077           20 
 1514000   0.65515449   -5.9093674    526.65954  0.028988306  0.028201025           33 
 1515000   0.64148041   -5.9119083    527.44485  0.029012368  0.028181254           27 
 1516000    0.6442706   -5.9219067    526.46842  0.028939557  0.028161539            9 
 1517000   0.64663117   -5.9248376    525.49881  0.028867216  0.028141839           26 
 1518000   0.66102511    -5.902112    526.75998  0.028917434  0.028122158            9 
 1519000   0.64780516   -5.9036534    527.61598  0.028945358  0.028102542           10 
 1520000   0.63815783   -5.9171589    527.94095  0.028944131   0.02808298           17 
 1521000   0.64047478   -5.9121635     527.0622  0.028876956  0.028063296           15 
 1522000   0.65344238   -5.9131356    526.90786  0.028849532  0.028043773            7 
 1523000    0.6452023   -5.9314207    527.35521  0.028855067   0.02802422           11 
 1524000   0.65173602   -5.9260158    526.51641  0.028790267  0.028004741            5 
 1525000   0.64960235   -5.9146523    528.04275  0.028854795  0.027985272           13 
 1526000   0.65567112   -5.9115927      528.095   0.02883874  0.027965805           11 
 1527000   0.64927095   -5.9139659    527.00876  0.028760574  0.027946417           12 
 1528000   0.65178566   -5.9208249    527.61209  0.028774656  0.027927007           14 
 1529000   0.64253485   -5.8961265    529.22631  0.028843815  0.027907601           21 
 1530000   0.65793078   -5.9350356    527.61066  0.028736964  0.027888325           12 
 1531000   0.63936455   -5.9286773    528.19121  0.028749794  0.027868985            8 
 1532000   0.63907293   -5.9393777     526.8678   0.02865904    0.0278495           11 
 1533000   0.63966192   -5.9510412    525.74898  0.028579527  0.027830065           11 
 1534000   0.64615985   -5.9311075    527.46751  0.028654254  0.027810694           15 
 1535000   0.64103184   -5.9334082    528.07375  0.028668499  0.027791354           14 
 1536000   0.63873237   -5.9424353    528.21078  0.028657269  0.027771964           17 
 1537000   0.63987772   -5.9209212    526.71516  0.028557534  0.027752574           16 
 1538000   0.65080524   -5.9351787    526.99929  0.028554361  0.027733124           49 
 1539000    0.6377291   -5.9414745     528.5331   0.02861886  0.027713731           16 
 1540000   0.64319571    -5.923165    528.31618  0.028588538   0.02769441           13 
 1541000   0.63818814    -5.935972    528.06412  0.028556355  0.027675171           18 
 1542000   0.62731962   -5.9367904    528.24958  0.028547859  0.027655846           10 
 1543000   0.64064746   -5.9526975    528.14301  0.028523602  0.027636527            8 
 1544000    0.6448222   -5.9251078    526.34906  0.028408304  0.027617294           16 
 1545000   0.65561344   -5.9545219    527.69896  0.028462727  0.027598047            7 
 1546000   0.63956013   -5.9478848    528.08222  0.028464975   0.02757881            8 
 1547000   0.62895948   -5.9356466    528.02802  0.028443655  0.027559604           11 
 1548000   0.63358253   -5.9293605    528.31787  0.028440885  0.027540388           15 
 1549000   0.64499554   -5.9258034    528.65513  0.028440667  0.027521278           11 
 1550000   0.64250779   -5.9232161     528.7038  0.028424935  0.027502129            8 
 1551000   0.62982459   -5.9315269    529.19941  0.028433237  0.027482979           23 
 1552000   0.63529748   -5.9366535    528.88845   0.02839822  0.027463849           14 
 1553000   0.62378894   -5.9542855    527.92236  0.028328094  0.027444674           39 
 1554000   0.64832437   -5.9480633    529.65702  0.028402886  0.027425469           45 
 1555000   0.63831126   -5.9495098    528.01281  0.028296506   0.02740639           23 
 1556000   0.64483524   -5.9565765     527.4299  0.028247102  0.027387209           11 
 1557000   0.64230091   -5.9290454    529.28888  0.028328456  0.027368121           14 
 1558000   0.63567969   -5.9222077    529.32392  0.028312148  0.027349135           12 
 1559000     0.621167   -5.9414586    528.32862  0.028240786  0.027330133           11 
 1560000   0.63179482   -5.9432002     527.8349  0.028196309  0.027310992            9 
 1561000   0.62328112   -5.9447998    527.38825  0.028154401  0.027291935           32 
 1562000   0.62831769   -5.9395695    529.00077  0.028222406  0.027272884           10 
 1563000   0.62610078   -5.9264677    530.44911  0.028281569   0.02725382           24 
 1564000   0.62661618   -5.9712371    527.41633  0.028101893  0.027234744           29 
 1565000   0.62253059   -5.9609684    528.46483  0.028139767  0.027215584           22 
 1566000   0.62513274   -5.9737066     526.6159  0.028023409  0.027196379           56 
 1567000   0.61645891   -5.9684337    527.18699  0.028035896  0.027177206           30 
 1568000   0.64642513   -5.9781917     527.9901  0.028060699  0.027158117           30 
 1569000    0.6130421   -5.9493535    528.74065  0.028082678  0.027139035           25 
 1570000   0.62485239   -5.9543254    529.04358  0.028080869  0.027119954           23 
 1571000   0.63019856   -5.9757891    527.71729  0.027992642  0.027100963           34 
 1572000   0.61881157   -5.9375425    528.97934  0.028041738  0.027081967           18 
 1573000   0.62951034   -5.9761437    529.35505  0.028043815  0.027062978           11 
 1574000   0.62569329   -5.9670157    528.17623  0.027963587  0.027043957           12 
 1575000   0.63466634   -5.9708949    528.34473  0.027954748  0.027024969           11 
 1576000   0.62300999   -5.9816331    528.51359  0.027945939   0.02700598           21 
 1577000   0.63474128   -5.9915042    528.37021  0.027920641  0.026986993           14 
 1578000   0.64000032   -5.9641488    528.16942  0.027892344  0.026968045           16 
 1579000    0.6245783   -5.9949125    528.27551  0.027880278   0.02694913           20 
 1580000   0.62780557   -5.9760377    528.84789  0.027892821  0.026930258           35 
 1581000   0.62929683   -5.9885644    528.50101  0.027856895   0.02691136           21 
 1582000   0.63070204   -5.9811064    528.88976  0.027859764  0.026892425           27 
 1583000   0.63623226    -5.985857      528.537  0.027823594  0.026873529           23 
 1584000   0.62917669   -5.9739621    528.75514  0.027817505  0.026854701           39 
 1585000   0.62276334   -6.0007738    529.22911  0.027824874  0.026835882           15 
 1586000   0.62426137   -5.9801772    529.46201  0.027819568  0.026817144            7 
 1587000   0.60992179   -5.9887725    529.15157  0.027785737  0.026798372           24 
 1588000   0.62365656   -6.0022655    529.68277  0.027796115  0.026779688            9 
 1589000   0.62396812   -5.9715464    529.28238  0.027757624  0.026761001           10 
 1590000   0.63213055   -5.9959654    530.10934  0.027783509  0.026742325           10 
 1591000   0.62775982   -5.9719559    529.64071    0.0277415  0.026723656           16 
 1592000   0.61469105   -6.0045906    529.00764  0.027690936  0.026705098           47 
 1593000   0.62004892   -5.9876358    529.37573  0.027692808   0.02668647           18 
 1594000   0.61906036   -6.0043977    529.71615  0.027693232  0.026667787           29 
 1595000   0.61607559   -6.0008006    530.60495  0.027722307  0.026649145           11 
 1596000   0.61589021   -5.9948092    529.23549  0.027633432  0.026630468           25 
 1597000   0.61860145   -5.9771719     529.5834  0.027634283   0.02661183           21 
 1598000   0.62844125   -5.9848487     529.4019  0.027607525  0.026593255           29 
 1599000    0.6036589   -5.9969583    529.55372  0.027598172  0.026574636           38 
 1600000   0.61500859   -5.9955295    529.29811   0.02756761  0.026556019           24 
 1601000   0.60995762    -6.005695    530.46755  0.027611261  0.026537485           16 
 1602000   0.62160182   -6.0065468    529.42469  0.027539778  0.026518938           10 
 1603000   0.60592411   -6.0122856    529.69529  0.027536665  0.026500306            9 
 1604000   0.60896342   -6.0175921    529.47655  0.027508133  0.026481631           21 
 1605000   0.61412374   -6.0166248    529.04288  0.027468478  0.026462976           19 
 1606000   0.60882492   -6.0069284    529.86699  0.027494136  0.026444425           39 
 1607000   0.60695968   -5.9886611    529.23372  0.027444188  0.026425924           18 
 1608000   0.62086971   -6.0169444    530.79466  0.027508015  0.026407483           11 
 1609000   0.61133896   -5.9940984    529.87069  0.027443064  0.026389079           19 
 1610000   0.60642321   -5.9738328    530.76714  0.027472419   0.02637071           20 
 1611000   0.60328913   -6.0009743    530.06375  0.027418981  0.026352309           16 
 1612000   0.60793228   -6.0167805    528.87858  0.027340704  0.026333924           18 
 1613000   0.60580994   -5.9969061    529.42912  0.027352197  0.026315489           21 
 1614000    0.6065392   -6.0080597    529.37504  0.027332457  0.026297114           28 
 1615000   0.61120624   -6.0098588    530.74887  0.027386422  0.026278723           25 
 1616000   0.60768158   -5.9897148    530.64041  0.027363883   0.02626042           20 
 1617000   0.60799825   -5.9815858    529.45247  0.027285739  0.026242194            7 
 1618000   0.60617297   -5.9929255    530.61296  0.027328644  0.026223996           28 
 1619000   0.58822848   -6.0204489    529.99491  0.027279952  0.026205693           29 
 1620000    0.6042096   -6.0169326    530.86892  0.027308072  0.026187308           11 
 1621000    0.6039937   -6.0067318    530.90158  0.027292905  0.026169055           18 
 1622000   0.60561799   -6.0134037    530.40862  0.027250751  0.026150717           22 
 1623000   0.58690953   -6.0425718    530.33939  0.027230406  0.026132387           13 
 1624000   0.59530895   -6.0398813    529.74184  0.027182976   0.02611401           17 
 1625000   0.59867851   -6.0189725    530.31644  0.027195715  0.026095618           36 
 1626000   0.59884625   -6.0285097    530.00544   0.02716305  0.026077285           21 
 1627000   0.60671916   -6.0333001    530.58022  0.027175795  0.026059015           22 
 1628000    0.6042126   -6.0127536    531.09307  0.027185354  0.026040691           24 
 1629000   0.60411075   -6.0263129    530.55783  0.027141284  0.026022504           28 
 1630000   0.59306777   -6.0301406    528.18018  0.027003077   0.02600429           35 
 1631000   0.59832772   -6.0232313    530.18062   0.02708873  0.025986104           16 
 1632000   0.60081103   -6.0070147     532.0902  0.027169639  0.025967891           32 
 1633000   0.60356762   -6.0409708    529.16645  0.027003799  0.025949658           29 
 1634000   0.60289657   -6.0473522    530.36038  0.027048163  0.025931452           28 
 1635000   0.59879769   -6.0296208    529.79671  0.027002891  0.025913228           14 
 1636000   0.59587064   -6.0387525    529.24438  0.026958251  0.025895057           31 
 1637000   0.59638036   -6.0246091    530.32275  0.026996678  0.025876864           38 
 1638000   0.58621303   -6.0321964    529.89495  0.026958433  0.025858655           14 
 1639000   0.58518698   -6.0402296    529.42909  0.026918298  0.025840506           19 
 1640000   0.60750466   -6.0600839    530.84177  0.026973667  0.025822355           34 
 1641000   0.59448659   -6.0471786    529.78157  0.026903391  0.025804243           16 
 1642000   0.59133987   -6.0414095    530.26818  0.026911702  0.025786202           32 
 1643000   0.59188942   -6.0228611    530.41171  0.026902603   0.02576811           44 
 1644000   0.60017429   -6.0316388    530.71983  0.026901857  0.025750021           19 
 1645000   0.59323304   -6.0375956    530.21606  0.026859983  0.025731911           18 
 1646000   0.59745924    -6.043841    531.12143  0.026889501  0.025713938           23 
 1647000   0.58923436   -6.0370483     530.5915  0.026846362   0.02569594           17 
 1648000   0.58462442   -6.0280061    531.45425  0.026873698  0.025677997           10 
 1649000   0.58926208   -6.0107729    531.23796  0.026846471  0.025660084           30 
 1650000   0.59553089   -6.0433198    529.85726  0.026760468  0.025642104           26 
 1651000   0.57385365   -6.0664025    529.80412  0.026741577  0.025624097           10 
 1652000   0.60379365   -6.0353501    530.60178  0.026765626  0.025606092           15 
 1653000   0.59358146   -6.0278169    531.67158  0.026803366  0.025588162           11 
 1654000   0.59760168   -6.0627032    529.00059  0.026652589  0.025570187           14 
 1655000   0.58520253    -6.026559    531.00793  0.026737559   0.02555224           10 
 1656000   0.59165621   -6.0561507    530.32039  0.026686815  0.025534283           17 
 1657000    0.5904109   -6.0256128     530.4307  0.026676257  0.025516422           24 
 1658000   0.58895556   -6.0612559    530.79407  0.026678431  0.025498547           25 
 1659000   0.60108711   -6.0607571    529.60729  0.026602737  0.025480627           49 
 1660000   0.57777347   -6.0298776    530.70123  0.026641628   0.02546275           13 
 1661000   0.59743922   -6.0398704    531.40776  0.026661035  0.025444882           44 
 1662000   0.59261199   -6.0318256    531.23537   0.02663635  0.025427045           20 
 1663000    0.6013269    -6.064118    531.13004  0.026615055    0.0254092           28 
 1664000   0.59904633   -6.0477984    530.46654  0.026565832  0.025391348           13 
 1665000   0.58764606   -6.0492776     530.2321  0.026538143  0.025373511           68 
 1666000   0.59674123   -6.0352753    531.01344  0.026561296  0.025355666           36 
 1667000   0.58278093   -6.0529326    530.89709  0.026539546  0.025337902           22 
 1668000   0.56982324   -6.0517102    531.37308  0.026547416  0.025320096           21 
 1669000   0.59776149   -6.0330483    531.14005  0.026519875   0.02530236           19 
 1670000   0.59488906   -6.0459718    529.76935  0.026435596  0.025284549           17 
 1671000   0.59179456   -6.0515677     531.2313  0.026492684  0.025266763           27 
 1672000   0.57521341   -6.0797842    531.15675  0.026473124  0.025248954           19 
 1673000   0.59398478   -6.0549013    530.55535  0.026427344  0.025231177           11 
 1674000   0.58836058    -6.065514     530.8375  0.026425602  0.025213425           25 
 1675000   0.57977962   -6.0643059    531.55393  0.026445469  0.025195634           10 
 1676000    0.5853058   -6.0649981    530.94649  0.026399487  0.025177894           27 
 1677000   0.58256948   -6.0753494    529.30813  0.026302332  0.025160125           10 
 1678000   0.57000818   -6.0630842    530.97607  0.026369491   0.02514239           29 
 1679000   0.59287166   -6.0665579    530.93265   0.02635163   0.02512471           20 
 1680000   0.55966385   -6.0660801    530.91506  0.026335072  0.025107054           17 
 1681000   0.58833425   -6.0735026    532.24179  0.026385177  0.025089457           20 
 1682000   0.58739131   -6.0901678    531.28309  0.026321992  0.025071871           21 
 1683000   0.57134908   -6.0713198    530.93639  0.026289185  0.025054257           24 
 1684000    0.5871249   -6.0705827    530.56405  0.026255149  0.025036648           18 
 1685000   0.57105985   -6.1027954    531.23723   0.02627286  0.025019058           17 
 1686000   0.58459496   -6.0603081    531.21162  0.026256011  0.025001484           11 
 1687000   0.58075603   -6.0781483    530.99844  0.026229917  0.024983905           19 
 1688000   0.57169619   -6.0690652    531.74347  0.026251159  0.024966371           18 
 1689000   0.57865429   -6.0714274    531.78078  0.026237457  0.024948855           17 
 1690000   0.58271463   -6.0923613    530.06373  0.026137265  0.024931287           58 
 1691000   0.58378682   -6.0787294    530.93822  0.026164903  0.024913683           44 
 1692000   0.57683291   -6.0939505    531.23812   0.02616421   0.02489614           39 
 1693000   0.56517235   -6.0707652     531.0768  0.026140815  0.024878584           55 
 1694000   0.56824544   -6.0736501    532.24372  0.026182788  0.024861045           26 
 1695000   0.56967017   -6.0948041    531.90946  0.026150908  0.024843453           49 
 1696000   0.57778088   -6.0884112    530.41277  0.026061948  0.024825854           53 
 1697000   0.55970189   -6.1011995    531.21603  0.026086036  0.024808311           45 
 1698000   0.55889158   -6.0860765    530.74984  0.026047794  0.024790775           48 
 1699000   0.57822132   -6.0884013    531.80962  0.026084443  0.024773195           53 
 1700000   0.58059422   -6.0670329    531.46464  0.026052188  0.024755705           16 
 1701000   0.59184938   -6.0973813    531.20333  0.026024071   0.02473822           24 
 1702000   0.55985621   -6.0641614    532.34663  0.026064758  0.024720757           11 
 1703000    0.5736493   -6.0744079    530.73417   0.02597055  0.024703305           30 
 1704000   0.58726983   -6.1023784    530.69127  0.025953212  0.024685764           20 
 1705000   0.57653382   -6.0972449    530.00022  0.025904214  0.024668236           37 
 1706000   0.56129708   -6.0875828    530.68898  0.025922674  0.024650694           49 
 1707000   0.56668523   -6.0908992    530.23842  0.025885492  0.024633154           36 
 1708000   0.57727621    -6.112482     530.7266  0.025894155  0.024615701           14 
 1709000   0.56732757   -6.0813286    529.83988  0.025835766  0.024598186           26 
 1710000   0.58607737   -6.0888111    529.76648   0.02581708   0.02458067           34 
 1711000   0.56791387   -6.0981162    529.82191  0.025804691  0.024563125           36 
 1712000   0.58559614   -6.1084882    530.25506  0.025810702  0.024545556           13 
 1713000   0.57571343   -6.1131073    529.60452  0.025763987  0.024528027           23 
 1714000   0.57220673   -6.1332238    529.63397  0.025750387  0.024510492           15 
 1715000   0.57798943   -6.1072053    529.84977  0.025745858  0.024492955           20 
 1716000   0.56955417   -6.1173391    529.32076  0.025705165  0.024475385           25 
 1717000   0.56844381   -6.1285719    529.85196  0.025715976  0.024457809           43 
 1718000   0.56911856   -6.1232894     530.5203  0.025733425  0.024440242           46 
 1719000   0.56395201   -6.1010075    531.31513  0.025756987  0.024422716           46 
 1720000   0.56603057   -6.1160665    530.09149  0.025682727  0.024405199           33 
 1721000   0.55929783   -6.1280513    529.34249  0.025631537  0.024387746           62 
 1722000   0.56969028   -6.1138748    530.90318  0.025692179  0.024370319           32 
 1723000   0.55498981    -6.093619    531.10547  0.025687051  0.024352932           35 
 1724000   0.57215635   -6.1182527    531.27174  0.025680188  0.024335593           50 
 1725000   0.57604294   -6.1329763    529.69173  0.025588973  0.024318207           64 
 1726000   0.57509692   -6.1162447    529.32453  0.025556418  0.024300793           62 
 1727000   0.55992642   -6.1348413    528.70809  0.025511875  0.024283331           26 
 1728000   0.57327978   -6.1178125    529.84808  0.025552087  0.024265915           25 
 1729000    0.5718884   -6.1457158     529.4341  0.025517356  0.024248513           27 
 1730000   0.55810587   -6.1178024    529.65446  0.025513221  0.024231131           27 
 1731000   0.56394367   -6.1409975    530.65228  0.025546518  0.024213692           24 
 1732000   0.55422342   -6.1029461    529.94989  0.025497974   0.02419632           18 
 1733000   0.55657206   -6.1351238    529.18782  0.025446616  0.024178993           10 
 1734000   0.55694829    -6.124071    529.52135   0.02544797  0.024161606           53 
 1735000    0.5630327   -6.1043836    530.46253  0.025478508  0.024144301           17 
 1736000   0.56669648   -6.1271493    529.39213  0.025412449  0.024126992           63 
 1737000   0.56324338   -6.1240975    529.60514  0.025408038  0.024109661           72 
 1738000   0.56121527   -6.1178529    529.47498  0.025387178  0.024092403           37 
 1739000   0.54823015   -6.1315281    529.51373  0.025374436  0.024075146           38 
 1740000   0.55574502   -6.1344213    530.63226  0.025413423  0.024057863           41 
 1741000   0.56319877   -6.1374065    529.29096  0.025334624  0.024040569           38 
 1742000   0.56664999    -6.127752    529.49459  0.025329822  0.024023318           22 
 1743000   0.55237172   -6.1412321    530.64593  0.025370335   0.02400613           21 
 1744000    0.5582204   -6.1483905    529.74382  0.025312683  0.023988983           29 
 1745000   0.54389592   -6.1204296     530.1807   0.02531904  0.023971821            9 
 1746000   0.55128028   -6.1258421    530.03437  0.025297555  0.023954672           20 
 1747000   0.55482234   -6.1365783    530.29079  0.025295306  0.023937535           57 
 1748000   0.55418721    -6.159322    528.88121  0.025213635   0.02392042           31 
 1749000   0.55431676   -6.1465642      529.251  0.025216838  0.023903232           33 
 1750000   0.54746876   -6.1465475    529.88902  0.025232811  0.023886019           20 
 1751000   0.54575752   -6.1236347    530.63163  0.025253742  0.023868862           13 
 1752000   0.54770087   -6.1366268    529.57958  0.025189288    0.0238517           33 
 1753000   0.56775089   -6.1527657    528.85494  0.025140471    0.0238345           16 
 1754000    0.5631266   -6.1717372    529.18612  0.025141872   0.02381735           23 
 1755000   0.54616797   -6.1527862    530.34597  0.025182619  0.023800186           17 
 1756000   0.55235419   -6.1482184    530.01384  0.025152517  0.023783067           25 
 1757000   0.55497446   -6.1695528    529.45281  0.025111592  0.023765902           32 
 1758000   0.55039267   -6.1764886    528.34414  0.025044754  0.023748728           26 
 1759000   0.55122342   -6.1613049     529.6518  0.025092468  0.023731563           25 
 1760000   0.55793948   -6.1595296    528.22388    0.0250106  0.023714446           30 
 1761000   0.55608098   -6.1628116    528.89881  0.025028337  0.023697314           42 
 1762000   0.55229884   -6.1541851    528.93292  0.025015745  0.023680165           52 
 1763000   0.56502811   -6.1613435     529.7676   0.02504101  0.023663003           35 
 1764000   0.55046768   -6.1757861    529.18251  0.024999174  0.023645899           37 
 1765000   0.55875524   -6.1709497    528.85747  0.024969664  0.023628816           49 
 1766000    0.5423791   -6.1718368    527.97035  0.024913663  0.023611715           48 
 1767000   0.54868543   -6.1454926     529.4296  0.024968383  0.023594624           52 
 1768000   0.54634532   -6.1742433    528.61327  0.024915784   0.02357758           56 
 1769000   0.53764935   -6.1455452    529.29398  0.024933766   0.02356053           57 
 1770000   0.53990145   -6.1505333    529.31397   0.02492062  0.023543515           33 
 1771000   0.54914534   -6.1698478    530.00016  0.024938837  0.023526519           37 
 1772000    0.5436636   -6.1455684    529.00344  0.024877889  0.023509522           23 
 1773000   0.54856945   -6.1392119    529.10199   0.02486849   0.02349251           24 
 1774000   0.53257923   -6.1547357    529.79737  0.024887137  0.023475536           34 
 1775000   0.54393572   -6.1564535    527.81521  0.024780057  0.023458572           38 
 1776000    0.5540002   -6.1665478    529.70016   0.02485455  0.023441657           27 
 1777000    0.5506109   -6.1602338     529.4657  0.024829568  0.023424716           54 
 1778000   0.55556236   -6.1652105    529.84507  0.024833383  0.023407744           73 
 1779000   0.54583523    -6.166837    529.10614  0.024784811  0.023390803           44 
 1780000    0.5427327   -6.1919856    527.19535   0.02468143   0.02337381           28 
 1781000   0.55482409    -6.171092    528.74165  0.024739924  0.023356795           13 
 1782000   0.54401504   -6.1858901    527.54653  0.024670152  0.023339772           24 
 1783000   0.53586851   -6.1953083    528.06733  0.024680657  0.023322754           22 
 1784000   0.55068121   -6.1753384    528.99376  0.024710097  0.023305761           13 
 1785000   0.52806469   -6.1799964    528.49266   0.02467286  0.023288811           27 
 1786000    0.5400048   -6.1917423    528.54775  0.024661616  0.023271883           18 
 1787000   0.54112944   -6.1900397    527.74303  0.024610289   0.02325492           61 
 1788000   0.54844364   -6.1972036     527.8156  0.024599907  0.023237995           47 
 1789000   0.53990827   -6.1902938    528.81345  0.024632637  0.023221111           33 
 1790000   0.52583133   -6.1858458    527.91878  0.024577224  0.023204243           51 
 1791000   0.54157812    -6.197755    528.95657  0.024611789  0.023187361           57 
 1792000   0.53442203    -6.156707    526.74498  0.024495209  0.023170513           38 
 1793000   0.53973154    -6.188449    528.27111  0.024552478  0.023153688          141 
 1794000   0.53688565   -6.1838375    528.57156  0.024552748  0.023136878           55 
 1795000   0.54199604   -6.1762079    528.40497  0.024531336  0.023120079          193 
 1796000   0.53991137   -6.1914165    528.30782  0.024513169  0.023103245           88 
 1797000   0.54188057   -6.1721783    528.41962  0.024504712  0.023086435           96 
 1798000   0.52757765   -6.1946506    529.30745  0.024532233  0.023069661           79 
 1799000    0.5303961   -6.1835136     527.2512  0.024423346  0.023052854           42 
 1800000    0.5309456   -6.1894119    527.38726  0.024416077   0.02303607          124 
 1801000   0.53500787   -6.1943021    527.84948  0.024423907  0.023019287           30 
 1802000   0.54940556   -6.2028553    526.92732  0.024367708  0.023002522          141 
 1803000   0.53057729   -6.1994389    527.62642  0.024386505  0.022985799           61 
 1804000   0.54638031   -6.2164798     527.1892   0.02435279  0.022969068           37 
 1805000   0.51776908   -6.2034374      527.693  0.024362557  0.022952319           34 
 1806000   0.54002411   -6.2090418    527.27685  0.024329866  0.022935565          112 
 1807000   0.53650691   -6.2067585    527.26422  0.024315819  0.022918821           49 
 1808000   0.54364386   -6.1816346    527.65738  0.024320491  0.022902043           63 
 1809000   0.52904661   -6.2187447    527.84144  0.024315526  0.022885289           58 
 1810000   0.53579026    -6.202035    527.26789  0.024275686  0.022868522           73 
 1811000   0.52475473   -6.2017558    527.44125  0.024270258   0.02285176           49 
 1812000   0.53944405   -6.2084491     528.5555  0.024308108   0.02283504           68 
 1813000   0.52662549   -6.2023342    527.09055  0.024227365  0.022818347           49 
 1814000   0.52274717   -6.2098324    527.33948  0.024225445   0.02280168           89 
 1815000   0.52783797   -6.1933565    527.24723  0.024207862  0.022785019           77 
 1816000   0.53385148   -6.2130139    527.21873  0.024193223  0.022768367           90 
 1817000   0.53079015   -6.2026921    526.55813  0.024149611  0.022751726           38 
 1818000   0.52560324   -6.2050102    528.63482  0.024231519  0.022735098           35 
 1819000   0.52743881    -6.215241    528.04618  0.024191231    0.0227185           44 
 1820000   0.53190027   -6.2012849    527.80988  0.024167119  0.022701939          100 
 1821000   0.52720465   -6.2054913    528.53676  0.024187112  0.022685392           99 
 1822000   0.52024171   -6.2235039    528.59581  0.024176537  0.022668872          168 
 1823000   0.51901357   -6.2001349    528.32483  0.024150888  0.022652351          154 
 1824000   0.52645348   -6.2202618      527.443  0.024097359  0.022635837           99 
 1825000   0.52073546   -6.2075041     528.2103  0.024119192  0.022619284           47 
 1826000   0.52410262   -6.2147329    527.74593   0.02408479  0.022602736           88 
 1827000   0.52039356   -6.2061469    528.32502  0.024098022  0.022586197           97 
 1828000   0.52474728   -6.2243486    528.36283  0.024086562  0.022569678          141 
 1829000   0.51378823   -6.2170777    527.52414   0.02403518  0.022553188           55 
 1830000   0.53355597   -6.2186323    528.19156  0.024052439  0.022536702           91 
 1831000   0.53074961   -6.2164792    527.48542  0.024007165  0.022520234           79 
 1832000   0.51937867   -6.2269284     527.5341  0.023996274  0.022503764           43 
 1833000   0.53138972   -6.2106303    527.32004  0.023973452  0.022487314           46 
 1834000   0.52840122   -6.2164239    527.07861   0.02394941  0.022470856           35 
 1835000    0.5195035   -6.2400374    526.83719  0.023925395  0.022454383           63 
 1836000   0.51632952   -6.2382033     527.0001  0.023919757   0.02243789           74 
 1837000   0.52223786   -6.2247171    528.07417   0.02395546  0.022421425          117 
 1838000   0.52011197   -6.2344009    526.98655  0.023893115  0.022404987           98 
 1839000   0.52861382   -6.2327109    526.41774  0.023854347   0.02238856           63 
 1840000   0.52006785   -6.2365242    526.59848  0.023849569  0.022372147           59 
 1841000   0.51743096   -6.2226948    526.61224  0.023837237  0.022355735           40 
 1842000   0.53313723   -6.2363936    527.72906  0.023874822  0.022339326           65 
 1843000   0.51944039    -6.230836    526.82994  0.023821213  0.022322894           73 
 1844000   0.51443931   -6.2370617    526.63871  0.023799652  0.022306498           72 
 1845000   0.51857456   -6.2341788    526.98905  0.023802577  0.022290179          104 
 1846000   0.52273398   -6.2322218    526.67717  0.023775603  0.022273837           58 
 1847000   0.51131073    -6.241892    526.36759  0.023748763  0.022257498           62 
 1848000   0.51351327   -6.2505998    527.24633  0.023775538  0.022241161          104 
 1849000   0.51366189   -6.2379159    526.88859  0.023746556  0.022224823           78 
 1850000   0.51754727   -6.2406529    527.42132  0.023757717  0.022208514          144 
 1851000   0.50595589   -6.2266248    527.35984  0.023742114    0.0221922           66 
 1852000   0.51110234   -6.2314781    526.81778  0.023704904   0.02217593           57 
 1853000   0.50895543   -6.2407271    527.06026  0.023703016  0.022159666           72 
 1854000   0.51188669   -6.2529892    526.55102  0.023667342  0.022143412          121 
 1855000    0.5135044   -6.2431088    526.25583  0.023641322  0.022127154          139 
 1856000   0.50508346   -6.2505759    525.89824  0.023612529  0.022110887          176 
 1857000   0.50572099   -6.2668189    526.38283  0.023621559  0.022094663           85 
 1858000   0.50766747   -6.2384809    527.68131  0.023667084  0.022078419          156 
 1859000   0.50947722   -6.2618322      526.267  0.023590954  0.022062176          227 
 1860000   0.50595354   -6.2525849    526.45736  0.023586799  0.022045934          193 
 1861000   0.51671401   -6.2587542    526.67084  0.023583684  0.022029729          220 
 1862000   0.50289483   -6.2307057     526.6724  0.023571089  0.022013535          273 
 1863000   0.51096788   -6.2500119    526.28475  0.023541096  0.021997376           93 
 1864000   0.50593668   -6.2404301      527.164  0.023567775   0.02198124          185 
 1865000   0.51289358   -6.2547463    526.30016   0.02351654  0.021965096          165 
 1866000   0.52188994   -6.2695609    525.64744  0.023474787  0.021948976          315 
 1867000   0.50990209   -6.2463742    527.38063  0.023539575  0.021932901          182 
 1868000   0.50473247   -6.2714887    525.69583  0.023451813  0.021916774          224 
 1869000   0.51317343   -6.2541159    525.45101  0.023428349  0.021900638          159 
 1870000   0.51764608   -6.2647575    526.29934  0.023453625  0.021884503          157 
 1871000   0.49398357   -6.2497354    526.78443  0.023462695  0.021868401          147 
 1872000   0.50254496   -6.2511537    526.04105  0.023417069  0.021852314          333 
 1873000   0.50269447    -6.276049    525.74177  0.023391252  0.021836225          175 
 1874000   0.49823858   -6.2662034    526.16723  0.023397689  0.021820175          171 
 1875000   0.51027271   -6.2705245    526.10853  0.023382601  0.021804128          235 
 1876000   0.50108008   -6.2850078    525.93424  0.023362395  0.021788063          175 
 1877000   0.51055506   -6.2604118    526.41817  0.023371433  0.021772019          150 
 1878000   0.50075971   -6.2757519    524.53663  0.023275498  0.021755996          142 
 1879000   0.49631209   -6.2704317    525.88564   0.02332294   0.02173997          150 
 1880000   0.51038468    -6.280729    526.60511  0.023342425  0.021723974          189 
 1881000   0.50151784   -6.2755842    526.51595  0.023326066  0.021707999          228 
 1882000   0.50452754   -6.2829728    526.32933  0.023305408  0.021692041          130 
 1883000   0.50388507   -6.2541821    526.25726  0.023289841  0.021676082          214 
 1884000   0.48199238   -6.2576695    525.84636  0.023259305  0.021660138          157 
 1885000   0.50422757   -6.2637066    526.88145  0.023292725  0.021644227          277 
 1886000   0.50614033   -6.2841053    526.82395  0.023277834  0.021628329          259 
 1887000   0.49745311   -6.2895458    525.43313  0.023204078  0.021612423          177 
 1888000   0.49061974   -6.2816353    525.59021   0.02319872  0.021596542          241 
 1889000    0.4980282   -6.2625057    525.66182  0.023189598   0.02158067          150 
 1890000   0.50022303   -6.2630394    526.02388  0.023193293  0.021564811          346 
 1891000   0.50626098   -6.2606841    526.70618  0.023211095  0.021548991          262 
 1892000   0.50087836   -6.2684182    525.72539  0.023155628   0.02153319          171 
 1893000   0.49528342   -6.2598451    527.06336  0.023202296  0.021517351          159 
 1894000   0.48718759   -6.2922727    526.55832  0.023167825   0.02150153          211 
 1895000   0.50773002   -6.2711644    525.97456  0.023129928  0.021485736          162 
 1896000   0.50200779   -6.2792253    525.51181   0.02309739  0.021469978          231 
 1897000   0.49417405   -6.2777191    525.61186  0.023089609  0.021454197          134 
 1898000    0.4912894   -6.2610768    525.81693  0.023086448  0.021438407          142 
 1899000   0.49502851   -6.2935218    525.49798  0.023060294  0.021422612          122 
 1900000   0.49503677   -6.2923777    525.21521  0.023035755  0.021406808          131 
 1901000    0.4989803   -6.2781016    524.97869  0.023013269  0.021391019          183 
 1902000    0.4896874   -6.2965902    526.72789  0.023077808  0.021375234          231 
 1903000   0.49389898   -6.2846689    525.97551  0.023032734   0.02135945          189 
 1904000   0.49465391     -6.28522    526.71148  0.023052848  0.021343674          197 
 1905000    0.4931221   -6.3090447    524.90962  0.022961926  0.021327919          325 
 1906000   0.48916178   -6.3056744    524.50278  0.022932091  0.021312156          228 
 1907000   0.48962616   -6.2922259    525.54035  0.022965406  0.021296403          150 
 1908000   0.49634756   -6.3100495    524.75182   0.02291893  0.021280659          199 
 1909000    0.4963839   -6.3037174    525.52809   0.02294081  0.021264907          234 
 1910000   0.48662602   -6.2820105    524.87966  0.022900509  0.021249157          199 
 1911000   0.48159942   -6.2862514    525.34062  0.022908626  0.021233426          296 
 1912000   0.50162278   -6.2833082    525.16221  0.022888869  0.021217767          232 
 1913000    0.4960496   -6.2912959    525.83657   0.02290628  0.021202109          266 
 1914000   0.49453052   -6.2951291    524.96034  0.022856162  0.021186453          212 
 1915000   0.49780159   -6.2973612    525.41921  0.022864195  0.021170804          256 
 1916000   0.48334247    -6.312292    524.96564  0.022832535  0.021155143          274 
 1917000   0.48300887   -6.2917983    524.14359  0.022784889  0.021139489          341 
 1918000   0.48964345   -6.2973125     524.5515  0.022790733  0.021123858          369 
 1919000   0.49338754    -6.318056    523.60148  0.022737601  0.021108221          177 
 1920000   0.48771604   -6.3039162    524.50014  0.022764763  0.021092616          328 
 1921000     0.484397   -6.3080212    523.73943  0.022719913  0.021076991          384 
 1922000   0.48573279   -6.3013637    524.06603  0.022722253  0.021061396          264 
 1923000   0.49288616   -6.2983421    524.87099  0.022745319  0.021045829          316 
 1924000   0.48727369   -6.3055782    526.07111  0.022785478  0.021030248          407 
 1925000   0.49073137   -6.3055143    524.79757   0.02271851  0.021014673          424 
 1926000   0.48141625   -6.3326046    524.98701  0.022714911  0.020999092          365 
 1927000   0.48373031   -6.3087656    523.57081  0.022641879  0.020983525          303 
 1928000   0.47604586   -6.3262355    524.20911  0.022657724  0.020967973          353 
 1929000   0.47990232   -6.3200299    524.13827  0.022642918  0.020952442          398 
 1930000   0.48021177     -6.31811    524.91553  0.022664747  0.020936892          327 
 1931000   0.48434803   -6.3235143    523.75822  0.022603065  0.020921352          438 
 1932000   0.47954676   -6.3011974    524.82391  0.022637332  0.020905857          312 
 1933000   0.47686837   -6.3198704    523.80332  0.022581623  0.020890363          420 
 1934000   0.48017615   -6.3122209    524.28157  0.022590554  0.020874902          306 
 1935000   0.48012641   -6.3157356    524.14159  0.022572851  0.020859466          326 
 1936000   0.49447999   -6.3011594    524.18084   0.02256288  0.020844025          347 
 1937000   0.48408888   -6.3394129    524.17731   0.02255108  0.020828599          339 
 1938000   0.48130297   -6.3190403    523.66789  0.022517539  0.020813176          446 
 1939000   0.47576231   -6.3245488    524.63997  0.022547704  0.020797764          445 
 1940000   0.48117824   -6.3229778    524.79263  0.022542639   0.02078236          448 
 1941000   0.47440794   -6.3234661    523.99006  0.022496568  0.020766979          334 
 1942000   0.46696213   -6.3235236     523.7328  0.022473944  0.020751562          559 
 1943000   0.47144198   -6.3343179     523.4635  0.022450828  0.020736169          351 
 1944000   0.47825585    -6.328633     523.9959  0.022462101  0.020720759          458 
 1945000   0.48280721   -6.3172979    523.23446  0.022417929  0.020705372          450 
 1946000    0.4717228   -6.3362068    523.95451  0.022437243  0.020690022          518 
 1947000   0.47687638   -6.3433716     523.3702   0.02240071   0.02067464          452 
 1948000   0.46791272    -6.335785    523.92054  0.022412754  0.020659285          576 
 1949000   0.47014518   -6.3508716    524.93604  0.022444674  0.020643967          534 
 1950000   0.47871053   -6.3314376    524.60156   0.02241887  0.020628643          439 
 1951000   0.46948949   -6.3336296    523.73374  0.022370312   0.02061332          533 
 1952000   0.48760932   -6.3264095    523.65471  0.022355478  0.020598012          460 
 1953000    0.4748095   -6.3306319    522.42121  0.022291398  0.020582734          447 
 1954000   0.47491725   -6.3223365    522.85831  0.022298631  0.020567463          485 
 1955000   0.48096255   -6.3420389    524.24262  0.022346233  0.020552191          470 
 1956000     0.459483   -6.3406524    523.54346  0.022305021   0.02053692          428 
 1957000   0.46611381   -6.3462247    523.43344  0.022288939  0.020521644          381 
 1958000   0.45882697   -6.3456182    522.82688   0.02225174   0.02050636          506 
 1959000   0.47044412    -6.347923    523.01506  0.022248386  0.020491095          491 
 1960000   0.47226245   -6.3689551    523.72115  0.022267056  0.020475853          431 
 1961000   0.46636862   -6.3280412    524.06881  0.022270475  0.020460643          552 
 1962000   0.46315236   -6.3489164    522.43275  0.022189634  0.020445413          381 
 1963000   0.47334393   -6.3464404    523.52436  0.022224671  0.020430201          556 
 1964000   0.47164197   -6.3376195    523.47226  0.022211145  0.020415028          546 
 1965000   0.47341528   -6.3596348    523.23841  0.022189924  0.020399851          580 
 1966000   0.48011585   -6.3679351     522.4056  0.022143337  0.020384676          650 
 1967000   0.45889662   -6.3398304    523.04495  0.022159166  0.020369536          594 
 1968000   0.46953557   -6.3455355    523.07464  0.022149163  0.020354377          589 
 1969000   0.46864195   -6.3607855    523.17916  0.022142338  0.020339219          475 
 1970000    0.4667562   -6.3544426    523.21578  0.022132647  0.020324092          613 
 1971000   0.47749645   -6.3604616    522.94043  0.022109776  0.020308974          664 
 1972000   0.46324257   -6.3529642    524.14998  0.022149678  0.020293899          579 
 1973000   0.47629723    -6.354643    523.68945     0.022119  0.020278837          551 
 1974000   0.46862512   -6.3672016    522.97314  0.022077556  0.020263781          615 
 1975000   0.45695208   -6.3573438    523.04913  0.022069583  0.020248725          544 
 1976000   0.46861494   -6.3638046    523.26817  0.022067652  0.020233689          598 
 1977000   0.45950263   -6.3509517    523.17442  0.022052538  0.020218636          631 
 1978000   0.46560852   -6.3680186    522.61269  0.022017724  0.020203578          564 
 1979000   0.47010097   -6.3457848    522.87927  0.022017824  0.020188527          498 
 1980000   0.46416268    -6.364274    522.75995  0.022001682   0.02017352          531 
 1981000   0.45725371   -6.3663255     522.2171  0.021967739  0.020158499          464 
 1982000   0.45744507   -6.3705484    522.58268  0.021972027  0.020143486          612 
 1983000    0.4593223   -6.3686429    522.49003  0.021957053    0.0201285          537 
 1984000   0.46205757   -6.3903771    522.82959  0.021960248  0.020113519          511 
 1985000   0.44864402   -6.3793634    522.13959  0.021920218  0.020098539          474 
 1986000    0.4550769   -6.3702321    523.00611   0.02194554  0.020083569          411 
 1987000   0.44977389   -6.3681602    522.59248  0.021917148   0.02006863          552 
 1988000   0.45835777   -6.3677106    522.47353  0.021901137  0.020053693          407 
 1989000   0.45758263   -6.3719882     522.8765   0.02190701  0.020038767          633 
 1990000   0.46475874     -6.36962    522.46477  0.021878759  0.020023826          457 
 1991000   0.46230384   -6.3652123     522.2147  0.021857304  0.020008929          524 
 1992000   0.46638264   -6.3689243    521.81841  0.021829753  0.019994039          530 
 1993000   0.45346651    -6.367314    522.25203   0.02183693  0.019979163          503 
 1994000   0.45950538   -6.3790771    521.68235  0.021802171  0.019964275          680 
 1995000    0.4558712   -6.3861632    521.61732  0.021788526  0.019949402          644 
 1996000   0.45659508   -6.3901361    521.86967  0.021788146  0.019934547          740 
 1997000   0.46668015     -6.38321    522.14806  0.021788852  0.019919716          732 
 1998000   0.45557665   -6.3770778    522.69245  0.021800653  0.019904891          691 
 1999000   0.45488035   -6.3819168    521.62301  0.021745164  0.019890063          655 
 2000000   0.44599778   -6.3789264    521.63718  0.021734882   0.01987526          636 
 2001000   0.45103576   -6.3783409     521.9692  0.021737848  0.019860441          665 
 2002000    0.4539627   -6.3842996    522.37063  0.021743699  0.019845658          630 
 2003000   0.45223264   -6.3970362    522.13463  0.021723025  0.019830894          602 
 2004000   0.45576766   -6.3812496    521.76011  0.021696611  0.019816117          597 
 2005000   0.46412429    -6.387538    522.35993   0.02171072  0.019801371          691 
 2006000   0.44651302   -6.3852139    522.11188  0.021689593  0.019786613          693 
 2007000   0.45420126   -6.3825659    521.93411  0.021671405   0.01977189          619 
 2008000   0.44482318   -6.3897064    522.12918  0.021668708  0.019757163          650 
 2009000   0.44940181   -6.3768905    520.80674  0.021603067   0.01974246          688 
 2010000   0.44164232   -6.3854728    520.85785  0.021594438  0.019727753          621 
 2011000   0.44491835   -6.3876999    521.66426  0.021617117  0.019713067          797 
 2012000   0.44902561   -6.3983526    521.63487  0.021605155  0.019698392          768 
Loop time of 5108.39 on 48 procs for 2000000 steps with 4000 atoms

Performance: 67653.396 tau/day, 391.513 timesteps/s
99.4% CPU use with 48 MPI tasks x no OpenMP threads

MPI task timing breakdown:
Section |  min time  |  avg time  |  max time  |%varavg| %total
---------------------------------------------------------------
Pair    | 357.03     | 380.27     | 405.61     |  59.3 |  7.44
Neigh   | 34.87      | 36.158     | 38.555     |  12.4 |  0.71
Comm    | 323.95     | 349.78     | 373        |  64.1 |  6.85
Output  | 4.4952     | 4.4968     | 4.5301     |   0.2 |  0.09
Modify  | 4278.9     | 4290.9     | 4300.3     |   7.3 | 84.00
Other   |            | 46.82      |            |       |  0.92

Nlocal:        83.3333 ave          89 max          74 min
Histogram: 1 0 1 2 8 7 10 5 12 2
Nghost:        2379.06 ave        2392 max        2365 min
Histogram: 1 3 5 6 12 6 1 4 6 4
Neighs:        16305.1 ave       18483 max       13992 min
Histogram: 3 4 3 8 7 4 6 4 4 5
FullNghs:      32666.9 ave       35035 max       29285 min
Histogram: 1 0 3 4 6 14 6 6 3 5

Total # of neighbors = 1568011
Ave neighs/atom = 392.00275
Neighbor list builds = 107389
Dangerous builds = 0

#clear
#
#next RN
#
#jump SELF
Total wall time: 1:25:12
