
units lj                  # Use reduced LJ style units
atom_style atomic         # Uncharged point particles
atom_modify map hash      # Needed for indexing of clusters etc
                          # Used to be able to find where atoms are in relation to each other.

lattice fcc 1.0 spacing 1 1 1
Lattice spacing in x,y,z = 1.5874011 1.5874011 1.5874011
region box block 0 10 0 10 0 10 units lattice
create_box 2 box
Created orthogonal box = (0.0000000 0.0000000 0.0000000) to (15.874011 15.874011 15.874011)
  3 by 4 by 4 MPI processor grid
create_atoms 1 box
Created 4000 atoms
  using lattice units in orthogonal box = (0.0000000 0.0000000 0.0000000) to (15.874011 15.874011 15.874011)
  create_atoms CPU = 0.003 seconds
set type 1 type/fraction 2 0.72 78393
Setting atom values ...
  2894 settings made for type/fraction
mass 1 1.0
mass 2 1.0
pair_style lj/cut  3.5
pair_modify tail  yes
pair_coeff 1  1  1.0  1.0   # Intearaction between 1 and 1 set with epsilon = 1 and sigma = 1
pair_coeff 1  2  1.5  0.8
pair_coeff 2  2  0.5  0.88

write_data data.0
System init for write_data ...
Neighbor list info ...
  update every 1 steps, delay 10 steps, check yes
  max neighbors/atom: 2000, page size: 100000
  master list distance cutoff = 3.8
  ghost atom cutoff = 3.8
  binsize = 1.9, bins = 9 9 9
  1 neighbor lists, perpetual/occasional/extra = 1 0 0
  (1) pair lj/cut, perpetual
      attributes: half, newton on
      pair build: half/bin/atomonly/newton
      stencil: half/bin/3d
      bin: standard
WARNING: Not all mixed pair coeffs generated from mixing. Use write_data with 'pair ij' option to store all pair coeffs. (../write_data.cpp:312)


#############################
#   M E L T   S Y S T E M   #
#############################

velocity all create 2.4 9580093 mom yes dist gaussian # Assign velocities
                                                    # Temperature 2.4, random number seed, zero linear momentum
                                                                                # Gaussian distribution

timestep 0.002   # simulation timestep
thermo 1000       # output thermodynamic data every 1000 steps bf 100

# Define a fix  in this case with index 1 applied to all
# particles in the simulation. This fix is for simulations
# in the anisotropic NPT ensemble. Note that we use the MTK
# correction.
fix 1 all npt temp 2.4 2.4 0.1 iso 5.68 5.68 0.5 mtk yes tchain 5 pchain 5 # Use NPT ensemble
                                                                         # Set temperature and pressure and damping
                                                                         # Numbers of thermostats in chain and in barostat
run 10000          # run for 10000 steps
Per MPI rank memory allocation (min/avg/max) = 3.642 | 3.644 | 3.648 Mbytes
Step Temp E_pair E_mol TotEng Press Volume 
       0          2.4   -4.0785584            0  -0.47945841   -3.6688173         4000 
    1000    2.3696287   -3.6750474            0  -0.12149293    5.7355413    3665.2221 
    2000    2.3943592   -3.6533602            0 -0.062719264    5.8784512     3662.128 
    3000    2.4108035   -3.6618363            0 -0.046535106     5.497742    3684.0401 
    4000    2.3965816   -3.6847792            0 -0.090805603    5.5425323    3670.7166 
    5000    2.3851402    -3.683504            0  -0.10668812    5.6407361    3666.1442 
    6000    2.4376021   -3.6530099            0 0.0024791746    5.8076169    3659.5889 
    7000    2.3926245   -3.6479503            0 -0.059910777      5.50906    3690.9766 
    8000    2.3947128   -3.6618404            0 -0.070669139    5.7585637    3674.6581 
    9000    2.4374914   -3.6444145            0  0.010908587    5.7927946    3676.6773 
   10000    2.3786191   -3.7270299            0  -0.15999333    5.6481166    3638.7834 
Loop time of 2.61322 on 48 procs for 10000 steps with 4000 atoms

Performance: 661253.936 tau/day, 3826.701 timesteps/s
99.7% CPU use with 48 MPI tasks x no OpenMP threads

MPI task timing breakdown:
Section |  min time  |  avg time  |  max time  |%varavg| %total
---------------------------------------------------------------
Pair    | 1.2008     | 1.2542     | 1.3318     |   2.9 | 47.99
Neigh   | 0.21597    | 0.22309    | 0.24488    |   1.0 |  8.54
Comm    | 0.7962     | 0.87808    | 0.95586    |   4.0 | 33.60
Output  | 0.00024937 | 0.00025364 | 0.00031538 |   0.0 |  0.01
Modify  | 0.20805    | 0.24205    | 0.26691    |   3.2 |  9.26
Other   |            | 0.01556    |            |       |  0.60

Nlocal:        83.3333 ave          97 max          75 min
Histogram: 4 6 8 8 6 12 2 0 1 1
Nghost:        1746.85 ave        1766 max        1718 min
Histogram: 1 1 1 5 7 11 5 7 7 3
Neighs:        10494.2 ave       12176 max        9192 min
Histogram: 3 3 7 6 13 6 7 1 0 2

Total # of neighbors = 503721
Ave neighs/atom = 125.93025
Neighbor list builds = 909
Dangerous builds = 228

# Equilibrate just above the melting temperature to avoid step fn in T

fix 1 all npt temp 1.25 1.25 0.1 iso 5.68 5.68 0.5 mtk yes tchain 5 pchain 5
run 2000
Per MPI rank memory allocation (min/avg/max) = 3.644 | 3.646 | 3.649 Mbytes
Step Temp E_pair E_mol TotEng Press Volume 
   10000    2.3786191   -3.7270299            0  -0.15999333    5.6481166    3638.7834 
   11000     1.241648   -5.3934907            0   -3.5314843    5.5439755    2814.7123 
   12000    1.2642165   -5.4009155            0   -3.5050649    6.1218565    2787.1974 
Loop time of 0.646909 on 48 procs for 2000 steps with 4000 atoms

Performance: 534232.826 tau/day, 3091.625 timesteps/s
99.6% CPU use with 48 MPI tasks x no OpenMP threads

MPI task timing breakdown:
Section |  min time  |  avg time  |  max time  |%varavg| %total
---------------------------------------------------------------
Pair    | 0.29697    | 0.31951    | 0.34893    |   2.1 | 49.39
Neigh   | 0.041249   | 0.043518   | 0.046038   |   0.6 |  6.73
Comm    | 0.20284    | 0.23455    | 0.26127    |   2.7 | 36.26
Output  | 4.8979e-05 | 5.0505e-05 | 6.4129e-05 |   0.0 |  0.01
Modify  | 0.04153    | 0.044445   | 0.048844   |   0.9 |  6.87
Other   |            | 0.004842   |            |       |  0.75

Nlocal:        83.3333 ave          89 max          75 min
Histogram: 1 0 5 6 5 8 3 11 3 6
Nghost:        2093.44 ave        2116 max        2075 min
Histogram: 2 7 6 6 6 7 9 2 2 1
Neighs:        13701.1 ave       15271 max       12346 min
Histogram: 2 7 5 11 2 7 4 3 3 4

Total # of neighbors = 657651
Ave neighs/atom = 164.41275
Neighbor list builds = 144
Dangerous builds = 8

#############################
# L I N E A R  Q U E N C H  #
#############################

# Define solid atoms. This closely follows ten Wolde  Ruiz-Montero and Frenkel  Faraday Discuss  1996  104  93-110
# Compute components of the per-atom q6 vector
compute q6 all orientorder/atom degrees 1 6 components 6 nnn NULL cutoff 1.3 # compute the Q6 parameter.
                                                                             # Use all neighbours within 1.3 unit cell.

# get number of connections
compute coord_number all coord/atom orientorder q6 0.5

# An atom is solid if it has 8 or more connections (of a possible 14)
variable is_solid atom c_coord_number>=8
group solid dynamic all var is_solid    # Must be dynamic to update
dynamic group solid defined

# do clustering
compute cluster solid cluster/atom 1.3 # Create a cluster where all atoms within are solid and max 1.3 units from another member

# define chunks one chunk per cluster
compute clus_chunks solid chunk/atom c_cluster nchunk every compress yes  # Says which atoms are in which chunk

# count the size of each chunk
compute size_chunks solid property/chunk clus_chunks count


# Find the maximum entry in the vector of chunk sizes
variable max_n equal max(c_size_chunks)


# Thermo style which includes this variable
# thermo_style custom step temp pe vol v_max_n

thermo ${N}  # Print the thermo information every 100 steps
thermo 1000  

# Reset the npt fix at a lower temperature (below freezing)
fix 1  all npt temp  ${temp} ${temp}  0.1  iso  5.68  5.68  0.5  mtk yes tchain  5  pchain  5
fix 1  all npt temp  0.45 ${temp}  0.1  iso  5.68  5.68  0.5  mtk yes tchain  5  pchain  5
fix 1  all npt temp  0.45 0.45  0.1  iso  5.68  5.68  0.5  mtk yes tchain  5  pchain  5

dump dmp2 all dcd ${N} traj.dcd
dump dmp2 all dcd 1000 traj.dcd


compute msd all msd com yes
variable twopoint equal c_msd[4]/6/(step*dt+1.0e-6)
fix 9 all vector 10 c_msd[4]
variable fit equal slope(f_9)/6/(10*dt)
thermo_style custom step temp pe c_msd[4] v_twopoint v_fit v_max_n

fix 1 all npt temp 1.25 ${temp} 0.1 iso 5.68 5.68 0.5 mtk yes tchain 5 pchain 5
fix 1 all npt temp 1.25 0.45 0.1 iso 5.68 5.68 0.5 mtk yes tchain 5 pchain 5
run 5000000 # 5000000  # Run for this many steps
Neighbor list info ...
  update every 1 steps, delay 10 steps, check yes
  max neighbors/atom: 2000, page size: 100000
  master list distance cutoff = 3.8
  ghost atom cutoff = 3.8
  binsize = 1.9, bins = 8 8 8
  4 neighbor lists, perpetual/occasional/extra = 1 3 0
  (1) pair lj/cut, perpetual
      attributes: half, newton on
      pair build: half/bin/atomonly/newton
      stencil: half/bin/3d
      bin: standard
  (2) compute orientorder/atom, occasional
      attributes: full, newton on
      pair build: full/bin/atomonly
      stencil: full/bin/3d
      bin: standard
  (3) compute coord/atom, occasional
      attributes: full, newton on
      pair build: full/bin/atomonly
      stencil: full/bin/3d
      bin: standard
  (4) compute cluster/atom, occasional
      attributes: full, newton on
      pair build: full/bin/atomonly
      stencil: full/bin/3d
      bin: standard
Per MPI rank memory allocation (min/avg/max) = 9.845 | 9.848 | 9.852 Mbytes
Step Temp PotEng c_msd[4] v_twopoint v_fit v_max_n 
   12000    1.2642165   -5.4009155 8.3678421e-31 5.8110012e-33 8.3333333e+20            1 
   13000     1.269724   -5.4016221   0.67063238 0.0042989254  0.056259337            1 
   14000    1.2624855    -5.452235    1.2921755 0.0076915203   0.05398791            2 
   15000    1.2276463   -5.4485571    1.9235916  0.010686619  0.053560889            2 
   16000    1.2605509   -5.4389373    2.5968652  0.013525339  0.053336229            2 
   17000    1.2500892    -5.409971     3.237557  0.015870377  0.053637648            2 
   18000    1.2366628   -5.4493851    3.9840135  0.018444506  0.054233395            4 
   19000     1.255372   -5.4316491    4.6469871  0.020381522  0.054959589            5 
   20000    1.2574299   -5.3757745    5.3541769   0.02230907  0.055416076            1 
   21000    1.2144803   -5.4341389    6.0816721  0.024133619  0.055953855            2 
   22000    1.2514566   -5.4014999    6.6657349  0.025248995  0.056065496            2 
   23000    1.2509126   -5.3896656    7.2810308  0.026380546  0.055888518            3 
   24000    1.2172874   -5.4258887    7.8874167  0.027386863  0.055783199            2 
   25000    1.2680119   -5.4140086     8.664936  0.028883119  0.055683681            4 
   26000    1.2592605    -5.409726    9.3345628   0.02991847  0.055734033            3 
   27000    1.2344967   -5.4207678    10.037464  0.030979828  0.055841229            2 
   28000    1.2261651   -5.3915113    10.771247  0.032057282  0.056021027            4 
   29000    1.2656975   -5.4666173     11.27805   0.03240819  0.056027694            2 
   30000    1.2531921   -5.4532923    11.926289  0.033128579  0.055944898            1 
   31000    1.2436619   -5.4456043    12.619699   0.03392392  0.055793105            2 
   32000    1.2235252   -5.4243455    13.212405  0.034407303  0.055672438            3 
   33000    1.2534308   -5.4143544    13.897839  0.035095552  0.055580722            6 
   34000    1.2876521   -5.4456618     14.51853  0.035584631  0.055461386            2 
   35000    1.2449793   -5.4368194    15.002384  0.035719963  0.055298843            1 
   36000    1.2685575   -5.4277798    15.645286  0.036215939  0.055125473            1 
   37000     1.237171   -5.4339309    16.205367  0.036498574  0.054913882            5 
   38000    1.2499922   -5.4419602    16.744382  0.036720136  0.054644773            3 
   39000    1.2506475   -5.4372737    17.327549  0.037024677  0.054357538            3 
   40000    1.2883931   -5.4031241    17.867226  0.037223386  0.054070883            1 
   41000    1.2252265    -5.449756    18.409447  0.037417575  0.053778637            2 
   42000    1.2565854   -5.4300631    19.068256   0.03783384   0.05352613            2 
   43000    1.2405633   -5.4373978    19.666338  0.038113058  0.053311984            3 
   44000    1.2389174     -5.44045    20.372601  0.038584471  0.053145185            3 
   45000    1.2413201   -5.4491736    20.986894  0.038864618  0.053015925            7 
   46000    1.2358317   -5.4317739     21.68032  0.039275942  0.052897095            1 
   47000    1.2407787   -5.4293863    22.240416  0.039433362  0.052831187            3 
   48000    1.2516285   -5.4295097    22.812758  0.039605483  0.052737411            4 
   49000    1.2525768   -5.4439569     23.41687  0.039824608   0.05264134            2 
   50000    1.2560901   -5.4611584    23.958646  0.039931075  0.052542566            1 
   51000    1.2190044   -5.4600562    24.530972  0.040083288   0.05243771            2 
   52000    1.2577576   -5.4319786     25.08162  0.040194903  0.052335211            2 
   53000    1.2212699   -5.4211107    25.763958  0.040509367  0.052220966            2 
   54000    1.2368484   -5.4365942    26.277632  0.040551901  0.052126474            3 
   55000    1.2201348   -5.3953212    26.919613  0.040787292  0.052050966            2 
   56000    1.2327661   -5.4372768    27.363022  0.040718782  0.051930942            3 
   57000     1.221673   -5.4392423    27.932563  0.040837079  0.051827323            6 
   58000     1.259013   -5.4503427    28.455277  0.040884018  0.051714846            2 
   59000    1.2507784   -5.4199106    29.127907  0.041141111  0.051602008            2 
   60000    1.2492849   -5.4712911    29.611588  0.041127205  0.051508595            2 
   61000    1.2665985   -5.4107916    30.552179  0.041737949  0.051432857            2 
   62000    1.2383833   -5.4264447    31.052154  0.041736766  0.051362602            2 
   63000    1.2329781   -5.4324916    31.559216  0.041744994  0.051300063            2 
   64000    1.2415242    -5.465554    32.221523  0.041955108  0.051237406            2 
   65000    1.2388315   -5.4317441    33.067093  0.042393709  0.051193457            4 
   66000    1.2336622   -5.4323575    33.700283  0.042550862  0.051187861            2 
   67000    1.2612707   -5.4272139    34.351809   0.04272613  0.051183324            3 
   68000    1.2456816   -5.4448352    34.844372  0.042701435     0.051189            3 
   69000    1.2164263   -5.3723287    35.601622  0.042997128  0.051179201            2 
   70000    1.2139373   -5.4228392    36.192538  0.043086355  0.051166911            4 
   71000    1.2106248   -5.4379627    37.019244  0.043449816  0.051176432            3 
   72000    1.2370577   -5.3977016    37.764603  0.043709031   0.05121037            2 
   73000    1.2228763   -5.4303689     38.40878  0.043845639  0.051254326            3 
   74000    1.2455204   -5.4055821    39.012572  0.043933076  0.051295163            5 
   75000    1.2217267    -5.421104    39.465427  0.043850475  0.051328059            1 
   76000     1.220806   -5.4766546    40.168137   0.04404401  0.051349608            4 
   77000    1.2542443   -5.4699945    40.973848  0.044343991  0.051381549            3 
   78000    1.2487057   -5.4707412     41.58187  0.044425074  0.051431321            4 
   79000    1.2173727   -5.4581623    42.040514  0.044346533  0.051465503            2 
   80000    1.2360147   -5.4723084    42.614249  0.044389842  0.051488587            2 
   81000    1.2522079   -5.4665089    43.125292  0.044367585  0.051504692            2 
   82000    1.2364063   -5.4566355    44.104893  0.044822045  0.051518621            2 
   83000    1.2418564   -5.4771102     44.28457  0.044462419  0.051531136            2 
   84000    1.2448059   -5.4283024    45.385123  0.045024923  0.051545857            4 
   85000     1.220615   -5.4082862     46.00209  0.045100088  0.051565781            2 
   86000    1.2752852   -5.4480762    46.450755  0.045010422  0.051584396            3 
   87000    1.2474777   -5.4362345    47.261604  0.045269736  0.051612635            4 
   88000    1.2552171   -5.4695416    47.372355  0.044860184  0.051628583            3 
   89000      1.22482   -5.4207542    48.314906  0.045238676  0.051641648            2 
   90000    1.2341349   -5.4163716    48.814069  0.045198212  0.051654121            3 
   91000    1.2506096   -5.4390818    49.285154  0.045132925  0.051657572            2 
   92000    1.2304603   -5.4508816    49.793529  0.045102834  0.051654835            1 
   93000    1.1917321   -5.4722114     50.42181  0.045180833  0.051647575            8 
   94000    1.2466854   -5.4360375    51.316268  0.045493146  0.051641149            3 
   95000     1.247947   -5.4494901     52.03483  0.045644587  0.051653415            5 
   96000    1.2737028   -5.4573915    52.653127  0.045705839  0.051663694            7 
   97000    1.2420132   -5.4838907    53.332672  0.045818447  0.051680183            1 
   98000    1.2279764   -5.4538465    53.994713  0.045913871   0.05168765            2 
   99000    1.2352139   -5.4534544    54.766426  0.046099685  0.051697188            3 
  100000    1.2377863   -5.4430335    55.215211  0.046012676  0.051714501            2 
  101000     1.215567   -5.4612301    55.690287  0.045949081  0.051723695            2 
  102000    1.2211686   -5.4059935    56.504916  0.046164147  0.051726698            1 
  103000    1.2197445   -5.4725508    56.964802  0.046088027  0.051729296            2 
  104000    1.1976118   -5.4651357    57.486033  0.046062526  0.051723145            2 
  105000    1.2497179   -5.4779965    58.182194  0.046176345  0.051724718            1 
  106000    1.2422639   -5.4558676    58.932568  0.046330635  0.051731427            2 
  107000    1.2229677    -5.468094    59.193581   0.04610092  0.051728521            2 
  108000    1.2529994   -5.4505932    59.736567   0.04609303   0.05171695            1 
  109000    1.2506133   -5.4805053    60.336365   0.04612872  0.051700703            3 
  110000    1.2489421   -5.4300642    60.911888  0.046145369  0.051676956            1 
  111000    1.2311955   -5.4442197    61.311673  0.046029784   0.05164863            3 
  112000    1.2503664   -5.4733515    61.888267  0.046047818  0.051615513            2 
  113000    1.2251395   -5.4329789     62.83814  0.046340811  0.051591338            2 
  114000    1.2305623   -5.4314373    63.077467  0.046109259  0.051566727            5 
  115000    1.2530396   -5.4684425     63.59142  0.046080739  0.051545761            3 
  116000    1.2292473   -5.4704233    64.464737  0.046310874  0.051535696            2 
  117000    1.2424872   -5.4523538    65.474663  0.046634375  0.051532655            4 
  118000    1.2491383   -5.4787877    66.256474  0.046791295  0.051530911            3 
  119000     1.216771   -5.4458284    66.430081  0.046519664  0.051528797            1 
  120000    1.2247974   -5.4289631    67.402541   0.04680732  0.051526918            1 
  121000    1.2377767   -5.4665666    67.794335  0.046690313  0.051527431            3 
  122000    1.2536423   -5.4570923    68.495809  0.046786755  0.051529248            3 
  123000    1.2154897   -5.4214935    69.390112  0.047012271  0.051526863            4 
  124000    1.2137168   -5.4459403    69.872457  0.046957296  0.051531915            2 
  125000    1.2486898   -5.4819862    70.466252  0.046977501  0.051531884            3 
  126000    1.2135453   -5.4779551    71.050224  0.046990889  0.051541194            3 
  127000     1.247643   -5.4613818    72.047277  0.047275116  0.051555584            4 
  128000    1.2018489   -5.4904376    72.098633  0.046939214  0.051563254            1 
  129000    1.2062817   -5.4328093    73.297259   0.04734965   0.05156956            3 
  130000    1.2363105   -5.4093352    73.809855  0.047314009  0.051578572            2 
  131000    1.2110105   -5.4545477    74.062821  0.047113754  0.051580096            4 
  132000    1.2391145   -5.4214068    75.008319  0.047353737  0.051579856            3 
  133000    1.2441303    -5.394633    75.827965  0.047511256  0.051585612            2 
  134000    1.2265214   -5.4715767    76.296861  0.047448296   0.05159258            2 
  135000    1.2255437   -5.4960319    77.021907  0.047544387  0.051608194            3 
  136000    1.2050177   -5.4940805    77.634735  0.047570303  0.051621268            1 
  137000    1.2149618     -5.46605    78.586255  0.047801858  0.051641877            3 
  138000    1.2773625   -5.4482355    79.209814  0.047832013  0.051661746            2 
  139000    1.2141071   -5.4650107    79.411024  0.047608527  0.051676036            2 
  140000    1.2221313   -5.4329874    80.138654   0.04770158  0.051692811            1 
  141000    1.2429228   -5.4795345    81.092498  0.047927008  0.051706002            5 
  142000    1.2340134   -5.4569126    82.038795  0.048144833  0.051726118            2 
  143000    1.2223777   -5.4818458    82.394457  0.048015418  0.051746414            1 
  144000    1.2509638   -5.4646748     82.95577  0.048006811   0.05176557            3 
  145000    1.2508764   -5.4659582    83.614153  0.048054111  0.051782493            2 
  146000    1.2108037   -5.4427033    84.168214  0.048041218  0.051800737            2 
  147000    1.2304667   -5.4336403    85.092931  0.048238623  0.051815094            5 
  148000    1.2286737   -5.4764599    85.856139  0.048342421  0.051837482            3 
  149000    1.2193866   -5.4361837    86.187878  0.048203511  0.051852872            1 
  150000    1.2243381   -5.4783173    86.197144  0.047887302  0.051861463            3 
  151000    1.2327664   -5.4592772    86.803843  0.047904991  0.051863661            3 
  152000    1.2126698   -5.4755975    87.262226  0.047841132  0.051863453            2 
  153000    1.2032589   -5.4654546    88.041286   0.04795277    0.0518565            1 
  154000    1.2342375   -5.4648401    88.538955   0.04791069  0.051848916            2 
  155000    1.2300453   -5.4956161    88.821402  0.047753442  0.051839589            3 
  156000    1.2148758   -5.4459181    89.549116  0.047836066  0.051825019            1 
  157000    1.2327185   -5.4548963    89.886295  0.047710348  0.051812653            1 
  158000    1.2336723   -5.4694208     90.58674  0.047777816  0.051796093            5 
  159000    1.2319713    -5.457159    91.220794  0.047809641  0.051784578            3 
  160000    1.2415154   -5.5348146    91.926324  0.047878293  0.051771673            2 
  161000    1.2057119   -5.5066179    92.724654  0.047994127  0.051762518            2 
  162000    1.2613779   -5.4876143    92.895611  0.047785808  0.051755763            2 
  163000     1.226561   -5.4446056    94.229729  0.048174708  0.051751933            2 
  164000    1.2505652   -5.4822336    94.223556  0.047877823    0.0517501            2 
  165000    1.2355267   -5.4454722    95.220452  0.048091137  0.051743654            3 
  166000    1.2131404   -5.4899186    95.402958  0.047893051  0.051735222            2 
  167000    1.2342706   -5.4776688    96.415641  0.048111597   0.05173298            2 
  168000    1.2166316   -5.4602098    97.127957   0.04817855  0.051730267            5 
  169000    1.2221907   -5.4841121    97.660232  0.048155933  0.051727224            2 
  170000    1.2023719   -5.4457171    98.277048  0.048175023  0.051721416            4 
  171000    1.2078939   -5.4719598    99.224317   0.04835493  0.051716671            2 
  172000    1.2443926   -5.4563998    99.588545  0.048250264  0.051711725            2 
  173000    1.2337388   -5.5197528    99.864266  0.048104174  0.051705502            3 
  174000    1.2147848   -5.4982653     100.5035  0.048133862  0.051696134            2 
  175000    1.2397015   -5.5034642    101.07498  0.048130941  0.051686207            3 
  176000    1.2289893    -5.470971    102.50141  0.048532862  0.051685952            5 
  177000    1.2111499   -5.4666653    102.63209  0.048320191  0.051686954            4 
  178000    1.2453773   -5.4585719    103.36657  0.048392591  0.051686194            1 
  179000    1.2069514    -5.485517    103.54011  0.048203032   0.05168637            2 
  180000    1.2122206   -5.4960508    104.39626  0.048331601  0.051681624            2 
  181000    1.2042033   -5.4741279    104.95042  0.048319715   0.05167851            1 
  182000    1.2333791   -5.4867863    105.56646  0.048336292  0.051673766            1 
  183000    1.2254135   -5.4608549    106.56766  0.048528078  0.051670933            2 
  184000    1.2237157    -5.497672    106.72827  0.048337079  0.051673062            2 
  185000    1.1989912   -5.4546466    107.42478   0.04838954  0.051668135            2 
  186000    1.2274711   -5.5217143    107.82791  0.048309996   0.05166277            3 
  187000    1.2082087   -5.5033466    108.05895  0.048154611   0.05165455            3 
  188000    1.2119397    -5.490093    109.14451  0.048379657  0.051644124            1 
  189000    1.2034136   -5.4531183    109.75136   0.04839125  0.051633882            2 
  190000    1.2072833     -5.47861     110.3651  0.048405745  0.051623799            1 
  191000    1.2064688   -5.4455508    110.58708   0.04824916  0.051611299            1 
  192000    1.2083164   -5.4834492    111.20905  0.048267815  0.051600273            3 
  193000    1.2263767   -5.4830474    111.75017  0.048251369  0.051588102            1 
  194000    1.2283308   -5.5076537    112.16121  0.048179213  0.051576606            2 
  195000    1.2446778   -5.4331921    113.07375  0.048322115  0.051560395            2 
  196000    1.2307078   -5.4661358    113.62454  0.048309754  0.051547714            5 
  197000    1.2415725   -5.4871694    113.58654   0.04804845  0.051531694            2 
  198000    1.2263506   -5.4673254    114.05627  0.048003482  0.051512737            3 
  199000    1.2143326   -5.4860838    114.65039   0.04801105  0.051492198            2 
  200000    1.2199921   -5.4619884    115.68449  0.048201872  0.051473034            1 
  201000    1.2249543   -5.5125969    116.01317  0.048098331  0.051457198            2 
  202000    1.2512404   -5.5250409    116.74266  0.048161165  0.051441738            3 
  203000    1.2340072   -5.4685809    117.59568  0.048274087  0.051430473            2 
  204000    1.2200111    -5.512945    117.89314  0.048158961  0.051413594            1 
  205000      1.20763    -5.473911    118.69365  0.048249451  0.051397149            9 
  206000    1.1963135   -5.4963333    118.98843  0.048134477  0.051380551            5 
  207000    1.2128726   -5.5122729    119.40077  0.048067942  0.051362408            2 
  208000    1.2115113   -5.5095048    119.79141  0.047993353  0.051344554            3 
  209000    1.2101738   -5.4973811    120.34087  0.047982805   0.05132394            2 
  210000    1.2313702   -5.5075055    121.70062  0.048293896  0.051307718            3 
  211000    1.1989424   -5.4816748    122.02974     0.048195  0.051291552            2 
  212000    1.2074108   -5.4838001    122.86481  0.048295918  0.051276649            2 
  213000    1.2495181   -5.4792912    123.29912  0.048239092  0.051264715            1 
  214000    1.2068913   -5.5013463    124.40269  0.048443414  0.051257159            4 
  215000    1.2053017   -5.4952753    125.05158  0.048469606  0.051251411            2 
  216000    1.2279575   -5.5253653    125.78056   0.04852645  0.051245362            2 
  217000    1.1908984   -5.4898428    126.21733  0.048470558  0.051237777            4 
  218000    1.2293337   -5.4611994    126.96679  0.048534705  0.051231359            3 
  219000    1.1854434   -5.4955966    126.81806   0.04825649  0.051222373            2 
  220000    1.2354923   -5.5166656    127.08093  0.048136717  0.051211441            3 
  221000    1.2158138   -5.4623628    128.56049  0.048476806  0.051197981            2 
  222000     1.194794   -5.5353071    128.31594  0.048166643  0.051184984            6 
  223000    1.2068026   -5.5184169     128.9204  0.048176531  0.051171639            5 
  224000    1.2234577   -5.4979997    130.04727  0.048380682  0.051163436            1 
  225000     1.240766   -5.5049843    130.55111  0.048352262  0.051150525            3 
  226000    1.2260904   -5.5298358    130.57604  0.048147507  0.051138582            4 
  227000    1.2107289   -5.4872956    131.77949  0.048377198  0.051125314            3 
  228000      1.21088    -5.521746    132.20193  0.048319419  0.051110497            2 
  229000    1.2169087   -5.5291403    132.68568  0.048284453  0.051095478            3 
  230000    1.1847507   -5.5164054    132.89391  0.048149966  0.051079877            3 
  231000    1.2100381   -5.5028724    133.68339  0.048226331  0.051066183            5 
  232000     1.223417   -5.4823613    134.18353  0.048198109  0.051051949            2 
  233000    1.2207372   -5.4966151    134.10728  0.047963976  0.051035097            4 
  234000    1.2333761   -5.4547495    135.14798  0.048129623  0.051018003            1 
  235000    1.2380101   -5.5071643    135.26499  0.047966308   0.05100009            5 
  236000    1.1964696   -5.4951423    136.05787  0.048043033  0.050980386            2 
  237000    1.2346987   -5.5040341    136.00588   0.04782204  0.050958004            3 
  238000    1.2257517   -5.4731236    137.23191  0.048050388  0.050936084            3 
  239000    1.2323697   -5.4708889    137.09295   0.04780089  0.050912116            3 
  240000    1.1942027   -5.5054238    137.87966  0.047874883  0.050888378            1 
  241000    1.2009178   -5.4935528    138.88371  0.048023412  0.050863693            2 
  242000    1.2295936   -5.4840685    139.24225  0.047948432  0.050839247            1 
  243000    1.1996455   -5.4995073    139.74028  0.047921907  0.050819297            1 
  244000     1.213151   -5.5216815    140.19088  0.047879401  0.050796441            1 
  245000    1.2118519    -5.476072    141.90245  0.048266141  0.050778505            2 
  246000    1.2070677   -5.4991315    141.87412  0.048060337  0.050761765            5 
  247000    1.2098349   -5.5002178    142.43238  0.048054108  0.050745854            1 
  248000    1.2068979   -5.4952915    143.65924  0.048272594  0.050733852            3 
  249000    1.2240926   -5.5164951    143.91939  0.048165794  0.050723247            3 
  250000    1.2077109   -5.5292871    144.56524  0.048188414  0.050710853            2 
  251000    1.2092961   -5.5901615    144.73157   0.04805165  0.050695261            2 
  252000    1.1992928   -5.5304793    145.01897  0.047956008  0.050677484            3 
  253000    1.2495818   -5.4861952    146.04495  0.048104398  0.050661805            3 
  254000    1.2061916   -5.5000731    146.50192  0.048064933  0.050647553            3 
  255000    1.2097225   -5.5053573    147.33543  0.048148832  0.050634318            2 
  256000    1.2070898   -5.5337421    148.12652  0.048218267  0.050623285            5 
  257000    1.2160364   -5.5066507     148.8073  0.048251394  0.050612978            2 
  258000    1.2150912   -5.5187646    149.64592  0.048335246   0.05060346            1 
  259000    1.1790405   -5.5454234    150.30523  0.048360755  0.050593442            1 
  260000    1.2132991   -5.5071873    150.21959  0.048147304   0.05058351            2 
  261000    1.1861632   -5.4996589    150.74562  0.048130784  0.050573343            2 
  262000    1.2078013   -5.5088846    151.33206  0.048133606  0.050562405            2 
  263000    1.1962569   -5.4957844    151.80829  0.048101486  0.050552294            2 
  264000    1.2043477   -5.4764641    152.80519   0.04823396  0.050540203            2 
  265000    1.2051971   -5.5251845    153.17078  0.048166912  0.050528933            2 
  266000    1.2157798   -5.5365714    153.71971  0.048157804  0.050519569            3 
  267000    1.1738286   -5.5209338    154.48588  0.048216568  0.050507718            2 
  268000    1.2292026   -5.5521907    154.81881  0.048140176  0.050497853            2 
  269000    1.2328293   -5.5043937    156.42205  0.048457885  0.050488383            3 
  270000    1.2129356   -5.5356033    156.26769  0.048230767  0.050478392            1 
  271000    1.1827326   -5.4772204    157.40335  0.048402015  0.050469641            3 
  272000    1.2175674    -5.516273    158.01701  0.048412074  0.050461348            2 
  273000    1.1897694   -5.4953203    158.04405  0.048242995  0.050451731            1 
  274000    1.2165008   -5.5153135    158.11418  0.048088253  0.050439979            1 
  275000    1.1941685   -5.5294825     158.9772  0.048174908  0.050429527            2 
  276000    1.2091004   -5.4490374    160.31048  0.048402923  0.050421191            2 
  277000    1.2225621   -5.4734193    161.54423  0.048599346  0.050414698            2 
  278000    1.1990543   -5.5194798    161.84074  0.048513412   0.05040848            2 
  279000    1.2267397   -5.5173446    162.22183  0.048453353  0.050402971            2 
  280000    1.1889426   -5.5352347    162.15394  0.048260102  0.050394241            4 
  281000    1.2265003   -5.5534018    161.87975  0.048007044  0.050383999            2 
  282000    1.2184213   -5.5278062    162.07479  0.047894441  0.050371691            6 
  283000    1.2122434   -5.5311092    163.55637  0.048161476  0.050358826            1 
  284000    1.1913944   -5.4849755    164.11109  0.048154661  0.050346138            3 
  285000     1.209529   -5.5110395    165.31571  0.048337927  0.050335308            5 
  286000    1.2392016   -5.5164582     165.3776  0.048186945   0.05032437            5 
  287000    1.1946987   -5.4904276    166.69088  0.048400372   0.05031506            3 
  288000    1.1776179   -5.5421346    167.49433  0.048464796  0.050306221            3 
  289000    1.1998123   -5.5116031    166.82054  0.048102808  0.050297483            1 
  290000    1.1933969   -5.5431883    167.54783  0.048145928  0.050285937            4 
  291000    1.1773978   -5.5132411    168.15526  0.048154426  0.050273292            2 
  292000    1.1764882    -5.512706    168.80445  0.048174786  0.050261076            2 
  293000    1.2097351   -5.4886181    170.01799  0.048355514  0.050250361            2 
  294000    1.2191549   -5.5298272    169.98189  0.048180809  0.050240518            2 
  295000    1.2002387    -5.536256     170.4685  0.048154943  0.050232353            6 
  296000    1.2108252    -5.511862    172.16064  0.048468647  0.050224093            2 
  297000    1.2213774   -5.5418422    171.84303  0.048216339  0.050215751            3 
  298000    1.1775877   -5.5462182     172.5133  0.048241973   0.05020644            2 
  299000    1.2024848    -5.501543    173.34006  0.048311054  0.050197235            1 
  300000    1.2230541    -5.488069    174.51524  0.048476456  0.050190259            2 
  301000    1.2157688   -5.5184642    174.58199  0.048333884  0.050183605            3 
  302000    1.2138397    -5.565036     174.3837  0.048119121  0.050177505            2 
  303000    1.2080784   -5.5127862    176.23023  0.048468161  0.050170566            6 
  304000    1.2093521   -5.5404784     176.5059  0.048384293  0.050161283            2 
  305000    1.1871113   -5.5161382    176.80652  0.048307793  0.050152271            3 
  306000    1.1843876   -5.5138863    178.02096  0.048480653  0.050145144            3 
  307000    1.2037918   -5.4755589    178.87538  0.048554664  0.050138811            4 
  308000    1.2078052   -5.5015253     178.8026  0.048377327  0.050134373            1 
  309000    1.2260171   -5.5203587    179.54828  0.048421867  0.050129236            3 
  310000    1.1969625   -5.5277932    180.05161  0.048400969  0.050124761            2 
  311000    1.2117954   -5.4919425    181.23945  0.048563626  0.050118162            2 
  312000    1.1935446   -5.4797157    181.09634  0.048369748  0.050112202            2 
  313000    1.1935193   -5.4839527     182.2155  0.048513179  0.050106129            2 
  314000    1.1921426   -5.5532233    181.85106   0.04826196  0.050100566            2 
  315000    1.2020157    -5.554335    182.29485   0.04822615   0.05009213            3 
  316000    1.1976551   -5.5222525    182.78322  0.048202326  0.050082583            5 
  317000    1.1888116   -5.5259075    183.45656  0.048227276   0.05007278            3 
  318000    1.1972504   -5.5127126    183.58712  0.048109832  0.050061417            3 
  319000    1.1773797   -5.5099839    183.51861  0.047941121  0.050048492            3 
  320000    1.1704948   -5.5471957    183.98819  0.047913592  0.050034603            3 
  321000    1.1847666    -5.525647    185.13939  0.048063186  0.050021588            2 
  322000    1.1999886   -5.5072601    185.57846  0.048027552  0.050007758            1 
  323000    1.1798177   -5.5294637     185.6688  0.047902168  0.049993536            2 
  324000    1.2113846   -5.5093311    186.55193  0.047981462  0.049978243            1 
  325000    1.1961845   -5.5465851    186.98902  0.047945902  0.049963515            2 
  326000    1.1937329   -5.5152217    188.94093  0.048297783  0.049952732            2 
  327000    1.1956958   -5.5101804    189.80207   0.04836954  0.049941968            2 
  328000    1.1730112   -5.5306166    189.76071  0.048211563  0.049931668            3 
  329000    1.2220838   -5.5263875    189.93399  0.048108913  0.049920943            7 
  330000    1.1686323   -5.5118957    191.06421  0.048248539  0.049909526            3 
  331000     1.178399   -5.5094778     191.0675  0.048103601  0.049897689            2 
  332000    1.2112859   -5.5334117    190.81873  0.047896268   0.04988545            1 
  333000    1.2062972   -5.5318013    191.46199  0.047913411  0.049872549            2 
  334000    1.2291794   -5.5378849    191.88629  0.047875821  0.049860906            2 
  335000    1.2101276   -5.5304969    193.36119  0.048099799  0.049848704            1 
  336000    1.1868959   -5.5703631    193.63435  0.048024392  0.049839097            2 
  337000    1.1988487   -5.5076167    194.16329  0.048012682  0.049827352            4 
  338000    1.1785455   -5.5383532    194.86154  0.048042785   0.04981652            2 
  339000    1.2369734   -5.5352537    196.04792  0.048192705  0.049806641            2 
  340000    1.1720604   -5.5133968    196.89793  0.048259296  0.049798047            3 
  341000    1.2184101   -5.5321571    197.62192  0.048294703  0.049789529            1 
  342000    1.2080635   -5.5033077    197.15106  0.048038757  0.049780846            4 
  343000    1.2035601   -5.4827509    197.91627  0.048084615  0.049770563            3 
  344000    1.1993193   -5.5672815     198.3243  0.048043676  0.049759775            2 
  345000    1.1884768   -5.5693109     198.2168  0.047878454  0.049749327            2 
  346000    1.1899905   -5.5702348    198.32983    0.0477673  0.049737543            4 
  347000    1.2175347   -5.4605952    201.17465  0.048312836  0.049727477            2 
  348000     1.188077    -5.551544    200.77716  0.048078823  0.049717331            3 
  349000    1.2114676   -5.5575807    200.21874  0.047807723  0.049706942            2 
  350000    1.2099693   -5.5429163    201.41031  0.047954837  0.049696409            3 
  351000    1.1795487   -5.5529155    201.93373   0.04794248  0.049686368            2 
  352000    1.1787585   -5.5356354    203.12037   0.04808721  0.049678183            3 
  353000    1.1796453    -5.505337    203.73827  0.048096853  0.049669551            6 
  354000    1.1863512   -5.5188893    204.51507  0.048143848   0.04965891            2 
  355000    1.1814257   -5.5576057    204.50827  0.048006637   0.04964997            3 
  356000    1.1912901   -5.5574633    205.09804   0.04800984  0.049639254            2 
  357000    1.1817113   -5.5290496    206.06408   0.04810086  0.049629995            1 
  358000    1.2210278   -5.5713735    205.74513  0.047892256  0.049619821            1 
  359000    1.1922319   -5.5588582     205.6426   0.04773505  0.049608068            2 
  360000     1.182006   -5.5438215    206.89272  0.047891833   0.04959763            3 
  361000    1.1810607   -5.5486246     208.0688  0.048030655  0.049586771            3 
  362000    1.1872111   -5.5499121    208.19776  0.047927661  0.049577406            3 
  363000    1.1962268   -5.5286892    208.77834  0.047928911  0.049568768            2 
  364000    1.1898522   -5.5318282    209.19005  0.047891495  0.049557623            2 
  365000    1.1923923   -5.5455836    210.48869  0.048056778  0.049546375            2 
  366000    1.2143635   -5.5371353    210.50472  0.047929125  0.049537032            3 
  367000    1.1510447   -5.5106214    211.60362  0.048048052  0.049528078            3 
  368000    1.2032991   -5.5581412    210.86683   0.04775064  0.049518685            2 
  369000    1.1877578   -5.5427254     211.7199  0.047813889   0.04950707            2 
  370000    1.1974202   -5.5710243    212.30747  0.047816997  0.049494276            4 
  371000    1.1807469   -5.5457413     213.2841  0.047907481  0.049482704            2 
  372000    1.1686927   -5.5543858    213.65362  0.047861474  0.049471277            2 
  373000     1.183282   -5.5188307    214.62075   0.04794923  0.049461248            5 
  374000    1.1743055   -5.5427096    214.62272  0.047821462  0.049450193            2 
  375000    1.1766729   -5.5339049    214.78021  0.047728935  0.049440389            4 
  376000    1.1742816   -5.5739555    215.60657  0.047785145  0.049429087            5 
  377000    1.1934462   -5.4843365    216.15453  0.047779515  0.049417572            4 
  378000    1.1852695      -5.5613    216.50192    0.0477297   0.04940475            2 
  379000    1.1862021   -5.5749026    217.13503  0.047742969  0.049391686            2 
  380000    1.1847448   -5.5669548    216.79473  0.047542705  0.049378246            4 
  381000    1.1792332   -5.5948375    217.56887  0.047587241  0.049363701            1 
  382000    1.1602971   -5.5283697    218.55432  0.047677644  0.049347733            2 
  383000    1.2039636   -5.5259534    218.49826  0.047540962  0.049334049            2 
  384000    1.1684764   -5.5593256    219.15831  0.047560396  0.049319984            2 
  385000    1.1728759   -5.5577619    220.63946  0.047757459  0.049306514            2 
  386000    1.2025174   -5.5391954    220.63663  0.047633125  0.049294549            2 
  387000    1.1776614   -5.5671904    221.18029  0.047627109  0.049282667            3 
  388000    1.1922534   -5.5283998    222.18219  0.047719542  0.049271736            2 
  389000    1.1935557   -5.5544409    221.70819  0.047495328  0.049259626            3 
  390000    1.1641795   -5.5544697    222.49851  0.047542416  0.049247862            3 
  391000    1.1688367   -5.5777413    222.32968  0.047384841  0.049234313            2 
  392000    1.1984346    -5.536505     222.7976  0.047363435  0.049219207            1 
  393000    1.1843429   -5.5159524    224.06619  0.047511916  0.049205213            1 
  394000    1.2088312   -5.5101099      225.231  0.047637691  0.049191948            2 
  395000    1.1938301   -5.5492125    224.64303  0.047393045  0.049177132            8 
  396000    1.1839359    -5.582722    225.17003  0.047384265  0.049161913            6 
  397000    1.1977942   -5.5301124    226.67785  0.047581413  0.049148588            5 
  398000    1.1840853    -5.583689    226.65917  0.047457951  0.049134462            2 
  399000     1.200235   -5.5010891    228.32367  0.047686647  0.049122032            3 
  400000    1.1699822   -5.5864883    227.58039  0.047412581   0.04910889            2 
  401000    1.2197181   -5.5674242      227.835  0.047347258  0.049095847            2 
  402000      1.15522   -5.5469772    228.42073  0.047350897  0.049082825            3 
  403000    1.1870587   -5.5385908    230.47846  0.047658904  0.049071031            2 
  404000    1.1834721   -5.5427835    230.13732  0.047470569  0.049058775            2 
  405000    1.1759751   -5.5567465    231.11202  0.047553914  0.049045243            1 
  406000    1.1568532   -5.5684741    230.80436  0.047373637  0.049030658            2 
  407000    1.1672779   -5.5403923     232.3747  0.047578768    0.0490179            2 
  408000    1.2298944   -5.5423631    233.52527  0.047697154  0.049006531            2 
  409000    1.2003483   -5.5044893    234.68847  0.047817537  0.048995323            3 
  410000    1.1976908   -5.5007413    234.78632  0.047720797  0.048983698            1 
  411000     1.148763    -5.581723    233.73584  0.047391695   0.04897042            2 
  412000    1.1621034   -5.5701541    233.68782  0.047266955  0.048956214            1 
  413000     1.209072   -5.5628813    234.21317  0.047258509   0.04894145            2 
  414000    1.1713688   -5.5658342    235.09325  0.047321507  0.048927258            3 
  415000    1.1434955   -5.5413076    235.41648  0.047272385  0.048913182            3 
  416000    1.1937436   -5.5058133    236.76791  0.047429469  0.048899924            3 
  417000    1.1916998   -5.5417676    236.20796  0.047203828  0.048886434            3 
  418000    1.1958059   -5.5858789    235.21079  0.046892102  0.048869939            4 
  419000    1.1655946   -5.6038418    236.89065  0.047114291   0.04885364            4 
  420000    1.1750504   -5.5775458    237.90017  0.047202414  0.048837647            1 
  421000    1.1992035   -5.5787473    237.74223  0.047059031  0.048822566            2 
  422000     1.160386   -5.5438592     237.9679  0.046992082  0.048807027            2 
  423000    1.1926585   -5.5535177     240.0467  0.047290524  0.048792375            4 
  424000    1.1877711   -5.5614168    240.22984  0.047214984  0.048777893            1 
  425000    1.1784379   -5.5742833    240.06049  0.047070685  0.048762728            3 
  426000    1.2006678   -5.5678164    241.42497  0.047227107  0.048748294            1 
  427000     1.196047   -5.5817806    241.00977  0.047035474  0.048733753            3 
  428000    1.2050995   -5.5579376    242.17827  0.047153089  0.048720893            5 
  429000    1.1703357   -5.5935333    242.94462   0.04719204  0.048708699            2 
  430000    1.1910942   -5.5556798    244.14614  0.047315144  0.048695938            2 
  431000    1.1900395    -5.544864    244.41481   0.04725731  0.048684144            3 
  432000     1.183132    -5.591123    244.40882  0.047146763  0.048672834            2 
  433000    1.1725282   -5.5522406    246.13112  0.047369346  0.048660034            3 
  434000    1.1446321   -5.5775184    245.35273   0.04711074  0.048648141            5 
  435000    1.1930003   -5.5191118    247.11767  0.047340549  0.048636532            3 
  436000    1.1841629   -5.5991801    247.08977  0.047226638   0.04862558            3 
  437000    1.1773654   -5.5888014    248.02612  0.047297124  0.048614956            3 
  438000    1.1990848   -5.6002401    248.59707  0.047297768  0.048604222            2 
  439000    1.1650646   -5.5818034    248.72033  0.047213426   0.04859282            2 
  440000    1.1715808   -5.5790077    248.59833  0.047083018  0.048581413            2 
  441000    1.1611707   -5.5588634    250.78104  0.047388708  0.048570901            2 
  442000    1.1778044   -5.5509804    251.15078  0.047351203  0.048560587            2 
  443000    1.1790322   -5.5428181    252.34907  0.047469728  0.048552235            7 
  444000     1.196218   -5.5818871    253.36588  0.047553655  0.048544616            2 
  445000     1.170165   -5.5312517     253.5263  0.047476835  0.048536385            4 
  446000    1.1711897   -5.6235106    252.74858   0.04722507  0.048526768            2 
  447000    1.1745615   -5.5803205    253.21368   0.04720613  0.048517989            4 
  448000    1.1624222   -5.5577081    254.85396   0.04740587  0.048509788            3 
  449000    1.1919759   -5.5900928    255.40496  0.047402553  0.048502027            3 
  450000    1.1813349   -5.5673522    256.42769  0.047486609  0.048494171            2 
  451000    1.2071042   -5.5497462    257.49615  0.047578741  0.048487852            4 
  452000     1.181039   -5.5635835    257.84865  0.047538468  0.048480494            3 
  453000    1.1712771   -5.5672925    257.89956  0.047442892  0.048473486            2 
  454000     1.186835   -5.6077886    257.86076  0.047331271  0.048466472            2 
  455000     1.193176    -5.594925    258.40486  0.047326898  0.048458508            5 
  456000    1.1932944   -5.5451814     260.3985  0.047587445  0.048451627            2 
  457000    1.1543392   -5.5934159    259.79783  0.047373783  0.048445067            4 
  458000     1.203308   -5.5487006    261.61645  0.047601245  0.048438782            2 
  459000    1.1795649   -5.5915104    261.36875  0.047452569  0.048432077            2 
  460000    1.1872771    -5.546491     262.1051  0.047482808   0.04842472            3 
  461000    1.1664763   -5.5768098    262.63121  0.047474912   0.04841858            2 
  462000     1.199083     -5.52522    265.22302   0.04783965  0.048413166            3 
  463000    1.1744042   -5.5813892    262.57348  0.047259445  0.048407963            3 
  464000    1.1831927   -5.5566636    265.72399  0.047723417  0.048402761            4 
  465000    1.1902806   -5.5687504    265.69243  0.047615131  0.048397346            5 
  466000    1.1905296   -5.6084977    265.53961  0.047485624  0.048391603            3 
  467000    1.2019843   -5.6057958    266.25728  0.047512005  0.048386267            1 
  468000    1.1618407   -5.5893431    266.86295  0.047518331  0.048379935            3 
  469000    1.1998393   -5.5658443    267.34636  0.047502907  0.048372908            4 
  470000    1.1772342   -5.5805004    267.33023  0.047398977  0.048366468            2 
  471000     1.165672   -5.5688795    267.73761   0.04737042   0.04836011            2 
  472000    1.1654262   -5.5677066    268.07414  0.047329473  0.048353329            4 
  473000    1.1554966    -5.603615    268.62317  0.047326139  0.048346536            3 
  474000    1.1870653   -5.5713586    268.61642  0.047225108  0.048337451            2 
  475000    1.2020383   -5.5875113    269.15815  0.047220729  0.048328412            4 
  476000    1.1576864   -5.5266656    269.90006  0.047251411  0.048319791            4 
  477000    1.1880523   -5.5589318    270.74875  0.047300621  0.048311004            3 
  478000      1.18195   -5.6095283    269.83033  0.047041549  0.048301364            2 
  479000    1.1796727     -5.58485    270.51035  0.047061647  0.048291265            2 
  480000    1.1721192   -5.5382046    270.92669  0.047035884  0.048280303            2 
  481000     1.175747   -5.5828965     271.4161  0.047022886  0.048269918            2 
  482000    1.1854925   -5.5812152    273.27264  0.047246307  0.048259298            3 
  483000     1.144234   -5.5451228    272.75108  0.047058503  0.048247979            1 
  484000    1.1838633   -5.5397641    273.38459   0.04707035  0.048236794            4 
  485000    1.1810128   -5.5869353    273.00225  0.046907603  0.048224875            2 
  486000    1.1762816   -5.6331147    273.23998  0.046851848  0.048212483            2 
  487000    1.1920392   -5.5971147    274.00718  0.046886923  0.048200337            4 
  488000    1.1520739   -5.6089148    274.08772  0.046804597  0.048188018            2 
  489000     1.183242   -5.6234202    275.05191  0.046873195  0.048176384            2 
  490000    1.1671418   -5.6108714    275.93074  0.046926996  0.048165624            2 
  491000    1.1783937   -5.5718316    276.91909  0.046999167  0.048154307            2 
  492000    1.1619928   -5.6233607    276.35261  0.046807692  0.048143806            5 
  493000    1.1730921   -5.5622308    277.45782  0.046899564  0.048132327            4 
  494000    1.1642116   -5.6506056    277.11472  0.046746747  0.048121153            2 
  495000    1.1833328   -5.5628072    277.95379  0.046793567  0.048109357            3 
  496000    1.1971897    -5.565305    279.74724  0.047000545  0.048096407            1 
  497000     1.155991   -5.5424239    279.07722  0.046793633  0.048084462            2 
  498000    1.1596507   -5.5729293    279.95201  0.046846052  0.048073171            1 
  499000    1.1627514   -5.5613951    279.75443  0.046719177  0.048060598            2 
  500000    1.1744377   -5.5729595    280.50152  0.046750254  0.048048492            4 
  501000    1.1628733    -5.585956    281.18094   0.04676995  0.048036614            2 
  502000    1.1842399   -5.5912349    280.73183  0.046602229  0.048024099            3 
  503000     1.212806   -5.5802284    281.51499  0.046639328  0.048011971            3 
  504000    1.1471431   -5.6253005    281.68784   0.04657537  0.047998747            3 
  505000    1.1777906    -5.604801    283.03824  0.046705981  0.047986153            4 
  506000    1.1484226    -5.619138    283.38518  0.046670813  0.047973303            3 
  507000    1.1894115     -5.57703    283.56143  0.046607729  0.047960725            2 
  508000    1.1826574    -5.569871    284.68111  0.046699658  0.047948012            2 
  509000    1.1877207   -5.5650701    286.19893  0.046856406   0.04793536            4 
  510000    1.1771818   -5.6257371    283.79342  0.046371474  0.047922424            2 
  511000    1.1806592   -5.6218924    284.99371   0.04647647  0.047908873            2 
  512000    1.1602428   -5.6327734    285.29267  0.046434354  0.047894173            3 
  513000    1.1685531   -5.5762113    286.86946  0.046599977  0.047879919            3 
  514000    1.1560221   -5.5901524    287.26328  0.046573164  0.047866221            4 
  515000    1.1583709   -5.5873235    287.50041  0.046521102  0.047852724            2 
  516000    1.1619712   -5.6059051    288.38555  0.046573894  0.047839949            3 
  517000    1.1699494   -5.6129074    288.91017  0.046568371  0.047827219            3 
  518000    1.1785155   -5.5898788    289.65857  0.046598868  0.047814871            4 
  519000    1.1830337   -5.5824578    289.84572  0.046539132  0.047802361            3 
  520000     1.174078   -5.5640479    290.77145  0.046597989  0.047790464            6 
  521000    1.1891491   -5.5884897    290.81973  0.046516272  0.047778151            2 
  522000    1.1579076   -5.5799597    291.41994  0.046522979  0.047766526            2 
  523000    1.1938286   -5.5998218    291.11907  0.046386085   0.04775428            4 
  524000    1.2112934   -5.5982614      292.702    0.0465493  0.047741114            1 
  525000    1.1556414   -5.5628859    292.61745  0.046447214  0.047728434            3 
  526000    1.1502264   -5.5631295    293.32282  0.046470662   0.04771563            7 
  527000    1.1420789   -5.5781739     295.4991  0.046726614  0.047703527            2 
  528000    1.1795069   -5.5737661    294.39883  0.046464461  0.047692214            3 
  529000    1.1636639   -5.6156568    294.72825   0.04642852  0.047681086            3 
  530000    1.1639256   -5.5860158    296.21188  0.046574195  0.047669009            3 
  531000    1.1709674   -5.5952341    296.23838  0.046490644  0.047657537            5 
  532000    1.1515352   -5.5840548    297.13997  0.046544482  0.047646489            4 
  533000    1.1967887   -5.5925484    297.41198  0.046499685  0.047634902            2 
  534000    1.1481675     -5.58043     297.9075  0.046489934  0.047623286            4 
  535000    1.1874366   -5.5993355    297.30377  0.046308998  0.047610982            3 
  536000    1.1589659   -5.6281801    297.29734  0.046221601  0.047598798            2 
  537000    1.1780014   -5.5800706    300.91462  0.046696868  0.047587367            3 
  538000     1.174403   -5.5861233     302.1093  0.046795121  0.047576536            3 
  539000    1.1611102    -5.626433    300.53114  0.046464307  0.047565384            3 
  540000    1.1566735   -5.6218111    301.11874  0.046468942  0.047554727            2 
  541000    1.1930766   -5.6355243     301.9524   0.04651146  0.047544462            1 
  542000     1.159464   -5.6238641    301.70922  0.046388257  0.047533708            3 
  543000    1.1645968   -5.6101883    302.96178  0.046495055  0.047521702            3 
  544000    1.1732474   -5.6277783    303.88343  0.046550771  0.047511458            5 
  545000    1.1902122   -5.6327778    302.82983  0.046304255  0.047500289            4 
  546000    1.1790823    -5.573379    305.02605  0.046554647  0.047489375            3 
  547000    1.1656826   -5.6203578    305.99626  0.046617347  0.047478794            1 
  548000    1.1502509   -5.5646974    305.99251  0.046531707  0.047469436            3 
  549000    1.1860566   -5.5890769      308.411  0.046814056  0.047460016            1 
  550000    1.1619644   -5.5896129    306.28806  0.046407282  0.047450821            4 
  551000    1.1384907   -5.5981828    307.20456   0.04646167  0.047440789            3 
  552000     1.183819   -5.6073535    307.36462  0.046401664  0.047431452            2 
  553000    1.1563009   -5.6069132     309.1929  0.046593264  0.047422285            5 
  554000    1.1663586   -5.5741933    310.07166  0.046641345  0.047414068            3 
  555000    1.1445124   -5.6713664    308.89736  0.046380986  0.047404967            4 
  556000    1.1423731   -5.6195526    311.52279  0.046691065  0.047395915            4 
  557000    1.1657515   -5.5933231     312.1284  0.046697846  0.047388805            3 
  558000    1.1570053   -5.6187064    313.12296  0.046762688  0.047382431            2 
  559000    1.1817563   -5.5669765     313.9036  0.046795408  0.047375499            1 
  560000    1.1478747   -5.5806668    314.30061  0.046770924  0.047370035            1 
  561000    1.1295617   -5.6204083    314.48299  0.046714644  0.047363915            1 
  562000     1.152628   -5.6164483    316.00932  0.046857848  0.047357746            1 
  563000    1.1738806   -5.6262575    315.47246  0.046695154  0.047352018            6 
  564000    1.1645746   -5.6507873    315.50665  0.046617412  0.047346122            3 
  565000    1.1646722   -5.5772864    316.89658  0.046739909  0.047340499            2 
  566000    1.1596201   -5.6106277    317.47305  0.046742204  0.047334049            5 
  567000    1.1570141   -5.6133956     317.0683  0.046600279  0.047327798            3 
  568000    1.1595313   -5.6116955    318.54327  0.046734634  0.047322093            3 
  569000    1.1582408    -5.597513     319.5043  0.046793249  0.047316525            3 
  570000    1.1362853   -5.6034882    319.64685  0.046731995  0.047311152            4 
  571000    1.1832112   -5.6309166    320.09998  0.046716285    0.0473049            3 
  572000    1.1282226   -5.5767065    320.07087  0.046630372  0.047298479            2 
  573000     1.158424   -5.6189415    320.29378  0.046581411  0.047291874            1 
  574000    1.1590993   -5.6201891    320.56047  0.046538977  0.047285315            4 
  575000    1.1631768   -5.6050453    321.51741  0.046596727  0.047278604            3 
  576000    1.1685366   -5.5817734    323.68037  0.046828757  0.047272718            2 
  577000    1.1655044    -5.579432    324.26735  0.046832373  0.047266864            4 
  578000    1.1955543    -5.619906    323.12506  0.046586658  0.047260782            2 
  579000    1.1775301   -5.6502889    323.88945  0.046616214  0.047253403            4 
  580000    1.1566627     -5.61048    324.69466  0.046651532  0.047246016            1 
  581000    1.1576575   -5.5801131    325.71883  0.046718134  0.047239266            2 
  582000    1.1539116   -5.6112546    326.47336  0.046745899  0.047232852            4 
  583000     1.152496   -5.5941259    326.91182  0.046728391   0.04722726            2 
  584000    1.1267017   -5.5820305    327.38334  0.046715659  0.047221721            2 
  585000    1.1392912   -5.6308513     327.9081  0.046710556  0.047216335            2 
  586000    1.1827308   -5.5932847    328.55937   0.04672346  0.047211378            3 
  587000    1.1642811   -5.6512167    329.52832   0.04678142  0.047207113            3 
  588000    1.1809197   -5.6251959    329.28618  0.046667543  0.047202075            2 
  589000    1.1687698   -5.6155338    330.50292  0.046760459  0.047197289            2 
  590000    1.1892166    -5.581066    331.87838  0.046875477  0.047192368            8 
  591000    1.1431029   -5.5909883    333.82754  0.047071001  0.047188722            2 
  592000    1.1469104   -5.6008859    332.38165  0.046787958  0.047185385            5 
  593000    1.1279823    -5.608509    335.01169  0.047078652  0.047181919            1 
  594000     1.167563     -5.59944    334.47102  0.046923543  0.047178376            7 
  595000    1.1497838   -5.6579051    333.28118  0.046678036  0.047175193            2 
  596000    1.1744641   -5.6466377    335.12524  0.046857556  0.047171563            2 
  597000    1.1575282   -5.6014585    335.88834  0.046885586  0.047168233            2 
  598000    1.1598583   -5.6160665    337.20703  0.046990946  0.047164824            6 
  599000    1.1602483   -5.5992286    337.68873  0.046979512  0.047161897            3 
  600000     1.172817   -5.6222568    338.99906  0.047083202  0.047159334            2 
  601000    1.1532873   -5.6464167    337.56418  0.046805904  0.047155779            3 
  602000    1.1456189   -5.6187349    338.38642  0.046841974   0.04715259            2 
  603000    1.1357924   -5.5931648     340.8128  0.047099612  0.047149529            1 
  604000    1.1734732   -5.6327139    340.30457  0.046951514   0.04714682            2 
  605000    1.1390816   -5.6401497    339.03936  0.046699636  0.047143465            3 
  606000    1.1328839   -5.6008605    342.26982  0.047066806  0.047140244            2 
  607000    1.1610313   -5.6279764    340.96479  0.046810103  0.047137094            1 
  608000    1.1414217   -5.6431217    340.35535  0.046649582  0.047133407            6 
  609000    1.1563814   -5.6857647    341.91894  0.046786938  0.047130641            3 
  610000    1.1739412   -5.6124805    343.92711  0.046984577  0.047126835            2 
  611000    1.1467693    -5.595567    345.44356  0.047114506  0.047123131            2 
  612000    1.1273528   -5.6051317    343.88662   0.04682552    0.0471205            3 
  613000    1.1616883   -5.6272567    344.32566  0.046808817  0.047117484            4 
  614000    1.1471394   -5.6324724    344.04368   0.04669431  0.047114224            5 
  615000    1.1478714   -5.6460493    344.64014  0.046699206  0.047110504            4 
  616000     1.141891   -5.6255728    346.10292  0.046821282  0.047106314            2 
  617000    1.1570778   -5.6368428    345.52816  0.046667769  0.047102031            2 
  618000    1.1649295   -5.6261857    345.79337  0.046628016  0.047097041            2 
  619000    1.1620888   -5.6747368    346.88463    0.0466996  0.047091813            2 
  620000    1.1504485   -5.6162519    346.83989  0.046618265  0.047086872            2 
  621000    1.1641269   -5.5886118    348.82165  0.046809131    0.0470831            2 
  622000    1.1287327   -5.6556526    347.89967  0.046610352  0.047078932            2 
  623000    1.1499817   -5.6248422    349.60929  0.046764217  0.047073953            2 
  624000    1.1927021   -5.6172749    347.78878  0.046446152  0.047069977            3 
  625000    1.1525707   -5.6335281    351.17522  0.046823362  0.047065946            3 
  626000    1.1552101   -5.6350535    351.33583  0.046769945  0.047061422            3 
  627000     1.146259   -5.6439947    350.75448  0.046618087   0.04705623            2 
  628000    1.1477368   -5.6229456    352.05751  0.046716761   0.04705175            4 
  629000     1.149444   -5.6619244     351.2171  0.046531147  0.047046712            2 
  630000    1.1496621   -5.6343951    352.07697  0.046571028  0.047041604            2 
  631000    1.1286583   -5.5979724    353.68546  0.046709649  0.047036539            1 
  632000     1.156891   -5.6748234     352.8753  0.046528916  0.047030697            3 
  633000    1.1569249    -5.650804    353.08945  0.046483604   0.04702495            4 
  634000    1.1251504   -5.6493639     353.9457  0.046522831  0.047019139            2 
  635000    1.1325477   -5.6182009    354.45235  0.046516057  0.047013649            2 
  636000    1.1490324   -5.6491331    353.76699  0.046353117  0.047007123            2 
  637000    1.1200943   -5.6318454    355.39892  0.046493841  0.047000893            3 
  638000    1.1691505   -5.6290262     355.0207  0.046371565  0.046994639            3 
  639000    1.1587936   -5.6144781    355.44169  0.046353898  0.046988429            2 
  640000    1.1491819   -5.6155956    356.96609   0.04647996  0.046981568            3 
  641000    1.1698143   -5.6391179    356.44272  0.046339407  0.046975213            3 
  642000    1.1654391   -5.6256868    358.75413  0.046567255  0.046969366            4 
  643000    1.1329402   -5.6290411    358.51691  0.046464089  0.046963772            2 
  644000    1.1680866   -5.5964349    360.35179  0.046629373  0.046957695            3 
  645000    1.1433321   -5.6315232    360.77813  0.046612162  0.046952784            4 
  646000    1.1718684   -5.6448754    360.02831   0.04644328  0.046947721            4 
  647000    1.1485791   -5.6446493    360.61182  0.046446653  0.046942365            1 
  648000    1.1723871   -5.6215049    362.18515  0.046577308  0.046937422            3 
  649000    1.1343822   -5.6025688    361.00462  0.046353958  0.046931898            5 
  650000    1.1320425   -5.6237267    362.12664  0.046426492  0.046925571            4 
  651000    1.1294608   -5.6438488    362.05348  0.046345811  0.046919356            2 
  652000    1.1385606   -5.6598477    363.72323  0.046488143    0.0469134            8 
  653000    1.1513127   -5.6261917    363.57853  0.046398485  0.046907125            3 
  654000    1.1660681   -5.6380723    365.04848  0.046514842  0.046901457            4 
  655000    1.1432213   -5.6563477     365.4397    0.0464936  0.046896576            5 
  656000    1.1618193   -5.6015757    366.14814  0.046512721  0.046890989            2 
  657000    1.1657017   -5.6021116    365.86219  0.046405655  0.046885204            2 
  658000    1.1403653    -5.661559    367.58192  0.046552927  0.046879092            7 
  659000    1.1355916   -5.6325299    366.36668  0.046328615  0.046873112            4 
  660000    1.1552894   -5.6814169    365.22139  0.046113812   0.04686617            2 
  661000    1.1353326   -5.6279329    366.44472  0.046198275  0.046858855            3 
  662000    1.1312821   -5.6309298    366.61509  0.046149936  0.046851635            2 
  663000     1.150921    -5.633401    367.39221  0.046178006  0.046844195            1 
  664000    1.1580612   -5.6334015    368.13643  0.046201861  0.046837094            3 
  665000    1.1496751   -5.6687954    369.02976  0.046244331  0.046829979            4 
  666000    1.1514279   -5.6431328    369.64644  0.046252057  0.046823273            2 
  667000    1.1285738    -5.636627    369.96928  0.046223048  0.046815978            3 
  668000      1.16004   -5.6004322     370.8284  0.046261028  0.046809135            8 
  669000    1.1243808   -5.6435249    371.00243  0.046213557  0.046802196            4 
  670000    1.1302579   -5.6490422    370.41512  0.046071532  0.046794574            1 
  671000    1.1529939   -5.6354257    372.82355  0.046301981  0.046787232            2 
  672000    1.1496445   -5.6195594    372.54961  0.046199109  0.046779602            5 
  673000    1.1293534   -5.6303705    371.97705  0.046059566  0.046772236            1 
  674000    1.1453328   -5.6319749    373.31628   0.04615681  0.046765229            2 
  675000    1.1191143   -5.6539881    373.66606  0.046131612  0.046757544            3 
  676000    1.1344642   -5.6368836    373.11931   0.04599597   0.04675085            1 
  677000    1.1425641   -5.6670758    373.75404   0.04600616  0.046743972            3 
  678000    1.1509534   -5.6787203    376.41588  0.046265472  0.046737637            3 
  679000    1.1361317   -5.6330615    376.33061   0.04618687  0.046730927            4 
  680000    1.1259501   -5.6314425    376.09263  0.046089783  0.046724577            2 
  681000    1.1596268   -5.6438327    378.63534  0.046333253  0.046717972            3 
  682000    1.1475557   -5.6629932    378.06632  0.046195787  0.046711331            2 
  683000    1.1324579   -5.6394253    378.59244  0.046192342  0.046704197            6 
  684000    1.1239316   -5.6154991    380.80078  0.046393858  0.046697393            2 
  685000    1.1616301   -5.6348605    379.66384  0.046187815  0.046690294            6 
  686000    1.1335953   -5.6386557    380.30198  0.046198005   0.04668393            2 
  687000     1.169242   -5.6279918    380.52283  0.046157548   0.04667749            2 
  688000    1.1445779   -5.6838079    380.06624  0.046035154  0.046670366            2 
  689000    1.1385838   -5.6674409    380.59743  0.046032587  0.046662855            2 
  690000    1.1512365    -5.646443    381.87669  0.046120373  0.046656007            2 
  691000    1.1742983   -5.6621144    380.94036   0.04594071  0.046648887            4 
  692000    1.1446837   -5.6506851    382.87529  0.046107333  0.046641887            5 
  693000    1.1252826   -5.6648971     382.8575   0.04603866  0.046634999            2 
  694000    1.1298541   -5.6343157    382.99565  0.045988911  0.046627953            4 
  695000    1.1484772   -5.6510487     383.3283  0.045962626  0.046620574            2 
  696000    1.1359243   -5.6281658    383.07767  0.045866579   0.04661356            3 
  697000    1.1414435   -5.6743334    384.59713   0.04598244  0.046606601            4 
  698000    1.1237995   -5.6027529    387.12702  0.046218603  0.046600562            2 
  699000    1.1792305    -5.610273     387.7635  0.046228362  0.046593592            2 
  700000    1.1201257   -5.6198912    388.61945   0.04626422  0.046587756            3 
  701000    1.1224666   -5.6939386    386.48702  0.045944724  0.046581179            4 
  702000    1.1657393   -5.6689361    387.30351    0.0459762  0.046574247            3 
  703000    1.1297586   -5.6262278    389.65543  0.046189595  0.046567212            5 
  704000    1.1051021   -5.6102491    388.53042  0.045990816  0.046560544            2 
  705000    1.1229835   -5.6364646    389.84987  0.046081545   0.04655382            2 
  706000    1.1520194   -5.6479781    388.46906  0.045853288  0.046546183            2 
  707000    1.1595984   -5.6646522    388.84977  0.045833306   0.04653858            2 
  708000    1.1479825     -5.65822    388.98816  0.045784858  0.046531027            3 
  709000    1.1210088   -5.6369901    390.26127  0.045869919  0.046523267            6 
  710000     1.143089   -5.6811023    389.85022  0.045757068  0.046515025            3 
  711000    1.1265113   -5.6537576    390.63714  0.045784943  0.046506333            2 
  712000    1.1148178    -5.655696    391.58563  0.045831652  0.046497793            2 
  713000     1.150675   -5.6530873     390.7594  0.045670804    0.0464895            3 
  714000    1.1409948   -5.6517773    392.63751   0.04582604  0.046480499            4 
  715000    1.1530122   -5.6445138    392.69396  0.045768526  0.046472058            2 
  716000    1.1196095   -5.6791276    393.16968  0.045759973  0.046464108            3 
  717000    1.1342231   -5.6782894    394.59795  0.045862151  0.046455946            3 
  718000    1.1184978   -5.6538139    394.54714  0.045792379    0.0464483            5 
  719000     1.138056   -5.6503759    393.96203  0.045660875  0.046440168            2 
  720000    1.1259411   -5.6601348     395.1685  0.045737095  0.046431494            2 
  721000    1.1262177   -5.6263214    396.22372  0.045795622   0.04642296            4 
  722000    1.1580181   -5.6711765    395.83695  0.045687552  0.046415138            2 
  723000    1.1063663   -5.6578044    396.56537  0.045708319    0.0464069            5 
  724000    1.1290812   -5.6250362    397.96724  0.045806543  0.046398836            2 
  725000    1.1547256   -5.6546549    399.08899  0.045872298  0.046391584            2 
  726000    1.1385592   -5.6359927     399.5393  0.045860802   0.04638431            7 
  727000     1.141842   -5.6724727    400.15674  0.045868493   0.04637659            2 
  728000    1.1323554   -5.6700207     399.6289  0.045745067  0.046368635            2 
  729000    1.1294116    -5.648663     400.6194  0.045795542  0.046361424            2 
  730000    1.1531114   -5.6156546     402.2844  0.045922876  0.046354386            2 
  731000    1.1242233   -5.6914585    399.40399  0.045531691   0.04634653            3 
  732000     1.137142   -5.6392874    402.30171  0.045799375  0.046338959            4 
  733000    1.1152639    -5.671352    400.79891  0.045566043    0.0463312            3 
  734000    1.1301642   -5.6647018    402.14641   0.04565695  0.046323142            3 
  735000    1.1367551   -5.6867563    401.17757  0.045484985  0.046314649            2 
  736000     1.130883   -5.6609689    402.66762  0.045591895  0.046306206            1 
  737000     1.139979   -5.6451281     404.0419  0.045685425  0.046297536            2 
  738000    1.1387177   -5.6645352    404.02728   0.04562187  0.046289275            3 
  739000    1.1349447   -5.6813129    404.69376  0.045635291  0.046280362            2 
  740000    1.1476743    -5.733354    403.96698  0.045491777  0.046271629            2 
  741000    1.1546825   -5.6373577     407.0601  0.045778239  0.046263446            7 
  742000    1.1317901   -5.6774538    404.61475  0.045441908  0.046255111            4 
  743000    1.1373926   -5.6785535    404.41501  0.045358345  0.046246783            2 
  744000    1.1104624   -5.6712055    405.57086  0.045426843  0.046238292            2 
  745000    1.1358399   -5.6260031     407.5024  0.045581924  0.046229984            3 
  746000    1.1076972    -5.671362    407.57113    0.0455285  0.046221365           10 
  747000     1.138218   -5.6147533     410.2739  0.045769065  0.046213178            3 
  748000     1.153322    -5.693118    409.12023  0.045579348  0.046205188            4 
  749000     1.144632   -5.6996943    408.85678  0.045489183  0.046196793            6 
  750000    1.1104441   -5.6920227    409.09026  0.045454473  0.046188754            3 
  751000    1.1321856   -5.6819887    409.29148  0.045416276  0.046180613            3 
  752000    1.1027179   -5.6899945     411.0809  0.045554178  0.046172561            3 
  753000    1.1340669   -5.7029783    411.00978   0.04548581  0.046164022            1 
  754000     1.141311   -5.6689093    412.41227  0.045580489  0.046156308            3 
  755000     1.119106   -5.7196194    410.64559   0.04532512  0.046147862            3 
  756000    1.1480833   -5.6509551    412.59301  0.045479829  0.046139545            3 
  757000    1.1330592   -5.6656671    413.06782  0.045472019  0.046131571            5 
  758000    1.1333255   -5.6662133    412.69987  0.045371577  0.046122994            2 
  759000    1.1337911   -5.6824139    414.29899  0.045487372  0.046114437            3 
  760000    1.1556815   -5.6313625    414.92649  0.045496326  0.046106312            4 
  761000     1.132457   -5.7065922    412.44232  0.045164511  0.046097492            3 
  762000    1.1146702   -5.6670841    414.32717   0.04531137  0.046088454            2 
  763000    1.1285007   -5.6758316    416.49849  0.045489132  0.046079577            1 
  764000    1.1418604   -5.6907871    415.80464  0.045353909  0.046071256            3 
  765000    1.1233679   -5.6881206    416.50184  0.045370571  0.046062565            4 
  766000    1.1185805   -5.6711804    417.47703  0.045417432  0.046053743            2 
  767000    1.1404988   -5.6821436    415.65802  0.045160585  0.046044589            3 
  768000    1.1175306   -5.7360662    415.89873    0.0451279  0.046034652            3 
  769000    1.1385033   -5.6575703    418.97097  0.045402142  0.046025998            3 
  770000    1.1366035   -5.6790599    419.99023  0.045453488  0.046017526            7 
  771000    1.1427024   -5.7234808    419.18809  0.045307835  0.046009025            3 
  772000    1.1315093   -5.6597509    419.88478   0.04532435  0.045999772            2 
  773000     1.130681   -5.6898322    419.52621   0.04522706  0.045990858            3 
  774000    1.1334407   -5.6414562    422.47061  0.045485639  0.045981856            5 
  775000    1.1387098   -5.6824286    421.93641  0.045369506  0.045973687            6 
  776000     1.142044   -5.7102518    420.47433  0.045154031  0.045965165            3 
  777000    1.1325513   -5.7080212    420.94364   0.04514625  0.045956704            4 
  778000    1.1354361   -5.6606539    423.00109    0.0453086   0.04594814            3 
  779000    1.1287666    -5.651059    423.82189  0.045338242  0.045939625            2 
  780000    1.1197956   -5.6876402    423.38396   0.04523333  0.045930924            4 
  781000     1.107378   -5.6457441    425.03774  0.045351872  0.045922532           17 
  782000      1.13612   -5.6679862    424.49678   0.04523623   0.04591462            2 
  783000    1.1716539   -5.6674248    426.26549  0.045366697  0.045906682            3 
  784000    1.1395323   -5.7257675    424.86957  0.045160456  0.045898013            3 
  785000    1.1305061   -5.6697512    426.89013  0.045317423  0.045889146            2 
  786000    1.1221396   -5.6936299    424.73199  0.045030957  0.045879521            5 
  787000    1.1312293   -5.7067342    426.23696  0.045133096  0.045870169            3 
  788000    1.1482897   -5.6944057    424.67286  0.044910412  0.045860947            2 
  789000    1.1023316    -5.660563    429.20947  0.045332644  0.045851705            4 
  790000    1.1011623   -5.6554148    428.78331  0.045230307   0.04584286            3 
  791000     1.120044   -5.6768175    428.65755  0.045159877  0.045834704            3 
  792000    1.1152377   -5.6789687    427.58603  0.044990113  0.045825361            3 
  793000    1.1047519   -5.6671613    427.98575  0.044975383  0.045815896            6 
  794000    1.1318514   -5.7096035    429.52047  0.045079815  0.045807211            3 
  795000    1.1417023   -5.6957502     429.0764  0.044976562  0.045797873            4 
  796000    1.1108942   -5.6818703    432.12862  0.045239596  0.045788655            3 
  797000    1.1202447   -5.7466187    429.95812  0.044955889  0.045778821            2 
  798000    1.1616862   -5.7067915    429.91415  0.044894961  0.045768744            5 
  799000    1.1349595   -5.6740954    431.86755  0.045042506  0.045759467            5 
  800000    1.1252459   -5.7259663    431.92688  0.044992383  0.045750682            3 
  801000    1.1513745   -5.7056616    432.10012  0.044954236  0.045741871            3 
  802000    1.1274824   -5.7127628    433.05841  0.044997756   0.04573298            2 
  803000     1.137378   -5.7146477    433.72805  0.045011213  0.045723712            1 
  804000    1.1308412   -5.6833662    433.35636  0.044916704   0.04571457            4 
  805000    1.1129465   -5.6914261    434.07661  0.044935467  0.045705535            2 
  806000    1.1198607   -5.7060177    434.52163  0.044925727  0.045696375            3 
  807000    1.1329084   -5.7080657    435.40729  0.044961513  0.045687058            3 
  808000    1.1089422   -5.6577356    437.41066  0.045112485  0.045678158            3 
  809000    1.1287727   -5.7251435    435.62151  0.044872426   0.04566973            8 
  810000     1.129952   -5.7308877    435.63839  0.044818765  0.045660765            3 
  811000    1.1302462   -5.7168954    437.86747  0.044992547  0.045651549            3 
  812000    1.1127857    -5.682037    438.74122  0.045026809  0.045642575            3 
  813000    1.1032927   -5.6911542    437.29391  0.044823074   0.04563324            7 
  814000    1.1119335   -5.7311872    435.58521   0.04459308  0.045623981            4 
  815000    1.1426967   -5.6821679    439.66176   0.04495519  0.045614911            3 
  816000     1.131318   -5.6884697    440.25348  0.044960527  0.045605732            6 
  817000    1.1205656   -5.7032681    438.94414  0.044771944   0.04559634            4 
  818000    1.1285146   -5.6971809    440.34546  0.044859969  0.045586833            3 
  819000    1.1087333   -5.6689415    440.28951  0.044799502  0.045577571            2 
  820000     1.129281   -5.6776023    441.07885  0.044825086  0.045567691            4 
  821000    1.1341714   -5.7269137    439.00103  0.044559585  0.045557784            3 
  822000    1.0938506   -5.7109376     440.4444  0.044651704  0.045547568            2 
  823000    1.1366746   -5.7055249    441.18847   0.04467279  0.045536846            4 
  824000    1.1237098   -5.7120258    441.46679  0.044646723  0.045526855            3 
  825000    1.1082065   -5.7280075    442.82931  0.044730234   0.04551661            2 
  826000    1.1118237   -5.7085069    441.60893  0.044552959  0.045506473            2 
  827000    1.1056679    -5.702532    442.86595  0.044625751  0.045496561            6 
  828000    1.0933429   -5.6941296    443.54399  0.044640096  0.045486456            2 
  829000    1.1232366   -5.6636452     444.4303  0.044675341  0.045475753            3 
  830000    1.1362058   -5.7072673    444.67113  0.044645696  0.045465448            3 
  831000    1.1265013    -5.674069    445.57323  0.044682434  0.045455124            1 
  832000    1.1207368   -5.6925045    443.64124   0.04443522  0.045444831            2 
  833000     1.125464   -5.6882648    446.27685  0.044645543  0.045434574            2 
  834000    1.1154058   -5.6804181    445.47461  0.044511852  0.045423924            5 
  835000    1.1415132   -5.6825015    447.09428  0.044620188  0.045413655            3 
  836000    1.1299012   -5.6443518    448.15652    0.0446727  0.045402808            4 
  837000    1.1550466   -5.7081321    447.59643  0.044563563  0.045392357            3 
  838000    1.1093679   -5.6957776    447.67895  0.044518591  0.045381587            3 
  839000     1.103617   -5.6906156    447.82302  0.044479839    0.0453712            2 
  840000    1.1209882   -5.7164796     447.4774  0.044392599   0.04535977            2 
  841000    1.0976116   -5.7149249    447.46623  0.044338707  0.045348579            4 
  842000    1.1282203   -5.7018779    449.52674  0.044489978  0.045337585            2 
  843000    1.1338369   -5.6816517    449.25707  0.044410544    0.0453265            1 
  844000    1.1065398   -5.7149973    448.95068  0.044327674  0.045314891            4 
  845000    1.1218604   -5.7026583    449.09348  0.044289298  0.045303742            1 
  846000    1.1374933   -5.7352539     450.1585  0.044341854  0.045292299            2 
  847000    1.1136147   -5.7398092    449.49841  0.044224559  0.045280859            2 
  848000    1.1201927    -5.711119    449.69091  0.044191324  0.045269672            2 
  849000    1.1441113   -5.7365901    451.02625  0.044270343  0.045258141            2 
  850000    1.1271332   -5.7077203    451.07324  0.044222867  0.045246536            3 
  851000    1.0976389   -5.7285301    452.18386  0.044279657   0.04523455            2 
  852000    1.1182032   -5.7210538    454.16973  0.044421922  0.045223026            7 
  853000    1.1139074   -5.7055937    453.01098  0.044256641  0.045212365            4 
  854000    1.1322167   -5.7085976    452.96834  0.044200657  0.045201274            2 
  855000    1.1018422   -5.6488287    456.84134  0.044526447  0.045190031            3 
  856000    1.0936313   -5.7155119    455.94726  0.044387389  0.045179563            4 
  857000    1.1048792   -5.6982416    456.73657  0.044412347   0.04516907            5 
  858000    1.1301919   -5.6999696     455.1273  0.044204283  0.045158745            3 
  859000    1.0706192   -5.7454114    456.12081  0.044249205  0.045147958            5 
  860000    1.1085924   -5.7138785    457.79644  0.044360121  0.045137267            2 
  861000    1.1261137   -5.6847618    459.47086   0.04447066  0.045126737            3 
  862000     1.099017    -5.705707    457.93088  0.044270193  0.045116289            4 
  863000    1.0858509   -5.6904111    458.80593  0.044303392  0.045105846            4 
  864000    1.1332107   -5.7066124    459.91203  0.044358799  0.045096072            4 
  865000    1.1058958   -5.6762589    460.60131  0.044373922  0.045085853            4 
  866000    1.1214397   -5.6900942    459.82414  0.044247897  0.045075331            3 
  867000    1.1137881   -5.7014936    461.28497  0.044337271  0.045065301            3 
  868000    1.1132407   -5.7088703    460.69631  0.044229677  0.045055079            1 
  869000    1.1209018   -5.7342561    460.28059  0.044138913  0.045044644            4 
  870000    1.1299462   -5.7429028    459.74338  0.044036723  0.045033623            5 
  871000    1.0853263    -5.695033    462.44566  0.044244705  0.045022761            1 
  872000    1.1121796   -5.6961649    461.54369  0.044107768   0.04501245            4 
  873000    1.1012454   -5.7191748     459.7903  0.043889872   0.04500159            2 
  874000    1.0963276   -5.7114816    463.48803  0.044192223  0.044990467            2 
  875000    1.0662414   -5.7444349    462.96247  0.044091663  0.044979632            3 
  876000    1.1322079   -5.6930092    463.73539  0.044114858  0.044968711            3 
  877000    1.1279586   -5.7170993    464.78473  0.044164265  0.044957976            1 
  878000    1.1135227   -5.7038355     463.4113  0.043983609  0.044947348            2 
  879000    1.1185637   -5.6962067    467.17867  0.044290734  0.044936686            1 
  880000    1.1258989   -5.6864712    465.47838  0.044079392  0.044926302            4 
  881000    1.1037442   -5.7366882    464.70454  0.043956162  0.044915084            3 
  882000    1.1182524    -5.751928    463.94647  0.043834701  0.044903634            5 
  883000    1.1295341   -5.7288476    466.04441  0.043983051  0.044892215            5 
  884000     1.126459   -5.7280692    464.91399  0.043826733  0.044880906            6 
  885000    1.1357295   -5.7055533    466.96833  0.043970652  0.044869812            3 
  886000    1.1288306   -5.7182557    467.49308   0.04397038   0.04485849            3 
  887000     1.105983   -5.7282482    467.64788  0.043935351  0.044846783            2 
  888000    1.1356109   -5.7639376     466.7009  0.043797007  0.044835323            3 
  889000    1.1124689   -5.7388519    465.44853  0.043630346  0.044823685            4 
  890000     1.104415    -5.724363    468.77169  0.043892481  0.044811868            5 
  891000    1.1041045   -5.6844336    467.95664  0.043766989  0.044800282            3 
  892000    1.0941846   -5.6703205    469.30664  0.043844044  0.044788422            3 
  893000    1.1081942   -5.6765927     470.0883  0.043867889   0.04477681            2 
  894000    1.0926879   -5.7409571    469.47429  0.043761585  0.044765134            2 
  895000    1.1285229   -5.7406984    471.17428  0.043870975  0.044753585            3 
  896000    1.1082439   -5.7854714    469.79939   0.04369414   0.04474163            4 
  897000    1.0937826   -5.7210106    472.20904   0.04386929  0.044729711            2 
  898000    1.1049268   -5.6986454     472.5804    0.0438549   0.04471826            3 
  899000    1.1200019   -5.7134487    473.00699  0.043845661   0.04470711            7 
  900000    1.1140142   -5.7297222     473.5522  0.043847426  0.044695411            5 
  901000    1.1026729   -5.7535511    472.41024  0.043693141  0.044683636            4 
  902000    1.1205365   -5.7359986    473.52539  0.043747727  0.044671927            3 
  903000    1.0927356    -5.744375    472.80196  0.043632517  0.044660262            3 
  904000     1.094556   -5.7252055    473.76131  0.043672687  0.044648486            6 
  905000     1.106541   -5.7393237    472.07139   0.04346882  0.044636312            1 
  906000     1.089577   -5.6950318    475.27948   0.04371592  0.044624364            3 
  907000    1.1187294   -5.7291704    474.39488  0.043586446  0.044612466            5 
  908000    1.1114733   -5.7503139    474.79277   0.04357496  0.044600282            2 
  909000    1.0943954    -5.722807    474.18365  0.043471181  0.044588195            2 
  910000    1.1409002   -5.7226291    475.51592  0.043545414  0.044576071            2 
  911000    1.1099765    -5.748683    476.26597  0.043566225  0.044564016            3 
  912000    1.0896383   -5.7127134    477.93815  0.043671249  0.044551911            5 
  913000     1.101307   -5.7061918    477.38098  0.043572561   0.04453981            3 
  914000     1.119983   -5.6974085    477.85908  0.043568479  0.044527765            3 
  915000    1.1049164   -5.7135664    476.81556  0.043425825  0.044515277            3 
  916000    1.1088363   -5.7249386    478.65392  0.043545662  0.044502695            2 
  917000    1.0899271   -5.6925099    481.04026  0.043715036  0.044490808            5 
  918000    1.0915488    -5.722142    478.07728  0.043398446  0.044478308            3 
  919000    1.1125447     -5.80096     477.0929  0.043261961  0.044466113            1 
  920000    1.0956731   -5.7125922    480.53123  0.043526379  0.044453661            2 
  921000    1.1246662    -5.734791    480.52465  0.043478524  0.044441868            5 
  922000    1.0911247   -5.7639572    481.02153  0.043476277  0.044429905            3 
  923000    1.1248284   -5.7343775    480.52136  0.043384016  0.044417212            3 
  924000    1.1289274   -5.7105194     482.0832  0.043477923  0.044405208            2 
  925000    1.1023487   -5.7435086    481.61722  0.043388939  0.044393165            3 
  926000    1.1052574   -5.7299927    481.63698   0.04334386  0.044381054            2 
  927000    1.1055309   -5.7540763    482.07644  0.043336609  0.044368566            2 
  928000    1.1145706   -5.7239769    484.69896  0.043525409  0.044356106            3 
  929000    1.0818206   -5.7511629    484.36439  0.043448545  0.044343733            3 
  930000    1.0888273   -5.7636762    483.13971  0.043292089   0.04433185            8 
  931000    1.0874257    -5.723208    484.85717  0.043399317  0.044319888            4 
  932000    1.1120502   -5.7721438     484.7787  0.043345735  0.044308382            3 
  933000    1.0968841    -5.722127    486.21162  0.043427262  0.044296885            4 
  934000    1.0823351   -5.7362522    484.85026  0.043259302  0.044285421            4 
  935000    1.1101295   -5.7438618    484.98154  0.043224736  0.044273604            3 
  936000     1.087768   -5.7162618    487.65655  0.043416716  0.044261711            3 
  937000    1.0865877   -5.7260444    486.59216  0.043275717  0.044250015            2 
  938000    1.0993391   -5.7838031    486.31696  0.043205131  0.044238243            1 
  939000    1.1210175   -5.7039839    488.40232  0.043344189  0.044226073            5 
  940000    1.1266939   -5.6914817     489.0559   0.04335602  0.044214719            2 
  941000    1.0930695   -5.7804399    485.19337  0.042967886  0.044202789            3 
  942000    1.0979155   -5.7121514    488.96588  0.043256005  0.044190525            3 
  943000    1.1046854   -5.7322419    490.51024   0.04334661  0.044178552            6 
  944000    1.1294304   -5.7782925    487.94068  0.043073859  0.044166577            6 
  945000    1.1155841   -5.7203315    490.70756  0.043272271   0.04415468            2 
  946000    1.0917982   -5.7104658    491.06325  0.043257862  0.044142584            3 
  947000     1.098597   -5.7643179    488.00488  0.042943055  0.044130382            5 
  948000    1.0891837   -5.7544214    490.64239  0.043129606  0.044118268            3 
  949000    1.1025797   -5.7695134    489.67399  0.042999121  0.044106588            4 
  950000    1.0914735   -5.7467091    493.53521  0.043292562  0.044094533            3 
  951000    1.0912294   -5.7487932    492.53478  0.043159375  0.044082674            4 
  952000    1.1127784    -5.770018    492.20459  0.043085136  0.044070725            3 
  953000    1.1022454   -5.7743856    493.19692  0.043126698   0.04405901            3 
  954000    1.0872699   -5.7611768    494.99993  0.043238987  0.044047393            4 
  955000    1.0984975   -5.7265325      493.865  0.043094677  0.044036029            3 
  956000    1.1044526   -5.7314536    495.15829  0.043162333  0.044024182            2 
  957000    1.0977138   -5.7332026    495.54987   0.04315133  0.044012394            5 
  958000    1.1043071   -5.7409023    496.57123  0.043195131  0.044000421            3 
  959000    1.0889801   -5.7393262    494.21367  0.042945227   0.04398881            8 
  960000    1.0868722   -5.7783344    496.38679  0.043089131  0.043977207            3 
  961000    1.1030829   -5.7482621    498.71618  0.043246287  0.043965829            2 
  962000      1.10591   -5.7253782    498.26343  0.043162113  0.043954652            5 
  963000    1.0837818   -5.7416934     497.5795  0.043058108    0.0439437            3 
  964000    1.1115751   -5.7511533    498.17291   0.04306474  0.043932292            4 
  965000    1.0988492    -5.765561    498.20971  0.043023291  0.043920606            4 
  966000     1.092247   -5.7183701    498.60107  0.043012515  0.043909036            3 
  967000     1.106283    -5.721858    500.28364  0.043113034  0.043897709            6 
  968000    1.0651636   -5.7677674    497.31766  0.042813159  0.043885882            4 
  969000    1.0947636    -5.742452    499.53961  0.042960063  0.043874012            3 
  970000    1.0916727   -5.7182687    502.25228  0.043148821  0.043862216            6 
  971000    1.0973079   -5.7533597    500.36809  0.042942678  0.043850764            2 
  972000    1.1007221   -5.7904112    501.14214  0.042964861  0.043839431            4 
  973000    1.1009051    -5.793602    501.32513  0.042936377  0.043827447            4 
  974000    1.0706122   -5.7834539    500.53373  0.042824583   0.04381538            1 
  975000    1.0932099   -5.7588659    501.12381  0.042831095   0.04380351            2 
  976000    1.1009782   -5.7484188     504.2788  0.043056592  0.043791991            3 
  977000    1.0835191   -5.7515099    504.25758  0.043010711  0.043780494            5 
  978000    1.1010011   -5.8028112    502.37194  0.042806062  0.043768931            3 
  979000    1.1193176   -5.7652246    506.64122  0.043125742  0.043757411            5 
  980000    1.0759142   -5.7476349    504.71001  0.042917518  0.043746211            1 
  981000    1.1001532   -5.7386935     507.2657  0.043090868  0.043735369            5 
  982000    1.1160128   -5.7524422    505.94927  0.042935274   0.04372476            3 
  983000    1.1145381   -5.7744738    507.08792  0.042988125  0.043713846            3 
  984000    1.1184339   -5.7513786    506.97879  0.042935195   0.04370287            3 
  985000     1.097371   -5.7424974     507.9103  0.042970415  0.043691798            4 
  986000    1.0811845   -5.7378139    507.97519  0.042932319  0.043681322            2 
  987000    1.0653032   -5.7588303    509.02807  0.042977716  0.043670353            2 
  988000    1.0946788   -5.7559603    508.61716  0.042899558   0.04365933            3 
  989000    1.1090795   -5.7575271    509.86989  0.042961736  0.043648535            3 
  990000    1.0899834   -5.7477585    509.56439  0.042892625  0.043637235            3 
  991000    1.0827889   -5.7486621    508.64634  0.042772144  0.043626506            4 
  992000     1.076982   -5.7485681    509.96298  0.042839632  0.043615721            2 
  993000    1.0781664   -5.7761326    509.67796  0.042772571  0.043604702            2 
  994000    1.0843403   -5.7584157    509.40817  0.042706923  0.043593454            2 
  995000    1.0646718   -5.7276064     510.4343  0.042749942  0.043582333            3 
  996000    1.0770713   -5.7656154    511.21839  0.042772623  0.043571072            2 
  997000    1.0877454   -5.7490023    512.19611  0.042811444  0.043560363            3 
  998000    1.1086169   -5.7526271    513.75369  0.042898605  0.043549553            6 
  999000    1.1027037   -5.7593176    513.73017  0.042853701  0.043538803            2 
 1000000    1.0916308   -5.7297028    514.44321  0.042870268  0.043527988            4 
 1001000    1.0831424   -5.7670921    512.73885  0.042685552  0.043516989            2 
 1002000     1.107985   -5.8199158    512.63899  0.042634647  0.043505873            4 
 1003000      1.11154   -5.7715482    514.23436  0.042724689  0.043494506            2 
 1004000    1.1108775   -5.7707161    513.75624  0.042642451  0.043482984            4 
 1005000     1.073998   -5.7371659    516.26304  0.042807881  0.043471639            2 
 1006000    1.0946842   -5.7623251    515.91765  0.042736717  0.043460692            3 
 1007000    1.0689695    -5.779072    515.75391  0.042680728  0.043450465            2 
 1008000     1.094987   -5.7582972    518.30436  0.042849236  0.043440178            2 
 1009000    1.0669286    -5.738566    518.20353  0.042798441   0.04342974            3 
 1010000    1.0736668   -5.7481511    521.27183  0.043009227  0.043419242            2 
 1011000    1.0914679   -5.7322483    520.05138  0.042866088  0.043409316            2 
 1012000     1.082826   -5.7489038    520.32672  0.042846403  0.043399129            4 
 1013000     1.084488   -5.7740411    517.65992  0.042584725  0.043388697            1 
 1014000    1.1037616   -5.7925733    520.35899  0.042764546  0.043378426            4 
 1015000    1.0795037   -5.7699215    521.41515  0.042809125  0.043368168            1 
 1016000    1.0680292   -5.7804221     521.2385  0.042752501    0.0433581            3 
 1017000    1.1170972   -5.8133327    520.60348   0.04265843  0.043347641            3 
 1018000    1.0854531   -5.7772675    521.15618   0.04266177  0.043337439            5 
 1019000    1.0817794    -5.792911    522.54327  0.042733339  0.043327335            3 
 1020000     1.074568   -5.7960624     521.2118  0.042582663  0.043317007            6 
 1021000    1.0824806   -5.7872432     522.7581  0.042667164   0.04330694            4 
 1022000    1.1090819   -5.7640641    525.08003  0.042814745  0.043296777            2 
 1023000    1.0854927   -5.7790085      525.901  0.042839769  0.043286672            4 
 1024000    1.1171889   -5.7766111    524.14859  0.042655321    0.0432761            2 
 1025000    1.0748953   -5.7660862    526.11879  0.042773886  0.043266093            2 
 1026000    1.0826983    -5.757611    526.17193  0.042736512  0.043256438            3 
 1027000    1.0904461   -5.7431657    526.47222  0.042719265  0.043246754            2 
 1028000    1.0877417   -5.7797253    526.36606  0.042669103   0.04323707            4 
 1029000    1.1075931   -5.7723884    526.78565  0.042661617   0.04322689            7 
 1030000    1.1036158   -5.8122243    525.91938  0.042550112  0.043216584            2 
 1031000    1.0965606   -5.7340215    530.01214  0.042839649  0.043206392            3 
 1032000    1.0953368   -5.7900957    528.48607  0.042674909  0.043196433            5 
 1033000    1.1045865   -5.8211318    526.50052   0.04247342  0.043186471            5 
 1034000    1.0659285   -5.7696365     527.5469  0.042516674  0.043176268            6 
 1035000    1.0849456   -5.7866982    527.61871  0.042481377  0.043166255            4 
 1036000    1.0755427   -5.7398754    531.67696  0.042766808  0.043156568            3 
 1037000    1.0666078   -5.7866502    530.98549  0.042670001  0.043146638            6 
 1038000    1.0861936   -5.7510484    531.26875  0.042651634  0.043136941            5 
 1039000    1.0721598   -5.7579093    531.11453  0.042598214  0.043127238            2 
 1040000    1.0745861   -5.7760917    532.09925  0.042636158  0.043117388            7 
 1041000    1.0813905   -5.8034096    531.59171  0.042554571  0.043107302            4 
 1042000     1.069875    -5.782154    530.89055  0.042457658  0.043097208            4 
 1043000    1.0912375   -5.8515445    531.14297  0.042437118  0.043087105            4 
 1044000    1.0766266   -5.7585377    535.46855  0.042741742  0.043076876            5 
 1045000    1.0758547   -5.7482111    533.93929  0.042578891   0.04306662            6 
 1046000     1.062809   -5.8004458    532.13381  0.042394344  0.043056216            3 
 1047000    1.0953089   -5.7476464    533.84915  0.042490381  0.043045635            2 
 1048000    1.1144771   -5.7714099    534.35446  0.042490017  0.043034989            4 
 1049000    1.0911654   -5.7966711     532.5714  0.042307865  0.043024116            3 
 1050000    1.0883576    -5.773426    533.40358  0.042333617  0.043013257            7 
 1051000     1.078684   -5.7821534    532.43874  0.042216836  0.043002616            2 
 1052000    1.0721307   -5.7893259    534.32238  0.042325918  0.042991678            2 
 1053000    1.0716213   -5.7862744    535.00839  0.042340012  0.042980746            6 
 1054000    1.0936806   -5.7345951    536.82253  0.042443274  0.042970119            3 
 1055000    1.0676439    -5.770398     535.9958  0.042337741  0.042959548            2 
 1056000    1.0979097   -5.8213399     532.1179  0.041991627  0.042948277            3 
 1057000    1.0821039   -5.7899702    534.45542  0.042136189  0.042936703            3 
 1058000    1.0826605   -5.7704328    534.66512   0.04211288  0.042925249            3 
 1059000    1.0976297   -5.7619719    536.46744  0.042214939  0.042914198            3 
 1060000    1.0988147   -5.7625104    536.85437  0.042205532  0.042902928            4 
 1061000    1.0816642   -5.8017804    534.14163  0.041952689  0.042891824            2 
 1062000    1.0959212   -5.7856049    537.61529  0.042185757   0.04288096            4 
 1063000    1.1146507   -5.7564739    538.87647  0.042244941  0.042869728            1 
 1064000     1.064562    -5.765752    537.80101  0.042121007  0.042858468            4 
 1065000    1.0765805   -5.7588416    538.44238  0.042131642  0.042847022            3 
 1066000    1.0673619   -5.7304047    538.26295  0.042078092  0.042835796            4 
 1067000    1.0760138   -5.7945185    537.46644  0.041976448  0.042824312            3 
 1068000    1.1000393   -5.7684403    537.77888  0.041961523  0.042812682            4 
 1069000    1.0754827   -5.7559421    538.94689  0.042013322  0.042801203            2 
 1070000    1.0580612   -5.7614764    538.64247  0.041950348  0.042789736            5 
 1071000    1.0509199    -5.794463    538.94179  0.041934469  0.042778227            4 
 1072000    1.1196636   -5.8190421    537.35819  0.041772247  0.042766945            3 
 1073000    1.0872944    -5.816035    539.56485  0.041904695  0.042755535            6 
 1074000    1.0560826   -5.7876259    539.26907  0.041842728  0.042744316            4 
 1075000    1.0789971   -5.7822307    541.51207   0.04197768  0.042733015            2 
 1076000    1.0921229    -5.755815    544.44605  0.042165896  0.042721739            2 
 1077000    1.0878333   -5.8136716    539.51155  0.041744936  0.042710299            2 
 1078000    1.0724556   -5.7796089    541.05938  0.041825864  0.042698608            1 
 1079000    1.0792295   -5.8293973    542.86344  0.041926432   0.04268701            8 
 1080000     1.100532   -5.7820768    543.35201  0.041925309  0.042675265            3 
 1081000    1.0778888   -5.7817201    542.56361  0.041825748  0.042663577            4 
 1082000    1.0703563   -5.7656536    543.27117  0.041841587  0.042652164            3 
 1083000    1.0937568   -5.7859085    543.04682  0.041785689   0.04264053            3 
 1084000    1.0610873   -5.8276024    542.57438  0.041710822  0.042628689            5 
 1085000    1.0754648   -5.7749747    543.56206  0.041748238  0.042616777            4 
 1086000    1.0921943   -5.8175271    542.41796  0.041622004   0.04260499            2 
 1087000    1.0693719    -5.785929    547.02808  0.041937142  0.042592905            2 
 1088000    1.0837824   -5.8284629    544.45641  0.041701625  0.042580697            2 
 1089000    1.1165064   -5.7981556    545.24589  0.041723744  0.042568336            4 
 1090000    1.0744103   -5.7920048    546.18049  0.041756918  0.042556177            3 
 1091000    1.0993432   -5.8001139    548.02674  0.041859666  0.042544154            6 
 1092000    1.0747438   -5.8033894    546.22019   0.04168347  0.042532347            3 
 1093000    1.0807667   -5.7919374    547.90429  0.041773734  0.042520722            4 
 1094000    1.0982462    -5.774357    546.49675  0.041628332  0.042509482            6 
 1095000    1.0781084   -5.7920105    546.72645  0.041607797  0.042497531            4 
 1096000    1.0706252   -5.7679048    550.92029  0.041888708  0.042485955            3 
 1097000    1.0828247   -5.7760802    548.41884  0.041660501   0.04247449            3 
 1098000    1.0629725   -5.7987517    548.09144  0.041597711  0.042463063            3 
 1099000    1.0595381   -5.8092304     549.5879  0.041673332  0.042451338            4 
 1100000    1.0701741   -5.8037209    550.44313  0.041700237  0.042439678            1 
 1101000    1.0774703   -5.7908051    550.92714  0.041698997   0.04242847            5 
 1102000    1.0756743   -5.7875611    553.07306  0.041823431  0.042417176            2 
 1103000    1.0678914   -5.8244193    550.06466  0.041558225  0.042406194            4 
 1104000    1.0821522   -5.7865825    551.20964  0.041607008  0.042394856            2 
 1105000    1.0768688   -5.8204529    551.77627  0.041612087  0.042383884            5 
 1106000    1.0741421   -5.8060446    550.96264  0.041513159  0.042372767            4 
 1107000     1.070142   -5.7918431     554.9387   0.04177497   0.04236179            3 
 1108000     1.092203   -5.7731482    551.89424  0.041508291  0.042350582            3 
 1109000    1.0902304   -5.7986955    554.07934  0.041635057  0.042339122            3 
 1110000    1.0750414   -5.8292485    554.83793  0.041654499  0.042327684            3 
 1111000    1.0369104   -5.8085403    556.17207  0.041717077  0.042316312            4 
 1112000     1.063528   -5.7847948    558.00772  0.041817125  0.042305223            4 
 1113000    1.0799479   -5.7688943    558.18322  0.041792694  0.042294462            5 
 1114000    1.0768694   -5.7828963    556.81108  0.041652534   0.04228337            5 
 1115000    1.0701609   -5.8053315    557.88865  0.041695713  0.042272635            2 
 1116000    1.0759177   -5.8141194    559.22113   0.04175785  0.042262109            3 
 1117000    1.0613496    -5.829437    558.62554  0.041676032  0.042251505            3 
 1118000    1.0789879      -5.7692    561.99404  0.041889836   0.04224107            4 
 1119000    1.0730237    -5.808928    560.21251  0.041719728  0.042230846            3 
 1120000    1.0609538   -5.7451833    562.95609  0.041886614  0.042221049            2 
 1121000    1.0586783   -5.8054221    560.54706  0.041670165  0.042211085            2 
 1122000     1.070073   -5.8117778    560.77165  0.041649706  0.042200836            3 
 1123000    1.0663419   -5.7883419    563.10264  0.041785592  0.042190503            6 
 1124000    1.0900912    -5.818118    561.42837  0.041624286  0.042180162            8 
 1125000    1.0665626   -5.7964292    563.20585  0.041718951  0.042170006            5 
 1126000    1.0760996    -5.819351    562.72599  0.041646388  0.042159377            4 
 1127000    1.0701829   -5.8473218    562.03468  0.041558317  0.042149049            3 
 1128000    1.0723607   -5.8113927    562.57674   0.04156152  0.042138415            4 
 1129000    1.0616565   -5.7994545    563.65804   0.04160452  0.042127944            2 
 1130000    1.0753791   -5.7982789    563.73357  0.041573272  0.042117638            4 
 1131000    1.0494143   -5.7954703    565.35936  0.041656304  0.042107309            3 
 1132000    1.0733176   -5.7893796    564.11513   0.04152791  0.042097078            4 
 1133000    1.0687493   -5.7912473    563.98169  0.041481442  0.042086518            3 
 1134000    1.0765989   -5.8172675    564.64767  0.041493803  0.042075997            3 
 1135000    1.0559886   -5.8124925    565.57855  0.041525591  0.042065317            4 
 1136000    1.0707313   -5.8167848     565.0721  0.041451886  0.042055106            4 
 1137000    1.0608506   -5.8081558    565.90806  0.041476698  0.042044947            8 
 1138000    1.0629824   -5.7966691    566.86517  0.041510337  0.042034867            2 
 1139000    1.0525597    -5.838417    567.13362  0.041493534  0.042024494            2 
 1140000     1.058112    -5.830402    567.71005  0.041499273  0.042014278            2 
 1141000    1.0852921    -5.821427    566.60253  0.041382013  0.042004061            3 
 1142000    1.0847474   -5.8107932    568.31436  0.041470692   0.04199396            8 
 1143000    1.0902104   -5.8534843    567.86032  0.041401306  0.041983514            2 
 1144000    1.0326998   -5.7919258    571.38769  0.041622064  0.041973182            3 
 1145000    1.0633164   -5.8095012    568.83667  0.041400049  0.041962899            5 
 1146000    1.0544109   -5.7675829     571.1844  0.041534642  0.041952523            3 
 1147000    1.0651268   -5.8261103    570.61579  0.041457119  0.041942413            4 
 1148000    1.0971369   -5.7852106    571.61609  0.041493618  0.041932278            3 
 1149000    1.0597891   -5.7876753    572.37324   0.04151242  0.041921993            3 
 1150000    1.0859224   -5.8594427    570.87271  0.041367588  0.041911833            3 
 1151000    1.0878159    -5.836235     572.3455  0.041438278  0.041901505            2 
 1152000    1.1032972   -5.7997757    573.69093  0.041499633  0.041891381            1 
 1153000    1.0648261   -5.8122363    573.84278  0.041474616  0.041881494            2 
 1154000    1.0657006   -5.8376822    572.97624  0.041376101  0.041871538            4 
 1155000    1.0468554   -5.7916076    575.25453  0.041504656  0.041861615            6 
 1156000    1.0754374   -5.8041158    575.35153  0.041475745  0.041851702            6 
 1157000    1.0703327   -5.8216365     573.5366  0.041309176  0.041841608            5 
 1158000    1.0564792   -5.7807197    573.11964  0.041243498  0.041831752            4 
 1159000    1.0683107   -5.8611325    572.92473  0.041193898  0.041821407            5 
 1160000    1.0723204    -5.818464    574.51316  0.041272497  0.041811286            2 
 1161000    1.0443146   -5.8087019    577.20355  0.041430056  0.041801042            2 
 1162000    1.0520498   -5.8114004     575.4193  0.041266444  0.041790771            5 
 1163000    1.0905922   -5.8226959    575.05048  0.041204534  0.041780902            6 
 1164000    1.0718504   -5.8209797     575.8887  0.041229145  0.041770714            8 
 1165000    1.0611646   -5.8442175    575.25724  0.041148587   0.04176056            4 
 1166000    1.0550713   -5.7522586    580.08401  0.041458262  0.041750945           11 
 1167000     1.062707   -5.8358952    578.01301  0.041274851  0.041741369           11 
 1168000    1.0795146   -5.8250609    578.55786  0.041278386  0.041731301            5 
 1169000    1.0704817   -5.8567132     578.3724  0.041229854  0.041721302            3 
 1170000    1.0734258   -5.8303254    580.54112  0.041349083  0.041711218            3 
 1171000    1.0734355   -5.8886748    576.87703   0.04105302    0.0417008            7 
 1172000    1.0656776   -5.8426385    578.79996  0.041154718  0.041690605            3 
 1173000    1.0639926   -5.8301304    581.61748  0.041319799  0.041680821            2 
 1174000    1.0309057   -5.7965486    581.81383   0.04129854   0.04167092            2 
 1175000    1.0587818   -5.7957462    582.65758  0.041323233  0.041661009            5 
 1176000    1.0952317   -5.8469804     580.5687  0.041140072  0.041650769            2 
 1177000    1.0622614   -5.8701041     579.9123  0.041058645  0.041640405            2 
 1178000    1.0451759   -5.8022576     581.6808  0.041148897   0.04163024            3 
 1179000    1.0539304   -5.8157579    583.19362  0.041220923  0.041620284            3 
 1180000    1.0362253   -5.8098976    583.61165  0.041215512  0.041610404            4 
 1181000    1.0769111   -5.8158842    583.53886  0.041175477  0.041600562            2 
 1182000    1.0724206    -5.827764    583.80038   0.04115908  0.041590467            5 
 1183000    1.0914685   -5.8118789    583.94169  0.041134241  0.041580486            5 
 1184000    1.0715888    -5.828759     585.6392  0.041218975  0.041570625            7 
 1185000     1.059297   -5.7908198    586.48304  0.041243533    0.0415609            5 
 1186000    1.0690261    -5.841447    585.44857  0.041136071  0.041550848            1 
 1187000    1.0747147   -5.8135253    586.22997  0.041156274   0.04154098            3 
 1188000    1.0695115   -5.8083365    586.25615  0.041123467   0.04153128            2 
 1189000    1.0680215    -5.783438    586.84261  0.041129984  0.041521312            1 
 1190000    1.0502915   -5.8081262    587.25396  0.041124227  0.041511182            1 
 1191000    1.0818495     -5.84748    585.83586  0.040990474   0.04150105            2 
 1192000    1.0541152   -5.8301735    585.77625  0.040951919    0.0414908            5 
 1193000    1.0607538    -5.810882    588.19575  0.041086599  0.041480777            1 
 1194000    1.0877298   -5.8340088    586.96365  0.040966196  0.041470629            2 
 1195000    1.0582471   -5.8455021    587.15868  0.040945514  0.041460458            1 
 1196000    1.0565636   -5.8314247    588.71166  0.041019486  0.041450209            5 
 1197000     1.059601   -5.7849138    591.39418   0.04117197  0.041439735            3 
 1198000    1.0812428   -5.8598522    588.29968  0.040922348  0.041429136            3 
 1199000    1.0608719   -5.8526386    588.85112  0.040926544  0.041418657            5 
 1200000    1.0482945   -5.8145352    590.99781  0.041041514  0.041408389            4 
 1201000    1.0581117    -5.834836    589.90429  0.040931466  0.041398044            3 
 1202000    1.0721393   -5.8396503    588.89693  0.040827574  0.041387511            1 
 1203000    1.0623241   -5.8505046    589.86976  0.040861025  0.041376955            4 
 1204000    1.0783322   -5.8383707    589.10525  0.040774173  0.041366354            4 
 1205000    1.0468814   -5.8233064    590.73215  0.040852846  0.041355799            3 
 1206000    1.0541194    -5.836215    592.05544  0.040910409  0.041345775            4 
 1207000    1.0579033   -5.8250751     593.3229  0.040964023  0.041335516            3 
 1208000     1.071804   -5.8215143    593.45543  0.040939254  0.041325562            4 
 1209000    1.0638853    -5.868963    590.93529  0.040731685  0.041315053            4 
 1210000    1.0482402   -5.7746255    593.15424  0.040850843  0.041304556            2 
 1211000    1.0755105   -5.8226348    594.10314  0.040882407  0.041294455            3 
 1212000    1.0673155   -5.8081347     593.1622   0.04078398  0.041284079            4 
 1213000    1.0763494    -5.859656    592.00048  0.040670547  0.041273608            8 
 1214000    1.0233831   -5.8230187      594.266  0.040792559  0.041263141            6 
 1215000    1.0477331   -5.8600665    593.83633  0.040729515  0.041252645            7 
 1216000    1.0365003   -5.8300051    594.54261  0.040744422  0.041242013            6 
 1217000     1.046075   -5.8378552    593.29711  0.040625658  0.041231494            2 
 1218000    1.0539937   -5.8001698    595.97731  0.040775678  0.041221005            2 
 1219000    1.0540863   -5.8463865    594.32775  0.040629461  0.041210762            4 
 1220000    1.0661914   -5.7981829     595.7233  0.040691482  0.041200235            6 
 1221000    1.0575351   -5.8684207    597.03245  0.040747505   0.04118988            4 
 1222000    1.0671035   -5.8263388    597.68052  0.040758355  0.041179455            3 
 1223000    1.0662674   -5.8296695    597.32231  0.040700621  0.041169238            3 
 1224000    1.0616268   -5.8494842    597.97509  0.040711812  0.041159186            5 
 1225000    1.0746175   -5.8166769    596.38476  0.040570392  0.041148836            5 
 1226000    1.0822075   -5.8311931    599.39811  0.040742123  0.041138508            4 
 1227000    1.0631326   -5.8514378    597.36454  0.040570805  0.041128191            1 
 1228000    1.0538071   -5.8441446    600.64514  0.040760392  0.041118056            2 
 1229000     1.063885   -5.8475604    598.52135  0.040583221  0.041107848            2 
 1230000    1.0469449   -5.8650556    598.14793  0.040524927  0.041097218            2 
 1231000    1.0527684   -5.8610163    601.15095  0.040695298   0.04108685            3 
 1232000    1.0342859   -5.8418599    601.25316   0.04066918  0.041076744            3 
 1233000     1.036366   -5.8380247    600.47781  0.040583794  0.041066556            3 
 1234000    1.0528669   -5.8320845    601.42545  0.040614901  0.041056072            7 
 1235000    1.0664553   -5.8630216    599.04986  0.040421718  0.041045627            2 
 1236000    1.0545564   -5.8351837    602.11215  0.040595479  0.041035316            3 
 1237000    1.0420991   -5.8222686    603.02302  0.040624024  0.041025308            4 
 1238000    1.0397501   -5.8361405    602.53509  0.040558366  0.041015215            3 
 1239000    1.0443062   -5.8723588    601.32815  0.040444455  0.041004925            3 
 1240000    1.0502377   -5.8110454    603.44887   0.04055436  0.040994847            3 
 1241000    1.0333299   -5.8681931    604.94592  0.040622208  0.040984769            2 
 1242000    1.0779869   -5.8494889    603.79213  0.040512086   0.04097445            5 
 1243000    1.0465372   -5.8241598     604.6287  0.040535579  0.040964338            2 
 1244000    1.0165172   -5.9090884    603.39467  0.040420329  0.040953831            2 
 1245000    1.0714243   -5.8453455     605.7164  0.040543267  0.040943436            3 
 1246000       1.0291   -5.8417237      606.608  0.040570359  0.040933263            6 
 1247000    1.0584297    -5.846937    605.41075  0.040457815   0.04092295            3 
 1248000    1.0804184   -5.8021339     607.4494  0.040561525  0.040912879            9 
 1249000    1.0435994   -5.8432336    607.19284  0.040511932  0.040902976            5 
 1250000    1.0561317   -5.8443029    607.69594  0.040513062  0.040892821            6 
 1251000    1.0296655   -5.8478507    609.18979  0.040580188  0.040882965            6 
 1252000    1.0489497   -5.8640999    609.28142  0.040553875  0.040873153            2 
 1253000    1.0676717    -5.835881    607.66472  0.040413988  0.040863121            2 
 1254000    1.0471335   -5.8093431    607.32978  0.040359502   0.04085327            4 
 1255000    1.0705036   -5.8352407    609.24105  0.040454253  0.040843306            4 
 1256000    1.0633634   -5.8239232    610.38621  0.040498023  0.040833419            3 
 1257000    1.0374617   -5.8667433    609.94718    0.0404367  0.040823761            5 
 1258000     1.041432   -5.8441768    610.98879  0.040473555  0.040813789            5 
 1259000    1.0547735   -5.8322964    612.53779  0.040543936  0.040803812            3 
 1260000    1.0409159   -5.8583484    612.42157  0.040504072  0.040793716            2 
 1261000    1.0643605   -5.8712668    610.02157  0.040313347  0.040783769            3 
 1262000    1.0481014   -5.8250026    612.00995  0.040412701  0.040773778            2 
 1263000    1.0598597   -5.8301642    612.86502  0.040437122  0.040763895            8 
 1264000    1.0600714   -5.8540613    611.54651  0.040318203  0.040753892            4 
 1265000    1.0392515   -5.8354416    614.71471   0.04049504  0.040743955            3 
 1266000    1.0427941   -5.8320725    613.12599  0.040358477  0.040733914            6 
 1267000    1.0372491   -5.8461534    614.30703  0.040404303  0.040724146            5 
 1268000    1.0800321   -5.8397923    614.39311  0.040378096  0.040714168            3 
 1269000    1.0523049   -5.8758053    611.98365  0.040188052  0.040704409            3 
 1270000    1.0528786   -5.8041774    616.37113    0.0404443  0.040694328            7 
 1271000    1.0516702   -5.8385703    616.33348  0.040410011  0.040684658            3 
 1272000    1.0475994    -5.823797    617.65906  0.040465085  0.040674981            3 
 1273000    1.0309487   -5.8751393    616.32027  0.040345658  0.040665001            5 
 1274000    1.0438692   -5.8438199    615.63096  0.040268901  0.040655107            2 
 1275000    1.0316601   -5.8362559    617.08132  0.040332112  0.040645163            3 
 1276000    1.0332667   -5.8500966    617.35572  0.040318425  0.040635422            5 
 1277000    1.0414958   -5.8935074    615.11774  0.040140808  0.040625504            4 
 1278000    1.0372963   -5.8701568     615.8546  0.040157447  0.040615499            2 
 1279000    1.0386084   -5.8298565    617.62981  0.040241713  0.040605485            3 
 1280000    1.0579997   -5.8497263    619.40068  0.040325565   0.04059556            7 
 1281000    1.0344258   -5.8290961     620.0592  0.040336924  0.040585817            5 
 1282000    1.0639013     -5.85299    619.27258  0.040254328  0.040575828            3 
 1283000    1.0494747   -5.8682775    617.02436  0.040076927  0.040565572            3 
 1284000     1.058197   -5.8488014     621.5435  0.040339012  0.040555472            4 
 1285000    1.0599814   -5.8438967     619.7137  0.040188956  0.040545433            2 
 1286000    1.0531597   -5.8461652    619.31895  0.040132125   0.04053541            3 
 1287000    1.0301393   -5.8506168    621.35613   0.04023285  0.040525432            5 
 1288000    1.0410044   -5.8755788    620.59606  0.040152437  0.040515666            7 
 1289000    1.0389728   -5.8325148     621.1654  0.040158094  0.040505949            3 
 1290000    1.0351978   -5.8961291    620.41476  0.040078473  0.040496006            3 
 1291000    1.0470589   -5.8700201    622.87629  0.040206319  0.040486139            5 
 1292000     1.041288   -5.8800911    620.73811  0.040037288  0.040476197           10 
 1293000    1.0438222   -5.8597584    623.32223  0.040172869  0.040466445            4 
 1294000    1.0458729   -5.8857125    620.33061  0.039949164  0.040456621            8 
 1295000    1.0561314   -5.8941726     620.1296  0.039905379  0.040446574            3 
 1296000    1.0258806   -5.8750212    622.93932  0.040055255  0.040436403            4 
 1297000    1.0492581   -5.8963635    622.24432  0.039979718  0.040426436            4 
 1298000    1.0395682   -5.8550182    624.94538  0.040122328  0.040416536            6 
 1299000    1.0283696   -5.8686061    626.37519  0.040183166  0.040406693            3 
 1300000    1.0395474    -5.852984     625.2039  0.040077173  0.040397042            3 
 1301000    1.0377632   -5.8446046    625.75655  0.040081768  0.040387298            3 
 1302000    1.0335696   -5.8747517    626.27767  0.040084336  0.040377491            7 
 1303000    1.0512809   -5.8544371    626.26768  0.040052934  0.040368055            2 
 1304000    1.0475054   -5.8974483    627.19045  0.040081189  0.040358269            1 
 1305000    1.0415068    -5.846459    627.57753  0.040075193  0.040348474            4 
 1306000    1.0474152   -5.8854351    625.06097  0.039883931  0.040338539            6 
 1307000     1.025619   -5.8728392    627.00379  0.039977288  0.040328582            2 
 1308000    1.0607495   -5.8220118    627.65134  0.039987981  0.040318611            8 
 1309000      1.01705   -5.8604756    628.55267  0.040014812  0.040308798            4 
 1310000    1.0604927   -5.8597687    626.96882  0.039883513  0.040298889            4 
 1311000    1.0505475   -5.8851273    627.61475  0.039894149  0.040288926            2 
 1312000    1.0657375   -5.8486844    627.44281  0.039852821  0.040279031            3 
 1313000    1.0302173   -5.8488291    628.64256  0.039898614  0.040268961            3 
 1314000    1.0422967   -5.8946824    629.16293  0.039901251  0.040258995            7 
 1315000    1.0597991   -5.8216189    631.58408   0.04002434  0.040248893            7 
 1316000     1.011005   -5.8782994    629.65677  0.039871882  0.040238939            4 
 1317000    1.0539721   -5.8597634    629.96502  0.039861112  0.040229108            4 
 1318000    1.0466075   -5.8407972    631.54356  0.039930675  0.040219492            6 
 1319000    1.0417359   -5.8720253    632.38669   0.03995367  0.040209852            6 
 1320000    1.0641741   -5.8592222    632.78094  0.039948292  0.040200326            3 
 1321000    1.0329492    -5.904173     631.9474  0.039865468  0.040190782            6 
 1322000    1.0517287   -5.8489369    636.68791  0.040134135  0.040181221            6 
 1323000    1.0473887   -5.9044803    631.61352  0.039784172  0.040171588            3 
 1324000    1.0364761   -5.8774045    632.92301  0.039836544  0.040161993            3 
 1325000    1.0458617   -5.9081882    631.00395  0.039685783  0.040152246            2 
 1326000    1.0280029    -5.852445    634.97316  0.039905302  0.040142473            4 
 1327000    1.0248468   -5.9046573    634.27218  0.039831209   0.04013275            2 
 1328000    1.0601994   -5.8765358    636.06658  0.039913816  0.040122881            4 
 1329000    1.0408398   -5.8815013    633.57614  0.039727624  0.040113159            8 
 1330000    1.0262026   -5.8302386     634.5582  0.039759286  0.040103372            2 
 1331000    1.0283667   -5.8781886    636.17062  0.039830367  0.040093688            2 
 1332000    1.0480537   -5.8933445    634.58619  0.039701338  0.040083898            4 
 1333000    1.0193791   -5.8755224    636.89699  0.039816016  0.040074241            6 
 1334000     1.058754   -5.8945328    634.96238  0.039665316  0.040064513            4 
 1335000    1.0397043   -5.9015151    634.12918  0.039583595  0.040054725            2 
 1336000     1.044224   -5.9038701    638.27276  0.039812423  0.040045054            6 
 1337000    1.0191727   -5.8769144    637.07223  0.039707818   0.04003527            4 
 1338000    1.0322128   -5.8433967    637.74162  0.039719832  0.040025579            3 
 1339000    1.0472298   -5.8750296    639.52391   0.03980109  0.040016204            1 
 1340000    1.0243678    -5.904893    637.98456  0.039675657  0.040006869            2 
 1341000    1.0342169   -5.9032518    641.16038  0.039843424   0.03999767            4 
 1342000    1.0326659   -5.8934469     640.6418  0.039781533  0.039988228            4 
 1343000    1.0137146   -5.8909117     640.5234  0.039744565  0.039978941            4 
 1344000     1.050779   -5.8890592    641.18351  0.039755922  0.039969942            3 
 1345000    1.0468521   -5.8929842    642.73054  0.039822214  0.039960766            5 
 1346000    1.0358629   -5.8914994    639.56873  0.039596875  0.039951498            3 
 1347000    1.0161952   -5.8838891    643.10463   0.03978623  0.039942541            6 
 1348000    1.0315044   -5.9392643    644.12853  0.039820013  0.039933447            7 
 1349000    1.0462624    -5.867429    643.72941  0.039765839  0.039924182            5 
 1350000    1.0273257   -5.8521133    643.71596  0.039735553  0.039915072            5 
 1351000    1.0403354   -5.8885931     643.1532  0.039671429   0.03990596            6 
 1352000    1.0502382   -5.8584305    645.89082  0.039810825   0.03989693            2 
 1353000    1.0287802   -5.8981296    646.31407  0.039807469  0.039887755            2 
 1354000     1.029112   -5.8815178    643.07826  0.039578918  0.039878572            4 
 1355000    1.0363131   -5.9028821    642.88212  0.039537646  0.039869289            2 
 1356000    1.0251428   -5.8392988    648.08655  0.039828327  0.039860238            4 
 1357000    1.0161836   -5.8482199    648.83113  0.039844702  0.039851445            2 
 1358000    1.0340631   -5.8887363    646.61671  0.039679474  0.039842512            3 
 1359000    1.0481064    -5.896638     646.3286   0.03963261  0.039833672            4 
 1360000    1.0282029   -5.8468456    648.60804  0.039743139  0.039824937            2 
 1361000    1.0523154   -5.8948405    648.14668   0.03968569  0.039816052            5 
 1362000    1.0547044   -5.9111344    646.74205   0.03957061   0.03980679            6 
 1363000    1.0237962   -5.8973954    648.78139  0.039666262  0.039797756            6 
 1364000    1.0449665   -5.8731151    647.69347  0.039570716  0.039788335            2 
 1365000    1.0474492   -5.9232858    647.77197  0.039546518  0.039778973            7 
 1366000    1.0585364   -5.9298385    648.27332  0.039548153  0.039769598            6 
 1367000    1.0832908   -5.8809512    650.04416  0.039627174  0.039760425            4 
 1368000    1.0365608    -5.875828    648.83895   0.03952479  0.039751394            4 
 1369000     1.042348   -5.8701506    649.94179   0.03956305  0.039742227            3 
 1370000    1.0499068   -5.8570048    650.41743  0.039563104  0.039733067            7 
 1371000    1.0316901   -5.8711218    651.10515  0.039576048  0.039724114            5 
 1372000    1.0502275   -5.8477424    651.77976  0.039588178   0.03971499            3 
 1373000    1.0456952   -5.8848909    650.54977  0.039484691  0.039705878            3 
 1374000    1.0228835   -5.8943569    650.71194   0.03946579  0.039696954            2 
 1375000    1.0249564   -5.8630773    653.39172  0.039599498  0.039687801            4 
 1376000    1.0179178   -5.8676016    653.48079  0.039576114  0.039678835            4 
 1377000    1.0120897    -5.878443    654.59055  0.039614533  0.039669831            3 
 1378000    1.0177503   -5.9198198    651.79471   0.03941671  0.039660629            4 
 1379000    1.0152445   -5.8986437    652.86324  0.039452698  0.039651415            6 
 1380000    1.0252762   -5.8904384    656.41434  0.039638547  0.039642275            2 
 1381000     1.030247   -5.8830794    656.15625  0.039594271  0.039633163            4 
 1382000    1.0427795   -5.8991594    653.43903  0.039401774  0.039623953            6 
 1383000    1.0373425   -5.9151691    654.55619  0.039440599  0.039614776            4 
 1384000     1.037626   -5.9075397    654.02955  0.039380392  0.039605694            3 
 1385000     1.046617    -5.891247    654.75584  0.039395658  0.039596418            5 
 1386000    1.0459255   -5.8927926    654.64986  0.039360862  0.039587095            4 
 1387000    1.0299315   -5.8871447    656.97738  0.039472325  0.039577886            3 
 1388000     1.026209   -5.8843388    654.14599  0.039273894  0.039568631            4 
 1389000     1.034697   -5.9281622    654.98898  0.039296195  0.039559083            4 
 1390000     1.025781   -5.8613544    657.10454  0.039394756  0.039549523            2 
 1391000    1.0025376   -5.8936325    656.08254  0.039305209  0.039540262            3 
 1392000     1.017822   -5.9064022    655.93366  0.039268059  0.039530886            2 
 1393000    1.0279989   -5.9096219    657.74775  0.039348394  0.039521621            5 
 1394000    1.0303292   -5.9421634     657.5511  0.039308411  0.039512086            4 
 1395000     1.026737   -5.9203743    656.02711  0.039189194  0.039502439            6 
 1396000    1.0224564   -5.8745141    659.34033  0.039358902   0.03949293            3 
 1397000    1.0483972   -5.9170821    657.52307  0.039222326  0.039483379            2 
 1398000    1.0552143   -5.9541125    654.53452  0.039016126  0.039473536            6 
 1399000    1.0397042   -5.9256221    656.16979  0.039085644  0.039463599            3 
 1400000     1.052381   -5.8982027    655.77747  0.039034373  0.039453961            6 
 1401000    1.0414692   -5.8982624    657.33561  0.039099192  0.039444193            3 
 1402000    1.0348637   -5.8820331    659.93989  0.039226099  0.039434553            2 
 1403000    1.0358703   -5.9070918    661.55073  0.039293818  0.039425095            4 
 1404000    1.0391087   -5.8990134     660.0489  0.039176691  0.039415495            9 
 1405000    1.0342246   -5.8745495    658.37564  0.039049564  0.039405642            4 
 1406000    1.0381088   -5.8950525    660.80005  0.039165484  0.039395878            3 
 1407000    1.0490859   -5.8724373    660.37256  0.039112329  0.039386114            3 
 1408000    1.0084215   -5.9132482    660.29206  0.039079786  0.039376537            4 
 1409000    1.0167803   -5.9157245    660.98758  0.039093186  0.039366958            4 
 1410000    1.0227185   -5.9025399    661.52685  0.039097331  0.039357227            6 
 1411000    1.0272122   -5.9021419    660.51979  0.039010146  0.039347579            3 
 1412000    1.0213439   -5.9258287    662.71489  0.039112068  0.039337892            3 
 1413000    1.0271256   -5.9016993    663.18783  0.039112281   0.03932832            2 
 1414000    1.0264714   -5.8763655    661.69437  0.038996603  0.039318716            4 
 1415000    1.0278419   -5.9036227    662.63478  0.039024428  0.039308598            4 
 1416000    1.0238913   -5.9360069    661.44307  0.038926734   0.03929852            3 
 1417000    1.0186816    -5.919953    661.13031   0.03888087  0.039288611            4 
 1418000    1.0206183   -5.9295228     662.2004  0.038916338  0.039278697            5 
 1419000    1.0374276   -5.8829253    663.21986  0.038948782  0.039268685            3 
 1420000    1.0240894   -5.9065553     662.0393  0.038852072  0.039258946            3 
 1421000    1.0362949   -5.9599558    662.57346  0.038856055  0.039249315            4 
 1422000    1.0080296   -5.9090578    665.60513  0.039006395  0.039239727            4 
 1423000    1.0303328   -5.8876192    665.67561  0.038983111  0.039230114            3 
 1424000    1.0226113   -5.8989456    663.52152  0.038829677   0.03922039            4 
 1425000    1.0268405   -5.9374278      663.156  0.038781053  0.039210337            5 
 1426000    1.0450317   -5.9231286    665.80821  0.038908848  0.039200377            3 
 1427000    1.0294351   -5.8993442    666.82012  0.038940675  0.039190423            3 
 1428000    1.0217287   -5.8845016      667.546  0.038955766  0.039180569            4 
 1429000    1.0361634   -5.8980079    664.76968  0.038766601  0.039170704            5 
 1430000    1.0225523    -5.903862     666.4501  0.038837418  0.039160833            3 
 1431000    1.0423768   -5.9082377    665.96907  0.038782266   0.03915104            2 
 1432000    1.0144899   -5.9233049    666.60253  0.038792047  0.039140951            4 
 1433000    1.0352703   -5.9139283    666.95887  0.038785698  0.039130749            4 
 1434000    1.0282853    -5.912068    668.13088   0.03882676  0.039121035            2 
 1435000    1.0378924   -5.9009092    669.03577  0.038852252  0.039111196            5 
 1436000    1.0426512   -5.9128279    670.21122  0.038893409  0.039101325            1 
 1437000    1.0070438   -5.9405849    668.52555  0.038768589  0.039091453            2 
 1438000    1.0222894   -5.9505851    665.94593  0.038592138  0.039081375            3 
 1439000    1.0227594   -5.8981751    668.15096  0.038693013  0.039071092            3 
 1440000    1.0404717   -5.9377677    667.71175  0.038640726  0.039060986            3 
 1441000    1.0155332   -5.9235289    668.15283  0.038639419  0.039050758            4 
 1442000    1.0005031   -5.9459867    667.75485  0.038589624  0.039040622            2 
 1443000    1.0110686   -5.9048707    671.87311  0.038800711  0.039030636            3 
 1444000    1.0342967   -5.8783264     672.9034  0.038833299  0.039020831            4 
 1445000    1.0047376   -5.9291531     672.2898  0.038771038  0.039011089            4 
 1446000    1.0133885   -5.9465826    671.88931  0.038721145   0.03900122            5 
 1447000    1.0205109   -5.9113687    672.76086  0.038744578  0.038991322            8 
 1448000    1.0100843   -5.9179099    673.45356  0.038757687  0.038981488            6 
 1449000    1.0127378   -5.9000172    672.40749  0.038670778  0.038971682            3 
 1450000    1.0229899   -5.9062184    673.17612  0.038688283  0.038961794            9 
 1451000    1.0264348   -5.9572237    672.28507  0.038610445  0.038952099            4 
 1452000    1.0217715    -5.943192    673.88723  0.038675805  0.038942285            8 
 1453000    1.0071911   -5.9247549     673.6632  0.038636338  0.038932757            4 
 1454000    1.0273082   -5.9477076    675.28395  0.038702656  0.038923032            4 
 1455000     1.041109   -5.9529035    673.45145  0.038571102  0.038913219            7 
 1456000    1.0120347   -5.9720682    675.72443  0.038674704  0.038903723            3 
 1457000    1.0299401   -5.9388319    676.58424  0.038697337  0.038893972            2 
 1458000    1.0117347   -5.9282424    674.45336  0.038549003  0.038884457            4 
 1459000   0.99549152    -5.921559    675.84543  0.038602092  0.038874934            2 
 1460000    1.0322281    -5.938344    675.51866  0.038557001  0.038865156            5 
 1461000    1.0090101   -5.9252075     676.9589  0.038612759  0.038855414            4 
 1462000    1.0260746   -5.9474314    676.48461  0.038559314  0.038845736            3 
 1463000     1.018941   -5.9353125     677.0807  0.038566912  0.038836068            3 
 1464000    1.0104449   -5.9641119    676.48961  0.038506922  0.038826543            3 
 1465000   0.99234459   -5.9736427    678.27778  0.038582354  0.038816946            2 
 1466000    1.0499021   -5.9400505     678.9268  0.038592929   0.03880731            3 
 1467000    1.0096151   -5.8998624    679.76276  0.038614108  0.038797674            4 
 1468000    1.0087088   -5.9405386    679.40587  0.038567545  0.038788188            3 
 1469000    1.0607705   -5.9255542    677.48894  0.038432547  0.038778373            3 
 1470000    1.0210078   -5.9380664    679.12979  0.038499421  0.038768709            6 
 1471000    1.0085346   -5.9298081    678.77248  0.038453007  0.038759026            4 
 1472000    1.0241616   -5.9146015    680.30363  0.038513566  0.038749547            4 
 1473000    1.0142325    -5.928208    678.76342  0.038400284  0.038739787            6 
 1474000    1.0371924   -5.9104355    679.78166  0.038431799  0.038729914            5 
 1475000    1.0007731   -5.9264789    680.16486  0.038427393  0.038720023            4 
 1476000    1.0309396   -5.9346538    679.52099  0.038365006  0.038709982            3 
 1477000    1.0145163   -5.8985761      680.413  0.038389359  0.038700004            2 
 1478000    1.0158632   -5.9633262    678.11437  0.038233783  0.038689911            5 
 1479000    1.0049562   -5.9541613    679.58193   0.03829062  0.038679855            3 
 1480000    1.0006915   -5.9082447    680.09672  0.038293734  0.038669863            2 
 1481000    1.0315738   -5.9436632    680.81322  0.038308194   0.03866004           10 
 1482000    1.0016698   -5.9301816    679.54752  0.038211174  0.038649841            7 
 1483000    1.0093819   -5.9114617     681.0377  0.038269145  0.038639778            8 
 1484000     1.006692   -5.9486273    678.77725  0.038116422  0.038629734            2 
 1485000    1.0277118   -5.9497438     682.3253   0.03828986  0.038619625            4 
 1486000   0.98839399   -5.9296837    682.13716  0.038253542  0.038609537            6 
 1487000    1.0330225   -5.9361728    684.43605  0.038356649  0.038599374            1 
 1488000    1.0207011   -5.9578744    681.80393  0.038183464  0.038589306            3 
 1489000    1.0015231   -5.9303172    682.28275  0.038184618  0.038579302            5 
 1490000    1.0116901   -5.9363841    683.62578  0.038234104  0.038569291            4 
 1491000    1.0197686   -5.9527423    683.25968  0.038187999  0.038559296            5 
 1492000    1.0247465    -5.929966    685.14158  0.038267514  0.038549387            2 
 1493000    1.0196669   -5.9213328    682.52493  0.038095832  0.038539292            4 
 1494000    1.0031297   -5.9000182    685.16239  0.038217447  0.038529106            3 
 1495000   0.98367635   -5.9237043    684.77618  0.038170356  0.038518821            6 
 1496000    1.0320301   -5.9447747    682.98905   0.03804529  0.038508532            4 
 1497000    1.0235901   -5.9333978    683.64435  0.038056355   0.03849826            4 
 1498000    1.0130653   -5.9074357    685.96479  0.038160035  0.038487936            2 
 1499000    1.0182024   -5.9080737    687.58579  0.038224694   0.03847796            5 
 1500000    1.0208372   -5.9513704    684.82947  0.038046082  0.038467852            3 
 1501000    1.0072821   -5.9282982    688.38885  0.038218346  0.038457734            2 
 1502000    1.0254223   -5.9365306    687.02224  0.038117079  0.038447914            4 
 1503000    1.0194191   -5.9337735    689.37209  0.038222005  0.038437754            5 
 1504000    1.0187725   -5.9635226    686.03222  0.038011537   0.03842783            3 
 1505000    1.0127517   -5.9535141    687.31319  0.038057209  0.038417881            2 
 1506000   0.99084773   -5.9497321    689.80423  0.038169778  0.038407694            6 
 1507000    1.0291145   -5.8981903    689.31257  0.038117262   0.03839771            2 
 1508000    1.0153595   -5.9532226    689.25034  0.038088546  0.038387732            4 
 1509000   0.98922983   -5.9265906     689.1801  0.038059426  0.038377574            2 
 1510000   0.98118143   -5.9394411    688.63096  0.038003916  0.038367501            5 
 1511000    1.0058404   -5.9259666     691.1655  0.038118547  0.038357466            2 
 1512000    1.0217126   -5.9675011     688.0952  0.037924118  0.038347429            3 
 1513000    1.0150756    -5.926745    688.67366  0.037930913  0.038337311            4 
 1514000   0.99522507   -5.9498201    690.58792  0.038011224  0.038327171            2 
 1515000   0.99944887   -5.9606439    689.16148  0.037907672  0.038317043            4 
 1516000    1.0225655   -5.9730721     691.0864  0.037988479  0.038307149            3 
 1517000    1.0134811   -5.9670675    691.55912  0.037989404  0.038297244            7 
 1518000    1.0182429   -5.9644372    693.57216  0.038074888  0.038287521           11 
 1519000   0.99572396     -5.95678    691.70577  0.037947431  0.038277517            3 
 1520000     1.002351   -5.9372057    695.96309  0.038155871  0.038267597            2 
 1521000    1.0392592    -5.968106    693.83118  0.038013981  0.038257871            4 
 1522000    1.0133762   -5.9617647    691.71965  0.037873393  0.038248163            4 
 1523000    1.0340467   -5.9271363    694.45277  0.037998072  0.038238637            6 
 1524000    1.0233324   -5.9639052    693.23872  0.037906754   0.03822888            4 
 1525000    1.0163296   -5.9393785    695.58187  0.038009938  0.038219224            7 
 1526000    1.0201514   -5.9448423    693.82897  0.037889306  0.038209624            2 
 1527000   0.99238667   -5.9462011    697.13873  0.038045117  0.038199925            3 
 1528000   0.99010287     -5.92924    696.72227  0.037997506  0.038190606            5 
 1529000    1.0057342   -5.9254248    699.53746  0.038126088  0.038181108            4 
 1530000   0.98064582   -5.9666198    694.72652  0.037839135   0.03817159            8 
 1531000    1.0123321   -5.9905443    696.71204  0.037922493  0.038161998            7 
 1532000    1.0250387    -5.966173    696.75396   0.03790002  0.038152461            3 
 1533000   0.97346297   -5.9367326    697.78327   0.03793125   0.03814283            5 
 1534000    1.0042458   -5.9741776    696.81269  0.037853797  0.038133212            2 
 1535000   0.99401441   -5.9526599    695.90425  0.037779818  0.038123539            6 
 1536000    1.0257468   -5.9286791    699.47626  0.037949016  0.038113739            1 
 1537000   0.99597133   -5.9192803     700.1189  0.037959168  0.038104121            8 
 1538000    1.0085155   -5.9577251    695.84717  0.037703033  0.038094258            3 
 1539000    1.0036183   -5.9031907    698.87696  0.037842591  0.038084388            5 
 1540000     1.021858   -5.9703811    697.77693  0.037758492  0.038074511           10 
 1541000    1.0100501   -5.9525454    697.09858  0.037697306   0.03806459            6 
 1542000   0.99498368    -5.932003    702.12095  0.037944279   0.03805468            4 
 1543000    1.0190609   -5.9951191    697.29077  0.037658823  0.038044793            3 
 1544000    1.0083029   -5.9591301    698.87926  0.037720168  0.038034692            4 
 1545000   0.98410707   -5.9499095    698.59898  0.037680635  0.038024734            5 
 1546000    1.0130332   -5.9298516    698.20958  0.037635273  0.038014567            6 
 1547000   0.99851357   -5.9200624    699.34261  0.037671978   0.03800454            5 
 1548000    1.0017205   -5.9271211    700.39669  0.037704387  0.037994405            2 
 1549000    1.0026874   -5.9427112    698.96557  0.037603054   0.03798445            3 
 1550000   0.99048496   -5.9417413    699.21489  0.037592198  0.037974338            2 
 1551000    1.0142585   -5.9626432    699.77068  0.037597823  0.037964286            4 
 1552000    1.0168819   -5.9664619    700.76051  0.037626745  0.037954144            4 
 1553000    1.0074616   -5.9589073    700.38739  0.037582496  0.037943865            5 
 1554000   0.99005987   -5.9314476    701.11566  0.037597365  0.037933742            3 
 1555000    1.0320616   -5.9738693    699.17259  0.037469056  0.037923588            9 
 1556000    1.0069678   -5.9847683    699.67913  0.037472104  0.037913225            2 
 1557000   0.99674562   -5.9345469    701.67382  0.037554796  0.037902765            5 
 1558000    1.0153251   -5.9902404    698.46322  0.037358966  0.037892526            3 
 1559000    0.9685025   -5.9509708    699.49696  0.037390259     0.037882            2 
 1560000    1.0087173   -5.9718626    702.13608  0.037507269  0.037871574            4 
 1561000    1.0152612     -5.95896    702.34342   0.03749431  0.037861149            4 
 1562000   0.99930828   -5.9684306    698.99849  0.037291853  0.037850854            4 
 1563000    1.0292376    -5.952124    701.35785  0.037393786  0.037840464            6 
 1564000    1.0143063   -5.9799524    702.43512  0.037427276  0.037830095            5 
 1565000   0.99687878    -5.983279    702.60262   0.03741228  0.037819678            7 
 1566000   0.98414231   -5.9134195    703.48577  0.037435386  0.037809306            2 
 1567000    1.0066689   -5.9901213    700.62856  0.037259549  0.037799012            4 
 1568000   0.99359651   -5.9639361    703.07634  0.037365877  0.037788811            5 
 1569000      1.00731   -5.9501074    704.03676  0.037393072   0.03777866            5 
 1570000    1.0129684   -5.9418209    706.11371  0.037479496  0.037768481            3 
 1571000    1.0167173   -5.9590578    704.69303  0.037380279  0.037758366            3 
 1572000   0.98697466   -5.9867749     703.3512  0.037285369  0.037748251            4 
 1573000    1.0059045    -5.985158    706.49989  0.037428475   0.03773807            3 
 1574000    1.0050583   -5.9394907    704.33928  0.037290305  0.037727734            4 
 1575000    1.0090795   -5.9618328    706.62996  0.037387828  0.037717358            2 
 1576000    1.0008545   -5.9418916    706.78882  0.037372506  0.037706712            2 
 1577000    0.9896247   -5.9804367    706.63307  0.037340577  0.037696316            3 
 1578000    1.0232166   -5.9795399    704.50775  0.037204676  0.037685953            2 
 1579000   0.99468143    -5.967226    709.09964  0.037423456  0.037675807            9 
 1580000   0.98958628   -5.9539806    707.27663   0.03730362   0.03766551            5 
 1581000    1.0144135   -6.0035841    707.53467  0.037293626  0.037655223            6 
 1582000    1.0240828   -5.9574196    707.12271  0.037248352  0.037645158            2 
 1583000    1.0078403   -5.9833765     708.6858  0.037307107  0.037635227            4 
 1584000   0.99496621   -5.9680608    704.46047  0.037061262  0.037625158            3 
 1585000   0.98386294   -5.9862036    710.29976  0.037344887  0.037614992            2 
 1586000   0.97808633   -5.9500973     711.6156  0.037390479  0.037604841           16 
 1587000   0.97375139    -5.997912    708.48146  0.037202345  0.037594716            2 
 1588000    1.0091497   -5.9847554     706.8662  0.037094154  0.037584391            6 
 1589000   0.98894922   -5.9969246    708.13173  0.037137179  0.037574137            8 
 1590000    1.0216256   -5.9848165     712.0251  0.037317877  0.037564007            6 
 1591000    1.0131218   -5.9728232    712.32872  0.037310324  0.037554076            5 
 1592000     0.994847   -5.9626159    711.75539  0.037256878  0.037544162            9 
 1593000      1.02313   -5.9880975    711.99693  0.037246125  0.037534102            4 
 1594000    1.0009649   -5.9740083    712.91625   0.03727082  0.037523965            8 
 1595000   0.99976731   -5.9286086    712.54122  0.037227859  0.037513785            6 
 1596000   0.99724411   -5.9985472    709.37853  0.037039397  0.037503669            3 
 1597000    1.0043463   -5.9760469    709.79022  0.037037686   0.03749343            9 
 1598000   0.98818018   -6.0123589    712.13725  0.037136903  0.037483165            5 
 1599000    1.0177245   -5.9270524    715.36349  0.037281816   0.03747311            3 
 1600000   0.96771169   -5.9934594    713.44391  0.037158537  0.037463174            9 
 1601000   0.99873639   -5.9750552    714.10471  0.037169722  0.037453187            4 
 1602000    0.9825439   -5.9564437      714.107   0.03714664    0.0374434            3 
 1603000    1.0050682   -5.9623215     713.0917  0.037070685    0.0374333            5 
 1604000    0.9942791    -5.955817    714.95671  0.037144467  0.037423153            4 
 1605000    1.0220042   -5.9687009    715.54802  0.037152026  0.037413324            5 
 1606000     1.013074   -5.9548505    715.57627  0.037130358  0.037403464            4 
 1607000    1.0034318   -5.9778989    715.42897  0.037099615  0.037393494            4 
 1608000    1.0009874   -5.9879755    715.72971  0.037092128  0.037383439            9 
 1609000    1.0036701   -5.9647434    714.96336  0.037029384  0.037373638            4 
 1610000   0.98241547   -5.9837919    716.06555  0.037063434  0.037363745            4 
 1611000   0.98702881   -5.9734521    716.14365  0.037044467  0.037353744            5 
 1612000    1.0247983   -6.0037558    717.36471  0.037084611  0.037343733            4 
 1613000    1.0138612    -5.953824    717.54964  0.037071174  0.037333794            7 
 1614000   0.99039319   -5.9975212    714.43826   0.03688756   0.03732376            3 
 1615000   0.99707822   -6.0311692    716.41392  0.036966663  0.037313491            3 
 1616000    1.0025528   -5.9773435    718.54771  0.037053822  0.037303718            5 
 1617000    1.0070305    -5.966063    719.49826  0.037079894  0.037293822            9 
 1618000   0.99344102   -5.9549464    719.48291  0.037056186  0.037283793            3 
 1619000     1.000047   -5.9898856    717.98482  0.036956188  0.037273643            3 
 1620000     1.011735   -6.0243273    714.44509  0.036751291  0.037263527            3 
 1621000   0.98730501   -6.0026027    716.75244  0.036847236  0.037253546            3 
 1622000   0.97213873   -5.9746078    718.50114  0.036914362  0.037243522            2 
 1623000   0.99141882   -5.9615948    719.39182   0.03693735  0.037233637            2 
 1624000   0.96129614   -5.9501097     719.3943  0.036914732  0.037223648            3 
 1625000   0.99666604    -5.973729    720.07558  0.036926953   0.03721369            6 
 1626000   0.99079919   -5.9842668    720.63666  0.036932998  0.037203674            7 
 1627000   0.98831592   -5.9813967     719.2577  0.036839669  0.037193547            4 
 1628000   0.99383821   -6.0129117    721.18519  0.036915704  0.037183481            5 
 1629000   0.96820904   -5.9639787     721.6597  0.036917316  0.037173602            3 
 1630000   0.99382754   -5.9853777    721.07983  0.036865022  0.037163554            7 
 1631000    1.0050623   -6.0004199    721.32916  0.036855158  0.037153551            4 
 1632000   0.98320514   -6.0024812    722.35124  0.036884765  0.037143635            3 
 1633000   0.98800151   -5.9527555    723.91266  0.036941859  0.037133667            4 
 1634000   0.98241048   -5.9407108    724.64566  0.036956633  0.037123693            8 
 1635000   0.96611138   -5.9730123    726.10078  0.037008195  0.037113848            6 
 1636000    0.9723201   -5.9831324    723.32889  0.036844381  0.037104073            2 
 1637000    0.9939031   -5.9848909    724.05642   0.03685891  0.037094269            4 
 1638000   0.98612773   -6.0145131    722.56661  0.036760613  0.037084233            6 
 1639000   0.99610173   -5.9934504    723.27093  0.036773995  0.037074291            3 
 1640000   0.98675854    -5.998716    725.52798  0.036866259  0.037064504            5 
 1641000   0.97973974   -5.9803118    725.43042  0.036838839  0.037054576            4 
 1642000    0.9683079   -6.0176839    723.84857  0.036736123  0.037044609            5 
 1643000   0.98339746   -6.0192133     725.4558  0.036795283  0.037034711            4 
 1644000   0.99068225   -6.0253408    725.26773  0.036763369  0.037024751            2 
 1645000   0.98548532   -5.9557638    726.51098  0.036804001  0.037014975            6 
 1646000   0.99487977   -6.0319155    725.88451  0.036749925   0.03700511            3 
 1647000   0.97920548   -6.0125603      728.724  0.036871281  0.036995215            6 
 1648000    0.9768034   -6.0043765    724.30032  0.036625219  0.036985373            3 
 1649000   0.98266806   -5.9562607    728.75409  0.036828082    0.0369756            4 
 1650000    1.0021353   -6.0133495    726.11022  0.036672233  0.036965851            4 
 1651000   0.99047937   -6.0245601    726.93093  0.036691446  0.036956048            2 
 1652000   0.98676579    -6.027617    726.15628  0.036630159  0.036946181            4 
 1653000   0.98474412   -6.0413536    726.43001  0.036621799  0.036936275            2 
 1654000   0.98669496   -5.9836097    730.89137  0.036824434  0.036926571            2 
 1655000   0.99453671   -5.9945012    728.96025  0.036704947  0.036916965            5 
 1656000   0.96825855   -5.9901077      729.886  0.036729368  0.036907273            4 
 1657000   0.96331593    -6.006321    727.32623  0.036578467  0.036897417            3 
 1658000    1.0057271   -6.0105123     729.5582  0.036668587   0.03688747            7 
 1659000   0.99098719   -5.9654814    730.20695  0.036679071  0.036877665            7 
 1660000   0.98921102   -6.0109196     727.7671  0.036534493   0.03686777            2 
 1661000    1.0105718   -5.9776816    731.22106  0.036685785  0.036858021            3 
 1662000    0.9859574    -6.014433    727.56005  0.036480147  0.036848109            5 
 1663000   0.98929821   -6.0419255     728.3389  0.036497239  0.036838043            2 
 1664000   0.99868464   -5.9630635    732.15957  0.036666645  0.036828193            7 
 1665000   0.98067484   -5.9844624    728.82207  0.036477581   0.03681838            4 
 1666000   0.97693085   -5.9958937    731.75259  0.036602271  0.036808472            4 
 1667000   0.97602228   -6.0106697    727.50523  0.036367988  0.036798444            4 
 1668000    1.0021794   -5.9466564     732.8783  0.036614623  0.036788554            3 
 1669000   0.98620785   -5.9970223    730.52142  0.036475006  0.036778766            3 
 1670000    1.0021401   -6.0037565    730.91816  0.036472962  0.036768873           14 
 1671000   0.98552649   -5.9610805    733.14853  0.036562364  0.036758902            4 
 1672000   0.98512324   -5.9996873    731.52657  0.036459658  0.036748924            5 
 1673000   0.98975423   -5.9990573    732.18851  0.036470836  0.036738897            3 
 1674000   0.98287462   -6.0194096    730.83907  0.036381873  0.036728727            7 
 1675000   0.96749181   -5.9793791    732.80962   0.03645819  0.036718602            5 
 1676000   0.96649959   -6.0459172    729.45307  0.036269544  0.036708519            2 
 1677000   0.98687067   -5.9929872    732.63374   0.03640597  0.036698277            5 
 1678000   0.98746642   -6.0304987    734.12247  0.036458208  0.036688224            5 
 1679000   0.99190827   -6.0200885    733.67714   0.03641439  0.036678196            3 
 1680000   0.99743185   -6.0224857    731.88341  0.036303741  0.036668214            4 
 1681000   0.97427322   -5.9634849     736.1623  0.036494264  0.036658241            4 
 1682000   0.99534958   -5.9950296    734.31536  0.036381062  0.036648267            5 
 1683000   0.97423258   -6.0014319    735.87405  0.036436624  0.036638324            4 
 1684000    0.9867195   -6.0122135    734.76427  0.036360069  0.036628396            5 
 1685000   0.99803323   -6.0062603    734.59488  0.036330113  0.036618409            3 
 1686000   0.97445067   -6.0220514    735.35757  0.036346262  0.036608549            5 
 1687000   0.96351509   -6.0324072     734.7217  0.036293307   0.03659853            5 
 1688000   0.97948078   -6.0264396     734.3217  0.036252059  0.036588354            6 
 1689000   0.98422694   -6.0380521    734.27794  0.036228436   0.03657828            5 
 1690000   0.97258553   -6.0082044    735.30493  0.036257639  0.036568285            4 
 1691000   0.98972105   -6.0411105    735.87412  0.036264248  0.036558199            9 
 1692000   0.98598163   -6.0250792     734.3297   0.03616675  0.036548012            3 
 1693000   0.97517429   -6.0075879    737.03419  0.036278509   0.03653791            3 
 1694000   0.97478071   -6.0222396    737.29299  0.036269824   0.03652792            6 
 1695000   0.98981509   -5.9964071    736.80635  0.036224501  0.036517927            2 
 1696000   0.98372133   -6.0356414    736.56871  0.036191466  0.036508092           10 
 1697000   0.97409928    -6.024907    736.94703  0.036188717  0.036498259            3 
 1698000   0.99057988   -6.0017009    739.56977  0.036296122  0.036488295            4 
 1699000    1.0034642   -6.0222095    740.24612  0.036307932  0.036478628            4 
 1700000   0.95483465   -6.0235306    739.80963  0.036265178  0.036468897            6 
 1701000   0.97860638   -5.9826138    739.95427  0.036250944  0.036459043            5 
 1702000     0.976246   -6.0422728    737.41076   0.03610511  0.036449104            5 
 1703000   0.97324268   -6.0060927    739.37731  0.036180139  0.036439181            5 
 1704000   0.99624801   -6.0073383    738.77507  0.036129454  0.036429352            5 
 1705000   0.97430626   -6.0433515    738.32116  0.036086078   0.03641929            7 
 1706000   0.98454195   -6.0316977    739.89846  0.036141973  0.036409323            3 
 1707000   0.97245734   -5.9797598    742.29251  0.036237674   0.03639958            5 
 1708000   0.97936701   -6.0289875    740.97547  0.036152199  0.036389781            5 
 1709000    0.9701372   -5.9954657    742.48903  0.036204848   0.03637988            8 
 1710000   0.99692793   -6.0100281    742.20485  0.036169827  0.036370086            4 
 1711000   0.97403094   -6.0054007    739.91831  0.036037323  0.036360307            4 
 1712000   0.96961971   -6.0131713    741.67138  0.036101605  0.036350385            6 
 1713000   0.98718313   -6.0146461    741.73109  0.036083435  0.036340539            7 
 1714000   0.99474697   -6.0367246    744.14958  0.036179968  0.036330773            3 
 1715000   0.97220959   -6.0086347    743.36671  0.036120831  0.036320923            7 
 1716000   0.96272531   -6.0357674    742.03573  0.036035146  0.036310981           11 
 1717000   0.95979658   -6.0288987    743.37363  0.036079093  0.036301108            4 
 1718000   0.97911778   -6.0456535    743.12457  0.036046011  0.036291042            8 
 1719000   0.96718898   -5.9674728    745.40117  0.036135407  0.036281226            2 
 1720000    0.9718914   -6.0454385    743.40933  0.036017894  0.036271511            7 
 1721000   0.98067754   -6.0291166     744.7652  0.036062618  0.036261688            3 
 1722000   0.96875099   -6.0393688    745.33636  0.036069317   0.03625179            6 
 1723000   0.95736441   -6.0426666    745.29887  0.036046569  0.036241945            9 
 1724000   0.95625142   -6.0228312     744.6053  0.035992135  0.036232231            6 
 1725000   0.97101076    -6.043367    744.11559  0.035947613  0.036222544            4 
 1726000    1.0005963   -6.0343455    743.45979  0.035895123  0.036212914            5 
 1727000    0.9684792   -6.0458947    746.77163  0.036034146  0.036203281            3 
 1728000   0.96882269   -5.9826868    746.75937  0.036012701  0.036193695            5 
 1729000   0.98156757   -6.0576333     744.9081  0.035902646   0.03618391            4 
 1730000    0.9468761   -6.0288842    746.75203  0.035970714  0.036174243            3 
 1731000   0.97907075   -5.9963941     748.5121  0.036034667  0.036164666            4 
 1732000   0.97854734   -6.0244921    746.78282  0.035930659  0.036155159            8 
 1733000   0.94882652   -6.0026759    748.76894  0.036005431  0.036145713            4 
 1734000   0.95687971   -5.9973719    750.59964  0.036072647  0.036136106            3 
 1735000   0.98866366   -6.0314287    748.99645  0.035974853  0.036126569            6 
 1736000   0.96371621   -6.0212943    750.52247  0.036027384  0.036117227            4 
 1737000   0.99178496   -6.0502251     749.3618  0.035950959  0.036107648            4 
 1738000   0.98015656   -6.0509998    750.45229  0.035982561  0.036098084            3 
 1739000   0.97417688   -6.0053768     751.2762  0.036001351  0.036088564           10 
 1740000   0.97060084   -6.0097535    751.02938   0.03596884  0.036079032            2 
 1741000    0.9774453   -6.0309477    751.78347  0.035984275  0.036069618            2 
 1742000   0.96287853   -6.0097898    750.99892  0.035926087  0.036060216            4 
 1743000   0.95765831    -5.996614    750.54063  0.035883564  0.036050634            5 
 1744000   0.97098667   -6.0275427     752.1678   0.03594074  0.036041076            6 
 1745000   0.96236417   -6.0552432     750.1503  0.035823797  0.036031532           11 
 1746000   0.99213852   -6.0201339    750.01919  0.035797021  0.036022033            7 
 1747000   0.97417789   -6.0542181    749.71692  0.035762112  0.036012513            6 
 1748000   0.97710755   -5.9860764    755.17498  0.036001858  0.036003064            3 
 1749000    0.9761987   -6.0357938    753.49159  0.035901067  0.035993553            2 
 1750000   0.96580056   -6.0333681    751.61681  0.035791277  0.035983982            4 
 1751000   0.98736709   -6.0373577    753.12704  0.035842711  0.035974517            7 
 1752000   0.97152601   -6.0620894    750.03615  0.035675235  0.035964963           14 
 1753000   0.98265815   -6.0155838     754.6683  0.035875086  0.035955617            4 
 1754000   0.95879036    -5.991733    755.01979  0.035871332   0.03594626            7 
 1755000    0.9886282   -6.0071317    755.82265  0.035889015   0.03593683            2 
 1756000   0.98884808   -6.0750432    754.29482  0.035796072  0.035927387            6 
 1757000   0.97734221   -6.0447653    753.79781  0.035752125  0.035917932            4 
 1758000   0.96919519    -6.042335    756.02853   0.03583753  0.035908292            4 
 1759000   0.97294671   -6.0768473    753.43209  0.035694149   0.03589875            7 
 1760000   0.96956109   -6.0439407    753.59126  0.035681404  0.035888998            3 
 1761000   0.96421923   -6.0668967    755.74226  0.035762931  0.035879445            4 
 1762000   0.95105869   -6.0352564    757.46251  0.035823993  0.035869993            2 
 1763000   0.96996492   -6.0385198    753.08468  0.035596742  0.035860498            5 
 1764000   0.98156428   -6.0743762    754.57945  0.035647177  0.035851085            5 
 1765000   0.97179668    -6.021541    756.54198   0.03571964   0.03584174            2 
 1766000   0.96558593   -6.0234918     757.7002  0.035754068  0.035832395            2 
 1767000   0.97392315   -6.0623693    755.79067  0.035643778   0.03582303            5 
 1768000   0.96967115   -6.0203968    758.23803  0.035738972  0.035813634           14 
 1769000   0.97500411   -6.0438315    757.40968  0.035679748  0.035804123            7 
 1770000   0.97091618   -6.0003537    762.43114  0.035896005  0.035794868           10 
 1771000   0.96071853   -6.0320734    758.99872  0.035714225  0.035785581            4 
 1772000   0.96036387   -6.0455503    759.54006  0.035719529  0.035775993            5 
 1773000   0.94209544   -6.0687464    758.74577   0.03566205  0.035766516            4 
 1774000   0.96703867   -6.0123418    759.92489  0.035697336  0.035757164            3 
 1775000   0.96374029   -6.0522249    760.20528  0.035690389  0.035747936            2 
 1776000   0.97943921   -6.0474074    760.08532  0.035664664  0.035738665            3 
 1777000   0.97947872   -6.0235074     761.2824  0.035700731  0.035729287            7 
 1778000   0.97880371   -6.0428267    760.85838  0.035660779  0.035719956            3 
 1779000   0.96291018   -6.0366976     760.6318   0.03563012  0.035710728            3 
 1780000   0.97043864   -6.0092805     760.7282  0.035614616  0.035701342           13 
 1781000   0.97690558   -6.0145961    760.76868  0.035596513  0.035692027            3 
 1782000   0.96474152   -6.0294795    761.75437  0.035622632  0.035682683            5 
 1783000   0.97467534   -6.0463006    757.91061  0.035423005  0.035673243            6 
 1784000   0.98247255     -6.06269    757.33166  0.035376105  0.035663719            5 
 1785000   0.98516606   -6.0169815    762.48535  0.035596889  0.035654376            2 
 1786000   0.96075767   -6.0696815    760.48611  0.035483674  0.035644912            8 
 1787000   0.97099502   -6.0640997    760.23758  0.035452228  0.035635285            7 
 1788000    0.9625416   -6.0209719    764.39243  0.035626045  0.035625712            3 
 1789000   0.94644056   -6.0858158    759.52154  0.035379241  0.035616115            5 
 1790000   0.97624203    -6.044151    762.88308  0.035515972  0.035606504            4 
 1791000   0.94335307   -6.0290244    761.25704  0.035420484  0.035596915            4 
 1792000    0.9729642   -6.0683332    761.74642  0.035423476  0.035587332            4 
 1793000   0.96461442   -6.0682774     761.5474  0.035394469  0.035577646            3 
 1794000    0.9979436   -6.0140491    765.27411   0.03554785  0.035568101            2 
 1795000   0.96139485   -6.0591688    762.78594  0.035412532  0.035558722            4 
 1796000   0.97100631   -6.0496039    763.95003  0.035446827  0.035549246            4 
 1797000   0.95811865   -6.0459152    765.18427  0.035484338  0.035539818            5 
 1798000   0.95055639   -6.0463849    765.32908  0.035471314  0.035530609            5 
 1799000   0.97182371   -6.0578855    762.95765  0.035341748  0.035521234            7 
 1800000   0.93708907   -6.0597003    765.39615  0.035435007  0.035511731            2 
 1801000   0.97054114   -6.0817057    762.76098  0.035293401  0.035502195            6 
 1802000   0.96001438   -6.0395805    764.94765  0.035374938  0.035492826            5 
 1803000    0.9789104   -6.0286489    768.55763  0.035522168  0.035483447            9 
 1804000    0.9675953    -6.075629    766.86285  0.035424189  0.035474003            2 
 1805000   0.94781945   -6.0788017     765.4898  0.035341173  0.035464545            8 
 1806000   0.97629157   -6.0382186    766.47968  0.035367279  0.035455074           12 
 1807000   0.96741776   -6.0609086    765.84649  0.035318506  0.035445698            3 
 1808000   0.95954326   -6.0400433     766.4965  0.035328932  0.035436375            4 
 1809000    0.9600686   -6.0583541    765.82105  0.035278287   0.03542705            4 
 1810000   0.96517612   -6.0544121     767.8937  0.035354222  0.035417848            8 
 1811000   0.97448476   -6.0827515    765.67883  0.035232783   0.03540847            4 
 1812000   0.96055049   -6.0441837    768.60645  0.035347979  0.035399119            8 
 1813000   0.96866315   -6.0948095    767.76392  0.035289755  0.035389578            3 
 1814000   0.96165381   -6.0658664    765.58317   0.03517012  0.035380183            8 
 1815000   0.97840256   -6.0830688    765.93551   0.03516692  0.035370566            3 
 1816000   0.95750429    -6.048456    768.13945   0.03524869  0.035361076            3 
 1817000   0.95844854   -6.0321342    770.15562  0.035321759  0.035351741            5 
 1818000   0.95749327   -6.0573901    768.90897  0.035245186   0.03534243            2 
 1819000    0.9523516    -6.051859    770.75886  0.035310558  0.035333047            6 
 1820000   0.96158351   -6.1018943    766.65365  0.035103189  0.035323541            7 
 1821000   0.97333218   -6.0556812    769.09988  0.035195858  0.035314087            3 
 1822000   0.95799606   -6.0397994    772.43001  0.035328852  0.035304611            6 
 1823000   0.96673355   -6.0750528    769.90129  0.035193879  0.035295093            4 
 1824000   0.95247478   -6.0924127    768.51293  0.035111153  0.035285547            5 
 1825000   0.95172722   -6.0797481    769.83877  0.035152455  0.035275967            5 
 1826000   0.95052076   -6.0351319    771.42702  0.035205687  0.035266618            3 
 1827000   0.97878913   -6.0791085    770.38093  0.035138703  0.035257236            8 
 1828000   0.96912243   -6.0736806    771.66788  0.035178149  0.035247758            5 
 1829000   0.96659453    -6.034432    771.57012  0.035154461   0.03523834            3 
 1830000   0.98937601   -6.0566231     773.7394  0.035234034  0.035228989            6 
 1831000   0.95737737   -6.0574592    770.83916  0.035082794  0.035219645            5 
 1832000   0.96133899    -6.020282    772.52939  0.035140529  0.035210297            2 
 1833000   0.96293808   -6.0303876    772.93276  0.035139696  0.035200914            5 
 1834000    0.9762346   -6.0481492    773.39657  0.035141611  0.035191546            7 
 1835000   0.94745112    -6.097387    772.04317  0.035060998  0.035182291            5 
 1836000    0.9288753   -6.0405246     774.8086   0.03516742  0.035172993            6 
 1837000   0.96513345   -6.0928962    771.76591  0.035010248  0.035163489            3 
 1838000   0.96549565   -6.0839071    771.08492  0.034960325  0.035154019            3 
 1839000   0.93962317   -6.0640905    772.44726  0.035003048  0.035144569            3 
 1840000   0.96235487   -6.0677283    776.03468  0.035146498  0.035135194            6 
 1841000   0.95027504   -6.0884216    773.38774  0.035007593  0.035125843            3 
 1842000   0.95489945   -6.0808815     774.7095  0.035048385  0.035116494            3 
 1843000   0.97570384   -6.0942718    774.22231  0.035007339  0.035107092            5 
 1844000   0.94616146   -6.0603004    775.72543  0.035056283  0.035097757            5 
 1845000   0.92684812   -6.0514088    775.41707  0.035023354  0.035088371            3 
 1846000    0.9736727   -6.0608011    774.73024  0.034973377  0.035079204            4 
 1847000   0.94199699   -6.0827735    777.32512  0.035071518  0.035069979            7 
 1848000   0.93032504    -6.043721    778.20213  0.035092087  0.035060605            3 
 1849000   0.95434748   -6.0627592    777.45759  0.035039552  0.035051466            9 
 1850000   0.94516196   -6.0373194    778.83253  0.035082546  0.035042273            1 
 1851000   0.96987971   -6.0528291    778.00666  0.035026412  0.035033012            6 
 1852000   0.96233811   -6.0594697    778.10242  0.035011808  0.035023783            5 
 1853000   0.95531844   -6.0365743    779.94998  0.035076002  0.035014533            3 
 1854000   0.95244249    -6.084502    778.51206  0.034992451  0.035005262            8 
 1855000   0.94639077   -6.0661478    778.28461   0.03496337  0.034995931            7 
 1856000   0.94516915   -6.0890844    775.56751  0.034822535  0.034986575            3 
 1857000   0.94575517   -6.0636758    779.54484  0.034982267  0.034977338            3 
 1858000    0.9723466   -6.0928803    775.39031  0.034777104  0.034968022            3 
 1859000   0.95083691   -6.0798678    778.01908  0.034876236  0.034958561            4 
 1860000   0.96866865   -6.0663108    777.05267  0.034814188   0.03494909            6 
 1861000    0.9576257   -6.0700447    778.49475  0.034860055  0.034939608            4 
 1862000    0.9425857   -6.0539794    780.14509  0.034915194  0.034930135            4 
 1863000   0.95005503    -6.059092    778.55237  0.034825209  0.034920735            4 
 1864000   0.96832164   -6.0803864    779.62718  0.034854577  0.034911402            5 
 1865000     0.960658   -6.0778885    778.27487  0.034775463   0.03490219            2 
 1866000   0.92700677   -6.0796905     779.4226  0.034808083  0.034892811            3 
 1867000   0.97228953   -6.1018914    779.90253  0.034810861  0.034883524            4 
 1868000   0.92975117   -6.0811988    780.68051  0.034826932  0.034874237            4 
 1869000   0.95637882   -6.0776405    780.93865  0.034819808  0.034864969           13 
 1870000   0.95965369   -6.1168802     777.5064  0.034648235  0.034855557            2 
 1871000   0.94241979   -6.1004111    779.50283  0.034718636  0.034846256            5 
 1872000   0.94802054    -6.081952    782.50111  0.034833561  0.034837061            2 
 1873000   0.95191587   -6.0556844    784.82544  0.034918377  0.034827939            6 
 1874000   0.94719509   -6.0719312    782.37513  0.034790783  0.034818755            4 
 1875000   0.92440922   -6.0833673    782.09687  0.034759861  0.034809651            3 
 1876000   0.94464565   -6.0893387     781.5568  0.034717342  0.034800507            2 
 1877000   0.94694383   -6.0718728    784.23784  0.034817876  0.034791475            6 
 1878000   0.95056351   -6.0594646    784.71979  0.034820722  0.034782473            7 
 1879000   0.94168468   -6.0697874    785.91704  0.034855288  0.034773406            5 
 1880000   0.95778803   -6.1234011    782.70434  0.034694341  0.034764338            5 
 1881000   0.96813036   -6.0931483    783.93109  0.034730245  0.034755044            3 
 1882000   0.96389774   -6.0553172    785.15647   0.03476605  0.034745879            3 
 1883000   0.94670557   -6.0591987    784.41252  0.034714663  0.034736757            7 
 1884000   0.94460252   -6.1048129    781.05239  0.034547611  0.034727498            3 
 1885000   0.95342882   -6.0817208    783.60372  0.034642074  0.034718166            5 
 1886000   0.94857447   -6.0891154    784.58014   0.03466685   0.03470882            5 
 1887000   0.93557618   -6.1191125    783.35134  0.034594212  0.034699552            3 
 1888000   0.95717673   -6.0579479    785.19648  0.034657331  0.034690269            9 
 1889000   0.95775028   -6.0929413    784.66766  0.034615655  0.034681031            2 
 1890000   0.94961292   -6.0760746    785.38053  0.034628771  0.034671837            5 
 1891000   0.95281675   -6.0838473    786.41148  0.034655891  0.034662605            4 
 1892000   0.95171902   -6.0766134    785.90252  0.034615157  0.034653302            9 
 1893000      0.95656      -6.0718    785.74642  0.034589999   0.03464402            7 
 1894000   0.94717139   -6.1205319    786.53221   0.03460631  0.034634694            4 
 1895000   0.94239948   -6.0679922    787.08534  0.034612372  0.034625451            5 
 1896000   0.93599618   -6.0696583    785.80903   0.03453802  0.034616251            4 
 1897000   0.95198064   -6.1113376    785.85119  0.034521665  0.034606975            8 
 1898000   0.94884793   -6.1248302    785.01583    0.0344668  0.034597507            6 
 1899000   0.93467655   -6.0655286    786.35496  0.034507415  0.034587892            5 
 1900000   0.93390467    -6.056655    788.31267  0.034575117  0.034578449            5 
 1901000   0.94555336   -6.0597026    787.60683  0.034525988  0.034569112            4 
 1902000    0.9405402   -6.1088919    785.01027  0.034394071  0.034559631            4 
 1903000   0.95311614    -6.097556     786.6161  0.034446317  0.034550279           15 
 1904000   0.96183513    -6.114047    787.23143  0.034455157  0.034540982            8 
 1905000   0.98346744   -6.1258514    784.26356  0.034307242  0.034531649            4 
 1906000   0.94850203   -6.0810618    790.26685  0.034551716  0.034522357            5 
 1907000   0.95604812   -6.1082171     788.0832  0.034438175  0.034513088            4 
 1908000   0.96164338   -6.0988462    790.30514   0.03451717  0.034503856            7 
 1909000   0.93377814   -6.1184742    786.68798   0.03434119  0.034494646            6 
 1910000   0.94261128   -6.1048427    789.62542  0.034451371  0.034485372            3 
 1911000   0.94836814   -6.0902884    789.75605  0.034439039  0.034476094            4 
 1912000    0.9280658   -6.1154564    787.81618  0.034336479  0.034466699            7 
 1913000   0.94811268   -6.0855549    790.27098  0.034425465   0.03445734            8 
 1914000   0.94618247   -6.0927903    788.95802  0.034350314  0.034447936            3 
 1915000   0.94901341   -6.1212902    788.64065  0.034318566  0.034438486            4 
 1916000   0.96096417    -6.117772    790.46501  0.034380002  0.034429232            3 
 1917000   0.95371088    -6.082203    793.41779  0.034490427  0.034419883            8 
 1918000   0.94009941   -6.0902945    791.64916  0.034395601  0.034410649            5 
 1919000   0.94937184   -6.1184845    790.94194  0.034346966  0.034401415            2 
 1920000   0.93714895   -6.1259618    784.98438  0.034070503  0.034392033            6 
 1921000   0.94882718   -6.0803894    792.01019  0.034357548  0.034382708            7 
 1922000   0.93282437   -6.1205053    791.59549  0.034321691  0.034373392            4 
 1923000   0.91898408   -6.1105499    792.93074  0.034361706  0.034364088            8 
 1924000   0.93303035   -6.0661898    790.39841  0.034234165  0.034354928            4 
 1925000   0.97792239   -6.1225352    790.28408  0.034211432  0.034345724            5 
 1926000   0.94324375   -6.0752684    793.57976  0.034336265  0.034336481            6 
 1927000   0.92571761   -6.0951566    791.76602  0.034240011   0.03432724            3 
 1928000   0.93048426   -6.1166153    792.80911  0.034267337  0.034317988            6 
 1929000   0.93573965   -6.0542234    794.99856  0.034344158  0.034308718            4 
 1930000   0.94285653   -6.0906691    794.55753   0.03430732  0.034299677            6 
 1931000   0.93753133   -6.0619454    797.92957  0.034435075  0.034290554            3 
 1932000    0.9484749   -6.1358361    791.08782  0.034122145  0.034281309            4 
 1933000   0.95739443   -6.1006843    795.00524  0.034273376   0.03427215            4 
 1934000    0.9766903   -6.1262128     795.6823  0.034284828  0.034262945            5 
 1935000    0.9290735   -6.0928325     794.6513  0.034222709  0.034253708            3 
 1936000   0.93284689   -6.1137664    793.74623  0.034166074  0.034244376            5 
 1937000   0.94562316   -6.1318261    793.92974   0.03415633  0.034234984            2 
 1938000    0.9455761   -6.1536859    793.01386  0.034099323  0.034225604            6 
 1939000   0.94632281   -6.1256854    794.54296  0.034147454  0.034216335            1 
 1940000   0.93878353   -6.0932929    798.05633   0.03428077  0.034207081            3 
 1941000   0.92006097   -6.0836035    798.73001  0.034292032  0.034197904            3 
 1942000   0.95440595   -6.0891031    797.42075  0.034218192  0.034188786            4 
 1943000   0.94093081   -6.1387209    793.27078  0.034022593  0.034179711            5 
 1944000   0.92814942   -6.0878638    800.26245  0.034304803  0.034170514            7 
 1945000   0.93368357   -6.1178108    798.35338  0.034205372   0.03416148            5 
 1946000   0.94465656    -6.123339    795.88555  0.034082115  0.034152414            5 
 1947000   0.94829456   -6.1148841    797.14757  0.034118626  0.034143505            6 
 1948000   0.95840151   -6.1302447     797.2592  0.034105886  0.034134453            4 
 1949000   0.92943363   -6.0981052    799.91754   0.03420205   0.03412521            4 
 1950000   0.95932248    -6.080251    801.06022  0.034233343  0.034116087            3 
 1951000   0.92610858   -6.0994742    799.59979  0.034153416   0.03410711           13 
 1952000   0.93455666   -6.0818539    799.42953  0.034128651  0.034098134            3 
 1953000   0.94957154   -6.0831339    798.61925  0.034076602  0.034089054            6 
 1954000    0.9326169     -6.10663     799.7982  0.034109442  0.034079893            3 
 1955000   0.93642623   -6.0828045    802.33497  0.034200127  0.034070708            4 
 1956000   0.93431627   -6.0967544    798.59834  0.034023447  0.034061608           10 
 1957000   0.94096381   -6.1308333    799.75109  0.034055148  0.034052512            7 
 1958000   0.96620119    -6.113937     801.0446  0.034092807  0.034043501            5 
 1959000   0.93767358   -6.0932638    802.19206  0.034124216  0.034034378            4 
 1960000   0.93437492   -6.1111185    802.06531  0.034101416  0.034025117            4 
 1961000   0.93661052   -6.0985602     801.7088  0.034068876  0.034015933            5 
 1962000   0.95508468   -6.1154439    800.19234  0.033987102  0.034006738            3 
 1963000   0.94073194    -6.137561     800.0726  0.033964705  0.033997441            6 
 1964000   0.94108445   -6.1053042    800.84995  0.033980395  0.033988189            5 
 1965000   0.93841576   -6.1301029    800.53359  0.033949686  0.033978816            2 
 1966000   0.95246534   -6.1184712    799.41137  0.033884849  0.033969463            3 
 1967000   0.92705889   -6.1185053    799.22137  0.033859573  0.033960231            3 
 1968000   0.94525066   -6.1256465    799.14582  0.033839169  0.033951033            9 
 1969000   0.93015342   -6.1082378    801.70794  0.033930419  0.033941768            4 
 1970000   0.94503344   -6.1237841    801.69494  0.033912645  0.033932329            4 
 1971000   0.93569026   -6.1505139     801.6633  0.033894102  0.033922998            2 
 1972000   0.95214696   -6.1654702    799.04637  0.033766328  0.033913554            4 
 1973000   0.93356601   -6.1017318    800.19115  0.033797565  0.033904119            7 
 1974000    0.9457255   -6.1214448    800.99475  0.033814368  0.033894685            4 
 1975000   0.92982936    -6.116366    803.43957  0.033900404  0.033885314            3 
 1976000   0.94002467   -6.1147306    802.63429  0.033849287  0.033876066            5 
 1977000   0.92308925   -6.1094273    803.87199  0.033884336  0.033866895            4 
 1978000   0.96238648   -6.1209884    802.78082  0.033821235  0.033857788            4 
 1979000   0.94048771   -6.1043807    803.03784  0.033814967  0.033848507            2 
 1980000    0.9304578   -6.1156019    805.15641  0.033887054  0.033839263            3 
 1981000    0.9270429   -6.1216357    803.63469  0.033805935  0.033830077            4 
 1982000   0.93761484   -6.1196181    803.61587  0.033788088  0.033820809            5 
 1983000   0.93602846   -6.1074056    805.72175  0.033859546  0.033811582            9 
 1984000    0.9455922   -6.0762352     805.7195  0.033842385  0.033802498            3 
 1985000   0.94023436   -6.1251344    804.30363  0.033765895  0.033793374            4 
 1986000   0.93881085   -6.1345786     803.9149  0.033732582  0.033784324            4 
 1987000   0.92340121   -6.1411774    805.48403  0.033781414  0.033775223            2 
 1988000   0.94098397   -6.1040025    807.01251  0.033828492  0.033766145            3 
 1989000   0.93240139   -6.1536039    806.59216  0.033793873  0.033757017            4 
 1990000   0.94322031   -6.1447562    804.26979  0.033679639  0.033748014            4 
 1991000   0.91826568   -6.1303711    806.78487  0.033767992  0.033738858            4 
 1992000   0.92664359   -6.1382787    806.45315  0.033737163  0.033729673            7 
 1993000   0.92100671   -6.1425099    807.62046  0.033769044  0.033720396            4 
 1994000   0.93520913   -6.1190743    808.93965  0.033807241  0.033711282           10 
 1995000   0.95097505   -6.1058361    807.54439  0.033732013  0.033702132            6 
 1996000   0.92346013   -6.1314691    808.61194  0.033759684  0.033692986            4 
 1997000   0.91328621   -6.1197259    809.37345  0.033774556  0.033683887            3 
 1998000   0.92503765   -6.1166273     807.8288  0.033693226  0.033674799            6 
 1999000   0.92193998   -6.1023377    811.16199  0.033815324  0.033665616            5 
 2000000   0.91575009   -6.1278491    807.51591  0.033646496  0.033656515            5 
 2001000   0.93894175   -6.0902496    810.80551  0.033766679  0.033647507           12 
 2002000   0.94146522   -6.1679351    806.25319  0.033560323  0.033638483           10 
 2003000   0.94558392   -6.1353906    807.83303  0.033609296  0.033629305            3 
 2004000   0.93677833   -6.1181741    810.71537  0.033712382  0.033620283            4 
 2005000   0.91945235   -6.1443773     807.0886   0.03354483  0.033611215            5 
 2006000   0.92760581   -6.1003067    811.98263  0.033731416  0.033602153            4 
 2007000   0.92895119   -6.1203203    809.76589  0.033622566  0.033593132            1 
 2008000   0.93815298   -6.1295547     812.6616  0.033725996  0.033584139            4 
 2009000   0.94530264   -6.1232786    810.35138  0.033613381  0.033575112            1 
 2010000   0.91578814   -6.1236314    813.10561  0.033710846  0.033566153            4 
 2011000   0.93165028   -6.1289193    809.04907  0.033525985  0.033557049            4 
 2012000   0.93628391   -6.1279954    812.13138  0.033636986  0.033547938            9 
 2013000   0.93891531   -6.1233051    809.77605  0.033522771  0.033538877            6 
 2014000   0.91405744   -6.1873464      810.377  0.033530991  0.033529862            5 
 2015000   0.92632705   -6.1073337    814.37521  0.033679703  0.033520788            4 
 2016000   0.91706541   -6.1545353    812.45875  0.033583778  0.033511701            6 
 2017000   0.92240524   -6.1439148    812.82721   0.03358235  0.033502804            6 
 2018000   0.93340965   -6.1290163    814.19999  0.033622398  0.033493873            4 
 2019000   0.95154687   -6.1241053    813.21954  0.033565278  0.033485028            2 
 2020000   0.91783695   -6.1298017    813.59822  0.033564283  0.033476153            6 
 2021000   0.95061532   -6.1318543    813.96377  0.033562748  0.033467178            3 
 2022000    0.9094382   -6.1459259    811.66903  0.033451575  0.033458248            4 
 2023000    0.9204641   -6.1484247    812.50995   0.03346968  0.033449266            5 
 2024000   0.95379225   -6.1110878     813.6296  0.033499242  0.033440495            5 
 2025000   0.90143466   -6.1697347      813.768  0.033488395  0.033431613            6 
 2026000   0.91237872   -6.1659044    812.35313  0.033413669  0.033422653            3 
 2027000   0.90429034   -6.1538283    815.05017  0.033508065   0.03341362            4 
 2028000   0.93589687   -6.1657734    813.91596  0.033444936  0.033404767            7 
 2029000   0.93407427   -6.1427839    815.41028  0.033489826  0.033395999            5 
 2030000   0.94741157   -6.1390288    814.73503  0.033445609  0.033387154            5 
 2031000   0.91527015   -6.1210355    815.41791   0.03345716  0.033378296            4 
 2032000   0.91712665   -6.1252218    815.28673  0.033435315  0.033369432            6 
 2033000   0.93604597   -6.1568788    812.49592  0.033304473   0.03336051            3 
 2034000   0.91666394   -6.1359664    815.69564  0.033419192   0.03335148            6 
 2035000   0.91862291    -6.154516     816.0504  0.033417297   0.03334257            5 
 2036000   0.92669076   -6.1300812    819.57818  0.033545276  0.033333765            2 
 2037000   0.91289761   -6.1544195    817.90107  0.033460197  0.033324938            5 
 2038000   0.94099022   -6.1658297    815.34973  0.033339456  0.033316131            7 
 2039000   0.93380473    -6.170085    815.91764  0.033346315  0.033307325            2 
 2040000   0.93701428   -6.1610079    816.60943  0.033358228   0.03329857            1 
 2041000   0.90829596   -6.1361278    819.43441  0.033457227  0.033289831            3 
 2042000   0.93379821   -6.1660343    817.06068  0.033343972   0.03328113            7 
 2043000   0.91366291   -6.1281283    819.34459  0.033420811  0.033272355            5 
 2044000   0.91959507   -6.1353546    820.15534  0.033437514  0.033263686            9 
 2045000    0.9026585   -6.1489449    819.85935  0.033409102  0.033255011           12 
 2046000   0.90322314   -6.1404384    821.43642  0.033457006  0.033246209            6 
 2047000   0.92442427   -6.1761358    818.95198  0.033339521  0.033237594            3 
 2048000   0.95996261   -6.1661995    819.76064  0.033356146  0.033228825            6 
 2049000   0.94836599   -6.1629441    818.86884  0.033303597  0.033220114            5 
 2050000   0.91891545   -6.2083096    817.49632  0.033231558  0.033211414            7 
 2051000   0.94384238   -6.1535818    821.58105   0.03338132  0.033202741            4 
 2052000   0.91677403   -6.1708087    820.66398  0.033327809   0.03319419            4 
 2053000   0.93736256    -6.186081    819.43463  0.033261675  0.033185521            5 
 2054000   0.91124565    -6.104356    823.35408  0.033404498  0.033176949            8 
 2055000   0.91866358   -6.1320096     824.1987  0.033422494  0.033168459            3 
 2056000   0.92491842   -6.1465054    820.50598  0.033256565   0.03315981            4 
 2057000   0.93466228   -6.1576323    824.28574  0.033393524  0.033151378            3 
 2058000   0.92226665   -6.1770565    822.55287  0.033307129  0.033142791           13 
 2059000   0.92785362   -6.1449971    822.58599  0.033292294  0.033134161            2 
 2060000   0.92120757   -6.1818435    822.90774  0.033289148  0.033125663            4 
 2061000   0.90794134   -6.1475233    825.62628  0.033382916  0.033117111            5 
 2062000   0.89865113   -6.1515335    825.22606  0.033350552  0.033108687            4 
 2063000   0.93265223      -6.1226    823.61462  0.033269293  0.033100361            8 
 2064000    0.9243958   -6.1583664    827.17358  0.033396866  0.033091937            4 
 2065000    0.9341378   -6.1575036      824.899  0.033288902  0.033083489            3 
 2066000   0.91996709   -6.1202782    826.08475  0.033320617   0.03307504            3 
 2067000   0.91703264   -6.1309075    827.67329  0.033368541  0.033066624            5 
 2068000   0.93499481   -6.1762341    825.43182  0.033262082   0.03305814            7 
 2069000   0.91222553   -6.1207151    824.66554  0.033215142  0.033049684            5 
 2070000   0.90286724   -6.1915209    825.26063  0.033223053  0.033041146            3 
 2071000   0.90991326   -6.1662883    827.23412   0.03328642  0.033032613            5 
 2072000   0.92216726   -6.1854496    826.50913  0.033241197  0.033024038            4 
 2073000   0.94235886   -6.1347222    826.44993  0.033222782  0.033015582            8 
 2074000   0.93227582   -6.1474857    826.58059  0.033212014  0.033006999            7 
 2075000   0.93004674   -6.1539605    827.25317  0.033223019  0.032998359            5 
 2076000   0.92687391   -6.1397851    826.84186  0.033190505  0.032989658            6 
 2077000   0.91189445   -6.1801787    825.16062   0.03310707  0.032981036            6 
 2078000   0.90717206    -6.141016    829.27654  0.033256198  0.032972447            4 
 2079000   0.91535983    -6.147264    826.89532  0.033144754  0.032963863            8 
 2080000   0.91709605   -6.1579787    826.71691  0.033121671  0.032955248            4 
 2081000   0.91640813   -6.1722075    827.57641  0.033140173  0.032946654            9 
 2082000   0.90579444   -6.1659442    828.35505  0.033155421  0.032938103            9 
 2083000   0.91076126   -6.1733959     827.6132  0.033109826  0.032929456            9 
 2084000   0.91225189   -6.1282361    828.80476  0.033141585  0.032920782            5 
 2085000   0.92875601   -6.1755932    827.92014  0.033090333  0.032912213            9 
 2086000   0.91214674   -6.1508839    828.39521  0.033093449  0.032903608            7 
 2087000   0.95019534   -6.1860625    827.70439  0.033050008  0.032894973            6 
 2088000   0.91738678   -6.1662028    826.58884  0.032989657  0.032886378            4 
 2089000   0.90450418   -6.1611629    829.35321  0.033084139  0.032877913            5 
 2090000   0.93377312   -6.1964017    827.80261  0.033006484  0.032869393            8 
 2091000   0.91856615   -6.1255142    832.41052  0.033174339  0.032860848            6 
 2092000   0.92926871   -6.1465072    826.92027  0.032939781  0.032852283            3 
 2093000    0.9249052   -6.1369531    829.12079  0.033011657  0.032843722            6 
 2094000   0.89797861   -6.1621032    829.07954  0.032994251  0.032835207            2 
 2095000   0.90248512   -6.1556342    829.85424  0.033009317  0.032826712            6 
 2096000   0.92603306   -6.1452728    832.13228   0.03308414   0.03281825            3 
 2097000   0.91709561   -6.1521155      830.729  0.033012597  0.032809825           10 
 2098000   0.90515248   -6.1819461     831.3985  0.033023455   0.03280136            4 
 2099000   0.92385894   -6.1852745    830.45522  0.032970272  0.032792831            6 
 2100000   0.91488448   -6.1789116    830.03988  0.032938091  0.032784283            5 
 2101000   0.92758817   -6.1496057     831.5352  0.032981723  0.032775745            4 
 2102000   0.92557838   -6.1482578    829.42101  0.032882216  0.032767272            3 
 2103000   0.94742643   -6.1848316    830.30751  0.032901708  0.032758837            7 
 2104000   0.91939926   -6.1582705    832.48939  0.032972488  0.032750256            5 
 2105000   0.90790445   -6.1787772    832.16202  0.032943865  0.032741721           10 
 2106000   0.89054015   -6.1454714    835.54935  0.033062257  0.032733191            3 
 2107000   0.89522449   -6.1837517    831.30905  0.032878858  0.032724632            3 
 2108000   0.90752883   -6.1294093    835.61787  0.033033597  0.032716153            4 
 2109000   0.90807008   -6.1625816    833.50081  0.032934282  0.032707735            6 
 2110000   0.91562125   -6.1809069    833.28382  0.032910104  0.032699224            5 
 2111000    0.9082483   -6.1837831    832.27591  0.032854725  0.032690654            5 
 2112000   0.90716221   -6.1707454    832.27984  0.032839324   0.03268202            4 
 2113000    0.9117738   -6.1509862     834.2327  0.032900801  0.032673472           13 
 2114000   0.92269301   -6.1490532     833.9238   0.03287306  0.032664996            4 
 2115000   0.91753928    -6.167757    836.19224  0.032946897  0.032656487           13 
 2116000   0.90624401   -6.1948446    831.36698  0.032741296   0.03264808            4 
 2117000   0.91409039   -6.1493058    836.17856  0.032915232  0.032639593            4 
 2118000   0.91250752   -6.1592408     833.3508  0.032788433  0.032631134            2 
 2119000   0.91818532   -6.1778721    833.65945  0.032785097  0.032622547            4 
 2120000   0.90805326   -6.1936014    833.96851  0.032781781  0.032614038            7 
 2121000   0.90091657   -6.1991033    835.03679  0.032808298  0.032605506            7 
 2122000   0.93688458   -6.1945112    833.87433  0.032747185  0.032596967           18 
 2123000   0.89945467   -6.1872217    836.29949  0.032826954  0.032588414            2 
 2124000   0.92390969   -6.1990291    834.04282   0.03272296  0.032579889           11 
 2125000   0.90530278   -6.2062373    835.65421  0.032770753  0.032571338            3 
 2126000   0.91605482   -6.1720132    836.00107  0.032768935  0.032562856            3 
 2127000   0.91901246   -6.1914832    835.46234  0.032732422  0.032554459            3 
 2128000   0.89661462   -6.1957571    834.05568  0.032661955  0.032545911            6 
 2129000   0.91472149   -6.1828046    835.07749  0.032686609   0.03253743            6 
 2130000    0.9216842    -6.152139    840.76695  0.032893856  0.032529036            5 
 2131000   0.91116271   -6.1376192    837.97164  0.032769108  0.032520656            8 
 2132000   0.91166898   -6.1842783    839.25937  0.032804072   0.03251233            4 
 2133000   0.89660565   -6.1887947    836.93618  0.032697929  0.032503894            6 
 2134000   0.90652129   -6.1417865    838.94102  0.032760896  0.032495396            6 
 2135000   0.89863929   -6.1936991    838.61718  0.032732911   0.03248704            5 
 2136000   0.92374091   -6.1889215    837.84123  0.032687314  0.032478504            5 
 2137000    0.9189674    -6.191451    839.39451  0.032732589   0.03247006            5 
 2138000   0.91159255   -6.1926065    839.60558  0.032725506  0.032461622            2 
 2139000   0.91764674    -6.190244    839.43313  0.032703488  0.032453164            3 
 2140000   0.91536877   -6.1535397    839.95376   0.03270848  0.032444792           10 
 2141000   0.93014234   -6.1739887    840.88281  0.032729364  0.032436516            9 
 2142000   0.90931394   -6.2071506    841.38944  0.032733794   0.03242821            4 
 2143000   0.91563362   -6.1738451    838.84381  0.032619529  0.032419933            5 
 2144000   0.90367682   -6.1769568    840.98533  0.032687552  0.032411609            5 
 2145000   0.90873267    -6.176642    840.31462  0.032646256  0.032403363            5 
 2146000   0.90146301   -6.1992324    838.14938  0.032546963  0.032394963            6 
 2147000   0.90795564    -6.172882    843.80563  0.032751344  0.032386553            5 
 2148000   0.91965434   -6.2187603    841.45677  0.032644971  0.032378304            8 
 2149000   0.93224069   -6.2300376    839.42473  0.032550982  0.032369931            5 
 2150000   0.90578087   -6.1922283    844.84632  0.032745982  0.032361692           11 
 2151000   0.92960768    -6.186646     842.6449  0.032645471    0.0323534            5 
 2152000   0.91239868   -6.2044432    842.28482  0.032616358  0.032345076            3 
 2153000   0.91582172   -6.1486647     845.5232  0.032726552  0.032336811           11 
 2154000   0.90258414   -6.2214238    842.90922   0.03261023   0.03232859            5 
 2155000   0.91247508   -6.1549725    844.31541  0.032649474  0.032320345            3 
 2156000   0.90031917   -6.1880978    841.73086  0.032534433  0.032312135            9 
 2157000   0.89289024   -6.2167677    843.76556  0.032597959  0.032303757            3 
 2158000   0.92005111   -6.1971617    842.14338  0.032520211  0.032295383            4 
 2159000   0.89524235   -6.1850918    843.96122  0.032575313   0.03228701           14 
 2160000   0.91952759    -6.174156    846.32071  0.032651262  0.032278738            4 
 2161000   0.92198118   -6.2309234    840.43013  0.032408998  0.032270314            3 
 2162000   0.91570625   -6.1937583    841.39368  0.032431147  0.032261811            6 
 2163000    0.9084753   -6.1804653    842.76159  0.032468855  0.032253409            9 
 2164000   0.92201326   -6.1982039    841.74082  0.032414542  0.032244921           11 
 2165000   0.90580436   -6.1595447     844.1114  0.032490816  0.032236347            5 
 2166000   0.89782785    -6.219411    840.32816  0.032330261  0.032227836            3 
 2167000   0.92123436   -6.2167064    842.36658  0.032393731  0.032219201            7 
 2168000   0.90638206   -6.1695139    843.94163  0.032439331  0.032210571            5 
 2169000   0.91458102     -6.21174    843.60034  0.032411263  0.032202003            8 
 2170000    0.9043517   -6.1979845    842.98758  0.032372795  0.032193402            3 
 2171000   0.91498572   -6.1833947    845.12477  0.032439919  0.032184844            4 
 2172000   0.91017673   -6.2066514    844.46905  0.032399825  0.032176219            5 
 2173000    0.9184969   -6.1874234    843.26274  0.032338654  0.032167689            6 
 2174000   0.91107234   -6.1834885    843.62062  0.032337497  0.032159059            5 
 2175000   0.90072135   -6.1939374      845.574  0.032397471  0.032150616            4 
 2176000   0.90813053   -6.1967411    843.57902  0.032306182  0.032142228            4 
 2177000   0.89327013   -6.1788936    845.26282  0.032355796   0.03213373            3 
 2178000   0.91158409   -6.1862041     846.0261  0.032370144  0.032125236            5 
 2179000   0.89881485   -6.2017456    845.70098  0.032342855  0.032116636            3 
 2180000   0.92050902   -6.1870596    846.69647  0.032366073  0.032108133            4 
 2181000   0.89116659   -6.1999778    848.46866  0.032418946  0.032099676            9 
 2182000    0.8944638   -6.1608585    846.63986  0.032334244  0.032091245            4 
 2183000   0.89588416   -6.1923909    847.06882  0.032335808  0.032082716            6 
 2184000   0.91770743    -6.179345    848.57416   0.03237844   0.03207419            7 
 2185000   0.91620283   -6.2135524    843.93408  0.032186654  0.032065616            4 
 2186000   0.90717558   -6.2252278    844.23026  0.032183221  0.032057048            2 
 2187000   0.89624094   -6.1594153    847.34942  0.032287358  0.032048673            4 
 2188000   0.90400706   -6.2086394    848.19217  0.032304699  0.032040294            4 
 2189000   0.88959961   -6.2230519    846.67629  0.032232233   0.03203169            6 
 2190000   0.88788808   -6.1992099    848.00044  0.032267901  0.032023088            5 
 2191000   0.89625348   -6.2038127    848.62355  0.032276873  0.032014482            6 
 2192000   0.89042042   -6.2106952    846.97498  0.032199475  0.032005959            6 
 2193000   0.88662382   -6.1992128    848.23517  0.032232679  0.031997493            4 
 2194000   0.90618998   -6.1676405     848.0516  0.032211015   0.03198908            3 
 2195000   0.90781822   -6.2014718    848.21956  0.032202717  0.031980619            5 
 2196000   0.90569428   -6.2173168     850.2179  0.032263885  0.031972155            4 
 2197000   0.89030867   -6.2010896    849.35218  0.032216363  0.031963748            6 
 2198000   0.90717245   -6.1963446    850.53175  0.032246427  0.031955291            9 
 2199000   0.88918452   -6.2295719    847.91266   0.03213251  0.031946847            6 
 2200000   0.89924115   -6.2121684    847.18707  0.032090419  0.031938372            8 
 2201000   0.89582897   -6.2121826    848.40904  0.032122105  0.031929996            5 
 2202000    0.9114708   -6.2273381     847.8902  0.032087882   0.03192158            3 
 2203000   0.90849726   -6.2203842    849.81711  0.032146206  0.031913149            5 
 2204000   0.91404277   -6.2575118     848.9229  0.032097811  0.031904751            6 
 2205000   0.90888896   -6.1832224    852.23778  0.032208533  0.031896357            7 
 2206000   0.91958181   -6.2143664    849.45746  0.032088904  0.031888044            3 
 2207000   0.88344505   -6.2321118    848.37691  0.032033564  0.031879638            3 
 2208000   0.90531778   -6.2260031    850.27113  0.032090547  0.031871153            4 
 2209000   0.87683075   -6.1893802    853.41796  0.032194732  0.031862727            2 
 2210000    0.9106746   -6.2189886    851.24968  0.032098404   0.03185439            7 
 2211000   0.88162574   -6.2283031     850.9305  0.032071856  0.031845966            8 
 2212000   0.89783534    -6.195881    852.33414  0.032110237  0.031837582            9 
 2213000   0.89204494   -6.2093476    850.01055   0.03200823   0.03182918            4 
 2214000   0.91048779   -6.2434937    852.22013  0.032076939  0.031820695            9 
 2215000   0.89860331   -6.1886461    853.93893  0.032127123  0.031812293           10 
 2216000   0.88929004   -6.1953504    853.05296  0.032079308  0.031803964            9 
 2217000   0.89763433   -6.2294216    853.59493   0.03208521  0.031795639            5 
 2218000   0.90375845   -6.2303461    850.64215  0.031959804  0.031787151            5 
 2219000   0.88378338   -6.2260639    852.40602  0.032011643  0.031778706            7 
 2220000    0.8914387   -6.1964091    854.43872  0.032073526  0.031770281            3 
 2221000   0.90238763    -6.214285    853.29715  0.032016252  0.031761896            5 
 2222000   0.88529842   -6.1753804    855.18168   0.03207252   0.03175359            8 
 2223000   0.88374541   -6.2228975     853.0652  0.031978752  0.031745258            6 
 2224000   0.91671583   -6.2210146    851.84112  0.031918507  0.031736834           16 
 2225000    0.8657125   -6.2542282    851.36784  0.031886436  0.031728306            5 
 2226000   0.90236302   -6.2143244    852.71536  0.031922558   0.03171973            4 
 2227000    0.8836321   -6.1826671    856.78713  0.032060587   0.03171126            4 
 2228000   0.89262258   -6.2191054    854.60902   0.03196473  0.031702768            4 
 2229000   0.89055204   -6.2158048    853.24244  0.031899299  0.031694276            7 
 2230000   0.89460504   -6.2245623    851.60682  0.031823872  0.031685796            4 
 2231000    0.9099255   -6.2053273    852.93971  0.031859394  0.031677342            6 
 2232000    0.8855352   -6.2148362    853.81871  0.031877939  0.031668808            5 
 2233000   0.89773768   -6.2158973    853.22158  0.031841379  0.031660298            6 
 2234000   0.87781178   -6.2065786    856.55356  0.031951416  0.031651737            4 
 2235000   0.87249959   -6.2411121    854.19558  0.031849201  0.031643204           22 
 2236000    0.9023676   -6.2254055    856.07691  0.031905073  0.031634703            3 
 2237000   0.89401817   -6.2292058    853.81139  0.031806414   0.03162624            4 
 2238000    0.9007619   -6.2285564    855.63467  0.031860093  0.031617752            5 
 2239000    0.9009158   -6.2152807    856.20271  0.031867006  0.031609427            5 
 2240000     0.905996   -6.2229106     853.7851  0.031762839  0.031600943            6 
 2241000   0.88233294   -6.2346384    856.40705  0.031846164  0.031592546            5 
 2242000   0.90904997   -6.2037251    856.60975  0.031839494  0.031584133            5 
 2243000   0.88740519   -6.2051423    853.96218  0.031726935  0.031575681            6 
 2244000   0.87886931   -6.2337865     854.0988   0.03171787  0.031567119            7 
 2245000   0.90080801   -6.2189408    856.60932  0.031796931   0.03155852            6 
 2246000   0.90192525   -6.1961779    856.56642  0.031781182  0.031549973            4 
 2247000   0.89691626    -6.255208    856.68766  0.031771535  0.031541498           14 
 2248000   0.89149579   -6.2389808    853.96634  0.031656522     0.031533           11 
 2249000   0.88834539   -6.2038354     858.4117  0.031807162  0.031524432            3 
 2250000   0.90210502   -6.2185745    858.86757   0.03180991  0.031516014            6 
 2251000   0.88131398   -6.2771161    857.76797  0.031755071  0.031507544            5 
 2252000   0.90906307   -6.2492077    855.58384  0.031660148  0.031499037           11 
 2253000   0.88321318   -6.2754816    855.81303  0.031654573  0.031490469            8 
 2254000   0.89028169   -6.2027381    857.54638  0.031704613  0.031481898           10 
 2255000   0.89596055   -6.2767132    853.65096  0.031546599  0.031473291            6 
 2256000   0.86962786   -6.2408842    855.59798  0.031604535  0.031464708            4 
 2257000    0.8924355   -6.2094521    857.36792  0.031655882  0.031456238            4 
 2258000   0.89391053   -6.2579471    857.05414  0.031630283  0.031447795            5 
 2259000   0.89846704   -6.2315615    857.55925  0.031634914  0.031439365            5 
 2260000   0.86906799   -6.2282383    859.10401  0.031677876  0.031430928           19 
 2261000   0.87903108   -6.1879495    858.74255  0.031650544  0.031422534            3 
 2262000   0.89553154   -6.2272579    858.15444  0.031614885  0.031414113            4 
 2263000   0.85553674   -6.2272705     859.3721  0.031645754  0.031405557            5 
 2264000   0.87816503   -6.2451172     859.0281  0.031619114  0.031397138            4 
 2265000    0.9107903   -6.2148599    858.21622  0.031575284  0.031388607            6 
 2266000   0.88961661   -6.2437996    858.65663  0.031577546  0.031380124            5 
 2267000   0.88305081   -6.2164293    862.38269  0.031700584  0.031371673            3 
 2268000   0.87256795    -6.214279    861.01703  0.031636428  0.031363168            6 
 2269000   0.88120108   -6.2468949    857.93451  0.031509274  0.031354714            5 
 2270000   0.88058572   -6.2319404    859.63443  0.031557798  0.031346321           14 
 2271000   0.88292724   -6.2455525    858.39968  0.031498594  0.031337798            9 
 2272000    0.8839559   -6.2311209    858.85225   0.03150133  0.031329168            9 
 2273000   0.90717076   -6.2452087    858.06712  0.031458686  0.031320628            4 
 2274000   0.88919399   -6.2055289    859.52094  0.031498129  0.031312153            5 
 2275000   0.87546994   -6.2222547     859.0657  0.031467608  0.031303604            5 
 2276000   0.88420942   -6.2177566    858.35015  0.031427583  0.031295114            3 
 2277000   0.93210494   -6.2289232    860.50529  0.031492654  0.031286572            5 
 2278000   0.87995512   -6.2257867    861.99449  0.031533308  0.031278104            4 
 2279000   0.89452124   -6.2396018    859.72552  0.031436504  0.031269699           11 
 2280000   0.88837417   -6.2547254    860.78166  0.031461318  0.031261284            5 
 2281000   0.88129054   -6.2482135    863.04283  0.031530134  0.031252885            6 
 2282000   0.87607644   -6.2327314    860.13355  0.031410077  0.031244403            5 
 2283000   0.87996108   -6.2697604    860.18641  0.031398248  0.031235916            7 
 2284000   0.88182145   -6.2548187    861.31088  0.031425528  0.031227371           11 
 2285000   0.87720173   -6.2350042    863.11001  0.031477389  0.031218903            3 
 2286000   0.89249282   -6.2542397    862.96183  0.031458218  0.031210422            5 
 2287000   0.87362672   -6.2287385    863.21464  0.031453674  0.031202032           11 
 2288000   0.88919756   -6.2672595    862.27833  0.031405825  0.031193612            6 
 2289000    0.8858227   -6.2517344    863.35683  0.031431369  0.031185297            6 
 2290000   0.89783646   -6.2123422    865.82055  0.031507298  0.031176887            8 
 2291000   0.89707911   -6.2387547    865.42597  0.031479193  0.031168472            3 
 2292000   0.91001222   -6.2496638    862.64481   0.03136434  0.031160096            6 
 2293000    0.8880718   -6.2562821    862.07359  0.031329902  0.031151671            5 
 2294000   0.89707399   -6.2573857    864.30483  0.031397298  0.031143171            6 
 2295000    0.8993454   -6.2312271    864.99136  0.031408546  0.031134787            9 
 2296000    0.8784564   -6.2480532    861.54091  0.031269632  0.031126293            6 
 2297000   0.88575743   -6.2451175    862.19089    0.0312796  0.031117754            5 
 2298000   0.87419824   -6.2074995    863.01012  0.031295696  0.031109202            5 
 2299000   0.88962331   -6.2691179    862.74906  0.031272621  0.031100668            6 
 2300000   0.88096926    -6.232269    864.80804  0.031333624  0.031092215            4 
 2301000   0.87997473   -6.2558293    865.51146  0.031345482  0.031083712            4 
 2302000   0.87365438   -6.2632317    863.13582  0.031245867  0.031075189            6 
 2303000   0.89331965   -6.2453115    865.88773  0.031331876  0.031066694            3 
 2304000   0.85569259   -6.2611153     866.3882  0.031336379  0.031058189            7 
 2305000   0.89265246    -6.238578    864.50889   0.03125484  0.031049666            6 
 2306000    0.8827724   -6.2643798    862.32189  0.031162254  0.031041167            5 
 2307000   0.87054424   -6.2498737    865.94626  0.031279665  0.031032694            3 
 2308000   0.88413042   -6.2579224    866.64724  0.031291423   0.03102415            5 
 2309000   0.89308419   -6.2515464     865.5669  0.031238881  0.031015681            3 
 2310000   0.87239973    -6.242767    869.16203  0.031355052   0.03100729            7 
 2311000   0.87723545   -6.2530361    864.76086   0.03118278  0.030998884            9 
 2312000   0.89340887   -6.2416655    865.27099   0.03118768  0.030990348            4 
 2313000   0.85492666   -6.2567745    866.24836  0.031209409  0.030981874            5 
 2314000    0.8886093    -6.271595     866.5523  0.031206868  0.030973332            5 
 2315000   0.89429597   -6.2890233     865.6891  0.031162315  0.030964783            6 
 2316000   0.89349885   -6.2322631     868.3908  0.031246071  0.030956316            6 
 2317000   0.85543428    -6.268856    866.28752  0.031156938  0.030947875            4 
 2318000   0.87692429   -6.2699029     866.1273  0.031137737  0.030939359            5 
 2319000   0.88880211   -6.2565806    867.61812  0.031177883  0.030930901            2 
 2320000    0.8806471   -6.2514583    866.66675  0.031130271   0.03092254            5 
 2321000   0.86766458   -6.2436275    867.89184  0.031160844  0.030914172            8 
 2322000   0.85510647   -6.2735454    865.41674  0.031058597  0.030905709            9 
 2323000   0.87960375   -6.2607674    866.16441  0.031072048  0.030897274            9 
 2324000   0.87432582    -6.264104    868.01408  0.031125003  0.030888911            5 
 2325000   0.90737114   -6.2509795    868.74275  0.031137733  0.030880534            3 
 2326000   0.87775951   -6.2546026    871.66085  0.031228893  0.030872106            5 
 2327000   0.87824015   -6.2634848    867.83981  0.031078635  0.030863758            5 
 2328000   0.88032473    -6.292673    869.04191  0.031108316  0.030855389            7 
 2329000   0.84904338   -6.2595202    871.40941   0.03117967  0.030846988            7 
 2330000   0.88270604    -6.260796    868.17974  0.031050778  0.030838715            9 
 2331000   0.86030103   -6.2374172    870.75136  0.031129392  0.030830448            8 
 2332000   0.88382805   -6.2575074    868.30466  0.031028612  0.030822053            2 
 2333000   0.88723832   -6.2532879     869.4039  0.031054576  0.030813725            9 
 2334000   0.89753333   -6.2972788    868.90022  0.031023287  0.030805382            5 
 2335000   0.86645559   -6.2502256    868.71653  0.031003445  0.030797084            3 
 2336000   0.87760043   -6.2496545    873.72754  0.031168934  0.030788832            5 
 2337000   0.86596321   -6.2617432    871.48724  0.031075711   0.03078059            5 
 2338000   0.87675634   -6.2403084    869.28242  0.030983833  0.030772139            7 
 2339000   0.88465778   -6.2352065    871.98815  0.031066986  0.030763809            8 
 2340000   0.87412153   -6.2829985    871.34983  0.031030977  0.030755396            8 
 2341000   0.86772839   -6.2229019    873.89905  0.031108467  0.030747072            6 
 2342000   0.86765827   -6.2695928    870.10563  0.030960206  0.030738686            5 
 2343000   0.87888456   -6.2545485    871.58999  0.030999786  0.030730331            8 
 2344000   0.86906383    -6.253538    868.36494  0.030871905  0.030721907            7 
 2345000   0.85806958   -6.2620347    871.25333  0.030961383  0.030713532           12 
 2346000   0.89894345   -6.2506188    870.37666  0.030917045  0.030705184            8 
 2347000   0.87517495    -6.282331    870.45571  0.030906679  0.030696771            8 
 2348000   0.86887032   -6.2602095    871.42319  0.030927853  0.030688326            5 
 2349000   0.87543869   -6.2908037    869.56995  0.030848941  0.030679882            4 
 2350000   0.88218518   -6.2636447    874.91074  0.031025204  0.030671579            6 
 2351000   0.88737997   -6.2725472    871.40087  0.030887596  0.030663187            4 
 2352000   0.87537449   -6.2874587    871.32264  0.030871692  0.030654764            4 
 2353000   0.88169434   -6.2527806    869.87087  0.030807156  0.030646406            9 
 2354000   0.87965705   -6.2719171    870.96558  0.030832823  0.030637912            5 
 2355000    0.8586541   -6.3026112    869.03122  0.030751282  0.030629492           14 
 2356000   0.89343862    -6.303546    872.19556  0.030850154  0.030621129            5 
 2357000   0.85765395   -6.2782576    873.20573  0.030872781  0.030612644            9 
 2358000   0.89177088   -6.2657261    871.07796  0.030784491  0.030604132            9 
 2359000   0.86338829   -6.2836095    871.60637  0.030790108  0.030595674            7 
 2360000   0.87913581   -6.2936393    872.37371  0.030804156   0.03058718            6 
 2361000   0.88136691   -6.2968832    870.25106  0.030716189  0.030578784            5 
 2362000   0.88608743   -6.2740611    873.71232  0.030825301  0.030570403            4 
 2363000   0.88268999   -6.2810436     875.5833  0.030878238  0.030562003            5 
 2364000   0.87497715   -6.3095725    870.98819  0.030703193  0.030553606            5 
 2365000   0.88487337     -6.27987    875.72459  0.030857103  0.030545248           12 
 2366000   0.88047255    -6.271068    872.64094  0.030735451  0.030536877            6 
 2367000   0.87592208   -6.2994263    871.13493  0.030669445  0.030528466            7 
 2368000   0.85039367   -6.2706489    875.15422  0.030797938  0.030520027            4 
 2369000   0.88063665   -6.2933153    873.80926  0.030737627  0.030511569            8 
 2370000   0.87075266   -6.2982707    873.12661  0.030700654  0.030503195            6 
 2371000   0.87192155   -6.2935412    874.93301  0.030751195  0.030494814            6 
 2372000   0.87802439   -6.2677591    873.31892  0.030681525  0.030486457            5 
 2373000   0.87679318   -6.2768151     876.0458  0.030764356  0.030478046            9 
 2374000    0.8515463    -6.273806    874.47553  0.030696277  0.030469691            4 
 2375000   0.86951404   -6.2820476    876.52477  0.030755255  0.030461302            4 
 2376000   0.86962774   -6.2940197    871.86871  0.030579009  0.030452882            6 
 2377000    0.8692641   -6.2674022    875.18714  0.030682483  0.030444433            8 
 2378000   0.88317523   -6.2346523    878.28212  0.030778039  0.030435987            9 
 2379000   0.85281133   -6.2847776     874.8524  0.030644963  0.030427662            7 
 2380000   0.87554568   -6.2645571    878.88902  0.030773425  0.030419357            4 
 2381000   0.86125376   -6.2600622     877.7153  0.030719421  0.030411068            6 
 2382000   0.88353467   -6.2799726    875.14888  0.030616739  0.030402688            4 
 2383000   0.88502502   -6.2846946    877.02386  0.030669459  0.030394313            5 
 2384000   0.87203711   -6.2807143    878.16341  0.030696428  0.030385987            6 
 2385000   0.87663237   -6.2795206    875.03636  0.030574296  0.030377629            5 
 2386000   0.85991289   -6.2801745    875.62808  0.030582149  0.030369337            7 
 2387000   0.87652815   -6.2811313    876.60946  0.030603598  0.030361064            8 
 2388000   0.87434199   -6.2421677    878.74136  0.030665179  0.030352751            6 
 2389000   0.87110141   -6.2595077    879.97549  0.030695392  0.030344452            6 
 2390000   0.86118113   -6.3135467    876.99604  0.030578662  0.030336084            4 
 2391000   0.87141529   -6.2803978     878.4364  0.030616074  0.030327713            7 
 2392000   0.88465639   -6.3100162     876.7748  0.030545387  0.030319322            4 
 2393000   0.87754862   -6.3023869    875.52055  0.030488945  0.030310951            4 
 2394000   0.85651894   -6.2896312    874.90916  0.030454928  0.030302458            8 
 2395000   0.86330969   -6.3228804    877.10432  0.030518592  0.030293944           10 
 2396000   0.86621627   -6.2994583    875.16068  0.030438254  0.030285436            6 
 2397000   0.87966937   -6.3065296    877.67989  0.030513138  0.030276959            4 
 2398000   0.87201682   -6.3226312    875.59024  0.030427796   0.03026847            7 
 2399000   0.88377134   -6.2926058    878.90582  0.030530284  0.030259909            5 
 2400000   0.86204492   -6.2886199    876.88247  0.030447308  0.030251518            6 
 2401000   0.85809165   -6.2735173    878.40207  0.030487369   0.03024305           13 
 2402000   0.86670274   -6.3015621    878.84445  0.030490024  0.030234639            4 
 2403000    0.8609786    -6.276963    879.05001  0.030484464   0.03022627            2 
 2404000   0.87370078    -6.296297    877.97251  0.030434433  0.030217905           17 
 2405000   0.85600276    -6.276176    879.31719  0.030468371  0.030209563            8 
 2406000   0.87018406   -6.2547545    882.25543  0.030557476  0.030201201            9 
 2407000   0.86189694   -6.3209513    878.45342   0.03041315  0.030192771            9 
 2408000   0.86714377   -6.2816513    878.78176  0.030411883  0.030184407            8 
 2409000   0.87827274   -6.2542948      879.334  0.030418362  0.030176158            5 
 2410000   0.86961969   -6.3232367    880.47161  0.030445076  0.030167756            8 
 2411000   0.87671754   -6.2735459    881.43761  0.030465838  0.030159392            8 
 2412000   0.86912393   -6.2588295    883.82014  0.030535522  0.030151118            8 
 2413000   0.85669919   -6.3068157    881.47712  0.030441951  0.030142815            3 
 2414000   0.87414265   -6.2869828    880.99162   0.03041258  0.030134557            9 
 2415000   0.85560429   -6.2665476     884.8561  0.030533337  0.030126268            6 
 2416000   0.87851033    -6.311614    880.02845  0.030354182  0.030117978            5 
 2417000   0.88931732   -6.2823167    882.61903  0.030430942  0.030109791            5 
 2418000   0.87466699   -6.2723089    881.96767  0.030395908  0.030101489            7 
 2419000   0.85984001   -6.3178209    880.96024  0.030348637  0.030093144            9 
 2420000   0.85684591   -6.3034583    881.98189  0.030371277  0.030084872            5 
 2421000   0.86596665    -6.318573    881.74138  0.030350454  0.030076581            8 
 2422000   0.85277474   -6.3120142    881.20079  0.030319323  0.030068329           13 
 2423000   0.88077157    -6.298933    882.05921  0.030336333  0.030060069            4 
 2424000   0.84733927   -6.2814967     883.7133  0.030380683  0.030051915            8 
 2425000   0.86737529   -6.3079858    880.95192  0.030273262  0.030043785            6 
 2426000   0.86696316   -6.2927843    884.10522  0.030369099  0.030035605            6 
 2427000    0.8616066   -6.3251114     885.5347  0.030405669  0.030027404            5 
 2428000   0.86148581   -6.2788478    884.37793  0.030353444  0.030019189            5 
 2429000   0.86407651    -6.278137    884.98761  0.030361864  0.030011065           10 
 2430000   0.86714662   -6.3258907    885.72643  0.030374706  0.030002837            9 
 2431000   0.87470835   -6.2981563    883.07366  0.030271276  0.029994676            8 
 2432000   0.84641732   -6.2934769    883.06209  0.030258432  0.029986422           13 
 2433000   0.86016781   -6.3060675    886.09132  0.030349751  0.029978193           11 
 2434000   0.86864122   -6.2783402    883.81755  0.030259434  0.029970051            4 
 2435000   0.85520465   -6.3085506    886.19138  0.030328247  0.029961954            4 
 2436000   0.84943322   -6.2964127    883.09418  0.030209845  0.029953802            4 
 2437000     0.869816   -6.3003513    883.39722  0.030207811  0.029945642            3 
 2438000   0.87488127   -6.2779152    885.66311  0.030272871  0.029937572            5 
 2439000   0.84870234   -6.2973132    885.76294   0.03026387  0.029929471            5 
 2440000    0.8603956   -6.3016767    885.12057  0.030229528  0.029921328            8 
 2441000   0.85906493    -6.304318    888.48742  0.030332085  0.029913234            9 
 2442000     0.858681     -6.34896    885.75949  0.030226573  0.029905176            4 
 2443000   0.84945479   -6.2893834    887.60544  0.030277168  0.029897013            4 
 2444000   0.84986615   -6.2946171     886.9666  0.030242996  0.029888912           11 
 2445000   0.87092886   -6.2778868    888.35142  0.030277826  0.029880887           13 
 2446000   0.85594819   -6.3068215    884.54234  0.030135675  0.029872811           15 
 2447000   0.85538864   -6.3158892    885.96488  0.030171805  0.029864668           18 
 2448000   0.86156629   -6.3214933    887.57301  0.030214223  0.029856572            8 
 2449000     0.863477   -6.2856906    887.95158  0.030214767  0.029848484            8 
 2450000     0.863296   -6.3049792    887.59191  0.030190201  0.029840443            6 
 2451000   0.84326084   -6.3072337    887.92111  0.030189076  0.029832354            9 
 2452000   0.87224599   -6.2869507    889.70486  0.030237386  0.029824221           13 
 2453000   0.83422021   -6.2871431    888.74168  0.030192339  0.029816213           10 
 2454000   0.85483756   -6.2910324    890.64294  0.030244599  0.029808274           11 
 2455000   0.85793701   -6.2952877    886.44952  0.030089936  0.029800301            3 
 2456000   0.84894174   -6.2893276    890.75025   0.03022361  0.029792322            4 
 2457000     0.858512   -6.2860071    891.54826  0.030238375   0.02978434            6 
 2458000   0.84805918   -6.2938505    888.84035  0.030134267  0.029776309            6 
 2459000   0.84616989   -6.3227929    888.08782   0.03009651  0.029768181            3 
 2460000   0.86393026   -6.3232945    887.32439  0.030058414  0.029760113            9 
 2461000   0.86214315   -6.3395325    886.69431  0.030024865  0.029752003            4 
 2462000   0.86090669    -6.296055    893.00709  0.030226343  0.029743951            7 
 2463000   0.86497696   -6.3218199    890.71563  0.030136542  0.029735894            4 
 2464000   0.85473511   -6.3477465     888.9964  0.030066166  0.029727836            5 
 2465000   0.84436374   -6.2902383    889.47855  0.030070269  0.029719828            4 
 2466000   0.87111387   -6.3161544    890.76099  0.030101412  0.029711793            5 
 2467000   0.84534434   -6.3244023    891.83694  0.030125555  0.029703778            7 
 2468000   0.87112512   -6.3235755    888.28268  0.029993337   0.02969569            5 
 2469000   0.86083107   -6.3116185    890.45739   0.03005459  0.029687647            5 
 2470000   0.86257919   -6.3152858    892.36985  0.030106945   0.02967965            6 
 2471000   0.88044585   -6.2996411    892.55098  0.030100869  0.029671732            8 
 2472000   0.84740708   -6.3116811    892.31073  0.030080594  0.029663738           13 
 2473000   0.86481157    -6.335269    890.19184  0.029997029  0.029655708            7 
 2474000   0.82190181   -6.3263402    890.33666  0.029989782  0.029647675            7 
 2475000   0.86388981       -6.298    891.28453   0.03000958  0.029639656            5 
 2476000   0.84481583   -6.3403944     887.7461  0.029878369  0.029631566            6 
 2477000   0.86286999   -6.3534063    891.60729  0.029996208  0.029623446            6 
 2478000   0.86441131   -6.3322922    889.14268   0.02990122  0.029615387           13 
 2479000   0.83300028   -6.3147035    889.99284  0.029917737  0.029607333            7 
 2480000    0.8628033   -6.3278739    890.24114  0.029914017  0.029599304            5 
 2481000   0.85676317   -6.3113339    894.98297  0.030061231  0.029591274            8 
 2482000   0.85214793   -6.2949319    893.74233  0.030007465   0.02958323            3 
 2483000   0.87807263   -6.3332403    891.72969  0.029927832  0.029575171            6 
 2484000   0.84113643   -6.3315304    891.18035  0.029897355  0.029567169            8 
 2485000   0.85017908   -6.3320293    891.82808  0.029907045  0.029559091            8 
 2486000   0.85983475   -6.2991074    897.21649   0.03007564  0.029551074            6 
 2487000   0.84515197   -6.3061791    894.16621  0.029961339  0.029543084           14 
 2488000   0.84370916   -6.3439558    892.79393  0.029903334   0.02953505           15 
 2489000   0.84760078    -6.357709    889.42067   0.02977838  0.029526984            9 
 2490000   0.86678763   -6.3107812    894.78163  0.029945838  0.029518937            7 
 2491000   0.85272326   -6.3098264     895.0805  0.029943815  0.029510939            6 
 2492000   0.85342724    -6.315053     895.8193  0.029956504  0.029503071            9 
 2493000   0.85136955   -6.3301901     892.8359  0.029844762  0.029495171            6 
 2494000   0.84751962   -6.3095984    894.95412  0.029903572   0.02948717            6 
 2495000   0.85872511   -6.3183039    895.68001  0.029915832  0.029479219            3 
 2496000   0.85501662   -6.3315092    894.31673  0.029858331  0.029471191            4 
 2497000   0.84988607   -6.3356911     894.2813  0.029845191  0.029463249            7 
 2498000   0.85751362    -6.336566    893.48701  0.029806746  0.029455299            4 
 2499000   0.84289847   -6.3313733    895.50338  0.029862057  0.029447324            4 
 2500000    0.8469287   -6.3408068    894.08371   0.02980279  0.029439318            4 
 2501000   0.86735868   -6.3239016    894.84656  0.029816292  0.029431351            4 
 2502000   0.85290092   -6.3460623    893.08612  0.029745741    0.0294233            6 
 2503000   0.84792668   -6.3532533    895.04217   0.02979898  0.029415277            7 
 2504000   0.85194435   -6.3457542    895.66302  0.029807742  0.029407215            6 
 2505000    0.8347952   -6.3421286     895.1176  0.029777698  0.029399161            7 
 2506000   0.84415172   -6.3160073    897.17695  0.029834296  0.029391178            7 
 2507000   0.86438552   -6.3325769    896.40169  0.029796626  0.029383205            5 
 2508000   0.85972256   -6.3554783    896.85796  0.029799906  0.029375301            5 
 2509000    0.8496556   -6.3286817    896.51087    0.0297765  0.029367311            8 
 2510000   0.85365572   -6.3226591    896.08066  0.029750354  0.029359355            6 
 2511000   0.85415312    -6.329319    895.74161  0.029727254  0.029351429            8 
 2512000   0.84694362   -6.3365886    897.90582  0.029787215  0.029343504            8 
 2513000    0.8490336   -6.3008432    899.50204  0.029828294   0.02933563            3 
 2514000   0.85440816   -6.3153953    898.54777  0.029784797  0.029327827            3 
 2515000   0.85547022   -6.3356447    898.26949  0.029763734  0.029319983            9 
 2516000   0.85380253   -6.3281113    896.48078   0.02969266  0.029312138           15 
 2517000   0.85803009   -6.3181275    898.88238  0.029760375  0.029304281            5 
 2518000   0.84404429   -6.3575653    897.67139  0.029708479  0.029296444            7 
 2519000   0.84992108   -6.3628507    896.02435  0.029642198  0.029288459            8 
 2520000    0.8578022   -6.2983357    900.07936  0.029764529  0.029280602            7 
 2521000   0.84100071   -6.3458751    899.33932   0.02972826  0.029272725            5 
 2522000   0.85158145    -6.338802    897.29033  0.029648768    0.0292648            5 
 2523000   0.85338679   -6.3647977    899.96905  0.029725494   0.02925682            9 
 2524000   0.83443982   -6.3744008    898.18122  0.029654689  0.029248886            8 
 2525000   0.83640251   -6.3602395    897.32938  0.029614831  0.029240936            9 
 2526000   0.85589242   -6.3126852    902.13423   0.02976162  0.029233067            8 
 2527000    0.8431151   -6.3622305     896.4234  0.029561515  0.029225213            2 
 2528000   0.84452367   -6.3416516    900.38023  0.029680255  0.029217298            3 
 2529000   0.83133862   -6.3552912     896.8254  0.029551384  0.029209408            4 
 2530000   0.84481038   -6.3206248    901.27784  0.029686358  0.029201506            5 
 2531000    0.8387641   -6.3767999    897.61102  0.029553899  0.029193631           11 
 2532000   0.86244829   -6.3157832    900.31552  0.029631238  0.029185722           15 
 2533000   0.83587604   -6.3445842     900.7207  0.029632869   0.02917786           10 
 2534000   0.82635115   -6.3519726    899.44947   0.02957937  0.029169962            3 
 2535000   0.85091402   -6.3638429    896.76009  0.029479293  0.029162053            7 
 2536000   0.85934419   -6.3538956    899.33969  0.029552434  0.029154094           10 
 2537000   0.83778671   -6.3365399    902.30283  0.029638117  0.029146209            6 
 2538000   0.84457814   -6.3331758     900.1999  0.029557391  0.029138311            7 
 2539000   0.84536274   -6.3440569    899.45483  0.029521296  0.029130412            9 
 2540000   0.83938211    -6.361912    900.27071  0.029536441  0.029122481            8 
 2541000   0.85480179   -6.3830468    898.09661  0.029453516  0.029114423            5 
 2542000   0.85200465   -6.3845374     897.9284  0.029436415  0.029106451            9 
 2543000   0.83733219   -6.3322282    902.32903  0.029569047  0.029098557            6 
 2544000   0.84591738   -6.3699803     898.1958  0.029422032  0.029090678            5 
 2545000   0.84622922   -6.3002685    901.36165  0.029514134  0.029082731            6 
 2546000   0.87500728   -6.3361609    899.58211  0.029444295  0.029074771            4 
 2547000    0.8257385   -6.3653913    898.99901  0.029413657  0.029066842            8 
 2548000   0.83729286   -6.3400693    900.71536  0.029458247  0.029058976            7 
 2549000   0.82441508   -6.3355508    902.13747  0.029493183  0.029051059            4 
 2550000   0.85030904   -6.3514196    903.40666  0.029523093  0.029043167            4 
 2551000    0.8280896   -6.3454475    901.71276  0.029456186  0.029035221            5 
 2552000   0.83980945   -6.3536942    899.97538  0.029387911  0.029027269            7 
 2553000   0.84894694   -6.3439269    902.78862  0.029468228  0.029019403            4 
 2554000     0.841465   -6.3543849    902.61441  0.029451005  0.029011611           11 
 2555000   0.85014585   -6.3811903    903.05331  0.029453794  0.029003767            5 
 2556000   0.83280283   -6.3471025    902.66471  0.029429601  0.028995894            6 
 2557000   0.84345001   -6.3283584    902.72186  0.029419954  0.028988079            4 
 2558000   0.85334958   -6.3496946    905.99068  0.029514943  0.028980281            3 
 2559000   0.82167732   -6.3159907     903.2249  0.029413342  0.028972455            4 
 2560000   0.84309082   -6.3813472     901.5853   0.02934848  0.028964542            7 
 2561000   0.81332262    -6.340978    903.51993  0.029399972  0.028956653            4 
 2562000   0.85546302   -6.3674861    900.09895  0.029277223  0.028948747            8 
 2563000   0.85728039   -6.3366114    904.15427  0.029397655  0.028940826            5 
 2564000   0.84836328   -6.3291003    903.67315  0.029370552  0.028932955            5 
 2565000   0.84358961   -6.3678007    902.86659  0.029332898  0.028924977            5 
 2566000   0.86145671   -6.3611335    902.07188  0.029295657  0.028917029           12 
 2567000   0.82011786   -6.3970111    901.54549  0.029267156   0.02890911           11 
 2568000   0.83385329   -6.3441842    905.52036  0.029384747  0.028901113            9 
 2569000   0.84070706   -6.3630133    902.90492  0.029288469  0.028893177           15 
 2570000   0.82304501   -6.3627914    903.30294  0.029289978  0.028885266            3 
 2571000   0.81979003   -6.3818497    902.80858  0.029262563  0.028877333            8 
 2572000   0.83036089   -6.3599909    900.42222  0.029173867  0.028869338            6 
 2573000   0.82689883   -6.3637581    906.28095  0.029352279  0.028861375            5 
 2574000   0.85287258   -6.3787695    901.86608  0.029197944  0.028853428           12 
 2575000   0.84899044   -6.3697811    905.31741  0.029298298  0.028845462            8 
 2576000   0.84280983    -6.383961    903.27972  0.029221005  0.028837591           18 
 2577000   0.82619202   -6.3350539    907.40919  0.029343202  0.028829692            3 
 2578000   0.82889765   -6.3563148    903.05738  0.029191149  0.028821886            5 
 2579000   0.84618816   -6.3594916     901.8625  0.029141221  0.028814009            4 
 2580000   0.83126124   -6.3767695    904.70547  0.029221753  0.028806172            6 
 2581000   0.84004219   -6.3641914    905.29855   0.02922958   0.02879826           10 
 2582000   0.82933249   -6.3680902    905.46551  0.029223648  0.028790308            7 
 2583000   0.83382695   -6.3680885    906.26663   0.02923818  0.028782384            6 
 2584000   0.84615614   -6.3627278     904.9779  0.029185304  0.028774542            8 
 2585000   0.84116023    -6.358131    906.73129  0.029230538  0.028766733            9 
 2586000   0.84102559   -6.3760311    907.03266  0.029228946  0.028758849           12 
 2587000   0.82938226   -6.3831818     904.2752  0.029128824  0.028750873           10 
 2588000   0.83472856   -6.3633626    906.00252  0.029173188  0.028742969            7 
 2589000   0.83588437   -6.3867772    906.34675     0.029173  0.028735099           15 
 2590000   0.83991673   -6.3897645    908.49126  0.029230735  0.028727251           12 
 2591000   0.84437554    -6.376084    908.32357  0.029214061  0.028719474           12 
 2592000   0.84232846   -6.3555907    908.88778  0.029220929  0.028711703            6 
 2593000   0.84239293   -6.3495537    904.79628  0.029078168  0.028703925            8 
 2594000   0.83568607   -6.3838218    906.44266  0.029119849  0.028696144            5 
 2595000   0.82672208   -6.3763404     904.2842  0.029039313  0.028688305           10 
 2596000    0.8473582   -6.3315071    909.70671  0.029202193  0.028680434            4 
 2597000    0.8098584   -6.3574187    906.71807  0.029095048  0.028672588            4 
 2598000   0.84649317   -6.3686339    906.86806   0.02908866  0.028664776           12 
 2599000    0.8314034   -6.3717756    907.41877  0.029095125  0.028656898            6 
 2600000    0.8328847   -6.3744878    907.95657  0.029101172  0.028649038            4 
 2601000   0.82818346    -6.386374    905.30502  0.029005031  0.028641158            8 
 2602000   0.84697928   -6.3633254    909.76507  0.029136724  0.028633305            6 
 2603000   0.82682823   -6.3719368    908.42838  0.029082737  0.028625509            7 
 2604000   0.81805871   -6.3998201    908.11887  0.029061664  0.028617678           14 
 2605000   0.82955143   -6.3683809    908.76985  0.029071332  0.028609802            6 
 2606000   0.81728187    -6.386484    908.55022  0.029053154  0.028601996           11 
 2607000   0.82994982   -6.3976577    906.97516  0.028991662  0.028594113           10 
 2608000   0.82530207   -6.3982664    908.04446  0.029014713  0.028586303            4 
 2609000   0.83305004   -6.3575979    909.65902  0.029055162  0.028578458            6 
 2610000   0.83789192   -6.3865967    906.89013  0.028955623  0.028570559            5 
 2611000   0.83935248   -6.3567127    909.17948  0.029017601  0.028562689           12 
 2612000   0.81950002   -6.3515093    908.07455   0.02897124  0.028554911            7 
 2613000   0.82843476    -6.368395    909.14622   0.02899433  0.028547039            3 
 2614000   0.82882384   -6.3796269    911.13192  0.029046542  0.028539267           20 
 2615000   0.82883441   -6.3553606    911.41669  0.029044509  0.028531452            6 
 2616000   0.82533583   -6.3757343    910.04152    0.0289896  0.028523571            8 
 2617000   0.82142829   -6.4222311    909.85883  0.028972705  0.028515634           13 
 2618000   0.81733096   -6.3542299    910.32378  0.028976438  0.028507695            9 
 2619000   0.82746378   -6.3564369     910.3485  0.028966161   0.02849982            6 
 2620000   0.82152252   -6.3966165    909.17419  0.028917754  0.028491898            5 
 2621000   0.84229971   -6.4021975    908.68033  0.028891019  0.028483975           11 
 2622000   0.84325096   -6.3715453    910.54082  0.028939131  0.028476107            7 
 2623000   0.83694299   -6.3742054    912.21739  0.028981363  0.028468317            5 
 2624000   0.83481917   -6.3483529     910.7189  0.028922729  0.028460609           10 
 2625000   0.82891314   -6.3726591    908.88405  0.028853462  0.028452806            6 
 2626000   0.81734488     -6.35689    910.42388  0.028891339  0.028444963            6 
 2627000   0.83866475   -6.3759219    910.82997  0.028893223  0.028437201            7 
 2628000   0.83095613   -6.3702947    912.91041  0.028948199  0.028429471            5 
 2629000   0.82656745   -6.3847839    910.72171  0.028867811  0.028421681           11 
 2630000   0.81999344   -6.3969869    910.94096  0.028863782  0.028413894            9 
 2631000   0.81602172   -6.3654573      911.018  0.028855251  0.028406091            7 
 2632000   0.84292085   -6.3747609    912.14332  0.028879918  0.028398362            5 
 2633000   0.85044528   -6.3717435    911.25581   0.02884086  0.028390653            4 
 2634000   0.81469078   -6.3591788    913.47594   0.02890015  0.028382958            5 
 2635000   0.81962544   -6.3708455    910.22806  0.028786466  0.028375203            5 
 2636000   0.84907706   -6.3635092    912.56082  0.028849292  0.028367423            5 
 2637000   0.83005495   -6.4033243    910.91237  0.028786259  0.028359631            7 
 2638000   0.82655726   -6.3570103    911.95372  0.028808242  0.028351892            6 
 2639000   0.82843041    -6.381344    913.96614  0.028860873  0.028344224            7 
 2640000   0.83368072   -6.3731637    914.24828  0.028858847    0.0283365            6 
 2641000   0.82294223   -6.3665693    914.06377  0.028842098  0.028328761           11 
 2642000   0.82806655   -6.3989957    915.11454  0.028864324  0.028320992            3 
 2643000    0.8138009   -6.3605864    916.06569  0.028883393  0.028313275            4 
 2644000    0.8335433   -6.3888119    912.95447   0.02877441  0.028305519           11 
 2645000   0.82190315   -6.4242943    910.26142  0.028678684  0.028297712            2 
 2646000   0.82525003   -6.4050335    913.00804  0.028754347  0.028289994            7 
 2647000   0.85081331    -6.392483    914.05983  0.028776597  0.028282326           11 
 2648000   0.83073296    -6.393344    911.69894  0.028691432  0.028274617            6 
 2649000   0.81019743   -6.4083238    912.84173  0.028716551  0.028266887            4 
 2650000   0.81875779   -6.4113042    914.05459  0.028743855  0.028259157            4 
 2651000   0.83943479   -6.4094705    914.63087  0.028751127  0.028251463            5 
 2652000   0.82854084   -6.3788016    917.88914   0.02884267  0.028243815            6 
 2653000   0.81287884   -6.4084637    914.85359  0.028736449  0.028236108            6 
 2654000   0.82013636   -6.3712578    914.83071  0.028724903  0.028228407            7 
 2655000   0.83340402   -6.4096968    915.29582  0.028728682  0.028220756           11 
 2656000    0.8245931   -6.3848585     916.3146  0.028749831  0.028212996            6 
 2657000   0.82242742   -6.3899716    913.77888  0.028659481  0.028205281            7 
 2658000   0.83025037   -6.4002991    915.52481  0.028703436  0.028197604            5 
 2659000   0.81317277   -6.4293026    913.57674  0.028631589   0.02818985            9 
 2660000    0.8232802   -6.4004635    914.52685  0.028650591  0.028182203            2 
 2661000   0.80949213   -6.3978399       913.56  0.028609545  0.028174495            5 
 2662000   0.82445027   -6.3807859    920.00825  0.028800659  0.028166889            4 
 2663000   0.83494375   -6.3980161    919.47611  0.028773192  0.028159233            5 
 2664000   0.82524224   -6.4184802    915.47821  0.028637331  0.028151622           11 
 2665000   0.82410823   -6.3924531    916.29243  0.028652046  0.028143958           12 
 2666000   0.80531154   -6.4103084    917.97287  0.028693826  0.028136349            4 
 2667000   0.82518323   -6.4071367    917.25487  0.028660632   0.02812876            6 
 2668000   0.81526041   -6.3918048    919.18726  0.028710247    0.0281212            6 
 2669000   0.81089287   -6.4012878    917.00255  0.028631277  0.028113589            8 
 2670000   0.84417622   -6.4241688    914.39318  0.028539113  0.028105933           10 
 2671000   0.80581468   -6.3986097    919.09183  0.028675023  0.028098325            7 
 2672000   0.83375563    -6.433579    917.72478  0.028621656  0.028090704            9 
 2673000   0.82984071    -6.416726    915.06785  0.028528116  0.028083032           14 
 2674000   0.80124976   -6.4238806    917.11836   0.02858135  0.028075308           11 
 2675000   0.81954255   -6.3864832    917.92681  0.028595851  0.028067622            4 
 2676000   0.83241334   -6.4287971    917.55459  0.028573574  0.028060003            9 
 2677000    0.8388509   -6.4360219    915.40136  0.028495871  0.028052353           18 
 2678000   0.82821803   -6.3993013    919.15044  0.028601893  0.028044671            5 
 2679000   0.82986046   -6.4035683    916.41315   0.02850607  0.028037015            9 
 2680000   0.82121336   -6.3795427    920.51542  0.028622992  0.028029372           22 
 2681000   0.82444311   -6.4177812    917.58711  0.028521295  0.028021644            5 
 2682000   0.80605675   -6.3695091    918.89996  0.028551453  0.028013925            5 
 2683000   0.83113269   -6.4190625     917.1605  0.028486784  0.028006308            5 
 2684000    0.8382548    -6.396136    920.39146  0.028576486   0.02799869            7 
 2685000    0.8321675   -6.3964698    916.50018  0.028445071  0.027991044            9 
 2686000   0.80812505   -6.3756244    918.65795  0.028501426  0.027983428            7 
 2687000   0.84513118   -6.4206851    918.31553  0.028480199  0.027975748            5 
 2688000   0.81014559   -6.4424237    917.51889  0.028444906  0.027968035            3 
 2689000   0.83308965   -6.4232771    918.48025  0.028464121   0.02796027            5 
 2690000   0.82656565   -6.4036144    916.64585  0.028396712  0.027952522           14 
 2691000   0.81057562   -6.4347305    914.52211  0.028320392  0.027944767            7 
 2692000   0.82982174   -6.3895853    919.29713  0.028457687  0.027937058           11 
 2693000   0.81225888   -6.3827181    920.00013  0.028468874  0.027929352           11 
 2694000   0.81232411    -6.425222    917.28114    0.0283742  0.027921648            6 
 2695000   0.81909395   -6.4184867    920.41375  0.028460537  0.027913976           12 
 2696000   0.82324263   -6.4307481    916.12352  0.028317369  0.027906239            7 
 2697000     0.815284   -6.4104751    918.21036   0.02837135  0.027898505            7 
 2698000   0.83005139   -6.3876908    920.13282  0.028420213  0.027890814            7 
 2699000   0.83620594   -6.4179197    917.06583  0.028314988  0.027883129            8 
 2700000   0.83249768   -6.4216484    916.79239  0.028296061   0.02787544            7 
 2701000    0.8134015   -6.3924392    920.15736  0.028389404  0.027867683           11 
 2702000   0.81207678    -6.425517    920.36707  0.028385365  0.027860001            2 
 2703000   0.82327132   -6.3926618    920.42351  0.028376603  0.027852316            7 
 2704000   0.82135015   -6.4177242    921.29576  0.028392991  0.027844755           11 
 2705000   0.81008482   -6.4177607    920.06138  0.028344466  0.027837037           10 
 2706000   0.81727199   -6.4501349     917.1753  0.028245113  0.027829257            5 
 2707000     0.819493   -6.3976245    919.03474   0.02829192  0.027821436            6 
 2708000   0.83964219   -6.4340853    917.80266  0.028243558  0.027813709            9 
 2709000   0.82376547   -6.4044239    919.57648  0.028287698  0.027805956            5 
 2710000   0.82009049   -6.4413737    917.21164   0.02820454  0.027798179           11 
 2711000   0.82323836   -6.4451178    919.00395   0.02824923  0.027790283            8 
 2712000   0.81845983   -6.4607591    916.32728  0.028156566  0.027782457            5 
 2713000   0.79446633   -6.4540474    920.87004  0.028285724  0.027774712           11 
 2714000   0.82049388   -6.4581836    920.62604   0.02826781  0.027767019           19 
 2715000   0.82394599   -6.4042605    920.36573  0.028249409  0.027759346            7 
 2716000   0.82228424   -6.4050963    922.53842  0.028305671    0.0277517            6 
 2717000   0.81840874   -6.4129292    921.95439   0.02827734  0.027743988            3 
 2718000   0.78776712   -6.4189066     923.3075  0.028308422  0.027736359            8 
 2719000   0.79705029   -6.4061442    921.06786  0.028229369  0.027728738            7 
 2720000   0.82909994   -6.4363222     922.3412  0.028258002  0.027721098            7 
 2721000   0.82680355   -6.4017106    922.08751  0.028239848  0.027713438            9 
 2722000   0.81931578   -6.4209851    921.84339  0.028221999  0.027705849            7 
 2723000    0.8236127   -6.4125268    921.30306  0.028195099  0.027698242            5 
 2724000   0.81777708    -6.410682    920.43857  0.028158302  0.027690654            7 
 2725000   0.81129999   -6.4321391    924.12461  0.028260692  0.027683065            4 
 2726000   0.82766589   -6.4389344    922.54355  0.028201992  0.027675467            5 
 2727000   0.81697565   -6.4223495    925.07103  0.028268886   0.02766792           14 
 2728000   0.81564978   -6.4052336    925.02139  0.028257007  0.027660378            8 
 2729000   0.81993727   -6.4256791    920.61681  0.028112154  0.027652828            6 
 2730000   0.82186026   -6.4035927    925.61737  0.028254499   0.02764527           10 
 2731000    0.8120891   -6.3832006    923.17716  0.028169692   0.02763773           12 
 2732000   0.81613223   -6.4165364    922.55416  0.028140378  0.027630193            5 
 2733000   0.81642773   -6.3986973    923.75091  0.028166572  0.027622641            6 
 2734000   0.84599366   -6.4197072    925.03932  0.028195541  0.027615104           12 
 2735000   0.81129736   -6.4479939    922.56044  0.028109703  0.027607526            8 
 2736000   0.82617367   -6.4387744    923.19603  0.028118787  0.027599966            7 
 2737000    0.8181669    -6.403417    925.51424  0.028179096  0.027592466           10 
 2738000   0.80562641   -6.4232577    924.78292  0.028146546    0.0275849            4 
 2739000   0.79869019   -6.4254814    924.73864  0.028134923   0.02757738            6 
 2740000   0.83519651   -6.4094801    924.97179  0.028131745  0.027569894            5 
 2741000   0.80934698    -6.403934    924.84456  0.028117614  0.027562393            8 
 2742000   0.81150076   -6.4469694    926.53953  0.028158872  0.027554894            4 
 2743000   0.82638394   -6.4484883    925.33306  0.028111953  0.027547308            4 
 2744000   0.83546963   -6.4481101    924.45802  0.028075134  0.027539689           21 
 2745000   0.81843529   -6.4196727    922.90984  0.028017907  0.027532066           14 
 2746000   0.81775347   -6.4340497    923.95674  0.028039474  0.027524404            9 
 2747000   0.81357218    -6.404567    926.97512  0.028120832  0.027516823           13 
 2748000    0.8258425   -6.4203395    927.54323  0.028127827  0.027509288           11 
 2749000   0.81474815   -6.4359236    927.23843  0.028108355  0.027501721           10 
 2750000   0.81474596   -6.4196121    924.97535  0.028029556   0.02749411           11 
 2751000    0.8049159   -6.4524096    924.14332  0.027994163  0.027486455           13 
 2752000   0.80252671   -6.4841835    918.68801  0.027818799  0.027478762            9 
 2753000   0.81364935   -6.4109598    922.82945  0.027934055  0.027471023            8 
 2754000   0.82083573   -6.4054221    923.60585  0.027947405  0.027463378            5 
 2755000   0.80998143   -6.4006907    923.63566  0.027938163  0.027455731            7 
 2756000   0.81194003   -6.4505664    922.47932  0.027893061  0.027448085            7 
 2757000   0.81747786    -6.449432      922.738  0.027890763   0.02744041           18 
 2758000   0.82046438   -6.3905407     925.8824  0.027975659  0.027432726            7 
 2759000   0.79966526    -6.421932    924.26584  0.027916692   0.02742512            7 
 2760000   0.81041461   -6.4500558    924.71454  0.027920125  0.027417507           19 
 2761000   0.81731358   -6.4432754     926.5132    0.0279643   0.02740986            7 
 2762000   0.81865407   -6.4387752    926.17491  0.027943969  0.027402204           12 
 2763000   0.81831105   -6.4459152    925.01391  0.027898839  0.027394568           10 
 2764000   0.81458606   -6.4389116    926.26453  0.027926451  0.027386919           13 
 2765000   0.82090474   -6.4355926    926.08375  0.027910903  0.027379307           19 
 2766000   0.81086387   -6.4266705    927.03194  0.027929379  0.027371702            4 
 2767000   0.81512349   -6.4171767    927.12157  0.027921984  0.027364105           13 
 2768000   0.81017637   -6.4316828    925.12713  0.027851852  0.027356428            9 
 2769000   0.79293681   -6.4475315    923.72411   0.02779957  0.027348828            7 
 2770000   0.79959943   -6.4272099    927.36441   0.02789905  0.027341208            6 
 2771000   0.80341811   -6.4470853    925.32234  0.027827569  0.027333608            9 
 2772000   0.80906186   -6.4259543    927.31407  0.027877407  0.027325982            5 
 2773000   0.82425547   -6.4331485    925.47711   0.02781215  0.027318394            8 
 2774000   0.82857762   -6.4449889    927.10676   0.02785108  0.027310803            6 
 2775000     0.802984   -6.4323633    926.51453  0.027823259  0.027303215            5 
 2776000   0.81088764   -6.4253125    926.27774  0.027806128  0.027295574            9 
 2777000   0.81491177   -6.4406074    926.24876  0.027795246  0.027287964            4 
 2778000   0.78818491    -6.448107    927.99259  0.027837551  0.027280321           10 
 2779000   0.81376252   -6.4499346    927.81628  0.027822247  0.027272796            6 
 2780000   0.79022762   -6.4421853    929.28805  0.027856357  0.027265265            7 
 2781000   0.79838742   -6.4779535    928.48678  0.027822329  0.027257736            8 
 2782000   0.82598484   -6.4983915    928.79824  0.027821658  0.027250146           16 
 2783000   0.81016795   -6.4611809    926.56295  0.027744728  0.027242632            6 
 2784000   0.82169127   -6.4434197      928.571  0.027794869  0.027235132            8 
 2785000    0.7952021   -6.4706809    926.61722  0.027726428   0.02722758           11 
 2786000   0.81399716   -6.4699578     927.6515  0.027747413  0.027220003            8 
 2787000   0.80663854    -6.474548    925.76903  0.027681169  0.027212381            8 
 2788000   0.81512825   -6.4545228    926.59019  0.027695785  0.027204899           14 
 2789000   0.82849631    -6.481358    927.29484  0.027706909  0.027197329           18 
 2790000   0.81865242   -6.4271463    930.66158  0.027797538  0.027189831            6 
 2791000   0.80474528   -6.4506474    930.57558  0.027785011  0.027182365           12 
 2792000   0.79745836   -6.4485428    930.19528  0.027763708  0.027174909           12 
 2793000   0.80876846   -6.4746464    929.56165  0.027734862  0.027167452           13 
 2794000   0.79651797   -6.4396875    928.94368  0.027706504  0.027159987            7 
 2795000    0.7828169   -6.4273845    928.89523  0.027695147  0.027152487           14 
 2796000   0.81766707   -6.4510676    930.89891   0.02774496  0.027145047           13 
 2797000   0.81569922   -6.4750585    932.27199   0.02777595  0.027137544            9 
 2798000   0.79216396   -6.4572028    930.87508  0.027724419  0.027130024           11 
 2799000   0.79483416    -6.474315    927.31826  0.027608618  0.027122512            8 
 2800000   0.81357394   -6.4315869    929.35354  0.027659332  0.027114972           10 
 2801000   0.81118891   -6.4610922    928.99232   0.02763871  0.027107466            9 
 2802000   0.80420545   -6.4229737    932.78237  0.027741565  0.027099975            5 
 2803000   0.80143248   -6.4499182     931.0819  0.027681113  0.027092505            7 
 2804000   0.79589888   -6.4521793    930.81858  0.027663415  0.027085024            4 
 2805000   0.81450831   -6.4668733     929.0255  0.027600282   0.02707752            5 
 2806000   0.80690651    -6.478859    931.04385  0.027650388  0.027069967            9 
 2807000   0.81116632   -6.4740815    930.95773   0.02763798  0.027062419            5 
 2808000   0.80806241   -6.4311137    932.52764  0.027674728  0.027054967            9 
 2809000   0.80227575   -6.4281003    931.52867   0.02763524  0.027047524            5 
 2810000   0.80470582    -6.450184    931.95729  0.027638117  0.027040136            8 
 2811000   0.80114824   -6.4673597    933.24977    0.0276666  0.027032732            6 
 2812000    0.7995636   -6.4921641    934.09712  0.027681873  0.027025305            7 
 2813000    0.8037466   -6.4492726    933.84287    0.0276645  0.027017896            5 
 2814000   0.81094652   -6.4609896    930.36716   0.02755174  0.027010473           13 
 2815000   0.79004181   -6.4638367    931.81345  0.027584768  0.027003067           15 
 2816000   0.78678558    -6.465622     933.1075  0.027613266  0.026995643            5 
 2817000   0.78369854    -6.451678    931.01746  0.027541636  0.026988228           11 
 2818000   0.80291598   -6.4811787    933.38326  0.027601823  0.026980792            9 
 2819000   0.81264416   -6.4825752    930.90539  0.027518783  0.026973301            9 
 2820000   0.79529876    -6.451048    933.73626  0.027592679  0.026965869            3 
 2821000   0.80285155   -6.4497523    935.43264   0.02763301  0.026958504            6 
 2822000   0.80296105   -6.4589463     934.4257  0.027593483  0.026951124           11 
 2823000   0.79316164   -6.4773131    932.43154  0.027524842  0.026943745           16 
 2824000   0.80196441   -6.4769255    932.43053  0.027515065  0.026936339            8 
 2825000   0.79525277   -6.4473375     935.6892  0.027601451   0.02692897            6 
 2826000   0.79570117   -6.4576909    932.75239  0.027505083  0.026921583            6 
 2827000   0.79757973   -6.4615685    934.71403  0.027553179  0.026914221            4 
 2828000   0.80097861   -6.4520734     934.2505  0.027529777  0.026906882           17 
 2829000   0.78579758    -6.499576    934.13563  0.027516662  0.026899516            8 
 2830000   0.77958059   -6.4783946    934.42558  0.027515477  0.026892123            6 
 2831000   0.80976895   -6.4685422    934.27821  0.027501419  0.026884755            6 
 2832000   0.80992747   -6.4518442    935.78948  0.027536178  0.026877396            7 
 2833000   0.81266508   -6.4582463    935.40054  0.027515018  0.026870055           13 
 2834000   0.81190745   -6.4845642    933.37471  0.027445739  0.026862723            6 
 2835000   0.80572882   -6.4652161     935.7386  0.027505544  0.026855357           10 
 2836000   0.80365526   -6.4976639    933.50548  0.027430227  0.026847985            9 
 2837000   0.78913048   -6.4898542    934.13182  0.027438956  0.026840561            6 
 2838000   0.79425615   -6.4862073    935.79037  0.027477988  0.026833147           14 
 2839000   0.78443501   -6.4908516    934.24046  0.027422815  0.026825714           14 
 2840000   0.78291592   -6.4916459    934.33363  0.027415893  0.026818281            7 
 2841000   0.79230113   -6.4486126    935.51309  0.027440839  0.026810892           11 
 2842000   0.81068831   -6.4814704    935.98188  0.027444929  0.026803535            5 
 2843000   0.81335107   -6.4908252    934.61537  0.027395221   0.02679622            8 
 2844000   0.78447701   -6.4576317    936.44085  0.027439078  0.026788839           10 
 2845000    0.8148953   -6.4542923    934.54786  0.027373985  0.026781554            6 
 2846000   0.79050546   -6.4862815    936.46756  0.027420577  0.026774169            8 
 2847000   0.79151646   -6.5029981    935.57817  0.027384913  0.026766818            5 
 2848000   0.80268947   -6.4972612    936.26456  0.027395381  0.026759458           10 
 2849000   0.78534694   -6.4652525    938.22796  0.027443195  0.026752192           11 
 2850000   0.81353172   -6.4560053    937.52066  0.027412885  0.026744887            8 
 2851000   0.81020927   -6.4629457    937.57464  0.027404847  0.026737684            5 
 2852000   0.79822756   -6.4953221    934.44279  0.027303728  0.026730402           19 
 2853000   0.79788078   -6.5057302    933.44361  0.027264973  0.026723111            6 
 2854000   0.79014067   -6.4695606    938.18355   0.02739382  0.026715799            7 
 2855000   0.77945223   -6.4814001     938.0143  0.027379285   0.02670849           14 
 2856000   0.78376067   -6.4651036    937.20007   0.02734594  0.026701248            8 
 2857000   0.80630605   -6.4856791    938.05087  0.027361185  0.026693992           12 
 2858000   0.79882114   -6.4323573    938.68191  0.027370011  0.026686788           11 
 2859000   0.78394507   -6.4781803    937.62238  0.027329555  0.026679595           12 
 2860000   0.79987918    -6.467693    938.28505  0.027339308  0.026672391            4 
 2861000   0.78138551   -6.4797331        936.8  0.027286497   0.02666511           13 
 2862000   0.80639926   -6.4874229    935.76528  0.027246834  0.026657826            5 
 2863000   0.78858135   -6.4841807    935.94659  0.027242595  0.026650518            8 
 2864000   0.79332742   -6.4782046    935.76116  0.027227688  0.026643169            9 
 2865000   0.78877844   -6.4950636    937.31933  0.027263506   0.02663578            6 
 2866000   0.79491266   -6.4864026    936.30118  0.027224389  0.026628373            8 
 2867000    0.7960275   -6.4893813    936.34309  0.027216111  0.026621039            5 
 2868000   0.79505965     -6.50521    937.17438  0.027230776  0.026613697            5 
 2869000   0.80128032   -6.4660604    939.30157  0.027283071  0.026606408           10 
 2870000   0.79669252   -6.4966242    936.56704  0.027194165  0.026599065            7 
 2871000   0.81068777   -6.5052372    935.93927  0.027166471  0.026591745           11 
 2872000    0.7727795   -6.4766118    937.65997   0.02720694  0.026584378            8 
 2873000   0.79778678   -6.5022207    935.67761   0.02713997  0.026577018           11 
 2874000   0.79670662   -6.4992393    935.95046  0.027138438  0.026569672            9 
 2875000   0.76710681   -6.4925794    937.52256  0.027174567  0.026562317            9 
 2876000   0.79369924   -6.4855698    939.21242  0.027214083  0.026554954           15 
 2877000   0.79034615   -6.4793198    938.11571  0.027172857  0.026547634           11 
 2878000   0.78344485   -6.4817727    940.41403  0.027229964  0.026540314            8 
 2879000   0.80163766   -6.5014974    937.41948  0.027133828  0.026532948           10 
 2880000   0.77371791   -6.5277637    937.25306  0.027119591  0.026525583           11 
 2881000    0.7919947   -6.4717076    940.55645  0.027205729  0.026518233            8 
 2882000   0.79772904   -6.4794567    940.04553  0.027181516  0.026510902            8 
 2883000   0.79251928   -6.4909144    939.15642  0.027146387  0.026503595           13 
 2884000   0.78291705   -6.5267673     939.4266  0.027144782  0.026496296           11 
 2885000   0.79814484   -6.4754974     939.2539  0.027130384  0.026488979            8 
 2886000   0.79291393    -6.491411    939.04438  0.027114934  0.026481707           10 
 2887000   0.78917682   -6.4861442    939.56587  0.027120594  0.026474436            5 
 2888000   0.79067152   -6.4836843    936.67028  0.027027651  0.026467131           11 
 2889000   0.78963676   -6.4350316    944.05148  0.027231207  0.026459872            9 
 2890000   0.77928134   -6.4689253    940.73331  0.027126105  0.026452609           11 
 2891000   0.79490925   -6.4720834    941.00356  0.027124512  0.026445347           12 
 2892000    0.7909194   -6.4535222    941.03927  0.027116162  0.026438194            7 
 2893000   0.79211249   -6.5157295    940.03319  0.027077808  0.026431016            7 
 2894000   0.77137595   -6.4812904    942.91635  0.027151473  0.026423754            8 
 2895000   0.80128585   -6.4961979     938.5721  0.027017044  0.026416482            8 
 2896000   0.79118577   -6.4866359    939.18891  0.027025463  0.026409156            8 
 2897000    0.7716978   -6.5079021    939.40446  0.027022335   0.02640189            9 
 2898000   0.78958913   -6.4984824    939.72887  0.027022339   0.02639461           13 
 2899000   0.78458435   -6.4817375    939.14146  0.026996133  0.026387342           15 
 2900000   0.79982944   -6.4660169    943.06468   0.02709956  0.026380108            8 
 2901000   0.79247219   -6.4897943    937.52864  0.026931192  0.026372854            8 
 2902000   0.78432148   -6.5303259    938.48535  0.026949384  0.026365567            6 
 2903000   0.77807255    -6.499149    942.24408  0.027047999  0.026358259            7 
 2904000    0.8087892   -6.5220073    940.46062  0.026987506  0.026350934           11 
 2905000   0.76717275   -6.5116058    940.19705  0.026970656  0.026343589            8 
 2906000   0.77135597   -6.5027874    939.95697   0.02695449  0.026336224           10 
 2907000   0.79414656   -6.5012877    941.35824  0.026985387  0.026328913           15 
 2908000   0.80025582   -6.4954219    938.36137  0.026890227  0.026321602           21 
 2909000   0.80029754   -6.5241292    938.88572  0.026896004  0.026314281            8 
 2910000   0.78556204   -6.4770892    939.92468  0.026916514  0.026307017            8 
 2911000   0.79511349   -6.5140958    937.93707  0.026850368  0.026299702           12 
 2912000   0.79669373   -6.5065905    941.06423  0.026930639  0.026292382           20 
 2913000   0.80862498   -6.4974102    939.69446  0.026882208  0.026285075            9 
 2914000   0.78302521   -6.5106592    940.21997  0.026888011  0.026277751           10 
 2915000   0.79225304   -6.5239006    939.45383  0.026856885  0.026270389            9 
 2916000    0.7941073   -6.5057818    938.66198  0.026825045   0.02626301            9 
 2917000    0.8041964   -6.5315687    939.81664  0.026848836  0.026255643           11 
 2918000   0.79904885   -6.5078402    938.56739  0.026803958  0.026248349            9 
 2919000   0.79202185   -6.5151246    939.90959  0.026833093   0.02624099            7 
 2920000   0.77984843    -6.508427    943.03947  0.026913227  0.026233664            8 
 2921000   0.79717516   -6.5052369    942.83759  0.026898254  0.026226388            7 
 2922000   0.78860501   -6.4894765    942.82812  0.026888778  0.026219074            9 
 2923000    0.7717708   -6.5166046    940.15712   0.02680343  0.026211748           10 
 2924000   0.77387464   -6.5136718    941.85897  0.026842766  0.026204475            9 
 2925000   0.79755939   -6.5227725    941.28616   0.02681727  0.026197195           22 
 2926000   0.77295555   -6.5309613    942.70171   0.02684842  0.026189883            8 
 2927000   0.77299457   -6.5029634    942.76831  0.026841143  0.026182611           11 
 2928000   0.80806832   -6.5049815    942.73202  0.026830943   0.02617533           11 
 2929000   0.77714854   -6.5203919    940.71415  0.026764372  0.026168033            4 
 2930000    0.7683854   -6.5063683    942.78004  0.026813994  0.026160745           15 
 2931000   0.77835566   -6.5100406    939.53756  0.026712657   0.02615345            7 
 2932000    0.7880296   -6.4984078    941.35894  0.026755313  0.026146161            8 
 2933000   0.78033634   -6.5169338    942.08288   0.02676676  0.026138832           14 
 2934000   0.79142518   -6.5116847    940.13372  0.026702276  0.026131448           12 
 2935000   0.78489601   -6.5133378    941.54522  0.026733254  0.026124112            6 
 2936000   0.77954212   -6.5246658     939.1761  0.026656906  0.026116744           15 
 2937000   0.79570706   -6.5360647    942.80697   0.02675085   0.02610933            5 
 2938000   0.78340677   -6.5481972    942.09167  0.026721457  0.026101953            6 
 2939000   0.77918713   -6.5277755    940.57685  0.026669413   0.02609458            7 
 2940000   0.76068537    -6.502649     941.3258   0.02668157  0.026087216            4 
 2941000   0.76310539   -6.4588453    946.87936  0.026829858  0.026079999            5 
 2942000   0.77589552   -6.4859712    942.64684  0.026700851   0.02607273           17 
 2943000   0.78285524   -6.4982543    942.80957  0.026696386  0.026065487           11 
 2944000    0.7816022   -6.4732017    943.54572  0.026708156   0.02605823            6 
 2945000   0.79031888    -6.506966    946.54694  0.026784011  0.026051031           11 
 2946000   0.79214524   -6.4935562     945.6497  0.026749539   0.02604381           10 
 2947000   0.78462094    -6.514208    941.18113  0.026614103  0.026036528           15 
 2948000   0.79860614   -6.5180536    942.79116  0.026650587  0.026029234           14 
 2949000   0.78767971   -6.5273085    942.27118  0.026626856  0.026021977            5 
 2950000   0.78228409   -6.5301349    944.55322  0.026682294  0.026014677           17 
 2951000   0.78342004    -6.528956    942.95083  0.026628003  0.026007424           12 
 2952000   0.77543485   -6.5163684    943.15795  0.026624829   0.02600015           10 
 2953000   0.78479911   -6.5342371    943.42554  0.026623364  0.025992829           13 
 2954000   0.76746668   -6.5346029    944.20343  0.026636296  0.025985485           11 
 2955000   0.78325145   -6.5355455    943.90531  0.026618875  0.025978183            8 
 2956000   0.76906538    -6.530198    944.64214  0.026630642  0.025970855           10 
 2957000   0.76172007   -6.5400615     940.8135  0.026513739  0.025963555           12 
 2958000   0.80502237   -6.5463542     944.6598  0.026613134  0.025956238            5 
 2959000   0.76831893   -6.5270028    945.25568  0.026620922  0.025948941           11 
 2960000   0.77931784   -6.5205839    945.16217  0.026609295  0.025941678           13 
 2961000   0.80003116   -6.5353649    943.05555  0.026541021   0.02593438           20 
 2962000   0.76865778   -6.5427845    944.57817  0.026574898  0.025927049           12 
 2963000   0.77019334   -6.5779186    939.43501  0.026421279  0.025919666            9 
 2964000   0.76642317    -6.525006    943.12889  0.026516219  0.025912307           11 
 2965000   0.79445857   -6.5356023    943.02295  0.026504299  0.025905045           10 
 2966000   0.77505704   -6.5129021    944.80322  0.026545381  0.025897777           12 
 2967000   0.77992452   -6.5335711    946.63464  0.026587873  0.025890489           21 
 2968000   0.76459166   -6.5062413     945.3662  0.026543301  0.025883264            6 
 2969000   0.76862689   -6.4654535       945.89  0.026549063  0.025876089           11 
 2970000   0.76196712   -6.5235452     944.7099  0.026507012  0.025868888            6 
 2971000   0.78078703   -6.5072733    947.77577  0.026584084  0.025861686            6 
 2972000   0.77143818   -6.5209477    943.41447  0.026452851  0.025854479           12 
 2973000   0.78664104   -6.5168187    946.61537  0.026533674  0.025847268           17 
 2974000   0.77634786    -6.507952    945.85167  0.026503353  0.025840014            8 
 2975000   0.77469136   -6.5261661    946.20704  0.026504399  0.025832803           21 
 2976000   0.77499911    -6.526944    945.44641  0.026474194  0.025825562           17 
 2977000   0.75643386   -6.5218034    944.21217  0.026430752  0.025818293            7 
 2978000    0.7731938   -6.5089724    947.73306  0.026520401  0.025811024           11 
 2979000   0.77798204   -6.5417513    945.05345  0.026436541  0.025803788            6 
 2980000   0.78502125   -6.5244584    942.99423  0.026370085  0.025796508            6 
 2981000   0.76258809   -6.5570474    946.00135  0.026445302   0.02578926           13 
 2982000   0.79302167   -6.5398108    947.54699  0.026479627  0.025781972            9 
 2983000   0.76752878   -6.5405253    945.61669  0.026416826  0.025774681            5 
 2984000   0.77659706   -6.4996221    946.63569   0.02643643  0.025767436           19 
 2985000   0.77210225   -6.5433651    945.17292  0.026386737  0.025760197           20 
 2986000   0.78440849   -6.5676427    942.15848  0.026293773  0.025752883           14 
 2987000   0.75164616    -6.544488    943.65296  0.026326664  0.025745519            5 
 2988000   0.76977425   -6.5515792    945.07316  0.026357462   0.02573817            5 
 2989000   0.77007221   -6.5356338    944.20433  0.026324421  0.025730838           22 
 2990000   0.77214549   -6.5201521    947.35403  0.026403401  0.025723481           13 
 2991000   0.77547514   -6.5777165    943.29204  0.026281401  0.025716096            8 
 2992000   0.76987965   -6.5390017    944.46074  0.026305168  0.025708718           12 
 2993000   0.76357819   -6.5408067    945.08767  0.026313834  0.025701425            8 
 2994000   0.78194056   -6.5656506    943.54128  0.026262004  0.025694097            9 
 2995000   0.76781465    -6.570356    942.62167  0.026227648  0.025686788            6 
 2996000    0.7815832   -6.5517562    944.67991  0.026276144  0.025679452           11 
 2997000   0.76738971   -6.5395138    944.43414  0.026260542  0.025672151           17 
 2998000   0.77715499   -6.5362789    947.86448  0.026347134  0.025664871           11 
 2999000   0.78858421   -6.5375099    944.03086  0.026231824  0.025657594           14 
 3000000   0.76566175   -6.5441328    945.87776  0.026274382   0.02565028           13 
 3001000    0.7638934   -6.5566289    944.38052  0.026224051  0.025642973           16 
 3002000   0.77766818   -6.5272475    946.65666  0.026278499  0.025635706            9 
 3003000   0.78576542   -6.5493079    946.09806  0.026254247   0.02562845           20 
 3004000   0.76767658    -6.532447    943.59864  0.026176172  0.025621166            9 
 3005000   0.77725784   -6.5550019    948.98644  0.026316873  0.025613902            8 
 3006000   0.78266682   -6.5450999    947.19544  0.026258467   0.02560665            8 
 3007000   0.76323428   -6.5466593    946.05969   0.02621826  0.025599375           17 
 3008000   0.76315699    -6.516626    946.89084   0.02623257  0.025592108            7 
 3009000   0.75687657   -6.5776401    945.74492  0.026192116  0.025584869           15 
 3010000   0.77193009   -6.5427999    947.65711  0.026236354  0.025577544            6 
 3011000   0.75789716   -6.5495677    946.18104  0.026186789  0.025570284           12 
 3012000   0.77238947   -6.5742811    947.68749  0.026219773  0.025563019           12 
 3013000   0.76100287   -6.5258736    946.86428  0.026188303  0.025555737            9 
 3014000   0.77858687   -6.5585153    946.73269  0.026175976  0.025548458           10 
 3015000    0.7672209    -6.557707    945.92636  0.026145007  0.025541213           11 
 3016000   0.76697967   -6.5755634    945.27487  0.026118338  0.025533914           11 
 3017000   0.76794119   -6.5532489    947.34947  0.026166984  0.025526651            6 
 3018000   0.78204106   -6.5411064    946.84811   0.02614447  0.025519443            9 
 3019000    0.7721331   -6.5323454      947.889  0.026164541  0.025512228            9 
 3020000    0.7468452   -6.5419699    947.70138    0.0261507  0.025504984           14 
 3021000   0.79094176   -6.5494511    947.74132  0.026143146   0.02549772           10 
 3022000   0.78261189   -6.5397457    948.69752  0.026160862  0.025490458           19 
 3023000    0.7808148   -6.5783633    945.36297  0.026060287   0.02548324           10 
 3024000   0.76438272   -6.5788221    948.09005   0.02612682  0.025475971            8 
 3025000   0.75277138   -6.5645198    946.79051  0.026082383  0.025468668           14 
 3026000   0.76091714   -6.5703101    945.84719  0.026047785   0.02546136           12 
 3027000   0.77270949   -6.5502347    944.61089  0.026005145  0.025454071           12 
 3028000   0.75389608   -6.5597863    946.32222  0.026043654  0.025446805           10 
 3029000    0.7635058    -6.563455    950.31914  0.026145019   0.02543955            8 
 3030000   0.75910294   -6.5494094    947.33109  0.026054211  0.025432354           12 
 3031000   0.77335043   -6.5494864    946.93927  0.026034842  0.025425112            9 
 3032000   0.76433546   -6.5423166    949.55929  0.026098265  0.025417886           11 
 3033000   0.76811195     -6.54916    947.74402  0.026039785  0.025410631            8 
 3034000   0.76953602   -6.5342239    947.79932  0.026032721  0.025403431            9 
 3035000     0.775097   -6.5360507    949.47875  0.026070257  0.025396208            6 
 3036000   0.75893366    -6.570771    947.17534  0.025998445  0.025388977           12 
 3037000   0.76494106   -6.5489393    948.37092   0.02602269   0.02538176            6 
 3038000   0.76393172    -6.544163    947.24725  0.025983302  0.025374527           16 
 3039000   0.76262293   -6.5458446    949.80562  0.026044906  0.025367287            6 
 3040000   0.77000942   -6.5438788    949.43314  0.026026128  0.025360123            6 
 3041000   0.75275844   -6.5516798    948.82872  0.026001006  0.025352917            7 
 3042000     0.777948   -6.5526266     948.3749  0.025980027  0.025345671           14 
 3043000   0.75608376   -6.5644355    948.33288  0.025970339  0.025338402           20 
 3044000   0.77204929    -6.535519    950.39158  0.026018166   0.02533118           12 
 3045000   0.76763563   -6.5476635    950.55862  0.026014193  0.025323965           10 
 3046000    0.7711071   -6.5786728    950.35871  0.026000184  0.025316799           12 
 3047000   0.77770889   -6.5558727    948.69897  0.025946258  0.025309635           10 
 3048000   0.76508723   -6.5560845    950.85069  0.025996574    0.0253025            7 
 3049000   0.76779897   -6.5408059    947.67195  0.025901168  0.025295332           11 
 3050000   0.76301771   -6.5753645    947.77652  0.025895533   0.02528816           11 
 3051000   0.76064187   -6.5841564    947.58889  0.025881921  0.025280906            7 
 3052000   0.77043904   -6.5835233    947.39225  0.025868071  0.025273628           29 
 3053000    0.7734814   -6.5966235     946.3096  0.025830047    0.0252663           12 
 3054000   0.74333811   -6.5881961    946.96021  0.025839342   0.02525904            7 
 3055000   0.77193388   -6.5760071     947.6532  0.025849787  0.025251741           12 
 3056000   0.78081514    -6.578404    946.56861  0.025811753   0.02524448           20 
 3057000   0.76634164   -6.5882887    948.50874  0.025856197  0.025237166           24 
 3058000   0.75642053   -6.5796582    948.92619  0.025859118   0.02522989           21 
 3059000   0.74197486    -6.568931     948.2849  0.025833194  0.025222629           13 
 3060000   0.76383233   -6.6091904    946.72769  0.025782345  0.025215336           15 
 3061000   0.74989191   -6.5838338    947.81943  0.025803643  0.025208023           18 
 3062000   0.76861668   -6.5451178    949.47267   0.02584021  0.025200729            9 
 3063000   0.76439737   -6.5846733    947.86807  0.025788118  0.025193494            9 
 3064000   0.76379777    -6.578396    949.13293  0.025814103  0.025186243            6 
 3065000    0.7700388   -6.5493624    951.24851    0.0258632  0.025179009            8 
 3066000   0.75523541    -6.555973    950.64797  0.025838442  0.025171817           10 
 3067000   0.78296899   -6.5387268    950.93186  0.025837731  0.025164637           12 
 3068000   0.76836209   -6.5633703    949.59435   0.02579298  0.025157395           10 
 3069000   0.76077686   -6.5985242    949.35397  0.025778049  0.025150155            5 
 3070000   0.76693777   -6.5827392    947.86047  0.025729112   0.02514287           16 
 3071000   0.76498952   -6.5813968    951.09279  0.025808444  0.025135645            5 
 3072000    0.7594988   -6.5591923    951.65903  0.025815403  0.025128429            8 
 3073000   0.76004569   -6.5645848    949.37388  0.025745034  0.025121209            9 
 3074000   0.77144015   -6.5559133    951.09582  0.025783339  0.025114014            7 
 3075000   0.77434536   -6.5935333    950.98041  0.025771827   0.02510681           19 
 3076000   0.75970762   -6.5609155    950.32637   0.02574573   0.02509962            5 
 3077000   0.75603482   -6.5883811    949.48272  0.025714514  0.025092448           12 
 3078000    0.7392638   -6.6074547    949.04416  0.025694286  0.025085233           18 
 3079000   0.76376042   -6.5895277    948.95261  0.025683464  0.025077992           11 
 3080000   0.77062278   -6.5765996     951.3424  0.025739784  0.025070811           11 
 3081000   0.75541314   -6.5792748    952.41992  0.025760573  0.025063603           11 
 3082000   0.75289285   -6.5812284    951.37447  0.025723947  0.025056398           10 
 3083000   0.75816178   -6.5776925    952.05417  0.025733976  0.025049176           17 
 3084000   0.77101903   -6.5927681    951.18461  0.025702135  0.025041992            7 
 3085000   0.76261202   -6.5945909    949.33123  0.025643739  0.025034788           11 
 3086000   0.73920934   -6.5683767    952.37154  0.025717529   0.02502758           16 
 3087000   0.76426233   -6.5944274    950.85102  0.025668152  0.025020385           14 
 3088000     0.759416   -6.5978533    952.27719  0.025698327  0.025013151            9 
 3089000   0.75964888    -6.551275    953.91058  0.025734072  0.025005964           10 
 3090000   0.74368711   -6.5680872    952.68396  0.025692663  0.024998785           10 
 3091000   0.76693717   -6.5995614     950.5357  0.025626434  0.024991557            6 
 3092000   0.72909056   -6.6203571    951.80222  0.025652281  0.024984378           15 
 3093000   0.76351954   -6.5495173    953.43841   0.02568807  0.024977194           15 
 3094000   0.75075372   -6.5694675    952.08603  0.025643343  0.024970028           12 
 3095000   0.75322999    -6.601898    951.59457  0.025621825  0.024962862           22 
 3096000   0.75923539   -6.5660734    951.96278   0.02562346  0.024955691           10 
 3097000   0.75358919    -6.590268    953.65764  0.025660791  0.024948533           12 
 3098000   0.74546689   -6.5400199    954.89307   0.02568574  0.024941431            9 
 3099000   0.74777208   -6.5474614    952.09761   0.02560228  0.024934314           12 
 3100000   0.76489113   -6.5766647    953.23045  0.025624474  0.024927177           11 
 3101000    0.7612212   -6.5660812    952.92888  0.025608107   0.02492009            7 
 3102000   0.75825722    -6.590043    953.05863  0.025603337  0.024912967            6 
 3103000   0.74281654   -6.5937398     953.5835  0.025609182  0.024905819           12 
 3104000   0.76147488   -6.5656618     955.3138  0.025647385  0.024898727            9 
 3105000   0.77319055   -6.5926934    951.53732   0.02553777  0.024891659            9 
 3106000   0.76737881    -6.567876    955.82881  0.025644688  0.024884618            6 
 3107000   0.75481931   -6.5864634    953.32958  0.025569402  0.024877564           16 
 3108000   0.74689203   -6.5475903    956.17358   0.02563743  0.024870503           11 
 3109000   0.75186387   -6.5632658    956.77202  0.025645224  0.024863452            8 
 3110000   0.75704201   -6.5644486    954.43639  0.025574394  0.024856464           13 
 3111000   0.74593787   -6.5687573     956.0103  0.025608333  0.024849473            8 
 3112000   0.74697929   -6.5751744    953.15037  0.025523521  0.024842438            8 
 3113000   0.75452666   -6.5651539     952.5318  0.025498763  0.024835424           10 
 3114000   0.74460199     -6.55904    954.40706  0.025540758  0.024828422            9 
 3115000   0.74547835   -6.5936757    955.53389  0.025562704  0.024821386           17 
 3116000   0.73533535   -6.5926058    955.78876  0.025561317  0.024814341           12 
 3117000   0.75743338   -6.5746687    956.30302  0.025566865  0.024807281           12 
 3118000    0.7585383   -6.6164014    954.34458  0.025506323  0.024800241            7 
 3119000   0.75676065    -6.579702     956.7299  0.025561876  0.024793238            9 
 3120000   0.73723994   -6.5704193    956.28746  0.025541866  0.024786269           14 
 3121000    0.7472011   -6.5712446    957.41065  0.025563672   0.02477931            6 
 3122000   0.74558676   -6.5615298     960.7397  0.025644344  0.024772361           14 
 3123000   0.75862474   -6.5924551    956.08018  0.025511799  0.024765397            9 
 3124000   0.76687548   -6.6090079    956.01095  0.025501786  0.024758426           16 
 3125000   0.73561526   -6.6026229    957.53406  0.025534242  0.024751439            9 
 3126000   0.73024469   -6.6003445    954.68165  0.025450033  0.024744483           12 
 3127000     0.769273   -6.6239328    955.82047  0.025472244  0.024737465           17 
 3128000    0.7605837   -6.5686842    958.62996  0.025538948  0.024730509           23 
 3129000   0.73898902   -6.6113119    953.74364  0.025400651  0.024723525            8 
 3130000   0.77072047   -6.5889419    956.00742  0.025452807  0.024716521            9 
 3131000   0.75338967     -6.58601    955.91595  0.025442243  0.024709555            9 
 3132000   0.74636683   -6.5930403    956.92595  0.025460993  0.024702572            5 
 3133000   0.75292447   -6.5963806    954.80199  0.025396372  0.024695587            8 
 3134000   0.75967902   -6.6116633    956.00817  0.025420341  0.024688594           14 
 3135000   0.74392564   -6.6141113    958.18927  0.025470209  0.024681548            6 
 3136000   0.75813279    -6.586063    955.56879  0.025392453  0.024674555            8 
 3137000    0.7492031   -6.6218779    955.27734  0.025376616   0.02466757           11 
 3138000   0.75966955   -6.5962948    958.55742  0.025455636  0.024660528           10 
 3139000   0.77042209   -6.5931881    955.00455  0.025353206  0.024653468           16 
 3140000   0.74995281   -6.6059502    955.30099  0.025352999  0.024646412           15 
 3141000   0.73492491   -6.6022561    956.94809  0.025388626  0.024639384           15 
 3142000   0.75391931   -6.6259914    955.63926  0.025345832  0.024632362           11 
 3143000    0.7430876   -6.6550647     954.9454  0.025319371  0.024625273           14 
 3144000   0.75443802   -6.6256649    955.24921   0.02531937  0.024618188           12 
 3145000   0.74130707   -6.6157285    954.51947  0.025291984  0.024611137            8 
 3146000   0.75811556    -6.591776    954.20065  0.025275499  0.024604055            6 
 3147000   0.76436577   -6.5974246      955.878  0.025311884  0.024597069           21 
 3148000    0.7482535   -6.5954828    957.09694  0.025336111   0.02459013           13 
 3149000    0.7495801   -6.6157731    958.43731  0.025363536  0.024583142           21 
 3150000   0.73516957   -6.6120431    958.12855  0.025347316   0.02457617           24 
 3151000   0.74947605   -6.5980292    959.51875  0.025376038  0.024569214           20 
 3152000   0.72667584   -6.5829297    960.42195  0.025391866  0.024562305            9 
 3153000    0.7449434    -6.609974    960.46296  0.025384897  0.024555405           21 
 3154000   0.74313431   -6.5824693    961.32121  0.025399525   0.02454848           16 
 3155000    0.7474604   -6.5853362    960.44212  0.025368255  0.024541572            8 
 3156000   0.75592201   -6.5830661     960.2899  0.025356197  0.024534661            4 
 3157000   0.74661985    -6.627633    957.79434  0.025282292  0.024527713            8 
 3158000   0.74542031   -6.6221938    957.85606  0.025275915  0.024520725           18 
 3159000   0.74997425   -6.6114171    958.24465  0.025278164  0.024513731           14 
 3160000   0.73520246    -6.621371    958.44562  0.025275465  0.024506735           11 
 3161000   0.73840133   -6.6123178    958.72008  0.025274704  0.024499787           22 
 3162000   0.76245707   -6.6187232    955.77062  0.025188979  0.024492801           18 
 3163000    0.7373177   -6.6115441    956.60023  0.025202872  0.024485815           14 
 3164000    0.7496359   -6.6195545    957.84676  0.025227738  0.024478866            8 
 3165000   0.74044961   -6.6202445    957.90339  0.025221258  0.024471916            9 
 3166000   0.75205274   -6.6308609    958.51072  0.025229278  0.024464957           12 
 3167000   0.74356871   -6.6071807    959.10424  0.025236929  0.024458005            9 
 3168000   0.73035405   -6.6053005    958.19742  0.025205109    0.0244511           10 
 3169000   0.76903173   -6.6369072    956.67121  0.025157022  0.024444204            6 
 3170000    0.7514442   -6.5940366     958.5294  0.025197934  0.024437302           12 
 3171000   0.73883712   -6.6320845    958.69713  0.025194395  0.024430388           21 
 3172000   0.73868178   -6.6280162    960.22865  0.025226688  0.024423453           24 
 3173000    0.7541955   -6.6098996    959.28605  0.025193982  0.024416517            9 
 3174000   0.73233495   -6.6040511    958.87024  0.025175127   0.02440963            9 
 3175000   0.73974877   -6.6639047    957.16474  0.025122434  0.024402717           15 
 3176000    0.7470335   -6.6352332    957.78217  0.025130725   0.02439577           14 
 3177000   0.75057382   -6.6144338    958.43444  0.025139923  0.024388855            7 
 3178000   0.73836986   -6.6255657    958.24048  0.025126927  0.024381911           14 
 3179000     0.742652    -6.629077    960.83236  0.025186966  0.024375016            5 
 3180000   0.75203771   -6.6005537     962.1548    0.0252137  0.024368155            8 
 3181000   0.75508557   -6.6222737    960.07271  0.025151229  0.024361273           16 
 3182000   0.73509469   -6.6187532    959.49244  0.025128128  0.024354398           12 
 3183000   0.74536669   -6.6152809    958.47075  0.025093485  0.024347548            7 
 3184000     0.739786   -6.6138634    962.90934  0.025201773  0.024340698            6 
 3185000   0.74502509   -6.6058214    959.33127  0.025100243  0.024333855           10 
 3186000   0.72471634   -6.6372406    959.86939  0.025106439  0.024326981           10 
 3187000   0.74111048   -6.6292237    960.59596   0.02511756  0.024320123            4 
 3188000   0.73548817   -6.6084124    960.84849  0.025116282  0.024313301           13 
 3189000   0.74150584   -6.6160667    962.07543  0.025140468  0.024306517            8 
 3190000   0.72748575   -6.6220845    962.48667   0.02514333  0.024299704           14 
 3191000   0.72828933   -6.6216089    962.38498  0.025132795  0.024292874           10 
 3192000   0.73068337   -6.6035871    964.15462  0.025171121  0.024286104           11 
 3193000    0.7379866   -6.5937841     963.3279  0.025141661   0.02427931            8 
 3194000    0.7412388   -6.5993177    963.87469  0.025148056  0.024272527           15 
 3195000   0.74135428   -6.6244272     960.4396  0.025050589  0.024265731            9 
 3196000    0.7569969   -6.6076343    962.42232  0.025094449  0.024258943           10 
 3197000   0.75414396   -6.6513608      958.799  0.024992154    0.0242521            6 
 3198000   0.74230739   -6.6380814    960.34274  0.025024566  0.024245197            8 
 3199000   0.76563594    -6.651591    960.47648  0.025020227  0.024238308           18 
 3200000   0.73663551   -6.6397573    959.85676   0.02499627  0.024231448            9 
 3201000    0.7526261   -6.6288649    960.86107  0.025014607  0.024224552            9 
 3202000   0.73232344   -6.6226069    960.64025  0.025001048  0.024217704           19 
 3203000   0.72777806   -6.6164035    962.51479  0.025042012  0.024210889            9 
 3204000   0.74435794   -6.6171709    963.00362  0.025046911  0.024204027           10 
 3205000   0.73630664   -6.6442244    959.04033  0.024936046  0.024197188           16 
 3206000   0.72933983   -6.6457927    962.09067  0.025007555  0.024190339           21 
 3207000   0.74385945   -6.6219569    962.56125  0.025011986  0.024183497           34 
 3208000   0.74163731   -6.6181703    962.46762  0.025001756    0.0241767           53 
 3209000    0.7357081   -6.6518422    961.27851  0.024963086  0.024169838           12 
 3210000   0.72394241   -6.6297492    961.99933  0.024974022  0.024162984           12 
 3211000   0.75208888   -6.6413552    961.35664  0.024949565  0.024156103           16 
 3212000    0.7394645   -6.6563873    963.30668   0.02499239   0.02414916           23 
 3213000   0.73799132   -6.6633968    961.25439  0.024931383  0.024142241           11 
 3214000   0.74209608   -6.6626535    960.83763   0.02491282  0.024135333           33 
 3215000   0.72749878   -6.6466794    959.45511  0.024869236  0.024128418           11 
 3216000    0.7519003   -6.6420074    961.09292  0.024903942  0.024121496            9 
 3217000   0.74056732   -6.6552306    961.02472  0.024894434   0.02411458           16 
 3218000   0.73596756   -6.6291472    961.97389  0.024911278  0.024107678           10 
 3219000   0.73611318   -6.6418399    963.33612  0.024938804  0.024100777           11 
 3220000   0.74713133   -6.6300058    963.03497  0.024923265  0.024093882           11 
 3221000   0.72514631   -6.6646815     961.2234  0.024868659  0.024086994           10 
 3222000   0.74006714   -6.6286159    962.93087  0.024905102   0.02408012           25 
 3223000   0.73571799    -6.624616    960.36246  0.024830966  0.024073242           14 
 3224000    0.7433485   -6.6429885    960.76683  0.024833717  0.024066366           17 
 3225000    0.7268365   -6.6467499    959.85786  0.024802529  0.024059477           25 
 3226000   0.74049444   -6.5990976    962.42184  0.024861072  0.024052644            7 
 3227000   0.72246321   -6.6233661    962.17884  0.024847093  0.024045783           23 
 3228000   0.74288612   -6.6259103    963.79809  0.024881198  0.024038945           16 
 3229000   0.73535781   -6.6239255    962.69155  0.024844935  0.024032123            9 
 3230000   0.72881648    -6.610018    965.29458  0.024904401  0.024025307           29 
 3231000   0.74763107   -6.6458989    962.56122  0.024826195  0.024018448           24 
 3232000   0.74666927    -6.649761    960.68207  0.024770062  0.024011595           33 
 3233000   0.75010938   -6.6574896    962.69495  0.024814284  0.024004735           14 
 3234000   0.72403898   -6.6349789    963.84515  0.024836249  0.023997887           20 
 3235000   0.72709968   -6.6513944    963.28424  0.024814123  0.023991071           13 
 3236000    0.7469079   -6.6574293    963.47439  0.024811351  0.023984227           14 
 3237000   0.74547198   -6.6373043    962.09163  0.024768089  0.023977405           15 
 3238000    0.7305746   -6.6471098    962.22926  0.024763981  0.023970498            7 
 3239000   0.74175701   -6.6492838    959.27678  0.024680374  0.023963549            8 
 3240000   0.73841465   -6.6408268    960.49819  0.024704171  0.023956633            8 
 3241000   0.74817723   -6.6525406    961.28684  0.024716827  0.023949709           11 
 3242000   0.74132345    -6.631749    960.93275  0.024700102  0.023942786            8 
 3243000   0.72441657   -6.6663245    957.98732  0.024616798  0.023935833            7 
 3244000   0.71506237   -6.6686536    960.23216  0.024666876  0.023928883           17 
 3245000   0.73696314   -6.6761464    959.34193  0.024636413  0.023921909            8 
 3246000   0.74294166   -6.6427783    959.96736   0.02464488   0.02391497            7 
 3247000   0.72281738   -6.6380815    960.82788  0.024659375  0.023908048            6 
 3248000   0.75104828   -6.6223897    963.39415  0.024717625  0.023901129            7 
 3249000   0.72786178   -6.6198449    961.62445  0.024664626  0.023894225           14 
 3250000    0.7393386   -6.6514222    961.94481  0.024665252  0.023887315            9 
 3251000   0.72224444   -6.6374333    961.61218  0.024649138   0.02388036            8 
 3252000   0.73173196   -6.6427537    959.84671  0.024596318  0.023873389           12 
 3253000   0.73544869   -6.6131327    961.11357  0.024621211  0.023866445            6 
 3254000   0.73000763   -6.6561612    961.82757  0.024631929  0.023859498            4 
 3255000   0.72957062   -6.6343201    961.87703  0.024625628  0.023852565           15 
 3256000    0.7326839   -6.6358728    960.90799  0.024593263  0.023845641           16 
 3257000   0.73251661   -6.6433781     960.1823  0.024567145  0.023838713           21 
 3258000   0.72837078   -6.6628144     960.8449  0.024576553  0.023831784           15 
 3259000   0.73181138   -6.6605359    959.64986  0.024538454  0.023824826           15 
 3260000   0.72692733   -6.6707479     960.5663  0.024554353  0.023817864           15 
 3261000    0.7234973   -6.6413812    962.65998  0.024600327  0.023810912           27 
 3262000   0.73831029   -6.6532965    962.00058   0.02457594  0.023803972            8 
 3263000   0.72996917   -6.6743643    959.90382  0.024514859  0.023797048           24 
 3264000   0.73060322    -6.674265    961.66962  0.024552431  0.023790086            9 
 3265000   0.72453118   -6.6502664    962.91863   0.02457679  0.023783165           37 
 3266000   0.73082252   -6.6598369    960.99062  0.024520071  0.023776247           16 
 3267000   0.71736854   -6.6663054     961.4551  0.024524413  0.023769365           14 
 3268000    0.7372063   -6.6456519    963.04029  0.024557331  0.023762444           10 
 3269000   0.72920257   -6.6653038    961.85655  0.024519643  0.023755511           11 
 3270000   0.73022334   -6.6474835    961.75261  0.024509496  0.023748577           20 
 3271000   0.72488065   -6.6433508    961.90689  0.024505933  0.023741663            8 
 3272000   0.73457034   -6.6699797    960.12288  0.024453007  0.023734793           23 
 3273000   0.72651396   -6.6541293    961.37883  0.024477514  0.023727845           21 
 3274000   0.72916383   -6.6486522    962.48013  0.024498069  0.023720953            9 
 3275000   0.70876683   -6.6475655    963.68961  0.024521364  0.023714066           18 
 3276000   0.73392239   -6.6547177    960.68105  0.024437349  0.023707177           12 
 3277000   0.72071584   -6.6608298    963.81331  0.024509544  0.023700275           15 
 3278000   0.73174783   -6.6112644    962.60472  0.024471342  0.023693407            7 
 3279000   0.72849047    -6.635948    963.87797  0.024496238  0.023686557            7 
 3280000   0.72015156   -6.6440899    961.41101  0.024426093  0.023679706           18 
 3281000    0.7166253   -6.6530105    961.60107  0.024423475  0.023672843            9 
 3282000   0.70630524   -6.6447167    965.22697  0.024508099  0.023665972            9 
 3283000   0.73212163   -6.6659916    963.30892  0.024451947  0.023659131           13 
 3284000   0.72242926   -6.6414168    964.45476  0.024473578  0.023652267           16 
 3285000    0.7248978   -6.6812652    963.95045  0.024453335    0.0236454           11 
 3286000   0.71395741   -6.7045639    963.52533  0.024435112  0.023638516           16 
 3287000   0.72581892   -6.6624301    964.85088  0.024461284  0.023631603           14 
 3288000   0.71767441   -6.6548995    963.63371  0.024422995  0.023624719            9 
 3289000   0.73961328   -6.6819075    962.16542  0.024378368  0.023617819           23 
 3290000   0.74354287   -6.6815774    961.22192   0.02434706  0.023610909           24 
 3291000   0.74104412   -6.6529281    962.74853  0.024378318  0.023604016            9 
 3292000   0.72552386   -6.6688515    965.70451   0.02444574  0.023597135           11 
 3293000   0.72392824   -6.6671833     961.2998   0.02432685  0.023590241            8 
 3294000   0.73562382   -6.6624247    962.90141  0.024359983  0.023583357           10 
 3295000   0.72381063    -6.662292    961.97561  0.024329176  0.023576512            5 
 3296000   0.71482907   -6.6593954    963.99845  0.024372938  0.023569651            7 
 3297000   0.72041122    -6.649292    964.93996  0.024389343  0.023562812           11 
 3298000   0.71924957    -6.652117    964.34965  0.024367032  0.023555967           11 
 3299000   0.73485243   -6.6459821     964.0874  0.024353021  0.023549107            7 
 3300000   0.71054571   -6.6590842    962.94943  0.024316905  0.023542256            8 
 3301000   0.72042615   -6.6741931    961.85491  0.024281907  0.023535348           13 
 3302000    0.7276837   -6.6424674    962.84481  0.024299536  0.023528454           25 
 3303000   0.72294255    -6.684384    961.08644  0.024247816  0.023521545           35 
 3304000   0.73555943   -6.6549208     965.2683  0.024345952  0.023514648           22 
 3305000   0.71449583   -6.6897771    962.08082  0.024258215  0.023507757           21 
 3306000    0.7035567   -6.6780536     960.5193  0.024211517   0.02350086           27 
 3307000   0.73145083   -6.6885568    962.35342  0.024250414   0.02349394            6 
 3308000    0.7375596   -6.6993519    960.86752  0.024205651  0.023487056            8 
 3309000   0.72139083    -6.684256    963.79396  0.024272035  0.023480152           27 
 3310000    0.7176277   -6.6882854    959.55988  0.024158104  0.023473216           16 
 3311000   0.72313263   -6.6632092    964.18377  0.024267184  0.023466297           10 
 3312000   0.71929255   -6.6592695    962.62944  0.024220749  0.023459438           18 
 3313000   0.71493025   -6.6520253    963.45262  0.024234144   0.02345255           17 
 3314000   0.70808677   -6.6669221    963.48419  0.024227625  0.023445702           15 
 3315000   0.72418116   -6.6905133     961.9785  0.024182466  0.023438867            9 
 3316000   0.72749271   -6.6931972    959.08106  0.024102359  0.023431956           14 
 3317000   0.71904629   -6.6550458    964.21399  0.024224047  0.023425083           12 
 3318000   0.71072555   -6.6664711    965.79814  0.024256534  0.023418203            6 
 3319000   0.71078921   -6.6652855    964.69325  0.024221484  0.023411358           10 
 3320000   0.71838961   -6.6444252    965.87601  0.024243876  0.023404526           10 
 3321000   0.72270744   -6.6701968    961.89558  0.024136695  0.023397648           13 
 3322000   0.71635473   -6.6717199    966.32045  0.024240429  0.023390741            7 
 3323000   0.73268331   -6.6584132    963.15429  0.024153734  0.023383859           30 
 3324000   0.72094986   -6.6806996    959.28428  0.024049445  0.023376957            7 
 3325000   0.71347691   -6.6725533    962.09338  0.024112616   0.02337006           11 
 3326000   0.71471541   -6.7165324    963.16004  0.024132092  0.023363166            9 
 3327000   0.71752214   -6.6967777    961.59701  0.024085688  0.023356242            8 
 3328000   0.73286751    -6.673677    962.25741  0.024094987   0.02334934            6 
 3329000   0.71634988   -6.6378899    964.00885  0.024131592  0.023342469           11 
 3330000   0.73146746   -6.6643813    963.62619   0.02411477  0.023335614           12 
 3331000   0.71013425   -6.6592516    962.94844  0.024090574  0.023328757           12 
 3332000   0.71257524   -6.6770026    961.79184  0.024054418  0.023321883           10 
 3333000   0.72195039    -6.643905    963.50955  0.024090148  0.023314981            9 
 3334000   0.71531525   -6.6662023    966.39926  0.024155151  0.023308134           23 
 3335000   0.71463594   -6.6527248    966.24547  0.024144065  0.023301277           10 
 3336000    0.7134843   -6.6741642    963.37657  0.024065162   0.02329441           15 
 3337000   0.70637668   -6.6568942    964.83946  0.024094482  0.023287529           20 
 3338000   0.70805707   -6.6705029    962.86444  0.024037958  0.023280663           31 
 3339000   0.71139831    -6.706862    962.82735  0.024029833  0.023273795           10 
 3340000   0.72413396   -6.7090052    963.48708  0.024039099  0.023266912           25 
 3341000   0.72073453    -6.690054    959.20679  0.023925142  0.023260051           14 
 3342000    0.7165099   -6.6829755    962.76012  0.024006586  0.023253172           16 
 3343000   0.70821804   -6.6663809    964.99996  0.024055239  0.023246285           17 
 3344000    0.7258112   -6.6877295    964.19609  0.024028013  0.023239387           17 
 3345000   0.70891331   -6.6954019    963.20536  0.023996147  0.023232489           26 
 3346000   0.71629322     -6.67913     961.2903  0.023941281  0.023225589           37 
 3347000    0.7116824   -6.6922327    961.06374  0.023928487   0.02321872           12 
 3348000   0.71566708   -6.6986786    962.08981  0.023946879  0.023211817           19 
 3349000   0.72254902   -6.6923567    962.25462  0.023943829  0.023204934           17 
 3350000   0.72209378   -6.6646809    962.99448  0.023955086  0.023198075           21 
 3351000     0.722234   -6.6962932     962.8457  0.023944238  0.023191175           17 
 3352000   0.71558289   -6.6753875    961.57729  0.023905561   0.02318425           16 
 3353000   0.71958587   -6.6838087    964.37426  0.023967946   0.02317735            9 
 3354000   0.72411396     -6.67916    961.88956  0.023899065  0.023170493           17 
 3355000   0.71769089   -6.6819354    962.00566  0.023894825  0.023163607            6 
 3356000   0.71641101   -6.6799342    964.29968  0.023944668  0.023156707           18 
 3357000   0.71902921   -6.6858115     964.0072  0.023930275  0.023149839           25 
 3358000   0.72113234   -6.6743931    965.95957  0.023971599  0.023143013           12 
 3359000   0.71110917   -6.6741208    964.90043  0.023938187  0.023136199            8 
 3360000   0.71006462   -6.6867191    961.64803  0.023850398  0.023129343           16 
 3361000   0.71727653   -6.6879252    962.47154   0.02386372  0.023122475           13 
 3362000   0.70769853   -6.6858605    963.00596  0.023869868  0.023115584           17 
 3363000   0.72350898   -6.6770242    963.48065  0.023874533  0.023108728           10 
 3364000    0.7168963   -6.6675815    963.59033  0.023870153  0.023101869            8 
 3365000   0.72046613   -6.6626994    964.95708  0.023896906  0.023095019           10 
 3366000   0.71631246   -6.7023773     962.9137  0.023839218  0.023088115            6 
 3367000   0.70492351   -6.6931244     961.2592  0.023791189  0.023081209           22 
 3368000   0.71212122   -6.7337431    959.59277  0.023742893   0.02307428           15 
 3369000   0.71328634    -6.662318    962.09353  0.023797703   0.02306735            7 
 3370000   0.71582938   -6.7116272    963.69172  0.023830161  0.023060448           17 
 3371000   0.72421556   -6.7287076    962.21365  0.023786553  0.023053517           21 
 3372000   0.69878875   -6.6983536    963.83989  0.023819689  0.023046627           12 
 3373000   0.71416314   -6.7070269    961.43997  0.023753334   0.02303973           16 
 3374000   0.70811694   -6.6847679    964.25554  0.023815835  0.023032857            8 
 3375000   0.69995605   -6.7317019    962.76846  0.023772061  0.023025963           14 
 3376000   0.70985003   -6.7155577    962.98561  0.023770379  0.023019062           21 
 3377000   0.70137194   -6.7225723    963.00394  0.023763793  0.023012166           10 
 3378000   0.71796652   -6.7155592    962.65052  0.023748039  0.023005255           22 
 3379000   0.69950233   -6.6789442     964.5623   0.02378816   0.02299838           16 
 3380000   0.69818884   -6.7123427    960.39882  0.023678472  0.022991472            7 
 3381000   0.70630166   -6.7126474    960.76216  0.023680424  0.022984571           22 
 3382000   0.71356834    -6.704649    963.82518  0.023748896  0.022977672           12 
 3383000   0.71808176   -6.7133041    963.65726  0.023737739  0.022970817           15 
 3384000   0.70744359   -6.6942272    964.32154  0.023747083   0.02296396           39 
 3385000   0.71060936   -6.6965144    966.10499  0.023783973  0.022957116           28 
 3386000   0.71067575   -6.6990322    963.44392  0.023711457  0.022950275           21 
 3387000   0.68902416   -6.7007593    964.34947  0.023726736  0.022943423           21 
 3388000   0.70120684   -6.7097494     964.8416  0.023731838  0.022936594           10 
 3389000   0.70932616   -6.6927634    964.56405  0.023718011  0.022929759           11 
 3390000   0.71040135    -6.720094    964.17129  0.023701359  0.022922907           10 
 3391000   0.70590543   -6.7040918    963.95046  0.023688943   0.02291603           32 
 3392000   0.69652088   -6.7382529     961.9297  0.023632314  0.022909113           68 
 3393000   0.71829811   -6.7121808    963.92647   0.02367439  0.022902264           46 
 3394000   0.72423867   -6.7119671     965.3103  0.023701392  0.022895411           28 
 3395000   0.70024214   -6.6768421    964.28753  0.023669306  0.022888569           20 
 3396000   0.71440439   -6.6957559    962.75703   0.02362478  0.022881737           32 
 3397000   0.71337644   -6.7121573    962.96608  0.023622954  0.022874881           14 
 3398000    0.7122761   -6.6673303    964.95316  0.023664733  0.022868009           29 
 3399000   0.70160643   -6.7163404     963.1898  0.023614538  0.022861161           25 
 3400000   0.70898732   -6.7013169    962.25372   0.02358465   0.02285429           31 
 3401000    0.7016283   -6.6993062    963.03746  0.023596919  0.022847417           14 
 3402000   0.70926522   -6.7158036    964.52891  0.023626516   0.02284056           12 
 3403000      0.71345   -6.7265933     963.8185  0.023602177  0.022833673           21 
 3404000   0.72135502   -6.7245315    963.79931  0.023594774  0.022826764           16 
 3405000   0.69625213   -6.7111824    962.24485  0.023549801  0.022819886           21 
 3406000   0.71379978    -6.704284    964.01473  0.023586189  0.022813024            7 
 3407000   0.69933223   -6.7083426    961.47394   0.02351712  0.022806163           12 
 3408000    0.7018333   -6.7253226    962.07107  0.023524821  0.022799276           15 
 3409000   0.71566905   -6.7543611     962.5439  0.023529478  0.022792382           30 
 3410000   0.69332007   -6.7086162    962.51305  0.023521824  0.022785499           18 
 3411000   0.69568042   -6.7443882    963.43209  0.023537381   0.02277859           15 
 3412000   0.70035483   -6.7505147    962.93713  0.023518394  0.022771688           24 
 3413000   0.70376711   -6.7432412    963.23648  0.023518812  0.022764803           17 
 3414000    0.7033635   -6.7412124    960.67217   0.02344933  0.022757919           63 
 3415000   0.70125167   -6.7429153    964.28067  0.023530519  0.022751038           14 
 3416000   0.71390981   -6.7141899    962.87587  0.023489361  0.022744181           12 
 3417000   0.72240788   -6.7464607    963.35406  0.023494148  0.022737316           13 
 3418000   0.71082707   -6.7365595    962.97607  0.023478059  0.022730441           18 
 3419000   0.69340984   -6.7316943    963.14115  0.023475216  0.022723537            9 
 3420000    0.7176648   -6.7188961    963.13507  0.023468203  0.022716682           24 
 3421000   0.70023573    -6.718732    962.97653  0.023457481   0.02270982           16 
 3422000   0.70485483   -6.7255338    964.25384  0.023481732  0.022702935           16 
 3423000   0.70169279   -6.7316474    960.18636  0.023375849   0.02269605           15 
 3424000   0.70463459   -6.7117163    963.63646   0.02345299  0.022689161           15 
 3425000   0.72205795   -6.7317662    962.10841  0.023408964  0.022682292           13 
 3426000    0.7047515   -6.7232618    963.47697   0.02343542  0.022675422           23 
 3427000   0.70285786   -6.7299991    962.04664    0.0233938  0.022668548            9 
 3428000   0.71299319   -6.7283884    964.52401    0.0234472  0.022661697           22 
 3429000   0.69222446   -6.7247442    961.46408  0.023365998  0.022654836           20 
 3430000    0.7073745   -6.7330367    962.37754  0.023381378   0.02264796           14 
 3431000   0.71015996   -6.7325237    962.96644  0.023388867  0.022641107           10 
 3432000   0.71738298   -6.7481285    962.35167  0.023367125  0.022634236           17 
 3433000   0.69903571   -6.7250062    962.42125  0.023362007  0.022627355           11 
 3434000   0.70430078   -6.7338058    964.40778  0.023403412  0.022620474           13 
 3435000   0.69202286   -6.7601182    962.73588  0.023356038  0.022613602           13 
 3436000    0.6971937   -6.7487367    964.02522  0.023380511  0.022606749           18 
 3437000   0.68983789   -6.7438988     961.8063  0.023319908  0.022599885           16 
 3438000   0.69681297   -6.7264511    963.58511  0.023356242  0.022593011           17 
 3439000   0.69656154    -6.748828    964.45131   0.02337044  0.022586117           16 
 3440000   0.69859255   -6.7484082    964.00197  0.023352761  0.022579241           29 
 3441000   0.71754871   -6.7354981    960.98431  0.023272893  0.022572399           10 
 3442000   0.69063589   -6.7334294    964.54208  0.023352268  0.022565609           34 
 3443000   0.70481595    -6.721362    963.29781   0.02331537  0.022558798           10 
 3444000   0.71213614     -6.72711    963.42207  0.023311606  0.022551982           16 
 3445000   0.70120161    -6.700823     965.3945  0.023352552  0.022545159           29 
 3446000   0.69509433    -6.731403    964.82658  0.023332041  0.022538356           43 
 3447000   0.68678587   -6.7335131    962.68695  0.023273546  0.022531548           28 
 3448000   0.70404349   -6.7427309    967.24461  0.023376948  0.022524778           34 
 3449000   0.70498063   -6.7144894    963.23051  0.023273183  0.022518047           11 
 3450000   0.69926875   -6.7249553    966.36972  0.023342264  0.022511281           20 
 3451000   0.69806568     -6.73491    963.55866   0.02326762   0.02250449           26 
 3452000   0.68986516   -6.7395663    963.72331  0.023264854   0.02249772           20 
 3453000   0.68976429   -6.7236948    965.53008   0.02330172  0.022490967           17 
 3454000     0.701989   -6.7243018    966.65653  0.023322151   0.02248419           25 
 3455000   0.70103757   -6.7541978    965.07178  0.023277177  0.022477408           20 
 3456000   0.69492515   -6.7436618    964.58669  0.023258745  0.022470627           21 
 3457000   0.68637343   -6.7245712     966.6264  0.023301186  0.022463869           40 
 3458000   0.70053399   -6.7057325    966.81255  0.023298934  0.022457148           30 
 3459000   0.69929594   -6.7417186    964.25683  0.023230626   0.02245041           14 
 3460000   0.70527563   -6.7342964    966.98463  0.023289611  0.022443649           20 
 3461000   0.69809983   -6.7319879    966.09479  0.023261456    0.0224369           15 
 3462000   0.70559118   -6.7479808    965.05099  0.023229612  0.022430109           19 
 3463000   0.69051259   -6.7468313    964.72566  0.023215075  0.022423336           11 
 3464000   0.68997487    -6.733631    967.58415   0.02327714  0.022416584           32 
 3465000   0.68362196    -6.737258    967.45533  0.023267324  0.022409832           20 
 3466000   0.69140206   -6.7255109    965.49872  0.023213568  0.022403088           11 
 3467000   0.69403938   -6.7409357    964.94683  0.023193607   0.02239633           19 
 3468000   0.68523456   -6.7496223    965.35487  0.023196724  0.022389553           25 
 3469000   0.70831753   -6.7653846    966.03063  0.023206271  0.022382761           17 
 3470000   0.69217984   -6.7903543     964.3602  0.023159467  0.022375954           12 
 3471000   0.70295042   -6.7609694    966.67048  0.023208261  0.022369171           33 
 3472000   0.67613493   -6.7454182    965.71061  0.023178538  0.022362402           25 
 3473000   0.68709027   -6.7820222    965.42317  0.023164967  0.022355623           42 
 3474000   0.69418468   -6.7610293    966.65203  0.023187777  0.022348836           51 
 3475000   0.69977502    -6.746291    967.51449  0.023201786  0.022342061           24 
 3476000   0.70963219   -6.7409829    964.17126  0.023114961   0.02233529           26 
 3477000    0.6870738   -6.7752293    964.93864  0.023126705  0.022328527           45 
 3478000   0.70737007   -6.7309853    967.27824  0.023176113  0.022321785           28 
 3479000   0.71183968   -6.7526338    966.92305  0.023160943  0.022315041           20 
 3480000   0.70649857   -6.7202586     965.7962  0.023127304  0.022308301           19 
 3481000   0.70487966   -6.7581899    963.41551  0.023063667  0.022301549           21 
 3482000   0.69525843   -6.7575047     965.0519  0.023096207   0.02229477           19 
 3483000   0.69628951   -6.7379886    966.13625  0.023115519  0.022288033           22 
 3484000   0.69528523   -6.7507507    966.04803  0.023106774  0.022281303           56 
 3485000   0.70028727   -6.7442149    965.77303  0.023093568  0.022274565           31 
 3486000   0.68422916   -6.7501082    964.77864  0.023063173  0.022267822           36 
 3487000   0.69580443   -6.7396907    966.95995  0.023108688  0.022261111           39 
 3488000   0.68972874   -6.7217261    967.64022  0.023118316  0.022254412           43 
 3489000   0.68999263   -6.7361619    967.12489  0.023099381  0.022247726           20 
 3490000   0.70258812   -6.7483775    966.73227  0.023083387  0.022241024           15 
 3491000   0.68707436   -6.7346784    966.25002  0.023065264    0.0222343           37 
 3492000   0.69917006     -6.72889    964.83059  0.023024785  0.022227594           20 
 3493000   0.68562377   -6.7707676    965.28269  0.023028979  0.022220863           23 
 3494000   0.69137616   -6.7625696    963.29891  0.022975074  0.022214115           43 
 3495000   0.70530223   -6.7162109    967.45357  0.023067562  0.022207357           40 
 3496000   0.69339877   -6.7274255    967.59481  0.023064331  0.022200645           43 
 3497000   0.67749752   -6.7557436    964.90852  0.022993721  0.022193917           36 
 3498000   0.70234237   -6.7739939    963.61394  0.022956307  0.022187171           25 
 3499000   0.68672505   -6.7711879    964.27032  0.022965379  0.022180401           27 
 3500000   0.69702206   -6.7601739    965.66448  0.022992011  0.022173601           39 
 3501000   0.70805383   -6.7670009    962.95717  0.022921003  0.022166819           23 
 3502000   0.68068044   -6.7606771    964.92503  0.022961285  0.022160054           33 
 3503000   0.69330188   -6.7682316    967.03354   0.02300489  0.022153277           35 
 3504000   0.70055716    -6.745971    965.95199  0.022972603  0.022146519           16 
 3505000   0.68809846   -6.7766185    964.04171   0.02292063   0.02213975           28 
 3506000   0.67791361   -6.7760281    963.38173  0.022898406  0.022132972           16 
 3507000    0.6857936   -6.7499084    964.46577  0.022917635  0.022126192           16 
 3508000   0.70248989    -6.746346     964.9146  0.022921764  0.022119423           22 
 3509000   0.69648384   -6.7713438      963.968  0.022892752  0.022112652           17 
 3510000   0.70253972   -6.7863657    964.21157  0.022892013  0.022105886           29 
 3511000   0.67941463   -6.7756684    963.71987  0.022873822  0.022099141           27 
 3512000   0.69792689   -6.7576815    965.26058  0.022903867  0.022092369           44 
 3513000   0.69339364   -6.7691123    966.52331  0.022927301  0.022085613           17 
 3514000   0.68767797   -6.7626644    965.42908  0.022894827   0.02207888           16 
 3515000   0.70183577   -6.7581111    963.57033  0.022844247  0.022072151           16 
 3516000   0.68428748   -6.7612651    965.19039  0.022876147  0.022065442           15 
 3517000   0.70892112   -6.7756471    966.15399  0.022892474  0.022058715           41 
 3518000   0.69965518   -6.7508899    965.53634  0.022871336  0.022052002           30 
 3519000     0.682145   -6.7634903     962.6561   0.02279663   0.02204528           17 
 3520000   0.69084191   -6.7522472    964.93199  0.022844034  0.022038548           22 
 3521000   0.69111678   -6.7651895    965.39656  0.022848541  0.022031815           15 
 3522000   0.69565892   -6.7763463    964.74948  0.022826743  0.022025082           31 
 3523000   0.66738434   -6.7880612     965.6169  0.022840782  0.022018346           16 
 3524000   0.68146254   -6.7692418    967.08099  0.022868922  0.022011599           18 
 3525000   0.68737522   -6.7769251    964.63134  0.022804523  0.022004854           17 
 3526000   0.67386318   -6.7619271    965.98378  0.022830019  0.021998109           15 
 3527000   0.69326946   -6.7786168       965.38  0.022809281  0.021991394           19 
 3528000   0.69350017   -6.7509028    966.43465  0.022827727  0.021984658           14 
 3529000   0.67677821   -6.7904886    963.94651  0.022762504  0.021977967           15 
 3530000   0.69126477   -6.7870465    966.13138  0.022807634  0.021971259           13 
 3531000   0.69196851   -6.7419272    965.93078  0.022796441  0.021964571           12 
 3532000   0.70313051   -6.7768325    966.15229  0.022795213  0.021957873           20 
 3533000    0.6874301   -6.7643999    966.36763   0.02279384  0.021951151           14 
 3534000   0.68124285   -6.7952315    964.64309  0.022746725   0.02194442           22 
 3535000   0.69075156   -6.8096237    963.47781   0.02271282  0.021937669           19 
 3536000   0.68887624   -6.7574639    963.41594  0.022704938  0.021930924           13 
 3537000   0.68290169   -6.7980905    965.11439  0.022738535  0.021924186           16 
 3538000     0.690111   -6.7730727    962.42083  0.022668665   0.02191747           10 
 3539000   0.69191287   -6.8022599    965.51975   0.02273523  0.021910743           13 
 3540000   0.68232834   -6.7985163    964.41682  0.022702844  0.021903992           25 
 3541000   0.69146485   -6.7874138    962.20047  0.022644273  0.021897252           11 
 3542000   0.68335779   -6.7969569    965.15541  0.022707402  0.021890501           23 
 3543000   0.68262245   -6.8014956    963.07876  0.022652149  0.021883759           15 
 3544000   0.68931968    -6.777098    966.14464  0.022717848  0.021877036           15 
 3545000    0.6849862   -6.7863705    967.45417  0.022742223  0.021870308           49 
 3546000   0.68660198   -6.7660969    965.94375  0.022700314  0.021863585           20 
 3547000   0.67737309   -6.7478506    964.90166  0.022669431  0.021856861           23 
 3548000    0.6796602   -6.7647793    966.51248  0.022700876  0.021850153           15 
 3549000   0.70012165   -6.7671899    966.41899  0.022692284  0.021843441           22 
 3550000   0.68337519   -6.7845372    962.36403  0.022590705  0.021836734           12 
 3551000   0.70513419   -6.7640219    966.55164  0.022682616  0.021830053           23 
 3552000   0.67714407   -6.7348774    966.85119  0.022683258   0.02182336           27 
 3553000   0.69281427   -6.7989387    967.85734  0.022700472  0.021816694           17 
 3554000   0.68030834   -6.7522542    967.82887  0.022693417  0.021810046           22 
 3555000   0.68492058   -6.7719226    964.82044  0.022616513  0.021803381           14 
 3556000   0.68597188   -6.7565498    966.96394  0.022660385  0.021796678           17 
 3557000   0.67583298   -6.7687755    964.93453  0.022606469   0.02178999           10 
 3558000   0.69651221   -6.8018375    966.02178   0.02262558  0.021783299           32 
 3559000   0.67793769   -6.7834017    964.10788   0.02257441  0.021776593           20 
 3560000   0.67302155   -6.7899747    964.07444  0.022567286  0.021769908           14 
 3561000   0.69150088   -6.7906683     964.2126  0.022564181  0.021763203           26 
 3562000   0.68000627    -6.804373    963.07847  0.022531314  0.021756482           38 
 3563000   0.66788097   -6.8056609    964.63729  0.022561449  0.021749774           36 
 3564000   0.67472503   -6.8023684    963.06989  0.022518469   0.02174306           60 
 3565000    0.6878916   -6.8055632    967.16415  0.022607858   0.02173636           26 
 3566000   0.68172365   -6.8058262    965.77001  0.022568938  0.021729664           14 
 3567000   0.70500914   -6.7990116    964.92055  0.022542766   0.02172296           19 
 3568000   0.66733583   -6.8334374    963.53826  0.022504163   0.02171625           42 
 3569000   0.68918286   -6.8187042    966.22035  0.022560483  0.021709526           69 
 3570000   0.68864607   -6.7906367    964.08306  0.022504273  0.021702793           35 
 3571000   0.67292849   -6.8157157    964.91613  0.022517412  0.021696076           44 
 3572000   0.67720241   -6.8248962    964.88019  0.022510269  0.021689395           19 
 3573000   0.68226315   -6.7928444    964.82003  0.022502566  0.021682719           60 
 3574000   0.68014975   -6.8012285    963.03292  0.022454601   0.02167605           34 
 3575000   0.67418509   -6.7933605    965.07114  0.022495831  0.021669376           60 
 3576000   0.69492581   -6.8085577    965.75187  0.022505403  0.021662697           30 
 3577000   0.68905662   -6.7755571    965.51204  0.022493524  0.021656008           21 
 3578000   0.67775799   -6.7836485    963.70468  0.022445143  0.021649357           23 
 3579000   0.67897963   -6.7797349     967.0414  0.022516564  0.021642699           30 
 3580000   0.66176381   -6.8028095    966.22486  0.022491268  0.021636052           18 
 3581000   0.67462667   -6.7804058    962.98666  0.022409631  0.021629386           21 
 3582000   0.67092754    -6.793149    965.72629  0.022467111  0.021622722           25 
 3583000   0.68599219   -6.8209345    964.16691  0.022424572  0.021616057           34 
 3584000   0.66890844   -6.8056564    964.88323  0.022434971  0.021609393           20 
 3585000   0.68459262   -6.8199866    966.13809  0.022457882  0.021602708           16 
 3586000   0.66786962   -6.7881906    965.87581  0.022445524  0.021596036           14 
 3587000   0.67891285   -6.8021793    963.86782  0.022392617  0.021589368           17 
 3588000   0.68409002   -6.7767676    968.22594  0.022487596  0.021582701           38 
 3589000   0.67948804   -6.7703434    966.67789  0.022445386  0.021576061           26 
 3590000   0.69244914   -6.7686657    967.11434  0.022449265  0.021569465           18 
 3591000   0.66121403   -6.7797664    965.75744  0.022411525   0.02156284           17 
 3592000   0.68257806   -6.7948376    965.23537  0.022393174  0.021556202            8 
 3593000   0.67463473   -6.7667068     967.4057  0.022437279  0.021549567           27 
 3594000   0.67815303   -6.8044534    965.54179  0.022387818  0.021542927           12 
 3595000    0.6673554    -6.775868     968.1084  0.022441085  0.021536295           20 
 3596000   0.68137787      -6.7976    966.23478  0.022391425   0.02152965           48 
 3597000   0.68222294    -6.782081    965.50962    0.0223684  0.021522996           13 
 3598000   0.68503226    -6.825125    964.46056  0.022337886  0.021516343           25 
 3599000   0.67382294   -6.8140904    963.64695   0.02231284  0.021509668           14 
 3600000    0.6898293   -6.8009697    963.62299  0.022306088  0.021503007           18 
 3601000    0.6818692    -6.809484    965.06302  0.022333218  0.021496388           19 
 3602000   0.67990231   -6.7952142    964.06163   0.02230385  0.021489742           20 
 3603000    0.6762451    -6.809217    968.09714  0.022390997  0.021483114           19 
 3604000   0.67503858   -6.8153297     965.8869  0.022333678  0.021476496           13 
 3605000   0.66138265   -6.8051914    966.69802  0.022346233  0.021469895           11 
 3606000   0.69658564   -6.7904067    966.12226   0.02232673  0.021463289           26 
 3607000   0.67398183   -6.8223124    966.61706  0.022331972  0.021456687           16 
 3608000   0.66788486   -6.8241625    964.56057  0.022278284  0.021450065           17 
 3609000   0.67956996   -6.8055786    967.82501  0.022347488  0.021443463           33 
 3610000   0.67096981   -6.8341441    967.32465  0.022329747   0.02143685           16 
 3611000   0.66887018   -6.8112455    967.24769  0.022321787  0.021430262           31 
 3612000   0.66205127   -6.8047019    968.15603  0.022336564  0.021423668           17 
 3613000   0.68370998   -6.7971445    969.04135  0.022350802   0.02141709           38 
 3614000   0.65827649   -6.7955632    966.76855   0.02229221  0.021410487           33 
 3615000   0.67057381   -6.8149243     966.0869   0.02227033  0.021403883           33 
 3616000   0.66808085   -6.8404811     967.0841  0.022287152  0.021397257           19 
 3617000   0.68581663    -6.799235    964.78438  0.022228006  0.021390623           39 
 3618000   0.67014649   -6.8210191    965.21353  0.022231747  0.021383992           15 
 3619000   0.67065451   -6.8131621    965.16643  0.022224519  0.021377368           14 
 3620000    0.6685528   -6.8209141    966.79377  0.022255842  0.021370773           12 
 3621000   0.66539697   -6.8100502    967.53132  0.022266669  0.021364163           36 
 3622000   0.66986132   -6.8322416    965.96075  0.022224387  0.021357572           32 
 3623000   0.67104629   -6.7890767    966.14758   0.02222255  0.021350995           36 
 3624000   0.67232659   -6.7959203    967.06344  0.022237478  0.021344428           36 
 3625000    0.6359103   -6.8095359    964.72367  0.022177556  0.021337832           51 
 3626000   0.67116885   -6.7896911    968.52407  0.022258781  0.021331232           18 
 3627000   0.68018811   -6.8263838    965.94272  0.022193335  0.021324646           24 
 3628000   0.66837659   -6.8177686    966.24036  0.022194055  0.021318059           42 
 3629000   0.66659087   -6.7883636    966.95447  0.022204337  0.021311463           22 
 3630000   0.67955146   -6.8202344    965.89623  0.022173926  0.021304872           24 
 3631000   0.67663482   -6.8333244    966.82922  0.022189232  0.021298264           38 
 3632000   0.68055843   -6.8131721    965.95634  0.022163095  0.021291665           51 
 3633000   0.65679276   -6.8302124    964.05938  0.022113482  0.021285074           42 
 3634000   0.64552353   -6.8381355    966.20343  0.022156564  0.021278449           50 
 3635000   0.67039782   -6.8259188    964.80539  0.022118418  0.021271827           24 
 3636000    0.6634739    -6.826348    967.76719  0.022180216  0.021265216           27 
 3637000    0.6659283   -6.7999133    966.39572  0.022142693  0.021258631           49 
 3638000   0.67224527   -6.7985215    967.46585   0.02216112  0.021252072           23 
 3639000   0.65537373   -6.8376626     965.6025  0.022112359  0.021245512           38 
 3640000   0.66261263   -6.8267686    964.73254  0.022086368  0.021238923           20 
 3641000    0.6708159   -6.8001865    967.03427  0.022132982   0.02123233           28 
 3642000   0.65797142   -6.8082487    966.55879  0.022116026  0.021225772           20 
 3643000   0.66925446   -6.8044663    968.36947  0.022151374    0.0212192           31 
 3644000   0.67296119   -6.8311856    965.87355  0.022088217  0.021212627           15 
 3645000   0.66494985   -6.8316221    965.40729  0.022071497  0.021206043           19 
 3646000   0.66696503   -6.8205369    964.91721  0.022054242  0.021199483           20 
 3647000   0.66785636   -6.8253409    965.58479  0.022063449  0.021192891           21 
 3648000   0.65278574   -6.8271152    964.06581  0.022022702  0.021186315           36 
 3649000   0.66031988   -6.8359406    965.76747  0.022055528  0.021179719           18 
 3650000   0.67793907   -6.8303995    965.33575  0.022039629  0.021173119           17 
 3651000   0.67215539   -6.8070274    965.05768  0.022027246   0.02116652           13 
 3652000   0.67423652    -6.829537    962.93493  0.021972776  0.021159935           20 
 3653000   0.66753488   -6.8200262    966.27742  0.022043011  0.021153346           17 
 3654000   0.65928015   -6.8163575    964.74685  0.022002072  0.021146782           16 
 3655000   0.65797845   -6.8149857    966.27046   0.02203079  0.021140197           38 
 3656000   0.65545087   -6.8193794    963.59583    0.0219638  0.021133619           18 
 3657000   0.68046076   -6.8096561    965.40784  0.021999085  0.021127027           23 
 3658000   0.67037604   -6.8214478     964.0801  0.021962824  0.021120472           16 
 3659000   0.65824164   -6.8261105    963.62962  0.021946561    0.0211139           28 
 3660000    0.6745327   -6.8254441    965.34049  0.021979519  0.021107319           24 
 3661000   0.66326419   -6.8430127    966.74624  0.022005514  0.021100763           51 
 3662000   0.66398011   -6.8243085    966.54418  0.021994907  0.021094171           29 
 3663000   0.67366905    -6.848951    962.83157   0.02190444  0.021087594           23 
 3664000   0.66676132   -6.8307326    967.50961  0.022004858  0.021081019           13 
 3665000   0.66264931   -6.8291259    964.87944  0.021939051  0.021074448           17 
 3666000   0.65881154   -6.8142637    965.85402   0.02195522  0.021067879           12 
 3667000   0.67586071   -6.8159033    965.19956  0.021934359  0.021061338           20 
 3668000   0.66827393   -6.8104126    964.37197  0.021909578  0.021054744           12 
 3669000   0.66901664    -6.824719    965.27921  0.021924212  0.021048176           20 
 3670000   0.65911997   -6.8427961    963.46814  0.021877115  0.021041603           16 
 3671000   0.66037947   -6.8273957    965.59466  0.021919428  0.021035029           23 
 3672000   0.66151438    -6.860064    965.18714  0.021904211  0.021028446           71 
 3673000   0.66919299   -6.8650355    965.79624  0.021912067   0.02102186           36 
 3674000    0.6741286   -6.8419859    965.34972  0.021895974   0.02101527           39 
 3675000   0.65950038   -6.8245057    965.14389  0.021885349  0.021008698           40 
 3676000   0.65415839   -6.8294883    964.53937  0.021865691  0.021002113           25 
 3677000   0.65974035   -6.8292398    967.08902  0.021917528  0.020995545           10 
 3678000   0.66864143   -6.8355546    965.34998  0.021872167  0.020989002           17 
 3679000    0.6657652   -6.8255153    966.18239  0.021885077   0.02098249           22 
 3680000   0.67745492   -6.8358444     965.0939  0.021854481  0.020975963           29 
 3681000   0.66906062   -6.8415766    964.60132  0.021837393  0.020969442           17 
 3682000   0.65703652    -6.811937    964.86216  0.021837366  0.020962943           16 
 3683000   0.64891176   -6.8553032    966.27981  0.021863513  0.020956412           11 
 3684000   0.65730142    -6.830773    966.69906  0.021867062  0.020949881           17 
 3685000   0.66766104   -6.8194533     965.3432  0.021830466  0.020943369           27 
 3686000   0.66509618   -6.8342116    967.27392  0.021868193  0.020936848           49 
 3687000   0.65177822   -6.8293532    966.45299  0.021843708  0.020930333           34 
 3688000   0.66647408   -6.8393585    965.31897   0.02181216  0.020923825           39 
 3689000   0.66308394   -6.8461585    966.44839  0.021831761  0.020917328           37 
 3690000   0.64998616   -6.8512109    965.64462  0.021807692  0.020910825           15 
 3691000   0.66377267   -6.8363434    965.00415  0.021787324   0.02090431           19 
 3692000   0.65861361   -6.8461744    966.36992   0.02181225  0.020897791           24 
 3693000   0.65750514   -6.8379736    967.39901  0.021829565  0.020891276           17 
 3694000    0.6536795   -6.8322588    964.64539  0.021761537  0.020884753           26 
 3695000   0.66419123   -6.8268547    967.34767  0.021816592  0.020878237           31 
 3696000   0.66115344    -6.828087    967.21696  0.021807742  0.020871764           47 
 3697000    0.6541667   -6.8064925    968.20899  0.021824204   0.02086529           28 
 3698000   0.66626084   -6.8568242    965.39356  0.021754858  0.020858775           51 
 3699000   0.66984617   -6.8294858    963.70025  0.021710828  0.020852263           27 
 3700000   0.66896919   -6.8650418    966.55474  0.021769251  0.020845778           32 
 3701000   0.66092726   -6.8091132     967.6383  0.021787767  0.020839296           33 
 3702000   0.66563484    -6.852557    968.82616  0.021808621  0.020832821           45 
 3703000   0.64843743    -6.860194    966.80781   0.02175731   0.02082632           18 
 3704000   0.66006242   -6.8534962    965.82785  0.021729388  0.020819813           15 
 3705000   0.63835644    -6.849357    963.97277  0.021681799  0.020813299           76 
 3706000   0.66577552   -6.8533627     965.3045  0.021705894  0.020806797           34 
 3707000   0.67523471   -6.8631122    965.76823  0.021710463  0.020800309           25 
 3708000   0.68551422   -6.8493446    965.92636  0.021708162  0.020793833           14 
 3709000    0.6492562   -6.8850828     965.8555  0.021700717  0.020787351           32 
 3710000   0.66906168    -6.840206    963.92719  0.021651554  0.020780858           19 
 3711000   0.64911186   -6.8488122    967.12012  0.021717419  0.020774362           15 
 3712000   0.66554712   -6.8301365    966.66224  0.021701289   0.02076788           15 
 3713000   0.67204418   -6.8477279    963.24379  0.021618722  0.020761419           27 
 3714000   0.64392922     -6.87684    966.03705  0.021675576  0.020754941           15 
 3715000   0.65888999   -6.8569554    965.63358   0.02166069  0.020748476           15 
 3716000   0.66219077    -6.843117    966.07703  0.021664806  0.020742019           22 
 3717000   0.66266644   -6.8625596    966.30921  0.021664183  0.020735529           17 
 3718000   0.66718536   -6.8588025    965.22849  0.021634133  0.020729041           15 
 3719000   0.66580566   -6.8436312     965.6496  0.021637752   0.02072256           30 
 3720000   0.64744321   -6.8608371    965.18965  0.021621632  0.020716081           27 
 3721000   0.64452948    -6.863224    965.72789  0.021627875  0.020709604           53 
 3722000   0.65949363   -6.8599061    966.12608   0.02163098  0.020703129           44 
 3723000   0.67674737   -6.8558451    965.97964  0.021621892  0.020696651           42 
 3724000   0.66171969    -6.854948    965.28454  0.021600531  0.020690178           16 
 3725000   0.65384471   -6.8913803    965.72259  0.021604532    0.0206837           24 
 3726000   0.65102166   -6.8425436       965.19  0.021586822  0.020677219           32 
 3727000   0.64285607   -6.8735198    962.15015  0.021513061  0.020670745           14 
 3728000   0.65931566   -6.8802549    965.71975  0.021587083  0.020664257           30 
 3729000   0.64896051   -6.8584951    964.45029  0.021552925  0.020657773           44 
 3730000   0.66849781   -6.8618107    965.58787  0.021572562  0.020651313           95 
 3731000   0.64989951    -6.855085    966.20261   0.02158051  0.020644844           30 
 3732000   0.63795701   -6.8549495    966.84059  0.021588974  0.020638384           36 
 3733000   0.65562489   -6.8461924     966.4179  0.021573754  0.020631947           28 
 3734000   0.65154564   -6.8678295    964.73756  0.021530476  0.020625506           45 
 3735000    0.6662874   -6.8566988    967.69688  0.021590738  0.020619044           43 
 3736000   0.66271377   -6.8601122     965.4163  0.021534089  0.020612595           68 
 3737000   0.66777082   -6.8577039    965.34889  0.021526824  0.020606143           42 
 3738000   0.65471842   -6.8708376    965.37449  0.021521636  0.020599683           29 
 3739000   0.65927857    -6.858099    966.57957  0.021542738  0.020593234           45 
 3740000   0.64389401   -6.8655392    967.61624  0.021560077  0.020586807           62 
 3741000   0.65457662   -6.8765476    966.13277  0.021521268  0.020580372           60 
 3742000   0.66048894   -6.8576699    965.88226  0.021509938  0.020573936           57 
 3743000    0.6684755   -6.8714601    964.47901   0.02147295  0.020567489           49 
 3744000   0.64205314   -6.8815538    966.23004  0.021506189  0.020561037           33 
 3745000   0.64894188   -6.8882415    965.16309  0.021476704  0.020554551           59 
 3746000   0.65436027   -6.8766749    966.24776  0.021495101  0.020548108          173 
 3747000   0.65823884   -6.8740424    965.43303  0.021471244  0.020541667          127 
 3748000   0.66022983   -6.8666947     967.1462  0.021503606  0.020535221           73 
 3749000   0.66351002   -6.8738108    966.70677  0.021488103  0.020528804           50 
 3750000   0.66007205   -6.8739758    966.13842  0.021469743   0.02052238           69 
 3751000   0.64922129   -6.9004136    965.24855  0.021444249  0.020515939           84 
 3752000   0.65377953   -6.8725025    963.57679  0.021401404  0.020509487           92 
 3753000   0.65065126    -6.856485     965.8363  0.021445872  0.020503033          109 
 3754000   0.66386204   -6.8649358    965.97133  0.021443157  0.020496584           68 
 3755000   0.64342319   -6.8713055    966.43952  0.021447837  0.020490136           21 
 3756000   0.64110662    -6.924509    965.75571  0.021426955  0.020483683           60 
 3757000   0.64496591   -6.8877193    965.36516  0.021412589  0.020477223           68 
 3758000   0.63622082   -6.8760241    965.23786  0.021404068  0.020470778           42 
 3759000   0.66846525   -6.8604501    965.13432  0.021396079  0.020464352           84 
 3760000   0.65078403   -6.9044384    962.35915  0.021328882  0.020457916           53 
 3761000   0.63141267   -6.8920355    966.40469  0.021412849  0.020451483          167 
 3762000   0.66092771    -6.901707    965.37999  0.021384458   0.02044503          171 
 3763000   0.65618306   -6.9130522    963.07543   0.02132774  0.020438572           46 
 3764000   0.64954939   -6.8682851    964.60166  0.021355864  0.020432129          104 
 3765000   0.64847418   -6.8751127    965.22048  0.021363889  0.020425687           91 
 3766000   0.65644947   -6.8584553    963.25949  0.021314823  0.020419266           75 
 3767000   0.65696809   -6.8787597    965.31741   0.02135469  0.020412853           27 
 3768000   0.64466131   -6.8869058    964.31861  0.021326933  0.020406417           35 
 3769000   0.65374709   -6.8933339    965.92157  0.021356716  0.020399974           44 
 3770000   0.66402735   -6.8872713    967.04477  0.021375879   0.02039355           33 
 3771000    0.6453221   -6.9082034    965.23891  0.021330304  0.020387116           81 
 3772000    0.6415441   -6.8798918    967.89862  0.021383409  0.020380675           34 
 3773000   0.65198969   -6.8768916    967.57769  0.021370653  0.020374244           19 
 3774000   0.64071599   -6.8834354    966.23979  0.021335448  0.020367813           42 
 3775000   0.64103004   -6.8919603    963.57742  0.021271025  0.020361415           21 
 3776000   0.65254692   -6.8635751    965.23535  0.021301981  0.020355027           16 
 3777000   0.65692919   -6.8899033     964.9856  0.021290831  0.020348639           35 
 3778000   0.64914707   -6.8726698    965.70114  0.021300978  0.020342251           27 
 3779000   0.65748872   -6.8710604    968.21942  0.021350874  0.020335869           23 
 3780000   0.65474646   -6.8593118    966.01667  0.021296664  0.020329513           35 
 3781000   0.64246989   -6.8730541    964.72227  0.021262503  0.020323119           45 
 3782000   0.65209195    -6.910058     966.5051  0.021296164  0.020316739           35 
 3783000   0.64430717   -6.8868191    964.31352  0.021242257   0.02031032           18 
 3784000   0.64356572   -6.8887932    964.15252  0.021233098  0.020303915           49 
 3785000   0.63995491   -6.8805468    964.76052  0.021240875  0.020297503           29 
 3786000   0.65573745   -6.8711311    967.26043  0.021290289  0.020291108           28 
 3787000   0.64784766   -6.8992226    964.57016  0.021225468  0.020284692           28 
 3788000   0.65383764   -6.8917131    963.15923  0.021188825  0.020278291           59 
 3789000   0.64970274   -6.9052916      965.429  0.021233153  0.020271906           82 
 3790000   0.64141441   -6.8920374    963.69262  0.021189372   0.02026549           70 
 3791000   0.64247654   -6.8984318     961.6958  0.021139888  0.020259077           50 
 3792000   0.65206422   -6.9069486     965.0694  0.021208452  0.020252669           45 
 3793000    0.6395069   -6.8791378    964.13888  0.021182417  0.020246276           54 
 3794000   0.64930618   -6.9144896    962.85901  0.021148722   0.02023988           36 
 3795000   0.64586442   -6.9157053    964.18438  0.021172252  0.020233472           68 
 3796000   0.65349335   -6.8975305    964.14727   0.02116586  0.020227064           68 
 3797000   0.65241424   -6.8918789    964.62945  0.021170868  0.020220665           60 
 3798000    0.6435473   -6.9014919    964.77846  0.021168564  0.020214269           95 
 3799000   0.63323961   -6.8971307    962.92278  0.021122286  0.020207855           86 
 3800000   0.65322523   -6.8949653    965.87822   0.02118154  0.020201474           55 
 3801000   0.64147167   -6.8943108    964.48012  0.021145315  0.020195073           80 
 3802000   0.63973929   -6.8957561    966.72053   0.02118886  0.020188683           26 
 3803000   0.63864144   -6.9100866    965.24583  0.021150974  0.020182284           76 
 3804000   0.64890299    -6.896024    963.27902  0.021102327  0.020175896           47 
 3805000   0.63734619   -6.9051041    965.44433  0.021144203  0.020169515           63 
 3806000   0.63508187   -6.9198456    964.13549  0.021109991   0.02016314           34 
 3807000   0.61952126   -6.9019177    964.96822  0.021122674  0.020156752           33 
 3808000   0.62689973   -6.9014733    964.00568  0.021096063  0.020150363           49 
 3809000   0.65084071   -6.8887097    963.91246  0.021088485   0.02014397           31 
 3810000    0.6467721    -6.901119    965.82049  0.021124683  0.020137573           62 
 3811000   0.64296052   -6.9170196    964.20528  0.021083821  0.020131174           32 
 3812000   0.63947986   -6.9243726    963.25757  0.021057572  0.020124778           67 
 3813000   0.64842761   -6.9444425    960.45835  0.020990872  0.020118371           49 
 3814000   0.62415556   -6.9084778    962.43953  0.021028656  0.020111976           33 
 3815000   0.63862368   -6.9282768    964.25244  0.021062744  0.020105588           40 
 3816000   0.64353889   -6.8812839    965.28005  0.021079666  0.020099208           70 
 3817000   0.63795197   -6.8978131     965.4785  0.021078476  0.020092845           84 
 3818000   0.64079228   -6.9054496    966.06026  0.021085653  0.020086487           54 
 3819000   0.64428723   -6.9075653    966.08821  0.021080741  0.020080134           83 
 3820000    0.6451673   -6.8932049    964.64221  0.021043678  0.020073797           45 
 3821000   0.64827406   -6.9163543     965.5555  0.021058089   0.02006746           56 
 3822000   0.64991574   -6.8854405    964.81642  0.021036465  0.020061131           48 
 3823000   0.63311452   -6.9030156    965.06766  0.021036439  0.020054783           57 
 3824000   0.63535748    -6.912975    964.52723   0.02101916   0.02004843           46 
 3825000   0.63289361   -6.9004073    962.78751  0.020975763  0.020042076           84 
 3826000   0.63449913     -6.87264    965.22272  0.021023321  0.020035726           50 
 3827000   0.65054293   -6.8916957    964.39005  0.020999696  0.020029373           47 
 3828000   0.62882526   -6.8859918    963.61794  0.020977402  0.020023022           62 
 3829000   0.62461527   -6.8968371    964.09623  0.020982333  0.020016668           66 
 3830000   0.64124232   -6.9276447    964.44502  0.020984443  0.020010301           84 
 3831000   0.63200774   -6.9088312    964.60231  0.020982387  0.020003933           74 
 3832000   0.64070066   -6.9297964    963.33957  0.020949451  0.019997569           56 
 3833000   0.64764219    -6.909771    965.23579  0.020985211  0.019991213           66 
 3834000   0.64556485   -6.9419218     964.8955  0.020972342  0.019984851          102 
 3835000   0.63470359   -6.8999968    967.11095  0.021015014  0.019978495           98 
 3836000   0.64009404   -6.8940092    966.13247  0.020988279  0.019972137           50 
 3837000   0.64347881   -6.9065106    964.33481  0.020943767  0.019965794           64 
 3838000   0.63646527   -6.9151633    964.07618  0.020932695  0.019959404           40 
 3839000   0.63671069   -6.9283033    965.15687  0.020950701  0.019953035           53 
 3840000   0.64159262   -6.8981391    963.95228  0.020919103  0.019946687           55 
 3841000   0.62465442   -6.9109812    965.82359  0.020954256  0.019940338           63 
 3842000   0.63242063   -6.9090149    965.34229  0.020938363  0.019933998           77 
 3843000   0.65845347    -6.908668     963.7548  0.020898491  0.019927652           70 
 3844000   0.64254935   -6.9290633    963.78406  0.020893688  0.019921311           48 
 3845000   0.65061432   -6.9074624    966.40966   0.02094516  0.019914971           74 
 3846000   0.63773799   -6.9072962    965.49012  0.020919789  0.019908664           55 
 3847000   0.62512663    -6.907635    963.19081  0.020864544  0.019902345           50 
 3848000   0.64020009   -6.9257921    964.18853  0.020880729  0.019896023          100 
 3849000   0.62660562   -6.9181386    963.51559  0.020860734  0.019889707           76 
 3850000   0.63463901     -6.91782    963.56522   0.02085639  0.019883395           89 
 3851000   0.63636639   -6.9140773    965.00701  0.020882174  0.019877097           94 
 3852000   0.63323227   -6.9248522    962.25423    0.0208172  0.019870781           93 
 3853000   0.64837946   -6.9162443    963.17546  0.020831721  0.019864487          110 
 3854000   0.62842819   -6.9387733    964.22796  0.020849074  0.019858155           98 
 3855000   0.63312764   -6.9371688     967.1879   0.02090765   0.01985182          148 
 3856000   0.64410714   -6.9304603    964.92738  0.020853375  0.019845493          104 
 3857000   0.62121272    -6.908993    965.04955  0.020850608  0.019839163          112 
 3858000    0.6433443   -6.9219454    962.67435  0.020793899  0.019832836           86 
 3859000   0.64425284   -6.9582766    963.53364  0.020807067  0.019826522          110 
 3860000   0.64002485   -6.9295765    964.42317   0.02082088  0.019820199          148 
 3861000   0.63713397   -6.9393006    962.00315  0.020763255  0.019813891          130 
 3862000   0.63823942    -6.936849    965.16902  0.020826192  0.019807597           96 
 3863000   0.62891364    -6.932885     962.7195  0.020767959    0.0198013          117 
 3864000   0.64165934   -6.9405315    963.52027  0.020779854  0.019795003           96 
 3865000   0.64173144   -6.9280434    964.14822  0.020788017  0.019788701          163 
 3866000     0.633424    -6.928903    963.50022  0.020768672  0.019782387          145 
 3867000   0.64014286   -6.9272595    963.15394  0.020755839  0.019776066           77 
 3868000   0.63502878   -6.9416382    965.67683  0.020804827  0.019769742          185 
 3869000   0.62401055   -6.9219143     963.4762  0.020752051  0.019763436           84 
 3870000   0.64234875   -6.9091112     965.1178  0.020782037  0.019757134          200 
 3871000   0.62882203   -6.9328192    965.38417  0.020782403  0.019750832          114 
 3872000   0.62949925   -6.9116061    966.47372  0.020800485   0.01974452           90 
 3873000   0.63662033   -6.9403995    963.92382  0.020740249  0.019738228           66 
 3874000   0.63011305   -6.9323468    961.70413  0.020687148  0.019731921          108 
 3875000   0.62470717   -6.9091309    963.55138  0.020721535  0.019725619           79 
 3876000   0.63022437   -6.9230005    962.81411  0.020700338  0.019719334           63 
 3877000   0.63757579   -6.9658942    963.82868  0.020716806  0.019713043           71 
 3878000   0.63813227   -6.9457251    965.68278  0.020751306  0.019706732           59 
 3879000   0.63145901   -6.9278311    963.89919  0.020707639   0.01970044           95 
 3880000   0.63408436   -6.9343078    961.16514  0.020643581  0.019694141           91 
 3881000   0.63515329   -6.9434483    963.18487   0.02068163  0.019687852           66 
 3882000    0.6342516   -6.9373037    963.70069  0.020687375  0.019681535           30 
 3883000   0.62091442   -6.9435409    961.76465  0.020640498  0.019675252           83 
 3884000   0.62064501   -6.9297148    963.90842   0.02068118  0.019668969          127 
 3885000   0.62548039   -6.9451304    964.26007  0.020683399   0.01966267          101 
 3886000   0.63868558    -6.945115    962.68805  0.020644365  0.019656382           64 
 3887000   0.62128635   -6.9284963    962.33675  0.020631523  0.019650114           67 
 3888000   0.62834196   -6.9469986    964.24809  0.020667183  0.019643848           62 
 3889000    0.6223392   -6.9241066    965.55652  0.020689906  0.019637584           73 
 3890000   0.61215139   -6.9435603    962.94448  0.020628631  0.019631321           65 
 3891000   0.64576628   -6.9117696    962.78783  0.020619974  0.019625053           56 
 3892000   0.61795172   -6.9451121    964.02978  0.020641268  0.019618791           86 
 3893000   0.62976336   -6.9299334    964.08888  0.020637231  0.019612515          106 
 3894000   0.63484075   -6.9661607    963.00004   0.02060863   0.01960625          129 
 3895000   0.64203917   -6.9269468    961.93688  0.020580592  0.019599967          136 
 3896000   0.64313944   -6.9694185    963.65135  0.020611981  0.019593684          114 
 3897000   0.63466475   -6.9619946    962.87457  0.020590081  0.019587413           88 
 3898000   0.61474703   -6.9398976    963.51599  0.020598512   0.01958113           55 
 3899000   0.65017915   -6.9315847    963.86626  0.020600715   0.01957488           76 
 3900000    0.6294783    -6.952624    961.90096  0.020553439  0.019568612          117 
 3901000   0.60570743   -6.9470876    962.73721  0.020566035  0.019562347           80 
 3902000    0.6240472   -6.9509738    963.47322  0.020576483  0.019556064           64 
 3903000   0.61791205   -6.9624556    965.57792  0.020616148  0.019549806          109 
 3904000   0.62217386   -6.9433015     963.8953  0.020574951  0.019543548          100 
 3905000   0.61272498   -6.9487847    963.26822    0.0205563  0.019537295           74 
 3906000   0.62146198    -6.956573    963.98567  0.020566344  0.019531059           83 
 3907000   0.63146791   -6.9484007    964.26983  0.020567141  0.019524807           78 
 3908000   0.61530995   -6.9497493    963.69427  0.020549605  0.019518557           59 
 3909000   0.62848098   -6.9639937    962.14797  0.020511383  0.019512298           80 
 3910000   0.62558807   -6.9379897    964.27847  0.020551545  0.019506065          126 
 3911000   0.62252332   -6.9597885    961.34821  0.020483854  0.019499818           66 
 3912000   0.61942404   -6.9458865    964.85393  0.020553296  0.019493579          100 
 3913000   0.62205991   -6.9540244    965.85206    0.0205693  0.019487346           70 
 3914000   0.61678214   -6.9537297    962.95223  0.020502304  0.019481106           84 
 3915000   0.63412529   -6.9532445    963.62135   0.02051131  0.019474875          107 
 3916000   0.64227637   -6.9504943    965.04069  0.020536276  0.019468642          103 
 3917000   0.62945991   -6.9690682    962.87435  0.020484945  0.019462399          103 
 3918000   0.62467981   -6.9653164    964.54914  0.020515338  0.019456167          109 
 3919000    0.6162295   -6.9850533    963.04679  0.020478158  0.019449909           88 
 3920000   0.63109877   -6.9878733    962.50273  0.020461368  0.019443659           98 
 3921000   0.62386852    -6.975194      964.913  0.020507375  0.019437414          120 
 3922000   0.61879483   -6.9681621    962.76749  0.020456559   0.01943118          190 
 3923000   0.61945119   -6.9496209    962.41017  0.020443754  0.019424936           85 
 3924000   0.62378734    -6.969556    963.22362  0.020455819  0.019418696           64 
 3925000   0.61049315   -6.9670177    963.15509  0.020449153  0.019412465           80 
 3926000   0.63482594   -6.9690301    961.83135  0.020415846  0.019406247          100 
 3927000   0.62609139   -7.0056322    962.90327  0.020433394  0.019400018           98 
 3928000   0.62842452   -6.9810639    961.47733  0.020397941  0.019393795           79 
 3929000   0.62329651   -6.9629747    963.43633  0.020434299  0.019387572          157 
 3930000   0.63218392   -6.9593648    962.42109  0.020407572  0.019381363          109 
 3931000   0.63481433   -6.9577356    965.27427  0.020462865  0.019375144          163 
 3932000   0.62428307   -6.9570703    964.30239  0.020437063  0.019368935          163 
 3933000   0.61325155   -6.9659342     963.8151  0.020421542  0.019362728          164 
 3934000   0.62551808   -6.9589759    962.87038  0.020396339  0.019356514          143 
 3935000   0.62108545   -6.9545301    962.31867  0.020379472   0.01935031          108 
 3936000   0.62634585   -6.9651594    961.71681  0.020361552  0.019344104          183 
 3937000   0.61787569   -6.9663316    962.96928  0.020382891  0.019337891          188 
 3938000   0.63897054   -6.9600342    962.50205  0.020367827  0.019331678          190 
 3939000   0.61534954   -6.9646742    963.26658  0.020378831  0.019325468          198 
 3940000   0.61742522    -6.963906    963.44467  0.020377425  0.019319251          278 
 3941000   0.62106495    -6.967123    964.73252  0.020399487  0.019313032          171 
 3942000   0.61779647   -6.9697456    962.86294  0.020354789  0.019306822          154 
 3943000   0.61181239   -6.9871673    961.01929  0.020310662  0.019300625          137 
 3944000   0.62047087   -6.9826895    962.83698  0.020343919  0.019294418          160 
 3945000    0.6365422   -6.9584866    962.96214  0.020341406  0.019288222          125 
 3946000   0.62858819   -6.9426727    964.98879   0.02037905   0.01928202          135 
 3947000   0.60253291   -6.9495321     964.3194  0.020359754  0.019275845           99 
 3948000   0.63028437   -6.9526524    962.79116   0.02032234  0.019269677          133 
 3949000   0.62593087   -6.9574365    965.18602  0.020367731  0.019263517          123 
 3950000   0.61616673    -6.945866    961.33311  0.020281289  0.019257379           93 
 3951000   0.62056895   -6.9582688    963.29059  0.020317443  0.019251223           86 
 3952000   0.61834894    -6.968387     962.1052  0.020287306  0.019245074           90 
 3953000   0.61432903   -6.9754277    964.02538  0.020322653   0.01923893           89 
 3954000   0.62920201   -6.9855742    964.21925  0.020321599  0.019232783          138 
 3955000   0.62483797   -6.9853306    962.85727  0.020287764  0.019226637          120 
 3956000   0.60863549   -6.9814235    963.20337  0.020289926  0.019220485          149 
 3957000   0.61035809   -6.9787554      962.959  0.020279652  0.019214315          170 
 3958000   0.61023175   -6.9764578    961.70619  0.020248151  0.019208144          143 
 3959000    0.6188895   -6.9846186    960.95986  0.020227327  0.019201979          137 
 3960000   0.62284062   -6.9590506    963.24111  0.020270225  0.019195811          141 
 3961000   0.60998686   -6.9605451     962.5842  0.020251288  0.019189654          124 
 3962000   0.62790438   -6.9684745    960.37247  0.020199656    0.0191835          168 
 3963000   0.62384373   -6.9964727    961.95102  0.020227753  0.019177337          179 
 3964000   0.61253447   -6.9848753    962.34277  0.020230886  0.019171166          224 
 3965000    0.6192357   -6.9489609    964.19582  0.020264729  0.019165023          110 
 3966000   0.62292139   -6.9762643    963.36574  0.020242178  0.019158888           95 
 3967000   0.62755529   -6.9549129    963.03477  0.020230123  0.019152744          114 
 3968000   0.61901253   -6.9834015    961.96648  0.020202589  0.019146604          179 
 3969000   0.62584079   -6.9715561    963.84299  0.020236898  0.019140439          249 
 3970000   0.61859885   -6.9712057    961.55336   0.02018374  0.019134279          243 
 3971000   0.59994469   -6.9828543    962.86312  0.020206143  0.019128121          243 
 3972000   0.61567134   -6.9574801    963.82399  0.020221215  0.019121976          188 
 3973000   0.61304704   -6.9885686    963.43395  0.020207944  0.019115846          297 
 3974000   0.61158362   -7.0014524     962.4845   0.02018295  0.019109699          233 
 3975000   0.61598487   -6.9696192    961.32141  0.020153489  0.019103558          180 
 3976000   0.63423415   -6.9693451    963.26033  0.020189058  0.019097421          158 
 3977000   0.61133042   -6.9844196    960.86065  0.020133699  0.019091285          234 
 3978000   0.61413288   -6.9814064    963.55357  0.020185051  0.019085154          155 
 3979000   0.62641564   -6.9861587    962.80944  0.020164393  0.019079008          221 
 3980000   0.61388994   -6.9911364    961.27006  0.020127095  0.019072858          211 
 3981000    0.6197126    -6.970416    962.03678  0.020138089  0.019066712          232 
 3982000   0.59757297   -6.9876017    963.44685  0.020162541  0.019060582          194 
 3983000    0.6223988   -7.0064598    962.35676  0.020134671  0.019054477          220 
 3984000   0.61612758    -6.993702     962.6306  0.020135345  0.019048367          191 
 3985000   0.62029444   -6.9885523    962.51955   0.02012797  0.019042239          210 
 3986000   0.61774528   -6.9981145    960.70932  0.020085075  0.019036101          197 
 3987000   0.61314519   -6.9878262    961.45375  0.020095597   0.01902996          251 
 3988000   0.61301059   -6.9806376    964.62033  0.020156727  0.019023839          216 
 3989000   0.61369809   -6.9887004    960.29152  0.020061242  0.019017721          183 
 3990000   0.59478804   -7.0034766     963.3922  0.020120973  0.019011595          158 
 3991000   0.59652695   -6.9853753     963.7263  0.020122908  0.019005474          205 
 3992000   0.60229934   -6.9780158    964.25717  0.020128949  0.018999371          192 
 3993000   0.60716808    -6.967389    962.37924  0.020084716  0.018993277          203 
 3994000   0.62361443   -6.9741365    963.22827  0.020097402  0.018987201          250 
 3995000   0.60319769   -7.0089696    962.01054   0.02006697  0.018981117          257 
 3996000   0.60146363   -7.0114383    965.64341  0.020137709  0.018975027          294 
 3997000     0.627022   -6.9814476    963.75431  0.020093285  0.018968949          275 
 3998000   0.61859306   -6.9853288    962.94535  0.020071397  0.018962872          280 
 3999000   0.60672853   -6.9929799    962.95612  0.020066603  0.018956787          268 
 4000000   0.62183575   -6.9923175    964.18529  0.020087194  0.018950696          224 
 4001000   0.61329716   -6.9999496    960.16824  0.019998505  0.018944614          224 
 4002000   0.61341986   -7.0084476    958.67041  0.019962319  0.018938501          228 
 4003000   0.61941932   -6.9768147    962.28648   0.02003261  0.018932407          247 
 4004000   0.61614935   -6.9883337    964.06227  0.020064566  0.018926309          173 
 4005000   0.59837222   -7.0191299    961.56805  0.020007658  0.018920209          175 
 4006000   0.62089166   -6.9766789    960.47466  0.019979919  0.018914103          249 
 4007000   0.59217473   -6.9820704    963.56167  0.020039133  0.018908003          197 
 4008000   0.61163446   -6.9936495    962.54664  0.020013029   0.01890192          248 
 4009000   0.60796242   -7.0127571    961.04189  0.019976758  0.018895807          242 
 4010000   0.60981294   -6.9968522    962.71034  0.020006449  0.018889709          233 
 4011000   0.60715987   -7.0067658    963.64833  0.020020949  0.018883602          180 
 4012000   0.60485336   -7.0068168    961.41955  0.019969665  0.018877507          236 
 4013000   0.62334004   -7.0207816    961.36087   0.01996347  0.018871407          310 
 4014000   0.60536526   -6.9934362    961.16261  0.019954381  0.018865315          226 
 4015000   0.61749956   -6.9785136     961.6462  0.019959448  0.018859224          288 
 4016000   0.60880016   -6.9904231     964.7573  0.020019034  0.018853159          216 
 4017000   0.60900456   -7.0108134    963.25329   0.01998285  0.018847085          188 
 4018000   0.60173782   -7.0025113    961.55577   0.01994267  0.018841017          254 
 4019000   0.60232803   -7.0114555     961.0031  0.019926248  0.018834955          267 
 4020000   0.61603447   -7.0229488    961.46043  0.019930772  0.018828887          187 
 4021000   0.60824335    -7.007798    960.11015  0.019897831  0.018822812          273 
 4022000   0.60195364   -7.0172822    962.92172  0.019951138  0.018816732          294 
 4023000   0.61560645   -7.0051808    961.62205  0.019919257  0.018810656          299 
 4024000   0.60809181   -7.0041765    962.70864  0.019936809  0.018804594          177 
 4025000   0.60289749   -7.0171187     960.3672  0.019883379   0.01879851          258 
 4026000   0.61133322   -7.0112324    962.86286  0.019930097  0.018792431          222 
 4027000   0.60495125   -7.0216809    960.44302  0.019875073  0.018786361          353 
 4028000   0.58850059   -7.0206937    960.52486  0.019871832   0.01878029          155 
 4029000   0.59867573   -7.0160295    961.52576  0.019887601  0.018774204          257 
 4030000    0.6043673   -7.0389274    960.94238  0.019870603    0.0187681          274 
 4031000   0.61697347   -7.0179909    959.22299  0.019830129  0.018762004          345 
 4032000   0.59113526   -7.0242665    963.14713  0.019906315  0.018755919          150 
 4033000    0.6087808   -7.0160725    961.31456  0.019863513  0.018749842          224 
 4034000    0.6008505   -6.9953839    961.63832  0.019865277  0.018743777          270 
 4035000   0.61320288   -7.0251818    962.17703  0.019871479  0.018737705          195 
 4036000   0.60903732   -7.0286995    962.12241  0.019865428  0.018731627          281 
 4037000   0.59609468   -7.0391748    962.85974  0.019875727  0.018725565          199 
 4038000   0.61354438   -7.0135055    961.02114  0.019832862  0.018719503          235 
 4039000   0.61059109   -7.0074355     963.0671  0.019870164  0.018713455          219 
 4040000   0.62257421   -7.0267559    961.51621  0.019833255  0.018707394          316 
 4041000   0.60307342   -7.0150074     959.6874  0.019790634  0.018701335          292 
 4042000   0.60742855   -7.0322065    962.15075  0.019836524  0.018695294          181 
 4043000   0.60805239   -7.0373065     961.0694  0.019809329  0.018689244          255 
 4044000    0.5995508   -7.0123841    962.84688  0.019841058  0.018683203          282 
 4045000   0.60464498   -7.0165116    962.01881  0.019819094  0.018677166          362 
 4046000   0.61140895   -7.0182845    961.80502  0.019809792  0.018671129          290 
 4047000   0.59319793   -7.0209183    963.69907  0.019843898  0.018665094          364 
 4048000   0.59048737   -6.9993739    960.28641  0.019768742  0.018659062          335 
 4049000   0.59779807   -7.0215657    962.32545  0.019805826  0.018653032          240 
 4050000   0.60210597   -7.0372112    960.64154  0.019766287  0.018647008          328 
 4051000   0.61068128   -6.9868078    960.92575  0.019767254  0.018640975          401 
 4052000   0.60516331   -7.0274458    959.03279  0.019723445  0.018634939          401 
 4053000   0.60440988   -7.0228603    961.68206   0.01977305  0.018628908          368 
 4054000   0.60389392   -7.0280738    961.05481  0.019755279  0.018622882          210 
 4055000   0.61831292    -7.015602    961.06545  0.019750626  0.018616846          243 
 4056000   0.61196879    -7.036887    960.18337  0.019727633  0.018610816          396 
 4057000   0.60915029   -7.0463069    960.14271  0.019721936  0.018604768          379 
 4058000   0.59737995   -7.0501809     959.0562  0.019694764  0.018598727          397 
 4059000   0.60268102   -7.0300201    959.18631  0.019692582  0.018592687          348 
 4060000   0.60157966   -7.0441625    959.56212  0.019695446  0.018586646          365 
 4061000   0.60066711   -7.0433296    958.68297  0.019672555  0.018580602          486 
 4062000   0.60344045   -7.0113317    960.89844  0.019713164  0.018574572          298 
 4063000   0.59526498    -7.022083    960.90206  0.019708386  0.018568541          266 
 4064000   0.60621791   -7.0456241      959.548  0.019675771  0.018562496          455 
 4065000    0.5932547   -7.0258545    961.40915  0.019709085  0.018556461          396 
 4066000   0.60204468   -7.0611159    960.96871   0.01969521  0.018550438          157 
 4067000   0.60033425   -7.0234252    961.58825  0.019703062  0.018544412          342 
 4068000   0.60761797   -7.0439176    959.52916  0.019656038  0.018538382          380 
 4069000   0.60320523    -7.049492    959.22029  0.019644882  0.018532361          344 
 4070000   0.58379806   -7.0500525    959.70248  0.019649928  0.018526335          353 
 4071000   0.61048435   -7.0534791     959.7671  0.019646424  0.018520308          241 
 4072000   0.59180971   -7.0457998    958.98309  0.019625554  0.018514297          354 
 4073000   0.59214758   -7.0286024    960.37006  0.019649113  0.018508276          392 
 4074000   0.59973267   -7.0517726     959.1555  0.019619446  0.018502262          472 
 4075000   0.60973814   -7.0527712    958.64628  0.019604218  0.018496258          361 
 4076000    0.5971036    -7.049403    961.15276  0.019650653  0.018490254          405 
 4077000   0.60029054   -7.0462043    959.29002  0.019607759   0.01848425          300 
 4078000   0.60227106   -7.0540944     960.1617  0.019620764  0.018478235          469 
 4079000   0.58495889   -7.0302451    960.39109   0.01962064  0.018472228          339 
 4080000   0.61200491   -7.0360964    962.28391  0.019654492   0.01846622          273 
 4081000   0.59307277   -7.0557293     958.6708  0.019575896  0.018460228          376 
 4082000    0.5935018   -7.0736937    958.23659  0.019562237  0.018454228          202 
 4083000   0.60207069   -7.0645667    958.26179   0.01955796  0.018448213          245 
 4084000   0.59521533    -7.058039     960.0648  0.019589961  0.018442212          271 
 4085000   0.59360833    -7.048428    960.06286  0.019585126  0.018436216          320 
 4086000   0.59428313   -7.0789106    959.73707  0.019573688  0.018430207          243 
 4087000   0.59472982   -7.0565467    957.78393  0.019529074  0.018424209          294 
 4088000    0.5942527   -7.0685553    958.90308  0.019547111    0.0184182          232 
 4089000   0.60581233    -7.056148      959.508  0.019554659  0.018412186          506 
 4090000   0.59634137   -7.0532308    959.39928  0.019547662  0.018406173          385 
 4091000   0.60066138   -7.0804665    958.10293  0.019516478  0.018400158          423 
 4092000   0.59011754     -7.06329    958.76383  0.019525168  0.018394141          355 
 4093000   0.59364261   -7.0617146    958.50677  0.019515163  0.018388133          426 
 4094000   0.58607817   -7.0664383    958.15563  0.019503249  0.018382135          414 
 4095000   0.58720664   -7.0716692     960.6723  0.019549701  0.018376127          498 
 4096000   0.58458287   -7.0857767    958.66996   0.01950419  0.018370135          190 
 4097000   0.59309542    -7.058676    961.02347    0.0195473  0.018364149          261 
 4098000   0.58815002   -7.0669419    959.14636  0.019504359  0.018358168          440 
 4099000   0.60149396   -7.0860195    955.45674   0.01942459  0.018352173          439 
 4100000   0.59557639   -7.0597401    959.47024  0.019501428  0.018346194          520 
 4101000   0.58347293   -7.0536659    959.32941  0.019493811  0.018340215          126 
 4102000   0.59052023   -7.0383963    959.18039  0.019486031  0.018334247          236 
 4103000   0.59049031   -7.0699152    959.09531  0.019479554  0.018328278          370 
 4104000   0.58856624   -7.0468788    960.18679   0.01949697  0.018322314          455 
 4105000   0.59590173   -7.0776949    956.90222  0.019425542  0.018316352          567 
 4106000    0.6078189   -7.0743375    959.02033    0.0194638  0.018310371          460 
 4107000   0.59786025   -7.0529255    959.74935  0.019473853  0.018304408          457 
 4108000   0.60106859   -7.0418663    960.28868  0.019480053   0.01829846          429 
 4109000   0.59211787   -7.0638675    960.08226  0.019471125  0.018292524          539 
 4110000    0.5814732   -7.0565735    958.86963  0.019441801  0.018286585          278 
 4111000   0.58481916   -7.0433733    958.27644  0.019425047  0.018280642          203 
 4112000   0.57596717   -7.0391175    962.48845  0.019505684  0.018274709          253 
 4113000   0.59835024   -7.0319798    959.84881   0.01944746  0.018268777          433 
 4114000   0.58962219   -7.0380115    958.72039  0.019419875  0.018262848          190 
 4115000    0.6012134   -7.0404224    959.82346  0.019437494  0.018256922          216 
 4116000    0.5922048   -7.0507646    960.55599  0.019447603  0.018250987          303 
 4117000   0.60397788   -7.0490728    958.43896  0.019400028  0.018245061          415 
 4118000   0.58799362   -7.0486646    959.95947  0.019426086  0.018239129          252 
 4119000   0.58795127   -7.0725301    959.77866  0.019417712  0.018233204          228 
 4120000   0.59211499   -7.0613821    958.49558  0.019387047  0.018227271          221 
 4121000   0.60575002   -7.0399072    961.11542   0.01943532  0.018221351          282 
 4122000   0.59697188   -7.0318218     960.1243  0.019410567  0.018215439          185 
 4123000   0.58437688   -7.0218977    960.68603  0.019417213  0.018209536          290 
 4124000   0.60376777   -7.0486761     959.5955  0.019390468  0.018203632          226 
 4125000   0.59857069   -7.0490813    960.09365  0.019395831  0.018197731          182 
 4126000   0.58522565   -7.0327402    958.91997  0.019367425  0.018191828          205 
 4127000   0.57168831   -7.0466973    960.99165  0.019404565  0.018185918          421 
 4128000   0.57742736   -7.0729257    957.81716  0.019335779  0.018179982          236 
 4129000   0.60161244   -7.0704929    958.91847  0.019353323  0.018174057          241 
 4130000   0.59341099   -7.0608575    959.93682  0.019369185  0.018168129          200 
 4131000   0.58962026   -7.0678286    960.63329  0.019378546  0.018162214          348 
 4132000   0.59590343   -7.0576337    958.49536  0.019330739  0.018156292          216 
 4133000     0.593742   -7.0494492     960.6185   0.01936887  0.018150397          198 
 4134000   0.58152693    -7.078393    957.48345  0.019300989  0.018144487          459 
 4135000   0.60268591   -7.0694781    961.03036  0.019367803  0.018138575          341 
 4136000   0.59458449    -7.056712    960.73941  0.019357258  0.018132677          360 
 4137000   0.58685822   -7.0584818    957.81493   0.01929367  0.018126778          510 
 4138000   0.57819168   -7.0629445    958.13996  0.019295553  0.018120867          466 
 4139000   0.59855074   -7.0814069    958.83727   0.01930493  0.018114972          242 
 4140000   0.57370707   -7.0829514    958.85728   0.01930067  0.018109082          458 
 4141000   0.59231528   -7.0759938      961.328   0.01934573  0.018103186          310 
 4142000   0.57986666   -7.0655451    958.30197  0.019280178  0.018097297          444 
 4143000   0.59063896   -7.0611499    959.33642  0.019296332  0.018091414          355 
 4144000   0.57978254   -7.0507562     959.8513  0.019302029  0.018085528          420 
 4145000   0.59155759   -7.0692358    959.10761  0.019282421  0.018079636          372 
 4146000   0.59672287   -7.0786104    958.44605  0.019264473  0.018073734          484 
 4147000   0.60216442   -7.0890514    958.85879  0.019268121  0.018067859          519 
 4148000   0.57506056   -7.0816457    957.87551  0.019243722  0.018061975          455 
 4149000    0.5968073   -7.0787613      957.733  0.019236222  0.018056098          270 
 4150000   0.57281893   -7.0733451    959.99589  0.019277026  0.018050207          298 
 4151000   0.58377703   -7.0689266    958.89651  0.019250311  0.018044327          221 
 4152000   0.59351109   -7.0526364    959.77856  0.019263378  0.018038445          281 
 4153000   0.58186253   -7.0665233     959.2189   0.01924751  0.018032564          417 
 4154000   0.58893761    -7.043565    960.44595  0.019267492  0.018026695          442 
 4155000   0.58617913   -7.0803819     958.3298  0.019220413  0.018020834          440 
 4156000   0.57933624   -7.0883881    959.69172  0.019243097  0.018014962          407 
 4157000   0.58053645   -7.0620411    959.25508  0.019229715  0.018009083          373 
 4158000   0.58955653   -7.0924871    958.13258  0.019202593  0.018003211          340 
 4159000   0.58356068   -7.0942255    957.85754  0.019192465   0.01799734          478 
 4160000   0.57219896   -7.0791443    960.58176  0.019242423  0.017991463          419 
 4161000   0.59588675   -7.0933253    959.52089  0.019216552  0.017985579          392 
 4162000   0.57992414   -7.0864125    958.00921  0.019181668  0.017979694          320 
 4163000   0.57483839   -7.0676743    960.08872  0.019218687  0.017973814          318 
 4164000   0.58130942   -7.0814519    958.53071  0.019182891  0.017967941          290 
 4165000   0.57167525   -7.0824538    958.71237   0.01918192  0.017962066          351 
 4166000    0.5895815   -7.0951019    956.71603  0.019137383  0.017956187          520 
 4167000   0.58559578   -7.1023538    957.14338  0.019141336  0.017950314          367 
 4168000   0.59053111   -7.0728322    958.70951  0.019168056  0.017944442          452 
 4169000     0.589836   -7.0927185    957.55134  0.019140308  0.017938574          539 
 4170000   0.59337343   -7.0892921     957.1747  0.019128191  0.017932704          467 
 4171000   0.59216525   -7.0914492    959.53407  0.019170744  0.017926849          349 
 4172000   0.59049962   -7.0792255    959.55035  0.019166474  0.017921007          474 
 4173000   0.59003768   -7.0634908     959.0595  0.019152079  0.017915169          402 
 4174000   0.57856696   -7.0693312    960.13156  0.019168894  0.017909329          477 
 4175000    0.5770097   -7.0814253    959.26958  0.019147097  0.017903482          386 
 4176000   0.56716528   -7.0811962    958.89536  0.019135045  0.017897627          340 
 4177000   0.57402394   -7.0870211    957.38085  0.019100248  0.017891771          432 
 4178000   0.58395348   -7.0699662    955.91717  0.019066483  0.017885931          353 
 4179000   0.58287614   -7.0747025    959.39738  0.019131319  0.017880088          413 
 4180000   0.58647836    -7.088522    956.06507  0.019060308  0.017874241          467 
 4181000   0.57410702   -7.0930764    957.17283  0.019077829  0.017868392          473 
 4182000   0.57325932   -7.0734681    959.29069  0.019115469  0.017862557          428 
 4183000   0.58178831    -7.094453    958.31983  0.019091558  0.017856706          426 
 4184000   0.59434069   -7.0988495    957.01907  0.019061087  0.017850864          289 
 4185000   0.59036584   -7.0985068    957.69666  0.019070025  0.017845019          398 
 4186000   0.58086193    -7.101235    957.10146   0.01905362  0.017839178          482 
 4187000   0.58471246   -7.0927726    955.80655  0.019023297  0.017833334          551 
 4188000   0.57167565   -7.1102579    956.09817  0.019024558  0.017827499          482 
 4189000   0.58505425   -7.0608784    959.45031  0.019086701  0.017821671          520 
 4190000   0.57707509    -7.110855    957.42803  0.019041926  0.017815842          449 
 4191000   0.57524567   -7.1064723    959.11791  0.019070984  0.017810013          500 
 4192000   0.56488864   -7.0930818    957.31539  0.019030602  0.017804182          422 
 4193000   0.58832568   -7.0658076    958.33382  0.019046304  0.017798361          437 
 4194000   0.58726515   -7.1150488    957.64034  0.019027983  0.017792535          436 
 4195000   0.57032205   -7.0888791    959.53572  0.019061099  0.017786711          284 
 4196000   0.59039513   -7.0947827    959.11099  0.019048121  0.017780893          225 
 4197000   0.57905655   -7.0773653    956.39728    0.0189897   0.01777506          352 
 4198000   0.58100707   -7.0771299    957.71404  0.019011316  0.017769245          418 
 4199000   0.58210858   -7.0993906    957.92699  0.019011014  0.017763443          315 
 4200000   0.58563769    -7.109259    957.25669  0.018993188  0.017757632          448 
 4201000   0.59259267   -7.0982622    959.60042  0.019035159  0.017751838          533 
 4202000   0.58267797   -7.1058881    955.67557  0.018952792  0.017746044          471 
 4203000   0.57611125    -7.101477    957.69328  0.018988288  0.017740248          393 
 4204000   0.57810148   -7.0982281     957.9973  0.018989797  0.017734461          431 
 4205000   0.58300803   -7.0865003    959.19493  0.019009016  0.017728667          465 
 4206000   0.57475408     -7.07828    958.51384  0.018991002  0.017722876          511 
 4207000   0.57997945   -7.0961936    957.08099  0.018958105    0.0177171          464 
 4208000   0.58133963   -7.0861371    957.79049  0.018967651  0.017711318          430 
 4209000   0.57293452    -7.104459     956.4949  0.018937493  0.017705537          351 
 4210000   0.56982406   -7.0999539    958.06485  0.018964071  0.017699744          260 
 4211000   0.57779949   -7.1044878    956.94967  0.018937498  0.017693964          309 
 4212000   0.58525139   -7.1092629    957.86462  0.018951104  0.017688184          321 
 4213000   0.57830419   -7.1204429    956.37476  0.018917137  0.017682397          350 
 4214000   0.57702669   -7.1073182    957.61012  0.018937077   0.01767662          268 
 4215000   0.57900766    -7.095439    956.03311  0.018901406  0.017670832          253 
 4216000   0.57529841   -7.1099766    957.54745  0.018926855  0.017665048          273 
 4217000   0.58617315   -7.1035416    957.61929  0.018923787  0.017659269          334 
 4218000   0.57182269   -7.0925235    958.86907  0.018943991  0.017653491          444 
 4219000   0.58575337   -7.1179763    956.95959  0.018901785  0.017647715          264 
 4220000   0.58437269   -7.1109892    956.96727  0.018897458  0.017641944          407 
 4221000   0.57181053   -7.0912678    956.18078  0.018877454  0.017636174          475 
 4222000   0.58923988   -7.1135686    957.43228  0.018897684  0.017630406          441 
 4223000   0.57142462   -7.0877118    956.47674  0.018874354  0.017624643          466 
 4224000   0.56639668   -7.0844103    958.66391  0.018913035  0.017618894          368 
 4225000   0.57335469   -7.0768239    959.26268  0.018920368  0.017613143          355 
 4226000    0.5714934   -7.0894769    958.42845  0.018899441  0.017607381          365 
 4227000   0.58227457   -7.0857189    958.01848  0.018886887  0.017601633          389 
 4228000   0.58622766   -7.0828257    957.09366  0.018864192  0.017595877          356 
 4229000   0.56159714   -7.0872459     958.6718  0.018890829  0.017590133          350 
 4230000   0.57293191   -7.0937898    956.79608   0.01884941  0.017584396          434 
 4231000   0.57874079   -7.0988751    957.28853  0.018854655  0.017578671          354 
 4232000   0.57412127   -7.1031693    958.12697  0.018866709  0.017572934          323 
 4233000   0.57753958   -7.0817974    957.12634  0.018842553  0.017567201          296 
 4234000   0.56956534   -7.0968476    956.83412  0.018832352  0.017561468          354 
 4235000   0.57012057   -7.1000943    957.03303  0.018831819  0.017555736          224 
 4236000   0.56500785   -7.1122898    956.01461  0.018807338  0.017550004          317 
 4237000   0.56040445   -7.0936686     956.1446  0.018805456  0.017544282          238 
 4238000   0.55608167   -7.1195958    956.06343  0.018799423  0.017538544          403 
 4239000   0.57550639   -7.0981555    957.52539  0.018823728  0.017532805          234 
 4240000   0.58017674   -7.1021906    956.92438  0.018807476  0.017527076          328 
 4241000   0.58058556   -7.1054965    957.40276  0.018812441  0.017521355          250 
 4242000   0.56649799   -7.1085699    958.24153  0.018824484  0.017515633          363 
 4243000   0.57337166   -7.1122972    957.72302  0.018809864  0.017509914          442 
 4244000   0.57771391   -7.1052526    955.81816  0.018768029  0.017504194          235 
 4245000   0.57602128    -7.096657    956.64864   0.01877991  0.017498477          442 
 4246000   0.57486043   -7.1070341    957.15947  0.018785513  0.017492767          270 
 4247000   0.57827567   -7.1115786    958.08414  0.018799234  0.017487038          255 
 4248000   0.56728504   -7.1250949     956.8999  0.018771577  0.017481323          470 
 4249000   0.55302768   -7.1060987    957.81085  0.018785025  0.017475614          346 
 4250000   0.56788296   -7.1053263    957.19914  0.018768611  0.017469892          440 
 4251000   0.57118808   -7.1189106    956.86247  0.018757596  0.017464171          258 
 4252000   0.57752438   -7.1046284    956.15955  0.018739408   0.01745846          490 
 4253000   0.56745642    -7.123905    956.71316  0.018745849  0.017452754          278 
 4254000   0.56703573    -7.096738    957.36755  0.018754262   0.01744705          207 
 4255000   0.56801927   -7.1107118    957.40963  0.018750678  0.017441352          448 
 4256000    0.5725474   -7.1137524    958.05024  0.018758816  0.017435653          464 
 4257000   0.56346107    -7.115304    957.57673   0.01874514  0.017429945          282 
 4258000   0.57319049   -7.1162871    957.35473  0.018736393  0.017424243          429 
 4259000   0.55857671   -7.1381133    955.62212  0.018698093   0.01741854          376 
 4260000   0.56975391   -7.1151886    955.77715  0.018696736  0.017412834          473 
 4261000   0.57671643   -7.1159626    957.86069  0.018733097  0.017407136          286 
 4262000   0.56477462   -7.1265934    955.58798  0.018684264  0.017401441          331 
 4263000   0.55671477   -7.0905247    956.71491   0.01870191  0.017395747          454 
 4264000   0.56596343   -7.1136712    957.83997  0.018719512  0.017390052          403 
 4265000   0.57788736   -7.1091267    955.37401   0.01866694  0.017384356          574 
 4266000   0.58270174   -7.1151362     957.9421  0.018712731  0.017378665          574 
 4267000   0.57233758    -7.113256    957.33681  0.018696524  0.017372984          292 
 4268000   0.57215342   -7.1263251    957.65592  0.018698374  0.017367301          434 
 4269000   0.55835265   -7.1211137    956.01618  0.018661985  0.017361621          509 
 4270000   0.55928639   -7.1202244    954.70606  0.018632046  0.017355947          504 
 4271000   0.57654884   -7.1262416     958.2129  0.018696108  0.017350268          389 
 4272000   0.56466378   -7.1150257    955.39589   0.01863678  0.017344597          573 
 4273000   0.56559486   -7.1334112    956.14197  0.018646969  0.017338922          614 
 4274000   0.56470143   -7.1263442    956.68478  0.018653189  0.017333243          545 
 4275000   0.56565845    -7.115082    955.80666  0.018631709  0.017327553          618 
 4276000   0.57690365    -7.110993    956.13962   0.01863384  0.017321877          503 
 4277000   0.57445053   -7.1125777    957.07339  0.018647677   0.01731621          297 
 4278000   0.56244784   -7.1249301    954.55087  0.018594181  0.017310541          542 
 4279000   0.55435814   -7.1243944    956.10985  0.018620197  0.017304864          405 
 4280000   0.56176569   -7.1356366    955.01022  0.018594436  0.017299188          535 
 4281000   0.57726941   -7.1304067    954.17086  0.018573753  0.017293516          593 
 4282000   0.56168714   -7.1129788    955.67567  0.018598701  0.017287859          622 
 4283000   0.55645118   -7.1259702    957.22388  0.018624482  0.017282191          650 
 4284000   0.56426603   -7.0860468    956.67375  0.018609433  0.017276537          577 
 4285000   0.56301542   -7.1240731    955.31148  0.018578597  0.017270882          566 
 4286000   0.56889976   -7.1358591    956.73214  0.018601885  0.017265219          621 
 4287000   0.57781098   -7.1235981     955.0494  0.018564836  0.017259555          578 
 4288000   0.55436214   -7.1237432    954.98406  0.018559236  0.017253898          718 
 4289000   0.55579132    -7.141931    955.46481   0.01856425  0.017248247          448 
 4290000   0.57083647   -7.1227987    955.97795   0.01856989  0.017242592          571 
 4291000   0.56609468   -7.1290583     955.7988  0.018562083  0.017236949          635 
 4292000   0.57121638   -7.1133987    955.11179   0.01854442  0.017231306          614 
 4293000   0.56504633   -7.1292071     956.2791  0.018562759  0.017225661          578 
 4294000   0.56517888   -7.1418053    955.81057  0.018549344  0.017220009          584 
 4295000   0.55375489   -7.1289046     957.0659  0.018569381  0.017214365          778 
 4296000   0.56805584   -7.1235717    955.84957  0.018541464  0.017208713          447 
 4297000   0.56030702   -7.1239982    956.96887  0.018558856  0.017203055          667 
 4298000   0.56050404   -7.1296989    954.71482  0.018510835  0.017197416          760 
 4299000   0.56844889   -7.1323636    956.55018  0.018542106  0.017191763          845 
 4300000   0.56808059   -7.1266934     954.9492  0.018506768  0.017186119          816 
 4301000   0.55561009   -7.1315642    954.61212  0.018495934  0.017180476          524 
 4302000   0.57114395   -7.1498641    954.10843  0.018481877  0.017174827          780 
 4303000   0.57177927   -7.1106351    955.54916  0.018505484  0.017169195          798 
 4304000   0.56441877   -7.1630334    954.84335  0.018487518  0.017163554          776 
 4305000   0.56507467   -7.1506305    954.82255  0.018482821  0.017157911          821 
 4306000   0.56523862   -7.1470611     955.6798  0.018495119   0.01715226          824 
 4307000   0.56687775   -7.1449628    954.76995  0.018473221  0.017146624          839 
 4308000    0.5582394   -7.1469796    954.40614  0.018461895  0.017140988          748 
 4309000   0.55857162   -7.1455546    954.72925   0.01846386  0.017135357          750 
 4310000   0.56994405    -7.149026    953.36862  0.018433268  0.017129734          814 
 4311000    0.5653075   -7.1353498    955.84781  0.018476916  0.017124109          730 
 4312000   0.55774271   -7.1248002    953.68624  0.018430856  0.017118485          806 
 4313000   0.57589033    -7.132807    956.08379  0.018472907  0.017112877          734 
 4314000   0.55481516   -7.1395183    953.95348  0.018427474  0.017107264          831 
 4315000   0.55940925   -7.1295573    955.72583  0.018457432  0.017101648          760 
 4316000   0.56699646   -7.1428856    955.90048  0.018456528  0.017096041          674 
 4317000   0.56532565   -7.1465016    954.78672  0.018430753  0.017090438          834 
 4318000   0.55494726   -7.1423679     954.9684  0.018429991  0.017084838          794 
 4319000   0.56567906    -7.125252    955.30863  0.018432288  0.017079235          845 
 4320000   0.56035952   -7.1245086    955.94798  0.018440354   0.01707363          743 
 4321000   0.55797492   -7.1363058    955.71031  0.018431503  0.017068017          756 
 4322000   0.57751201   -7.1352947    954.07536  0.018395715   0.01706241          833 
 4323000   0.55630753   -7.1467287    956.46364  0.018437498  0.017056808          746 
 4324000   0.56026752   -7.1473634    954.91395  0.018403368  0.017051217          781 
 4325000   0.56274019    -7.114088    955.66658  0.018413614  0.017045625          667 
 4326000   0.56597882   -7.1328387    955.59442  0.018407968  0.017040037          711 
 4327000   0.55443066    -7.145815    954.57212  0.018384025  0.017034442          470 
 4328000   0.54990118    -7.153103    955.56369   0.01839887   0.01702884          715 
 4329000   0.57193642   -7.1362038    953.38862  0.018352749  0.017023244          770 
 4330000   0.55247524   -7.1420527     954.9484   0.01837853  0.017017649          650 
 4331000   0.55329696   -7.1478747    954.85292  0.018372449  0.017012062          700 
 4332000   0.56884702    -7.139548    954.79502  0.018367094  0.017006484          757 
 4333000   0.55372112   -7.1257016    955.79968  0.018382177  0.017000904          706 
 4334000   0.55643393   -7.1289612    955.82116  0.018378349  0.016995323          788 
 4335000   0.56210381    -7.136944    955.68458  0.018371484   0.01698975          523 
 4336000   0.55519391   -7.1628545    954.46498  0.018343807  0.016984174          739 
 4337000    0.5491174   -7.1571679    953.76351  0.018326099  0.016978588          750 
 4338000   0.54975327    -7.149343    953.81443  0.018322853  0.016973018          658 
 4339000   0.56382106   -7.1578741    954.03796  0.018322923  0.016967439          642 
 4340000   0.54943271   -7.1500743    953.50453  0.018308459   0.01696186          696 
 4341000   0.55300777   -7.1408904    953.65479  0.018307126  0.016956286          719 
 4342000   0.55143918   -7.1558121    952.82801  0.018287042  0.016950714          713 
 4343000   0.55572947   -7.1670376    955.39342  0.018332056  0.016945146          821 
 4344000    0.5659872   -7.1794715    952.92523  0.018280487  0.016939571          692 
 4345000   0.55065399    -7.155684    954.08648  0.018298552   0.01693399          729 
 4346000   0.55651158   -7.1736622    954.46114  0.018301525  0.016928423          764 
 4347000   0.55356305   -7.1481804    954.59778  0.018299934  0.016922858          751 
 4348000   0.56067552   -7.1551504    955.88392  0.018320376  0.016917295          637 
 4349000   0.55412256   -7.1586363    954.78981  0.018295198   0.01691173          752 
 4350000   0.55671166   -7.1357152    955.27471  0.018300282  0.016906171          886 
 4351000   0.55574988   -7.1561675    954.21207  0.018275723  0.016900621          883 
 4352000   0.55205576   -7.1592194    954.78371   0.01828247  0.016895065          777 
 4353000   0.56791603   -7.1599166    952.31716  0.018231051  0.016889508          765 
 4354000   0.54994185   -7.1551574    954.82615  0.018274884  0.016883967          793 
 4355000   0.55520848   -7.1493134    954.73182  0.018268883  0.016878427          627 
 4356000   0.55705737   -7.1358196    951.67943  0.018206295  0.016872883          790 
 4357000   0.55735574   -7.1698719    954.82996  0.018262374  0.016867345          771 
 4358000   0.55455846   -7.1558332    954.24458   0.01824699  0.016861804          839 
 4359000   0.56304919   -7.1746496    954.84841  0.018254348  0.016856269          739 
 4360000    0.5424346   -7.1668762    955.10336  0.018255034   0.01685073          790 
 4361000   0.54874092   -7.1451787    954.27657  0.018235049  0.016845201          715 
 4362000   0.54630298   -7.1668465    953.77428  0.018221272   0.01683966          787 
 4363000   0.56015183   -7.1609908    955.26034   0.01824548  0.016834122          769 
 4364000   0.54470183   -7.1776372    952.22572  0.018183351  0.016828589          800 
 4365000   0.55344517   -7.1733226    952.73995  0.018189003  0.016823062          780 
 4366000   0.56012023   -7.1602054     953.3417  0.018196322  0.016817536          817 
 4367000   0.54779273   -7.1625483    955.04991  0.018224752  0.016812019          890 
 4368000   0.55233851   -7.1594595    955.48701  0.018228919  0.016806509          915 
 4369000   0.55471441   -7.1280844    955.02982  0.018216026   0.01680099          751 
 4370000   0.54530379   -7.1320439    954.05804  0.018193327  0.016795485          892 
 4371000   0.54164944   -7.1542198    954.73105  0.018201995  0.016789981          830 
 4372000   0.55997523   -7.1350938    953.24056  0.018169422  0.016784477          781 
 4373000    0.5494558   -7.1769333    952.25655  0.018146516  0.016778984          802 
 4374000   0.55473338   -7.1646339    954.00218  0.018175625  0.016773481          915 
 4375000   0.55945366   -7.1480269    955.84575  0.018206586  0.016767978          875 
 4376000   0.56667217   -7.1513711    953.88526  0.018165091   0.01676248          822 
 4377000   0.56091164   -7.1586595     954.1675  0.018166314  0.016756987          858 
 4378000   0.54938622   -7.1498133    955.54453  0.018188376  0.016751485          783 
 4379000   0.54654293   -7.1560214    954.48719  0.018164101   0.01674599          860 
 4380000   0.55272531   -7.1714199    953.50621   0.01814129  0.016740494          869 
 4381000   0.55412488   -7.1545002    954.68167  0.018159508  0.016735003          905 
 4382000   0.55618919   -7.1740727    952.61385   0.01811604  0.016729508          880 
 4383000   0.55774365   -7.1720196    952.04437  0.018101079  0.016724016          902 
 4384000   0.54903455   -7.1399042    952.16469  0.018099237  0.016718521          806 
 4385000   0.55493026   -7.1895711    954.20695  0.018133921   0.01671303          928 
 4386000   0.55136122   -7.1804409    953.56227  0.018117538  0.016707536          878 
 4387000   0.55419594   -7.1791719    953.86362  0.018119133   0.01670205          880 
 4388000   0.55476624   -7.1538692    954.25582  0.018122452  0.016696565          871 
 4389000   0.54865507   -7.1582457    952.91995  0.018092959  0.016691076          853 
 4390000    0.5535859   -7.1719539    951.36212  0.018059266  0.016685583          826 
 4391000    0.5537693   -7.1660466     952.2025  0.018071102  0.016680097          848 
 4392000    0.5586674   -7.1724781    953.56422  0.018092824  0.016674613          882 
 4393000   0.53198417   -7.1572476    953.46939  0.018086907  0.016669138          868 
 4394000   0.54551684   -7.1788442    952.01933   0.01805529  0.016663657          854 
 4395000    0.5440493   -7.1655156    954.56867   0.01809952  0.016658189          801 
 4396000    0.5493994   -7.1617438    953.44749  0.018074149  0.016652715          845 
 4397000   0.56090073   -7.1727591    954.54483  0.018090835  0.016647245          798 
 4398000   0.55583798   -7.1411321    954.30758  0.018082226  0.016641789          788 
 4399000   0.53657558   -7.1728554    952.74137  0.018048446  0.016636321          939 
 4400000   0.54910546   -7.1768782    952.57386  0.018041172  0.016630855          816 
 4401000   0.54306956   -7.1503805    954.98001  0.018082633  0.016625397          830 
 4402000   0.54945949   -7.1665294    953.40618  0.018048731  0.016619938          828 
 4403000   0.54349659   -7.1739097    951.69823  0.018012307   0.01661447          853 
 4404000   0.54348331   -7.1773107    953.29177   0.01803837  0.016609007          901 
 4405000   0.55864607    -7.195107    953.14424  0.018031484   0.01660355          897 
 4406000   0.53838261   -7.1877991    952.71741  0.018019318  0.016598088         1008 
 4407000   0.55130515   -7.1852122    951.29184  0.017988273  0.016592623          953 
 4408000   0.55117734   -7.1720441    953.32722  0.018022671  0.016587162          930 
 4409000   0.54625552    -7.166894    952.41329   0.01800131  0.016581714          914 
 4410000     0.544123   -7.1718673    952.03347   0.01799005  0.016576262          913 
 4411000   0.54204865     -7.17018    952.72021  0.017998946  0.016570809          949 
 4412000   0.53261348   -7.1772084    952.49715  0.017990653  0.016565365          807 
 4413000   0.54901651   -7.1400299    952.89243  0.017994041  0.016559922          792 
 4414000    0.5243237   -7.1781801    955.17124  0.018032987  0.016554489          878 
 4415000   0.55619553   -7.1902204    951.66353  0.017962694  0.016549056          800 
 4416000   0.53945582   -7.1601019    951.54706  0.017956428  0.016543627          860 
 4417000    0.5543858   -7.1699626    955.01676  0.018017824  0.016538205          728 
 4418000   0.55013591   -7.1516274    951.58504  0.017949016  0.016532782          851 
 4419000   0.54952883   -7.1707409    954.04472  0.017991339  0.016527355          917 
 4420000   0.54133608   -7.1738242    953.17812   0.01797093  0.016521921          838 
 4421000   0.54354668   -7.1588532     954.3636  0.017989211  0.016516487          855 
 4422000   0.54061703   -7.1875431    951.84357  0.017937652  0.016511064          907 
 4423000   0.54640193   -7.1840609    952.66634  0.017949098  0.016505636          812 
 4424000   0.54575244   -7.1690703    953.76322  0.017965703  0.016500207          725 
 4425000   0.54960374   -7.1506751    953.84075  0.017963103  0.016494798          796 
 4426000   0.54649139   -7.1472306    955.08986  0.017982563  0.016489388          814 
 4427000   0.54126942   -7.1703366    953.18637  0.017942669  0.016483974          911 
 4428000   0.54159038   -7.1913506    952.84523  0.017932197  0.016478558          838 
 4429000   0.54400903   -7.1595306    951.88904  0.017910157   0.01647315          788 
 4430000   0.55279016   -7.1720117    955.24274  0.017969201  0.016467739          833 
 4431000   0.54286917   -7.1890927    953.82254  0.017938436  0.016462329          882 
 4432000   0.54129293     -7.18795    951.06585  0.017882556  0.016456924          925 
 4433000   0.53440009   -7.1858806     952.1744  0.017899361  0.016451519          952 
 4434000   0.54139638   -7.1772321     952.0858  0.017893659   0.01644611          918 
 4435000   0.53312471   -7.1714848    953.61935  0.017918439  0.016440712          841 
 4436000    0.5391326   -7.1791404    951.38245  0.017872378  0.016435318          977 
 4437000   0.53649838   -7.1642718    951.72832  0.017874846  0.016429926          858 
 4438000   0.54490203   -7.1847763    953.01292   0.01789494  0.016424542          891 
 4439000   0.53677063    -7.197676      953.402  0.017898213  0.016419159          937 
 4440000   0.52965217   -7.1762518    952.71275  0.017881245  0.016413768          972 
 4441000   0.54392776   -7.1873946    952.39197    0.0178712  0.016408384          869 
 4442000   0.54508036   -7.1663409    952.34667  0.017866326  0.016403007          982 
 4443000   0.55195731   -7.1731173    953.39042  0.017881882  0.016397631          891 
 4444000   0.53740934   -7.1725642    953.22346  0.017874727  0.016392259          899 
 4445000   0.52787174    -7.159662    953.29587  0.017872063  0.016386894          931 
 4446000   0.53220949   -7.1914518    952.26614  0.017848743  0.016381527          901 
 4447000   0.55867108   -7.1980524    952.87084  0.017856061  0.016376157          963 
 4448000   0.55711866   -7.1736947    954.19884  0.017876927  0.016370794          903 
 4449000   0.53566577   -7.1869141    954.50146  0.017878577  0.016365429          877 
 4450000   0.55405715   -7.1870798    952.22789  0.017831983   0.01636007          966 
 4451000   0.54104458   -7.1804184    953.55194  0.017852766   0.01635471          932 
 4452000   0.53841828   -7.1890024    953.65619  0.017850707  0.016349354          983 
 4453000   0.54518683   -7.1760746    953.39944  0.017841894  0.016343998          894 
 4454000   0.54538434   -7.1910783    951.80778  0.017808108  0.016338643          885 
 4455000   0.53854089   -7.1734657    951.29537  0.017794526  0.016333276          951 
 4456000   0.54861099   -7.1930432     954.0739  0.017842495  0.016327924          927 
 4457000   0.54805748   -7.1717835     952.7483  0.017813707  0.016322569          933 
 4458000   0.53084911   -7.1722134    952.73048  0.017809378  0.016317217          929 
 4459000   0.54793341   -7.1864285    953.87486  0.017826771  0.016311873          947 
 4460000   0.52618771   -7.1759382     953.9811  0.017824759  0.016306528          884 
 4461000    0.5364206   -7.1862491    951.30571  0.017770786  0.016301184          945 
 4462000   0.53858439   -7.1866323    951.66412  0.017773497   0.01629583         1029 
 4463000   0.52978684   -7.1850023    953.40798  0.017802076  0.016290486          894 
 4464000   0.53468408   -7.1967431    952.26082  0.017776673  0.016285143          894 
 4465000   0.54061594   -7.2003877    951.44611  0.017757486  0.016279808          879 
 4466000   0.53688846   -7.1899035      951.711  0.017758453  0.016274475          914 
 4467000   0.53924705    -7.184354    952.58214  0.017770729  0.016269139          931 
 4468000   0.52928464   -7.1700256     951.9983  0.017755862  0.016263807          841 
 4469000    0.5368638   -7.1756886    954.45175  0.017797638  0.016258475          886 
 4470000   0.54077524   -7.1871954    952.74188   0.01776178  0.016253157          815 
 4471000   0.52953514   -7.1943653    950.03795   0.01770741  0.016247833          934 
 4472000   0.53095068   -7.2045725     953.0993  0.017760497  0.016242508          943 
 4473000   0.53841884   -7.2089727     951.3278  0.017723523  0.016237188         1001 
 4474000   0.54358427   -7.1972845    953.65541  0.017762915  0.016231869          905 
 4475000   0.52995429   -7.1803926    952.94887  0.017745789  0.016226551          905 
 4476000   0.53732275   -7.1950056    952.63792  0.017736035  0.016221245          895 
 4477000   0.53967159   -7.2050467    952.83353  0.017735715  0.016215932          940 
 4478000   0.53097835    -7.200814    953.74699  0.017748753  0.016210625         1008 
 4479000   0.53216677   -7.1997518    951.76399  0.017707896  0.016205327         1001 
 4480000   0.54452826   -7.1960873    953.70541  0.017740056  0.016200027         1009 
 4481000   0.53444656   -7.1977664    952.87288  0.017720614  0.016194726          946 
 4482000    0.5360713   -7.1788314    952.33686  0.017706694  0.016189427          898 
 4483000   0.53390267   -7.1825878    953.42879  0.017723042   0.01618414          975 
 4484000   0.53016489   -7.1942754    951.27112   0.01767899  0.016178847         1060 
 4485000   0.53609362   -7.2057892    953.09646  0.017708964  0.016173557         1003 
 4486000   0.53280962   -7.1830245    952.78414  0.017699215  0.016168265          996 
 4487000   0.53526175   -7.1996143     952.6112  0.017692059  0.016162971         1008 
 4488000   0.53132877   -7.1782639    953.50729  0.017704755  0.016157687          776 
 4489000   0.53137211   -7.2103041    953.89146  0.017707943  0.016152405         1048 
 4490000   0.53400245   -7.1935342    951.38598  0.017657498   0.01614712         1031 
 4491000   0.53591988    -7.197086    952.36508  0.017671734  0.016141838          974 
 4492000   0.54161315   -7.1790234    951.38764  0.017649667  0.016136562          965 
 4493000     0.521854   -7.1864882    952.68532  0.017669807  0.016131292          968 
 4494000   0.52863515   -7.1995984    952.65525  0.017665318  0.016126022          898 
 4495000   0.53521539   -7.2125019    952.36118  0.017655936  0.016120749         1003 
 4496000   0.52830136   -7.1894112    952.39843  0.017652699  0.016115479         1040 
 4497000   0.52398239   -7.1894878    952.18575  0.017644833  0.016110216          949 
 4498000   0.53362818   -7.1975334    953.28909  0.017661351  0.016104947         1072 
 4499000   0.53299376   -7.1993948     951.4608  0.017623561  0.016099684         1083 
 4500000   0.53052083   -7.2067497    952.49054  0.017638714  0.016094423         1077 
 4501000   0.53050052   -7.1985904    951.12682  0.017609546  0.016089165         1016 
 4502000   0.53816048    -7.203979    951.84782  0.017618981  0.016083907          922 
 4503000   0.53077491   -7.1849165    953.74431  0.017650165  0.016078648         1019 
 4504000   0.51588313   -7.2204864    951.80461  0.017610358  0.016073387         1007 
 4505000   0.53619044   -7.2061387    952.24839  0.017614658   0.01606813         1049 
 4506000   0.54525227   -7.2131029    950.85912  0.017585055   0.01606287         1036 
 4507000   0.53517123   -7.1956064    952.75023   0.01761612   0.01605761         1020 
 4508000   0.52653382   -7.2072843    953.85869  0.017632703  0.016052357         1080 
 4509000   0.52935064   -7.1928486    952.10607  0.017596401  0.016047098         1103 
 4510000   0.52376755   -7.2086407    952.73127  0.017604052  0.016041858         1014 
 4511000   0.52794481   -7.2207654    951.25096  0.017572803  0.016036607         1105 
 4512000    0.5229225   -7.2182486    951.76961  0.017578487  0.016031365         1121 
 4513000   0.53250223   -7.2002268    950.59348  0.017552875  0.016026112         1089 
 4514000   0.53437823   -7.1974195    952.16804  0.017578054  0.016020869         1012 
 4515000   0.52758575   -7.2083724    951.59558  0.017563595  0.016015627         1011 
 4516000   0.53564865   -7.2094796    953.84354  0.017601187  0.016010391          990 
 4517000    0.5278778   -7.1936654    952.89737  0.017579835   0.01600516          988 
 4518000   0.52111994   -7.2075139    951.85895   0.01755679  0.015999932         1003 
 4519000   0.53519092   -7.1973858    950.86451  0.017534567  0.015994703         1006 
 4520000   0.51936658   -7.2139711    951.21389  0.017537129   0.01598947          972 
 4521000   0.52961104   -7.2263748    951.98028  0.017547377  0.015984239         1033 
 4522000   0.52794204   -7.2202244    951.03098  0.017526002  0.015979002         1030 
 4523000   0.52719159   -7.2193526     951.3667  0.017528313  0.015973776          950 
 4524000   0.53215176   -7.2291115    951.15592  0.017520556   0.01596855         1009 
 4525000   0.53403313   -7.2175547    952.28503  0.017537478  0.015963323          933 
 4526000   0.53105352   -7.2222981    953.21513  0.017550728  0.015958102          969 
 4527000    0.5244814   -7.2129536     952.8536  0.017540196  0.015952889          956 
 4528000    0.5359622   -7.2149706    950.90594  0.017500477  0.015947669          935 
 4529000   0.52556965   -7.2213827    952.50185  0.017525978   0.01594245          988 
 4530000   0.52834302   -7.2212002    950.99873  0.017494458   0.01593723         1005 
 4531000   0.53350875   -7.2258357    952.27937   0.01751415   0.01593201          928 
 4532000   0.53234169   -7.2225631    950.46712  0.017476962  0.015926795          826 
 4533000   0.52093779    -7.221501    951.88946  0.017499255  0.015921586          958 
 4534000   0.51850904   -7.2351746    952.56236  0.017507763  0.015916376         1051 
 4535000   0.53283269   -7.2064024    952.15391  0.017496397  0.015911173          869 
 4536000   0.52983386    -7.228189    951.93992  0.017488608  0.015905974         1026 
 4537000   0.50882416   -7.2098527    951.02988  0.017468038  0.015900771          926 
 4538000    0.5245496   -7.2372951    950.42796  0.017453136  0.015895572          948 
 4539000    0.5315901   -7.2128008    951.55539   0.01746999  0.015890377          904 
 4540000   0.52864819   -7.2267862    950.66807  0.017449854  0.015885177         1008 
 4541000   0.52830513   -7.2440184    951.71413  0.017465208  0.015879973          984 
 4542000   0.52275621   -7.2466744    950.28698  0.017435179  0.015874772          972 
 4543000   0.52237286   -7.2396199    950.51342  0.017435495  0.015869574         1019 
 4544000   0.52215818   -7.2226434    950.66391  0.017434417   0.01586438          918 
 4545000   0.51739736   -7.2085769    952.17537  0.017458294  0.015859197          958 
 4546000   0.52467608   -7.2148634    953.94019  0.017486805  0.015854011         1042 
 4547000   0.53483823   -7.2268728    950.64132  0.017422501  0.015848834         1029 
 4548000   0.53801563   -7.2333972     950.4785  0.017415686  0.015843652         1001 
 4549000   0.52222872   -7.2312139    949.71705  0.017397909  0.015838468         1038 
 4550000   0.51792203    -7.214264    950.28955  0.017404571  0.015833291          988 
 4551000   0.51210561    -7.217395    952.23734  0.017436412  0.015828121          939 
 4552000   0.52128839   -7.2335341     952.4046  0.017435644  0.015822946         1043 
 4553000   0.53083954   -7.2185085    948.59775  0.017362138  0.015817766          969 
 4554000   0.52452304   -7.2245487    951.17782  0.017405538  0.015812594          946 
 4555000   0.52093226   -7.2250303    950.23734   0.01738451  0.015807419          944 
 4556000   0.52433715   -7.2184984    953.18504  0.017434611  0.015802247          980 
 4557000   0.52657459   -7.2254298    951.24391  0.017395288  0.015797078         1000 
 4558000   0.52767161   -7.2351131    950.55214  0.017378824  0.015791917         1008 
 4559000   0.52466318   -7.2207541    952.30821  0.017407111  0.015786761          924 
 4560000   0.51059105   -7.2375493    950.39452  0.017368321  0.015781599         1033 
 4561000   0.52659827   -7.2211519    949.83536  0.017354297  0.015776431         1048 
 4562000   0.51748884   -7.2442304     950.8589  0.017369189   0.01577127          980 
 4563000   0.52546415   -7.2386705    951.65895  0.017379994  0.015766106         1069 
 4564000   0.51737713   -7.2296375    950.28708  0.017351137  0.015760949          945 
 4565000   0.51503392   -7.2165383    951.53617  0.017370138  0.015755792          920 
 4566000   0.53657139   -7.2411906    951.40426  0.017363926  0.015750639          953 
 4567000   0.53495959   -7.2520335    950.88875  0.017350718  0.015745486         1012 
 4568000   0.52667038   -7.2156346    949.80656  0.017327177  0.015740333         1019 
 4569000   0.52432367   -7.2292974    949.63371  0.017320233  0.015735177         1035 
 4570000   0.52967246   -7.2245649    951.94063  0.017358509  0.015730021         1032 
 4571000   0.52578157   -7.2471879    950.53945  0.017329167  0.015724878         1065 
 4572000   0.51385003   -7.2235668      950.427  0.017323327  0.015719728         1080 
 4573000   0.52813336    -7.240241    949.60663  0.017304589   0.01571458         1083 
 4574000   0.51874036    -7.244065    949.31176  0.017295434  0.015709429         1118 
 4575000    0.5183436   -7.2399052    948.78902  0.017282132  0.015704283         1071 
 4576000    0.5226745   -7.2453526    949.12224  0.017284423   0.01569914         1145 
 4577000    0.5155956   -7.2440152    951.75216   0.01732853  0.015693988         1053 
 4578000   0.51296473   -7.2376889    949.30455  0.017280191  0.015688848         1101 
 4579000   0.51943778   -7.2339598     951.0512  0.017308204   0.01568371         1069 
 4580000   0.51274443   -7.2412822    951.48856  0.017312383  0.015678572         1097 
 4581000   0.51530541    -7.223398    951.24044   0.01730409   0.01567343          976 
 4582000   0.52618291   -7.2202459    951.66235  0.017307987  0.015668294         1039 
 4583000   0.52204324   -7.2431504    952.04845  0.017311231  0.015663159         1107 
 4584000   0.51935206    -7.254034    949.87637  0.017267968  0.015658022         1085 
 4585000   0.51505092   -7.2520223    948.62411  0.017241441  0.015652885         1073 
 4586000   0.52171655   -7.2402271    950.10112  0.017264521  0.015647747         1050 
 4587000   0.52855987   -7.2311938    950.30654  0.017264489   0.01564262         1032 
 4588000    0.5189595   -7.2560311    951.36227  0.017279902  0.015637495         1010 
 4589000   0.51316322   -7.2511314    948.35072  0.017221448  0.015632377         1070 
 4590000   0.51971791    -7.256045    948.51455  0.017220671  0.015627246         1040 
 4591000   0.52820339   -7.2533756    950.09124  0.017245539  0.015622122          990 
 4592000   0.51162322   -7.2348417    949.76845  0.017235926  0.015617004         1049 
 4593000   0.51502696   -7.2349437    949.95049  0.017235476  0.015611885         1050 
 4594000   0.51663883   -7.2442847    949.77983  0.017228628  0.015606764         1039 
 4595000   0.51772529   -7.2423177     949.5307  0.017220361  0.015601649         1085 
 4596000   0.52064579    -7.244231    950.20135  0.017228774  0.015596533         1002 
 4597000   0.50899642    -7.260238    950.15838  0.017224247  0.015591423         1076 
 4598000   0.52761216   -7.2524435     951.4692  0.017244258  0.015586315         1102 
 4599000   0.50970916   -7.2504832    949.47265  0.017204331   0.01558121         1062 
 4600000   0.51953714    -7.249999    950.00794  0.017210289  0.015576103         1115 
 4601000   0.50982654   -7.2428555    950.09896  0.017208197  0.015571002         1097 
 4602000   0.50973635   -7.2325723    948.41828  0.017174024    0.0155659          970 
 4603000   0.51855703   -7.2576526    949.67162  0.017192983  0.015560797         1108 
 4604000    0.5158187   -7.2552447    949.64327  0.017188736  0.015555697         1090 
 4605000   0.51595272   -7.2633523    949.76269  0.017187164  0.015550598         1104 
 4606000   0.52147796   -7.2526445    949.91183  0.017186131  0.015545497         1022 
 4607000   0.51069807    -7.252323    949.19341  0.017169405    0.0155404         1149 
 4608000   0.51248123    -7.262825    949.15925  0.017165062  0.015535311         1063 
 4609000   0.52331805   -7.2598639     949.3301  0.017164427  0.015530218          981 
 4610000   0.50776077   -7.2418996    950.45535  0.017181044  0.015525129         1008 
 4611000   0.50928688   -7.2617143    949.90094  0.017167298  0.015520041         1058 
 4612000   0.51793076   -7.2569666    952.01174  0.017201715  0.015514958         1127 
 4613000   0.50756618     -7.25111     949.1656  0.017146571  0.015509878         1118 
 4614000   0.52014542   -7.2528307    949.07512  0.017141221  0.015504801         1088 
 4615000    0.5155713   -7.2545675    948.13453  0.017120522  0.015499727         1037 
 4616000   0.51080379   -7.2534082    950.95692  0.017167766  0.015494657         1028 
 4617000   0.51803937   -7.2508378    949.95689  0.017145998  0.015489588         1112 
 4618000   0.49291528   -7.2756381    949.28986  0.017130249  0.015484515         1076 
 4619000   0.51792358   -7.2417337    950.42877  0.017147087  0.015479444         1043 
 4620000   0.51208769   -7.2474189    950.19357  0.017139134  0.015474378         1046 
 4621000   0.52030191   -7.2547213    948.70418  0.017108566  0.015469316         1017 
 4622000   0.51029599   -7.2502224    950.53121  0.017137805  0.015464254         1061 
 4623000   0.51040419   -7.2588847    948.06177  0.017089584  0.015459194         1012 
 4624000   0.50858729   -7.2598378    950.42256  0.017128434  0.015454135          983 
 4625000   0.51368197   -7.2539012     949.1256  0.017101362  0.015449078         1065 
 4626000   0.50741893   -7.2349157    950.02163  0.017113807  0.015444026         1073 
 4627000   0.52028221   -7.2778778    948.85346  0.017089069  0.015438976         1077 
 4628000   0.50795825   -7.2579027    951.34352  0.017130213  0.015433926         1131 
 4629000   0.50379651   -7.2603038    948.34403  0.017072514  0.015428874         1162 
 4630000   0.50850278   -7.2667144    949.18508  0.017083965  0.015423819         1059 
 4631000   0.50249541   -7.2511983    948.83752  0.017074021  0.015418777         1070 
 4632000   0.50498282   -7.2541933     951.3119  0.017114851  0.015413734         1050 
 4633000   0.50163897   -7.2407843    948.50377  0.017060648  0.015408693         1016 
 4634000    0.5129924   -7.2545278    950.10782  0.017085812  0.015403659         1049 
 4635000   0.51077505   -7.2662757     948.9636  0.017061553  0.015398619         1094 
 4636000   0.50983265   -7.2696359    948.55769  0.017050577  0.015393582         1033 
 4637000   0.50750143   -7.2497584    951.40491  0.017098068  0.015388549         1072 
 4638000   0.51232779   -7.2710952    948.69303  0.017045656  0.015383515         1002 
 4639000   0.49957539   -7.2531799    948.40487  0.017036805  0.015378485         1054 
 4640000   0.50166808   -7.2508913    949.28793  0.017048993  0.015373453         1023 
 4641000   0.50724179   -7.2457524    950.62025  0.017069242  0.015368424         1013 
 4642000   0.51539921    -7.258209    949.48096  0.017045113  0.015363408         1025 
 4643000   0.51047452   -7.2487672    949.68097  0.017045031  0.015358387         1037 
 4644000   0.51222193   -7.2410274    950.77245  0.017060947  0.015353374          987 
 4645000   0.51058075   -7.2551155    948.25691  0.017012144  0.015348363          975 
 4646000   0.51416014   -7.2553829    950.68038  0.017051951  0.015343359          970 
 4647000   0.50671708   -7.2525536    948.42786  0.017007888  0.015338351         1081 
 4648000   0.51298849   -7.2580078    950.24993  0.017036896  0.015333342         1045 
 4649000   0.50186819   -7.2569007    948.31393  0.016998529  0.015328334         1102 
 4650000   0.51354601   -7.2569589    948.21665   0.01699313  0.015323327         1090 
 4651000   0.50657712   -7.2626582    951.81527  0.017053954   0.01531833         1091 
 4652000   0.51136185   -7.2580417    948.52693  0.016991382  0.015313329         1004 
 4653000   0.50354072   -7.2557153    950.40638  0.017021391  0.015308331         1008 
 4654000   0.50364859   -7.2566251    947.04872  0.016957612  0.015303332         1126 
 4655000     0.499091   -7.2562243    950.06921  0.017008042  0.015298332         1032 
 4656000   0.50620061   -7.2460575    950.24408  0.017007519  0.015293329         1172 
 4657000   0.50219715    -7.266027    947.41256  0.016953199  0.015288336         1112 
 4658000   0.50214304   -7.2636224    947.61955  0.016953262  0.015283334         1097 
 4659000   0.50577695    -7.268307    950.01445   0.01699246  0.015278345         1060 
 4660000   0.50537537    -7.261472     948.5917  0.016963371  0.015273352         1158 
 4661000   0.50583923     -7.25878     947.8028  0.016945627  0.015268358         1065 
 4662000   0.51272285   -7.2887859    948.79238  0.016959681  0.015263367         1049 
 4663000   0.50301159   -7.2486516    950.45955  0.016985838   0.01525838         1115 
 4664000   0.51330126   -7.2575391    949.50816  0.016965197  0.015253399         1142 
 4665000   0.50678096     -7.25641      946.958  0.016916006   0.01524842         1119 
 4666000   0.50864616   -7.2769508    948.89853  0.016947038  0.015243439         1174 
 4667000   0.50207047   -7.2805187    948.29176  0.016932572  0.015238461         1129 
 4668000   0.50344193   -7.2627598    947.76877  0.016919608   0.01523348         1084 
 4669000   0.49896436   -7.2806799    950.50062  0.016964743  0.015228508         1130 
 4670000   0.50640882   -7.2840253    945.76428  0.016876593  0.015223533         1159 
 4671000   0.49823928   -7.2460209    949.45359    0.0169388  0.015218563         1176 
 4672000    0.5092131   -7.2664715    949.46735  0.016935419   0.01521359         1101 
 4673000   0.49812196   -7.2564091    947.90109  0.016903864  0.015208618         1178 
 4674000   0.49972519   -7.2711918    948.85917  0.016917329  0.015203647         1179 
 4675000   0.50662406   -7.2835341    948.00189  0.016898429  0.015198679         1177 
 4676000   0.51019018   -7.2653199    947.81841  0.016891546  0.015193714         1170 
 4677000   0.52217031   -7.2758313    947.89491  0.016889297  0.015188748         1220 
 4678000   0.51007131   -7.2842348    948.51749  0.016896777  0.015183784         1187 
 4679000   0.50790357   -7.2542202    949.80596  0.016916114  0.015178827         1157 
 4680000   0.49588168   -7.2676598    950.17513  0.016919073  0.015173879         1189 
 4681000   0.50264976   -7.2665739    948.22131  0.016880676  0.015168918         1169 
 4682000   0.50356114   -7.2763682    948.17559  0.016876256  0.015163968         1182 
 4683000   0.49947602   -7.2778949    948.75559  0.016882974  0.015159011         1294 
 4684000   0.49966582   -7.2782136    948.79119  0.016880003  0.015154055         1213 
 4685000   0.50962696   -7.2712189    949.80391  0.016894413  0.015149105         1172 
 4686000   0.50147106   -7.2691294     949.1073   0.01687842  0.015144156         1219 
 4687000   0.50422215   -7.2580244    949.02313  0.016873322  0.015139209         1134 
 4688000    0.5069149   -7.2876283    948.33286  0.016857453   0.01513426         1083 
 4689000   0.49244014   -7.2692713    947.75846  0.016843649  0.015129319         1107 
 4690000   0.50704779   -7.2792978    946.63304  0.016820061  0.015124373         1158 
 4691000   0.49642091   -7.2693655    948.14597  0.016843352  0.015119434         1180 
 4692000   0.49579865   -7.2845586    948.59756  0.016847783  0.015114494         1134 
 4693000   0.50988744   -7.2836043    949.50283  0.016860268  0.015109554         1178 
 4694000   0.50581107   -7.2717389    947.84873   0.01682731  0.015104617         1222 
 4695000    0.5106957    -7.268529      948.369  0.016832961  0.015099684         1225 
 4696000   0.50066456   -7.2881763    949.42979    0.0168482  0.015094751         1225 
 4697000   0.49494745    -7.276257    949.19509  0.016840449  0.015089818         1188 
 4698000   0.50663607   -7.2854056    948.27024   0.01682046  0.015084887         1216 
 4699000   0.51399146   -7.2664274    948.07964    0.0168135  0.015079962         1129 
 4700000   0.50828677    -7.292178    950.13436  0.016846354   0.01507504         1135 
 4701000   0.49496574   -7.2832378    949.93043  0.016839155  0.015070121         1134 
 4702000   0.49295694   -7.2934483    948.24989   0.01680579  0.015065202         1125 
 4703000   0.49697526   -7.2765136    948.91156  0.016813941  0.015060284         1060 
 4704000   0.49332325   -7.2919088    949.17604  0.016815052  0.015055371         1210 
 4705000   0.51492601    -7.270907    948.54831   0.01680036  0.015050461         1180 
 4706000   0.49638885   -7.2688686    948.00494  0.016787168  0.015045549         1121 
 4707000   0.50353692   -7.2774394    947.97877  0.016783138  0.015040642         1117 
 4708000    0.4952018   -7.2809003    947.15987  0.016765078  0.015035735         1187 
 4709000   0.49870988   -7.2886058    947.90301  0.016774669  0.015030828         1191 
 4710000   0.50129989   -7.2832044    947.18717  0.016758442  0.015025922         1122 
 4711000   0.48880731    -7.273123    948.95694  0.016786191  0.015021018         1207 
 4712000   0.49775972   -7.2790454    948.71054  0.016778271  0.015016116         1114 
 4713000   0.50049044   -7.2963145    947.66371  0.016756201  0.015011205         1189 
 4714000   0.49028064    -7.282408    948.32616  0.016764357  0.015006307         1237 
 4715000   0.49812746   -7.2981279     945.4922  0.016710714  0.015001407         1204 
 4716000   0.49156649   -7.2889116    947.44586  0.016741693  0.014996513         1194 
 4717000   0.49766746   -7.2852222    946.37138  0.016719161  0.014991622         1131 
 4718000   0.49877815   -7.2903393    948.47769  0.016752821  0.014986731         1182 
 4719000   0.50625509   -7.3076275    946.60254  0.016716157  0.014981837         1183 
 4720000    0.4965847   -7.2920987    947.98876   0.01673709  0.014976946         1159 
 4721000   0.49787168   -7.2742077     948.2723  0.016738549  0.014972058         1108 
 4722000   0.48742444   -7.2945555    947.78084  0.016726331  0.014967172         1198 
 4723000   0.50168704   -7.3058634    948.97719  0.016743898  0.014962291         1114 
 4724000   0.49142274   -7.2891158    947.52766  0.016714784  0.014957408         1205 
 4725000   0.49326212   -7.2671732    948.98292  0.016736912   0.01495253         1142 
 4726000   0.50930252   -7.3027854    946.41694  0.016688125  0.014947652         1237 
 4727000   0.49736625   -7.2874175    948.35261  0.016718719  0.014942779         1194 
 4728000   0.49656536   -7.2915437    947.73866  0.016704362  0.014937908         1165 
 4729000   0.49765541   -7.2854682    947.43622    0.0166955  0.014933041         1176 
 4730000   0.48831544   -7.2842997    948.50646  0.016710826  0.014928176         1168 
 4731000   0.49931761   -7.2829797    948.47465  0.016706733  0.014923313         1243 
 4732000   0.50432845   -7.2644646    946.79129  0.016673558  0.014918443         1266 
 4733000   0.50052955   -7.3015455    947.85735  0.016688805  0.014913582         1192 
 4734000   0.50125358   -7.2817146    948.28668  0.016692837  0.014908719         1165 
 4735000   0.48509609   -7.2790121     949.4836  0.016710377   0.01490386         1236 
 4736000    0.4916238   -7.3024249    947.22244  0.016667061  0.014898998         1244 
 4737000   0.50196897   -7.2913374    947.80132  0.016673727  0.014894138         1125 
 4738000   0.49217742   -7.2863354    947.72094  0.016668794  0.014889283         1200 
 4739000   0.50228268   -7.2885906    947.95758  0.016669438  0.014884432         1252 
 4740000   0.47954307   -7.2840733     947.5475  0.016658711  0.014879581         1151 
 4741000   0.48919435   -7.2862698    948.86799  0.016678408  0.014874727         1278 
 4742000   0.48641878   -7.2988409    947.05346  0.016643003  0.014869874         1263 
 4743000   0.49099313   -7.2885223    946.27743   0.01662586  0.014865022         1239 
 4744000   0.48888345   -7.2898647    948.30787  0.016658022  0.014860174         1254 
 4745000   0.49642089   -7.2878353    946.73475  0.016626884  0.014855331         1173 
 4746000   0.47833154   -7.3016923    948.50798  0.016654516  0.014850494         1225 
 4747000   0.48613818   -7.2822515    946.57846  0.016617135  0.014845654         1155 
 4748000   0.49219566   -7.2956596    947.28149  0.016625974  0.014840821         1202 
 4749000   0.49390712   -7.3056488    948.28939  0.016640159  0.014835986         1188 
 4750000   0.49499127   -7.3024076    947.88516  0.016629564  0.014831154         1266 
 4751000     0.494953   -7.2872478    946.93813  0.016609453  0.014826323         1185 
 4752000   0.48441216   -7.3083647    947.62421  0.016617989  0.014821492         1172 
 4753000   0.49670983   -7.3111937    947.67741  0.016615425  0.014816667         1250 
 4754000   0.49443797   -7.2852418    946.10659  0.016584395  0.014811837         1281 
 4755000   0.48061281    -7.298828    946.59134  0.016589403  0.014807013         1285 
 4756000   0.50476974   -7.2882838    948.31965  0.016616198  0.014802192         1234 
 4757000   0.49315407   -7.3015563    945.15555  0.016557276  0.014797375         1251 
 4758000   0.48721421   -7.2906569    947.09043  0.016587684  0.014792555         1231 
 4759000   0.49440901   -7.2950189    945.04779  0.016548431  0.014787738         1242 
 4760000   0.49075427   -7.2872096     947.8764  0.016594475  0.014782926         1168 
 4761000   0.49285094   -7.2876289    947.47584  0.016583978  0.014778106         1150 
 4762000   0.48534068   -7.3031345    947.90228  0.016587958  0.014773293         1314 
 4763000   0.49224287   -7.2999194    948.08518  0.016587675  0.014768483         1264 
 4764000   0.48622521   -7.2983848    946.06279  0.016548817  0.014763669         1296 
 4765000   0.50642813   -7.2955354    948.78485   0.01659295  0.014758863         1206 
 4766000   0.49319639   -7.2955047    946.82347  0.016555173  0.014754054         1259 
 4767000   0.49318024    -7.294709    945.79006  0.016533635  0.014749247         1293 
 4768000    0.4773435   -7.3021256    946.85924  0.016548854  0.014744443         1266 
 4769000   0.49385347   -7.2969046    947.50378  0.016556647  0.014739643         1109 
 4770000     0.493651   -7.2891224    947.12475  0.016546554  0.014734845         1252 
 4771000   0.49652403   -7.2871132    947.06872  0.016542107  0.014730051         1270 
 4772000   0.49305315   -7.2960405    946.76832  0.016533395  0.014725254         1281 
 4773000   0.48987302   -7.3119562    946.74362    0.0165295  0.014720459         1263 
 4774000   0.49386606    -7.283288    947.66436  0.016542109  0.014715668         1236 
 4775000   0.48576123   -7.2900901    948.66277  0.016556069  0.014710881         1166 
 4776000   0.47632804   -7.2864932    947.44235  0.016531309  0.014706095         1159 
 4777000   0.48509973   -7.2910539     945.1659  0.016488136  0.014701306         1138 
 4778000   0.49701685   -7.3132438    946.65459  0.016510649  0.014696521         1227 
 4779000    0.4802449   -7.3083997    947.88129  0.016528585  0.014691738         1163 
 4780000   0.49352867   -7.3020905    948.07083  0.016528431  0.014686957         1219 
 4781000   0.47583737   -7.2925065    945.82519  0.016485833  0.014682184         1209 
 4782000   0.47323127   -7.3024277    946.94775  0.016501947  0.014677405         1235 
 4783000   0.49245552    -7.304821    945.36154  0.016470861  0.014672629         1215 
 4784000   0.47896829   -7.2856434    947.28003  0.016500837  0.014667856         1217 
 4785000   0.48625423   -7.2970906    946.80023  0.016489032  0.014663088         1272 
 4786000   0.48192039   -7.2919328     946.0397  0.016472345  0.014658321         1200 
 4787000   0.49041568   -7.2972669    947.69953  0.016497798  0.014653553         1186 
 4788000   0.47661645   -7.3175778    947.50163  0.016490908  0.014648788         1284 
 4789000   0.48621358   -7.2969051    946.67841   0.01647314  0.014644032         1181 
 4790000   0.48918651   -7.2987293    948.01459  0.016492947   0.01463927         1239 
 4791000   0.49165997   -7.2972791    946.57229  0.016464417  0.014634508         1194 
 4792000   0.48898092    -7.315575    947.63253  0.016479419  0.014629752         1188 
 4793000    0.4768391   -7.3031702    945.52328  0.016439309  0.014625003         1207 
 4794000   0.49074204   -7.3013089     947.5568  0.016471228  0.014620249         1204 
 4795000   0.48019667   -7.3006018    946.63443  0.016451763  0.014615505         1192 
 4796000   0.47865978   -7.3017523    948.14111  0.016474512  0.014610763         1182 
 4797000   0.48689813   -7.2924442    946.29096  0.016438937  0.014606018         1185 
 4798000   0.46947281   -7.2784097    946.84805  0.016445186  0.014601275         1168 
 4799000   0.48186502   -7.3043666    946.14686  0.016429584  0.014596541         1188 
 4800000   0.48111263   -7.2915055    948.11499   0.01646033  0.014591803         1157 
 4801000   0.47712885   -7.2863597    947.87049  0.016452657   0.01458707         1253 
 4802000   0.48548543    -7.293771    947.10662  0.016435975  0.014582341         1304 
 4803000   0.49177116   -7.3001368    946.97953  0.016430348  0.014577607         1229 
 4804000    0.4897021   -7.3017104    946.14404  0.016412435  0.014572877         1264 
 4805000    0.4842987   -7.3115026    947.50356  0.016432597  0.014568148         1175 
 4806000   0.48861515   -7.2939094    946.27471  0.016407871  0.014563419         1277 
 4807000   0.48258661   -7.3015572     947.5196  0.016426038  0.014558689         1221 
 4808000   0.47711075   -7.2963113    948.10292  0.016432732  0.014553963         1233 
 4809000   0.47194353   -7.3161364    946.58136  0.016402949   0.01454924         1208 
 4810000   0.47494241   -7.2986559    946.09164  0.016391054   0.01454452         1190 
 4811000   0.49372537   -7.3108803    946.69338   0.01639807  0.014539802         1169 
 4812000   0.48993317   -7.3018717    947.70303  0.016412147  0.014535086         1158 
 4813000   0.47482592   -7.3150237    948.88691  0.016429235  0.014530372         1170 
 4814000   0.48015444   -7.2970928    946.07758  0.016377191  0.014525657         1211 
 4815000   0.48080551   -7.3036019    946.92473  0.016388452  0.014520955         1166 
 4816000   0.47561722   -7.3121909    946.26272  0.016373594  0.014516245         1225 
 4817000   0.48172292   -7.3120006    943.47734  0.016322008  0.014511533         1223 
 4818000   0.47504238   -7.3073724    945.98978  0.016362076  0.014506825         1245 
 4819000   0.48546064   -7.3130761    947.76769  0.016389425  0.014502117         1238 
 4820000   0.49882825   -7.3067347    945.78583   0.01635176  0.014497419         1247 
 4821000   0.47756341   -7.2824941    947.27794  0.016374161   0.01449272         1176 
 4822000   0.48451835   -7.3120586    946.39567  0.016355518  0.014488023         1129 
 4823000   0.47819299   -7.3225971    947.35907  0.016368772  0.014483329         1183 
 4824000   0.47718382   -7.2984926    946.68607  0.016353753  0.014478634         1102 
 4825000   0.47094157    -7.304818    949.20471  0.016393864  0.014473945         1187 
 4826000   0.47344733   -7.3092379    946.45922  0.016343059  0.014469257         1162 
 4827000   0.47604847   -7.3075991    945.70805  0.016326705  0.014464566         1131 
 4828000   0.47725583   -7.3116702    946.48095  0.016336664  0.014459869         1168 
 4829000   0.46755216     -7.30321    945.61152  0.016318277  0.014455185         1108 
 4830000   0.48692726   -7.3159946    945.66236  0.016315776  0.014450499         1147 
 4831000   0.48043963   -7.3105226    945.65482  0.016312268  0.014445813         1119 
 4832000   0.48406993   -7.3074453    947.26139  0.016336599   0.01444113         1165 
 4833000   0.46486063   -7.3118514    947.06434  0.016329822   0.01443645         1179 
 4834000   0.47652745   -7.3091013    944.43683  0.016281148  0.014431771         1119 
 4835000   0.47584077   -7.3105318    946.52413  0.016313756  0.014427089         1175 
 4836000   0.47611119   -7.3086629    945.45581  0.016291974  0.014422413         1187 
 4837000   0.47912543   -7.3037932     945.7504  0.016293681  0.014417739         1204 
 4838000   0.48638897   -7.3082256    946.82936  0.016308898  0.014413068         1131 
 4839000   0.47513515   -7.3091179    946.82238  0.016305407  0.014408393         1156 
 4840000   0.47615188   -7.3179825    945.33582  0.016276443  0.014403721         1257 
 4841000   0.46815838   -7.2993878    946.18429  0.016287687  0.014399051         1146 
 4842000    0.4724004    -7.318335    948.52917  0.016324679  0.014394384         1149 
 4843000   0.47481396   -7.3117499    945.19275  0.016263899  0.014389716         1160 
 4844000   0.47388502    -7.328064    946.19916  0.016277855  0.014385052         1154 
 4845000   0.46802367   -7.3178701    946.35512  0.016277178  0.014380396         1280 
 4846000   0.47528134   -7.3132468    945.61462  0.016261085  0.014375734         1175 
 4847000   0.47254151   -7.3116847    945.55065   0.01625663  0.014371074         1119 
 4848000   0.47548629   -7.3133156     947.0059  0.016278292  0.014366426         1129 
 4849000   0.47825906   -7.3126166    946.66275  0.016269037  0.014361772         1146 
 4850000   0.48182175   -7.3039002    944.95267    0.0162363  0.014357114         1152 
 4851000   0.48150375   -7.3064212     945.3872  0.016240418  0.014352465         1216 
 4852000   0.47352905   -7.3334604    946.48142  0.016255864  0.014347814         1203 
 4853000    0.4663021    -7.318831    945.64042  0.016238073  0.014343164         1178 
 4854000   0.47290949   -7.3262318    944.83125  0.016220836  0.014338514         1176 
 4855000   0.47733642   -7.3190284    946.54148   0.01624685  0.014333873         1200 
 4856000   0.47521083    -7.310485    946.55332  0.016243707  0.014329232         1194 
 4857000   0.46913198   -7.3203823    945.65027  0.016224869  0.014324586         1233 
 4858000   0.47987214    -7.335942    945.28309  0.016215231  0.014319946         1178 
 4859000   0.47733729   -7.3201743    945.25451  0.016211403  0.014315307         1203 
 4860000   0.46633528   -7.3171095    946.20018  0.016224283   0.01431067         1271 
 4861000   0.46705178   -7.3189327    945.94816  0.016216625  0.014306037         1255 
 4862000   0.47798499   -7.3074438    946.38849  0.016220837  0.014301402         1117 
 4863000   0.48917816   -7.3311226    945.08391  0.016195146  0.014296771         1194 
 4864000   0.46836667   -7.3111827    946.36601  0.016213782  0.014292142         1180 
 4865000   0.48037328   -7.3178707    947.07789  0.016222643  0.014287513         1178 
 4866000   0.48688809   -7.3273269    944.75761  0.016179573  0.014282886         1258 
 4867000   0.46461018    -7.310633    945.65955  0.016191691  0.014278262         1223 
 4868000   0.48053519   -7.3298519    944.58695  0.016170004  0.014273636         1230 
 4869000     0.463468   -7.3142259    945.46139  0.016181649  0.014269016         1177 
 4870000   0.47438637   -7.3229956    945.20092  0.016173869  0.014264399         1257 
 4871000   0.46796413    -7.316429    945.39603  0.016173887  0.014259779         1169 
 4872000   0.47953176   -7.3277161    945.20329   0.01616727  0.014255161         1188 
 4873000   0.46573696   -7.3260346    945.98751  0.016177364  0.014250546         1285 
 4874000   0.47225221   -7.3255472    946.33523   0.01617999  0.014245931         1161 
 4875000   0.47987229   -7.3273211    944.75975  0.016149739   0.01424132         1190 
 4876000   0.47422064   -7.3323864    943.83029  0.016130542  0.014236714         1196 
 4877000   0.47852652   -7.3192413     944.6988  0.016142075  0.014232111         1116 
 4878000   0.46844713   -7.3308105    946.49236  0.016169406  0.014227507         1223 
 4879000   0.47881573   -7.3275518    945.38818  0.016147233  0.014222905         1191 
 4880000   0.47311279   -7.3042071    944.58519  0.016130212  0.014218303         1213 
 4881000   0.46185276   -7.3173183    945.47128  0.016142035  0.014213705         1195 
 4882000    0.4746167   -7.3161303    946.97312  0.016164364  0.014209104         1255 
 4883000   0.47229266   -7.3388951    946.07791  0.016145776  0.014204506         1208 
 4884000   0.47751753   -7.3261267    944.85119   0.01612154   0.01419991         1144 
 4885000   0.45157508   -7.3187819    945.05395  0.016121698  0.014195322         1244 
 4886000    0.4657174   -7.3162275    945.08676  0.016118958  0.014190725         1181 
 4887000   0.46085803    -7.328986    945.42646  0.016121453  0.014186135         1177 
 4888000   0.47214434   -7.3156158    945.93865  0.016126886  0.014181547         1195 
 4889000   0.46514718   -7.3193852    945.17541  0.016110578  0.014176963         1216 
 4890000    0.4721847   -7.3412391    944.79646  0.016100826  0.014172373         1227 
 4891000   0.47380238   -7.3177784    944.57006  0.016093677  0.014167791         1285 
 4892000      0.46079   -7.3197925    945.79419  0.016111239  0.014163208         1273 
 4893000   0.47899992   -7.3310261    945.11924  0.016096451  0.014158631         1288 
 4894000   0.47116321   -7.3233291    943.59382  0.016067188  0.014154053         1264 
 4895000   0.46564633   -7.3368575     945.4216  0.016095022  0.014149474         1268 
 4896000   0.46812567   -7.3321996    945.71231  0.016096683  0.014144905         1279 
 4897000   0.46912411   -7.3427053    944.65915  0.016075474  0.014140336         1257 
 4898000   0.46585351   -7.3315381    943.15854  0.016046661  0.014135769         1228 
 4899000   0.46615143   -7.3210382    945.28046   0.01607948  0.014131201         1200 
 4900000   0.46542387    -7.347403    945.45274  0.016079128  0.014126633         1195 
 4901000   0.47559458   -7.3224527     945.8715  0.016082968  0.014122071         1207 
 4902000   0.45980009   -7.3339786    944.61715  0.016058363  0.014117507         1256 
 4903000   0.46684602   -7.3291445    945.49208  0.016069959  0.014112946         1177 
 4904000   0.46588475   -7.3378042    944.74832  0.016054043  0.014108387         1228 
 4905000   0.47550428   -7.3211115     945.9626    0.0160714  0.014103831         1178 
 4906000   0.46955247   -7.3252227    944.92948  0.016050576  0.014099274         1236 
 4907000    0.4680464    -7.337731    945.60537  0.016058783  0.014094717         1215 
 4908000   0.46478003   -7.3335529    944.78055  0.016041506  0.014090165         1223 
 4909000   0.45881827   -7.3154889    944.51508  0.016033732  0.014085612         1177 
 4910000   0.46120193   -7.3313338     944.1703  0.016024615  0.014081066         1144 
 4911000   0.46698523   -7.3285704    944.53961  0.016027618  0.014076521         1132 
 4912000   0.46938003   -7.3291092    944.46783  0.016023138  0.014071973         1179 
 4913000   0.46775102   -7.3290307     946.5304  0.016054861  0.014067431         1187 
 4914000   0.46860496   -7.3174962    945.09735  0.016027292  0.014062887         1180 
 4915000   0.46822483   -7.3357163    945.54037  0.016031542  0.014058349         1223 
 4916000   0.46806476   -7.3328001    944.80165  0.016015759  0.014053811         1210 
 4917000   0.46413457   -7.3364375    944.13979  0.016001284  0.014049273         1270 
 4918000   0.46666825   -7.3448262    943.46522  0.015986601  0.014044737         1283 
 4919000   0.46911747   -7.3447364    944.93639  0.016008274  0.014040203         1139 
 4920000   0.46698446    -7.339677    944.27898  0.015993885  0.014035668         1254 
 4921000   0.46444152   -7.3406667    945.29016  0.016007759   0.01403114         1185 
 4922000   0.44771256   -7.3256886    943.65366  0.015976799  0.014026614         1254 
 4923000   0.46000852   -7.3432692    943.02448  0.015962903  0.014022081         1249 
 4924000   0.46898029   -7.3416546    944.99667  0.015993039  0.014017554         1207 
 4925000   0.45658983   -7.3452581    943.97047  0.015972428  0.014013032         1311 
 4926000   0.46643764   -7.3459245     944.3489  0.015975587  0.014008511         1263 
 4927000   0.45991312   -7.3371736    945.98988  0.016000099  0.014003997         1246 
 4928000   0.46955659   -7.3289752     943.7683  0.015959285  0.013999483         1273 
 4929000   0.45869398    -7.337157    944.09821  0.015961625  0.013994972         1251 
 4930000    0.4554311   -7.3382441    945.34041  0.015979385   0.01399046         1257 
 4931000   0.46599891   -7.3322014    944.37523  0.015959833   0.01398595         1230 
 4932000   0.46124868   -7.3416353    944.72595  0.015962523  0.013981445         1213 
 4933000   0.46494226   -7.3240012    945.83581  0.015978036  0.013976946         1190 
 4934000   0.45266131   -7.3450113    945.82334  0.015974587  0.013972447         1206 
 4935000   0.47193013   -7.3517904     943.5397  0.015932788  0.013967941         1227 
 4936000   0.45845608   -7.3356412    945.46191  0.015962012   0.01396344         1198 
 4937000   0.46346934   -7.3480553    945.57757  0.015960731  0.013958934         1241 
 4938000   0.45857356   -7.3389686    942.27327  0.015901736  0.013954436         1188 
 4939000   0.45471425   -7.3532128    944.62158  0.015938138  0.013949935         1239 
 4940000   0.45240591    -7.342023    943.46815  0.015915455  0.013945439         1238 
 4941000    0.4513942   -7.3507517    943.78993  0.015917661  0.013940944         1217 
 4942000   0.46357777    -7.348017    942.39022  0.015890837   0.01393645         1328 
 4943000   0.46464594   -7.3449756    944.37619  0.015921104  0.013931959         1280 
 4944000   0.47156921   -7.3492663     944.4299  0.015918789  0.013927468         1322 
 4945000   0.46440353   -7.3502394    944.25254  0.015912581  0.013922975         1225 
 4946000   0.45833517   -7.3420645    943.53291  0.015897239  0.013918488         1286 
 4947000   0.46475734   -7.3555076    945.46176  0.015926517  0.013914003         1348 
 4948000   0.45894196   -7.3327637    943.66827  0.015893093  0.013909521         1319 
 4949000   0.45875026   -7.3483221    945.38189  0.015918736  0.013905041         1279 
 4950000   0.45770504   -7.3374227    944.39408   0.01589889  0.013900559         1287 
 4951000   0.46164543   -7.3488006    943.74874  0.015884817   0.01389608         1364 
 4952000   0.46410806   -7.3264033    943.97649  0.015885442  0.013891608         1282 
 4953000   0.46827072   -7.3561813    944.80981  0.015896255  0.013887136         1269 
 4954000    0.4538183   -7.3328973    943.29315  0.015867534  0.013882667         1351 
 4955000   0.45627555   -7.3394117     945.6883  0.015904613  0.013878199         1285 
 4956000   0.45767804   -7.3537643    943.98707  0.015872799  0.013873732         1300 
 4957000   0.45389032   -7.3442467    944.59184  0.015879763  0.013869268         1327 
 4958000    0.4662519   -7.3402345    943.35728   0.01585581  0.013864804         1260 
 4959000   0.46373694   -7.3388605    944.89687  0.015878485  0.013860339         1259 
 4960000   0.44542689   -7.3383028    943.94309  0.015859259  0.013855878         1214 
 4961000   0.45509413   -7.3525044    942.29742  0.015828419  0.013851415         1311 
 4962000   0.46664244    -7.346182    944.55074  0.015863072  0.013846954         1215 
 4963000   0.46084196   -7.3471426    943.58094  0.015843592  0.013842497         1280 
 4964000   0.46460296   -7.3487085    944.38537  0.015853904  0.013838044         1255 
 4965000   0.44881205   -7.3516745    944.41586  0.015851223  0.013833591         1309 
 4966000   0.45398468   -7.3603832     943.3455   0.01583007  0.013829136         1217 
 4967000   0.45998337    -7.328678    944.41066  0.015844753  0.013824688         1258 
 4968000   0.45776455   -7.3315497    945.44336  0.015858886  0.013820242         1308 
 4969000   0.45581836   -7.3466874    944.91105  0.015846767  0.013815795         1312 
 4970000   0.45569898   -7.3312425    942.87866  0.015809501  0.013811348         1307 
 4971000    0.4511662   -7.3517026    942.63468  0.015802231  0.013806902         1303 
 4972000    0.4586274   -7.3532013    943.60973  0.015815395  0.013802461         1268 
 4973000   0.44746431   -7.3552347    944.06536   0.01581985  0.013798019         1350 
 4974000   0.45848861   -7.3442774    943.71772  0.015810845  0.013793575         1290 
 4975000    0.4395761   -7.3485321    942.92844  0.015794446   0.01378914         1370 
 4976000   0.45024128   -7.3553824    943.98707  0.015809001  0.013784706         1365 
 4977000    0.4462058    -7.352288    944.82067  0.015819782  0.013780275         1349 
 4978000    0.4525892   -7.3570352    943.37344  0.015792377  0.013775843         1366 
 4979000   0.44641969   -7.3511253    943.42897  0.015790135  0.013771415         1274 
 4980000   0.43950482   -7.3592607    944.68492  0.015807981  0.013766985         1317 
 4981000   0.46291367   -7.3505222     943.3868  0.015783089  0.013762559         1339 
 4982000   0.46285424    -7.345147    943.63157  0.015784015  0.013758133         1364 
 4983000   0.45295538   -7.3599745    944.95651  0.015803005  0.013753706         1288 
 4984000   0.45483312   -7.3624265    943.70299  0.015778876  0.013749283         1324 
 4985000   0.45333553   -7.3499095    943.02493  0.015764375  0.013744868         1349 
 4986000   0.45864207   -7.3480049    944.29151  0.015782383  0.013740449         1377 
 4987000   0.44911851   -7.3543116    944.00527  0.015774435  0.013736034         1405 
 4988000   0.45035143   -7.3402164    942.30313  0.015742835  0.013731621         1325 
 4989000   0.45779741   -7.3579152    943.79149   0.01576454  0.013727211         1365 
 4990000   0.45709968   -7.3493027    941.48322  0.015722833  0.013722802         1240 
 4991000   0.45561374    -7.343686    944.72778  0.015773856  0.013718393         1249 
 4992000   0.45538122   -7.3462219    944.21317  0.015762106  0.013713987         1306 
 4993000   0.45976844   -7.3450785    944.72669  0.015767519  0.013709584         1325 
 4994000   0.45900729   -7.3549147    943.89691  0.015750516  0.013705182         1343 
 4995000   0.45046182    -7.366338    944.69619  0.015760697  0.013700783         1368 
 4996000    0.4563933   -7.3628088    941.81007  0.015709402  0.013696384         1311 
 4997000   0.44985298    -7.358562    944.93377  0.015758351  0.013691989         1291 
 4998000   0.45176583   -7.3587162    942.26727  0.015710739  0.013687595         1319 
 4999000   0.45806608   -7.3413246    942.74804   0.01571561  0.013683199         1283 
 5000000    0.4408003   -7.3418861     944.1279  0.015735465  0.013678809         1284 
 5001000   0.46672684   -7.3541322    942.63442  0.015707432  0.013674425         1305 
 5002000   0.46004533   -7.3793656    943.34115  0.015716066  0.013670034         1308 
 5003000   0.46005964   -7.3488925    943.91531  0.015722488  0.013665652         1236 
 5004000   0.45908368   -7.3581069    944.39159  0.015727278   0.01366127         1321 
 5005000   0.45016468   -7.3741993    943.88533  0.015715706  0.013656888         1284 
 5006000   0.44252242    -7.361657    944.82826  0.015728264  0.013652509         1180 
 5007000   0.44487971   -7.3563228    942.56004  0.015687372  0.013648127         1306 
 5008000   0.45205601   -7.3460536    944.72304  0.015720232  0.013643749         1324 
 5009000   0.45116367    -7.336655    944.19751   0.01570835  0.013639373         1258 
 5010000   0.45208624    -7.346873    942.44035  0.015675987  0.013634997         1314 
 5011000   0.44544255   -7.3534363    943.78586  0.015695235  0.013630626         1207 
 5012000   0.44442839   -7.3589819    943.08498   0.01568045   0.01362625         1257 
Loop time of 12918.7 on 48 procs for 5000000 steps with 4000 atoms

Performance: 66880.032 tau/day, 387.037 timesteps/s
99.4% CPU use with 48 MPI tasks x no OpenMP threads

MPI task timing breakdown:
Section |  min time  |  avg time  |  max time  |%varavg| %total
---------------------------------------------------------------
Pair    | 922.71     | 1034.9     | 1111.5     | 123.8 |  8.01
Neigh   | 90.274     | 93.459     | 96.63      |  16.0 |  0.72
Comm    | 839.35     | 914.87     | 1036.1     | 132.6 |  7.08
Output  | 17.183     | 17.187     | 17.271     |   0.3 |  0.13
Modify  | 10705      | 10739      | 10765      |  15.4 | 83.12
Other   |            | 119.6      |            |       |  0.93

Nlocal:        83.3333 ave          89 max          77 min
Histogram: 3 2 3 6 4 15 5 5 1 4
Nghost:        2417.65 ave        2439 max        2395 min
Histogram: 1 4 6 2 7 12 5 3 5 3
Neighs:        16748.9 ave       19636 max       14205 min
Histogram: 3 3 6 9 8 3 6 7 1 2
FullNghs:      33496.3 ave       36203 max       30750 min
Histogram: 1 3 6 5 6 13 5 5 2 2

Total # of neighbors = 1607824
Ave neighs/atom = 401.95600
Neighbor list builds = 267571
Dangerous builds = 2

#clear
#
#next RN
#
#jump SELF
Total wall time: 3:35:22
