
units lj                  # Use reduced LJ style units
atom_style atomic         # Uncharged point particles
atom_modify map hash      # Needed for indexing of clusters etc
                          # Used to be able to find where atoms are in relation to each other.

lattice fcc 1.0 spacing 1 1 1
Lattice spacing in x,y,z = 1.5874011 1.5874011 1.5874011
region box block 0 10 0 10 0 10 units lattice
create_box 2 box
Created orthogonal box = (0.0000000 0.0000000 0.0000000) to (15.874011 15.874011 15.874011)
  3 by 4 by 4 MPI processor grid
create_atoms 1 box
Created 4000 atoms
  using lattice units in orthogonal box = (0.0000000 0.0000000 0.0000000) to (15.874011 15.874011 15.874011)
  create_atoms CPU = 0.026 seconds
set type 1 type/fraction 2 0.93 78393
Setting atom values ...
  3709 settings made for type/fraction
mass 1 1.0
mass 2 1.0
pair_style lj/cut  3.5
pair_modify tail  yes
pair_coeff 1  1  1.0  1.0   # Intearaction between 1 and 1 set with epsilon = 1 and sigma = 1
pair_coeff 1  2  1.5  0.8
pair_coeff 2  2  0.5  0.88

write_data data.0
System init for write_data ...
Neighbor list info ...
  update every 1 steps, delay 10 steps, check yes
  max neighbors/atom: 2000, page size: 100000
  master list distance cutoff = 3.8
  ghost atom cutoff = 3.8
  binsize = 1.9, bins = 9 9 9
  1 neighbor lists, perpetual/occasional/extra = 1 0 0
  (1) pair lj/cut, perpetual
      attributes: half, newton on
      pair build: half/bin/atomonly/newton
      stencil: half/bin/3d
      bin: standard
WARNING: Not all mixed pair coeffs generated from mixing. Use write_data with 'pair ij' option to store all pair coeffs. (../write_data.cpp:312)


#############################
#   M E L T   S Y S T E M   #
#############################

velocity all create 2.4 6583654 mom yes dist gaussian # Assign velocities
                                                    # Temperature 2.4, random number seed, zero linear momentum
                                                                                # Gaussian distribution

timestep 0.002   # simulation timestep
thermo 1000       # output thermodynamic data every 1000 steps bf 100

# Define a fix  in this case with index 1 applied to all
# particles in the simulation. This fix is for simulations
# in the anisotropic NPT ensemble. Note that we use the MTK
# correction.
fix 1 all npt temp 2.4 2.4 0.1 iso 5.68 5.68 0.5 mtk yes tchain 5 pchain 5 # Use NPT ensemble
                                                                         # Set temperature and pressure and damping
                                                                         # Numbers of thermostats in chain and in barostat
run 10000          # run for 10000 steps
Per MPI rank memory allocation (min/avg/max) = 3.642 | 3.644 | 3.648 Mbytes
Step Temp E_pair E_mol TotEng Press Volume 
       0          2.4   -3.0493222            0   0.54977785   -2.3496824         4000 
    1000    2.4516279   -1.9784421            0    1.6980805     5.776766     4086.103 
    2000    2.3900197   -1.9821207            0    1.6020126    5.6613424    4089.2599 
    3000    2.3473589   -2.0124506            0    1.5077074    5.4508117    4096.0976 
    4000    2.4027636   -1.9689996            0    1.6342448    5.8360056    4074.0096 
    5000     2.417234     -2.00506            0    1.6198846    5.6264499    4083.8722 
    6000    2.3859318   -1.9464416            0    1.6315613    5.8005712    4109.3692 
    7000    2.3971122   -2.0156801            0    1.5790892    5.7522632    4043.0963 
    8000    2.3697316   -1.9633993            0    1.5903093    5.7036546    4101.1776 
    9000    2.4114466   -1.9965084            0    1.6197572    5.9096166    4054.2842 
   10000    2.3816651   -1.9942859            0    1.5773186    5.4263952      4136.14 
Loop time of 2.49209 on 48 procs for 10000 steps with 4000 atoms

Performance: 693394.010 tau/day, 4012.697 timesteps/s
99.6% CPU use with 48 MPI tasks x no OpenMP threads

MPI task timing breakdown:
Section |  min time  |  avg time  |  max time  |%varavg| %total
---------------------------------------------------------------
Pair    | 1.086      | 1.1499     | 1.3003     |   3.6 | 46.14
Neigh   | 0.20743    | 0.21593    | 0.24645    |   1.6 |  8.66
Comm    | 0.69165    | 0.85124    | 0.91387    |   5.0 | 34.16
Output  | 0.00025131 | 0.0002574  | 0.00033    |   0.0 |  0.01
Modify  | 0.22543    | 0.25922    | 0.31794    |   5.1 | 10.40
Other   |            | 0.01552    |            |       |  0.62

Nlocal:        83.3333 ave          95 max          68 min
Histogram: 1 1 2 5 6 11 9 7 5 1
Nghost:        1605.94 ave        1636 max        1572 min
Histogram: 2 2 8 5 5 4 11 4 2 5
Neighs:        9230.85 ave       11188 max        7343 min
Histogram: 1 2 5 4 13 7 12 2 1 1

Total # of neighbors = 443081
Ave neighs/atom = 110.77025
Neighbor list builds = 906
Dangerous builds = 201

# Equilibrate just above the melting temperature to avoid step fn in T

fix 1 all npt temp 1.25 1.25 0.1 iso 5.68 5.68 0.5 mtk yes tchain 5 pchain 5
run 2000
Per MPI rank memory allocation (min/avg/max) = 3.643 | 3.645 | 3.649 Mbytes
Step Temp E_pair E_mol TotEng Press Volume 
   10000    2.3816651   -1.9942859            0    1.5773186    5.4263952      4136.14 
   11000    1.2221743   -2.9666919            0   -1.1338888    5.6859297    3189.7617 
   12000    1.2246937   -2.9853596            0   -1.1487783    5.6032512    3182.2683 
Loop time of 0.595767 on 48 procs for 2000 steps with 4000 atoms

Performance: 580092.814 tau/day, 3357.019 timesteps/s
99.6% CPU use with 48 MPI tasks x no OpenMP threads

MPI task timing breakdown:
Section |  min time  |  avg time  |  max time  |%varavg| %total
---------------------------------------------------------------
Pair    | 0.27008    | 0.29067    | 0.32313    |   2.1 | 48.79
Neigh   | 0.0395     | 0.041946   | 0.045123   |   0.6 |  7.04
Comm    | 0.17824    | 0.21403    | 0.23831    |   2.9 | 35.92
Output  | 5.5344e-05 | 5.6414e-05 | 7.1401e-05 |   0.0 |  0.01
Modify  | 0.039596   | 0.044295   | 0.048205   |   1.2 |  7.43
Other   |            | 0.004778   |            |       |  0.80

Nlocal:        83.3333 ave          94 max          72 min
Histogram: 1 2 5 4 7 17 4 2 5 1
Nghost:        1916.33 ave        1947 max        1876 min
Histogram: 1 0 2 6 8 7 15 5 1 3
Neighs:        12020.0 ave       14047 max       10500 min
Histogram: 3 5 4 10 10 6 6 1 1 2

Total # of neighbors = 576958
Ave neighs/atom = 144.23950
Neighbor list builds = 144
Dangerous builds = 16

#############################
# L I N E A R  Q U E N C H  #
#############################

# Define solid atoms. This closely follows ten Wolde  Ruiz-Montero and Frenkel  Faraday Discuss  1996  104  93-110
# Compute components of the per-atom q6 vector
compute q6 all orientorder/atom degrees 1 6 components 6 nnn NULL cutoff 1.3 # compute the Q6 parameter.
                                                                             # Use all neighbours within 1.3 unit cell.

# get number of connections
compute coord_number all coord/atom orientorder q6 0.5

# An atom is solid if it has 8 or more connections (of a possible 14)
variable is_solid atom c_coord_number>=8
group solid dynamic all var is_solid    # Must be dynamic to update
dynamic group solid defined

# do clustering
compute cluster solid cluster/atom 1.3 # Create a cluster where all atoms within are solid and max 1.3 units from another member

# define chunks one chunk per cluster
compute clus_chunks solid chunk/atom c_cluster nchunk every compress yes  # Says which atoms are in which chunk

# count the size of each chunk
compute size_chunks solid property/chunk clus_chunks count


# Find the maximum entry in the vector of chunk sizes
variable max_n equal max(c_size_chunks)


# Thermo style which includes this variable
# thermo_style custom step temp pe vol v_max_n

thermo ${N}  # Print the thermo information every 100 steps
thermo 1000  

# Reset the npt fix at a lower temperature (below freezing)
fix 1  all npt temp  ${temp} ${temp}  0.1  iso  5.68  5.68  0.5  mtk yes tchain  5  pchain  5
fix 1  all npt temp  0.45 ${temp}  0.1  iso  5.68  5.68  0.5  mtk yes tchain  5  pchain  5
fix 1  all npt temp  0.45 0.45  0.1  iso  5.68  5.68  0.5  mtk yes tchain  5  pchain  5

dump dmp2 all dcd ${N} traj.dcd
dump dmp2 all dcd 1000 traj.dcd


compute msd all msd com yes
variable twopoint equal c_msd[4]/6/(step*dt+1.0e-6)
fix 9 all vector 10 c_msd[4]
variable fit equal slope(f_9)/6/(10*dt)
thermo_style custom step temp pe c_msd[4] v_twopoint v_fit v_max_n

fix 1 all npt temp 1.25 ${temp} 0.1 iso 5.68 5.68 0.5 mtk yes tchain 5 pchain 5
fix 1 all npt temp 1.25 0.45 0.1 iso 5.68 5.68 0.5 mtk yes tchain 5 pchain 5
run 2000000 # 5000000  # Run for this many steps
Neighbor list info ...
  update every 1 steps, delay 10 steps, check yes
  max neighbors/atom: 2000, page size: 100000
  master list distance cutoff = 3.8
  ghost atom cutoff = 3.8
  binsize = 1.9, bins = 8 8 8
  4 neighbor lists, perpetual/occasional/extra = 1 3 0
  (1) pair lj/cut, perpetual
      attributes: half, newton on
      pair build: half/bin/atomonly/newton
      stencil: half/bin/3d
      bin: standard
  (2) compute orientorder/atom, occasional
      attributes: full, newton on
      pair build: full/bin/atomonly
      stencil: full/bin/3d
      bin: standard
  (3) compute coord/atom, occasional
      attributes: full, newton on
      pair build: full/bin/atomonly
      stencil: full/bin/3d
      bin: standard
  (4) compute cluster/atom, occasional
      attributes: full, newton on
      pair build: full/bin/atomonly
      stencil: full/bin/3d
      bin: standard
Per MPI rank memory allocation (min/avg/max) = 9.817 | 9.824 | 9.829 Mbytes
Step Temp PotEng c_msd[4] v_twopoint v_fit v_max_n 
   12000    1.2246937   -2.9853596 2.730642e-30 1.8962791e-32 8.3333333e+20            1 
   13000    1.2130748   -3.0031792    1.0426476 0.0066836383  0.088493139            2 
   14000    1.2373964   -3.0360826     2.197212  0.013078642  0.091543871            1 
   15000    1.2719105   -3.0097981    3.3344976  0.018524986  0.094494263            2 
   16000    1.2337345   -3.0067286    4.5145366  0.023513211  0.094624528            2 
   17000    1.2860246   -3.0125833    5.6063273  0.027481996   0.09533422            2 
   18000    1.2372244   -3.0267033    6.7136818  0.031081859  0.094638164            1 
   19000     1.274063   -3.0225034     7.950217  0.034869372  0.094892019            1 
   20000    1.2471666      -3.0151     9.279675  0.038665312   0.09590418            1 
   21000    1.2492594   -3.0002521    10.435242  0.041409689  0.097038086            1 
   22000    1.2490694   -3.0319788    11.549461  0.043747958  0.097621418            2 
   23000    1.2382255   -3.0066426    12.840344  0.046522985  0.097766836            1 
   24000    1.2535876   -3.0358672    14.030025  0.048715365  0.098247961            1 
   25000    1.2659339   -2.9975992    15.357733  0.051192441  0.098748172            1 
   26000    1.2061594   -3.0297009    16.658728  0.053393358  0.099348859            2 
   27000     1.253691   -3.0286151    17.922535  0.055316464  0.099898033            3 
   28000    1.2477196   -3.0216633    19.056003  0.056714294   0.10023175            3 
   29000    1.2463017   -3.0595049    20.060183  0.057644203   0.10026167            1 
   30000    1.2322084   -3.0038445    21.290453  0.059140146   0.10024847            1 
   31000    1.2534721   -3.0368875    22.451813  0.060354335   0.10015574            1 
   32000    1.2288137    -3.007716    23.382516  0.060891967  0.099973804            2 
   33000     1.231992   -2.9934508    24.576043  0.062060714   0.09960041            2 
   34000    1.2370597   -2.9981221    25.740736  0.063090039  0.099309837            1 
   35000    1.2436126   -3.0075637    27.051801   0.06440905  0.099113639            3 
   36000     1.241704   -3.0509709    28.333106  0.065585893  0.099075976            1 
   37000     1.231854   -2.9868181     29.67192  0.066828648  0.099157478            1 
   38000    1.2384634     -3.06624    30.586768  0.067076246  0.099212877            1 
   39000    1.2567007   -2.9658035    31.982641  0.068338977   0.09922067            1 
   40000    1.2307283   -3.0082637    33.018529  0.068788602  0.099213044            1 
   41000    1.2430547   -2.9984462    34.384042  0.069886264  0.099201219            3 
   42000    1.2283338   -3.0380652    35.371715  0.070181973  0.099221837            3 
   43000     1.217445   -2.9860446    36.733511  0.071188974  0.099253967            6 
   44000     1.229006   -3.0089018    38.253229  0.072449297   0.09931472            1 
   45000    1.2152344   -3.0245789    39.244339    0.0726747  0.099409317            1 
   46000    1.2199893   -2.9948627    40.737299  0.073799454  0.099534869            1 
   47000    1.2201105   -3.0427448    41.756065  0.074035576  0.099682441            1 
   48000    1.2672931   -3.0107587    43.170861  0.074949411  0.099794255            2 
   49000    1.2460714   -3.0248819    44.106922  0.075011771  0.099855441            1 
   50000    1.2224756   -3.0202337    45.272827  0.075454711  0.099881529            4 
   51000    1.2251296   -3.0481933    46.371719  0.075770782   0.09990055            1 
   52000    1.2388144   -3.0209004    47.554678  0.076209419  0.099912453            3 
   53000     1.215349   -3.0326055    48.732199  0.076622954  0.099872154            4 
   54000    1.2609922   -3.0383924    50.048074  0.077234681  0.099812842            1 
   55000    1.2291277   -3.0755266    50.674922  0.076780184  0.099738602            3 
   56000    1.2618281   -3.0053009    52.025658  0.077419134  0.099601145            2 
   57000    1.2415241    -3.009433    52.941252   0.07739949  0.099448949            1 
   58000    1.2263683   -3.0406628    53.814223  0.077319285  0.099275565            3 
   59000    1.2406734   -3.0448618    54.938648   0.07759696  0.099093869            6 
   60000    1.2696975   -3.0540874    56.270661  0.078153696   0.09896878            1 
   61000    1.2232666   -3.0190368     57.51358  0.078570463  0.098856964            1 
   62000    1.2233543   -3.0566216    58.912595  0.079183595  0.098780514            1 
   63000    1.2083951   -3.0335285    60.379444  0.079866988  0.098769237            2 
   64000    1.2491117   -3.0057523    61.450762  0.080014012  0.098786527            1 
   65000    1.2570258   -3.0699981    61.944481     0.079416  0.098737504            2 
   66000     1.235223   -3.0413198    63.430402  0.080088891  0.098638673            3 
   67000     1.232185   -3.0469948    64.352855  0.080040863  0.098557975            2 
   68000    1.2198478    -3.078995     65.12231  0.079806752  0.098438811            1 
   69000    1.2302693   -3.0437177    66.737197  0.080600479  0.098340734            1 
   70000    1.2215871   -3.0660979    67.653605  0.080540005   0.09822236            2 
   71000     1.260113   -3.0546021    68.859552   0.08082107  0.098110927            1 
   72000    1.2335589   -3.0569197    69.471592  0.080406934  0.097989599            1 
   73000    1.2193415   -3.0312189    70.731348  0.080743547  0.097861939            3 
   74000    1.2185503   -3.0329612    72.212367  0.081320233  0.097747459            1 
   75000    1.2570294   -3.0681274    72.838063  0.080931181  0.097609459            1 
   76000    1.1896821   -3.0661478    73.669235  0.080777669  0.097464375            1 
   77000     1.216254   -3.0508627    75.515489  0.081726719  0.097343228            2 
   78000    1.2155035   -3.0406574    76.413502  0.081638357  0.097256249            2 
   79000    1.2400015   -3.0529766    77.671648  0.081932118  0.097174274            2 
   80000    1.2426148   -3.0615601    78.732007  0.082012507  0.097091415            1 
   81000    1.2438686   -3.0593007    79.119666  0.081398833  0.096987808            1 
   82000    1.2266075   -3.0325266    80.956203  0.082272564  0.096891362            1 
   83000    1.2007251   -3.0227073     81.46816  0.081795341  0.096770433            1 
   84000    1.2125421   -3.0790019    82.094997  0.081443449  0.096626323            4 
   85000    1.2185576   -3.0317356    83.690087  0.082049104  0.096489402            1 
   86000    1.2402178   -3.0495258    84.936881  0.082303178   0.09636028            2 
   87000    1.2263995   -3.0620668    86.068169  0.082440774  0.096265997            1 
   88000    1.2056137   -3.0401154    87.462748  0.082824572  0.096174396            2 
   89000    1.2148054   -3.0222726    88.588427  0.082947965  0.096102679            1 
   90000    1.2187475   -3.0454168    89.743557  0.083095886  0.096033187            5 
   91000     1.217419   -3.0306355    90.586695  0.082954849  0.095962229            2 
   92000    1.2217968   -3.0305847    91.641545  0.083008646  0.095863368            1 
   93000    1.2183389    -3.045438    92.227668  0.082641279  0.095779343            2 
   94000    1.2350323   -3.0592295    93.366159  0.082771417  0.095687721            2 
   95000    1.2352883   -3.0762658     94.50687  0.082900762  0.095585983            1 
   96000    1.2272458   -3.0519364    95.377768  0.082793201  0.095485331            1 
   97000    1.2012739   -3.0162463     96.09093  0.082552345  0.095375313            1 
   98000    1.2137713   -3.0214806    97.318552   0.08275387  0.095258167            2 
   99000    1.1942458   -3.0592287    98.937192  0.083280464  0.095133562            1 
  100000    1.2216974   -3.0759296    100.02682  0.083355684  0.095044889            4 
  101000    1.2132003   -3.0761502    100.89113  0.083243508  0.094965733            4 
  102000    1.1964967   -3.0216645    102.75746  0.083952173  0.094892458            2 
  103000    1.1962897   -3.0441178    102.95498  0.083296913  0.094818458            2 
  104000    1.2137242   -3.0457122     104.1985  0.083492387  0.094734267            2 
  105000    1.2018883   -3.0342659    104.44545  0.082893214   0.09462981            3 
  106000     1.195456   -3.0542731    105.58613  0.083007962  0.094508826            1 
  107000    1.2029569   -3.0314836     106.7504  0.083138943  0.094396292            1 
  108000    1.2294859   -3.0832498    107.38113  0.082855812  0.094281318            1 
  109000    1.2177837   -3.0703276    108.72805  0.083125422  0.094182547            2 
  110000    1.2003538   -3.0787725    110.25412   0.08352585  0.094081647            2 
  111000    1.2233577   -3.0455246    111.71468  0.083869882  0.093992784            5 
  112000    1.2195166    -3.044071    112.91452  0.084013779  0.093915425            1 
  113000    1.1825585   -3.0615626    113.26942  0.083532023  0.093833955            1 
  114000    1.2161229   -3.0759253    114.34656  0.083586664  0.093779267            1 
  115000    1.2008231   -3.0450497    116.44589   0.08438108  0.093716216            2 
  116000     1.192668   -3.0602144    116.90749  0.083985262   0.09365379            1 
  117000    1.1943034   -3.0618164    118.14879   0.08415156  0.093579604            1 
  118000    1.1840397   -3.0485612    119.12429  0.084127323   0.09351912            1 
  119000    1.2225614   -3.0930572    119.99874  0.084032734  0.093455655            2 
  120000    1.2051743   -3.0414435    122.09253  0.084786477  0.093406703            1 
  121000     1.210174   -3.0802979    122.95673  0.084680941  0.093366891            2 
  122000    1.1854686   -3.0663572    123.09704  0.084082679  0.093320371            2 
  123000    1.2191262   -3.0744658    124.82829  0.084572012  0.093267915            2 
  124000    1.2349587   -3.0751928    125.98606  0.084668054  0.093224377            2 
  125000    1.1814153    -3.057475    126.66596  0.084443974  0.093174825            1 
  126000    1.2135244    -3.054374    128.02569  0.084673074  0.093123297            2 
  127000    1.2263745   -3.0671448    129.59323  0.085034927   0.09309138            1 
  128000    1.2246438   -3.0783907    130.13406  0.084722698  0.093060964            2 
  129000    1.1973892   -3.0348561    132.02648  0.085288424  0.093028096            1 
  130000     1.198355   -3.0833475    133.29774  0.085447267   0.09301204            1 
  131000    1.1963702   -3.0484674    134.53256  0.085580508  0.093003886            3 
  132000    1.2130581   -3.0756141    134.59508  0.084971642  0.092985164            1 
  133000    1.1919712   -3.0732689    136.45353  0.085497196  0.092959331            1 
  134000    1.2024682    -3.077629    136.89782  0.085135462  0.092941338            1 
  135000    1.1985878   -3.0848551    138.06959  0.085228142  0.092917481            2 
  136000    1.2091742   -3.0659165    139.69238  0.085595823  0.092896835            3 
  137000    1.1973317   -3.0554336    140.52873  0.085479761  0.092886065            1 
  138000     1.205203   -3.0495084    142.07734  0.085795496  0.092876218            1 
  139000    1.1948932   -3.0460355    143.12293  0.085805116  0.092861332            1 
  140000    1.1961848   -3.0761873    143.49085  0.085411218  0.092851355            2 
  141000    1.1791033     -3.04723    145.08336  0.085746666  0.092836628            1 
  142000    1.1878357   -3.0685133    146.88544  0.086200375  0.092821339            3 
  143000    1.1859515   -3.0794382    146.80239  0.085549176  0.092803334            3 
  144000    1.1675533   -3.0762147    147.79875  0.085531682  0.092777258            2 
  145000    1.2186148   -3.0623369    149.03251   0.08565087  0.092755242            2 
  146000    1.1981402   -3.1081333    149.57023  0.085371137  0.092734223            6 
  147000     1.173366   -3.0928647    151.56025  0.085918511  0.092702038            1 
  148000    1.2100458   -3.0890091    153.64094  0.086509537  0.092683729            2 
  149000    1.1865401   -3.0187761    154.46811  0.086391561  0.092677196            1 
  150000    1.2121283   -3.0614613    154.80979  0.086005438  0.092658485            1 
  151000    1.2028588   -3.0833901    156.26391  0.086238362  0.092648296            2 
  152000    1.1819484   -3.0794331    157.64778  0.086429706  0.092641415            1 
  153000    1.2040504   -3.0508125     158.5107  0.086334801   0.09263881            3 
  154000    1.1929062   -3.1244138    158.99521  0.086036369   0.09263863            3 
  155000     1.212943   -3.0982866    159.48098   0.08574246  0.092629096            1 
  156000    1.2020224   -3.0887523    161.81584  0.086440085  0.092619157            6 
  157000    1.1774441    -3.077928      163.152  0.086598725  0.092611161            2 
  158000    1.1867406   -3.0671806    164.17242  0.086588828  0.092593868            2 
  159000    1.1680744   -3.0905249    165.17052   0.08656736  0.092578886            1 
  160000    1.1855749   -3.1083905    165.60817  0.086254254  0.092570961            1 
  161000    1.1828636   -3.0952102    167.17682  0.086530443   0.09255355            1 
  162000    1.1872682   -3.0431601    167.85316  0.086344217  0.092532122            1 
  163000    1.1631025   -3.1036989    168.62599  0.086209608  0.092509844            2 
  164000    1.1818023   -3.0965618    170.38634  0.086578424  0.092493834            3 
  165000    1.1982361   -3.0572772    171.82981   0.08678273  0.092486244            1 
  166000    1.1705099   -3.0730228    172.84679  0.086770478   0.09248065            1 
  167000    1.1923088    -3.087673    172.83549  0.086245254  0.092467631            2 
  168000    1.1865406   -3.0564672    175.59673   0.08710155  0.092454063            2 
  169000    1.1851862   -3.0995286    175.98173  0.086776002  0.092442506            2 
  170000    1.1980471   -3.1108027    176.98146  0.086755616  0.092446984            1 
  171000    1.1970277   -3.1047989     177.3074  0.086407115  0.092445506            1 
  172000    1.1879552   -3.0839198    179.51195  0.086972843  0.092449437            2 
  173000    1.1921188   -3.1008798    180.54261  0.086966575  0.092449685            2 
  174000    1.1516874   -3.0977867    181.92747  0.087130016  0.092447415            3 
  175000    1.1667544   -3.1108806    182.55025   0.08692869  0.092450549            2 
  176000    1.1823896   -3.0796785    183.63033  0.086946181  0.092455979            2 
  177000    1.1657557   -3.0719369    185.79329  0.087473301  0.092460929            5 
  178000    1.2004724   -3.0736939     186.4071   0.08726924  0.092463916            2 
  179000    1.1900518   -3.0985572     187.5892  0.087332031  0.092471593            1 
  180000    1.1726123   -3.0886594    189.25104   0.08761622  0.092486617            3 
  181000    1.1543801   -3.1014628    190.83067  0.087859422  0.092502306            2 
  182000    1.1826975   -3.1039024     191.6947    0.0877723  0.092516559            2 
  183000    1.2027508   -3.0980955    193.21924  0.087986904  0.092534566            2 
  184000    1.1702253   -3.0946655    193.70453  0.087728499  0.092547064            1 
  185000    1.2016937   -3.0980045    195.39636  0.088016377  0.092563694            1 
  186000    1.1728536   -3.0918488    196.92595   0.08822847  0.092581243            2 
  187000    1.1963918   -3.1134741    196.77257  0.087688312   0.09259796            2 
  188000    1.1846888   -3.0685087     198.0985   0.08780962  0.092602607            1 
  189000    1.2110543   -3.0875297    198.47621  0.087511555  0.092600581            3 
  190000    1.1810542   -3.0970879    199.33324   0.08742686  0.092590856            2 
  191000    1.1596317   -3.1149504    200.22637    0.0873588  0.092579168            2 
  192000    1.1828687   -3.1050081    200.51011  0.087026958  0.092567492            1 
  193000    1.1734257   -3.0906037    202.35516  0.087372692  0.092557528            2 
  194000    1.1745865   -3.0878549     202.2919  0.086895146  0.092540605            4 
  195000    1.2047612   -3.0968361    203.69341  0.087048467   0.09252062            3 
  196000    1.1743645   -3.1080966    204.45355  0.086927531  0.092506946            2 
  197000    1.1710569   -3.1178923    205.85726   0.08708006  0.092490369            1 
  198000     1.153366   -3.1105047     206.2328  0.086798315  0.092466382            2 
  199000    1.1761875   -3.1018742    207.61453  0.086940758  0.092440195            1 
  200000    1.1748233   -3.0934102    208.91696  0.087048733  0.092411383            2 
  201000    1.1812887   -3.0630886    209.51736  0.086864577  0.092385329            1 
  202000    1.1733888   -3.0894308    210.98339  0.087039352  0.092361637            4 
  203000    1.1655221   -3.1076812     211.8065   0.08694848  0.092340534            3 
  204000    1.1623824   -3.1205791    211.90052   0.08656067  0.092319211            3 
  205000    1.1729314   -3.0673601     214.8301  0.087329308  0.092295699            2 
  206000    1.1929964   -3.1379707     215.0847  0.087008372  0.092273082            1 
  207000    1.1804836   -3.1004539    215.05344  0.086575458  0.092248484            1 
  208000    1.1819572   -3.0627407     218.1981  0.087419111  0.092222231            1 
  209000    1.1520604   -3.1123332    216.57657  0.086354293  0.092195321            2 
  210000    1.1782141   -3.1395729    218.26899  0.086614677  0.092164651            2 
  211000    1.1492918   -3.1172978    220.50309  0.087086529  0.092132232            2 
  212000    1.1807818   -3.0959132    220.40435  0.086636931  0.092098925            2 
  213000    1.1598161   -3.0785134    222.78101   0.08716002  0.092071854            3 
  214000    1.1927597   -3.1119066    223.59622   0.08707018  0.092043334            1 
  215000    1.1758502   -3.1189446    223.87609  0.086773679  0.092017596            2 
  216000    1.1725019   -3.0773927    225.47808  0.086990002  0.091993681            1 
  217000    1.2271447   -3.1220266    225.83317  0.086725488  0.091959894            2 
  218000    1.1621516   -3.1245966     226.1981  0.086467162  0.091926337            1 
  219000    1.1709534   -3.1467403    227.33618  0.086505397  0.091888934            4 
  220000    1.1660548   -3.1120443    228.80444  0.086668348  0.091851587            4 
  221000    1.1738538    -3.124447     228.8153  0.086280278  0.091812691            2 
  222000    1.1969267   -3.0960321    231.51361  0.086904507  0.091780596            1 
  223000    1.1728522   -3.1017436    231.28808  0.086430523  0.091745362            1 
  224000    1.1746332   -3.1280187     232.8887  0.086640142  0.091706886            1 
  225000    1.1687421   -3.1403681    232.83702  0.086235932  0.091671524            3 
  226000    1.1885326   -3.1155737    234.85974  0.086600199  0.091633406            2 
  227000    1.1811751   -3.0973633     235.2941  0.086378155  0.091593148            3 
  228000     1.156502   -3.0865486    236.34301  0.086382677  0.091552791            5 
  229000    1.1560038   -3.1382371    237.27039  0.086342937  0.091512589            2 
  230000     1.129212   -3.1131477    239.42968  0.086749885  0.091465979            2 
  231000    1.1392292   -3.1086823    238.44855  0.086020399  0.091419691            1 
  232000    1.1510051   -3.1297606     239.1761  0.085910956  0.091369083            3 
  233000    1.1747201   -3.1053356    240.36121  0.085966097  0.091325087            2 
  234000    1.1875405   -3.1200563    242.55149  0.086378735  0.091280742            1 
  235000    1.1553046   -3.1237357    243.90162  0.086489936  0.091239389            2 
  236000    1.1745984   -3.1098393    244.43666   0.08631238  0.091196523            1 
  237000    1.1516095   -3.1006103    245.27724  0.086243755  0.091155252            1 
  238000    1.1805782   -3.1214276     246.8278  0.086424299  0.091117988            2 
  239000    1.1389866   -3.0692079    249.03012  0.086830586  0.091088504            4 
  240000    1.1508978    -3.099523    250.98623  0.087147998  0.091066375            2 
  241000    1.1353787   -3.1117573    251.08998  0.086822262  0.091047919            2 
  242000    1.1678794   -3.1143514    251.60599   0.08664118  0.091026934            3 
  243000    1.1610076   -3.1383003    253.84053  0.087050937   0.09100618            2 
  244000    1.1645565   -3.1175753    254.82973  0.087032013  0.090980101            1 
  245000    1.1723429   -3.1256684    255.65093  0.086956097  0.090959791            1 
  246000    1.1403262   -3.1132287    257.52986  0.087239113  0.090942355            1 
  247000    1.1551637   -3.1210871    258.96493  0.087370085  0.090924269            1 
  248000    1.1660931   -3.1327538    258.55658  0.086880571   0.09090138            4 
  249000    1.1539523   -3.1078656    259.58414   0.08687555  0.090882055            3 
  250000    1.1543951    -3.106052    261.08585  0.087028615  0.090864003            3 
  251000    1.1746841   -3.1079587    262.86086  0.087271201  0.090844813            1 
  252000    1.1512038   -3.1390385    263.22786   0.08704625  0.090828172            4 
  253000    1.1587348   -3.1307097    262.79378  0.086559215  0.090806022            2 
  254000    1.1311547   -3.1372423    265.17569  0.086999899  0.090778853            2 
  255000    1.1844283   -3.1285141    264.38538  0.086400451    0.0907549            2 
  256000    1.1591059   -3.1100621    266.42275  0.086726155  0.090732932            1 
  257000    1.1349105   -3.1367028    267.59566   0.08676902  0.090706898            1 
  258000    1.1344643   -3.1404618    267.78137  0.086492691  0.090679115            2 
  259000    1.1467348   -3.1448389    269.19204  0.086612626  0.090650902            2 
  260000    1.1385578   -3.1446257    269.52484  0.086386165  0.090621471            1 
  261000     1.131065   -3.1164004    270.19457  0.086269019  0.090588286            1 
  262000    1.1607553   -3.0938365    271.85575  0.086468113  0.090552431            1 
  263000    1.1407892   -3.1160679    271.53265   0.08603696  0.090520236            2 
  264000    1.1294282   -3.1254261    272.40969  0.085987908  0.090486605            2 
  265000    1.1712047   -3.1082289    274.10031  0.086195065  0.090454296            2 
  266000    1.1318923   -3.1744557    274.42216  0.085971855  0.090419141            5 
  267000    1.1431977   -3.1706563    275.32809  0.085932611  0.090383137            3 
  268000    1.1478756   -3.1357231    276.63599  0.086018653  0.090345549            2 
  269000     1.148122   -3.1206686    277.22971  0.085882811  0.090307017            3 
  270000    1.1334969   -3.1341747    277.75437  0.085726658  0.090266396            1 
  271000    1.1633181   -3.1336855    278.84234  0.085744878  0.090228491            2 
  272000    1.1741235   -3.1420421    280.83176  0.086039142  0.090190957            3 
  273000    1.1328895    -3.152091    281.03159  0.085784977  0.090148711            3 
  274000    1.1398363   -3.1867494    282.16811  0.085817551  0.090108928            1 
  275000    1.1348727   -3.1062237    283.70074  0.085969922  0.090068035            4 
  276000    1.1498924   -3.1507574    282.94678  0.085430791   0.09002704            1 
  277000    1.1576186   -3.1032285    284.96161  0.085728523  0.089988759            1 
  278000    1.1298807   -3.1471707    285.72872  0.085650094  0.089946758            2 
  279000    1.1492286   -3.1502787    286.08033  0.085448126  0.089906638            2 
  280000    1.1711847   -3.1360954    287.83156  0.085664155  0.089864289            3 
  281000    1.1531981   -3.1460159    288.65741  0.085604214   0.08982406            2 
  282000    1.1553333   -3.1311685    290.36466  0.085805159   0.08978449            1 
  283000    1.1796182   -3.1332933     290.8324  0.085639694  0.089744083            1 
  284000    1.1363751   -3.1333016    292.19272  0.085737302  0.089705745            2 
  285000    1.1309202   -3.1303645     292.5717   0.08554728  0.089671366            1 
  286000    1.1594345   -3.1444414    295.56428  0.086120128  0.089635783            2 
  287000    1.1614813   -3.1916695     294.5727  0.085532142  0.089601626            2 
  288000    1.1314152   -3.1687416    294.75683  0.085288434  0.089565812            2 
  289000    1.1358913    -3.119937    298.55438  0.086088344  0.089532707            1 
  290000    1.1639754   -3.1286114    298.01447  0.085636343  0.089497816            3 
  291000    1.1300122    -3.121455    299.70455  0.085826045  0.089458931            1 
  292000    1.1250868   -3.1683646     299.5034  0.085474714  0.089419315            1 
  293000    1.1448364   -3.1467848    299.96902  0.085315422   0.08938194            2 
  294000    1.1052658    -3.153745    299.93693  0.085016137  0.089342075            1 
  295000    1.1358226   -3.1394987     301.8473    0.0852676  0.089304704            2 
  296000    1.1665311     -3.15821    301.65096  0.084924257  0.089266967            1 
  297000    1.1321194   -3.1634915    303.31767  0.085105968   0.08922803            2 
  298000    1.1410978   -3.1608556    304.20029  0.085067194  0.089186495            3 
  299000    1.1658473   -3.1025432     305.0871   0.08502985  0.089144758            1 
  300000    1.1339837   -3.1646601    305.55911  0.084877531  0.089104668            2 
  301000    1.1462378   -3.1246212    306.61765  0.084888608  0.089059017            1 
  302000    1.1484846   -3.1335414    307.47767  0.084844832  0.089014777            1 
  303000    1.1347104   -3.1479992    308.90722  0.084957982  0.088968847            2 
  304000    1.1343333   -3.1615149     309.3742  0.084806525  0.088921411            2 
  305000    1.1544802   -3.1510993    309.76228  0.084634503  0.088873599            1 
  306000     1.127785   -3.1434609    310.39827   0.08453112  0.088827773            2 
  307000    1.1191506   -3.1573097    313.38255  0.085065838  0.088785611            2 
  308000    1.1264861   -3.1758233    312.77418  0.084625049  0.088740788            5 
  309000    1.1355084    -3.136732    314.85976  0.084913634  0.088696834            1 
  310000    1.1345182   -3.1774512    314.16962  0.084454198  0.088654956            2 
  311000     1.138946   -3.1563529    316.39078  0.084777808  0.088611789            1 
  312000    1.1259386   -3.1659125    316.61226   0.08456524  0.088568251            1 
  313000    1.1307652   -3.1394196    317.71865   0.08458963  0.088522686            5 
  314000    1.1437008   -3.1793472    317.64124  0.084299692  0.088473552            2 
  315000    1.1410656    -3.180928    317.81169  0.084077165  0.088420109            2 
  316000    1.1575712   -3.1715775    320.36417  0.084484222    0.0883706            3 
  317000    1.1321765   -3.1382867    320.49068  0.084250968  0.088323676            2 
  318000    1.1103379   -3.1651361    321.19705  0.084171136  0.088273657            1 
  319000    1.1578251   -3.1831583    322.10399  0.084144199   0.08822114            1 
  320000    1.1257358   -3.1526897    322.14632  0.083892272  0.088168519            3 
  321000    1.1209609   -3.1717622    323.63866  0.084018345  0.088119876            1 
  322000    1.1307368   -3.1744671    324.44155  0.083965206   0.08806832            2 
  323000    1.1359764    -3.201155    324.52528  0.083726853  0.088014312            4 
  324000    1.1284582   -3.1777332    324.75609  0.083527802  0.087961116            3 
  325000    1.1160516   -3.1605601    324.78731  0.083278797  0.087903885            2 
  326000     1.098772   -3.1645111    325.98582  0.083329707  0.087849525            3 
  327000     1.112195    -3.186019    327.87067  0.083555216   0.08779554            2 
  328000    1.1253927   -3.1746092    327.64872  0.083244086  0.087738618            1 
  329000    1.1319205   -3.1908268    328.56148   0.08322226  0.087683636            2 
  330000    1.1063449    -3.165889    330.16059  0.083373885  0.087628979            4 
  331000    1.1467584   -3.1428276    332.06123  0.083600511  0.087572907            1 
  332000    1.0992162   -3.1770217    331.04836  0.083094467  0.087516145            1 
  333000    1.1181701   -3.1816419    332.89033  0.083305889  0.087459413            2 
  334000    1.1013325   -3.1827106    334.09677  0.083357477  0.087406572            2 
  335000    1.1022211   -3.1720561    336.13949  0.083616789  0.087352371            1 
  336000    1.1090844   -3.1770521    335.43899  0.083194194  0.087303657            2 
  337000    1.1102661   -3.1827297    334.28079  0.082660928  0.087249546            1 
  338000    1.1085432   -3.1627761     336.0939  0.082863387  0.087195896            2 
  339000    1.1028671    -3.168967    339.41918  0.083436376  0.087142675            2 
  340000    1.1279355   -3.1907783    339.94662  0.083320251   0.08708866            3 
  341000    1.1057276   -3.1727547    340.78469  0.083280716  0.087035602            1 
  342000    1.1519141   -3.1716506    340.65791  0.083006312  0.086984354            2 
  343000    1.1179722   -3.1434705    341.42825  0.082951469  0.086933456            4 
  344000     1.119371   -3.1792087    342.55456  0.082983178  0.086880689            1 
  345000    1.1205356   -3.1435325    344.38133  0.083183896  0.086828089            2 
  346000    1.1182616    -3.179597    345.05602  0.083105977  0.086778488            2 
  347000    1.0939694   -3.1710868    346.31939  0.083169882   0.08672785            1 
  348000    1.1174009   -3.1575439    345.22388  0.082668554  0.086679011            3 
  349000    1.1081882   -3.1580789    346.60939   0.08276251   0.08663091            2 
  350000    1.1183646     -3.14602    348.72106  0.083028824  0.086580964            1 
  351000    1.1077598   -3.1895868    349.65197  0.083013289  0.086531519            2 
  352000    1.1238387   -3.1803429    350.10576  0.082884885  0.086483713            1 
  353000    1.1117402   -3.1782447    351.15226  0.082897133  0.086435355            3 
  354000     1.121791   -3.1649594    352.53973  0.082989578  0.086386925            2 
  355000    1.1045896   -3.1828767    354.19342  0.083143994  0.086340092            2 
  356000    1.0952053   -3.1902992    354.85334  0.083064919  0.086297465            2 
  357000    1.0963558   -3.1990435    355.39821  0.082959432  0.086253981            1 
  358000     1.118929   -3.1451634    355.58498  0.082771177  0.086207586            2 
  359000    1.0981452   -3.1806127     358.2464  0.083158403  0.086160789            1 
  360000    1.1230044   -3.1863547    357.95581  0.082860142  0.086117432            1 
  361000    1.0914477   -3.1614258    359.29925  0.082940733  0.086070524            1 
  362000    1.1039897   -3.1860565    359.25098  0.082700501  0.086024223            2 
  363000    1.1032414   -3.1887974    360.67516  0.082799623  0.085981944            3 
  364000    1.0950245    -3.170189    362.31891  0.082948469  0.085937656            2 
  365000    1.1044427   -3.1754262    361.24775  0.082476654  0.085892197            1 
  366000    1.1096859   -3.1774604    362.67514  0.082576306   0.08584778            5 
  367000    1.1388756   -3.2036289    363.81799  0.082610805  0.085804714            2 
  368000    1.1338721   -3.1868106    365.96471  0.082872444  0.085761737            1 
  369000    1.1158044   -3.1732041    365.43053   0.08252722  0.085719764            3 
  370000    1.1208451   -3.1516298    366.42909  0.082529075   0.08567466            2 
  371000    1.1230125    -3.173772    367.81905  0.082618833  0.085629139            2 
  372000    1.1259508   -3.1832635    368.01367  0.082440339  0.085585777            1 
  373000    1.0849736   -3.1712199    368.82276   0.08240008   0.08554431            4 
  374000    1.0828738   -3.1773391    370.42174  0.082536038  0.085503676            1 
  375000    1.0933473    -3.195385     372.2457  0.082721266  0.085464235            1 
  376000    1.1292277   -3.1829472    372.22547   0.08249678  0.085425607            1 
  377000    1.0760505   -3.1777566    373.36027  0.082528796  0.085387941            2 
  378000    1.1002281   -3.1884622    375.30754  0.082739758  0.085349427            3 
  379000    1.1067513    -3.171644    376.15092  0.082706887   0.08531112            1 
  380000    1.0899916   -3.1829818    375.78447  0.082408875  0.085271385            2 
  381000    1.1266938   -3.1730651    376.28262  0.082301536  0.085233338            3 
  382000    1.1127692   -3.2208481    376.26071  0.082081307  0.085193635            3 
  383000    1.1192955   -3.1852606    379.26054  0.082519699  0.085155358            2 
  384000    1.0964137   -3.1817359    380.99952  0.082682188  0.085117482            3 
  385000     1.106622   -3.1974788    380.62981  0.082387405  0.085079299            3 
  386000    1.1029845   -3.1982107    379.84269  0.082004034  0.085039822            3 
  387000    1.0790875   -3.2119369    381.01669  0.082044939  0.084999319            2 
  388000    1.1211381   -3.1901222    381.47616  0.081932164  0.084956647            1 
  389000    1.1031647   -3.2087765    383.11536  0.082072699  0.084912946            2 
  390000    1.0911999    -3.180346    383.68442   0.08198385  0.084870909            2 
  391000    1.0976513   -3.1881384    385.46433  0.082153522  0.084828982            1 
  392000    1.1112199   -3.1970948    386.36464  0.082135341  0.084789766            2 
  393000    1.1042998   -3.2372711    386.12706  0.081875967   0.08474963            3 
  394000    1.1069176   -3.2067815    388.25556  0.082118351  0.084712964            4 
  395000    1.1067955   -3.1891181    390.72799  0.082432065  0.084676988            2 
  396000    1.0856614   -3.1995993    391.38865  0.082362932  0.084641596            2 
  397000    1.1021883    -3.181906    392.15661  0.082316668  0.084603595            2 
  398000    1.0981481   -3.2170829    391.94666  0.082065884  0.084567028            3 
  399000    1.0869547   -3.1848316    392.27678  0.081929152  0.084527076            4 
  400000    1.0862604   -3.2049068    393.44706  0.081968137  0.084490555            2 
  401000    1.0972696   -3.1651957    395.34697  0.082158555  0.084455654            3 
  402000    1.0767143   -3.1959868    397.17115  0.082332328  0.084421602            2 
  403000    1.0755478   -3.1572611    397.19487  0.082132935  0.084387523            3 
  404000    1.0893897   -3.1737398    399.11883  0.082326492  0.084354151            2 
  405000    1.1067186   -3.1945747    400.30938  0.082368185  0.084321361            1 
  406000    1.0889881   -3.1735641    400.76274  0.082258362  0.084290369            2 
  407000    1.0954476   -3.2173847     400.3242  0.081966461  0.084259501            3 
  408000     1.085337   -3.2065214     400.4688  0.081795098  0.084224989            2 
  409000    1.0877935   -3.1927149    403.58792  0.082230627  0.084194768            1 
  410000    1.0936248   -3.1855816    403.57533  0.082027505  0.084162656            1 
  411000     1.097263   -3.1959201    403.40191  0.081792763  0.084130131            1 
  412000    1.0955391   -3.1982612    404.18235  0.081752093  0.084096003            3 
  413000    1.0728685   -3.2193724    406.44763  0.082011225  0.084060912            2 
  414000     1.073221   -3.2110094    407.33587  0.081991922  0.084027257            2 
  415000    1.0717668   -3.2087059    408.61309  0.082050822  0.083995569            2 
  416000    1.0968117   -3.2072277    408.90629  0.081912318  0.083962176            1 
  417000    1.0658102   -3.2325559    408.98136  0.081730886  0.083930131            5 
  418000    1.0651172   -3.2221293    410.45405  0.081828957  0.083901319            2 
  419000    1.0868505   -3.2307145     411.6636  0.081874225  0.083871205            1 
  420000     1.073809    -3.210061    414.08003  0.082158736  0.083841096            1 
  421000     1.070837   -3.1950139    413.06989  0.081763636  0.083812513            1 
  422000    1.0748864   -3.1944904    415.22343  0.081995148  0.083781054            1 
  423000    1.0920233   -3.2078975    416.90719  0.082133015    0.0837501            7 
  424000    1.0867935   -3.1802481    417.26591  0.082009809  0.083720721            3 
  425000    1.0619155   -3.1807582    417.86466  0.081934247  0.083691856            3 
  426000    1.0704023   -3.2323862    418.10683  0.081789286  0.083663598            2 
  427000    1.0776742   -3.2182467    420.02065  0.081971243  0.083633365            3 
  428000    1.1106016    -3.223099    419.67482  0.081712387  0.083603916            3 
  429000    1.0891398   -3.2278405    423.40056  0.082245641  0.083574374            3 
  430000    1.0890899   -3.2238336    422.02814    0.0817884  0.083546661            4 
  431000     1.079487    -3.214274    424.75385  0.082125648  0.083518086            2 
  432000    1.0914242   -3.2011659    422.58676  0.081517508  0.083489692            2 
  433000    1.0652829   -3.2201703    423.98407  0.081598166  0.083461069            2 
  434000    1.0727418   -3.1764487    425.07864  0.081620322  0.083430473            4 
  435000    1.0756102   -3.2290161    425.93435  0.081596618  0.083402009            3 
  436000    1.0812532   -3.1867089    429.01167  0.081997643  0.083373302            3 
  437000    1.0846985   -3.2232923    428.36251  0.081686215  0.083344767            2 
  438000     1.054395   -3.2152358    429.02383  0.081625538   0.08331729            3 
  439000    1.0539117   -3.2129137    431.36236  0.081883515  0.083289268            3 
  440000    1.0961472   -3.2127945    430.00961  0.081441214  0.083260204            4 
  441000    1.0736315   -3.2465762    429.46643  0.081153898  0.083230089            1 
  442000    1.0940488   -3.1995098    430.83452  0.081228228  0.083198459            2 
  443000    1.0616575   -3.2306311    432.08907  0.081280864  0.083168639            2 
  444000    1.0805181   -3.2093064    432.91682  0.081253156  0.083137892            2 
  445000    1.0569183   -3.2283621    432.55816    0.0810034  0.083108325            2 
  446000    1.0569309   -3.2061405    435.60838    0.0813917  0.083078488            2 
  447000    1.0514609   -3.2169963    437.24767  0.081515226  0.083050957            2 
  448000    1.0618561   -3.2208556     436.2911  0.081155338  0.083020964            2 
  449000    1.0676153   -3.2186848      437.666  0.081229769  0.082990131            1 
  450000    1.0770103   -3.2364657    437.08216  0.080941141  0.082958906            3 
  451000    1.0849346   -3.2460146    437.27721   0.08079771  0.082926512            5 
  452000    1.0566942   -3.2096538    439.30952  0.080993643  0.082892708            2 
  453000     1.069279   -3.2183023    441.05478  0.081135905  0.082860665            1 
  454000    1.0733518   -3.2654371    441.56618  0.081051061  0.082828795            2 
  455000    1.0695698   -3.2112354    441.57172  0.080873941  0.082795606            1 
  456000    1.0471774   -3.2513392    441.67663  0.080715758  0.082762709            6 
  457000    1.0708829   -3.2120662    444.09467  0.080980063  0.082729625            2 
  458000    1.0754514   -3.2092348    445.62927  0.081082472  0.082697772            1 
  459000    1.0777368    -3.227774     447.4192  0.081230792  0.082665527            1 
  460000     1.058069   -3.2260359    445.23558  0.080658619  0.082634093            3 
  461000      1.06781   -3.2236139    446.77526  0.080761978  0.082602869            3 
  462000    1.0787532   -3.2681959     446.2439  0.080491323  0.082571376            3 
  463000    1.0364237   -3.2256641    448.17119  0.080664361  0.082540277            3 
  464000    1.0428059   -3.2412085    451.64388  0.081114203  0.082510567            2 
  465000    1.0783814   -3.2349121    450.10249  0.080663528   0.08248057            4 
  466000    1.0803903   -3.2445132    450.18675  0.080505499  0.082450108            4 
  467000    1.0596135   -3.2874367    451.84326  0.080628704  0.082420062            2 
  468000    1.0938852   -3.2307597    453.15826  0.080690574  0.082390102            3 
  469000    1.0638391   -3.2003182    454.83357  0.080816199  0.082361595            3 
  470000    1.0615604   -3.2357773    455.85146  0.080824726  0.082333442            3 
  471000     1.036261   -3.2648194    455.03067  0.080507903  0.082301887            3 
  472000    1.0861372   -3.2300063    457.02483  0.080689412  0.082270049            3 
  473000    1.0559798   -3.2299476    458.38067  0.080757694  0.082240308            2 
  474000    1.0573804   -3.2353318    458.22509  0.080559967  0.082210281            2 
  475000    1.0661655   -3.2596321    459.16086  0.080554537  0.082180392            2 
  476000    1.0750085    -3.207094    460.82826  0.080677217  0.082149379            6 
  477000    1.0520205   -3.2311202    460.60504  0.080469085  0.082119406            8 
  478000    1.0676361   -3.2594729    459.74897  0.080151494  0.082088718            2 
  479000    1.0626467   -3.2071031    463.88803   0.08070425  0.082057586            3 
  480000    1.0563783   -3.2313129    463.86153  0.080531516   0.08202829            1 
  481000    1.0516266   -3.2593825    463.12618  0.080236691  0.081996919            3 
  482000    1.0478934   -3.2311943    464.29397  0.080272125  0.081965452            2 
  483000    1.0662844   -3.2335545    463.61789  0.079989284  0.081932977            2 
  484000    1.0602788    -3.270559    464.75232  0.080019339  0.081900939            2 
  485000    1.0531874   -3.2172034    467.52789  0.080331253   0.08186851            1 
  486000    1.0521079   -3.2654618    467.35157  0.080135729  0.081837137            2 
  487000    1.0558414   -3.2246333    468.69284  0.080200691  0.081806331            2 
  488000    1.0722365   -3.2666061    466.40388  0.079645471  0.081774919            8 
  489000    1.0588702   -3.2605141    470.13821  0.080118986  0.081742662            1 
  490000    1.0607166   -3.2222506    470.61879  0.080037208  0.081710476            2 
  491000    1.0343773   -3.2993234    472.06776  0.080120122  0.081680586            2 
  492000     1.068117   -3.2605963    470.83323  0.079748176  0.081649788            3 
  493000    1.0605148   -3.2639378    472.48348  0.079865362  0.081619368            1 
  494000    1.0637631   -3.2644237    472.98706  0.079788641  0.081588296            2 
  495000    1.0575078   -3.2526861    475.49714  0.080050024  0.081555549            3 
  496000    1.0678641   -3.2430639     474.5145  0.079723539  0.081523886            2 
  497000    1.0490187   -3.2383543    477.97575  0.080143487  0.081492346            1 
  498000    1.0609498    -3.247922    477.83058  0.079958263  0.081462276            3 
  499000    1.0637012   -3.2689142    476.72254  0.079612982  0.081432137            9 
  500000    1.0337259   -3.2725459    478.24212  0.079707019  0.081400037            3 
  501000    1.0576583    -3.281813    477.66714  0.079452286  0.081369671            2 
  502000    1.0565619   -3.2545491    478.25374  0.079391391  0.081338851            2 
  503000    1.0464923    -3.257239    482.38766  0.079918433  0.081305789            1 
  504000    1.0296399   -3.2711467    480.44433  0.079438546  0.081275752            1 
  505000    1.0550663   -3.2443642    483.37637  0.079765078  0.081245588            3 
  506000    1.0368445    -3.253024    486.20818  0.080073811  0.081215897            3 
  507000    1.0737047   -3.2535177    486.37069  0.079942586  0.081187207            2 
  508000    1.0508663   -3.3083402    484.69806  0.079510837  0.081158327            1 
  509000    1.0575298   -3.2678586    488.87742   0.08003887  0.081126843            4 
  510000    1.0517161    -3.253793    487.15965   0.07960125  0.081095884            2 
  511000    1.0401089   -3.2467577    488.78539  0.079710598  0.081065232            2 
  512000    1.0375894   -3.2566957    490.18714  0.079783063  0.081036503            1 
  513000    1.0555051   -3.2928309    489.52123  0.079519367  0.081006459            1 
  514000    1.0391229   -3.2708655    489.56573  0.079371876  0.080977553            3 
  515000    1.0535712   -3.2674955    492.01352  0.079613838  0.080948822            2 
  516000    1.0688003   -3.2662325    494.17421  0.079808497  0.080921145            2 
  517000    1.0426906   -3.2658747     492.0358  0.079309445  0.080893234            3 
  518000      1.00019   -3.2678538    494.50227  0.079553132   0.08086439            3 
  519000    1.0605882   -3.2711357    495.92143  0.079627718  0.080836808            2 
  520000    1.0512929   -3.2446655    495.75548  0.079447994  0.080809496            3 
  521000    1.0391547   -3.2720875    495.44801  0.079246322  0.080780672            1 
  522000     1.048939   -3.2701465    497.44905   0.07941396  0.080750055            1 
  523000    1.0366648   -3.2739026    496.82616  0.079162868  0.080720115            3 
  524000     1.046004    -3.267086    498.23995  0.079236633  0.080689976            2 
  525000    1.0600504   -3.2613173    497.20334  0.078921164  0.080659756            3 
  526000    1.0467802   -3.2710638    499.54259  0.079141729  0.080630243            2 
  527000    1.0391607   -3.2346468    501.21954  0.079256727  0.080599561            3 
  528000    1.0437878   -3.2498158    502.10742  0.079246752  0.080571129            2 
  529000    1.0666716   -3.2706586      502.361  0.079136893  0.080541318            2 
  530000    1.0545879   -3.2873722    502.90443  0.079073023  0.080512107            2 
  531000    1.0501707   -3.2822645    503.26084  0.078980044  0.080479681            3 
  532000     1.035011   -3.2744101    506.45947  0.079332623  0.080448708            2 
  533000    1.0427962   -3.2651815    506.32093  0.079162121  0.080417613            2 
  534000    1.0246738   -3.2598767     504.6531  0.078753604  0.080387102            2 
  535000    1.0374895   -3.2680748    507.93633  0.079117808  0.080357589            4 
  536000    1.0375132   -3.2738315    507.19732  0.078855305  0.080327039            2 
  537000    1.0253096   -3.2598484     508.6814  0.078938764  0.080297859            6 
  538000    1.0377436   -3.2627504    508.89384  0.078824945  0.080268636            5 
  539000    1.0428349   -3.2833732    510.17785  0.078877218  0.080238157            3 
  540000    1.0339757   -3.2713242    510.72248  0.078815198  0.080209683            3 
  541000    1.0190886   -3.2906148    512.60702  0.078959799  0.080181146            3 
  542000    1.0265986   -3.2855543    511.08103  0.078579494  0.080151022            1 
  543000    1.0355965   -3.2837381     512.6564   0.07867655  0.080119639            3 
  544000    1.0356486   -3.2901162    514.24585  0.078775406  0.080088302            2 
  545000    1.0600027    -3.284398    515.58047  0.078834934  0.080057329            2 
  546000    1.0576833   -3.2586507    514.92699   0.07859081  0.080027366            2 
  547000    1.0387456   -3.2629694    516.84221  0.078738911  0.079996632            2 
  548000    1.0312199   -3.2601327     516.4969  0.078542716  0.079966561            1 
  549000    1.0488848   -3.2997736    515.74304  0.078285221  0.079936235            4 
  550000    1.0130005   -3.2790377    517.88878  0.078467997  0.079906434            1 
  551000    1.0189863   -3.2802246    518.99989  0.078493631  0.079876125            3 
  552000    1.0242123   -3.2578591     520.1794  0.078529499  0.079845357            2 
  553000    1.0329862   -3.2925346     522.2092   0.07869337  0.079814149            4 
  554000     1.050395   -3.2970547    520.82883  0.078343687   0.07978335            7 
  555000    1.0368276   -3.2919969    520.91958  0.078216153   0.07975299            4 
  556000     1.010073    -3.288467    522.77927  0.078354207  0.079722639            3 
  557000    1.0396543    -3.278604    524.30628  0.078441993  0.079692793            1 
  558000    1.0278278   -3.2848726    525.52216  0.078482998  0.079661926            1 
  559000    1.0278059   -3.2876122    524.49214  0.078189049  0.079631776            3 
  560000    1.0335147   -3.2865085    527.57579  0.078508302    0.0796019            3 
  561000    1.0438264   -3.2555668     528.0521  0.078439112  0.079571278            2 
  562000    1.0269533   -3.2835622    528.96134  0.078434362  0.079541711            7 
  563000    1.0426861    -3.274446    526.66357  0.077954939  0.079510507            2 
  564000    1.0426206   -3.2829885    527.13752  0.077886749   0.07947918            2 
  565000    1.0268734   -3.3018912    527.58526  0.077814934  0.079446962            3 
  566000    1.0260258   -3.2853948    529.04288  0.077892062   0.07941396            3 
  567000    1.0120566   -3.2856948    531.27509  0.078082759  0.079381077            5 
  568000    1.0287548   -3.2763918    528.85346  0.077590002  0.079347151            2 
  569000    1.0133458   -3.2974656    528.39659  0.077386729  0.079313404            3 
  570000    1.0182147   -3.3108463    528.40081   0.07725158  0.079278826            1 
  571000    1.0436928   -3.2965702    530.85053  0.077473808  0.079244226            3 
  572000    1.0154336   -3.2885001    530.86068  0.077339843   0.07921021            3 
  573000    1.0392184   -3.3378219    532.66142  0.077466757  0.079175685            6 
  574000    1.0271473   -3.2918724    534.77966  0.077639324   0.07914058            1 
  575000    1.0135152   -3.3089267    533.58449  0.077331085  0.079105498            1 
  576000    1.0343614   -3.2904105     533.5697  0.077194691  0.079071302            2 
  577000    1.0192853   -3.2812024    535.04039  0.077273308  0.079036857            1 
  578000     1.020765   -3.2742801    535.98854  0.077276317  0.079001866            2 
  579000    1.0359236   -3.2983524    537.37813  0.077342852  0.078967383            2 
  580000    1.0421396   -3.2950593    538.46243  0.077365291  0.078933904            1 
  581000    1.0164017   -3.2930414    538.20532  0.077195255  0.078900426            1 
  582000    1.0349919   -3.3020535    542.46618  0.077672707  0.078867866            2 
  583000    1.0355626   -3.3172654    542.13451  0.077492069  0.078835742            2 
  584000    1.0098351   -3.2865689    544.15299  0.077647402  0.078803879            4 
  585000    1.0322956   -3.3159492    542.03934   0.07721358  0.078771522            3 
  586000    1.0224358   -3.3161737     541.5069    0.0770061  0.078739403            3 
  587000    1.0028548   -3.3082063    545.16949  0.077394873  0.078707545            3 
  588000    1.0315959   -3.3097701    546.01345  0.077382859  0.078675069            2 
  589000    1.0004239   -3.2851916    547.91645   0.07752072  0.078641829            4 
  590000    1.0522037   -3.2719849    546.37294  0.077171319  0.078609446            1 
  591000    1.0094078   -3.2884165    547.23396  0.077162149  0.078576221            2 
  592000    1.0112602   -3.3092677    546.44297  0.076920464  0.078542118            1 
  593000    1.0314983   -3.2937534    546.65769  0.076820923   0.07850782            2 
  594000   0.99457417   -3.3051308    548.31286  0.076923802  0.078472581            3 
  595000    1.0171862   -3.3074309    545.21499  0.076360642   0.07843771            1 
  596000    1.0295496   -3.2922216    550.77981  0.077010599  0.078403549            3 
  597000    1.0165892   -3.3221457    549.84742  0.076751454  0.078369344            2 
  598000    1.0054547   -3.3294782    549.42922  0.076564831   0.07833447            8 
  599000    1.0167355   -3.2936192    552.66654  0.076887387  0.078300748            2 
  600000   0.98880363   -3.2931853    554.15201  0.076965557  0.078268234            5 
  601000   0.99084683   -3.3038805    551.70322  0.076497951   0.07823495            2 
  602000   0.99813074   -3.3040391    553.47803   0.07661656  0.078201513            1 
  603000   0.99631525   -3.3014269    557.59105  0.077057912  0.078167429            7 
  604000    1.0210383   -3.3362409    555.22683  0.076604143  0.078134251            4 
  605000   0.99724624   -3.2999837    556.96403  0.076716808   0.07809969            2 
  606000   0.99377615   -3.3194286    557.15914  0.076617043  0.078065586            2 
  607000    1.0344693   -3.3253794     557.8612  0.076587204  0.078030585            2 
  608000    1.0206372     -3.31773    557.58102  0.076422837  0.077996607           13 
  609000     1.010396   -3.2965005    558.08299  0.076366035  0.077962553            3 
  610000    1.0106271   -3.3217687    558.30459  0.076271118   0.07792853            2 
  611000    1.0271061   -3.2980481    560.23574  0.076409675   0.07789429            4 
  612000    1.0082584   -3.3389975    557.00463  0.075844856  0.077859161            2 
  613000    1.0034534   -3.3003397    562.26321  0.076435999  0.077823152            4 
  614000     1.020567   -3.2904491    560.48436  0.076070081  0.077786888            2 
  615000    1.0101306   -3.3024034    563.22111  0.076317224   0.07775055            3 
  616000    1.0232002   -3.3159277    561.86697  0.076010141  0.077714513            2 
  617000    1.0148513   -3.3545433     561.7254  0.075867829  0.077678177            4 
  618000    1.0107299   -3.2886205    563.60307  0.075998257  0.077642452            2 
  619000   0.98629699   -3.3299471    563.37348  0.075844572  0.077607155            6 
  620000   0.99752371   -3.3075618    564.33784   0.07585186  0.077570601            2 
  621000    1.0030621   -3.3026569    565.70914  0.075913733   0.07753495            2 
  622000    1.0295462   -3.3269304     565.1973  0.075723111  0.077499253            2 
  623000   0.99654296   -3.3215852    567.74157   0.07594189  0.077463712            2 
  624000    1.0275196   -3.3256253    566.93509  0.075712485   0.07742725            3 
  625000    1.0282999   -3.3122856     568.3194   0.07577592  0.077391121            2 
  626000   0.98009998   -3.3441728      567.826   0.07558919  0.077353843            2 
  627000    1.0000517   -3.3237547    571.24419  0.075922939  0.077317227            2 
  628000    1.0116697   -3.3425318    570.75364  0.075736948  0.077280677            3 
  629000    1.0086532    -3.301065    573.60115  0.075993793  0.077244901            2 
  630000    1.0010068    -3.332611    571.62292  0.075611498  0.077208745            4 
  631000    1.0054916   -3.3140338    571.67557  0.075498622  0.077173121            2 
  632000   0.99917281   -3.3113079    573.69782   0.07564581  0.077138917            3 
  633000   0.97595226   -3.3552834    573.50337  0.075500707  0.077103793            3 
  634000   0.98789764   -3.3095113    575.12747  0.075595093  0.077068548            2 
  635000    1.0045209   -3.3094586    574.79476  0.075432383  0.077034375            3 
  636000   0.99154107   -3.3460764    573.56822  0.075153068  0.076998412            2 
  637000   0.97916944   -3.3437213    575.87542  0.075336921  0.076962848            3 
  638000   0.99109954   -3.3282513     577.1924  0.075390856  0.076927731            1 
  639000    1.0121466   -3.3287292    579.37056  0.075556933  0.076892597            4 
  640000    1.0044226   -3.3206725    579.00297  0.075391012  0.076857447            4 
  641000    1.0101122   -3.3411043       580.92  0.075522621  0.076821476            3 
  642000   0.97473417   -3.3348871     581.2157  0.075443367  0.076787497            1 
  643000      1.00566   -3.3355283    580.28923  0.075205965  0.076752887            3 
  644000   0.98393443   -3.3415521     580.2645  0.075085986   0.07671843            3 
  645000   0.99541612   -3.3165536    582.47973  0.075255778  0.076683516            2 
  646000   0.98158862   -3.3362366    580.36141  0.074866023  0.076648288            1 
  647000    1.0174614   -3.3352988    582.48674  0.075024051  0.076613798            2 
  648000    1.0097308    -3.335808    586.20807  0.075386841  0.076578698            3 
  649000   0.97640274    -3.363976    582.27248  0.074765341  0.076544903            3 
  650000    1.0108597   -3.3134083    585.51353  0.075065837  0.076510504            2 
  651000   0.99081218   -3.3355646    587.25518  0.075173475  0.076476025            2 
  652000   0.99877793   -3.3279023    587.76847  0.075123782   0.07644158            1 
  653000   0.98351056   -3.3555537    589.40991  0.075218212  0.076407547            3 
  654000   0.97926682   -3.3020111    589.31091  0.075090585  0.076372758            4 
  655000   0.99267502   -3.3507954    591.28387  0.075226955  0.076338399            2 
  656000    1.0032957   -3.3473693    589.20378  0.074848041  0.076305047            3 
  657000    1.0046735   -3.3362356    589.27739  0.074743454  0.076271713            3 
  658000   0.97719262   -3.3493646    591.49514  0.074910732  0.076238267            2 
  659000   0.99454136   -3.3268141    592.23783  0.074890975  0.076206323            4 
  660000   0.97217199   -3.3694863    593.18174  0.074896685  0.076173678            3 
  661000   0.99400746   -3.3284104    592.26306  0.074667556  0.076139723            5 
  662000   0.98210312   -3.3422204    592.74277  0.074615152   0.07610577            1 
  663000   0.97239416   -3.3179789    596.39729  0.074961952  0.076070886            2 
  664000     0.970176    -3.362428    592.67251   0.07438159  0.076035621            4 
  665000   0.96998803    -3.341274    596.32785  0.074727801  0.075999234            4 
  666000   0.97783646   -3.3307523    594.08149  0.074334521  0.075963932            4 
  667000    0.9713742    -3.344276    596.35646  0.074507303  0.075928474            3 
  668000   0.98263919    -3.344498    595.68416  0.074311897  0.075892624            3 
  669000     1.006286   -3.3402662    598.40072  0.074539203   0.07585842            2 
  670000   0.99361938   -3.3605435    599.65951  0.074584517  0.075824471            3 
  671000     1.000964   -3.3618677    599.40023  0.074441161  0.075791152            3 
  672000   0.97673622   -3.3586003    600.93135  0.074520257  0.075757321            2 
  673000   0.98352251   -3.3256306    604.46317  0.074846851  0.075724465            3 
  674000   0.97442432   -3.3503677    600.76744  0.074278863  0.075691872            6 
  675000   0.98849418   -3.3538703    603.72014  0.074533351  0.075658895            2 
  676000     1.009942   -3.3461098    605.90582  0.074692532  0.075627103            1 
  677000    1.0183873   -3.3406728    604.51784  0.074411354  0.075595583            3 
  678000   0.98976746   -3.3436918    605.90378  0.074471949  0.075563467            3 
  679000   0.99783728   -3.3617325    605.58012  0.074322547  0.075531289            2 
  680000   0.99499604   -3.3473793    604.64971  0.074099229  0.075497389            3 
  681000   0.95450841   -3.3773193    607.50949  0.074340368  0.075464233            4 
  682000    0.9844918   -3.3514529    608.62909  0.074368168  0.075431179            2 
  683000   0.97669827   -3.3355886    608.56361  0.074251294  0.075397582            1 
  684000   0.96689084   -3.3674625    607.61874  0.074027624  0.075364247            2 
  685000   0.96715052   -3.3632019    611.05936  0.074338122  0.075330137            4 
  686000    1.0131464   -3.3769306    609.18929  0.074002586  0.075296592            3 
  687000    0.9896356   -3.3364005    611.45004  0.074169097  0.075264774            2 
  688000   0.97098706   -3.3648811    610.06459  0.073893482  0.075232323            1 
  689000   0.97297409   -3.3651674    613.45472  0.074196265  0.075199834            2 
  690000    0.9855877   -3.3526472     613.5183  0.074096413  0.075166637            3 
  691000   0.98013061   -3.3663736     614.8508  0.074149879  0.075133789            2 
  692000   0.97795007   -3.3698371     614.7441  0.074029877   0.07510107            3 
  693000   0.98145251   -3.3787096    613.87299  0.073818301  0.075067923            3 
  694000   0.96924981   -3.3927547    614.20253  0.073751505  0.075035073            3 
  695000     1.005567   -3.3546964    614.99984  0.073740988  0.075001268            1 
  696000   0.97260299   -3.3511846    617.73694  0.073962756  0.074968528            3 
  697000   0.95598511   -3.3652754    616.73851  0.073737268  0.074935468            4 
  698000   0.97423004   -3.3669238    619.79364  0.073996375  0.074902806            3 
  699000   0.98777208   -3.3524787    619.80848  0.073892285  0.074870051            1 
  700000   0.98228197   -3.3664862    619.80095  0.073785827  0.074837089            3 
  701000   0.97729974   -3.3454595    616.92507  0.073338691  0.074803541            2 
  702000   0.99429309   -3.3632195    620.70456  0.073682877  0.074770471            4 
  703000   0.97800387   -3.3665652    622.83938  0.073831126  0.074737076            3 
  704000   0.96981035   -3.3814879    619.49609  0.073330504  0.074703384            2 
  705000   0.97176203   -3.3682895    620.11025  0.073299083  0.074669673            1 
  706000   0.98127608   -3.3620185    622.50258  0.073477642  0.074634668            3 
  707000   0.97736944   -3.3625905    622.62661  0.073388333   0.07460081            2 
  708000   0.99721391   -3.3768403    622.17609  0.073231649  0.074565572            5 
  709000   0.96497452   -3.3450377    623.14832  0.073242633  0.074532001            4 
  710000    0.9653382    -3.369748     624.1409  0.073255974  0.074498731            5 
  711000   0.96102561   -3.3884274    626.16993  0.073390756  0.074464623            4 
  712000   0.95924414   -3.3662671    625.88757  0.073254631   0.07443117            3 
  713000   0.95392836   -3.3790129    626.17889  0.073185938  0.074396727            2 
  714000   0.97374922   -3.3726721    625.30212  0.072981107    0.0743625            5 
  715000    0.9601885   -3.3676456    625.81225  0.072938491  0.074327515            2 
  716000   0.95253207     -3.36038    629.14745  0.073224796  0.074292899            2 
  717000   0.94320029   -3.3991584    627.08456   0.07288291  0.074257513            2 
  718000   0.97038028   -3.3489527    628.89419  0.072991433  0.074222302            3 
  719000   0.97687849   -3.3526838    628.48002  0.072841912  0.074187957            2 
  720000   0.97731395   -3.3871774     629.6064  0.072871111  0.074154285            3 
  721000   0.96797193   -3.3701227    632.45715  0.073099532  0.074120527            2 
  722000   0.95912546   -3.3580321    633.36166  0.073102685  0.074086744            4 
  723000    0.9738434   -3.3860708    630.92047  0.072720201  0.074052914            5 
  724000   0.98995435   -3.3665927    635.07771  0.073098263  0.074018884            5 
  725000   0.99286716    -3.382606    633.36501  0.072800576  0.073984875            2 
  726000   0.96973728   -3.3648272    634.83248  0.072868741  0.073950645            2 
  727000   0.96229605   -3.4039187    631.50191  0.072386738  0.073916282            3 
  728000   0.96280923   -3.3744205    635.68783  0.072766464  0.073881241            4 
  729000   0.95286413   -3.3880205    634.08195  0.072483077  0.073847275            2 
  730000    0.9438936   -3.3616909    635.42442  0.072537034  0.073812276            3 
  731000   0.95816756   -3.3967778    636.49357  0.072559687  0.073777839            2 
  732000    0.9598031   -3.3786238    635.32627  0.072327672  0.073744087            3 
  733000   0.97653342   -3.3800218    637.24383  0.072447003  0.073709577            2 
  734000   0.96511393   -3.4031548    637.53692  0.072381576  0.073674614            3 
  735000   0.97647652   -3.3959148    637.57089  0.072286949  0.073639386            3 
  736000   0.96467759       -3.371    639.17605  0.072370477  0.073604968            1 
  737000   0.96369252   -3.4021736    638.99251  0.072251528  0.073570291            3 
  738000   0.94871829   -3.3981046    640.94908  0.072374557  0.073534632            4 
  739000   0.95221656   -3.3832621    639.66736  0.072132088  0.073498945            3 
  740000   0.96633142   -3.4103421    640.73522  0.072154867  0.073463481            2 
  741000   0.94205022   -3.3568705    643.87873  0.072411013  0.073428294            3 
  742000   0.96028531   -3.3943337    641.91127   0.07209246  0.073394065            1 
  743000   0.94386416   -3.3855152    642.58454  0.072070944  0.073359872            2 
  744000   0.93944952    -3.398408      643.316  0.072056003  0.073324645            2 
  745000   0.95397483   -3.3739493    645.25743  0.072176446  0.073290997            1 
  746000   0.93983091   -3.3874991    647.06838  0.072281991  0.073256771            2 
  747000   0.97315002   -3.4146338    645.04433   0.07195943  0.073223098            6 
  748000   0.97506357    -3.380305    646.75446   0.07205375  0.073190126            3 
  749000   0.96057933    -3.399586    648.95278  0.072202134  0.073157269            2 
  750000   0.95551682   -3.3803772    649.48697  0.072165219   0.07312497            2 
  751000   0.95194525   -3.3774897    650.87099  0.072222701  0.073093741            3 
  752000   0.93528099   -3.4015104    650.58597  0.072095077  0.073061465            2 
  753000   0.98862528   -3.3671587    653.25392   0.07229459  0.073029813            4 
  754000   0.95212797    -3.397315    651.91704  0.072050955  0.072998226            6 
  755000   0.96830377   -3.3726638    652.28516  0.071996154  0.072965967            3 
  756000    0.9466893   -3.4248365    652.71951    0.0719488  0.072933043            4 
  757000   0.95879928   -3.3877061    655.10244  0.072116077  0.072899973            4 
  758000   0.95359774   -3.4084184    652.88537  0.071777195  0.072868062            3 
  759000   0.94579325   -3.3957775    655.25979  0.071943324  0.072836159            5 
  760000   0.95582297   -3.4178917    653.21034   0.07162394   0.07280366            4 
  761000   0.95377592   -3.4122291    653.66096  0.071579168  0.072770584            3 
  762000     0.964294   -3.4214582    655.48653  0.071684879  0.072737006            2 
  763000   0.94607747   -3.3976298    655.78849  0.071623906  0.072704132            3 
  764000    0.9396567    -3.407202    656.49403  0.071607115  0.072670483            3 
  765000   0.94459979   -3.4208864    658.02062  0.071679806  0.072637095            4 
  766000    0.9506514   -3.4245885    658.13112   0.07159825  0.072604375            3 
  767000   0.95906815   -3.3902195    658.06964  0.071498223  0.072571373            7 
  768000   0.92457761   -3.4024054    658.71072  0.071474688  0.072537052            2 
  769000   0.94113957   -3.3992863    658.42036  0.071350277  0.072503026            3 
  770000   0.92038338    -3.378698    661.77581  0.071620759  0.072469323            2 
  771000   0.93247387   -3.3976295    660.36596  0.071375481  0.072436579            2 
  772000   0.92861056   -3.4121788    662.05733  0.071465601  0.072403252            4 
  773000   0.94137392   -3.4064906    662.64003  0.071435966  0.072370419            3 
  774000   0.94187181    -3.413793    663.13146  0.071396583  0.072338311            2 
  775000   0.95239364   -3.4169347    664.49425  0.071450994  0.072306178            4 
  776000   0.94532479   -3.4015769    664.13967   0.07132084  0.072273478            4 
  777000   0.95479431   -3.3884096    665.64755  0.071390772  0.072241301            2 
  778000   0.95919966   -3.4086757    667.20511  0.071465843  0.072208301            3 
  779000   0.94709633   -3.4131865    668.00099  0.071459242  0.072175885            7 
  780000   0.95159853   -3.3997445    667.85225  0.071351736  0.072144038            3 
  781000   0.93715782   -3.4071198    668.57685  0.071337692  0.072112185            2 
  782000   0.94172779   -3.3981939    671.73044  0.071582527   0.07208116            3 
  783000   0.92496587   -3.4112421    668.88027  0.071187768  0.072049156            4 
  784000   0.95155884   -3.4072563    668.15054  0.071019403  0.072016606            2 
  785000   0.94740112   -3.3945668    671.92486  0.071329603  0.071985099            2 
  786000   0.97302806   -3.3745332    672.37256  0.071286318  0.071953183            4 
  787000   0.94607773   -3.4053594     673.2324  0.071286785  0.071921597            6 
  788000    0.9431455   -3.4227305    675.07977  0.071391685   0.07188972            2 
  789000   0.94830205   -3.4223197    674.02477  0.071189773  0.071858756            1 
  790000     0.940966   -3.3920321    672.98467  0.070989944  0.071827296            3 
  791000   0.92687927    -3.411893    675.60616  0.071176376  0.071795203            3 
  792000   0.93502974   -3.4460553    673.98046  0.070915452  0.071763407            2 
  793000   0.92469315   -3.4338403    673.51614  0.070777232  0.071731721            3 
  794000     0.959402   -3.4072567    676.27793  0.070977952  0.071700366            2 
  795000   0.94632862   -3.3875989    674.57242  0.070709897  0.071668664           10 
  796000   0.95952854   -3.3982706    677.49335  0.070926858  0.071638083            3 
  797000    0.9337267   -3.4023558    679.27988  0.071024664  0.071606684            3 
  798000   0.91936144   -3.4037205    679.30968  0.070938772  0.071575286            1 
  799000   0.93899491   -3.4065671    677.78324  0.070690784  0.071543235            2 
  800000   0.92865567   -3.4256176    679.66294  0.070798223  0.071511618            3 
  801000   0.91526626   -3.4117084    680.71905   0.07081971  0.071480539            3 
  802000   0.91236343   -3.4379909    680.94284  0.070754659  0.071449646            5 
  803000   0.93367163     -3.43275    680.93291  0.070665516  0.071418688            5 
  804000   0.90873093   -3.4465428     680.5811  0.070541159  0.071387448            2 
  805000   0.95375779   -3.4241044    683.05147  0.070709262   0.07135613            2 
  806000   0.92799119   -3.4362643    686.35573  0.070963164  0.071325758            2 
  807000   0.95539259   -3.4311677    685.28906  0.070765082  0.071295578            8 
  808000   0.90229588   -3.4267972    685.11082  0.070659119  0.071265064            2 
  809000   0.92665179   -3.4308418    685.73022  0.070635581  0.071235656            3 
  810000   0.93106524   -3.4322368    687.30602  0.070710495  0.071205938            3 
  811000   0.93845652   -3.4013705     690.9918  0.071002035  0.071177066            3 
  812000   0.92694081   -3.4142163    692.01918  0.071020031  0.071148204            3 
  813000   0.92301267   -3.4371607    692.12458  0.070943478  0.071119748            4 
  814000   0.91638515   -3.4299636    690.49166  0.070689154  0.071090945            4 
  815000   0.90320768   -3.4180943    690.94777  0.070649056  0.071062165            3 
  816000   0.95173213   -3.4266294    694.02194  0.070876423  0.071033771            6 
  817000   0.91804556   -3.4362105    690.72161  0.070453041  0.071004319            3 
  818000   0.92173015   -3.4467667    693.84793  0.070685404  0.070975739            2 
  819000   0.91484228   -3.4355519    691.50597  0.070360803  0.070946758            4 
  820000   0.92651365   -3.4291208    694.43843  0.070573011   0.07091836            5 
  821000   0.92154604   -3.4213169    691.78518  0.070217741  0.070889148            3 
  822000   0.94382974   -3.4637997    694.72743    0.0704306  0.070860696            3 
  823000   0.92389466   -3.4549759     695.0748  0.070380195  0.070832204            4 
  824000   0.92742338   -3.3867935    697.67635  0.070557883  0.070804117            3 
  825000   0.93768453   -3.4353125    695.73892  0.070276658  0.070776047            2 
  826000    0.9310659   -3.4324145    698.30275  0.070450237  0.070747385            3 
  827000     0.942111   -3.4281387    697.29469  0.070263472  0.070719079            1 
  828000     0.926265   -3.4385251    699.35352  0.070385821  0.070690026            3 
  829000   0.90341261   -3.4204875    697.97563  0.070162408  0.070661081            2 
  830000   0.91368638   -3.4704853    699.97297  0.070278411  0.070631876            1 
  831000   0.92463601   -3.4185311    702.63331  0.070460621  0.070602515            3 
  832000   0.94733423   -3.4411201    701.99073  0.070311572  0.070573848            4 
  833000   0.92765789    -3.441967    701.44521   0.07017259  0.070545822            2 
  834000   0.93016161   -3.4439311    702.27714  0.070171577  0.070517968            4 
  835000   0.92020536   -3.4564036    704.27648  0.070287074  0.070489474            4 
  836000   0.90677818   -3.4784088    700.77953  0.069854419  0.070460537            2 
  837000   0.90017388   -3.4620812    701.87717  0.069880244  0.070431558            2 
  838000   0.92761227   -3.4501346    703.00809  0.069909317  0.070401403            1 
  839000   0.91776448   -3.4278067    702.64272  0.069789702  0.070371684            3 
  840000   0.92259336   -3.4739796    702.87586  0.069729748  0.070341274            3 
  841000   0.91325528   -3.4210929    704.18517  0.069776572  0.070310517            3 
  842000   0.93007995   -3.4354814    705.72561  0.069846161  0.070280393            2 
  843000   0.92562965   -3.4620977    703.44105   0.06953747  0.070249496            4 
  844000   0.92498747   -3.4566336    704.56954  0.069566503  0.070218575            4 
  845000   0.91890257   -3.4549833    699.48439  0.068982682  0.070186922            4 
  846000   0.91863011   -3.4392362    702.84295  0.069231969  0.070155113            3 
  847000   0.92420054   -3.4685131    702.09176  0.069076325   0.07012299            2 
  848000   0.88929346   -3.4423691     704.8614   0.06926704  0.070090966            5 
  849000   0.90357865   -3.4277281    705.02544  0.069201555  0.070058383            4 
  850000   0.90575756    -3.439778    705.90257  0.069206135  0.070025859            4 
  851000   0.90087116   -3.4781059    707.76276  0.069306969  0.069993659            3 
  852000   0.91583254   -3.4614048     707.8793  0.069237021  0.069961512            5 
  853000    0.9143696    -3.401062    711.85738  0.069544488  0.069929627            3 
  854000   0.91014236   -3.4388637     709.4298  0.069226171  0.069897787            3 
  855000    0.9165339   -3.4523148    710.33963  0.069233882  0.069865442            2 
  856000   0.90884213   -3.4587167    710.46349  0.069165059  0.069833431            3 
  857000   0.90924929   -3.4390563    708.60555   0.06890369  0.069801392            2 
  858000   0.92251562   -3.4527708     711.2634  0.069081527   0.06976888            3 
  859000   0.91759382   -3.4487739    712.25693   0.06909749  0.069736328            2 
  860000     0.907259   -3.4396654     711.4786  0.068941725  0.069704735            2 
  861000   0.92516976    -3.455678    709.55611  0.068675582  0.069672597            4 
  862000   0.91415661   -3.4678115    713.55089  0.068982105  0.069640538            3 
  863000   0.93653803   -3.4605881    712.91248  0.068840526  0.069609397            5 
  864000   0.90522597   -3.4740853    714.97533  0.068959812  0.069577115            3 
  865000   0.91355907   -3.4407203    714.59218  0.068843178  0.069546005            3 
  866000   0.89644704   -3.4648231     715.0127  0.068804147   0.06951423            2 
  867000   0.90949717   -3.4800464    714.36406  0.068662443  0.069482715            4 
  868000   0.90125744   -3.4639563    714.39005  0.068585834  0.069450845            5 
  869000   0.92084263   -3.4659741    718.16544  0.068868953  0.069419175            6 
  870000   0.90735374   -3.4695744     717.4448  0.068720767  0.069387879            2 
  871000   0.90796531   -3.4646224    718.65105  0.068757276  0.069356456            2 
  872000   0.91956765   -3.4635472    718.23451  0.068638619  0.069325994            4 
  873000   0.90443662    -3.424881    719.96875  0.068725539  0.069294872            2 
  874000   0.88446904   -3.4685809    722.63872   0.06890148  0.069264429            3 
  875000   0.88536332   -3.4607025    723.33224  0.068888784  0.069233801            6 
  876000   0.93349335   -3.4446701     724.3313  0.068905185  0.069203461            4 
  877000   0.90876177   -3.4485357    724.93888  0.068884348  0.069173384            3 
  878000   0.90823493   -3.4603812    721.53135  0.068482475   0.06914283            4 
  879000   0.90942705   -3.4567464    724.17904  0.068655579  0.069112844            2 
  880000   0.89720914   -3.4673748    724.68921  0.068625872    0.0690832            3 
  881000   0.90607453   -3.4900276    722.91732  0.068380375  0.069052833            3 
  882000   0.89603162   -3.4458245    723.89753  0.068395458  0.069022771            3 
  883000   0.91265838   -3.4783572    723.86247  0.068314691  0.068992209            3 
  884000    0.8836331   -3.4482194    726.36731   0.06847354  0.068961359            2 
  885000   0.89600619   -3.4895842    726.90675  0.068446963   0.06893112            3 
  886000   0.90457623   -3.4338959    727.70388  0.068444684  0.068900273            4 
  887000   0.89905431   -3.4422447    727.76207  0.068372987  0.068869496            4 
  888000   0.90565361   -3.4757606     724.6789  0.068006653  0.068838661            3 
  889000   0.90516341   -3.4753653    727.65072  0.068208729  0.068807127            5 
  890000   0.90599957   -3.5179578    726.51949   0.06802617  0.068775336            2 
  891000   0.88050393   -3.4580843    727.01695  0.067996347  0.068743953            3 
  892000   0.90514632   -3.4785826    728.72707  0.068079883  0.068712036            3 
  893000   0.88519792   -3.4466105    730.44884  0.068164318    0.0686802            2 
  894000   0.88747063   -3.4753095    726.94078  0.067761072  0.068648159            4 
  895000   0.89843114   -3.4504518      730.537  0.068020205  0.068616451            4 
  896000   0.89524759   -3.4656958    729.50247  0.067848072  0.068584556            5 
  897000    0.8972286   -3.4583958    729.03696  0.067729186  0.068552249            3 
  898000   0.89292271   -3.4638831    730.39824  0.067780089  0.068520377            3 
  899000   0.90498607   -3.4775717    728.89443  0.067565297  0.068489138            4 
  900000   0.88747648   -3.4832773    731.48969  0.067730527   0.06845735            2 
  901000   0.90736972    -3.493256    730.56031  0.067569396  0.068425807            4 
  902000   0.88236399   -3.4825628    735.45584   0.06794677   0.06839458            2 
  903000   0.88228203   -3.4809816    734.88808  0.067819128  0.068362858            2 
  904000   0.92102316   -3.5060643    733.04458  0.067574169  0.068331106            2 
  905000   0.90511991    -3.465926    732.34806  0.067435364  0.068299384            2 
  906000   0.89727216   -3.4921749    734.45403  0.067554639  0.068267855            2 
  907000   0.87984459   -3.4870906    736.05269  0.067627039  0.068235245            2 
  908000   0.87002096   -3.4681663    735.36489  0.067489436  0.068203293            5 
  909000   0.89480497   -3.4906044    735.03653  0.067385087   0.06817095            5 
  910000      0.88641   -3.4756006    733.74705  0.067192954  0.068138456            8 
  911000   0.87152086   -3.5051503    733.31721  0.067079877  0.068105541            2 
  912000    0.8681115   -3.5046465    735.65713  0.067220132  0.068071514            2 
  913000   0.88694713   -3.5030445    735.04811  0.067090919  0.068037506            7 
  914000   0.88200957   -3.4986649    733.85441  0.066908681  0.068004013            6 
  915000   0.88867198   -3.5186268    732.59126  0.066720516  0.067970263            3 
  916000   0.88196211   -3.4987302    738.09474  0.067148357  0.067936464            4 
  917000   0.86483038   -3.4917383    737.29568  0.067002515  0.067902626            3 
  918000   0.90340226   -3.4922311    737.92619  0.066986763  0.067869072            2 
  919000   0.88321242    -3.484502    738.60898  0.066975787  0.067835475            2 
  920000    0.8840109   -3.4740813       736.32  0.066695652  0.067801746            3 
  921000   0.89332738   -3.4725022    737.96241  0.066771843  0.067767685            3 
  922000   0.87293007   -3.4867069    740.07913  0.066890739  0.067734539            4 
  923000   0.88095254   -3.4998282    740.34097  0.066841907  0.067700502            3 
  924000   0.90050608   -3.4724211    741.36789  0.066862184  0.067666638            5 
  925000   0.89927452   -3.5016959    741.27023  0.066781102  0.067633026            4 
  926000    0.8801359    -3.506758    741.93472  0.066768783  0.067598711            3 
  927000   0.88691772   -3.5189974    740.81302  0.066595921  0.067564913            3 
  928000   0.88372272   -3.4902083    740.01935  0.066452887  0.067530785            2 
  929000   0.88165499   -3.4980627    742.05586  0.066564035  0.067496819            3 
  930000   0.87612616   -3.5009009    743.27863  0.066602027  0.067463405            1 
  931000   0.88756409   -3.5054105    743.55887  0.066555574  0.067429947            3 
  932000   0.87504287    -3.542456    743.55706     0.066484  0.067396032            5 
  933000   0.90466039    -3.495568    744.40871  0.066488809  0.067363141            1 
  934000   0.88270725   -3.4863737    748.10565  0.066747471  0.067330176            2 
  935000   0.88611655   -3.4933265    746.76078  0.066556219  0.067296918            2 
  936000   0.87799863   -3.4819486    745.10052  0.066337297  0.067263547            4 
  937000   0.87831374   -3.4995078     746.1629  0.066360983  0.067229857            3 
  938000   0.88327166   -3.5258822     744.6313  0.066154167   0.06719628            5 
  939000   0.87581425   -3.4934457    752.00347  0.066737972  0.067163061            2 
  940000   0.86885454   -3.5097143     746.5996  0.066187908  0.067129417            6 
  941000   0.87798236   -3.5255173    746.15105  0.066077847  0.067095458            6 
  942000   0.86536017    -3.495727    747.70042  0.066144765  0.067062306            2 
  943000   0.87075965   -3.5131665    747.27432  0.066036967  0.067028922            3 
  944000   0.87593807   -3.4967257    750.29086  0.066233303  0.066995776            2 
  945000   0.87983625   -3.5048824    748.34731  0.065991826  0.066962386            3 
  946000   0.85845756   -3.5080877    749.67269  0.066038821  0.066929495            2 
  947000   0.89729186   -3.5486572    751.77639  0.066154205  0.066897054            6 
  948000   0.87703373   -3.5386149    749.23401  0.065860936  0.066864401            4 
  949000   0.86117342   -3.5135648    751.95742  0.066030683  0.066831882            2 
  950000   0.87103745   -3.5129307    753.15131  0.066065905  0.066799188            3 
  951000   0.87318049    -3.482657    751.31539  0.065835558  0.066766846            2 
  952000   0.86607134   -3.5381477    752.96787  0.065911053  0.066734725            3 
  953000   0.85587174   -3.5122411    756.70736  0.066168884  0.066702658            3 
  954000   0.86406477   -3.4821828    757.87272  0.066201321  0.066670533            8 
  955000   0.85735625   -3.5004712    756.16395  0.065982892  0.066638429            2 
  956000   0.86792305   -3.5054182    756.87458  0.065975818  0.066606569            2 
  957000   0.87932139   -3.5093169    756.86321  0.065905887  0.066574279            2 
  958000   0.85754903   -3.5071602    758.75512  0.066001663  0.066541956            3 
  959000   0.87207265   -3.5190697    758.05076  0.065871634  0.066509763            3 
  960000   0.89906288   -3.5182268    757.77243  0.065778857  0.066478045            4 
  961000    0.8634781   -3.5269432    757.42319  0.065680124  0.066446356            4 
  962000   0.86710387   -3.5146075    759.86354  0.065823245  0.066414373            2 
  963000   0.87915204   -3.5390968    758.77692  0.065660862  0.066382156            2 
  964000   0.88423717   -3.5416785    761.01658  0.065786357  0.066349809            6 
  965000   0.88023859   -3.5226476     760.1605  0.065644257  0.066317467            5 
  966000   0.87578809   -3.5242901    761.03395  0.065651652  0.066285478            3 
  967000    0.8830188   -3.5354019    760.16512  0.065508887  0.066253113            3 
  968000   0.85850328   -3.5302447    761.04939  0.065517337  0.066220967            4 
  969000   0.85679134   -3.4867057    763.21307  0.065635799  0.066188814            5 
  970000    0.8848126   -3.5076514    761.71655  0.065439566  0.066156411            3 
  971000   0.85175803   -3.5152282    761.27061    0.0653339  0.066124057            3 
  972000   0.86826934   -3.5358411     759.0443  0.065075814  0.066091377            3 
  973000   0.88847974   -3.5488089    760.47171  0.065131184  0.066058365            3 
  974000    0.8655487   -3.5309909    765.07334   0.06545802  0.066025572            3 
  975000   0.86556431   -3.5262297    766.74998  0.065534187  0.065993619            3 
  976000   0.85865422   -3.5187654    763.31727  0.065173947  0.065961392            3 
  977000   0.87086515   -3.5082467    765.17743  0.065265902  0.065929378            3 
  978000   0.85506726   -3.5262594    762.52951  0.064973543  0.065897263            5 
  979000   0.89110273   -3.5112347     764.4278  0.065068761  0.065865062            2 
  980000   0.88742188   -3.5192098    766.98266  0.065219614  0.065833427            3 
  981000   0.85391505   -3.5237391     763.1526  0.064827778  0.065802094            6 
  982000   0.85641774    -3.523974    768.54546  0.065219404  0.065770419            6 
  983000   0.86915804   -3.5513953    767.58308  0.065071472  0.065738291            2 
  984000   0.86872622   -3.5358114    767.73709  0.065018385  0.065705883            3 
  985000    0.8745951    -3.541768    767.56514  0.064937829  0.065674048            6 
  986000   0.84467594   -3.5308997    770.91813  0.065155352  0.065642087            6 
  987000   0.86648567   -3.5378394    771.64141  0.065150406   0.06561036            3 
  988000   0.87054951   -3.5276082    769.85321  0.064933638  0.065578354            4 
  989000   0.84644101   -3.5162482    770.00417  0.064880702  0.065546114            3 
  990000   0.84827627   -3.4979704    772.08498  0.064990318  0.065514522            6 
  991000   0.85579244   -3.5573231    772.87846  0.064991461  0.065483049            4 
  992000   0.86542598   -3.5628165    768.91871  0.064593306  0.065451668            3 
  993000   0.86968351   -3.5589671    773.56348   0.06491805  0.065419789            4 
  994000   0.86778579   -3.5394859    771.42184  0.064673192  0.065388334            2 
  995000   0.84225233   -3.5212572    774.11628  0.064833859  0.065356682            3 
  996000   0.85112484   -3.5421705    772.91455  0.064668219  0.065324743            4 
  997000   0.86385903   -3.5574313    776.71068  0.064920652  0.065293317            1 
  998000   0.87133742    -3.527246    772.33115  0.064489909  0.065261781            3 
  999000   0.84809563   -3.5356324    775.78822  0.064713732  0.065230141            6 
 1000000   0.85334316   -3.5373331    776.26774  0.064688978  0.065198479            2 
 1001000   0.84894864   -3.5170216    778.92194  0.064845317  0.065166815            6 
 1002000   0.86380585   -3.5227533    778.81325  0.064771561  0.065134608            4 
 1003000   0.84661985   -3.5185584    777.60342  0.064606465  0.065102887            5 
 1004000   0.85334696    -3.564867    773.17241  0.064174336  0.065070636            8 
 1005000   0.86289437   -3.5639116    776.23999  0.064364842  0.065038636            4 
 1006000   0.84486278   -3.5651555    776.41208  0.064315116  0.065006554            4 
 1007000   0.85782021   -3.5393148    782.16049  0.064726952  0.064974598            6 
 1008000   0.85144253   -3.5401093    777.79143   0.06430154  0.064942991            3 
 1009000   0.86136044   -3.5240806     780.8624  0.064491444   0.06491175            4 
 1010000   0.85766987   -3.5792482    777.75847  0.064171491  0.064880143            4 
 1011000   0.82124647   -3.5541794    783.34626    0.0645686  0.064849264            3 
 1012000   0.83679676   -3.5780021    782.29464  0.064418202  0.064818493            7 
 1013000   0.83948661    -3.557438     782.0789  0.064336863  0.064787613            2 
 1014000   0.84602223    -3.542837    783.84364  0.064418445  0.064756809            5 
 1015000   0.83220377   -3.5615781    781.33334  0.064148879  0.064725957            4 
 1016000   0.85194821   -3.5702519    780.39319  0.064008627  0.064695196            3 
 1017000   0.86196871   -3.5512815    784.82053  0.064308467   0.06466387            2 
 1018000   0.84693129   -3.5510415    785.85381   0.06432988  0.064632845            6 
 1019000   0.82901105   -3.5468223    788.78049  0.064506091  0.064602146            4 
 1020000   0.84624794   -3.5437054    784.82029  0.064119305  0.064571408            4 
 1021000   0.87181334    -3.547128    783.61946  0.063958493  0.064540983            4 
 1022000   0.85118969   -3.5581197    785.65128  0.064061585  0.064510598            3 
 1023000   0.84678689   -3.5717626    787.17368  0.064122978  0.064480116            4 
 1024000   0.85542217   -3.5539011    786.36295  0.063994381  0.064449557            4 
 1025000   0.85893453   -3.5544903    785.68172  0.063876563  0.064418844            3 
 1026000   0.83752004    -3.591419    787.79387  0.063985857  0.064387863            3 
 1027000   0.84192563   -3.5657427    788.36941  0.063970254  0.064357077            2 
 1028000   0.84279122   -3.5736378    789.54266  0.064003134  0.064326115           10 
 1029000    0.8407965   -3.5515413    789.49885  0.063937387   0.06429519            9 
 1030000   0.84447913   -3.5597661     786.6933  0.063648325  0.064263873            4 
 1031000   0.83728306   -3.5657214    789.47564  0.063811481  0.064232753            6 
 1032000    0.8417239   -3.5716785     786.9325  0.063544291  0.064201868            7 
 1033000   0.85342596   -3.5316496    791.57306  0.063857136  0.064171133            3 
 1034000   0.83593543   -3.5730331    788.99409  0.063587532  0.064139988            4 
 1035000    0.8434145   -3.5578163    792.48209  0.063806931  0.064108855            6 
 1036000   0.82997752   -3.5783504    791.56452  0.063671535  0.064077933            4 
 1037000   0.84755414   -3.5516875    792.16682  0.063658536  0.064047247            5 
 1038000   0.85142707   -3.5968613     792.8158  0.063649309  0.064016783            4 
 1039000   0.84118627   -3.5575616    792.21771  0.063540079  0.063986167            6 
 1040000    0.8287427   -3.5604256    793.98952  0.063620955  0.063955334            5 
 1041000   0.83491708   -3.5683071    795.35198  0.063668907  0.063924498            8 
 1042000   0.82330526   -3.5630168    795.60617  0.063628132  0.063893691            5 
 1043000   0.83147117   -3.5558393     796.4285   0.06363283  0.063862927            2 
 1044000   0.81367369   -3.5520578    793.77607  0.063360159  0.063832172            3 
 1045000   0.83638128    -3.566499    795.32781   0.06342327  0.063801242            2 
 1046000   0.82631629    -3.587716    795.15122  0.063348568  0.063770262            3 
 1047000   0.84806372   -3.5584464    793.37713  0.063146859  0.063739598            5 
 1048000   0.83587994   -3.5838237    796.40329  0.063327234  0.063708694            3 
 1049000   0.84539079   -3.5690037    796.37861  0.063264904  0.063677617            5 
 1050000   0.81516272   -3.5845874    794.69051  0.063070675  0.063646608            3 
 1051000   0.82094898   -3.5699797    798.07806  0.063279263  0.063615869            3 
 1052000   0.81253818   -3.5875124     796.5976  0.063101838  0.063585361            4 
 1053000   0.82167366   -3.5483129    799.46411  0.063268765  0.063554993            4 
 1054000   0.82840303   -3.5676392    800.58061  0.063297012   0.06352453            4 
 1055000    0.8242437   -3.5526752    800.72253  0.063248225  0.063494198            2 
 1056000   0.82832695   -3.5689134    801.10259  0.063218323  0.063463811            3 
 1057000   0.83806842   -3.5667232    802.81726  0.063293697  0.063433269            5 
 1058000   0.82204818    -3.574098    800.99726  0.063090522  0.063402473            3 
 1059000   0.83410321   -3.5626681    798.61116  0.062843182  0.063371149            3 
 1060000   0.83622749    -3.580499    804.13886  0.063218463   0.06334056            3 
 1061000   0.83123719    -3.570363    798.17519   0.06269048  0.063309297            7 
 1062000   0.84442606   -3.5956181    800.86351  0.062842397  0.063277867            3 
 1063000   0.83182634   -3.5885594    799.99676  0.062715331  0.063246625            6 
 1064000   0.82483955   -3.5820712    802.88025  0.062882225  0.063215912            5 
 1065000   0.82055805   -3.5684609    802.64679  0.062804913   0.06318512            6 
 1066000   0.83181309   -3.5861321    803.64664  0.062824159  0.063154265            5 
 1067000   0.81247005   -3.5825954    804.46368  0.062829091  0.063123449            6 
 1068000   0.81329017   -3.5635464    804.72545  0.062790687   0.06309293           10 
 1069000   0.83316229   -3.5972847    802.06093  0.062524238  0.063062623            5 
 1070000    0.8388638   -3.5906381    805.79048  0.062756268   0.06303172            5 
 1071000   0.81489335   -3.5890698     802.9554  0.062477078  0.063000768            4 
 1072000   0.83780646   -3.5867603    803.41443   0.06245448  0.062969901            4 
 1073000   0.82653907    -3.562436    808.15731  0.062764625   0.06293869            4 
 1074000   0.83739637   -3.5617118    805.86645  0.062528433   0.06290766            5 
 1075000   0.83382507   -3.6066431    804.19269  0.062340518  0.062876614            3 
 1076000   0.81393967   -3.5879209    805.68237  0.062397953   0.06284584            4 
 1077000   0.81725528   -3.5810907    806.67131  0.062416536  0.062815584            6 
 1078000   0.81862456   -3.6107106    808.49076  0.062499286  0.062784466           17 
 1079000   0.85036918   -3.6094013    808.04046  0.062406585  0.062753506            8 
 1080000    0.8108722   -3.5703165    809.84119  0.062487746  0.062722294            4 
 1081000   0.81931003    -3.556512    810.50114  0.062480815  0.062691352            3 
 1082000   0.83940116   -3.5852143    807.01215  0.062154355  0.062659756            3 
 1083000   0.82246457   -3.5685122    806.69666  0.062072689  0.062628463            4 
 1084000   0.83028652   -3.6016609    808.41174  0.062147274  0.062596745            5 
 1085000   0.81590384   -3.5800294    809.02106  0.062136794  0.062564722            5 
 1086000   0.82365107   -3.5979236    806.64026  0.061896889  0.062533064            8 
 1087000   0.82492653   -3.5923712    808.74858  0.062001578  0.062501381            6 
 1088000   0.82767745   -3.5863131    809.58703   0.06200881  0.062470022            2 
 1089000   0.80598893   -3.5990208    811.92299  0.062130624  0.062438216            5 
 1090000    0.8241815   -3.5687501    809.00037  0.061850181  0.062406538            3 
 1091000   0.81171034   -3.6029721    809.98099  0.061868392    0.0623748            3 
 1092000   0.81430113    -3.595652    813.75404  0.062099667  0.062343386            6 
 1093000   0.81734068   -3.6406009     811.7247  0.061888129  0.062311685            6 
 1094000     0.846889   -3.6007935    810.14578  0.061711287  0.062280208            5 
 1095000   0.81745594   -3.6013026    810.60702  0.061690032  0.062248784            6 
 1096000   0.82390981     -3.62773    812.71879  0.061794312  0.062217152            4 
 1097000   0.82864343   -3.5870282     808.9562  0.061452158  0.062185311            8 
 1098000   0.79434639   -3.5891431    813.39112  0.061732781   0.06215361            4 
 1099000    0.8182318   -3.6041967    811.23104  0.061512818  0.062121957            5 
 1100000   0.81736407   -3.5863111    813.80042  0.061651547  0.062090345            4 
 1101000   0.81130632   -3.6032499    813.90533  0.061603492  0.062058548            3 
 1102000      0.80385   -3.5917122    813.26478  0.061499152  0.062026209            3 
 1103000   0.81357333   -3.6099963    814.86469  0.061564271  0.061994111            6 
 1104000   0.82122299   -3.6192598    813.19344  0.061382355  0.061962125            6 
 1105000   0.82297715   -3.6131834    815.48782  0.061499836  0.061930601            5 
 1106000   0.80912006   -3.5889699     814.3131  0.061355718  0.061898979            8 
 1107000   0.81318752   -3.6029244    814.00643  0.061277208  0.061867204            3 
 1108000   0.81272657    -3.630084    812.88703  0.061137713  0.061835459            5 
 1109000   0.82837531   -3.5916007     815.1678  0.061253967  0.061803377            6 
 1110000   0.81823643   -3.6215585    813.99867  0.061111011  0.061771048            5 
 1111000   0.81478798   -3.5762293    816.35954  0.061233089   0.06173864            6 
 1112000   0.80732225   -3.6088544    813.06003  0.060930758  0.061706407            7 
 1113000   0.80360705   -3.6162535    815.44065  0.061054256  0.061674176            4 
 1114000   0.79445198   -3.5961791    818.19015  0.061205128  0.061642154            7 
 1115000   0.81627277   -3.6212821    814.59131  0.060881263   0.06160992            2 
 1116000   0.81817413   -3.5998618    820.48916  0.061267112  0.061577508            3 
 1117000   0.82429287   -3.6059315     817.1673  0.060964436  0.061545775            4 
 1118000   0.81264853   -3.6184139    817.90551  0.060964931  0.061513744            2 
 1119000   0.80739909   -3.6172965    818.66934  0.060967332  0.061481729            5 
 1120000   0.79540237   -3.6318031    820.17085  0.061024617   0.06144962            2 
 1121000     0.826355   -3.6300393    820.19243  0.060971784  0.061417528            3 
 1122000   0.81697946   -3.6127134    819.10406  0.060836606  0.061385556            3 
 1123000   0.81622532    -3.633079     821.5383  0.060963067  0.061354039            2 
 1124000   0.80795947   -3.6337998    819.62927  0.060767295  0.061322211            5 
 1125000   0.81526856   -3.6123789    821.81051  0.060874853  0.061290491            5 
 1126000   0.81646731   -3.6367498    820.43036  0.060718647  0.061258432            2 
 1127000   0.80777072   -3.6302026    820.49876  0.060669829  0.061226166            6 
 1128000   0.80156573   -3.6297467    821.36499  0.060680038  0.061193783            5 
 1129000   0.79400944   -3.6228027    822.39703  0.060702468  0.061161494            5 
 1130000   0.79556917   -3.6239631    822.32123  0.060643158  0.061129356            6 
 1131000   0.78949711   -3.6179492    822.42814  0.060597417  0.061097249           12 
 1132000   0.79917783   -3.6228717    822.40105  0.060541891  0.061065137            4 
 1133000   0.78977948   -3.6210307    823.52474  0.060571105  0.061033252            7 
 1134000   0.80905887   -3.6288594    823.12723  0.060488479  0.061001251            4 
 1135000    0.8067387   -3.6188404    821.72867  0.060332501  0.060969158            5 
 1136000   0.80317985   -3.6473039    822.00174  0.060299423  0.060937312            5 
 1137000   0.80278375   -3.6291695     817.8332  0.059940868  0.060905084            4 
 1138000   0.80279379   -3.6305403    826.34953  0.060511829  0.060872906            4 
 1139000   0.80298281   -3.6099092    823.65251  0.060261378  0.060840732            4 
 1140000   0.78863961   -3.6093465    822.56717  0.060129179  0.060808715            3 
 1141000   0.81882508   -3.6031627    825.73079  0.060307537  0.060776482            2 
 1142000   0.79342891   -3.5902914    827.04598  0.060350699  0.060744646            2 
 1143000   0.78887193   -3.6300635    826.13347   0.06023137  0.060712438            3 
 1144000   0.78666552   -3.6286829    826.06679  0.060173863  0.060680258            3 
 1145000   0.78048782   -3.6146206    827.68938  0.060239401  0.060648282            4 
 1146000   0.81428972   -3.6365807    825.08379  0.059997367  0.060616535            6 
 1147000   0.78848402   -3.6282684    829.94535  0.060298267  0.060584472            4 
 1148000   0.80180836   -3.6315922    828.68384  0.060154169  0.060552581            3 
 1149000   0.78738561   -3.6262738     827.9286  0.060047041  0.060520631            5 
 1150000   0.77628146   -3.6398658    829.60666  0.060116425   0.06048878            4 
 1151000   0.80283723   -3.6531001    826.72733  0.059855729   0.06045707            7 
 1152000   0.80023379   -3.6498409    830.40539  0.060069835  0.060425049            4 
 1153000   0.80781867   -3.6301709    828.01743  0.059845145  0.060393125            5 
 1154000   0.79352506   -3.6361066    829.11374  0.059872454  0.060361949            5 
 1155000   0.77455805   -3.6181182    834.69475  0.060223286  0.060330773            3 
 1156000   0.77804525   -3.6061824    832.48728  0.060012059  0.060299984            4 
 1157000   0.80923343   -3.6165783    831.75922  0.059907751  0.060268816            4 
 1158000   0.77833587   -3.6307729    830.64828  0.059776071  0.060237647            5 
 1159000     0.788204   -3.6321156    832.12591  0.059830738  0.060206077            2 
 1160000   0.79564275   -3.6409868    832.79155  0.059826979  0.060174793            5 
 1161000   0.78580927   -3.6388039    832.42769  0.059749332  0.060143728            3 
 1162000   0.77841701   -3.6231031    833.94285  0.059806572  0.060112539            4 
 1163000   0.78801733   -3.6432413    831.81768  0.059602872  0.060081252            5 
 1164000   0.78427809   -3.6558061    835.10424  0.059786958  0.060050055            6 
 1165000   0.78933637   -3.6293812     834.5068  0.059692904  0.060018896            4 
 1166000    0.7857289   -3.6337098    834.08685  0.059611696  0.059987756            4 
 1167000   0.78296537   -3.6383021    833.09343  0.059489677  0.059957008            5 
 1168000   0.78629809   -3.6476323    834.76134  0.059557744  0.059925818            3 
 1169000   0.80046427   -3.6380589    834.75055  0.059506027  0.059894429            3 
 1170000   0.78347142   -3.6634469    836.68023  0.059592609  0.059863253            5 
 1171000   0.78123016   -3.6705746     834.5211  0.059388066  0.059831713            3 
 1172000   0.76226181   -3.6582492    834.79391  0.059356791  0.059800536            2 
 1173000    0.7853863   -3.6720683    836.76272  0.059446059  0.059768755            2 
 1174000   0.78335797   -3.6524532    835.12494  0.059279169  0.059737255            3 
 1175000   0.78826548   -3.6425185    834.45464   0.05918118  0.059705756            5 
 1176000   0.78927249   -3.6823475    834.29604  0.059119618  0.059673904            7 
 1177000   0.78084125    -3.654586    838.18119  0.059344462  0.059642322            5 
 1178000   0.77898366   -3.6446491     839.4658   0.05938496  0.059610713            4 
 1179000   0.78286515   -3.6794127    833.52954  0.058915008  0.059579466            4 
 1180000   0.78804205   -3.6376973    839.75948  0.059305048  0.059547943            1 
 1181000   0.77126216   -3.6394535     836.9254  0.059054854  0.059516471            4 
 1182000   0.78051379   -3.6446758    837.46158  0.059042695   0.05948459            5 
 1183000   0.79364819   -3.6557302    839.33135  0.059124496  0.059452997            7 
 1184000   0.79139916   -3.6460742    837.51899  0.058947001  0.059421582            2 
 1185000   0.77646603   -3.6373363    842.96373   0.05928015  0.059390354            3 
 1186000   0.78783651   -3.6433016    841.00694  0.059092674  0.059359137            8 
 1187000   0.77942418   -3.6431894    841.62327   0.05908616  0.059327875            3 
 1188000   0.77489372   -3.6728988    839.76892  0.058906349  0.059296409            6 
 1189000   0.77825181   -3.6446949    842.77385  0.059067413  0.059265092            5 
 1190000     0.787997   -3.6525618    841.92405  0.058958267  0.059233869           10 
 1191000   0.79180599    -3.682571    840.17099  0.058786103  0.059202716            4 
 1192000   0.79397186   -3.6694364    842.31852  0.058886921   0.05917141            5 
 1193000   0.77611392   -3.6613406    841.51486  0.058781423  0.059140484            7 
 1194000   0.79133736   -3.6588135    837.20467   0.05843137  0.059109062            4 
 1195000   0.76632303   -3.6593307    841.93405  0.058712277  0.059077872            4 
 1196000   0.77155937   -3.6541458    844.00103  0.058807206  0.059046809            5 
 1197000   0.75670629      -3.6754     842.8577  0.058678481  0.059015729            4 
 1198000   0.79965663   -3.6919814    843.88495  0.058700956  0.058984623            4 
 1199000   0.77598791   -3.6656812    845.72309  0.058779753  0.058953039            4 
 1200000   0.78692969   -3.6554261     845.4708   0.05871325  0.058921856            5 
 1201000    0.7727578   -3.6551276    844.60796  0.058604493  0.058890494            6 
 1202000   0.78391671   -3.6553406    844.56702  0.058552899  0.058859489            4 
 1203000   0.78389144   -3.6939982    841.36602   0.05828249  0.058828072            8 
 1204000   0.76197338   -3.6960195    842.85974  0.058337468  0.058796615            4 
 1205000   0.78657659   -3.6723953    847.48099  0.058608644  0.058765171            6 
 1206000   0.76584727   -3.6685487     847.1677  0.058538398  0.058734002            4 
 1207000   0.77256668   -3.6987456    844.55088  0.058309229  0.058702669            6 
 1208000   0.77200456   -3.6534986    848.50116  0.058533469  0.058671249            4 
 1209000   0.76689057     -3.67319    846.68149  0.058359628  0.058640328            5 
 1210000   0.77087554   -3.6752144    847.99976  0.058402187  0.058609293            6 
 1211000   0.77119107   -3.6815248     845.7234  0.058197316  0.058578072            5 
 1212000   0.76456357   -3.6698204    849.66091  0.058420029   0.05854655            6 
 1213000   0.76191055   -3.6790662    848.12028  0.058266026  0.058515375            4 
 1214000   0.77319774   -3.6686048     849.6811  0.058325172  0.058483925            3 
 1215000   0.77243985    -3.688355    847.20903  0.058107615   0.05845254            2 
 1216000   0.77536342   -3.6770495    845.10679  0.057915761  0.058421065           12 
 1217000   0.76771058   -3.6772085    848.96152  0.058132122  0.058389584            7 
 1218000   0.78303643   -3.7123853     847.6075  0.057991755  0.058358203            3 
 1219000   0.77255143   -3.6836537    851.53644  0.058212773  0.058326665            5 
 1220000   0.75887259   -3.7023844    848.15785   0.05793428  0.058295231            4 
 1221000   0.77186766   -3.7095502    850.47641  0.058045073  0.058264087            3 
 1222000   0.77802927    -3.693971    850.04319   0.05796803  0.058232957            6 
 1223000   0.76910232   -3.7006331    848.20921  0.057795667  0.058201755            4 
 1224000   0.77772611   -3.7024005    849.02497  0.057803987  0.058170974            7 
 1225000   0.76087121   -3.6700721    851.14855  0.057901262  0.058140218            3 
 1226000   0.76421266   -3.6834048    852.58132  0.057951422  0.058109401            4 
 1227000   0.77222503   -3.6992725    852.50254  0.057898842  0.058078422            6 
 1228000   0.77852513   -3.7024632    851.75011  0.057800632  0.058047258            7 
 1229000   0.74497075   -3.6980646    852.26279  0.057788364   0.05801627            5 
 1230000   0.77371028    -3.687194    852.90886  0.057785153  0.057985341            3 
 1231000   0.75122474   -3.6696001    851.73833  0.057658972  0.057954155            5 
 1232000   0.77680846   -3.6915113    854.81933  0.057820571   0.05792331            5 
 1233000   0.75244819   -3.6987571    853.77012  0.057702766   0.05789219            3 
 1234000   0.76022111   -3.6809696     855.4299  0.057768092  0.057861362            9 
 1235000   0.74267574   -3.6979888    853.00804  0.057557898  0.057830141           11 
 1236000    0.7634829   -3.7029046    854.66879    0.0576233  0.057799375            2 
 1237000     0.756603   -3.7073458    857.01421  0.057734721  0.057768534           10 
 1238000   0.76404896   -3.6767663    855.32309  0.057574252   0.05773757            4 
 1239000   0.77263528   -3.6994857    854.33155  0.057461094  0.057706718            4 
 1240000   0.75171255   -3.6985181    855.82729  0.057515275  0.057675984            3 
 1241000   0.75449569   -3.6745087    856.37805  0.057505913  0.057645564            5 
 1242000   0.76126755   -3.6952405    853.72642  0.057281697  0.057614921            4 
 1243000   0.76416944   -3.6879158    853.84345   0.05724346  0.057584133            7 
 1244000   0.76710609   -3.7201461    854.24648  0.057224442  0.057553255            4 
 1245000    0.7652174   -3.7075315    857.02197  0.057364255  0.057522312            3 
 1246000   0.75909835   -3.6933453     856.0267  0.057251652  0.057491396            3 
 1247000   0.75321648    -3.713258    858.35955  0.057361638  0.057460533            3 
 1248000   0.75580147   -3.7089644    857.97798  0.057290196  0.057429176            8 
 1249000   0.75080967   -3.7241518    854.28525  0.056997948  0.057397946            4 
 1250000   0.74613611    -3.706857    858.95168  0.057263445  0.057367078            8 
 1251000   0.73961963   -3.7063461    858.35397  0.057177856  0.057336174            4 
 1252000   0.73395889   -3.7129568     856.9221  0.057036881  0.057305241            6 
 1253000   0.76933189    -3.699813    858.35187   0.05708645  0.057274119            5 
 1254000   0.76142479    -3.689462    859.05084  0.057087376  0.057243111           13 
 1255000   0.75103514   -3.6997617    858.11904  0.056980016  0.057211863            4 
 1256000   0.75204288   -3.6962153    855.14004  0.056736999  0.057180771            6 
 1257000   0.76031633   -3.7307213    857.39214  0.056841165  0.057149425            6 
 1258000   0.74326483   -3.6950748    858.80077  0.056889293  0.057118161            8 
 1259000   0.74927996   -3.7002354    859.05596  0.056860998  0.057087045            4 
 1260000    0.7555096   -3.7291527    858.15489  0.056756276  0.057055942            4 
 1261000   0.74172853    -3.701447    860.20352  0.056846651  0.057024443           10 
 1262000   0.77478924   -3.7114238    856.97379  0.056588338  0.056993093            6 
 1263000   0.74984693   -3.6925825    858.77005  0.056662051  0.056961866            3 
 1264000   0.73740851   -3.7066028    857.07698  0.056505603  0.056930594            5 
 1265000   0.75782263    -3.719734    858.46264  0.056552216  0.056899119            8 
 1266000   0.74858636   -3.6979232    858.29563  0.056496553  0.056867708            8 
 1267000   0.73972803    -3.695331    861.50402  0.056662985  0.056836229            6 
 1268000   0.72757571   -3.7145871     858.7649  0.056438282  0.056804601            8 
 1269000   0.75290548   -3.6896568    859.39792  0.056435377  0.056772919            4 
 1270000   0.74061691    -3.723906    856.76814  0.056218382  0.056741533            3 
 1271000   0.74891678   -3.7066529    859.87388  0.056377779  0.056709955            5 
 1272000   0.73974271   -3.7256239    858.28181  0.056229154  0.056678111            6 
 1273000   0.73894453   -3.7092319    861.92506  0.056423479   0.05664623            5 
 1274000    0.7278019    -3.734687    859.45109  0.056217366  0.056614183            4 
 1275000   0.75229379   -3.6982001    860.69825  0.056254788  0.056582305            9 
 1276000   0.74411122   -3.7060249    858.82367  0.056088275  0.056550259            4 
 1277000    0.7320909   -3.7073845    858.44303  0.056019514   0.05651815            4 
 1278000   0.74290456     -3.72339    860.90002  0.056135891  0.056486319            8 
 1279000   0.73952798   -3.7126681    860.38506  0.056058448  0.056454354            7 
 1280000   0.74701868   -3.7241218    857.55129  0.055830162   0.05642181            3 
 1281000   0.74907241   -3.6994041    862.23946   0.05609156  0.056389733            5 
 1282000   0.75080029   -3.7008377    862.10038  0.056038766  0.056357957            6 
 1283000    0.7419311   -3.7054477    859.52653  0.055827912  0.056326025            6 
 1284000   0.74412407   -3.7330374     861.8181  0.055933158  0.056294323            5 
 1285000   0.74592384   -3.7113649    861.23321    0.0558517  0.056262258            6 
 1286000   0.73569972   -3.7145029    860.76138  0.055777695  0.056230523           10 
 1287000   0.74675271   -3.7410134    860.97665  0.055748294  0.056198807            4 
 1288000   0.72888638   -3.7156433    862.76463  0.055820693  0.056166923           11 
 1289000   0.73063336   -3.7238675    861.77208   0.05571322  0.056134703            5 
 1290000   0.72532622   -3.7170808    860.35772  0.055578664  0.056102538            9 
 1291000   0.73467904   -3.7258806    862.03819  0.055644086  0.056070662            7 
 1292000   0.75799429   -3.7168713    863.89102  0.055720525  0.056038777            2 
 1293000   0.74848835   -3.7615687    861.00235  0.055491257  0.056006736            2 
 1294000   0.75323447   -3.7267893    862.57171  0.055549441  0.055974439            5 
 1295000   0.72804009   -3.7193514    864.86203  0.055653927  0.055942346            4 
 1296000    0.7531284   -3.7254815    864.62382  0.055595667  0.055910563            8 
 1297000    0.7311907   -3.7253064     863.3371  0.055470129  0.055878593           16 
 1298000    0.7453383   -3.7517756    863.24831  0.055421694  0.055846726            7 
 1299000   0.74087485   -3.7319417     865.1164  0.055498871  0.055814677            3 
 1300000   0.73685494   -3.7281711    866.02038  0.055514127  0.055782742            4 
 1301000   0.70479724   -3.7242123     865.0038  0.055406341  0.055751222            5 
 1302000   0.72157475   -3.7254509    862.65547  0.055213484  0.055719613            5 
 1303000   0.73289546   -3.7436995    861.90175  0.055122905  0.055687826            5 
 1304000   0.74014996   -3.7494583    862.87796  0.055143019  0.055656072            5 
 1305000   0.73645882    -3.713288    865.90457  0.055294034  0.055624238            4 
 1306000   0.72002222    -3.726487    866.62664  0.055297769  0.055592404            3 
 1307000   0.74308945   -3.7308902     865.0916  0.055157588  0.055560872            5 
 1308000   0.73661222   -3.7484136    864.75593  0.055094032  0.055529138            6 
 1309000   0.73402387   -3.7363268    867.74557  0.055242269  0.055497432            5 
 1310000   0.73148006   -3.7266084    866.94815  0.055149374  0.055465672            4 
 1311000    0.7264703   -3.7293711    870.05118   0.05530455  0.055434197            6 
 1312000   0.72986321   -3.7349263    866.58252  0.055042081  0.055402755            7 
 1313000    0.7429979   -3.7291723    867.79512  0.055077121  0.055370974           10 
 1314000   0.73382319   -3.7483773    867.26188  0.055001387  0.055339413            5 
 1315000   0.74443481   -3.7291056    870.26106  0.055149624  0.055308018            2 
 1316000   0.73934285    -3.726646    870.00451  0.055091471  0.055276687            7 
 1317000   0.72607604   -3.7444483    866.48659  0.054827043  0.055244882            6 
 1318000    0.7218779   -3.7391107    867.16336  0.054828235  0.055213466            4 
 1319000   0.72948574   -3.7498362    868.20798  0.054852665  0.055182041            4 
 1320000   0.74094107    -3.745158     869.2362  0.054876023  0.055150625            5 
 1321000   0.74037446    -3.717541    870.51341  0.054915052  0.055119182            4 
 1322000   0.72735606   -3.7543183    869.65817  0.054819602  0.055087825            9 
 1323000    0.7378926   -3.7428766      869.427  0.054763606  0.055056329            4 
 1324000   0.73957286   -3.7354003    870.88769   0.05481418  0.055025066            5 
 1325000     0.735497   -3.7498547     870.3994  0.054742101  0.054993563            4 
 1326000   0.73448867   -3.7260032    871.78306  0.054787774  0.054962371            9 
 1327000   0.74469833   -3.7574349    870.65355  0.054675556  0.054930857            4 
 1328000   0.72211919   -3.7502931     870.7455  0.054640154   0.05489945            9 
 1329000    0.7217551   -3.7578582    871.72429  0.054660415  0.054868165            5 
 1330000   0.72436677   -3.7391405    870.73818   0.05455753  0.054836908            7 
 1331000   0.72710119   -3.7486138    871.89759  0.054589131  0.054805653            4 
 1332000   0.72038585   -3.7624574    871.52307  0.054524717  0.054774335            9 
 1333000    0.7235194   -3.7692971    871.19399   0.05446324  0.054742495            6 
 1334000   0.71259158    -3.742216    874.39527  0.054622393  0.054710974            4 
 1335000   0.71737101   -3.7517113    871.33165  0.054390241  0.054679707            7 
 1336000   0.72953028   -3.7693331    872.55487  0.054425828  0.054648374            5 
 1337000   0.71109202   -3.7636449    873.59468   0.05444993  0.054617009            3 
 1338000   0.72338193   -3.7416808    872.21618  0.054323379  0.054585801            6 
 1339000   0.73732888   -3.7679622    871.11535  0.054214298  0.054554477            5 
 1340000   0.71202283   -3.7371271     874.2087  0.054366213  0.054523136            8 
 1341000    0.7160143   -3.7728849    872.46203  0.054217129  0.054491939            5 
 1342000   0.72207849   -3.7776485    872.42551  0.054174461  0.054460504            4 
 1343000   0.72992925    -3.765117    872.77073  0.054155543  0.054429391            5 
 1344000   0.72297559   -3.7681413    871.67507  0.054047313  0.054397977            7 
 1345000   0.69413078   -3.7468472    872.49623  0.054058007  0.054366524            5 
 1346000   0.70357952    -3.730541     873.7747  0.054096997  0.054335414            6 
 1347000   0.71423248     -3.75475    875.50232  0.054163717  0.054304166            4 
 1348000   0.71113856    -3.772216    875.89483  0.054147801  0.054273259            3 
 1349000   0.70473127   -3.7711536    873.40736     0.053954  0.054242087            5 
 1350000   0.71673291   -3.7788287    875.78776  0.054060973  0.054210915           16 
 1351000   0.70909187   -3.7786221    874.89738  0.053966036  0.054179751            4 
 1352000   0.69812489   -3.7646839    875.62828  0.053971171  0.054148687            7 
 1353000   0.68527387   -3.7574402    873.41747  0.053795114  0.054117623            6 
 1354000   0.71015107   -3.7490683    874.67985  0.053833078  0.054086694           10 
 1355000   0.69090157   -3.7563233    875.94668  0.053871259  0.054055886           16 
 1356000   0.71495654   -3.7714351    877.19004  0.053907943  0.054025058            4 
 1357000   0.72423897   -3.7771876    875.63381  0.053772649  0.053994272            7 
 1358000   0.71131809   -3.7664149     878.0493  0.053881278  0.053962973            5 
 1359000   0.70748526   -3.7633194    876.73391  0.053760971  0.053932151            8 
 1360000   0.70746837   -3.7702442     876.2819  0.053693744  0.053901332           13 
 1361000   0.71142591   -3.7902479    878.54358  0.053792774  0.053870619            5 
 1362000    0.7183345    -3.756126    878.03993  0.053722463  0.053839949            8 
 1363000   0.69908709   -3.7922903    877.69149  0.053661744  0.053809139            7 
 1364000   0.72035981   -3.7906979    876.26958  0.053535532  0.053778339            5 
 1365000   0.72164159   -3.7470161    878.70747  0.053645145  0.053747894            8 
 1366000   0.71047443   -3.7681756    878.69231  0.053604948  0.053717453            7 
 1367000   0.71165568    -3.775232    882.56244   0.05380166  0.053686905            4 
 1368000    0.7228502   -3.7913352    881.91293  0.053722766  0.053656713            3 
 1369000   0.70440329   -3.7934835    880.53083  0.053599393  0.053626526            8 
 1370000   0.70004208   -3.7926937    881.52927  0.053621002   0.05359636            7 
 1371000   0.71077161   -3.7768567    881.28582  0.053567094  0.053565932            4 
 1372000   0.69887073    -3.761254    880.78633  0.053497712  0.053535674            9 
 1373000   0.72355405   -3.7849439    880.63453  0.053449534  0.053505446            9 
 1374000   0.69557622   -3.8009414    879.83618  0.053362214  0.053475109           13 
 1375000    0.7120164   -3.7737783    882.42234  0.053480142  0.053445045            4 
 1376000   0.70317244   -3.7875729    883.75752  0.053522137  0.053414784           12 
 1377000   0.69994213   -3.7593898    885.51039  0.053589348  0.053384983            5 
 1378000   0.71246156   -3.7945201    882.88784  0.053391863  0.053354908            8 
 1379000   0.71337789   -3.7847706    883.57007  0.053394372  0.053324955            5 
 1380000   0.69995496   -3.7829458    883.85975  0.053373173  0.053294782            8 
 1381000   0.68257945   -3.7963372    882.69453  0.053264212  0.053264804            6 
 1382000    0.6884915   -3.8011477    886.42667  0.053450716  0.053234948           11 
 1383000   0.70045092   -3.8058148    883.87221  0.053258147  0.053205035           16 
 1384000    0.6994708    -3.786219    887.41065  0.053432722  0.053175102            6 
 1385000   0.70338674   -3.7976811    882.47995   0.05309747  0.053144974            4 
 1386000   0.70332381   -3.7755932    882.49882  0.053060295  0.053114745            6 
 1387000   0.70273917    -3.810978     882.0262  0.052993643  0.053084405            7 
 1388000   0.71451278   -3.7818666    885.88021  0.053186852  0.053054237            8 
 1389000   0.69459532   -3.7893357    885.11141  0.053102436  0.053024126            5 
 1390000   0.70753438   -3.7915346    884.13435  0.053005657  0.052993933            6 
 1391000   0.69608044    -3.807071    883.24412  0.052914218  0.052963772            4 
 1392000   0.69965389   -3.8140412    883.22624  0.052875134  0.052933768           11 
 1393000   0.71185656   -3.8056365    883.97362  0.052881887  0.052903517           11 
 1394000   0.69679553    -3.791803    886.65594    0.0530043  0.052873354            4 
 1395000   0.70433666   -3.7944605    884.55109  0.052840567  0.052843177            8 
 1396000   0.70806677   -3.8059491    883.77077  0.052756135  0.052813405           14 
 1397000   0.68502167   -3.7896405    885.89675  0.052845189  0.052783351            9 
 1398000   0.69079357   -3.8059611    884.80998  0.052742607  0.052753185           11 
 1399000   0.69785288   -3.7969102    885.77244  0.052762237  0.052723167            5 
 1400000   0.70947485   -3.7986408    885.52625  0.052709896  0.052693405            8 
 1401000   0.69265234   -3.7977818    884.87634  0.052633615  0.052663461            5 
 1402000   0.68759395   -3.8212694    886.06329  0.052666624  0.052633266           12 
 1403000   0.68510915   -3.8159101    886.46236  0.052652789  0.052603164            4 
 1404000   0.70025159   -3.8095466    884.86723  0.052520609  0.052573036            5 
 1405000   0.69736626   -3.8232574    882.89827  0.052366446  0.052542888            5 
 1406000   0.70848719   -3.8045581    884.34768  0.052415107    0.0525128            5 
 1407000     0.703736   -3.8167352     883.9159   0.05235228  0.052482332            6 
 1408000   0.69787447   -3.8068781    887.87602  0.052549481  0.052452187            5 
 1409000   0.68339578   -3.8014296    886.85231  0.052451639  0.052422246            8 
 1410000   0.67836132   -3.8170347    886.24082  0.052378299  0.052392257            7 
 1411000   0.69288375   -3.8226539    887.79679  0.052433073  0.052362303            8 
 1412000   0.68473493   -3.8181156    885.82132  0.052279351  0.052332219            7 
 1413000   0.68586383   -3.8119404    887.06151  0.052315494  0.052302228            4 
 1414000   0.69296207   -3.8360864     883.5846  0.052073585  0.052271817            9 
 1415000   0.69206081   -3.8174272    888.42212   0.05232168  0.052241779            4 
 1416000   0.69804379   -3.8105073    888.99331  0.052318344  0.052211774            7 
 1417000   0.69741799   -3.8067675    889.82851   0.05233054  0.052181721            9 
 1418000   0.68267655   -3.8245442    886.62811  0.052105554  0.052151564            6 
 1419000   0.68387691   -3.8136893    889.89546  0.052260715  0.052121388            5 
 1420000   0.69478121     -3.83685    887.04528  0.052056648  0.052091398            7 
 1421000   0.68626703   -3.8038022    890.37693  0.052215396  0.052061132            5 
 1422000    0.6883163   -3.8183464    888.89676  0.052091934  0.052030982            8 
 1423000   0.67826784    -3.813574    889.51022  0.052091252  0.052000853            7 
 1424000    0.6780144   -3.8743865    888.61064  0.052002027  0.051970686            7 
 1425000   0.68790983   -3.8120514    892.15135  0.052172593   0.05194055            6 
 1426000   0.68837895    -3.803829    889.21581  0.051964458  0.051910663            7 
 1427000     0.688971   -3.8222438    892.36934  0.052112201  0.051880818            5 
 1428000   0.66953677   -3.8375977    894.07631  0.052175321  0.051851262            6 
 1429000    0.6986735   -3.8223715    891.26266   0.05197473  0.051821909            7 
 1430000   0.68887815   -3.8595717    889.19174    0.0518177  0.051792217            4 
 1431000   0.68184551      -3.8065    891.27217  0.051902642  0.051762724            4 
 1432000   0.68722549   -3.8437432    892.76163  0.051953074  0.051732934           10 
 1433000   0.66748021   -3.8231077     891.7442  0.051857653  0.051703048            6 
 1434000   0.68656254   -3.8316538    889.75378  0.051705822  0.051673317            5 
 1435000   0.67582668   -3.8439001    892.22031  0.051813026  0.051643631            8 
 1436000   0.69183011   -3.8187792    894.12547  0.051887504  0.051614035            5 
 1437000   0.68328991   -3.8444701    892.17507   0.05173829  0.051584418            8 
 1438000   0.66463065   -3.8159613    895.59198  0.051900324  0.051554915            7 
 1439000   0.67187525   -3.8555577    893.13657  0.051722062  0.051525326            6 
 1440000     0.671379   -3.8310735    889.80746  0.051493487  0.051495906            6 
 1441000   0.66281571   -3.8252018    892.07724  0.051589015  0.051466681            5 
 1442000   0.66441392   -3.8607699    894.68481   0.05170393   0.05143716            8 
 1443000    0.6750373   -3.8524323     893.8411  0.051619375  0.051407875            9 
 1444000   0.67964209   -3.8296554    897.07265   0.05177012  0.051378541           14 
 1445000   0.67060397   -3.8392713    893.24202   0.05151338  0.051349267            4 
 1446000   0.66475329   -3.8395226    892.33172  0.051425295  0.051319954            4 
 1447000   0.66123161   -3.8388958    891.77972  0.051357966  0.051290556            3 
 1448000   0.67268036   -3.8493707    892.60766  0.051370146  0.051261304            7 
 1449000   0.67513902    -3.831202    895.21251  0.051484501  0.051232025            8 
 1450000   0.68117536   -3.8478535    897.01842  0.051552783  0.051202689            8 
 1451000   0.67565705   -3.8270445    897.41249  0.051539886  0.051173395            6 
 1452000   0.68582368   -3.8597777    896.24383  0.051437318  0.051144271            8 
 1453000   0.65627909   -3.8234357     897.2141  0.051457565  0.051115287            4 
 1454000   0.66383185   -3.8427308    894.72671  0.051279614  0.051086094            7 
 1455000    0.6790452    -3.850899    894.98311  0.051259056  0.051057106            7 
 1456000   0.67860278   -3.8585701    895.38181  0.051246669  0.051028078            9 
 1457000   0.66975123    -3.854624    897.21652  0.051316433  0.050999127            4 
 1458000   0.66987747   -3.8519791    894.17987  0.051107674  0.050970322            4 
 1459000   0.68217512   -3.8415877    897.65383  0.051271066  0.050941453            6 
 1460000   0.67327582   -3.8187488    900.72478  0.051411232  0.050912882           12 
 1461000   0.67002094   -3.8690081    896.34536  0.051126247   0.05088432            3 
 1462000   0.67203851   -3.8661906    895.90499  0.051066176  0.050855533            4 
 1463000   0.67580916   -3.8369086     899.5651  0.051239753  0.050826859            7 
 1464000   0.67565309   -3.8468668    899.52042   0.05120221  0.050798197            4 
 1465000    0.6683905   -3.8455836    900.79017  0.051239486  0.050769384            5 
 1466000   0.66308024   -3.8559003    900.55412  0.051191116  0.050740762            7 
 1467000   0.67137166   -3.8409611    899.71521  0.051108567  0.050711969           15 
 1468000   0.66766204   -3.8627468    900.10471  0.051095862  0.050683154           17 
 1469000     0.665122   -3.8606435    900.88861  0.051105548  0.050654594            4 
 1470000   0.66329009   -3.8593318     900.8343  0.051067704  0.050626037            6 
 1471000   0.66606605   -3.8664567    900.38544  0.051007559  0.050597377            7 
 1472000   0.67225676   -3.8670469    899.53532   0.05092478  0.050568717            6 
 1473000   0.66267798   -3.8561489    902.31132  0.051047257  0.050540294            7 
 1474000   0.66791915   -3.8606758    901.62693  0.050973933  0.050511819            6 
 1475000   0.67928081   -3.8581871    903.25782  0.051031515  0.050483447            7 
 1476000   0.66294244     -3.85143    902.83331  0.050972974  0.050455117            5 
 1477000   0.66199714   -3.8695216    900.70308  0.050818274  0.050426749            5 
 1478000   0.65939985   -3.8564238    899.37928  0.050709251  0.050398233            4 
 1479000   0.66635533   -3.8576845    900.63039  0.050745458  0.050369752            5 
 1480000   0.66814287   -3.8477409    903.18091  0.050854781  0.050341456           10 
 1481000   0.65770644   -3.8686282     900.7748  0.050685055  0.050313075           12 
 1482000   0.67343901   -3.8662494    900.57952  0.050639874  0.050284442            5 
 1483000   0.66970441   -3.8729341    900.44391  0.050598107  0.050255873            9 
 1484000    0.6438004   -3.8504815    900.78401  0.050583109  0.050227528            7 
 1485000   0.65963835   -3.8543409    900.94875  0.050558291  0.050199131            4 
 1486000   0.67151669   -3.8531261     902.8528  0.050631045  0.050170979            7 
 1487000   0.66599987   -3.8573938    902.69918  0.050588387   0.05014276            4 
 1488000   0.66469105   -3.8625238    905.47221  0.050709689  0.050114483            4 
 1489000    0.6563754    -3.842579    904.04944  0.050596006   0.05008625            9 
 1490000   0.64871109   -3.8744147    903.77252  0.050546562  0.050058244           12 
 1491000   0.67483999   -3.8656407    902.64797  0.050449808  0.050030087           11 
 1492000   0.66119938   -3.8709416    904.76809  0.050534411  0.050001822           12 
 1493000   0.67042341   -3.8830298    902.85519  0.050393793  0.049973468           18 
 1494000   0.67880665   -3.8850529    905.03545  0.050481674  0.049945151           11 
 1495000   0.66033827   -3.8746999    900.70036  0.050206263   0.04991677            6 
 1496000   0.65392344   -3.8706877    904.25188  0.050370537  0.049888712            9 
 1497000   0.65134946   -3.8743956    903.80759  0.050312157  0.049860601            7 
 1498000   0.66540538   -3.8522341    906.18382   0.05041076  0.049832584            8 
 1499000   0.67521302   -3.8772993    905.25195  0.050325325  0.049804533            3 
 1500000   0.65209563   -3.8634681    907.26495  0.050403608  0.049776684           10 
 1501000   0.65724892   -3.8853904    905.69009  0.050282594  0.049748723            6 
 1502000   0.66225711   -3.8750356    907.02923  0.050323415  0.049720855            9 
 1503000   0.64424464   -3.8646808    905.43087  0.050201313  0.049692864            5 
 1504000   0.64592684   -3.8715152    907.86937  0.050303046  0.049664811           15 
 1505000   0.64774323   -3.8641861     904.8667  0.050103361  0.049636598           15 
 1506000   0.66306184   -3.8779654    903.82993  0.050012723  0.049608391            6 
 1507000    0.6493853   -3.8666219    904.66754  0.050025854  0.049580062            7 
 1508000   0.64366098   -3.8558058     904.8956  0.050005283  0.049551887            3 
 1509000   0.64304408   -3.8467127    905.60273  0.050011196    0.0495239           11 
 1510000   0.64864666   -3.8910503    905.80605  0.049989296  0.049495654           15 
 1511000   0.64257578   -3.8923127    905.78812  0.049955224  0.049467672            8 
 1512000   0.65033295   -3.9026044    904.90814  0.049873685   0.04943932            5 
 1513000   0.66410632   -3.8864875    903.67756  0.049772944  0.049410985            4 
 1514000   0.66261079   -3.8639581    903.61068  0.049736387  0.049382713           15 
 1515000   0.64323201   -3.8849599    903.66188  0.049706374  0.049354406            9 
 1516000   0.64981221   -3.8762848    905.34752  0.049766244  0.049326178            5 
 1517000   0.66917419   -3.8768676    902.42884  0.049573107  0.049297862            8 
 1518000   0.64365792   -3.8810116    906.97885  0.049790231  0.049269475            5 
 1519000   0.65435823   -3.8701094    905.05743  0.049652042  0.049241138            6 
 1520000   0.64873267    -3.881036    906.95436  0.049723375  0.049212917            5 
 1521000   0.63655339   -3.8771457    906.33752  0.049656888  0.049184596           10 
 1522000   0.65541072   -3.8954948      907.507  0.049688294  0.049156311            9 
 1523000    0.6514011   -3.8780372    905.69286  0.049556405  0.049128128            4 
 1524000   0.65076513   -3.8696424    908.84823  0.049696425  0.049099948            4 
 1525000   0.64586901   -3.8980081    905.20392  0.049464695  0.049071582           12 
 1526000   0.65936424   -3.8864609     904.8072  0.049410616  0.049043169            7 
 1527000   0.63777485   -3.8833129    905.67139   0.04942542  0.049014712           10 
 1528000   0.64571375   -3.8722712    905.84488  0.049402535  0.048986289            6 
 1529000   0.65160679   -3.8833005    906.57428  0.049409978  0.048957768            9 
 1530000   0.64875184   -3.8904562    905.70074  0.049330105  0.048929314           11 
 1531000   0.63047487   -3.8958105    907.05427  0.049371559  0.048900929           13 
 1532000   0.64722705   -3.9006276     908.4961   0.04941776  0.048872477            6 
 1533000   0.63817063   -3.8994083    906.34115  0.049268382  0.048844124            8 
 1534000   0.63708404   -3.9098551    907.60285  0.049304805  0.048815663            7 
 1535000   0.64653927   -3.9215696    906.02645  0.049187104  0.048787307            5 
 1536000   0.63126787   -3.9007786    907.47437  0.049233636  0.048759085            5 
 1537000   0.62559332   -3.9140025    906.37064  0.049141761  0.048730881            7 
 1538000   0.63399402   -3.9165904    908.62848  0.049232146  0.048702726            7 
 1539000   0.64489883   -3.9089911    906.42878  0.049081047  0.048674293            4 
 1540000   0.62350104   -3.9293762    904.95776  0.048969576  0.048645822            7 
 1541000   0.64162994   -3.8907136    908.86118  0.049148885  0.048617432            7 
 1542000   0.63983164   -3.9172375    909.00846  0.049124971  0.048589197            6 
 1543000   0.62791261   -3.8950343    906.95136  0.048982035  0.048560963            8 
 1544000   0.63780111   -3.9091974    910.91057  0.049163999  0.048532792            8 
 1545000   0.61908434   -3.8847125    909.24137  0.049042145  0.048504983           12 
 1546000   0.63353432   -3.8827606     910.1961  0.049061886  0.048477063           10 
 1547000   0.63033223   -3.9066359    906.77845   0.04884607  0.048448993           11 
 1548000   0.64506661   -3.8892813    908.70435  0.048918193   0.04842104            5 
 1549000   0.63826387   -3.9107779    908.93817  0.048899191  0.048393114            8 
 1550000   0.64129659    -3.895089    909.16339  0.048879752  0.048365236            6 
 1551000   0.62693269    -3.903326    909.08669  0.048844116  0.048337408            9 
 1552000   0.63114591   -3.9151308    908.86541  0.048800763  0.048309471           13 
 1553000   0.62521839   -3.8957049    911.67488  0.048920095  0.048281475            7 
 1554000   0.61802318   -3.8901603    911.76892  0.048893657  0.048253398           13 
 1555000   0.62871218   -3.9230213    907.61586  0.048639649   0.04822532            7 
 1556000   0.61494782   -3.9126356    909.49223  0.048708881  0.048196837            8 
 1557000   0.62731356   -3.9305286    908.80552  0.048640844  0.048168435            7 
 1558000   0.62532397   -3.8978427    908.14763  0.048574435  0.048140059            6 
 1559000   0.63661015    -3.932478    907.41643  0.048504192  0.048111687            6 
 1560000    0.6352512   -3.8993869    907.68741  0.048487575  0.048083339            8 
 1561000   0.62413645   -3.9311722    905.54719  0.048342259  0.048054924           11 
 1562000   0.62345063   -3.9145936    906.98423  0.048387976  0.048026414            5 
 1563000   0.61636843   -3.9242533    907.37004  0.048377588  0.047997977            8 
 1564000   0.62782533   -3.9208519    910.49255   0.04851303  0.047969652            7 
 1565000   0.63333718   -3.9286688     909.7683  0.048443467  0.047941338           10 
 1566000   0.62499848   -3.9322089    908.85978  0.048364186  0.047912898           16 
 1567000   0.62757605   -3.9221981    909.50315  0.048367536  0.047884489            4 
 1568000   0.62324043   -3.9138328    911.97283  0.048467944  0.047856001           14 
 1569000   0.62891105   -3.9344458    906.43395   0.04814287  0.047827636            4 
 1570000   0.62745394   -3.9399972    906.46932  0.048114083  0.047799077           17 
 1571000   0.62123215   -3.9357657     910.6778  0.048306694  0.047770463            4 
 1572000   0.62528371   -3.9266537    910.87847  0.048286603  0.047742171            7 
 1573000    0.6321712   -3.9341105    909.41807  0.048178537  0.047713866            5 
 1574000   0.62857253   -3.9249849    909.56605  0.048155763  0.047685567            5 
 1575000   0.64232621   -3.9055075    909.74585  0.048134701  0.047657298           10 
 1576000   0.63714608   -3.9298448    908.18961   0.04802187  0.047628874            7 
 1577000   0.62646762   -3.9163426    909.99507  0.048086824  0.047600371            5 
 1578000   0.61857505   -3.9611281    907.26248  0.047912045  0.047571795            6 
 1579000   0.61861513   -3.9429723    907.42049   0.04789004   0.04754325            6 
 1580000   0.63806862   -3.9216692    909.50034  0.047969427  0.047514832            5 
 1581000   0.62491243    -3.924635    909.50806  0.047939493  0.047486687            4 
 1582000   0.63264415   -3.9126367    909.00047  0.047882452  0.047458662            7 
 1583000   0.61871235   -3.9383424    910.57138  0.047934901  0.047430536            6 
 1584000   0.60237929     -3.94488    909.51456   0.04784904  0.047402378           15 
 1585000   0.61817824   -3.9403063    910.43504  0.047867247   0.04737411           12 
 1586000   0.60782903   -3.9434963    909.92566  0.047810301  0.047345733           21 
 1587000   0.62753006   -3.9691196    908.61571   0.04771139   0.04731721           14 
 1588000   0.62178847   -3.9328963    909.92026  0.047749804  0.047288767           14 
 1589000   0.61438218   -3.9230775    913.22893  0.047893273   0.04726055            7 
 1590000   0.61609852   -3.9400163    909.33791  0.047659219  0.047232286           13 
 1591000    0.6225676   -3.9292021    910.76911  0.047704227  0.047204049            8 
 1592000   0.62331424   -3.9324113    911.38516   0.04770651  0.047175933            5 
 1593000   0.62499071    -3.935113    908.89526   0.04754631  0.047147706           10 
 1594000   0.62274544   -3.9399738    911.46033  0.047650582  0.047119529           10 
 1595000   0.62495464   -3.9578148     909.8013  0.047534028   0.04709149           11 
 1596000   0.62020878   -3.9541481    914.95495  0.047773337  0.047063494           10 
 1597000    0.6131093   -3.9367646    911.66872  0.047571943  0.047035534           11 
 1598000    0.6224498   -3.9524386    910.62848  0.047487927  0.047007594           11 
 1599000   0.59260611   -3.9493921    911.99486  0.047529438  0.046979682           10 
 1600000   0.61671711   -3.9770776      909.446  0.047366979  0.046951657            8 
 1601000   0.60925052   -3.9203269    913.87714  0.047568038  0.046923615           17 
 1602000   0.60316263    -3.938678    910.97723  0.047387496   0.04689578           12 
 1603000   0.61752305   -3.9531111    912.09637  0.047416114  0.046867795           10 
 1604000   0.61970409    -3.969964    911.62859   0.04736225  0.046839747            4 
 1605000   0.62282595   -3.9601443    912.64551  0.047385541  0.046811721            6 
 1606000   0.60240186   -3.9483298    911.43908  0.047293435  0.046783737            6 
 1607000   0.61518452   -3.9472809    913.92063   0.04739269  0.046755715           10 
 1608000   0.61373142   -3.9461198    913.88736  0.047361492  0.046727709           16 
 1609000   0.60249182   -3.9441367    914.60842  0.047369403  0.046699676           15 
 1610000   0.61004681   -3.9427345    914.47545  0.047333098  0.046671773            8 
 1611000   0.61469279   -3.9540306    913.91679  0.047274819  0.046643859            6 
 1612000   0.60814178   -3.9427764    913.39627  0.047218583  0.046615989           17 
 1613000   0.60312657   -3.9613648    912.65414  0.047150968   0.04658796           13 
 1614000   0.60453636   -3.9590796    911.72129   0.04707359  0.046560001           18 
 1615000   0.61971452   -3.9546087     911.5093  0.047033504  0.046531809            6 
 1616000   0.59544517   -3.9731776    911.43902  0.047000775   0.04650367            6 
 1617000    0.6112682   -3.9649929     910.1084  0.046903133  0.046475622            7 
 1618000   0.59741909   -3.9550793    910.30791  0.046884421  0.046447337            4 
 1619000   0.60790807   -3.9630281    910.18433  0.046849101  0.046419107           12 
 1620000   0.60828714   -3.9345311    912.95494  0.046962703  0.046390831           18 
 1621000    0.6194894    -3.943337    913.48309  0.046960882  0.046362811           14 
 1622000   0.59600339   -3.9496455    911.69005  0.046839809  0.046334867           10 
 1623000   0.61271841   -3.9583167    909.97757  0.046723021  0.046306766            5 
 1624000   0.59805809   -3.9685713    911.04927  0.046749244  0.046278578            9 
 1625000   0.61161187   -3.9540067    910.60025  0.046697449  0.046250408           11 
 1626000   0.60521007   -3.9768731    912.47414  0.046764767  0.046222269            6 
 1627000   0.60598947   -3.9593389    913.61036   0.04679422  0.046194026            6 
 1628000   0.61095002   -3.9771473    912.73847  0.046720847  0.046166074            5 
 1629000   0.59775622   -3.9735079    913.12107  0.046711739  0.046137883           16 
 1630000   0.60155317   -3.9704501    912.12099  0.046631952  0.046109746           14 
 1631000     0.608805   -3.9791761    910.83934  0.046537878  0.046081643            9 
 1632000   0.59838678     -3.95792     913.0003  0.046619705  0.046053479            7 
 1633000   0.60849458   -3.9758608    908.52592  0.046362825  0.046025399            8 
 1634000   0.58688864   -3.9674272    911.81794  0.046502343  0.045997355            9 
 1635000   0.58906504    -3.979771    913.34029  0.046551493  0.045969182            6 
 1636000   0.59983566   -3.9649602    910.62253  0.046384603  0.045941075            4 
 1637000   0.60888706   -3.9685575    911.72207  0.046412241   0.04591316            5 
 1638000   0.59785383   -3.9601509     912.9013    0.0464439  0.045885136            8 
 1639000   0.59192592   -3.9666098     913.5229  0.046447168   0.04585728            8 
 1640000   0.58247303   -3.9738183    914.98418  0.046493098  0.045829659            4 
 1641000   0.59173569    -3.960093    913.77524  0.046403374  0.045801924            8 
 1642000   0.58370458   -3.9765537    913.12656  0.046342192  0.045774232           14 
 1643000   0.57625581   -3.9738809    914.74568  0.046396109  0.045746463            9 
 1644000   0.59179362   -3.9940105    915.55908  0.046409118  0.045718739            7 
 1645000   0.59636097   -3.9838998    915.86531  0.046396419  0.045690924            9 
 1646000   0.59645095   -4.0012895    913.06366   0.04622639  0.045663149            9 
 1647000   0.59670737   -3.9855104    915.43794  0.046318455  0.045635551            5 
 1648000   0.59205778   -3.9882844    916.05869  0.046321738  0.045607992           25 
 1649000   0.59063952   -3.9802996     911.5597  0.046066288  0.045580256           10 
 1650000   0.59362416    -3.974146    911.84683   0.04605287   0.04555256           11 
 1651000    0.5939964   -3.9781037    913.86095  0.046126638  0.045524781            7 
 1652000   0.59774944   -3.9736332    915.25642  0.046169109  0.045496986            7 
 1653000   0.59395104    -3.993338    913.86727  0.046071147  0.045469236           10 
 1654000   0.59399964   -4.0007336    912.60736  0.045979814  0.045441373            5 
 1655000   0.59686668   -3.9970789    912.73871  0.045958646  0.045413443            8 
 1656000   0.59258341   -3.9962838    913.29939  0.045959108  0.045385529           11 
 1657000   0.60259123   -4.0117466    910.57452  0.045794333  0.045357601            7 
 1658000   0.59100267   -3.9877868    912.86999  0.045882086   0.04532984            9 
 1659000   0.59322408   -3.9991532     913.6433  0.045893274  0.045302131            8 
 1660000   0.58849717   -3.9868474    914.05355  0.045886222  0.045274518           10 
 1661000   0.59632236   -3.9804894      916.194  0.045965984  0.045246774            8 
 1662000   0.57546301   -3.9869409    915.02342  0.045879634  0.045219211            4 
 1663000   0.57746296    -3.974609    915.24526  0.045863162   0.04519176           10 
 1664000   0.58471831   -3.9839503     913.3238  0.045739373  0.045164262           14 
 1665000   0.59953445    -4.001461     913.8704  0.045739259  0.045136591            8 
 1666000   0.59648158   -3.9904018      913.122   0.04567437  0.045109023           20 
 1667000   0.59270839   -4.0066166    914.51757  0.045716735  0.045081498            8 
 1668000   0.59845841   -3.9921027    914.90221  0.045708544  0.045054024           14 
 1669000   0.58728407     -3.98348    912.58436  0.045565426  0.045026504           10 
 1670000   0.57366143   -4.0069657    914.34863  0.045626179  0.044998998            9 
 1671000   0.58094884   -3.9910207    914.30159  0.045596528  0.044971504           17 
 1672000   0.59223178   -4.0085434    916.52633   0.04568014  0.044944035            8 
 1673000   0.57209939   -4.0087623    913.76591  0.045515337  0.044916553            7 
 1674000   0.57723028   -3.9950548    918.94515  0.045745975  0.044889284            8 
 1675000   0.58865137   -4.0097212    915.69328   0.04555688  0.044861831           11 
 1676000   0.58084609   -3.9976949    916.93155  0.045591266  0.044834586           11 
 1677000   0.57595269   -4.0209183    916.00662  0.045518119  0.044807228           19 
 1678000   0.57496251   -3.9981514    919.18126  0.045648652  0.044779898            8 
 1679000   0.58392632   -4.0270539    915.20036  0.045423881  0.044752697           16 
 1680000   0.59584922   -3.9950862    915.69763   0.04542151  0.044725514            7 
 1681000   0.58828216   -4.0148721    915.37225  0.045378359  0.044698325            6 
 1682000   0.58351811   -4.0164334     914.9198  0.045328963  0.044671108           12 
 1683000   0.58265878   -4.0138752    917.59392  0.045434438  0.044643918            9 
 1684000   0.59168258    -3.992783    917.37913  0.045396829  0.044616812            8 
 1685000   0.58202531   -4.0070119     914.9461   0.04524956  0.044589753           17 
 1686000   0.57614614   -4.0078841    916.12749  0.045281114  0.044562694            7 
 1687000   0.56418789   -4.0022088    916.66512   0.04528083  0.044535622           11 
 1688000   0.58143645   -4.0075921    917.71245  0.045305709  0.044508579            6 
 1689000   0.58164614   -4.0104866    916.25157  0.045206807  0.044481518            8 
 1690000    0.5848415   -4.0180639    918.13022  0.045272693   0.04445431           10 
 1691000   0.58453974      -4.0269    918.00771  0.045239883  0.044427158           14 
 1692000   0.57283892    -4.002847    917.21665  0.045174185  0.044399883           16 
 1693000   0.58177844   -4.0129969    918.02818  0.045187447  0.044372874            9 
 1694000   0.57980894   -3.9950809    918.87008  0.045202188  0.044345818            7 
 1695000   0.58885568   -4.0286972    918.02464  0.045133955  0.044318807            6 
 1696000   0.58103878   -4.0161088    916.42712  0.045028848  0.044291676            9 
 1697000   0.56766307   -4.0198454    915.62792  0.044963068  0.044264605           10 
 1698000   0.59476624   -4.0181105    917.28179  0.045017756  0.044237461            6 
 1699000   0.58028987   -4.0388567    917.47486  0.045000729  0.044210535           11 
 1700000   0.57806263   -4.0149608    917.44148  0.044972621  0.044183411           12 
 1701000   0.57511892   -4.0227197    916.41629  0.044895958  0.044156352           11 
 1702000   0.57434412   -4.0201315    920.45521  0.045067333  0.044129447            8 
 1703000   0.57690247   -3.9997734    916.84683    0.0448643  0.044102513            7 
 1704000   0.57778337   -4.0257089    917.55403  0.044872556  0.044075447            8 
 1705000    0.5814737    -4.047706    917.60965  0.044848957   0.04404848           11 
 1706000   0.56388669   -4.0350362    918.83725  0.044882633  0.044021597            7 
 1707000   0.58818151   -4.0179159    919.63681  0.044895372  0.043994847           12 
 1708000   0.57898363   -4.0437975    918.99568  0.044837806  0.043968235            4 
 1709000   0.57463529   -4.0022874    919.82922  0.044852215  0.043941637           13 
 1710000   0.57111257   -4.0117364    918.96936  0.044784082  0.043914995           10 
 1711000   0.57804474   -4.0240582    919.14078  0.044766256  0.043888277            5 
 1712000     0.556568   -4.0199805    918.70549   0.04471892  0.043861539            9 
 1713000   0.57136626   -4.0047325    916.89876  0.044604921  0.043834822            6 
 1714000   0.56613598   -4.0246006    916.45737  0.044557437  0.043808149           13 
 1715000   0.56770614   -4.0304485    919.14069  0.044661841  0.043781517           40 
 1716000   0.58144867   -4.0378948     918.1348  0.044586966  0.043754896           14 
 1717000   0.56786299   -4.0444871    917.41843   0.04452623  0.043728207           12 
 1718000   0.56128017   -4.0259089    920.35917  0.044642956  0.043701642            6 
 1719000   0.56364484   -4.0380375    919.50259   0.04457546  0.043675054           19 
 1720000   0.56966626   -4.0152934    917.73314  0.044463815  0.043648471            8 
 1721000   0.57784581   -4.0381683    918.53384   0.04447675  0.043621901            6 
 1722000   0.58576906   -4.0421222    918.85523  0.044466475  0.043595347            7 
 1723000   0.56964849   -4.0209681    920.82548  0.044535959  0.043568881           14 
 1724000   0.56053898   -4.0315575    920.28052  0.044483784   0.04354237           10 
 1725000   0.56181815   -4.0506452    919.64134  0.044427118  0.043515886           11 
 1726000   0.57355164   -4.0210325    920.41955  0.044438951  0.043489347           20 
 1727000   0.55399979   -4.0192548    919.28229  0.044358342  0.043462964            9 
 1728000   0.56804869   -4.0389148     917.7065  0.044256679  0.043436209            9 
 1729000   0.54630909   -4.0451465    919.91457  0.044337506   0.04340959            5 
 1730000    0.5583937   -4.0330428    920.05591  0.044318685  0.043383102            4 
 1731000   0.57382956   -4.0337281    920.08772  0.044294614  0.043356686            6 
 1732000   0.55426725   -4.0349907    919.57885  0.044244556  0.043330445            9 
 1733000   0.55593189   -4.0303918    918.17128  0.044151341  0.043304155           12 
 1734000   0.55225239   -4.0392131    923.78286  0.044395562  0.043277848           11 
 1735000   0.56398637   -4.0478227    921.72925  0.044271337  0.043251615           13 
 1736000   0.55638574   -4.0415518    919.28032  0.044128279  0.043225361           13 
 1737000   0.56029474   -4.0293908    920.73329  0.044172582  0.043199152            8 
 1738000   0.56961446   -4.0627539    919.67021  0.044096194  0.043172861           10 
 1739000   0.56287019   -4.0513236    919.53309  0.044064265  0.043146479            6 
 1740000   0.56810375   -4.0430164    919.71951  0.044047869  0.043120129           11 
 1741000   0.55005251    -4.055489    921.34876  0.044100553  0.043093826           11 
 1742000    0.5547055    -4.056619    921.77104  0.044095438  0.043067526           15 
 1743000   0.55235131    -4.036145    920.73204  0.044020465  0.043041297           10 
 1744000   0.56049883    -4.047812    920.87156   0.04400189   0.04301509           10 
 1745000   0.54260959   -4.0439256    920.84475  0.043975394  0.042988968           21 
 1746000   0.55543412   -4.0538177    920.42724  0.043930281  0.042962673           16 
 1747000   0.56083646   -4.0479452    921.42455  0.043952707  0.042936456            9 
 1748000   0.57360745   -4.0590638    920.37899  0.043877717  0.042910315           18 
 1749000   0.54727792   -4.0548251    921.02276  0.043883303  0.042884134           11 
 1750000    0.5475474   -4.0426648    921.31588  0.043872185  0.042857971            6 
 1751000   0.55583012   -4.0278741    921.73771  0.043867205  0.042831867           15 
 1752000   0.54512672   -4.0558673    917.49625  0.043640423  0.042805784            7 
 1753000   0.55123115   -4.0452601    921.46196  0.043804048  0.042779546           19 
 1754000   0.55191377   -4.0490079    921.17121  0.043765261  0.042753336           27 
 1755000   0.55929496   -4.0645996    920.69104  0.043717523  0.042727012            9 
 1756000   0.55809714   -4.0495805    920.59124  0.043687891  0.042700827           11 
 1757000   0.56237351   -4.0465288    918.62373  0.043569708  0.042674628            6 
 1758000   0.54840685   -4.0629132    919.02656   0.04356402  0.042648329           22 
 1759000   0.56188187   -4.0707183     920.3741  0.043603094  0.042622059            7 
 1760000   0.54634678   -4.0498721    922.04047  0.043657219  0.042595747           13 
 1761000    0.5580225   -4.0629023    917.88746  0.043435901  0.042569455           13 
 1762000   0.54915046   -4.0843948     921.7824   0.04359546  0.042543172           17 
 1763000   0.54835632   -4.0683918    920.45459  0.043507969  0.042516834           17 
 1764000    0.5564917     -4.06652    920.06028  0.043464677  0.042490465           21 
 1765000   0.54607674   -4.0648388    919.29871  0.043404094  0.042464238            9 
 1766000   0.54153884   -4.0846839    920.99447  0.043459535  0.042437988            8 
 1767000   0.54403127    -4.075025    920.50409  0.043411813  0.042411814           11 
 1768000   0.55302119   -4.0554038     920.5683  0.043390286  0.042385731            7 
 1769000    0.5435264   -4.0677721    921.55877  0.043412416  0.042359758            7 
 1770000   0.55234184   -4.0654254    918.48519  0.043243182  0.042333764           16 
 1771000   0.54903874   -4.0783067    922.21199  0.043394127  0.042307523           17 
 1772000   0.54098137   -4.0745016    919.90087  0.043260951   0.04228139           13 
 1773000   0.53765401   -4.0749984    920.94598  0.043285673  0.042255394           10 
 1774000   0.54553235   -4.0717664     923.3481  0.043374112  0.042229522           16 
 1775000   0.54425402    -4.076124    921.33013  0.043254935  0.042203614           21 
 1776000   0.54422397   -4.0698029    922.25876  0.043274154  0.042177597           27 
 1777000   0.54244305   -4.0697433    922.83332  0.043276745  0.042151643           17 
 1778000   0.53845148   -4.0853892    923.20019    0.0432696  0.042125786            7 
 1779000    0.5381839   -4.0696523    921.88935  0.043183875  0.042099778           13 
 1780000   0.53306659   -4.0661634    922.18901  0.043173643  0.042073919           14 
 1781000   0.55209232   -4.1017334    922.21487  0.043150612  0.042047965           13 
 1782000   0.53377749   -4.0811325    921.60779  0.043098007  0.042021934           11 
 1783000   0.53829959   -4.0963491    922.26947  0.043104761  0.041995944           17 
 1784000   0.54411298   -4.0819058    921.18363  0.043029878  0.041969953           12 
 1785000    0.5302988   -4.0821443    922.00284  0.043044017  0.041944092           13 
 1786000   0.53694117   -4.0655312     921.2085  0.042982853  0.041918249            6 
 1787000    0.5407296   -4.1107812    921.20864  0.042958806  0.041892321           19 
 1788000   0.53323764    -4.087075    921.86435  0.042965341  0.041866459           17 
 1789000   0.54111242   -4.0975784    921.36047  0.042917853  0.041840654           14 
 1790000   0.53848381   -4.0841185    920.98598  0.042876442  0.041814786            8 
 1791000   0.54423695    -4.089098    920.60558  0.042834803  0.041788988            7 
 1792000   0.53456046   -4.1043634    921.75811  0.042864495  0.041763128           12 
 1793000     0.543031    -4.095759    920.84569  0.042798182  0.041737205           11 
 1794000   0.54145513   -4.1035451    921.76055  0.042816822   0.04171146            6 
 1795000   0.52999951   -4.1085453    923.52845  0.042875044   0.04168563           11 
 1796000   0.53926015   -4.1142315     922.2373  0.042791263  0.041659781           30 
 1797000   0.53410052   -4.0994632    921.36852  0.042727162  0.041633952           23 
 1798000   0.53284799   -4.1044785    923.26765  0.042791419  0.041608305           12 
 1799000   0.53386416   -4.1109831    922.02661  0.042710145  0.041582592            6 
 1800000   0.52494634   -4.0982203     922.0613  0.042688023  0.041556933           12 
 1801000   0.53103414   -4.1041216    920.80071  0.042605993  0.041531315           13 
 1802000   0.53720408   -4.1079293    921.62025  0.042620249  0.041505624            6 
 1803000   0.54325063   -4.0898056    923.58022  0.042687198  0.041480055           16 
 1804000   0.51964962   -4.0946512    925.48741  0.042751636  0.041454442           20 
 1805000   0.53637638   -4.0941164    922.39396  0.042585132  0.041428867            6 
 1806000   0.51990981   -4.0886182    924.59942  0.042663318  0.041403269           13 
 1807000   0.53407082   -4.0959935    923.42938  0.042585749  0.041377651           10 
 1808000   0.55063124   -4.1009969    922.90693  0.042538115  0.041352074           15 
 1809000   0.53232679   -4.1061467    922.74632  0.042507201  0.041326447            7 
 1810000    0.5373571    -4.119496     920.6652    0.0423879  0.041300786           22 
 1811000   0.52676155   -4.1124924    925.71623  0.042596918  0.041275079           11 
 1812000   0.53049938   -4.1045101    923.88358  0.042489127  0.041249394           22 
 1813000    0.5216124   -4.1001367    922.70369  0.042411458  0.041223873           14 
 1814000   0.53377063   -4.1014127    923.48114  0.042423794  0.041198393           23 
 1815000   0.53617369   -4.1114487    922.67903  0.042363592  0.041172864           10 
 1816000   0.52712083   -4.1009768    923.72207  0.042388127  0.041147326           14 
 1817000   0.51495262   -4.1075299    922.80511  0.042322744  0.041121786           12 
 1818000   0.53543373   -4.1166871    922.56395   0.04228841  0.041096312            8 
 1819000   0.53468295   -4.0893569    922.75198  0.042273776  0.041070884           14 
 1820000    0.5285179   -4.0975374    919.81522  0.042116082  0.041045392           21 
 1821000    0.5242861   -4.1072175    921.33501  0.042162503  0.041019901           32 
 1822000   0.52434708   -4.0950031    924.29218  0.042274615  0.040994376           19 
 1823000   0.52684536   -4.1240185    920.55866  0.042080758  0.040968891           35 
 1824000   0.52896104   -4.0948527    921.84896  0.042116637  0.040943447           14 
 1825000     0.525933   -4.1142209     922.8085  0.042137375  0.040918031           10 
 1826000   0.52917048   -4.1317483    921.79417  0.042068007  0.040892598           19 
 1827000   0.52420959   -4.1389856    923.80164  0.042136546  0.040867136           26 
 1828000   0.52124589   -4.1077862    921.59293  0.042012807  0.040841771           29 
 1829000    0.5144829   -4.1090589     923.1368  0.042060179  0.040816445           22 
 1830000   0.51290023   -4.1296898    921.05162  0.041942242  0.040791117           12 
 1831000    0.5135202   -4.1248738    923.36623  0.042024678  0.040765699           14 
 1832000    0.5209719   -4.1139681    923.03022  0.041986455  0.040740278           23 
 1833000   0.52831365   -4.1104705    923.15242  0.041969104  0.040714832           16 
 1834000    0.5190484    -4.118647    921.82654  0.041885975  0.040689487           14 
 1835000   0.51923429   -4.1256574     921.4902  0.041847875  0.040664232            5 
 1836000   0.51724555   -4.1088969    922.60029  0.041875467  0.040638903           10 
 1837000   0.51409083   -4.1397182    920.73933  0.041768251  0.040613684           19 
 1838000   0.52713434   -4.1073298    924.09241  0.041897552  0.040588453           11 
 1839000    0.5185478   -4.1244312    919.77718  0.041679227  0.040563162            9 
 1840000   0.52260009   -4.1302728    922.92431  0.041799108  0.040537847           12 
 1841000   0.51834284   -4.1241622    922.97921  0.041778889  0.040512615            9 
 1842000   0.51640919   -4.1261447    925.24989  0.041858935    0.0404874           13 
 1843000   0.51877199   -4.1263843    922.99115  0.041734091  0.040462205           31 
 1844000   0.50791729    -4.133772    921.25879   0.04163317  0.040437023           40 
 1845000   0.51855046   -4.1201701    926.85932  0.041863564  0.040411948           39 
 1846000   0.52221211   -4.1308546    922.12781  0.041627294  0.040386944           23 
 1847000   0.51078824   -4.1446275    923.26893  0.041656241  0.040361887           15 
 1848000   0.49732609    -4.130053    923.28558  0.041634451  0.040336836           10 
 1849000    0.5072883   -4.1464722     923.0242  0.041600153  0.040311807           15 
 1850000   0.49836259   -4.1320391    923.04114   0.04157843  0.040286764           14 
 1851000   0.51268103   -4.1391426    925.20471  0.041653373  0.040261834           14 
 1852000   0.50543681   -4.1255872    926.28304  0.041679403  0.040237015           17 
 1853000   0.51439064   -4.1328507     924.8376  0.041591905  0.040212132            7 
 1854000   0.50513622   -4.1226096    925.47938  0.041598318  0.040187253           16 
 1855000   0.51072147   -4.1446627    924.29632  0.041522746  0.040162491           14 
 1856000   0.50167367   -4.1260466    922.65646  0.041426745  0.040137616           19 
 1857000   0.51000526   -4.1361569    924.76975  0.041499271  0.040112844           15 
 1858000   0.50612618   -4.1332201     925.7747  0.041522008  0.040088064           13 
 1859000   0.51029905   -4.1369015     925.7421  0.041498211  0.040063461           25 
 1860000   0.50036496   -4.1476076    925.42263  0.041461587  0.040038828           16 
 1861000    0.4953211   -4.1351931    924.25512  0.041387029  0.040014182           20 
 1862000   0.51485155   -4.1193784    927.10429  0.041492315  0.039989517           13 
 1863000   0.51040488   -4.1312086     927.0246  0.041466479  0.039964858           21 
 1864000   0.51069677   -4.1380289    924.70094   0.04134035   0.03994015           14 
 1865000    0.5110152   -4.1503823    922.15805   0.04120456   0.03991542           19 
 1866000   0.50910587    -4.133871    926.74755  0.041387439  0.039890782           25 
 1867000   0.51422609   -4.1522057    924.90608  0.041283078  0.039866137           25 
 1868000   0.49610624   -4.1368823    924.18939  0.041229006  0.039841499           12 
 1869000   0.51738448   -4.1432095    924.17818  0.041206446  0.039816852           11 
 1870000   0.51026867   -4.1474798    924.45276  0.041196647   0.03979222           12 
 1871000   0.50135256   -4.1547956    925.12058  0.041204373   0.03976764           12 
 1872000   0.49945987   -4.1408889    924.79392  0.041167821  0.039743061           16 
 1873000   0.50185392     -4.16297    923.99773  0.041110417  0.039718569            6 
 1874000   0.50794398   -4.1359583    924.17626  0.041096419  0.039694005           15 
 1875000   0.50831697   -4.1673227    924.60572  0.041093587  0.039669436           20 
 1876000   0.50855114   -4.1609185    923.97628  0.041043722  0.039644881            7 
 1877000   0.49837891   -4.1478431    924.56141  0.041047834  0.039620339           27 
 1878000   0.52250982   -4.1561401    927.66062  0.041163499  0.039595992           12 
 1879000   0.50539642   -4.1507659    927.31107   0.04112609  0.039571617           12 
 1880000   0.51114727   -4.1432991    927.54472  0.041114571  0.039547251            5 
 1881000   0.49589811   -4.1469518    925.17525  0.040987739  0.039522928            8 
 1882000    0.5082361   -4.1505481    926.64195  0.041030904   0.03949858            6 
 1883000   0.49743348   -4.1674461     926.9903  0.041024531  0.039474287            9 
 1884000   0.50969091   -4.1597342    925.96932  0.040957596  0.039449964           19 
 1885000   0.50278956   -4.1659972    924.58966  0.040874874  0.039425581           10 
 1886000   0.49602566   -4.1585225    925.39948  0.040888984  0.039401218           32 
 1887000   0.50379764   -4.1648673    926.70235  0.040924852  0.039376969           19 
 1888000   0.49378542   -4.1728835    924.73664  0.040816412  0.039352549           19 
 1889000   0.49237027   -4.1611232    926.75538  0.040883862  0.039328126           10 
 1890000   0.50289632   -4.1631199    924.25823  0.040752127  0.039303736           15 
 1891000   0.51057201   -4.1768154    923.54974  0.040699354  0.039279367           25 
 1892000   0.49776633   -4.1803838    924.72592  0.040729647   0.03925498           29 
 1893000   0.48924674   -4.1799989    924.92101   0.04071672  0.039230584           25 
 1894000   0.48984885   -4.1710688    926.97024  0.040785385  0.039206241           18 
 1895000   0.48478333   -4.1762601    923.96311  0.040631623  0.039181852           20 
 1896000   0.49479588   -4.1591909    924.03233  0.040613235  0.039157454           22 
 1897000   0.49820196   -4.1861788    923.56601  0.040571341  0.039133066           19 
 1898000   0.49644528   -4.1841514    923.94821  0.040566746  0.039108646           36 
 1899000   0.49293747   -4.1720011    923.53302  0.040527164    0.0390842           38 
 1900000   0.48951268    -4.166286    923.19621  0.040491062  0.039059822           39 
 1901000   0.49834086    -4.170128    924.56284   0.04052967  0.039035486           46 
 1902000   0.49812632   -4.1859482    923.65052  0.040468389  0.039011153           23 
 1903000   0.49911101    -4.155937     924.3243  0.040476629  0.038986865           34 
 1904000   0.50098328   -4.1635866    926.33268  0.040543272  0.038962679           44 
 1905000   0.49821063   -4.1776865    926.04627  0.040509461   0.03893854           20 
 1906000   0.48494187   -4.1784156    926.42643  0.040504828  0.038914292           38 
 1907000   0.49387069   -4.1635113    927.28217  0.040520983  0.038890056           41 
 1908000   0.49824751   -4.1685087    926.33644   0.04045844  0.038865816           27 
 1909000   0.47912875   -4.1908568    925.25627  0.040390094  0.038841655           36 
 1910000    0.4863413   -4.1804911    924.02397  0.040315182  0.038817392           36 
 1911000   0.47968625   -4.1880531    924.46453  0.040313297  0.038793081           15 
 1912000   0.49187053   -4.1858255    924.57664  0.040297099  0.038768813           25 
 1913000   0.47911061   -4.1918909    925.42674  0.040313066   0.03874452           12 
 1914000   0.49955772   -4.1690375      922.092  0.040146813  0.038720333           23 
 1915000   0.48133171   -4.1933714    922.72244  0.040153283  0.038695988           28 
 1916000   0.48384038   -4.1829108    920.77963  0.040047827  0.038671695           19 
 1917000   0.49421463   -4.1989658    925.26465  0.040221903  0.038647451           32 
 1918000   0.48707177   -4.1767871     924.1245  0.040151395  0.038623194           15 
 1919000   0.48937874   -4.1735898    925.36359  0.040184279  0.038599059           37 
 1920000   0.48008669   -4.1929197    923.39353  0.040077844  0.038574857           16 
 1921000   0.48640502    -4.201566    924.71776  0.040114426  0.038550571           19 
 1922000   0.49051708    -4.192977    921.85858  0.039969588  0.038526235           15 
 1923000   0.48050013   -4.1918429    922.66966  0.039983951  0.038501935           35 
 1924000   0.48556247   -4.1862344    924.15231  0.040027387  0.038477668           29 
 1925000   0.47825952   -4.1932235    923.11233  0.039961573   0.03845346           33 
 1926000    0.4920452   -4.1941932    922.27102  0.039904423  0.038429229           31 
 1927000   0.48411805   -4.1969842    924.25584  0.039969549  0.038405034           11 
 1928000   0.48305615   -4.1982983     923.2488   0.03990529  0.038380897           15 
 1929000   0.48192679   -4.2011283    923.09261  0.039877856  0.038356801           39 
 1930000   0.48308406    -4.202917    923.07371  0.039856378  0.038332654           39 
 1931000   0.48629017   -4.2075906    926.34382  0.039976861  0.038308581           64 
 1932000    0.4795353    -4.212903    923.42738  0.039830374  0.038284518           40 
 1933000   0.48419402   -4.2239348     925.9893  0.039920215  0.038260452           25 
 1934000   0.49021167   -4.2006072    922.80084  0.039762187  0.038236407           20 
 1935000   0.48265378   -4.1920582    925.55619  0.039860301  0.038212411           25 
 1936000   0.46915806   -4.2064779    923.45451  0.039749247  0.038188592           18 
 1937000   0.48498096   -4.2195892    924.26736  0.039763696  0.038164636           23 
 1938000   0.48444275   -4.1909827    925.40605  0.039792142  0.038140852           31 
 1939000   0.47419291   -4.2148678    925.19494  0.039762547  0.038117018           43 
 1940000   0.47133496   -4.2092345    923.43938   0.03966664  0.038093097           49 
 1941000   0.46934386    -4.185824    923.39496  0.039644297  0.038069224           22 
 1942000   0.48086036   -4.2018785    924.86537  0.039686979  0.038045453           14 
 1943000   0.48580955   -4.2091937     923.7281  0.039617778  0.038021682           13 
 1944000   0.48516359   -4.1921964    926.22775   0.03970455  0.037997961           17 
 1945000   0.47117175   -4.2098503    925.60241  0.039657344  0.037974277            9 
 1946000   0.48258173   -4.1840696    926.40417  0.039671299  0.037950622           19 
 1947000   0.47369644   -4.2218191    927.11793  0.039681473  0.037926971           28 
 1948000   0.47619014   -4.2001923     924.3943  0.039544588  0.037903333           23 
 1949000   0.47221201   -4.2248767    924.34077   0.03952201  0.037879579           60 
 1950000   0.47980747   -4.2225178    926.29422  0.039585223  0.037855825           28 
 1951000   0.46641399   -4.2254425    923.05592  0.039426615  0.037832033           25 
 1952000   0.47773485   -4.2080676    924.96522  0.039487928  0.037808221           19 
 1953000   0.47130004   -4.2238298    924.43661  0.039445153   0.03778446           66 
 1954000   0.47125389   -4.2311629    925.72855  0.039480064  0.037760732           96 
 1955000   0.47225461   -4.2075818    923.18075  0.039351268  0.037737046           30 
 1956000   0.47376547   -4.2016809    923.04991  0.039325576  0.037713327           76 
 1957000   0.46173187    -4.209192    925.91764  0.039427595  0.037689729           21 
 1958000   0.47675668   -4.2086398    924.47544  0.039346078  0.037666091           26 
 1959000   0.46556251   -4.2202162    925.03086   0.03934962  0.037642481           12 
 1960000   0.46469678   -4.2176306    925.94671  0.039368483  0.037618918            8 
 1961000   0.46468388   -4.2334863    922.40626  0.039197954  0.037595252           12 
 1962000   0.46583897   -4.2331441     925.5948  0.039313405  0.037571625           13 
 1963000   0.47747111   -4.2380962    922.49345  0.039161719  0.037548014           11 
 1964000   0.46640149    -4.217606    923.85522   0.03919956  0.037524469           10 
 1965000   0.46008431   -4.2325097    923.76586  0.039175821  0.037500929           18 
 1966000   0.47025753   -4.2067755    922.33706  0.039095331  0.037477353           22 
 1967000   0.45960688   -4.2376347    923.75408  0.039135489  0.037453744           28 
 1968000   0.46541165   -4.2295319    924.19583  0.039134308  0.037430163           28 
 1969000   0.47033642   -4.2329995    924.31178  0.039119341  0.037406533           32 
 1970000   0.46454765   -4.2256045    923.14085  0.039049951  0.037382947           32 
 1971000   0.46622103   -4.2251185     925.7177  0.039139088  0.037359408           14 
 1972000   0.47311647   -4.2413903    922.33526  0.038976304  0.037335833           19 
 1973000   0.46478196   -4.2232851    923.19776  0.038992979  0.037312345           22 
 1974000   0.46366929   -4.2410685    924.58875  0.039031947  0.037288765           17 
 1975000   0.46180056   -4.2259691    921.90134  0.038898791  0.037265189           53 
 1976000   0.46036661    -4.239567    923.87345  0.038962274  0.037241676           33 
 1977000   0.45767131   -4.2363531     922.9372  0.038903102  0.037218163           22 
 1978000   0.46985854   -4.2409131    921.87912  0.038838858  0.037194643           26 
 1979000    0.4539738   -4.2256356    922.72631  0.038854906  0.037171041           43 
 1980000   0.46814653   -4.2323907    922.32908  0.038818564  0.037147475           53 
 1981000   0.46668146   -4.2417062    923.33438  0.038841258  0.037123921           35 
 1982000   0.46362113   -4.2525249    920.46262  0.038700918  0.037100362           32 
 1983000    0.4617956   -4.2376088    923.19331  0.038796155  0.037076783           15 
 1984000   0.46888523   -4.2445272    919.69344  0.038629597  0.037053202           28 
 1985000   0.45832017   -4.2423759    921.40868  0.038682145  0.037029574           25 
 1986000   0.46497684   -4.2385846    920.71392  0.038633514  0.037005972           47 
 1987000   0.46061512   -4.2396512     921.2477  0.038636458  0.036982405           17 
 1988000   0.45966942   -4.2485863    922.13751  0.038654322  0.036958811           22 
 1989000   0.46536654   -4.2506462    923.41763  0.038688521  0.036935369           22 
 1990000   0.46819869   -4.2409881    922.53162  0.038631978  0.036911934           22 
 1991000   0.45251672   -4.2556241    921.61207  0.038574086  0.036888495           34 
 1992000   0.46394124   -4.2550294    922.94169  0.038610345  0.036865052           19 
 1993000   0.45721448   -4.2483447    923.99008  0.038634809  0.036841619           32 
 1994000   0.46285205   -4.2495103    921.89632  0.038527931  0.036818192           28 
 1995000   0.45681404   -4.2380197    924.11133  0.038601142  0.036794799           22 
 1996000   0.46712135   -4.2474716    923.36202  0.038550519  0.036771433           12 
 1997000   0.46418104   -4.2381182    922.17579  0.038481714   0.03674811           28 
 1998000   0.45259846   -4.2536769    921.98419  0.038454462  0.036724724           31 
 1999000   0.44652027   -4.2471199    920.89709  0.038389907   0.03670134           20 
 2000000   0.44939713   -4.2632981    920.01963  0.038334151   0.03667796           16 
 2001000   0.45913383   -4.2520674    920.37582  0.038329828  0.036654614           37 
 2002000   0.44733331   -4.2748919    921.37203  0.038352149  0.036631184           21 
 2003000   0.44895334   -4.2595837    921.08529  0.038321072  0.036607871           16 
 2004000   0.45800153   -4.2548803    922.10649  0.038344415   0.03658457           26 
 2005000   0.44629078   -4.2530128    921.91434  0.038317304  0.036561286           30 
 2006000    0.4615606   -4.2505633    923.00846  0.038343655  0.036538068           30 
 2007000   0.44829756   -4.2592625    921.05524  0.038243449  0.036514907           17 
 2008000   0.45282195   -4.2553676    920.65538   0.03820781  0.036491665           20 
 2009000   0.45293953   -4.2549151     924.5668  0.038351037  0.036468486           22 
 2010000   0.44275211   -4.2679532    922.23931   0.03823546  0.036445278           11 
 2011000   0.44696844    -4.270016    921.71011  0.038194518  0.036422032           28 
 2012000    0.4472821   -4.2747749    919.58887  0.038087677  0.036398845           11 
Loop time of 4853.39 on 48 procs for 2000000 steps with 4000 atoms

Performance: 71208.012 tau/day, 412.083 timesteps/s
99.4% CPU use with 48 MPI tasks x no OpenMP threads

MPI task timing breakdown:
Section |  min time  |  avg time  |  max time  |%varavg| %total
---------------------------------------------------------------
Pair    | 323.06     | 341.94     | 367.12     |  57.9 |  7.05
Neigh   | 32.817     | 34.34      | 35.722     |  12.5 |  0.71
Comm    | 303.2      | 333.15     | 356.89     |  66.6 |  6.86
Output  | 4.2427     | 4.2441     | 4.2756     |   0.2 |  0.09
Modify  | 4087.5     | 4097.2     | 4107.4     |   7.2 | 84.42
Other   |            | 42.56      |            |       |  0.88

Nlocal:        83.3333 ave          92 max          76 min
Histogram: 1 8 2 9 2 13 7 3 2 1
Nghost:        2227.40 ave        2245 max        2210 min
Histogram: 3 4 3 4 7 9 10 3 4 1
Neighs:        14946.9 ave       17129 max       13461 min
Histogram: 3 5 9 5 12 7 2 1 3 1
FullNghs:      29895.2 ave       33039 max       27266 min
Histogram: 3 5 4 7 9 7 7 3 0 3

Total # of neighbors = 1434970
Ave neighs/atom = 358.74250
Neighbor list builds = 108307
Dangerous builds = 0

#clear
#
#next RN
#
#jump SELF
Total wall time: 1:20:56
