
units lj                  # Use reduced LJ style units
atom_style atomic         # Uncharged point particles
atom_modify map hash      # Needed for indexing of clusters etc
                          # Used to be able to find where atoms are in relation to each other.

lattice fcc 1.0 spacing 1 1 1
Lattice spacing in x,y,z = 1.5874011 1.5874011 1.5874011
region box block 0 10 0 10 0 10 units lattice
create_box 2 box
Created orthogonal box = (0.0000000 0.0000000 0.0000000) to (15.874011 15.874011 15.874011)
  3 by 4 by 4 MPI processor grid
create_atoms 1 box
Created 4000 atoms
  using lattice units in orthogonal box = (0.0000000 0.0000000 0.0000000) to (15.874011 15.874011 15.874011)
  create_atoms CPU = 0.003 seconds
set type 1 type/fraction 2 0.45 78393
Setting atom values ...
  1799 settings made for type/fraction
mass 1 1.0
mass 2 1.0
pair_style lj/cut  3.5
pair_modify tail  yes
pair_coeff 1  1  1.0  1.0   # Intearaction between 1 and 1 set with epsilon = 1 and sigma = 1
pair_coeff 1  2  1.5  0.8
pair_coeff 2  2  0.5  0.88

write_data data.0
System init for write_data ...
Neighbor list info ...
  update every 1 steps, delay 10 steps, check yes
  max neighbors/atom: 2000, page size: 100000
  master list distance cutoff = 3.8
  ghost atom cutoff = 3.8
  binsize = 1.9, bins = 9 9 9
  1 neighbor lists, perpetual/occasional/extra = 1 0 0
  (1) pair lj/cut, perpetual
      attributes: half, newton on
      pair build: half/bin/atomonly/newton
      stencil: half/bin/3d
      bin: standard
WARNING: Not all mixed pair coeffs generated from mixing. Use write_data with 'pair ij' option to store all pair coeffs. (../write_data.cpp:312)


#############################
#   M E L T   S Y S T E M   #
#############################

velocity all create 2.4 6583654 mom yes dist gaussian # Assign velocities
                                                    # Temperature 2.4, random number seed, zero linear momentum
                                                                                # Gaussian distribution

timestep 0.002   # simulation timestep
thermo 1000       # output thermodynamic data every 1000 steps bf 100

# Define a fix  in this case with index 1 applied to all
# particles in the simulation. This fix is for simulations
# in the anisotropic NPT ensemble. Note that we use the MTK
# correction.
fix 1 all npt temp 2.4 2.4 0.1 iso 5.68 5.68 0.5 mtk yes tchain 5 pchain 5 # Use NPT ensemble
                                                                         # Set temperature and pressure and damping
                                                                         # Numbers of thermostats in chain and in barostat
run 10000          # run for 10000 steps
Per MPI rank memory allocation (min/avg/max) = 3.642 | 3.644 | 3.648 Mbytes
Step Temp E_pair E_mol TotEng Press Volume 
       0          2.4   -5.5879345            0   -1.9888345   -4.1997978         4000 
    1000    2.4410394   -5.0034947            0    -1.342851    5.5640713    3800.7132 
    2000    2.4178643   -4.9766533            0   -1.3507635    5.9266706    3777.0135 
    3000     2.459485   -5.0109917            0   -1.3226865    5.4275488    3809.9378 
    4000    2.3725376   -5.0132943            0   -1.4553777    5.6798822    3767.3844 
    5000    2.4232811   -4.9938795            0   -1.3598665    5.9712386    3771.7116 
    6000     2.422639   -5.0755692            0   -1.4425193    5.5865619    3759.5308 
    7000    2.4044979   -5.0278965            0   -1.4220513    5.8088093    3755.1242 
    8000    2.3648455    -4.995849            0   -1.4494675    5.6415081    3782.8949 
    9000    2.4207053   -4.9426065            0   -1.3124564    6.0198998    3780.1452 
   10000    2.3870096   -4.9715583            0   -1.3919391    5.8167549    3787.8353 
Loop time of 2.67993 on 48 procs for 10000 steps with 4000 atoms

Performance: 644792.343 tau/day, 3731.437 timesteps/s
99.6% CPU use with 48 MPI tasks x no OpenMP threads

MPI task timing breakdown:
Section |  min time  |  avg time  |  max time  |%varavg| %total
---------------------------------------------------------------
Pair    | 1.1513     | 1.2268     | 1.299      |   3.2 | 45.78
Neigh   | 0.21089    | 0.22123    | 0.23418    |   1.0 |  8.26
Comm    | 0.80455    | 0.89818    | 0.99259    |   3.7 | 33.52
Output  | 0.00025604 | 0.00026968 | 0.00033667 |   0.0 |  0.01
Modify  | 0.26417    | 0.31787    | 0.37409    |   6.6 | 11.86
Other   |            | 0.01561    |            |       |  0.58

Nlocal:        83.3333 ave          91 max          76 min
Histogram: 3 2 6 6 7 4 10 4 4 2
Nghost:        1703.29 ave        1729 max        1672 min
Histogram: 3 2 2 6 7 8 5 7 4 4
Neighs:        10090.7 ave       11664 max        8684 min
Histogram: 1 1 10 5 10 7 8 5 0 1

Total # of neighbors = 484352
Ave neighs/atom = 121.08800
Neighbor list builds = 907
Dangerous builds = 228

# Equilibrate just above the melting temperature to avoid step fn in T

fix 1 all npt temp 1.25 1.25 0.1 iso 5.68 5.68 0.5 mtk yes tchain 5 pchain 5
run 2000
Per MPI rank memory allocation (min/avg/max) = 3.643 | 3.645 | 3.649 Mbytes
Step Temp E_pair E_mol TotEng Press Volume 
   10000    2.3870096   -4.9715583            0   -1.3919391    5.8167549    3787.8353 
   11000    1.2674376   -7.1144132            0   -5.2137321    5.5056672    2970.7162 
   12000    1.2528406   -7.1439889            0   -5.2651978    5.7038909    2958.7494 
Loop time of 0.629313 on 48 procs for 2000 steps with 4000 atoms

Performance: 549170.311 tau/day, 3178.069 timesteps/s
99.7% CPU use with 48 MPI tasks x no OpenMP threads

MPI task timing breakdown:
Section |  min time  |  avg time  |  max time  |%varavg| %total
---------------------------------------------------------------
Pair    | 0.2834     | 0.30812    | 0.33613    |   2.4 | 48.96
Neigh   | 0.040303   | 0.042475   | 0.045239   |   0.6 |  6.75
Comm    | 0.19939    | 0.22904    | 0.25741    |   3.0 | 36.40
Output  | 5.3252e-05 | 5.4723e-05 | 7.0684e-05 |   0.0 |  0.01
Modify  | 0.04137    | 0.04462    | 0.047682   |   0.8 |  7.09
Other   |            | 0.005      |            |       |  0.79

Nlocal:        83.3333 ave          91 max          75 min
Histogram: 2 6 2 5 5 8 9 3 5 3
Nghost:        2022.29 ave        2048 max        1999 min
Histogram: 1 6 7 7 4 8 4 8 2 1
Neighs:        12919.2 ave       14686 max       10808 min
Histogram: 1 3 5 5 5 7 8 9 2 3

Total # of neighbors = 620122
Ave neighs/atom = 155.03050
Neighbor list builds = 142
Dangerous builds = 10

#############################
# L I N E A R  Q U E N C H  #
#############################

# Define solid atoms. This closely follows ten Wolde  Ruiz-Montero and Frenkel  Faraday Discuss  1996  104  93-110
# Compute components of the per-atom q6 vector
compute q6 all orientorder/atom degrees 1 6 components 6 nnn NULL cutoff 1.3 # compute the Q6 parameter.
                                                                             # Use all neighbours within 1.3 unit cell.

# get number of connections
compute coord_number all coord/atom orientorder q6 0.5

# An atom is solid if it has 8 or more connections (of a possible 14)
variable is_solid atom c_coord_number>=8
group solid dynamic all var is_solid    # Must be dynamic to update
dynamic group solid defined

# do clustering
compute cluster solid cluster/atom 1.3 # Create a cluster where all atoms within are solid and max 1.3 units from another member

# define chunks one chunk per cluster
compute clus_chunks solid chunk/atom c_cluster nchunk every compress yes  # Says which atoms are in which chunk

# count the size of each chunk
compute size_chunks solid property/chunk clus_chunks count


# Find the maximum entry in the vector of chunk sizes
variable max_n equal max(c_size_chunks)


# Thermo style which includes this variable
# thermo_style custom step temp pe vol v_max_n

thermo ${N}  # Print the thermo information every 100 steps
thermo 1000  

# Reset the npt fix at a lower temperature (below freezing)
fix 1  all npt temp  ${temp} ${temp}  0.1  iso  5.68  5.68  0.5  mtk yes tchain  5  pchain  5
fix 1  all npt temp  0.45 ${temp}  0.1  iso  5.68  5.68  0.5  mtk yes tchain  5  pchain  5
fix 1  all npt temp  0.45 0.45  0.1  iso  5.68  5.68  0.5  mtk yes tchain  5  pchain  5

dump dmp2 all dcd ${N} traj.dcd
dump dmp2 all dcd 1000 traj.dcd


compute msd all msd com yes
variable twopoint equal c_msd[4]/6/(step*dt+1.0e-6)
fix 9 all vector 10 c_msd[4]
variable fit equal slope(f_9)/6/(10*dt)
thermo_style custom step temp pe c_msd[4] v_twopoint v_fit v_max_n

fix 1 all npt temp 1.25 ${temp} 0.1 iso 5.68 5.68 0.5 mtk yes tchain 5 pchain 5
fix 1 all npt temp 1.25 0.45 0.1 iso 5.68 5.68 0.5 mtk yes tchain 5 pchain 5
run 2000000 # 5000000  # Run for this many steps
Neighbor list info ...
  update every 1 steps, delay 10 steps, check yes
  max neighbors/atom: 2000, page size: 100000
  master list distance cutoff = 3.8
  ghost atom cutoff = 3.8
  binsize = 1.9, bins = 8 8 8
  4 neighbor lists, perpetual/occasional/extra = 1 3 0
  (1) pair lj/cut, perpetual
      attributes: half, newton on
      pair build: half/bin/atomonly/newton
      stencil: half/bin/3d
      bin: standard
  (2) compute orientorder/atom, occasional
      attributes: full, newton on
      pair build: full/bin/atomonly
      stencil: full/bin/3d
      bin: standard
  (3) compute coord/atom, occasional
      attributes: full, newton on
      pair build: full/bin/atomonly
      stencil: full/bin/3d
      bin: standard
  (4) compute cluster/atom, occasional
      attributes: full, newton on
      pair build: full/bin/atomonly
      stencil: full/bin/3d
      bin: standard
Per MPI rank memory allocation (min/avg/max) = 9.832 | 9.838 | 9.845 Mbytes
Step Temp PotEng c_msd[4] v_twopoint v_fit v_max_n 
   12000    1.2528406   -7.1439889 1.0551015e-30 7.3270932e-33 8.3333333e+20            3 
   13000     1.237192   -7.1530031   0.46279476  0.002966633  0.038098462            2 
   14000    1.2531982   -7.1173123   0.89529338 0.0053291271  0.035746881            1 
   15000    1.2459488   -7.1255568    1.3454152 0.0074745287  0.036459285            2 
   16000     1.255001   -7.1661596    1.7909912 0.0093280788  0.036801006            2 
   17000    1.2881271   -7.1442347    2.2314087  0.010938278  0.037121061            2 
   18000    1.2532466   -7.1123739    2.6326486  0.012188188  0.036738338            1 
   19000    1.2496628   -7.1318563    3.1099066  0.013639941  0.036621821            3 
   20000    1.2699077   -7.1217742    3.5433395  0.014763914  0.036548137            1 
   21000    1.2411113   -7.1703827    3.9000357  0.015476332  0.036374577            3 
   22000    1.2156821   -7.1288381    4.2759611  0.016196822  0.035931058            2 
   23000    1.2159031   -7.1051684    4.6372597  0.016801665  0.035429231            5 
   24000    1.2207827   -7.1524933     4.954029  0.017201489  0.034936425            2 
   25000    1.2635193   -7.1706984    5.3391458  0.017797152  0.034472683            1 
   26000     1.257166   -7.1397363      5.83976  0.018717179  0.034241149            1 
   27000     1.221924   -7.1453278    6.1672744  0.019034797  0.034076795            1 
   28000    1.2478215   -7.1559775    6.5346374  0.019448325  0.033840957            2 
   29000    1.2470444   -7.1247454    7.0274006   0.02019368  0.033747104            2 
   30000    1.2409699   -7.1690784    7.4045344  0.020568151  0.033709043            1 
   31000    1.2853294   -7.1253652    7.8660048  0.021145174  0.033697419            2 
   32000    1.2242509   -7.1864919    8.3373985  0.021711975   0.03377914            2 
   33000    1.2683353   -7.1443083    8.7922712  0.022202705  0.033881516            1 
   34000    1.2350133     -7.17962    9.1378537    0.0223967  0.033974747            1 
   35000    1.2519787   -7.1646138    9.5182543   0.02266251  0.034004285            1 
   36000    1.2544989   -7.1484531    9.9043784  0.022926801  0.033974165            2 
   37000    1.2332381   -7.1700139    10.334654  0.023276248  0.033989778            6 
   38000    1.2742503   -7.2147912    10.716217  0.023500476  0.033970034            4 
   39000    1.2320368    -7.197146    11.227129  0.023989592  0.033994073            3 
   40000    1.2342957   -7.1174405    11.667153  0.024306568  0.034022463            3 
   41000    1.2544722   -7.1282544    12.153706  0.024702654  0.034098214            3 
   42000    1.2445799   -7.1796453    12.529238  0.024859599  0.034180225            1 
   43000    1.2320345   -7.1450041     12.80273  0.024811492  0.034183702            2 
   44000    1.2201857   -7.1899867     13.18755   0.02497642  0.034168604            2 
   45000    1.2423496   -7.2344088    13.545199  0.025083702  0.034150499            1 
   46000    1.2231984   -7.1619995    13.858501   0.02510598  0.034093195            1 
   47000    1.2287995   -7.1484255    14.183036  0.025147226  0.034001608            3 
   48000    1.2368873    -7.099496    14.708917  0.025536314  0.033928738            1 
   49000    1.2555533   -7.1727425    15.139339  0.025747174  0.033908593            1 
   50000    1.2467443     -7.17716    15.515466  0.025859109  0.033891192            1 
   51000    1.2351602    -7.163096    15.918429  0.026010505  0.033859395            1 
   52000    1.2577612    -7.190196    16.224441  0.026000707  0.033821838            2 
   53000    1.2279927   -7.1923929    16.517264   0.02597054  0.033773519            2 
   54000    1.2406704   -7.1523513    16.917014  0.026106503  0.033693486            1 
   55000    1.2366242   -7.1695889    17.297412  0.026208199  0.033616953            1 
   56000    1.2294858   -7.1873879    17.694491  0.026331088  0.033567592            2 
   57000    1.2237431    -7.198358     18.17007   0.02656443  0.033531257            3 
   58000    1.2576072   -7.1558199    18.539149  0.026636708  0.033487735            1 
   59000    1.2673429   -7.2092845    18.737737   0.02646573  0.033432558            1 
   60000    1.2309557   -7.1965293    19.036319  0.026439332  0.033359155            1 
   61000    1.2287296   -7.1708768    19.395895  0.026497123  0.033266441            2 
   62000      1.22556   -7.2162054    19.694892  0.026471629  0.033167239            3 
   63000     1.238822   -7.2243597    20.153832  0.026658508  0.033084636            1 
   64000    1.2411162   -7.2118561    20.740513  0.027005876  0.033041729            4 
   65000    1.2118457   -7.1785987    21.298228  0.027305421  0.033025763            2 
   66000    1.2376311   -7.1939666    21.709183  0.027410585  0.033016845            1 
   67000    1.2289928   -7.2270429    22.101614   0.02748957  0.033025879            2 
   68000    1.2256061   -7.1833437    22.554945  0.027640864  0.033037071            1 
   69000    1.2126369   -7.1966033    22.765988  0.027495155  0.033032196            1 
   70000    1.2318957   -7.2409626    23.149856  0.027559352  0.033013658            1 
   71000    1.2016756   -7.2028066    23.691913   0.02780741  0.033006296            3 
   72000    1.2484851   -7.2491889    23.928857  0.027695436  0.032997551            2 
   73000    1.2449081    -7.207292    24.392603  0.027845437  0.032980941            2 
   74000    1.2356037   -7.1642039    24.780142  0.027905565  0.032968998            1 
   75000    1.2307861   -7.1592622    25.275486  0.028083873  0.032968042            1 
   76000    1.2267577   -7.1662916    25.391612   0.02784168  0.032953327            2 
   77000    1.2349381   -7.1686486    25.848732  0.027974818  0.032921098            4 
   78000    1.2295668   -7.2336628    26.191644  0.027982525  0.032896752            1 
   79000    1.2350777   -7.1870065    26.514927  0.027969332  0.032869115            1 
   80000    1.2209695   -7.1876069    26.952598  0.028075623  0.032841899            2 
   81000     1.213532   -7.1673902    27.423706   0.02821369  0.032823281            1 
   82000    1.2093558   -7.2125087    27.775461  0.028227094  0.032813219            3 
   83000    1.2408196   -7.2074968    28.110795   0.02822369  0.032796593            3 
   84000    1.2266909   -7.2201998    28.668922   0.02844139  0.032784393            2 
   85000    1.2079383   -7.2503277     28.93549  0.028368127  0.032778009            2 
   86000    1.2241816    -7.292618    29.433817   0.02852114  0.032776421            2 
   87000    1.1998919   -7.2420543    29.983657  0.028719978  0.032784185            1 
   88000    1.2207609   -7.2359446    30.333642   0.02872504  0.032789769            1 
   89000    1.2144004    -7.209289    30.791245  0.028830753  0.032793394            3 
   90000    1.2292245   -7.2192733    31.061773  0.028760901  0.032798215            3 
   91000    1.2161182   -7.2414861    31.528361  0.028872125  0.032801384            1 
   92000     1.201432   -7.1541101    32.162358  0.029132571  0.032814073            1 
   93000    1.2189995   -7.2511675    32.254706  0.028902066  0.032820315            1 
   94000     1.200765   -7.2025667    32.928444  0.029191883  0.032837239            1 
   95000    1.2555006   -7.2479845    33.257014  0.029172819  0.032855714            2 
   96000    1.2394724   -7.1686557    34.092506  0.029594189  0.032882999            1 
   97000    1.2691531   -7.2132571    34.302944  0.029469883   0.03291741            1 
   98000    1.2081211   -7.1951456    34.669869  0.029481181  0.032939917            1 
   99000    1.2240463   -7.2796537    34.784621  0.029279984  0.032954167            1 
  100000    1.2052971   -7.2090024     35.29801  0.029415008  0.032963495            3 
  101000    1.2097756   -7.2612086    35.456093  0.029254202  0.032967524            1 
  102000    1.2177114    -7.227959    35.763367  0.029218437  0.032961106            1 
  103000    1.2025468   -7.2007612    36.166319  0.029260776  0.032949414            1 
  104000    1.2180854   -7.2069104    36.559954  0.029294835  0.032937872            2 
  105000    1.1972688   -7.2116302    36.844093  0.029241343  0.032928964            5 
  106000    1.2160139   -7.2323366    37.135432  0.029194522  0.032912687            3 
  107000    1.2350028   -7.1937815    37.470754   0.02918283  0.032893742            2 
  108000    1.2322137   -7.2424917     37.69525  0.029085841  0.032868194            2 
  109000    1.2285145   -7.2261666    38.051017  0.029090991  0.032839587            2 
  110000    1.2307584   -7.2396208     38.44283  0.029123356  0.032811395            3 
  111000    1.2026028   -7.2451913     38.67295  0.029033746  0.032778127            2 
  112000    1.2240587   -7.2498192    38.907626  0.028949126  0.032743234            1 
  113000    1.2249389   -7.2397368    39.353311  0.029021616  0.032707401            1 
  114000    1.2233484   -7.2373689    39.779629  0.029078676  0.032676549            1 
  115000    1.2062396   -7.2679724    40.284841  0.029191913  0.032651527            1 
  116000    1.2378761   -7.2735453    40.612351  0.029175539  0.032627751            2 
  117000     1.221228   -7.2674637    41.050502  0.029238249  0.032609674            2 
  118000    1.2061683   -7.2437032    41.744634  0.029480674  0.032593521            1 
  119000    1.2243407    -7.240383    42.312894  0.029630878  0.032584442            1 
  120000    1.2138526    -7.240098    42.492531  0.029508702  0.032578301            1 
  121000    1.2104417   -7.2403549    43.127516  0.029702146  0.032575308       -1e+20 
  122000    1.2035606   -7.2326695    43.475286  0.029696233  0.032572958            3 
  123000    1.2270007   -7.2997077    43.457597  0.029442816  0.032561231            6 
  124000    1.2323007   -7.2965444    43.593873  0.029296958  0.032543381            1 
  125000    1.1888334   -7.2558359    44.099938  0.029399959  0.032523962            2 
  126000    1.2004187   -7.2623071    44.450822  0.029398691  0.032505244            2 
  127000    1.2178905   -7.2135646    44.867445   0.02944058  0.032488831            1 
  128000    1.1942866   -7.2340095    45.163359  0.029403228  0.032472799            1 
  129000    1.1846684   -7.2206121    45.536145  0.029416114  0.032454748            1 
  130000    1.2072344   -7.2395492    45.706973  0.029299341  0.032436346            2 
  131000    1.1928436   -7.1980011     46.37024  0.029497608  0.032416121            1 
  132000    1.1920728   -7.2523674    46.387413  0.029284983  0.032392263            2 
  133000    1.1970835   -7.2394528    46.753962  0.029294462  0.032362235            1 
  134000     1.209169   -7.2429243    47.053114  0.029261887  0.032334899            2 
  135000    1.2213859     -7.21926    47.597348  0.029381079  0.032306853            1 
  136000    1.2070692   -7.2581097    47.683208  0.029217652  0.032275949            1 
  137000    1.1849384   -7.2576589    48.202192  0.029320068  0.032246373            2 
  138000    1.1911376   -7.2995118    48.346366  0.029194665  0.032214442            1 
  139000    1.1660597   -7.2719298    48.643656  0.029162863  0.032180298            1 
  140000     1.203737   -7.2605904    49.054268  0.029198969  0.032147938            1 
  141000    1.2004603   -7.2404009    49.361977  0.029173745  0.032115765            3 
  142000     1.197586   -7.2810242    49.761589  0.029202811  0.032086138            3 
  143000     1.217768   -7.2480471    49.987785  0.029130411  0.032054313            2 
  144000    1.2011838   -7.2640529    50.299598  0.029108563  0.032022885            2 
  145000    1.2026706   -7.2689965    50.828283  0.029211657  0.031991264            1 
  146000    1.1871731   -7.2917064    50.935789  0.029072939  0.031956741            1 
  147000    1.2094446   -7.2712945    51.175584  0.029011102  0.031922485            3 
  148000    1.1886578   -7.2520868    51.944484   0.02924802  0.031886649            2 
  149000    1.2203522   -7.2754209    52.087416  0.029131664  0.031857891            1 
  150000    1.2177646   -7.2942706    52.259918  0.029033288  0.031824354            1 
  151000    1.2198248   -7.2181068    52.725917  0.029098188  0.031792247            1 
  152000    1.1848244   -7.3014986    52.672443  0.028877436  0.031759564            2 
  153000    1.2051206    -7.278141    53.063508  0.028901693  0.031721322            1 
  154000    1.2006303   -7.2651858    53.340911  0.028864129  0.031682609            2 
  155000      1.15538   -7.2809978     53.51835  0.028773307  0.031641197            1 
  156000    1.2020737   -7.3059233    53.831815  0.028756311  0.031599063            1 
  157000    1.1754806   -7.2600218     54.12828  0.028730509  0.031558462            3 
  158000    1.1846186    -7.246201     54.48547  0.028737062  0.031516136            2 
  159000    1.1935312   -7.2835676    54.664408  0.028650109  0.031476013            3 
  160000    1.1900989   -7.2824291    55.140395  0.028718955  0.031434009            1 
  161000    1.1848913   -7.2884361    55.570789  0.028763348  0.031394701            2 
  162000    1.1898804   -7.2725363    56.054972  0.028834862  0.031358882            2 
  163000    1.2059335   -7.3234357    56.382091    0.0288252  0.031325535            1 
  164000    1.1893524   -7.2962781    56.608016  0.028764236  0.031292161            4 
  165000    1.1940232   -7.2773192    57.169755  0.028873613  0.031263315            3 
  166000    1.1915681   -7.2655971    57.665297  0.028948442  0.031233723            1 
  167000    1.2000244   -7.2916018    58.119301  0.029001647  0.031205438            2 
  168000     1.179593   -7.2676831     58.38732  0.028961964  0.031176716            1 
  169000    1.1849873   -7.3301157    58.454924  0.028823927  0.031147183            2 
  170000    1.1855715    -7.322514    58.529711  0.028691035  0.031117378            3 
  171000    1.1894348   -7.2884311    59.285709  0.028891671  0.031089644            2 
  172000    1.2062802    -7.300069    59.247156  0.028705017  0.031059097            1 
  173000      1.16721   -7.3378805    59.543231   0.02868171  0.031024553            2 
  174000    1.1828177   -7.3001195    59.800081  0.028639886   0.03099236            2 
  175000    1.1550891    -7.271097     60.28466  0.028706981  0.030962085            1 
  176000    1.1672799   -7.2760161    60.837015  0.028805405  0.030930248            2 
  177000    1.2012666   -7.3403857    60.893859  0.028669425  0.030899219            1 
  178000    1.1860865   -7.3124541    61.275434  0.028687001  0.030867551            1 
  179000    1.1813436   -7.2983301    61.655357  0.028703611  0.030837633            3 
  180000    1.1933531   -7.3108034    61.969134  0.028689414  0.030810931            2 
  181000    1.1633099   -7.3025487    62.337654  0.028700577  0.030785622            1 
  182000    1.1822001   -7.2863098    62.819912  0.028763696  0.030761346            2 
  183000     1.187581   -7.2662831    63.406785  0.028873763  0.030739266            2 
  184000    1.1723306   -7.3125547    63.412028  0.028719215  0.030716667            2 
  185000    1.1810624   -7.3247992    63.861736  0.028766548  0.030692252            1 
  186000    1.1967592   -7.3552304    63.991972  0.028670238  0.030669962            1 
  187000    1.1717918   -7.2982716    64.715198  0.028839215  0.030646898            2 
  188000     1.181602   -7.2883948    65.105384   0.02885877  0.030626308            2 
  189000    1.2081672   -7.3006957    65.112442  0.028709189  0.030604616            1 
  190000    1.1825465   -7.3233816    65.496718   0.02872663  0.030582014            3 
  191000    1.1513079   -7.3232209    65.908637   0.02875595  0.030560252            1 
  192000    1.1758278   -7.3021941    66.292762    0.0287729  0.030539985            2 
  193000    1.1618247   -7.3123915    66.632171  0.028770367  0.030520994            4 
  194000     1.167288   -7.3270538    67.012811  0.028785572  0.030501746            1 
  195000    1.1756489   -7.2938521    67.443353  0.028821946  0.030483901            1 
  196000    1.1892974   -7.3298737    68.065951  0.028939605  0.030467367            5 
  197000    1.1769713   -7.3512272    68.221094  0.028858331  0.030453524            1 
  198000    1.1782983   -7.2616654    69.053111  0.029062757  0.030442226            2 
  199000     1.186876   -7.3095694     69.36146  0.029045837   0.03043239            2 
  200000    1.1831937   -7.3427915    69.505227  0.028960511   0.03042041            2 
  201000    1.1640134   -7.3002888    69.614716  0.028861823  0.030407125            2 
  202000    1.1786619   -7.3086763     70.43187  0.029056052  0.030394202            2 
  203000     1.138752    -7.287277    70.895912  0.029103412  0.030385221            1 
  204000    1.1634092   -7.3226289    71.064791  0.029029735  0.030376626            1 
  205000    1.1845852    -7.349139    71.501323  0.029065579   0.03036784            4 
  206000    1.1771506   -7.3424679    71.896236  0.029084238  0.030358934            2 
  207000    1.1290304   -7.3425742    72.326874  0.029117099  0.030350986            1 
  208000    1.1785967   -7.3033077    72.666051  0.029113001  0.030342738            1 
  209000    1.1390715   -7.3163152    73.050313  0.029126919  0.030335986            1 
  210000     1.156433   -7.3761747    73.299486  0.029087098  0.030330327            3 
  211000    1.1644269   -7.3874151    73.862616  0.029171649  0.030323799            1 
  212000    1.1555821   -7.3098485    74.302123  0.029206809  0.030318122            2 
  213000    1.1745598   -7.3673488    74.433159  0.029120954  0.030312801            1 
  214000    1.1364183   -7.3506178     74.66443  0.029074934  0.030305633            3 
  215000    1.1826126   -7.3309234    74.902207  0.029031863  0.030296988            2 
  216000    1.1728468   -7.3810963    75.160978  0.028997291  0.030288568            2 
  217000    1.1711425   -7.3404153    75.638478  0.029047034  0.030281829            2 
  218000     1.176873   -7.3181483      76.2986  0.029166132  0.030274029            3 
  219000    1.1534966   -7.3030259    76.556845   0.02913122   0.03026783            1 
  220000    1.1705709   -7.3409332    76.937168  0.029142867  0.030261444            2 
  221000    1.1691536   -7.3084423    77.252648  0.029129958  0.030256023            1 
  222000    1.1716659   -7.3454003    77.513167  0.029096534  0.030248872            1 
  223000    1.1875448   -7.3537331    77.941567  0.029126146  0.030242383            1 
  224000    1.1407058   -7.2948419    78.596284  0.029239689  0.030236892            1 
  225000    1.1834075   -7.3696876    78.610091  0.029114848  0.030231698            2 
  226000    1.1610333   -7.3695589    79.019861  0.029137117  0.030226993            1 
  227000     1.179114   -7.3451125    79.289903  0.029107894  0.030219909            1 
  228000    1.1742957   -7.3410123      79.5262  0.029066594  0.030212613            2 
  229000     1.146681   -7.3963993    79.880083  0.029068444  0.030206056            1 
  230000    1.1818977   -7.3663654    80.288931  0.029090192  0.030199899            2 
  231000    1.1831042   -7.3965719    80.591041  0.029073247  0.030193723            3 
  232000    1.1502896   -7.3682505    80.519699  0.028922305  0.030186407            2 
  233000    1.1358584   -7.3723845    80.930655  0.028945156  0.030176462            2 
  234000    1.1826199   -7.3736511    81.356917  0.028973261  0.030167081            4 
  235000     1.173304   -7.3594952    81.754714  0.028991033  0.030157175            3 
  236000     1.180128   -7.3702327    81.928351  0.028929502  0.030147274            1 
  237000    1.1876672   -7.3595964    82.051605  0.028850775  0.030136927            1 
  238000     1.152571   -7.3875763    82.125792  0.028755529  0.030123477            2 
  239000     1.180423   -7.3733981    82.665082   0.02882325  0.030108863            2 
  240000    1.1730221   -7.3080102    83.407276   0.02896086  0.030095949            1 
  241000    1.1783013   -7.3568938    83.397723  0.028837387  0.030084891            1 
  242000    1.1713849    -7.382894    83.568939  0.028777183  0.030072389            2 
  243000    1.1573305    -7.384004    83.512438  0.028639382  0.030057023            4 
  244000    1.1710957   -7.3574503    84.241511  0.028771008  0.030042383            7 
  245000    1.1539639   -7.3456739     84.75997  0.028829922  0.030028031            1 
  246000    1.1569761    -7.369386    84.796765  0.028725191  0.030014879            3 
  247000    1.1484308   -7.3891534    85.417286  0.028818248  0.030002618            3 
  248000    1.1638582   -7.3516302    85.907845  0.028866883  0.029991273            1 
  249000      1.13318   -7.3551945    86.221067  0.028855779  0.029980194            1 
  250000    1.1470175   -7.3582195    86.445335  0.028815111   0.02996972            1 
  251000    1.1530173   -7.3800563    86.798566  0.028817585  0.029959454            1 
  252000    1.1676958   -7.3314463    87.161281  0.028823175  0.029949519            2 
  253000    1.1666023   -7.3324605    87.592481  0.028851278  0.029939808            4 
  254000    1.1615545   -7.3728326    87.822014  0.028812997  0.029929775            2 
  255000    1.1404944   -7.3794643    88.251343  0.028840308  0.029919575            4 
  256000    1.1621727   -7.3971021    88.328109   0.02875264  0.029909107            3 
  257000    1.1482828   -7.3970518    88.981999  0.028852788  0.029898244            3 
  258000    1.1462299   -7.3551881    89.429562  0.028885518  0.029889001            1 
  259000     1.139483   -7.3618818    89.610473  0.028832198  0.029879475            1 
  260000    1.1273985   -7.3878806    89.795374  0.028780568  0.029869153            2 
  261000    1.1509527    -7.344431    90.123601  0.028775096  0.029858469            2 
  262000    1.1392144   -7.3674294     90.44352  0.028767023  0.029848187            3 
  263000    1.1543687   -7.3843779    90.688718  0.028735335  0.029838323            3 
  264000    1.1726027   -7.3926724    91.369588   0.02884141  0.029827738            1 
  265000    1.1729461   -7.3691344    91.494551  0.028771871   0.02981799            1 
  266000    1.1533234   -7.3904365    91.999528  0.028821907  0.029808808            3 
  267000    1.1182808    -7.418135    92.317695  0.028813263  0.029798585            2 
  268000    1.1630241   -7.3709632    93.141899  0.028962033   0.02978903            1 
  269000    1.1672329    -7.441082     92.80403  0.028749699  0.029779284            2 
  270000    1.1217782   -7.3986762    93.000896   0.02870398  0.029769727            3 
  271000    1.1423815   -7.4174287    93.489394  0.028748276  0.029758583            1 
  272000    1.1511058   -7.3982393    94.085767  0.028825296  0.029747667            2 
  273000    1.1489551   -7.4195519    93.870197  0.028653906   0.02973752            3 
  274000    1.1353151   -7.4401623    94.383878  0.028705559  0.029727253            2 
  275000     1.156971   -7.3896057    94.790844  0.028724498  0.029716396            2 
  276000    1.1261379   -7.4420571    94.950773  0.028668712  0.029705396            5 
  277000    1.1525176   -7.3598886    95.788413  0.028817212  0.029695389            2 
  278000    1.1428622   -7.3883512    95.596082    0.0286559  0.029685983            3 
  279000    1.1367922   -7.4051961    96.065021  0.028693256  0.029675741            3 
  280000    1.1493559    -7.408865     96.30966  0.028663589  0.029664765            1 
  281000    1.1532257   -7.4418187    96.460812  0.028606409  0.029653742            1 
  282000    1.1279352   -7.4076751    96.905985   0.02863652  0.029642756            5 
  283000     1.134628   -7.4033258    97.454012  0.028696706  0.029632762            2 
  284000    1.1167077   -7.3793575    97.761337  0.028685838  0.029622997            1 
  285000    1.1229164   -7.4075611     97.75546  0.028583468  0.029612495            2 
  286000    1.1356837   -7.3949506     98.20166  0.028613537  0.029601121            2 
  287000     1.139886    -7.409705    98.480158  0.028594703  0.029590344            2 
  288000    1.1559851   -7.3997195    98.974366  0.028638416  0.029578578            1 
  289000    1.1480131   -7.4176406    99.493336  0.028688967  0.029568885            3 
  290000    1.1467774   -7.4113991    99.232924  0.028515208  0.029559556            1 
  291000    1.1256941   -7.3930335    99.882958  0.028603367  0.029547723            5 
  292000    1.1235704   -7.4100348    100.20884  0.028598413  0.029534823            1 
  293000    1.1289793   -7.3763492    100.43776  0.028565917  0.029522832            2 
  294000    1.1348402   -7.3652305    100.51019  0.028489284  0.029511038            4 
  295000    1.1263154   -7.4343907    101.04971  0.028545117  0.029499909            1 
  296000    1.1397845   -7.4158392    101.19302  0.028489025  0.029486925            6 
  297000    1.1119354   -7.3728914    101.40848  0.028453558  0.029474384            2 
  298000    1.1428972   -7.4257565     101.6252  0.028418679  0.029461805            2 
  299000    1.1525781   -7.3894827    102.23237  0.028492857  0.029448485            5 
  300000    1.1078637   -7.4446282    101.93282  0.028314671  0.029434895            1 
  301000    1.1410166    -7.447686    102.30297  0.028323082  0.029420898            2 
  302000    1.1553845   -7.4313484    103.01098  0.028424663  0.029407582            3 
  303000    1.1269037   -7.4300551    102.89216  0.028298172  0.029393512            1 
  304000    1.1546233   -7.3832956    103.49959  0.028371598  0.029379871            3 
  305000    1.1221385    -7.397504    103.61831  0.028311015  0.029366216            4 
  306000    1.1192733   -7.4286175    103.76847  0.028259388  0.029352179            1 
  307000    1.1259688   -7.4514545    104.02215  0.028236197  0.029338025            8 
  308000    1.1389275    -7.388598    104.73713  0.028337969  0.029323947            2 
  309000    1.1331827   -7.4499851    104.39768  0.028154715  0.029309486            2 
  310000    1.1561088   -7.4632065    105.02598   0.02823279  0.029294363            2 
  311000     1.151289   -7.3894398    105.62946  0.028303713  0.029279486            2 
  312000    1.1206966   -7.4358497    105.42952  0.028159594  0.029265578            4 
  313000    1.1232325   -7.4639793    105.83973  0.028178841  0.029249518            3 
  314000    1.1347325   -7.4402575    105.73325  0.028060842  0.029233613            2 
  315000    1.1318929   -7.4546077    106.11352   0.02807236  0.029218056            3 
  316000    1.1079962   -7.4082415    106.41227  0.028062307  0.029202157            2 
  317000    1.1441292   -7.4314861    106.72895  0.028057032  0.029186751            3 
  318000     1.119255    -7.442391    107.32207  0.028124231  0.029171799            3 
  319000    1.1085177   -7.4432152    107.49839  0.028082128  0.029155805            1 
  320000    1.1300153   -7.4192023    107.75082  0.028060109  0.029139478            6 
  321000    1.1277163   -7.4534959    107.97426    0.0280307  0.029123569            2 
  322000    1.1313904   -7.3982563    108.67976  0.028126232  0.029108104            1 
  323000    1.0910786   -7.4282838    108.46442  0.027983595  0.029093214            1 
  324000     1.117616   -7.4263273    109.02787  0.028042148  0.029077425            1 
  325000    1.1040238    -7.407469    109.45824  0.028066215  0.029063069            3 
  326000    1.1334815   -7.4882077    109.51039  0.027993454  0.029047876            3 
  327000    1.1114142   -7.4140817    110.20865  0.028085793  0.029031947            2 
  328000    1.1327402   -7.4934311    109.98399  0.027943087  0.029016659            2 
  329000    1.1045256   -7.4519088    110.33378  0.027946752  0.029001454            4 
  330000     1.118575   -7.4439228    110.90498  0.028006307  0.028986807            4 
  331000    1.1241403    -7.444293    111.34927  0.028033552  0.028972148            2 
  332000    1.1284534   -7.4542841    111.57315  0.028005308  0.028957588            2 
  333000    1.1250828   -7.4730524    112.15261   0.02806622  0.028942562            2 
  334000    1.1072765   -7.4643821    112.16107  0.027984299  0.028928251            1 
  335000    1.1140743   -7.4628262    112.56341  0.028000848  0.028914964            2 
  336000    1.0889743   -7.4232642    112.85297  0.027989327   0.02890073            1 
  337000    1.1052327   -7.4528773    112.83474  0.027901766  0.028886064            1 
  338000    1.1021087   -7.4674141    113.30878  0.027936089   0.02887175            4 
  339000    1.1088984   -7.4332708    113.26636  0.027843254  0.028857005            2 
  340000    1.1371351   -7.4497425    113.66626  0.027859378   0.02884091            1 
  341000    1.1262654   -7.4546403    113.63189  0.027769279  0.028824636            3 
  342000    1.1116257   -7.4321434    114.08219  0.027797805  0.028809141            1 
  343000    1.1193227   -7.4739305    114.15164  0.027733635  0.028793601            4 
  344000    1.1072829   -7.4303557    114.89314   0.02783264  0.028777533            2 
  345000    1.1301081   -7.4800223    114.91607  0.027757504  0.028761931            4 
  346000    1.1250518   -7.4489248    114.90586  0.027674823  0.028745814            1 
  347000     1.109386   -7.5395107    115.38046  0.027709043  0.028729315            3 
  348000    1.1376439   -7.4957527    115.61506  0.027685599  0.028712901            2 
  349000    1.1159064   -7.4735346    116.44296  0.027803953  0.028697203            2 
  350000    1.1037541   -7.4877463    116.28426  0.027686729  0.028681861            2 
  351000    1.1223703   -7.4522356    116.69384   0.02770509  0.028666204            2 
  352000    1.1240529   -7.5022277    116.92966  0.027682211  0.028650342            3 
  353000    1.0945791   -7.4736146    117.03833  0.027629446  0.028634677            5 
  354000     1.111867   -7.4445865    117.42924  0.027643419   0.02861971            1 
  355000    1.1279036   -7.4273382    117.84795  0.027663839   0.02860431            1 
  356000    1.1065219   -7.4602491    118.05427  0.027634427  0.028587882            3 
  357000    1.1113045   -7.5104247    117.80817  0.027499572  0.028570127            2 
  358000    1.1177061   -7.5071829    117.69077  0.027395432  0.028552095            7 
  359000    1.1128411   -7.4400623    118.79359  0.027575113  0.028533766            1 
  360000    1.0942932   -7.4927025    118.47568  0.027424926   0.02851564            2 
  361000    1.1188695   -7.4713699    119.08462  0.027489524   0.02849735            4 
  362000    1.1326475   -7.4659991    119.19846  0.027439792  0.028479608            1 
  363000    1.1094719   -7.5255405    119.14809  0.027352638  0.028461615            4 
  364000    1.1311428   -7.5270504    119.05883  0.027257058   0.02844306            6 
  365000    1.1065329   -7.4511305    120.10839  0.027422006  0.028424196            4 
  366000    1.1245882   -7.4873696    120.29067  0.027388585   0.02840657            1 
  367000    1.0959414   -7.4685773    120.38148  0.027334578  0.028387979            3 
  368000    1.1206516   -7.5025804    120.63889  0.027318588  0.028369091            2 
  369000    1.0992289   -7.4801556    120.98526  0.027322778  0.028350786            1 
  370000    1.1148968    -7.483602    120.75597  0.027197292  0.028332789            2 
  371000    1.1047854   -7.4658803    121.55979  0.027304536  0.028314653            2 
  372000    1.0915382   -7.5091439    121.65926  0.027253417  0.028296197            2 
  373000    1.1305274   -7.5010253    121.67564  0.027184012  0.028278368            3 
  374000    1.0809433   -7.4942939    122.26976  0.027243708  0.028260742            2 
  375000    1.1127429   -7.5282819    122.15076  0.027144614  0.028242859            1 
  376000    1.1186675   -7.5513508    122.45501  0.027139851  0.028224532            3 
  377000    1.0804179   -7.5320893    122.47811  0.027072968  0.028205268            2 
  378000    1.1047037   -7.5093243    123.49581  0.027225707  0.028186816            3 
  379000    1.0941257   -7.5201536    123.42937  0.027139264  0.028169236            2 
  380000     1.110751   -7.5255219    123.52923  0.027089744  0.028150788            2 
  381000    1.0753043    -7.488046    123.76992  0.027071287  0.028132016            3 
  382000    1.0772328   -7.5035246    123.87363  0.027023044  0.028112855            2 
  383000     1.099212   -7.5002607    124.31669  0.027048888  0.028093189            4 
  384000    1.1003715   -7.4734575    124.46907  0.027011517  0.028073064            1 
  385000    1.0960764   -7.5084515    124.54772  0.026958381  0.028053111            2 
  386000    1.0901619   -7.5152639    124.95875  0.026977278  0.028032432            2 
  387000    1.1081233   -7.5400197    124.83246  0.026880374  0.028012076            2 
  388000    1.0677743   -7.4820858    125.41474  0.026936156  0.027991826            2 
  389000    1.1014759   -7.5493249    125.39498  0.026862679  0.027971512            3 
  390000    1.0980361   -7.4867792    125.91649  0.026905233  0.027951293            2 
  391000     1.082681   -7.5234564    125.48411  0.026744268  0.027929782            3 
  392000    1.0786435    -7.535795    126.26477  0.026842001  0.027908249            5 
  393000    1.0950808   -7.5062474    126.38835  0.026799904  0.027887245            4 
  394000    1.0903116   -7.4874173     126.8131  0.026821721  0.027866522            1 
  395000     1.116422   -7.5431645    126.12892  0.026609476  0.027845248            3 
  396000    1.0992892   -7.5124057    127.02319  0.026730469  0.027824609            3 
  397000    1.0995518   -7.4695502    127.77819  0.026821619  0.027804424            2 
  398000    1.0964616   -7.5311355    127.34701  0.026663947  0.027784432            3 
  399000    1.0854383   -7.5565361    127.95204  0.026723483  0.027764785            5 
  400000    1.1151057   -7.5687298    127.87248    0.0266401  0.027743886            2 
  401000    1.1191099   -7.5316001    128.33779  0.026670363  0.027723529            2 
  402000    1.0948091   -7.4998435     128.5415  0.026646249  0.027702658            3 
  403000    1.0819375   -7.4969197    128.75503  0.026624282  0.027681375            1 
  404000    1.1035931   -7.5342916    128.70742   0.02654856  0.027659958            2 
  405000    1.0802518   -7.5011799    129.27148   0.02659907  0.027638794            2 
  406000    1.1001296    -7.547924    129.06052  0.026490254  0.027617152            2 
  407000    1.0813987   -7.5284447    129.50811  0.026516812  0.027595854            2 
  408000    1.0917433   -7.5185739    129.86586  0.026524889  0.027574196            2 
  409000    1.1142911   -7.5400449    129.37891  0.026360822  0.027552244            3 
  410000    1.0852536   -7.5052761    129.97505  0.026417693  0.027529788            3 
  411000    1.0689221   -7.5516822    129.80277  0.026318485  0.027507565            2 
  412000    1.0875606   -7.5352392    130.09786  0.026314293  0.027485404            3 
  413000    1.0816018    -7.504363    130.76571  0.026385334  0.027463903            4 
  414000    1.0850016   -7.4962741    131.55562  0.026480599  0.027443028            1 
  415000    1.0885572   -7.5236015    131.20292  0.026345967  0.027422414            1 
  416000    1.0816338    -7.565818    131.52264  0.026346683   0.02740154            4 
  417000    1.0896662   -7.5541711    131.82697  0.026344318  0.027380872            2 
  418000    1.0842304   -7.4941287     132.5513  0.026425698  0.027361367            2 
  419000    1.0880292   -7.5316981    132.90976  0.026433922  0.027342195            2 
  420000    1.1095509   -7.5516614    133.03629  0.026396089  0.027321997            2 
  421000    1.0879274   -7.5602546    133.59812    0.0264446  0.027302546            2 
  422000    1.0863505   -7.5559822    133.21678  0.026306631  0.027283162            1 
  423000    1.0728285    -7.560089    133.43977   0.02628837  0.027263332            3 
  424000    1.0853444   -7.5223155    134.22885  0.026381455  0.027244001            2 
  425000    1.0984088   -7.5496557    133.68904  0.026213537  0.027224677            2 
  426000    1.1116374   -7.4968371    134.41373  0.026293765  0.027204718            1 
  427000    1.1023416   -7.5658837    133.91494  0.026134844  0.027184081            4 
  428000    1.0821818   -7.5253509    134.55487  0.026198378  0.027162855            2 
  429000    1.0984604   -7.5508459    134.46506  0.026119863  0.027142086            2 
  430000    1.1068892   -7.5454142    134.76695  0.026117626  0.027120936            2 
  431000    1.0805995   -7.5437125     135.1027  0.026121946  0.027100467            2 
  432000    1.0720306   -7.5669398    134.77437  0.025998142  0.027078991            2 
  433000    1.0565378   -7.5355978    135.16354  0.026012999  0.027056867            2 
  434000    1.0813833   -7.5216684    135.41444  0.026001236  0.027034847            2 
  435000    1.0868247   -7.5555434    136.11427   0.02607553  0.027013377            3 
  436000    1.0722736   -7.5231912    136.03326  0.026000241  0.026992352            1 
  437000    1.0729662   -7.5371071    136.30198  0.025991986  0.026970608            2 
  438000    1.1007897   -7.5589117    136.13166  0.025900239  0.026949108            4 
  439000    1.0756696   -7.5945639    136.60041  0.025930222  0.026927603            2 
  440000     1.072129   -7.5582621    136.38158  0.025829845  0.026905974            1 
  441000    1.0834996   -7.5911586    136.12783  0.025723324  0.026883621            2 
  442000    1.0710747   -7.5754403    136.44258  0.025724469  0.026860557            3 
  443000    1.0989817   -7.6265564    136.56713  0.025689829  0.026837661            2 
  444000    1.0695689     -7.60114    136.62781  0.025643358  0.026814462            1 
  445000    1.0821383   -7.5763543    136.86649  0.025630429  0.026791273            2 
  446000    1.0670002   -7.6053177    137.22955  0.025640799  0.026768265            1 
  447000    1.0616543   -7.5438575    137.61111   0.02565457  0.026744964            2 
  448000    1.0673024   -7.5581558    138.08592  0.025685625   0.02672269            2 
  449000    1.0739488   -7.5696425    138.45992  0.025697833  0.026700598            3 
  450000    1.0754641   -7.5460064    138.73017  0.025690773   0.02667847            3 
  451000    1.0594787   -7.6029665    138.42741  0.025577865  0.026656165            2 
  452000    1.0665041   -7.5728696    138.77876  0.025586055  0.026633487            1 
  453000    1.0688418   -7.5966181    138.51968  0.025481914  0.026610322            1 
  454000    1.0750563   -7.5894097     138.3769  0.025399578  0.026586514            4 
  455000    1.0714743     -7.56259    138.39166  0.025346459  0.026562343            2 
  456000    1.0593701   -7.6126278    138.74391  0.025355246  0.026538091            4 
  457000    1.0978847   -7.5609539    139.21826  0.025386261  0.026513822            5 
  458000    1.0753167   -7.6025497    139.30977  0.025347484  0.026489674            1 
  459000    1.0679614   -7.5769876    139.79608  0.025380551  0.026465438            2 
  460000    1.0665946    -7.593042    139.59206  0.025288417  0.026441621            2 
  461000    1.0724197   -7.5998065    140.22176   0.02534739    0.0264182            3 
  462000    1.0633328   -7.5443488    140.85583  0.025406895  0.026395193            2 
  463000    1.0447999   -7.6173347    140.40739  0.025271309  0.026371696            1 
  464000    1.0477532   -7.5923519    140.87119  0.025300143  0.026347877            3 
  465000    1.0712298     -7.58555    140.96365  0.025262303  0.026324478            1 
  466000    1.0562943     -7.59929    140.62854  0.025148165  0.026301088            2 
  467000    1.0971184   -7.6039205    141.24209  0.025203799  0.026277364            3 
  468000    1.0653175   -7.6025192    141.46823  0.025190211   0.02625433            1 
  469000    1.0815629   -7.5999976      141.581  0.025156539  0.026230787            3 
  470000    1.0653685    -7.573934    142.02038  0.025180919  0.026207316            2 
  471000    1.0686789   -7.5796374    142.52456   0.02521666  0.026184692            1 
  472000    1.0502182   -7.5850117    142.48306  0.025155907   0.02616143            1 
  473000    1.0351218   -7.5608308    142.52931  0.025110872  0.026138105            2 
  474000    1.0695157     -7.62761    142.39903  0.025034991   0.02611448            1 
  475000    1.0494508   -7.5726118    143.21359  0.025125191  0.026091643            3 
  476000    1.0707187    -7.597862    143.26723  0.025081798   0.02606919            2 
  477000     1.058123   -7.6169308    143.60289  0.025087856  0.026046593            3 
  478000    1.0798031   -7.5895285     144.0734  0.025117398  0.026024411            2 
  479000     1.076575   -7.5771673    144.36448  0.025115602   0.02600236            4 
  480000    1.0404781   -7.6092632    144.35514  0.025061655  0.025981001            6 
  481000    1.0745535   -7.6255931    144.46536  0.025028649   0.02595935            5 
  482000    1.0567821    -7.602436    145.14066  0.025093475  0.025937654            2 
  483000    1.1027035   -7.5813852    145.35591  0.025078659  0.025916389            2 
  484000    1.0598595   -7.5931313    145.29897   0.02501704  0.025894817            2 
  485000    1.0650186   -7.6061104    145.53392  0.025005827  0.025873405            2 
  486000    1.0546521   -7.6384492    145.36151  0.024924812  0.025851703            3 
  487000    1.0763583   -7.6271515    145.45897   0.02489031  0.025830043            3 
  488000    1.0584759   -7.6398236    145.97954    0.0249282  0.025808441            1 
  489000    1.0363752   -7.6474691    146.20205  0.024915142  0.025786925            2 
  490000    1.0567568   -7.6101189    146.90194  0.024983324  0.025765971            2 
  491000     1.039325   -7.5705164    147.10131  0.024966278  0.025744711            2 
  492000    1.0439587   -7.6045221    146.96972  0.024893246   0.02572342            3 
  493000    1.0459991   -7.6131316    147.26582  0.024892802  0.025702467            2 
  494000    1.0567053    -7.600521    148.03529  0.024972214   0.02568161            2 
  495000     1.057845   -7.6592611     147.3903  0.024813182  0.025661014            2 
  496000    1.0644186   -7.6166867    148.17499  0.024894991  0.025640138            2 
  497000    1.0639696     -7.60721    148.15707  0.024841897  0.025619424            3 
  498000    1.0513815   -7.6131172    148.14065  0.024789266  0.025598735            2 
  499000    1.0460631   -7.6318822    148.29824  0.024765905  0.025577995            1 
  500000    1.0621318   -7.5784955    148.73878  0.024789797   0.02555673            3 
  501000    1.0426682   -7.6238655    148.66384  0.024727852  0.025535426            2 
  502000    1.0669389   -7.6164127      148.448  0.024642762  0.025513699            4 
  503000     1.046911   -7.6717948    148.26885   0.02456409  0.025492186            1 
  504000    1.0408742   -7.6257528     149.1747  0.024665129  0.025470641            3 
  505000     1.053555   -7.6401916    149.23239  0.024625806  0.025449432            5 
  506000    1.0519192   -7.6251893    149.33327  0.024593752  0.025428081            3 
  507000    1.0367303   -7.6635675    149.88359  0.024635699  0.025407296            4 
  508000    1.0333787     -7.64332    149.42889  0.024512613  0.025385501            2 
  509000    1.0572492   -7.6138766    150.19002  0.024589066  0.025363751            4 
  510000    1.0586575   -7.6595521    149.81306  0.024479258  0.025342174            2 
  511000    1.0597168   -7.6462817    150.46242   0.02453725  0.025320914            3 
  512000    1.0496819   -7.6683735     150.2506  0.024454851  0.025299514            2 
  513000    1.0557398   -7.6456176     150.3971  0.024430977  0.025277651            3 
  514000     1.058475   -7.6486291    150.92907  0.024469694  0.025255514            2 
  515000    1.0248449   -7.6464409    150.69581  0.024384435  0.025233242            4 
  516000    1.0481152   -7.6568185    150.75358  0.024346508   0.02521118            1 
  517000    1.0682962   -7.6081371    151.85918  0.024477624  0.025189341            6 
  518000     1.052416    -7.628174    150.91207  0.024278003  0.025167907            1 
  519000    1.0481573   -7.6459713    151.29114   0.02429209  0.025146298            4 
  520000    1.0380994   -7.6442442    151.62733  0.024299252  0.025124533            1 
  521000    1.0559136   -7.6615836    151.50433  0.024232938  0.025102935            2 
  522000    1.0578012   -7.6745322    151.73885  0.024223954  0.025081051            2 
  523000     1.041205   -7.6682944    152.80764  0.024347935  0.025059423            2 
  524000    1.0312232   -7.6369868    152.69722   0.02428391  0.025038416            4 
  525000    1.0481921   -7.6812284    152.69082  0.024236638  0.025017504            1 
  526000    1.0344089   -7.6493321    153.27398  0.024282949  0.024996582            2 
  527000    1.0470564   -7.6639123    153.19388  0.024224207   0.02497538            2 
  528000    1.0318096     -7.65147     153.6349  0.024247933  0.024954322            3 
  529000    1.0354115    -7.682015    153.08053  0.024114766  0.024933174            4 
  530000    1.0702456   -7.6503966    153.36512  0.024114013  0.024911991            2 
  531000     1.035431   -7.6867693     153.7848  0.024134463  0.024890773            5 
  532000    1.0326536   -7.6593262    153.84781  0.024098967  0.024869563            3 
  533000    1.0329256   -7.6679298    153.39366  0.023982749  0.024847835            3 
  534000    1.0281029   -7.6868065     153.9014  0.024017073  0.024826245            1 
  535000    1.0616365   -7.6647796    154.57289  0.024076774  0.024804848            7 
  536000    1.0524659   -7.7023875    154.10826  0.023959618   0.02478388            4 
  537000    1.0410374   -7.7105466    154.61599  0.023993791  0.024762615            2 
  538000    1.0441269   -7.6965676    154.52499  0.023935097  0.024741503            3 
  539000    1.0321982   -7.6378985    155.34099  0.024016851  0.024720706            2 
  540000    1.0542136   -7.7361391    154.99271  0.023918628  0.024699925            2 
  541000    1.0461832   -7.6112024    156.18117  0.024057481  0.024679125           10 
  542000    1.0458233   -7.7060016    155.74157  0.023945506  0.024658397            2 
  543000     1.033739   -7.6751087    155.87206  0.023921434  0.024637314            2 
  544000    1.0418639   -7.7100496    155.70874  0.023852442  0.024616193            2 
  545000    1.0400519   -7.6828486    156.51958  0.023932657  0.024594903            4 
  546000    1.0233297   -7.6919616    156.00929  0.023810941  0.024573598            5 
  547000     1.023003   -7.6829782    156.41989  0.023829965  0.024552133            2 
  548000    1.0461136   -7.6895912    156.06142  0.023731968  0.024530609            2 
  549000    1.0513749   -7.6532546    157.31206  0.023878576  0.024509634            3 
  550000    1.0480017    -7.645408    157.33709  0.023838953  0.024488341            1 
  551000     1.028126   -7.6828136    157.16579   0.02376978  0.024467302            3 
  552000    1.0415929    -7.660865    157.76163  0.023816671  0.024446514            3 
  553000    1.0154206   -7.7001225    157.34821  0.023711303  0.024425541            4 
  554000    1.0303942   -7.6799185    157.63152  0.023711119  0.024404719            2 
  555000    1.0497612   -7.6887494    157.74829   0.02368593  0.024384015            2 
  556000    1.0145392   -7.6267684    158.25915  0.023719897   0.02436323            3 
  557000    1.0281156   -7.6866233     157.7383  0.023599387  0.024342454            2 
  558000    1.0201805   -7.7136427    157.80607  0.023567215  0.024321212            3 
  559000    1.0388838   -7.7044636    158.31364  0.023600722  0.024299757            2 
  560000    1.0322701   -7.6910287    158.22895  0.023545974  0.024278281            2 
  561000    1.0156161   -7.7569854    158.69578  0.023573349  0.024256979            2 
  562000    1.0637754   -7.7379714    158.92645  0.023565606  0.024235895            2 
  563000    1.0252453   -7.6881504    158.78731  0.023503154  0.024214834            2 
  564000    1.0254399   -7.7261027    159.57732  0.023578209   0.02419383            4 
  565000    1.0063443   -7.6988063    159.38618  0.023508286  0.024173091            3 
  566000     1.064832   -7.6611861    159.45832  0.023477373  0.024152171            2 
  567000    1.0158592   -7.6663099    159.81628  0.023488578   0.02413134            1 
  568000    1.0324194   -7.7321267    159.61131  0.023417152  0.024110642            3 
  569000    1.0286927   -7.6957877    159.50135  0.023359893  0.024089276            2 
  570000    1.0227977   -7.7004941    160.02919   0.02339608  0.024068009            2 
  571000    1.0179384    -7.729464    159.91025  0.023337748   0.02404674            1 
  572000    1.0323321   -7.6926132    160.52597  0.023386651  0.024025616            2 
  573000    1.0488366   -7.6983169    160.94024  0.023406085  0.024004856            3 
  574000   0.99671417   -7.6945541    160.56679   0.02331109  0.023984093            2 
  575000    1.0361653   -7.7368991    160.86223  0.023313367  0.023963476            2 
  576000    1.0329739   -7.6891039    161.09646  0.023306779   0.02394303            4 
  577000    1.0107575   -7.7350964    161.39537  0.023309556  0.023922489            3 
  578000    1.0358627   -7.7278728    161.22995   0.02324538  0.023901363            3 
  579000    1.0606485   -7.7322464     161.1879  0.023199179  0.023880294            1 
  580000    1.0317556   -7.6913427    161.94509  0.023267973  0.023859593            4 
  581000     1.034092   -7.7124442    161.87954  0.023218523  0.023838902            3 
  582000    1.0272177   -7.6926191    162.32523  0.023242445   0.02381819            3 
  583000    0.9984067    -7.735585    161.95067  0.023149038  0.023797629            5 
  584000    1.0048499   -7.7099643    162.68503  0.023214187  0.023777412            1 
  585000    1.0124761   -7.7056238    162.88783  0.023203394  0.023757308            2 
  586000    1.0409078   -7.7093142    162.90798  0.023166663  0.023737128            4 
  587000    1.0030026   -7.6801777    163.45516  0.023204878  0.023716794            2 
  588000    1.0152139   -7.7191073    162.73975  0.023064024  0.023696304            2 
  589000    1.0228171   -7.7123039    163.26536   0.02309923  0.023675986            4 
  590000    1.0208921   -7.7401668    163.01977  0.023025391  0.023655789            4 
  591000    1.0156498   -7.7172476    163.52891  0.023058222  0.023635816            1 
  592000    1.0150024   -7.7007644     163.9008  0.023071621  0.023615428            1 
  593000   0.99270797   -7.7358216    163.04174  0.022911993  0.023595045            2 
  594000    1.0117327   -7.7411729    163.70235  0.022966099  0.023574479            5 
  595000    1.0088874   -7.7132986    164.19479  0.022996469  0.023553875            3 
  596000    1.0169464    -7.713482    164.55292  0.023007959    0.0235335            3 
  597000    1.0184868   -7.7181846    164.62717  0.022979783  0.023513476            2 
  598000    1.0139274   -7.7490562    165.00637  0.022994199  0.023493626            2 
  599000    1.0287025   -7.7160606    165.26331  0.022991557  0.023473903            1 
  600000     1.022942   -7.7312598    164.64734  0.022867687  0.023454169            3 
  601000    1.0022158   -7.7168827     165.2289  0.022910274  0.023434405            4 
  602000    1.0220508   -7.7433215    165.45984  0.022904186   0.02341457            2 
  603000    1.0172418   -7.7306336    165.39934  0.022857842  0.023394862            6 
  604000    1.0034213   -7.7993836    165.40886  0.022821311  0.023375107            8 
  605000    1.0169321   -7.7342456     165.8614  0.022845923  0.023355183            1 
  606000   0.99495426   -7.7740411    166.13603  0.022845989  0.023335465            3 
  607000    1.0094349   -7.8031771    165.71992  0.022751224   0.02331568            3 
  608000    1.0109137   -7.7251127    166.91356  0.022877407  0.023295921            3 
  609000    1.0081975   -7.7355201    166.89331  0.022837071   0.02327625            2 
  610000    1.0064913   -7.7705271    166.22142  0.022707845  0.023256768            4 
  611000     1.007642   -7.7702603    166.90776  0.022764288  0.023237209            1 
  612000    1.0111549   -7.7779121    167.09462  0.022752535   0.02321801            6 
  613000     1.023871    -7.708513     167.9469   0.02283128  0.023199081            1 
  614000   0.99426017    -7.761699    167.95798  0.022795601  0.023180264            3 
  615000   0.99538807   -7.7489757    168.06095  0.022772486  0.023161627            2 
  616000    1.0069331   -7.7396913    168.39131  0.022780209  0.023142718            3 
  617000    1.0268467   -7.6930825     168.9448  0.022818044  0.023124124            1 
  618000    1.0106651   -7.7658538    168.15666  0.022674847  0.023105595            2 
  619000    1.0074972   -7.7515062     168.8415  0.022730411  0.023087333            4 
  620000    1.0128748    -7.713007    168.99597  0.022714512  0.023069071            2 
  621000    1.0054452   -7.7477171    169.10432  0.022692475  0.023050674            2 
  622000   0.99507566   -7.7659594    169.02087  0.022644812  0.023032128            1 
  623000    1.0044165   -7.7246446    169.69572  0.022698732    0.0230136            3 
  624000    1.0054018   -7.7581379    169.50504  0.022636891  0.022995148            2 
  625000   0.98960745   -7.7638772     169.8165    0.0226422   0.02297666            9 
  626000    1.0040349    -7.773281    169.62359   0.02258035  0.022958417            4 
  627000   0.98978122   -7.7427979    169.33756  0.022506321  0.022939854            2 
  628000    1.0089074   -7.8182981     169.7938  0.022531025  0.022920944            2 
  629000   0.99333183   -7.7651315    169.85669  0.022503535  0.022902054            2 
  630000    1.0048274   -7.7620866    170.52933   0.02255679  0.022883462            1 
  631000    1.0141507   -7.7417257    170.11189  0.022465912  0.022864637            5 
  632000   0.97061807   -7.7757451    170.57643  0.022491618  0.022845741            5 
  633000   0.98303577    -7.782371    169.87081  0.022363193  0.022826576            1 
  634000    1.0076425    -7.802756    170.21737  0.022373471  0.022807261            4 
  635000   0.98978078   -7.8175548    170.47193  0.022371645  0.022788145            3 
  636000    1.0006701    -7.803367    170.61822  0.022355637  0.022769417            1 
  637000   0.98160714   -7.7648909    171.08556   0.02238168  0.022750753            5 
  638000   0.99131979   -7.7803972    171.61066  0.022415185  0.022732284            2 
  639000   0.99351878     -7.73051    172.26869  0.022465922  0.022714063            4 
  640000    1.0114069   -7.7772753    171.80757  0.022370778  0.022696043            1 
  641000   0.99354378   -7.7834655    171.92806  0.022351542  0.022677596            3 
  642000   0.99538673     -7.79332    171.83942   0.02230522  0.022659116            1 
  643000     1.002364   -7.7778073    171.51162  0.022228049  0.022640584            8 
  644000    1.0175759   -7.7401862    172.60962  0.022335613  0.022622177            2 
  645000    1.0005597   -7.7743036    172.52785   0.02229042  0.022603798            2 
  646000    0.9740479   -7.7726227    172.41271  0.022241061  0.022585511            1 
  647000    1.0041443   -7.7808832    172.55415  0.022224904  0.022567115            2 
  648000   0.99073258   -7.8329984    172.79955  0.022222165  0.022548816            2 
  649000   0.97114721   -7.7765371    172.75994  0.022182838  0.022530452            4 
  650000   0.96856708   -7.7784688     173.1856  0.022203282  0.022512345            2 
  651000   0.99251592    -7.764389    173.81433  0.022249658  0.022494548            2 
  652000   0.99622487   -7.8202445    173.38114  0.022160167  0.022476654            5 
  653000    1.0164838   -7.7827075    174.26724  0.022239311  0.022458776            5 
  654000   0.99428974   -7.7915693    174.13147  0.022188006  0.022440953            1 
  655000   0.98340583   -7.7321241    174.45037  0.022194703  0.022423218            2 
  656000   0.98595228   -7.8143047    174.48781  0.022165626  0.022405331            4 
  657000   0.98883555   -7.8381556    174.06567  0.022078344  0.022387199            5 
  658000   0.99288965   -7.7512588    174.69899  0.022124999  0.022369358            2 
  659000   0.98501733   -7.8233522    174.31477  0.022042838  0.022351452            3 
  660000   0.98261571   -7.7738529    174.77246   0.02206723   0.02233376            2 
  661000   0.98692882   -7.8079308    174.35002  0.021980587  0.022315776            4 
  662000    1.0032062   -7.8318352    175.12798  0.022045314   0.02229778            2 
  663000     0.988798   -7.8105867    175.03332  0.022000166  0.022279745            5 
  664000   0.99465808   -7.7869702    175.06331  0.021970797  0.022261788            6 
  665000    1.0027892   -7.7810899    175.75425  0.022024342  0.022243876            5 
  666000   0.97044588   -7.8007755    175.64809  0.021977989  0.022225843            2 
  667000   0.97825745   -7.8349184    175.34508  0.021907182  0.022207987            3 
  668000   0.96563497   -7.8179498    175.70017  0.021918684  0.022189999            2 
  669000    1.0047074   -7.8166276    176.48541  0.021983733  0.022172134            3 
  670000    1.0044374   -7.7773416    176.72012  0.021980115   0.02215449            2 
  671000   0.98199782   -7.8490413    175.95691  0.021852571  0.022136968           14 
  672000   0.99036023   -7.8172385    176.74164  0.021917366  0.022119403            2 
  673000    1.0105681   -7.8267221    176.79236   0.02189108  0.022101845            9 
  674000   0.98288317   -7.8640715    176.69472  0.021846528  0.022084238            3 
  675000   0.96038436   -7.8250375    176.98283  0.021849732  0.022066574            2 
  676000   0.96989262    -7.803911     176.6649  0.021778217  0.022048603            4 
  677000   0.98490281   -7.8311192    177.00762  0.021788235  0.022030674            2 
  678000   0.96917784   -7.8507798    176.95765  0.021749957  0.022012571            1 
  679000   0.99139152   -7.8338675    176.77944  0.021696053  0.021994429            3 
  680000   0.98876738   -7.8184835    177.18634  0.021714012  0.021976558            5 
  681000   0.98210185   -7.8172519    177.85201  0.021763584  0.021958723            2 
  682000   0.98340153   -7.8352164    177.88306  0.021735466   0.02194091            2 
  683000   0.96815679   -7.7984106    178.60739  0.021792019   0.02192337            2 
  684000   0.98479947   -7.8069327    178.18922  0.021709213  0.021905859            2 
  685000   0.98387745   -7.8370281    178.39669  0.021702761  0.021888581            4 
  686000   0.96164504   -7.8423183    178.09721  0.021634743  0.021871195            2 
  687000    0.9717307   -7.8356068    178.61866  0.021666504  0.021853816            3 
  688000   0.98788436   -7.8210968    178.65262  0.021639126   0.02183672            2 
  689000   0.97738766   -7.8306483    179.12623  0.021665001  0.021819583            2 
  690000   0.96790055   -7.8490398    178.55269  0.021564335  0.021802161            8 
  691000   0.97687253    -7.876314    178.82177  0.021565578  0.021784623            2 
  692000   0.97981459   -7.8353756    178.74903  0.021525654   0.02176696            3 
  693000   0.95568072   -7.8299077    179.25546  0.021555491  0.021749468            3 
  694000   0.98518005   -7.8577667    179.13782  0.021510305  0.021731965            4 
  695000    1.0016775   -7.8613853    179.62258  0.021537479   0.02171431            3 
  696000   0.95580032   -7.8443426    179.49743  0.021491551  0.021696843            3 
  697000   0.98231831   -7.8610244    179.35426  0.021443598  0.021679459            1 
  698000   0.97693114   -7.8075825    180.08719   0.02150038  0.021662002            2 
  699000   0.98932746   -7.8175543    179.86708  0.021443381  0.021644348            3 
  700000   0.97478347   -7.8729879    179.48037   0.02136671  0.021626764            2 
  701000   0.96748767   -7.8222937    180.11899  0.021412149  0.021609089            2 
  702000   0.98017219   -7.8032898     179.9557  0.021362262  0.021591626            3 
  703000    0.9653887   -7.8242912    180.14055  0.021353787  0.021574155            2 
  704000   0.97988761   -7.8427852    180.30342  0.021342734  0.021556611            3 
  705000   0.98653004   -7.8202664    181.02669  0.021397954  0.021538966            3 
  706000   0.96767611   -7.8126102    180.82259  0.021343554   0.02152165            3 
  707000   0.98405872   -7.8355036    180.92788  0.021325776  0.021504409            2 
  708000   0.97065477   -7.8624863    180.81111   0.02128191  0.021487004            3 
  709000   0.96400679   -7.8877967    180.73548  0.021243005  0.021469272            1 
  710000   0.98287525   -7.8686261    180.95947  0.021239375  0.021451675            2 
  711000   0.96760513   -7.8745207    180.86342  0.021198244  0.021434069            3 
  712000   0.96386116   -7.8368013    181.30749  0.021220445  0.021416381            2 
  713000   0.99462787   -7.8329957    181.82417  0.021251072  0.021398713            7 
  714000   0.97616854   -7.8461341    181.70985  0.021207966  0.021381389            2 
  715000   0.97149203   -7.8295684    181.84092   0.02119358  0.021364053            2 
  716000   0.95445566   -7.8667544    181.64073  0.021140681   0.02134626            8 
  717000     0.981794   -7.8627089    181.66986  0.021114582  0.021328543            4 
  718000   0.96208952     -7.87695     181.6736  0.021085608  0.021310932            5 
  719000   0.96018777   -7.8302821    182.70941  0.021176334  0.021293477            1 
  720000   0.97477169   -7.8347628    182.46672  0.021118834  0.021276216            1 
  721000   0.96477517   -7.8478384    182.34211   0.02107514  0.021258835            1 
  722000   0.97288886   -7.8425224    182.97891  0.021119449  0.021241532            2 
  723000   0.96861631   -7.8556753    182.56622  0.021042672  0.021224122            2 
  724000   0.97162467   -7.8840279    182.65178  0.021023455  0.021206807            2 
  725000   0.96867144   -7.8605784     182.3342  0.020957954  0.021189329            3 
  726000   0.95649283   -7.8811479    182.69091  0.020970031  0.021171849            3 
  727000   0.97018782   -7.8807776    183.14045  0.020992715  0.021154319            4 
  728000    0.9586568   -7.8355238    183.18908  0.020969446  0.021136922            4 
  729000   0.95299139   -7.8625333    183.36142  0.020960382  0.021119294           11 
  730000    0.9843145   -7.8092169     183.9279  0.020996336  0.021102026            1 
  731000   0.94373992   -7.8484473    183.24509  0.020889774  0.021084722            2 
  732000   0.96063796   -7.8882455    183.40339  0.020879257  0.021067348            2 
  733000   0.94437014   -7.8782419    183.48783  0.020860372  0.021049904            3 
  734000   0.96079855   -7.8704652    183.52782  0.020836492  0.021032481            7 
  735000   0.96432551   -7.8872147    184.10132  0.020873166   0.02101507            2 
  736000   0.98545901   -7.8426795     184.4848  0.020888224  0.020997846            6 
  737000   0.96478251   -7.9209543     184.3757  0.020847546   0.02098062            3 
  738000   0.95951173   -7.8731531     184.2743  0.020807848  0.020963463            2 
  739000   0.94860946   -7.9328614    185.08252   0.02087083  0.020946231            8 
  740000   0.96636618   -7.9110337    185.20547  0.020856472  0.020929101            2 
  741000   0.94665716   -7.8644489     185.5619   0.02086841  0.020912333            2 
  742000   0.96686854   -7.8735985    185.46451  0.020829348  0.020895413            3 
  743000   0.94918046   -7.8923098    185.21063  0.020772839  0.020878748            5 
  744000   0.95517681   -7.8846825    185.96149   0.02082902  0.020862163            3 
  745000   0.96618605   -7.8947103    185.52269  0.020751978  0.020845783            3 
  746000   0.94878159   -7.8625555    186.68801  0.020854335  0.020829432            4 
  747000   0.95817103   -7.8990068    186.46456  0.020801491  0.020813133            2 
  748000   0.93572665   -7.9076664     186.5355  0.020781584  0.020796948            5 
  749000   0.96310116   -7.8807527    186.80196  0.020783484  0.020780685            4 
  750000   0.94629241   -7.8802734    186.98912  0.020776569  0.020764634            3 
  751000   0.93204668   -7.8959283    187.60842  0.020817623  0.020748828            5 
  752000   0.96030498   -7.8765901    187.92015  0.020824485  0.020733246            3 
  753000   0.94189447    -7.895987    187.64904  0.020766827   0.02071773            4 
  754000   0.94910056   -7.9225709    187.42894  0.020714958   0.02070222            1 
  755000   0.95342541   -7.8996482    188.00167  0.020750737  0.020686486            2 
  756000   0.96466398   -7.9362602    187.12078  0.020626188  0.020670477            8 
  757000   0.95941637   -7.8918187    187.81712  0.020675596  0.020654766            7 
  758000   0.94129828   -7.9199913    187.48941  0.020612292   0.02063892            3 
  759000   0.94823754   -7.8630287    188.16676  0.020659504  0.020622913            6 
  760000   0.97351815   -7.8924661    188.65616  0.020685982  0.020607289            4 
  761000   0.95697645   -7.9225179    188.11523  0.020599565  0.020591589            2 
  762000   0.94773406   -7.9320702    188.26829   0.02058927  0.020575784            4 
  763000   0.92872769   -7.9136651    187.85446  0.020517089  0.020559774            1 
  764000   0.96838522   -7.9275381    188.13177  0.020520481   0.02054362            2 
  765000   0.93847638   -7.9308032    188.37386  0.020520029  0.020527426            3 
  766000   0.93764781   -7.9196339    188.34234  0.020489811  0.020511328            6 
  767000   0.95130378   -7.9121835    188.17698   0.02044513   0.02049523            2 
  768000   0.93581301   -7.9316715    188.94909  0.020502288  0.020479155            2 
  769000    0.9376339   -7.9530982    188.53062   0.02043028  0.020463153            3 
  770000   0.93182149   -7.9540243    188.66184  0.020417948  0.020447157            3 
  771000   0.94204526   -7.9519559    188.57638  0.020382228  0.020431143            2 
  772000   0.94755359   -7.9174533    189.12772  0.020415341  0.020414986            5 
  773000   0.94849801   -7.9288833    189.53818   0.02043318  0.020398947            5 
  774000   0.94662042   -7.9432355    189.11316  0.020361021  0.020382764            3 
  775000   0.95233662   -7.9049922    189.65826  0.020393361  0.020366775            1 
  776000   0.95410574   -7.9535467    189.69218  0.020370724  0.020350949            3 
  777000   0.94586349    -7.943776    189.73189  0.020348765  0.020335033            1 
  778000   0.94348513    -7.954305    189.93878  0.020344771  0.020319248            3 
  779000   0.94499283   -7.9233364    190.16772  0.020343145   0.02030338            1 
  780000   0.94655222   -7.9604592    189.90104  0.020288573  0.020287226            3 
  781000   0.95465929   -7.9368808    190.25453  0.020300312  0.020271073            2 
  782000   0.94251635   -7.9482715    190.37269  0.020286945  0.020255039            4 
  783000   0.95649261   -7.9141594    189.67574  0.020186861  0.020238909            6 
  784000   0.93724228   -7.9129974    190.52885  0.020251791  0.020222847            1 
  785000   0.93943422   -7.9179097    190.91275  0.020266746  0.020206853            4 
  786000   0.93490201   -7.9091735    190.67257  0.020215497  0.020191107            4 
  787000   0.95638775   -7.9240309    191.02014  0.020226614   0.02017531            2 
  788000   0.94617871   -7.9327401    190.81229  0.020178964  0.020159693            6 
  789000   0.93244711   -7.9017441    191.49982  0.020226006   0.02014416            2 
  790000   0.92598251   -7.9158732    191.42429  0.020192435  0.020128561            2 
  791000   0.93605003   -7.9946436    191.38727  0.020163008  0.020112794            5 
  792000   0.92734625    -7.937049    191.95316  0.020197092  0.020097028            2 
  793000   0.92718696     -7.93335     191.3596  0.020109247  0.020081314            4 
  794000   0.93596263    -7.934287    191.94467  0.020145327  0.020065791            2 
  795000   0.93999517   -7.9409826     192.1509  0.020141604  0.020050289            4 
  796000   0.93218543   -7.9225355     192.1266  0.020113756  0.020034461            3 
  797000    0.9226628   -7.9467644    191.35061  0.020007383  0.020018532            3 
  798000   0.92773452   -7.9829715    191.41452  0.019988985  0.020002531            2 
  799000   0.95764454   -7.9817599    191.82745  0.020007035  0.019986445            5 
  800000   0.94375058   -7.9554342    191.71717  0.019970539  0.019970427            4 
  801000   0.93355284   -7.9606178    192.10703  0.019986167  0.019954434            7 
  802000   0.94735027   -7.9695545    191.78056  0.019927323  0.019938438            2 
  803000   0.92737231   -7.9444751    192.45698  0.019972704  0.019922412            2 
  804000   0.92038543   -7.9509703    191.88462  0.019888539   0.01990639            2 
  805000   0.94316244   -7.9662891    192.09091  0.019885188   0.01989017            4 
  806000   0.94277052   -7.9416918    192.11106  0.019862599  0.019873931            3 
  807000   0.93549182   -7.9493396    192.40586  0.019868428  0.019857744            2 
  808000   0.91991879   -7.9219753    192.41925   0.01984522    0.0198417            2 
  809000   0.95025593   -7.9619067    192.34136  0.019812666  0.019825478            5 
  810000   0.93625561   -7.9740195    192.50235  0.019804769  0.019809217            4 
  811000    0.9436954    -7.968066    192.95694  0.019827059  0.019792969            4 
  812000   0.92217757   -7.9500813    193.08108  0.019815382   0.01977683            1 
  813000   0.92536411   -7.9929637    192.97381  0.019780013  0.019760711            4 
  814000   0.94359204   -8.0147973    192.28511  0.019685208  0.019744619            4 
  815000   0.94270854   -7.9541991    193.04096  0.019738339  0.019728571           10 
  816000    0.9674908   -7.9560361     193.2788   0.01973844  0.019712566            5 
  817000    0.9160935   -7.9976128    192.55116  0.019640061  0.019696594            2 
  818000   0.92701998   -7.9602062    193.53726  0.019716509  0.019680414            1 
  819000   0.93008987   -7.9412927    193.46089  0.019684666  0.019664332            1 
  820000   0.92303202   -7.9571827     193.7687  0.019691941  0.019648261            2 
  821000   0.91879366   -7.9586201    193.43008  0.019633585  0.019632279            1 
  822000   0.92001308   -7.9912503    193.71345  0.019638427  0.019616385            4 
  823000   0.94720506   -7.9869808    193.88523   0.01963196  0.019600503            2 
  824000   0.92510929   -7.9796472     194.3136  0.019651457  0.019584661            2 
  825000   0.92034588    -7.974915    194.59683  0.019656245  0.019568839            2 
  826000    0.9323555   -8.0084154    194.62006  0.019634793  0.019553172            1 
  827000   0.91967938   -8.0000325    194.42157  0.019591049   0.01953742            4 
  828000   0.89770671      -8.0249    194.30517  0.019555673  0.019521618            3 
  829000   0.91281226   -7.9871122    194.88073   0.01958994  0.019505894            8 
  830000   0.93032636   -7.9382753    195.24717  0.019603129  0.019490365            6 
  831000   0.92303405   -7.9637845    195.68828  0.019623774  0.019475155            3 
  832000   0.94462449   -7.9914951    196.02426   0.01963384  0.019459901            1 
  833000   0.90339302   -8.0034591    195.51949  0.019559773  0.019444736            1 
  834000   0.93064907   -7.9725839    195.83853  0.019568198  0.019429377            4 
  835000   0.91113354   -7.9633993    195.97756  0.019558638  0.019414296            2 
  836000   0.92018241   -7.9733744    195.98309  0.019535794  0.019399343            2 
  837000    0.9091609   -7.9746535    196.06582  0.019520691  0.019384335            6 
  838000    0.9017962   -7.9743106    196.62154  0.019552659  0.019369344            4 
  839000   0.92139543   -7.9895873    196.12083  0.019479621  0.019354349            3 
  840000   0.90804843   -7.9789844    196.86283  0.019530042  0.019339361            3 
  841000   0.91536127   -8.0046985    196.75568  0.019496202  0.019324409            3 
  842000   0.91465418   -8.0203516    196.97151  0.019494409  0.019309499            4 
  843000    0.8968804   -7.9786268    197.10607  0.019484586  0.019294763            3 
  844000    0.9012414    -7.965851    197.59891  0.019510161  0.019280145            3 
  845000   0.90936926   -8.0017219    197.52924  0.019480201  0.019265463            2 
  846000   0.92899442   -7.9978264    197.19602  0.019424352  0.019250558            2 
  847000   0.91389506   -8.0315017    196.91585  0.019373854  0.019235709            4 
  848000   0.93138103   -8.0281209    197.68484  0.019426577  0.019220877            4 
  849000    0.9161547   -8.0156219      197.638  0.019399097  0.019205981            2 
  850000   0.92475467    -7.978755     197.8613  0.019398166  0.019191256            2 
  851000   0.91401183   -8.0131069    197.51476  0.019341437  0.019176635            3 
  852000   0.89547766   -7.9742851    197.67914  0.019334814  0.019161925            4 
  853000   0.89884181   -8.0466092    197.67018  0.019311272  0.019147158            4 
  854000   0.92102326   -8.0395146    197.91307  0.019312361  0.019132363            5 
  855000   0.90778779   -7.9910377    198.44151  0.019341277  0.019117756            5 
  856000   0.91660848   -7.9890939    198.62414  0.019336462  0.019103293            3 
  857000     0.901874   -7.9843625    198.77151  0.019328229  0.019088658            4 
  858000   0.91395394   -8.0127923    198.85246  0.019313565  0.019074057            3 
  859000   0.92906464   -8.0106057    198.36451  0.019243743  0.019059444            4 
  860000   0.92154606   -7.9719816    199.14298    0.0192968  0.019044761            2 
  861000   0.90097691   -7.9944017     198.6229  0.019224052  0.019030085            4 
  862000   0.90069045   -8.0088661    198.82216  0.019221013  0.019015379            2 
  863000   0.91654345   -8.0277533    198.52117  0.019169677  0.019000769            9 
  864000   0.89365741   -8.0223722    199.16289  0.019209383  0.018986125            3 
  865000   0.92228224   -7.9849606    199.61048  0.019230297  0.018971566            3 
  866000   0.91392208   -7.9911953    198.95035  0.019144568  0.018957069            1 
  867000   0.91678918   -7.9924452    199.65512  0.019190227  0.018942603            2 
  868000   0.92302135   -8.0235805    199.49126  0.019152386  0.018928168            4 
  869000   0.89673862   -8.0203338    199.54143  0.019135158  0.018913586            3 
  870000   0.91134869   -8.0381712    199.13897  0.019074614   0.01889887            3 
  871000   0.93548688   -8.0491544     199.1968  0.019058248  0.018884028            5 
  872000   0.90710684    -8.027655    199.24628   0.01904112  0.018869337            3 
  873000   0.91897698   -8.0490861    199.66318  0.019059104  0.018854516            4 
  874000   0.92796665   -8.0142572    199.79557  0.019049921  0.018839648            5 
  875000   0.91368944   -8.0058491    199.64738  0.019014037   0.01882496            2 
  876000   0.89244527   -8.0052331    199.94836  0.019020962  0.018810332            6 
  877000   0.89167698   -8.0180701    199.66738  0.018972575  0.018795614            7 
  878000    0.9094759   -7.9953663     200.1472  0.018996508  0.018780855            9 
  879000   0.90626279   -8.0200495    200.14837  0.018975007  0.018766127            5 
  880000   0.91989998   -8.0396521    199.67048  0.018908189  0.018751474           10 
  881000   0.91983835   -8.0199988     199.7377  0.018893085  0.018736751            5 
  882000    0.9055235   -8.0362139    199.87273  0.018884422  0.018721974            1 
  883000   0.89711824   -8.0560263    200.56961  0.018928804  0.018707286            5 
  884000   0.89234068    -8.029891    200.28664  0.018880716  0.018692386            4 
  885000   0.90610726   -8.0575969    199.73258  0.018807211   0.01867748            3 
  886000   0.89298463   -8.0598433    200.25122  0.018834765    0.0186625            3 
  887000   0.88775268     -8.10132    200.44988  0.018832195  0.018647603            3 
  888000   0.89234009   -8.0411245    200.75467   0.01883959  0.018632831            3 
  889000   0.88151632   -8.0326744    200.70356  0.018813607  0.018618251            3 
  890000   0.90133673   -8.0323808    201.11056  0.018830577  0.018603694            2 
  891000   0.88597972   -8.0154277     201.3514  0.018831968  0.018589178            1 
  892000    0.9157735   -8.0455506    201.27856  0.018804051  0.018574642            1 
  893000   0.91123086   -8.0362685    201.18857  0.018774596  0.018559968            2 
  894000   0.88631356   -8.0220541    201.83897  0.018814221  0.018545324            3 
  895000   0.90637005   -8.0446581    200.73271  0.018690196  0.018530599            5 
  896000   0.90931752   -8.0385261    201.24064  0.018716577  0.018515983            5 
  897000   0.88705591   -8.0520974    201.54825   0.01872429  0.018501495            3 
  898000   0.91031396    -8.073438    200.94102  0.018647088  0.018486923            3 
  899000    0.8971191    -8.072964    201.49916  0.018678083  0.018472429            7 
  900000   0.89795649   -8.0748048    201.37131  0.018645491  0.018457838            2 
  901000   0.89179864   -8.0550965    201.65781  0.018651295  0.018443329            5 
  902000   0.89551655   -8.0275556    202.64619  0.018721932  0.018428938            4 
  903000   0.88241974   -8.0461325    202.19179  0.018659264  0.018414423            3 
  904000   0.88267837   -8.0263748     201.8019  0.018602683  0.018399849            2 
  905000   0.90244539   -8.0851561    202.13345  0.018612657  0.018385223            3 
  906000   0.90000789   -8.0395343    201.41171  0.018525727  0.018370654            5 
  907000   0.90458133   -8.0414889    202.32904  0.018589585  0.018356162            2 
  908000    0.8724727   -8.0965278    201.79695  0.018520278  0.018341589            6 
  909000   0.88623148   -8.1005337    201.66838  0.018488117  0.018326938            3 
  910000    0.9062629   -8.0815169    202.25591  0.018521603  0.018312421            3 
  911000    0.8643147   -8.0768665     202.1287  0.018489636  0.018297828            2 
  912000   0.88284569   -8.0754352    202.85056  0.018535322   0.01828316            3 
  913000   0.90898473   -8.0734539    202.26651  0.018461712  0.018268493            2 
  914000   0.88363382   -8.1022253    202.54348  0.018466765  0.018253726           13 
  915000   0.88226846   -8.0897282    202.44621  0.018437724  0.018238939            2 
  916000   0.89495316   -8.0826317    202.40972  0.018414276  0.018224234            4 
  917000    0.8873962    -8.063423    202.70014  0.018420587  0.018209533            1 
  918000   0.90006677   -8.0860605    202.36445  0.018370048  0.018194798            2 
  919000   0.88839108    -8.067172    202.59055  0.018370561  0.018180148            2 
  920000   0.90435291   -8.0941868    202.61763  0.018353046   0.01816549            2 
  921000   0.88383961   -8.0970697    203.20581  0.018386338  0.018150724            6 
  922000   0.90254126   -8.0831601    202.26601  0.018281454  0.018135975            4 
  923000   0.89513449   -8.0780026    202.69564  0.018300437  0.018121278            4 
  924000   0.86775869   -8.0993554    202.49872  0.018262872   0.01810652            5 
  925000   0.90037739   -8.1054946    203.09404   0.01829676  0.018091752            2 
  926000   0.89196094   -8.0993579    203.01211  0.018269628  0.018076894            4 
  927000   0.88479536   -8.1161581    202.84991  0.018235339  0.018061965            3 
  928000   0.86067022   -8.1283018    202.54919  0.018188684  0.018047003            7 
  929000   0.87473691   -8.0567191    203.53678  0.018257694  0.018032163            3 
  930000   0.89393842   -8.0812191    203.59631  0.018243397  0.018017325            2 
  931000   0.88172049    -8.097679    203.22352  0.018190434  0.018002623            5 
  932000   0.87667002    -8.101468    203.27733  0.018175727  0.017987813            9 
  933000   0.87630074    -8.111229     203.5169  0.018177643  0.017973152            3 
  934000   0.87476409    -8.083289    203.41472  0.018149065  0.017958404            5 
  935000   0.90293149   -8.1076811    203.24559   0.01811458  0.017943737            4 
  936000    0.8440333    -8.104044    202.98589  0.018072105  0.017928994            5 
  937000    0.8655637    -8.121921    203.13403  0.018065993  0.017914143            7 
  938000   0.88175768   -8.1196491     203.1153   0.01804507  0.017899397            6 
  939000   0.86047823   -8.0952503    203.82032  0.018088421  0.017884672            3 
  940000   0.88720865   -8.0877686    203.30294   0.01802331  0.017870078            4 
  941000   0.87295951   -8.1067081     203.8739   0.01805472  0.017855457            6 
  942000   0.87931337   -8.1044138    204.05812  0.018051851  0.017840815            4 
  943000    0.8763825   -8.1131704    204.45988  0.018068211  0.017826204            2 
  944000    0.8700581    -8.104336    204.48434   0.01805123  0.017811626            2 
  945000   0.86458626   -8.1383544    204.35165  0.018020428  0.017797029            4 
  946000   0.88620514   -8.1156724    204.13521  0.017982312  0.017782461            4 
  947000   0.87253691   -8.0880079    204.97297  0.018037044  0.017767924            3 
  948000    0.8857148   -8.0929797    204.95866   0.01801676  0.017753432            4 
  949000   0.85664968   -8.0790579    205.59767  0.018053888  0.017739037            3 
  950000    0.8874148   -8.0686814    205.14941  0.017995563  0.017724646            2 
  951000   0.89385198   -8.1358213    204.97019  0.017960935  0.017710206            4 
  952000   0.88056292   -8.1637946     204.6313  0.017912404  0.017695796            2 
  953000    0.8661618   -8.1575619    204.58572  0.017889622  0.017681413            2 
  954000   0.87485065   -8.0927296    205.16258   0.01792126   0.01766703            2 
  955000    0.8818423   -8.0927426    205.76157  0.017954762  0.017652726            5 
  956000   0.86223362   -8.1358884    205.12502  0.017880493   0.01763833            6 
  957000   0.86349806   -8.1295348    204.79959  0.017833472  0.017623792            5 
  958000   0.87042015   -8.1134336    205.34609  0.017862394  0.017609386            2 
  959000   0.86373719   -8.1123581    205.38152  0.017846847  0.017594982            5 
  960000   0.86956786   -8.0806836    206.04933  0.017886227  0.017580785            7 
  961000   0.88204779   -8.1065242    205.43438  0.017814289  0.017566537            2 
  962000   0.86896511   -8.1342787    205.28918  0.017783193  0.017552289            4 
  963000   0.86250478   -8.1403854    205.31151  0.017766659  0.017537909            2 
  964000   0.87042902   -8.1467037    205.14877  0.017734161  0.017523549            2 
  965000   0.88027324   -8.1368307    205.60118  0.017754851  0.017509182            4 
  966000   0.86795422     -8.11033    205.37292   0.01771678  0.017494884            2 
  967000   0.86859778   -8.1198241     205.8623  0.017740632  0.017480571            2 
  968000   0.86241991    -8.152731    205.88012  0.017723839  0.017466236            1 
  969000   0.86481299   -8.1400072    205.84883  0.017702858  0.017451846            3 
  970000   0.85365602   -8.1275373    206.19748   0.01771456  0.017437443            5 
  971000   0.84856702    -8.142038    205.63536  0.017648074  0.017423116            5 
  972000   0.86752192   -8.1534725    205.96538  0.017658211  0.017408774            2 
  973000   0.85916388   -8.1373823    205.32931  0.017585587  0.017394478            4 
  974000   0.88565914   -8.1329505    206.14267  0.017637121  0.017380102            5 
  975000   0.85125416   -8.1252575    206.56953  0.017655516  0.017365733            4 
  976000   0.86995634   -8.1511818    206.81624   0.01765849  0.017351473            3 
  977000   0.88476406   -8.1476072    207.00465  0.017656486   0.01733724            4 
  978000   0.85686491   -8.1787009    206.12071  0.017563114  0.017322973            4 
  979000    0.8564246   -8.1445414    206.35688  0.017565278  0.017308686            3 
  980000   0.84862047   -8.2005596    206.35792  0.017547442  0.017294291            2 
  981000   0.86858538   -8.1881075    206.24201  0.017519708  0.017279871            4 
  982000   0.85332773   -8.1339008    206.48697  0.017522656   0.01726554           13 
  983000   0.86368912   -8.1265567    207.23364  0.017568128  0.017251461            4 
  984000   0.87274517   -8.1775313     206.9129  0.017523112  0.017237382            3 
  985000   0.86610583   -8.1532461    206.76139  0.017492504  0.017223114            3 
  986000    0.8578366   -8.1919775    206.29648   0.01743547  0.017208867            2 
  987000   0.86083357   -8.1759368    207.26888  0.017499905  0.017194606            2 
  988000   0.87597672   -8.1723449    206.55516  0.017421994  0.017180376            5 
  989000   0.84973025   -8.1653161    206.82984  0.017427523  0.017166185            2 
  990000   0.84174201     -8.18934    207.01708   0.01742568   0.01715204            7 
  991000   0.85861964   -8.1795283    207.24319   0.01742711  0.017137935            2 
  992000   0.85288694   -8.1999149    206.93128   0.01738334  0.017123779            5 
  993000   0.84690797    -8.195204    207.14794  0.017384016  0.017109631            6 
  994000   0.85202132   -8.1774158    206.81765  0.017338838  0.017095457            5 
  995000   0.86328848    -8.161645    207.00304  0.017336938  0.017081273            4 
  996000   0.87020958   -8.1832205    207.22248  0.017337892  0.017067015            8 
  997000   0.84876666   -8.1565236    207.23577  0.017321612  0.017052715            2 
  998000   0.87299784   -8.1757726    207.07194  0.017290576  0.017038484            6 
  999000   0.85071089   -8.1758653    207.29657  0.017292006  0.017024188            4 
 1000000   0.85716485   -8.2344217    206.95018  0.017245848  0.017009884            3 
 1001000     0.878948   -8.1865974    207.05269  0.017237153  0.016995557            4 
 1002000   0.83440187   -8.1742388    206.99409  0.017215077    0.0169813            3 
 1003000   0.84204807   -8.1855101    207.59437  0.017247788  0.016966975            5 
 1004000   0.84992406   -8.1762465    207.73514  0.017242293  0.016952709            3 
 1005000   0.85717225   -8.2252952    206.85436  0.017152103  0.016938417            2 
 1006000    0.8720301   -8.1866577    207.02409  0.017149113  0.016923991            3 
 1007000   0.85038813   -8.1936614    207.41148  0.017164141  0.016909573            2 
 1008000   0.86115783   -8.1661637    207.87421  0.017185368  0.016895302            5 
 1009000   0.84539906   -8.1268497    208.01041  0.017179584  0.016881073            2 
 1010000   0.83769288    -8.163569    208.24719  0.017182112  0.016866904            4 
 1011000   0.85854743   -8.1845206    207.06563  0.017067724  0.016852673            6 
 1012000   0.85680054   -8.1708772    207.66755  0.017100424  0.016838451            2 
 1013000    0.8486956   -8.1249224    208.36803  0.017141168  0.016824252            2 
 1014000   0.84999437    -8.179232    207.54748  0.017056828  0.016810104            1 
 1015000   0.85450599    -8.150755     208.3478  0.017105731  0.016795937            2 
 1016000   0.84718999   -8.2128262     207.0102  0.016979183  0.016781709            4 
 1017000   0.84910576   -8.1922434    207.71551  0.017020281  0.016767503            5 
 1018000    0.8228477   -8.1393121    208.34704  0.017055258  0.016753361            4 
 1019000   0.85773854   -8.1905143    208.25336  0.017030861  0.016739149            8 
 1020000   0.85638378   -8.1923545     208.4024   0.01702634   0.01672496            2 
 1021000   0.83742443   -8.1986498     208.4169  0.017010847  0.016710846            2 
 1022000   0.85212073   -8.1836247    208.26951  0.016982185   0.01669673            5 
 1023000    0.8410556   -8.2131994    207.68453  0.016917932   0.01668263            6 
 1024000   0.82669145   -8.1941924    208.02981  0.016929509  0.016668437            2 
 1025000   0.84874283   -8.2006972    207.91146  0.016903371  0.016654337            2 
 1026000   0.86025632   -8.2089634    207.99062  0.016893325  0.016640206            6 
 1027000   0.85458737   -8.2275008    207.90454  0.016869891  0.016626009            1 
 1028000   0.82991071   -8.2107719    208.16986  0.016874988  0.016611742            3 
 1029000   0.81844078   -8.1952338     208.4116  0.016878167   0.01659757            1 
 1030000   0.84110292   -8.2265001    208.25535  0.016849138  0.016583399            3 
 1031000   0.86179221    -8.219502    207.97843  0.016810413  0.016569273            2 
 1032000     0.828304   -8.1753885    208.66111   0.01684925   0.01655519            8 
 1033000   0.84445678   -8.2347166    208.67985  0.016834451   0.01654118            2 
 1034000   0.84634138   -8.2289597      208.839  0.016830996  0.016527171            4 
 1035000   0.83350199   -8.2113562    208.88471  0.016818415  0.016513143            7 
 1036000   0.83338223   -8.2036893    208.54561  0.016774904  0.016499062            2 
 1037000   0.84070316   -8.2007372    208.48418  0.016753792  0.016485028            3 
 1038000   0.82388077   -8.1836354    209.06942  0.016784635  0.016471017            3 
 1039000   0.84739511   -8.1562802    208.87739  0.016753079  0.016456991            3 
 1040000   0.83890501   -8.1924663    209.33991  0.016774031  0.016443053            2 
 1041000   0.85328087   -8.2118361    209.48278  0.016769355  0.016429185            4 
 1042000   0.83507085   -8.2460053    209.21248  0.016731645  0.016415196            5 
 1043000   0.85254541   -8.1972192    209.08292  0.016705251  0.016401267            3 
 1044000   0.81437287   -8.1918042    209.20369   0.01669889  0.016387318            6 
 1045000   0.84640684   -8.2527934    209.18999  0.016681817  0.016373423            4 
 1046000   0.83335567   -8.2263023     208.6039  0.016619176   0.01635944            2 
 1047000   0.81618767   -8.2190185    209.04191  0.016638165  0.016345387            3 
 1048000   0.83564664   -8.1969811     209.2744  0.016640776  0.016331367            2 
 1049000   0.84450254   -8.2274505     208.9613   0.01660004  0.016317364            7 
 1050000   0.83021794    -8.248376    209.09104  0.016594527  0.016303292            5 
 1051000   0.83659158   -8.2388259    208.80691  0.016556209  0.016289187            2 
 1052000   0.81025063   -8.2457555    208.61673  0.016525407  0.016274997            4 
 1053000   0.86607233   -8.2183712     208.9134  0.016533191   0.01626086            4 
 1054000    0.8182375   -8.2120922    209.53528  0.016566673  0.016246773            3 
 1055000   0.81499227   -8.2677081    208.97073  0.016506377  0.016232589            8 
 1056000   0.84445155    -8.212826    209.58971  0.016539592  0.016218407            6 
 1057000   0.82319292   -8.2184579    209.00082  0.016477516  0.016204338            8 
 1058000   0.84529178   -8.2272114     208.6491  0.016434239  0.016190238            6 
 1059000   0.81798707   -8.2448054    209.59399  0.016493075  0.016176111            5 
 1060000   0.83988122   -8.2695259    208.29998  0.016375785  0.016161942           13 
 1061000   0.84672383   -8.2697332    209.09121  0.016422495  0.016147788            6 
 1062000   0.81173586   -8.2754358    208.58846  0.016367581  0.016133541            5 
 1063000   0.86640338   -8.2580607    209.17927    0.0163985    0.0161193           11 
 1064000   0.83232512   -8.2661922    208.75925  0.016350192  0.016105063            2 
 1065000   0.83133807   -8.2424547    208.82812  0.016340228  0.016090879            3 
 1066000   0.81882158   -8.2276655    209.21516  0.016355157  0.016076741            4 
 1067000    0.8156778   -8.2678972    208.92218  0.016316947  0.016062636            3 
 1068000   0.82152266   -8.2643502     208.9707  0.016305454  0.016048468            3 
 1069000   0.81631122   -8.2662759    209.13889  0.016303312   0.01603436            3 
 1070000   0.83040253   -8.2810594    208.65162  0.016250126  0.016020195            4 
 1071000     0.819049   -8.2931681    208.76257  0.016243586  0.016006038            5 
 1072000   0.80066547   -8.2956202    209.29579  0.016269884  0.015991941            5 
 1073000   0.82025849   -8.2915703    209.21082  0.016248122  0.015977874            4 
 1074000   0.81764703   -8.2849418    209.30072  0.016239969  0.015963731            7 
 1075000     0.819949    -8.270839    209.11628  0.016210564  0.015949598            1 
 1076000   0.83001368    -8.266244    209.28125  0.016208275  0.015935467            4 
 1077000     0.829434   -8.2933871    208.93299  0.016166279  0.015921323            3 
 1078000   0.81321054   -8.3167605    209.27365  0.016177617  0.015907129            3 
 1079000   0.82623435    -8.253491    209.26147  0.016161683  0.015892889            3 
 1080000   0.81881347   -8.2774131    209.14139  0.016137453  0.015878734            7 
 1081000   0.83419762   -8.2643036    209.73889  0.016168585  0.015864688            3 
 1082000   0.82358915   -8.2479886    209.44216  0.016130788  0.015850573            4 
 1083000   0.81797545   -8.2782256    209.56019  0.016124976  0.015836597            4 
 1084000   0.82857994    -8.279099    209.64983  0.016116992  0.015822502            4 
 1085000    0.8283235   -8.2681674    209.71106   0.01610684   0.01580844            5 
 1086000   0.80935993   -8.2795916    209.73738  0.016094028  0.015794382            8 
 1087000   0.81052041   -8.2757156    209.24113  0.016041178  0.015780341            5 
 1088000   0.82295108   -8.2592395    210.08656  0.016091188  0.015766335            4 
 1089000   0.81015147   -8.2718231    209.50613  0.016031997  0.015752326            4 
 1090000   0.82043221   -8.2681292    209.22349   0.01599568  0.015738323            5 
 1091000   0.79705443   -8.2825968    209.27294  0.015984795  0.015724231            9 
 1092000    0.8055437   -8.2914085    209.61181  0.015996017   0.01571014            2 
 1093000   0.83390262   -8.3007811    209.33939  0.015960612  0.015696078            4 
 1094000   0.81699219   -8.2985367    209.17515  0.015933512  0.015682044            2 
 1095000    0.8074225   -8.2865282    209.52824  0.015945833  0.015667991            3 
 1096000   0.81123411   -8.2740207    209.94934  0.015963301  0.015653978            4 
 1097000   0.82427046   -8.2983729    209.55882  0.015919084  0.015639906            3 
 1098000   0.80535539   -8.2793003     209.2818  0.015883561  0.015625859            3 
 1099000   0.79721871   -8.3020636    209.84243  0.015911619  0.015611741            4 
 1100000   0.82212777   -8.3056511    209.91727  0.015902823  0.015597727            5 
 1101000   0.82981889   -8.3040924    210.18793  0.015908866  0.015583772            3 
 1102000   0.81248366   -8.3005951    210.35765  0.015907263  0.015569797            4 
 1103000   0.80332464   -8.2845488    209.66546  0.015840545  0.015555722            2 
 1104000   0.81663259   -8.3281511    209.58771  0.015820328  0.015541752            5 
 1105000    0.8065799   -8.2883831    210.48503  0.015873683  0.015527796            3 
 1106000   0.82296731   -8.2906193    209.94294  0.015818485  0.015513908            3 
 1107000   0.80376913   -8.2951165    210.03114  0.015810836  0.015500028            4 
 1108000   0.79139512   -8.3169926    209.66586  0.015769093  0.015486165            2 
 1109000   0.81028486   -8.2725524    210.17652  0.015793246  0.015472353            5 
 1110000   0.79974395   -8.3099296    210.54809  0.015806913   0.01545861            2 
 1111000   0.80643949   -8.3273165    209.81826  0.015737944  0.015444756            6 
 1112000   0.82248872    -8.290176    210.61816  0.015783735  0.015430899            5 
 1113000   0.79567793    -8.285152    210.25891  0.015742655  0.015417002            4 
 1114000   0.81679221    -8.336607    209.88578  0.015700612  0.015403106            5 
 1115000   0.80827785   -8.3314353    209.80943  0.015680824  0.015389158            7 
 1116000    0.7990808   -8.3388164    210.09041  0.015687754  0.015375284            2 
 1117000     0.808602   -8.3254312    210.19023  0.015681157  0.015361479            7 
 1118000   0.80186081   -8.3271569    210.04033  0.015655958  0.015347654            4 
 1119000    0.8143235   -8.3086234    210.37427  0.015666835   0.01533382            2 
 1120000   0.81895571   -8.3033597    210.15179  0.015636294  0.015320028            5 
 1121000   0.78616538   -8.3059548    210.50828  0.015648846  0.015306244            3 
 1122000   0.80956897   -8.2805949    210.79731  0.015656366  0.015292492            5 
 1123000    0.8173151   -8.3185225    210.81918  0.015644047  0.015278797            3 
 1124000   0.79433428    -8.294064    210.38126  0.015597662  0.015265157            5 
 1125000   0.80686098   -8.2964022    210.84241  0.015617956  0.015251504            2 
 1126000    0.7861785   -8.3122171     210.4631  0.015576014  0.015237842            7 
 1127000   0.81508198   -8.3170055    210.47282  0.015562912  0.015224189            4 
 1128000   0.81590374    -8.320415    210.52461  0.015552941  0.015210499            2 
 1129000   0.78975008   -8.3252761    210.83839  0.015562326   0.01519686            4 
 1130000   0.80750327   -8.3141303    210.94674  0.015556545  0.015183237           11 
 1131000   0.81778266   -8.2987667    211.13548  0.015556696  0.015169662            4 
 1132000    0.8089172   -8.3289361    210.86527  0.015523062  0.015156102            7 
 1133000   0.80911123   -8.3268903    210.80098  0.015504632  0.015142497           10 
 1134000   0.79713958   -8.3019925    210.71456  0.015484609  0.015128931            5 
 1135000   0.81450702    -8.320057     210.5685  0.015460243  0.015115328            7 
 1136000   0.79897254   -8.3147896    211.18727  0.015492024    0.0151017            8 
 1137000   0.81957724   -8.3268197    210.60159  0.015435473  0.015088099            5 
 1138000   0.79276377    -8.327342    211.15083  0.015462129  0.015074548            3 
 1139000   0.78746062   -8.3394271    211.18167   0.01545081  0.015060973            7 
 1140000   0.79367618   -8.3587284    210.97258  0.015421972  0.015047336           14 
 1141000   0.79593857   -8.3563072    211.07567  0.015415985  0.015033742            4 
 1142000   0.77513445   -8.3558326    210.60585  0.015368203  0.015020119            6 
 1143000   0.78607112   -8.3464237    210.29119  0.015331816  0.015006502           22 
 1144000   0.81396233   -8.3485535    211.04552  0.015373363  0.014992891           15 
 1145000   0.77486388   -8.3481378    210.83232  0.015344419  0.014979374            8 
 1146000   0.78503481   -8.3351766    211.72962  0.015396278  0.014965927           19 
 1147000   0.80569001   -8.3393182    211.36741   0.01535654  0.014952494           11 
 1148000    0.8047984   -8.3559064    211.12683  0.015325699  0.014939049            9 
 1149000   0.80041543   -8.3292157    211.49193   0.01533884  0.014925631           16 
 1150000   0.79311588   -8.3409903     211.2373  0.015307051   0.01491225           15 
 1151000   0.81372311   -8.3303036    211.61014  0.015320745  0.014898886            9 
 1152000   0.79530722   -8.3573795    211.50116  0.015299563  0.014885546           23 
 1153000   0.80464933   -8.3673682    211.10453  0.015257627    0.0148722           14 
 1154000   0.79635461   -8.3432112    211.70996  0.015288125  0.014858859           22 
 1155000   0.78167058   -8.3435963     211.6516  0.015270678  0.014845457            8 
 1156000   0.77856292   -8.3762799    211.35048  0.015235762  0.014832057           26 
 1157000   0.78796425   -8.3761813    210.81832  0.015184264  0.014818639            5 
 1158000   0.78749428   -8.3765335    211.10462  0.015191754  0.014805241           12 
 1159000   0.78363745   -8.3574465     211.4928  0.015206557  0.014791806           10 
 1160000   0.78417354   -8.3534873    211.32905  0.015181685  0.014778429            5 
 1161000   0.78458513   -8.3572792    211.52395  0.015182597  0.014765073            2 
 1162000   0.79410959   -8.3569695    211.63167  0.015177257  0.014751713            4 
 1163000   0.79336742   -8.3744076    211.22072  0.015134761  0.014738355            3 
 1164000   0.78407564   -8.3537394    210.90882  0.015099429  0.014724947            3 
 1165000   0.78015165   -8.3596173    211.30305  0.015114667  0.014711601            4 
 1166000   0.79611021    -8.372612    211.38115  0.015107286  0.014698244            4 
 1167000   0.79748101   -8.3616103    211.02856  0.015069163  0.014684815            3 
 1168000   0.78646489   -8.3790019    211.47348  0.015088005   0.01467145            3 
 1169000   0.78652916   -8.3729913    211.34491  0.015065933  0.014658117            2 
 1170000   0.79077435   -8.3537612    212.05819   0.01510386  0.014644827            2 
 1171000   0.80144062   -8.3912043    211.27803  0.015035442  0.014631539            3 
 1172000   0.78034109   -8.4081623    211.27379  0.015022312  0.014618188            2 
 1173000   0.79576627   -8.3614776    211.52345  0.015027241  0.014604897            8 
 1174000   0.76497523    -8.374383    211.43869  0.015008425  0.014591653            6 
 1175000   0.78476281   -8.3956613    211.04489  0.014967723  0.014578359            5 
 1176000    0.7804679   -8.3999683     210.9359  0.014947272  0.014565031           16 
 1177000   0.78056052   -8.3769155    211.51715  0.014975726  0.014551712           17 
 1178000   0.79720293   -8.4104631    210.67271  0.014903276  0.014538321           11 
 1179000   0.78519485   -8.4187545    210.93081  0.014908878  0.014524999           12 
 1180000   0.78688551   -8.3971607    211.14585   0.01491143  0.014511697           11 
 1181000   0.76355821   -8.3837753    211.43368  0.014919113  0.014498397            8 
 1182000   0.78382147   -8.3926178    211.53992  0.014913982  0.014485049            6 
 1183000   0.77388329   -8.3933424    211.10469  0.014870716   0.01447171            2 
 1184000   0.77649121   -8.4109392     210.8229  0.014838324   0.01445838           15 
 1185000   0.77044301   -8.4036502    211.14826  0.014848682  0.014445045           13 
 1186000   0.76983841   -8.3783989    211.86096   0.01488624  0.014431807            9 
 1187000   0.79492817   -8.4005396    211.47584  0.014846661   0.01441863           12 
 1188000   0.77596885   -8.3755769    212.11783  0.014879197  0.014405437           18 
 1189000   0.79457371   -8.3740314    211.34338  0.014812404  0.014392309           10 
 1190000   0.77856461      -8.3874    211.85155  0.014835543  0.014379168           17 
 1191000   0.77615488   -8.4073304    211.97958  0.014832044  0.014366035            9 
 1192000   0.78293537   -8.3579004    212.29849  0.014841897  0.014352902           10 
 1193000   0.77222362   -8.4045376    211.70156  0.014787759   0.01433985           10 
 1194000   0.78121798   -8.4022912    211.34451  0.014750454  0.014326767           24 
 1195000   0.77011269   -8.4084457    211.56901  0.014753766  0.014313637           20 
 1196000   0.78732756   -8.4016416    211.63487   0.01474602  0.014300526           16 
 1197000   0.77996782   -8.4244658    211.40342  0.014717587  0.014287403            9 
 1198000   0.77817385   -8.4329664     211.6804  0.014724569  0.014274266           14 
 1199000   0.78198008   -8.4498703    211.34133  0.014688722  0.014261128           12 
 1200000   0.79260893   -8.4334473    211.37173  0.014678592  0.014247975           11 
 1201000   0.77224902   -8.4503732    211.22274  0.014656032  0.014234763            5 
 1202000   0.77660448   -8.4531235    211.11121  0.014636107   0.01422159            6 
 1203000   0.79621798   -8.4493177    211.14501  0.014626282  0.014208381           10 
 1204000   0.76383742   -8.4363237    211.52546  0.014640467   0.01419519            5 
 1205000   0.77794039   -8.4235429    211.44874  0.014623011  0.014182052           14 
 1206000   0.76797927   -8.4502651    211.08134  0.014585499  0.014168929           11 
 1207000    0.7893043   -8.4489696    211.70348  0.014616368  0.014155853           11 
 1208000   0.75443918   -8.4475421    211.29395  0.014576018  0.014142801           11 
 1209000   0.76318514    -8.462391    211.15012  0.014554048  0.014129699           23 
 1210000   0.77153926   -8.4152935    211.49398  0.014565701  0.014116669           14 
 1211000   0.78888925   -8.4356951    211.65164  0.014564522  0.014103753            6 
 1212000   0.75670824   -8.4391322    211.47451  0.014540327  0.014090737            5 
 1213000   0.76869967    -8.466213     211.3653  0.014520837   0.01407772           11 
 1214000   0.77857125    -8.440494    211.69935  0.014531806  0.014064762            7 
 1215000   0.76965364   -8.4283539    211.72683   0.01452173  0.014051812           18 
 1216000    0.7498016   -8.4613867    211.79168  0.014514233  0.014038797           18 
 1217000   0.75558538    -8.439622    211.65263  0.014492785  0.014025829           16 
 1218000   0.79087943   -8.4480516    212.05665  0.014508528  0.014012937           18 
 1219000   0.78398733   -8.4469303    211.54753  0.014461822  0.014000098           17 
 1220000   0.74319228    -8.458243    212.25462  0.014498266  0.013987244           12 
 1221000    0.7618278   -8.4327589    211.60161  0.014441824  0.013974417           24 
 1222000   0.76251746   -8.4593593    211.96838  0.014455018  0.013961624           18 
 1223000   0.75002786   -8.4445167    211.83077  0.014433822  0.013948758            7 
 1224000   0.77187055   -8.4507193    211.81543  0.014420985  0.013935903           18 
 1225000   0.77970921   -8.4488666    211.53408  0.014390074  0.013923079            9 
 1226000   0.76893918   -8.4468404      211.595  0.014382477  0.013910288           14 
 1227000   0.76924478   -8.4235465     212.0656  0.014402717  0.013897487           10 
 1228000   0.74788978   -8.4613613    211.52147  0.014354063   0.01388472            3 
 1229000   0.75251711   -8.4444557    212.22386   0.01439001  0.013871955            7 
 1230000   0.79211317   -8.4409855    211.77618   0.01434798  0.013859223            5 
 1231000   0.77968901   -8.4637679    211.89511  0.014344375  0.013846511            6 
 1232000   0.76102942   -8.4390241    212.59074  0.014379785  0.013833836            5 
 1233000   0.76710344    -8.427854    212.32278  0.014350012  0.013821136            3 
 1234000   0.76441293   -8.4544595    212.16759  0.014327903  0.013808477           10 
 1235000   0.76690209   -8.4284587    212.66087  0.014349587   0.01379586            7 
 1236000   0.76737132   -8.4474309    212.13408  0.014302459  0.013783235            5 
 1237000   0.76301533   -8.4392318    212.87337  0.014340701  0.013770613            8 
 1238000   0.76230052   -8.4497709    212.28644  0.014289609  0.013758012            6 
 1239000   0.75132651   -8.4384954    212.64772  0.014302376  0.013745452            4 
 1240000   0.76931616    -8.459561    212.30254  0.014267644  0.013732887           10 
 1241000   0.76139081   -8.4503375    212.55657  0.014273205  0.013720293            5 
 1242000   0.76256717   -8.4811561    212.25312  0.014241353  0.013707655            5 
 1243000   0.74622076   -8.4622149    212.33686  0.014235509  0.013695057            6 
 1244000   0.75739663   -8.4645632    212.35566  0.014225325  0.013682496           12 
 1245000   0.76270448   -8.4858678    212.41662   0.01421798  0.013669935           12 
 1246000    0.7448204   -8.4723522    212.39383  0.014205045  0.013657367            5 
 1247000   0.76406527   -8.4823883    212.03399  0.014169607  0.013644818            8 
 1248000   0.75542109   -8.4953074    212.61779  0.014197235    0.0136323           10 
 1249000   0.74797531   -8.4642265    212.64938  0.014187976  0.013619789           15 
 1250000   0.76661491   -8.4829107    212.27207  0.014151471  0.013607304            6 
 1251000   0.77063047   -8.4676462    212.70971  0.014169312  0.013594813            4 
 1252000   0.75860014   -8.4591354    212.54554  0.014147067   0.01358239            4 
 1253000    0.7615685   -8.4997986    211.82764  0.014088032  0.013569938            3 
 1254000   0.74142972   -8.4762424    212.61803  0.014129321  0.013557512            6 
 1255000   0.75363985   -8.4884838    212.50907  0.014110828   0.01354505            3 
 1256000   0.75104277   -8.5034062    211.72975  0.014047886   0.01353256            3 
 1257000   0.76732558   -8.4958703    212.49738  0.014087602  0.013520076            9 
 1258000   0.75304718   -8.4588814    212.50991  0.014077233  0.013507621            5 
 1259000   0.74298927   -8.4937072    212.21232  0.014046354  0.013495202            7 
 1260000   0.74453521     -8.51748    212.14245  0.014030585  0.013482767            6 
 1261000   0.75780931   -8.4952206    212.05207  0.014013486  0.013470307            2 
 1262000   0.75252926   -8.4856858    212.14978  0.014008834  0.013457895            7 
 1263000   0.73722817   -8.4933162    212.36803  0.014012142   0.01344549            4 
 1264000    0.7514578   -8.4876716    212.66747  0.014020798  0.013433086            4 
 1265000   0.74369139   -8.4796668    212.32419    0.0139871  0.013420645            3 
 1266000   0.75093857   -8.4848273    212.26938  0.013972445  0.013408254            4 
 1267000   0.74873044   -8.5019029    211.94154  0.013939854  0.013395878            7 
 1268000   0.74505604   -8.4977468    212.34282  0.013955232  0.013383511            6 
 1269000   0.73974932   -8.5006902     212.2768    0.0139399  0.013371123            8 
 1270000   0.73273253   -8.4914215    212.33849  0.013932972  0.013358728            7 
 1271000    0.7439262   -8.4820834    212.19516  0.013912612   0.01334638            2 
 1272000   0.74520153   -8.5184257    211.84516  0.013878745  0.013334002            6 
 1273000   0.75991071   -8.5093504    212.28582  0.013896689  0.013321711            5 
 1274000   0.74453959    -8.472369    212.59372  0.013905921  0.013309401            4 
 1275000   0.74046334    -8.485236     212.7666  0.013906314  0.013297098            8 
 1276000   0.74703501    -8.501062    212.10705  0.013852341  0.013284795            6 
 1277000     0.756285   -8.4968536    212.12349  0.013842566   0.01327252            6 
 1278000   0.75490681   -8.5127359     212.3404  0.013845879  0.013260256            6 
 1279000   0.74562683   -8.5099125     212.6793  0.013857135  0.013247989            8 
 1280000   0.74013148   -8.5114038    212.53731  0.013837065  0.013235754            4 
 1281000   0.74288247   -8.5084472    212.84799  0.013846473  0.013223507            9 
 1282000   0.74731724   -8.5057443    212.54114  0.013815727  0.013211294            8 
 1283000   0.74065453   -8.5170056    212.23023  0.013784764   0.01319908            4 
 1284000   0.73061525   -8.5051872    211.91109  0.013753316  0.013186854           12 
 1285000   0.75112368   -8.5148532    211.90802  0.013742414  0.013174598            7 
 1286000   0.72438613   -8.5067006    212.67126  0.013781186  0.013162368            9 
 1287000   0.73921717   -8.5288401    212.22024  0.013741274  0.013150085            6 
 1288000    0.7400053   -8.5483849    212.27267  0.013733997  0.013137828            9 
 1289000   0.72686812   -8.5129066    211.96964  0.013703752  0.013125595            5 
 1290000   0.72810912    -8.551077    211.88085  0.013687394  0.013113342            3 
 1291000   0.73828075   -8.5217512    212.43692  0.013712685  0.013101114            3 
 1292000   0.74318269   -8.5295437    212.18964  0.013686123  0.013088931            8 
 1293000   0.74378176   -8.5427029    212.28382  0.013681608  0.013076735            6 
 1294000   0.75606893   -8.5228366    212.21072  0.013666327  0.013064544            9 
 1295000   0.75605993   -8.5373164    212.29231  0.013661024  0.013052358           11 
 1296000   0.72428656   -8.5364266    212.34512  0.013653879  0.013040175           10 
 1297000   0.73741904   -8.5396535    212.35266  0.013643836  0.013028005           12 
 1298000   0.72358372   -8.5403488     212.1016  0.013617206   0.01301583           12 
 1299000   0.73925594   -8.5397729    212.11528  0.013607601   0.01300366            5 
 1300000   0.76007449   -8.5247547    212.49936  0.013621754  0.012991548            6 
 1301000    0.7470454   -8.5204776    212.42113  0.013606273  0.012979417            5 
 1302000   0.75702765   -8.5203007    212.38256  0.013593354  0.012967313            6 
 1303000   0.73521923   -8.5707464    211.54637  0.013529443  0.012955186            4 
 1304000   0.73831747   -8.5480043     212.2376  0.013563241   0.01294306            3 
 1305000   0.73383456   -8.5537995    212.02833  0.013539485  0.012930966            3 
 1306000   0.74837636   -8.5409155    212.15359   0.01353711  0.012918875            7 
 1307000   0.72095507   -8.5318599    212.17284   0.01352798   0.01290678           16 
 1308000   0.71814127   -8.5329855    212.08407  0.013511982  0.012894672            4 
 1309000   0.71983705   -8.5548078    211.81086  0.013484267  0.012882627            6 
 1310000   0.73628546   -8.5623164    211.72979  0.013468816  0.012870578            9 
 1311000   0.72947844   -8.5449153    212.26254  0.013492406  0.012858501            6 
 1312000   0.73001023   -8.5651715    212.11235  0.013472583  0.012846453            6 
 1313000   0.72724939   -8.5425141    211.90382  0.013449087  0.012834399            6 
 1314000    0.7217767   -8.5417655    212.39626  0.013470083  0.012822377            6 
 1315000     0.737419    -8.523263    212.40331  0.013460286  0.012810391           13 
 1316000   0.73538708   -8.5191954    212.42537  0.013451454  0.012798434            5 
 1317000   0.71220618   -8.5553588    212.24085  0.013429565  0.012786486            6 
 1318000   0.71960082    -8.548111    212.26935  0.013421178  0.012774556            7 
 1319000   0.72550773   -8.5462479    212.41712  0.013420339  0.012762589            7 
 1320000   0.73302781   -8.5431623    212.09429  0.013389791  0.012750692            6 
 1321000   0.73037577   -8.5634054    212.18353  0.013385285  0.012738759            6 
 1322000   0.72797254   -8.5687918    211.80682  0.013351413  0.012726851            4 
 1323000   0.71965103   -8.5513151    212.35608  0.013375918  0.012714934            3 
 1324000   0.73038354   -8.5471339    212.25115  0.013359212   0.01270307            4 
 1325000   0.73139693   -8.5474765    212.28505  0.013351261  0.012691192            8 
 1326000   0.72052458    -8.551279    212.05223   0.01332656  0.012679306            5 
 1327000   0.72551156   -8.5518282    212.16745  0.013323753  0.012667457            5 
 1328000   0.72409127   -8.5486591     211.6781  0.013283013  0.012655584           20 
 1329000   0.73383799   -8.5450321    212.08617  0.013298606   0.01264372           14 
 1330000   0.74420113   -8.5623698    211.79042  0.013270077  0.012631845            8 
 1331000   0.71049604   -8.5620326    212.21272  0.013286547  0.012619977           15 
 1332000   0.72820273   -8.5691624    212.06079  0.013267067  0.012608146           15 
 1333000   0.72702366   -8.5659768    212.10573  0.013259923  0.012596329           27 
 1334000   0.71503895   -8.5502198    212.62816  0.013282619  0.012584518            6 
 1335000   0.71070383   -8.5599707    212.10099  0.013239762  0.012572737            8 
 1336000   0.72452697   -8.5652953     212.6877  0.013266448  0.012560977            6 
 1337000   0.73254303    -8.541141    212.51663  0.013245863  0.012549256            9 
 1338000   0.70508237   -8.5556489     212.3441  0.013225218  0.012537521            6 
 1339000   0.73132637   -8.5768537    212.07555  0.013198627  0.012525787            6 
 1340000   0.71991206   -8.5632703    212.31217  0.013203493  0.012514033            3 
 1341000   0.71389684   -8.5870317    211.63037  0.013151278  0.012502269           12 
 1342000   0.71070804   -8.5623456      212.118  0.013171759  0.012490476            8 
 1343000   0.70766636   -8.6015124    211.87614  0.013146943  0.012478685           12 
 1344000   0.70501357   -8.5813983    211.89566  0.013138372  0.012466933            5 
 1345000   0.71575929   -8.5880371    211.93784  0.013131217  0.012455176            2 
 1346000    0.6957472   -8.5833531    211.42381  0.013089636   0.01244342            7 
 1347000    0.7251899   -8.5962489     212.3917  0.013139798    0.0124317            9 
 1348000   0.71447509   -8.5737919    212.37612  0.013129087  0.012420004            4 
 1349000   0.71657218   -8.5658099    212.09018  0.013101691  0.012408375            6 
 1350000   0.71885957   -8.5940008    211.87825  0.013078904  0.012396665           11 
 1351000   0.70021914   -8.5832948    212.21467  0.013089975  0.012384988            5 
 1352000     0.697062   -8.5681732    212.16733  0.013077375  0.012373312            9 
 1353000   0.72494789   -8.5632684    211.83661   0.01304734  0.012361664            5 
 1354000   0.71039141   -8.5799077    211.71174  0.013030018  0.012350045           12 
 1355000   0.72213749   -8.5931252    211.84517  0.013028608  0.012338436            7 
 1356000   0.71933468   -8.6052595    211.75589  0.013013514  0.012326808            9 
 1357000   0.71462665   -8.6056764    211.67743  0.012999106  0.012315225            8 
 1358000   0.71911831   -8.5666935    212.18716  0.013020812  0.012303641            5 
 1359000   0.70482878   -8.5767874    211.92304  0.012995035  0.012292045            3 
 1360000   0.70298932   -8.5825053    212.47877  0.013019533  0.012280458            2 
 1361000   0.71179442    -8.594775    211.70774  0.012962757  0.012268881            5 
 1362000   0.70380913   -8.5815074    211.46815   0.01293858  0.012257343           10 
 1363000   0.71238473   -8.5644845    211.91152  0.012956195  0.012245834            3 
 1364000   0.70894278    -8.566844    212.49088  0.012982092  0.012234344            2 
 1365000   0.70668804   -8.5980511    212.17914  0.012953549  0.012222873            4 
 1366000   0.69343064   -8.6027308    211.83347  0.012922979  0.012211398            4 
 1367000   0.71573287    -8.623416    211.97187  0.012921962  0.012199886            7 
 1368000   0.72581514   -8.5911952    212.13441  0.012922418  0.012188409            4 
 1369000   0.70620353   -8.6130383    212.04158  0.012907328  0.012176963            5 
 1370000   0.70248918   -8.5975312    211.81418  0.012884074  0.012165542           10 
 1371000   0.71803828   -8.6056195    211.78114  0.012872668  0.012154086           11 
 1372000   0.70419299   -8.5835762    212.25553    0.0128921  0.012142691            3 
 1373000    0.6855544   -8.6070812    212.35377  0.012888673  0.012131291            7 
 1374000   0.71568226   -8.6093151    211.93007  0.012853595  0.012119902            8 
 1375000   0.71710721   -8.6029095    212.14707  0.012857398  0.012108527            6 
 1376000   0.71601334   -8.6059401    211.14313  0.012787253  0.012097129            8 
 1377000   0.71861991   -8.6499369     211.9203     0.012825  0.012085709            6 
 1378000   0.69780571   -8.5952301    211.64063   0.01279878  0.012074345            4 
 1379000   0.71551797   -8.6074101    212.05093  0.012814294  0.012062999            6 
 1380000   0.69506761   -8.6118073    211.90055  0.012795927  0.012051659            4 
 1381000   0.69937478   -8.5969337    212.13057  0.012800541  0.012040336            4 
 1382000   0.69919253   -8.6028235       212.37  0.012805717  0.012029024            7 
 1383000   0.69765228   -8.6003234     212.0093  0.012774723   0.01201773            5 
 1384000    0.7170217   -8.5827898    212.32841  0.012784707  0.012006457            7 
 1385000   0.70016437    -8.607276    212.23692  0.012769971   0.01199516            6 
 1386000   0.70870895   -8.6267021    211.71202  0.012729198  0.011983886            3 
 1387000   0.70563138   -8.6172423     211.5745  0.012711758  0.011972593            7 
 1388000     0.703468   -8.6083069    212.00312  0.012728333   0.01196132            6 
 1389000   0.68730453   -8.6216404    212.08427  0.012724038  0.011950073            5 
 1390000   0.69675372    -8.644715    211.66671  0.012689851  0.011938808           12 
 1391000   0.69498601     -8.61443    211.75131  0.012685796  0.011927551            6 
 1392000    0.6975077   -8.6343685    211.92147   0.01268687  0.011916312            6 
 1393000   0.71031723   -8.6095903    212.30933  0.012700965   0.01190509            3 
 1394000   0.69910807   -8.6176894    212.17212  0.012683651   0.01189392            5 
 1395000   0.68949352   -8.6252526    211.80579  0.012652676  0.011882701           10 
 1396000   0.70531914     -8.62152    211.98319  0.012654202  0.011871518            7 
 1397000   0.67829919   -8.6221251    212.17217  0.012656417  0.011860315           13 
 1398000   0.68592536   -8.6206128    211.92645  0.012632716  0.011849143           16 
 1399000   0.69870853   -8.6319131    211.89451  0.012621784  0.011837942           13 
 1400000   0.68092184    -8.623201    211.72328  0.012602576   0.01182678           24 
 1401000   0.69125316   -8.6214009     211.8499  0.012601112  0.011815624           14 
 1402000   0.69719314   -8.5910448    212.24765  0.012615766   0.01180449           12 
 1403000   0.68591926   -8.6324816    211.92798  0.012587787  0.011793373           10 
 1404000   0.69557187   -8.6453368    211.43688  0.012549672  0.011782241           10 
 1405000   0.69421081   -8.6526416    211.97119  0.012572431  0.011771103            3 
 1406000   0.69496277    -8.661689    211.32613  0.012525257  0.011759994           11 
 1407000   0.68560469   -8.6385045    211.47695  0.012525287  0.011748853           11 
 1408000   0.68221675   -8.6527412    211.85571  0.012538809  0.011737749            4 
 1409000   0.67782418   -8.6721861    211.85847  0.012530073  0.011726633            9 
 1410000    0.6879903    -8.659603    211.62053  0.012507124  0.011715523           10 
 1411000   0.69533932   -8.6407779    211.53697  0.012493325  0.011704449            9 
 1412000   0.67094235   -8.6509596    211.40228  0.012476528  0.011693367            7 
 1413000   0.70422458   -8.6362932      212.452  0.012529606  0.011682329            5 
 1414000   0.68513685   -8.6609934    212.10706  0.012500416  0.011671297            4 
 1415000   0.68082833   -8.6202561    211.56019  0.012459375  0.011660241            5 
 1416000   0.67015631    -8.619656    212.00242  0.012476602  0.011649226           11 
 1417000   0.69645359    -8.630105    211.73157  0.012451868  0.011638249           12 
 1418000   0.70682146   -8.6046826    211.41652  0.012424572  0.011627268            6 
 1419000   0.68544969   -8.6320796     212.0145  0.012450934   0.01161628            6 
 1420000    0.6812422   -8.6421629    211.55886  0.012415426  0.011605291            5 
 1421000   0.69012658   -8.6533188    211.92594  0.012428216  0.011594305            3 
 1422000   0.69558802   -8.6501667    212.11325  0.012430453  0.011583357            4 
 1423000   0.69567197   -8.6641057    211.55976  0.012389305  0.011572433            5 
 1424000   0.67947887   -8.6511222    211.66647  0.012386849  0.011561554            4 
 1425000   0.69703477    -8.654977    211.68225  0.012379079  0.011550664            5 
 1426000   0.68019316   -8.6648395    211.71661  0.012372406  0.011539777            2 
 1427000    0.6829035   -8.6548064    211.68052  0.012361628  0.011528905            6 
 1428000   0.68511355   -8.6528648    211.61985  0.012349431  0.011518054            6 
 1429000   0.66834764   -8.6432798    211.31478  0.012322999  0.011507172           15 
 1430000   0.68575509   -8.6904997    211.60181  0.012331108  0.011496299            7 
 1431000   0.69732215   -8.6693179    211.65763  0.012325741   0.01148546            2 
 1432000   0.66774584   -8.6580184    211.76351  0.012323296  0.011474647            6 
 1433000   0.68374694   -8.6551797    211.48229  0.012298342   0.01146385            5 
 1434000   0.68747554   -8.6515769    212.05608   0.01232311  0.011453068            7 
 1435000   0.67313543   -8.6513839    211.91489  0.012306323  0.011442316            4 
 1436000   0.68597225   -8.6649437    212.06625  0.012306537  0.011431552            5 
 1437000   0.69302244   -8.6542467    212.04453  0.012296714  0.011420816            3 
 1438000   0.67140864   -8.6368277    211.99143  0.012285085  0.011410076            5 
 1439000   0.68747865   -8.6802271    211.61123   0.01225453  0.011399347            9 
 1440000   0.66279388   -8.6787817    212.14449   0.01227688   0.01138863            3 
 1441000   0.67250855   -8.6725888    211.49486  0.012230792  0.011377933            4 
 1442000   0.68351015   -8.6668973      211.892  0.012245261  0.011367257            3 
 1443000   0.66394604   -8.6909833    211.24147  0.012199207  0.011356613            4 
 1444000   0.67570973   -8.6705651     211.8116  0.012223661   0.01134597            9 
 1445000   0.68259459    -8.650085    211.86876  0.012218498  0.011335366            3 
 1446000   0.67045782   -8.6639854    211.60086  0.012194609  0.011324756            7 
 1447000   0.65927517   -8.6612763    212.15067  0.012217845  0.011314146            4 
 1448000   0.67068694   -8.6753672      211.836  0.012191298  0.011303536            5 
 1449000    0.6766703    -8.684233    211.50285  0.012163725  0.011292933            4 
 1450000   0.66477038   -8.6952253    211.80886  0.012172923  0.011282337            4 
 1451000   0.66638317   -8.7044216    211.49046  0.012146247  0.011271749            3 
 1452000   0.67212232   -8.6795288    211.99963  0.012167105  0.011261199            3 
 1453000   0.66071389   -8.6608305    211.89207  0.012152562  0.011250678            3 
 1454000   0.69205672   -8.7094899     211.4963  0.012121521  0.011240108            7 
 1455000    0.6824736   -8.6879851    211.97184  0.012140426  0.011229594            3 
 1456000    0.6777597    -8.695931    211.75653  0.012119765  0.011219069            4 
 1457000   0.69171002   -8.6865928    211.62342  0.012103833  0.011208576            4 
 1458000   0.66487262   -8.7101187     211.7754  0.012104218  0.011198078            5 
 1459000   0.68040689    -8.710914    211.78851  0.012096671  0.011187588            3 
 1460000   0.67973772   -8.7059878    211.64334  0.012080099  0.011177098            3 
 1461000   0.67529265   -8.6897543    211.85895  0.012084129  0.011166603            8 
 1462000   0.67151824   -8.6879335    211.60845  0.012061585  0.011156114            4 
 1463000   0.65291948   -8.6812494    212.03099  0.012077409  0.011145633            4 
 1464000   0.67089912   -8.6929658    211.55381  0.012041997  0.011135139            5 
 1465000   0.67824451   -8.6862851    211.81881  0.012048852  0.011124683            5 
 1466000   0.67884599   -8.7024042    211.67906  0.012032689  0.011114234            9 
 1467000   0.67415604   -8.7091619     211.3501    0.0120058  0.011103792            8 
 1468000   0.67070337   -8.7073619    211.47849   0.01200491  0.011093366            8 
 1469000   0.67349395   -8.7317928    211.58259  0.012002643  0.011082934            3 
 1470000   0.65898454   -8.7091557    211.83199  0.012008616   0.01107254            6 
 1471000   0.66517927   -8.7142882    211.26555  0.011968363  0.011062157            4 
 1472000   0.67331841   -8.6950036     211.4728  0.011971966  0.011051774            8 
 1473000   0.66918919   -8.7093526    211.64986  0.011973855  0.011041381           13 
 1474000   0.66169168   -8.6933239    211.81217  0.011974908  0.011031032            8 
 1475000   0.67999967   -8.7158078    211.46419   0.01194713  0.011020685            8 
 1476000    0.6651626   -8.7217365    211.16484  0.011922134  0.011010358            8 
 1477000   0.67452428   -8.7165732    211.23807  0.011918194  0.011000026           11 
 1478000   0.66667699   -8.7168789    211.58401  0.011929635  0.010989708            4 
 1479000   0.67814824   -8.6838339     211.6166  0.011923406  0.010979428            6 
 1480000   0.64469926   -8.7053137    211.73883  0.011922231  0.010969137            5 
 1481000   0.65788557   -8.7175504    211.27889  0.011888301  0.010958841           13 
 1482000   0.65998213   -8.7251357    211.08698  0.011869488   0.01094854           10 
 1483000   0.66270585   -8.7185726    211.75633  0.011899097  0.010938244            5 
 1484000   0.67073286   -8.7249913    211.11526  0.011855079  0.010927967            4 
 1485000   0.67284104   -8.7127304    211.57469  0.011872878  0.010917686            7 
 1486000   0.66255347   -8.7443954    211.75937  0.011875245  0.010907414            5 
 1487000   0.64846832   -8.7379505    211.35258  0.011844462  0.010897143            8 
 1488000   0.66217457   -8.7529145    211.38875  0.011838527  0.010886899            9 
 1489000   0.65737638   -8.7296819    211.30453  0.011825863  0.010876644           13 
 1490000   0.66069471   -8.7289821    211.30414  0.011817905  0.010866435            6 
 1491000   0.64392106   -8.7272367    211.36949  0.011813631  0.010856227            7 
 1492000   0.65937685   -8.7244363    211.34245  0.011804203  0.010846025            4 
 1493000   0.65247787   -8.7249929    211.54262  0.011807469   0.01083584            8 
 1494000   0.64905427    -8.761752    211.47701  0.011795906  0.010825659           11 
 1495000   0.65269283   -8.7373803    211.65188  0.011797764  0.010815472            6 
 1496000   0.66671111   -8.7364243    211.20026   0.01176472  0.010805309            6 
 1497000   0.66115973   -8.7260799    211.79012  0.011789697  0.010795159           11 
 1498000   0.65773923   -8.7383317    211.48854   0.01176505   0.01078503            6 
 1499000   0.65204243   -8.7253133     211.1661  0.011739276  0.010774927            9 
 1500000   0.65590254     -8.74389    211.30019  0.011738899  0.010764816           13 
 1501000   0.64913727    -8.718948    211.40038  0.011736641  0.010754733            9 
 1502000   0.66483091   -8.7475777    210.94172   0.01170338  0.010744665            7 
 1503000   0.64560495   -8.7540027    211.41075  0.011721599  0.010734578            6 
 1504000   0.64788631   -8.7658086    211.37277  0.011711701  0.010724494           13 
 1505000   0.65974523   -8.7336067    211.33921  0.011702061  0.010714408            8 
 1506000   0.65130462   -8.7408533    211.24825  0.011689257  0.010704331            7 
 1507000   0.64646802    -8.721025    211.42461  0.011691253  0.010694281            8 
 1508000   0.65578667   -8.7456876     211.5309  0.011689373  0.010684239            6 
 1509000   0.65583362   -8.7350004     211.4307  0.011676093  0.010674238            8 
 1510000   0.64845553   -8.7448852    211.21783  0.011656613  0.010664226            5 
 1511000   0.65165162   -8.7421631    211.44357  0.011661348  0.010654235            5 
 1512000   0.65098313   -8.7477175    211.49685  0.011656572  0.010644249            2 
 1513000   0.64174814   -8.7487792    211.80251  0.011665703  0.010634281            6 
 1514000   0.64402035    -8.736812    211.25934  0.011628101   0.01062433            3 
 1515000   0.65209231   -8.7263807    211.37431   0.01162675  0.010614384           22 
 1516000   0.64456984   -8.7425891    211.57711  0.011630228  0.010604449           11 
 1517000   0.65999778   -8.7390642    211.22824  0.011603397   0.01059454           10 
 1518000    0.6580626    -8.732225    211.47111  0.011609086  0.010584631            8 
 1519000   0.65481086   -8.7435727    211.23125  0.011588284  0.010574729           10 
 1520000   0.64663066   -8.7604009    211.36093  0.011587771  0.010564836            4 
 1521000   0.63323171   -8.7536954    210.96496  0.011558457  0.010554941           21 
 1522000   0.64436375   -8.7515141    211.22473  0.011565086  0.010545063           16 
 1523000   0.63135013   -8.7608798    211.15527  0.011553692  0.010535177            4 
 1524000   0.63850725   -8.7507173    210.83543  0.011528622   0.01052529           12 
 1525000   0.65839731    -8.755218    211.58948  0.011562267  0.010515444            9 
 1526000   0.63865533   -8.7619298    211.33591  0.011540843  0.010505612            9 
 1527000   0.65282063   -8.7581224    211.04841  0.011517595   0.01049578            5 
 1528000   0.64156059   -8.7444325    211.50555  0.011534989  0.010485974            4 
 1529000   0.64105588   -8.7430299    211.62104  0.011533739  0.010476173            5 
 1530000   0.63796157   -8.7414987    211.58281  0.011524118   0.01046639            4 
 1531000   0.64238191   -8.7752311     211.5156  0.011512933  0.010456591            7 
 1532000    0.6412439   -8.7533688     211.5068  0.011504939  0.010446792            7 
 1533000   0.65292216   -8.7656137    210.91636  0.011465338   0.01043701            3 
 1534000   0.62110153   -8.7551264    211.42107  0.011485282  0.010427248            5 
 1535000   0.63904329   -8.7721773    211.19931  0.011465761  0.010417488           10 
 1536000   0.63284976   -8.7568519    211.66563  0.011483595  0.010407755            9 
 1537000   0.65335715    -8.759104     211.1472  0.011448016  0.010398042            6 
 1538000   0.62778912    -8.772633    211.10516  0.011438294  0.010388342            8 
 1539000   0.62284301   -8.7744369    211.40978  0.011447357  0.010378631            7 
 1540000   0.64302222   -8.7752107    211.19318  0.011428202  0.010368936            4 
 1541000   0.64041768   -8.7539221    211.34571  0.011429035  0.010359274           12 
 1542000   0.64088765   -8.7760219    210.94881  0.011400174   0.01034962           10 
 1543000   0.63832238   -8.7926434    211.20969  0.011406875  0.010339991            5 
 1544000   0.63441725   -8.7591036    211.73756  0.011427977  0.010330381           10 
 1545000   0.64519593   -8.7690224    211.32868  0.011398526  0.010320788            4 
 1546000   0.64593243    -8.769289    211.36995  0.011393378  0.010311176            6 
 1547000   0.64580117   -8.7644307    211.14494  0.011373893  0.010301576            2 
 1548000    0.6390826   -8.7660357     211.0168  0.011359647  0.010291995            7 
 1549000   0.64181161   -8.7648171     211.2735  0.011366123  0.010282433            7 
 1550000    0.6287622   -8.7853598    211.07522   0.01134813  0.010272896            4 
 1551000   0.63585489    -8.775215    211.02915  0.011338338  0.010263351            6 
 1552000   0.64313881   -8.7686624    211.42966  0.011352537  0.010253828            3 
 1553000   0.63620457   -8.7860521    211.27447    0.0113369  0.010244298            7 
 1554000   0.62282506   -8.7651021    211.04269  0.011317176  0.010234781            6 
 1555000   0.62697235   -8.7770176    211.41131  0.011329652  0.010225276            5 
 1556000   0.63596496   -8.7844478    211.24556  0.011313494  0.010215754            9 
 1557000   0.62028414   -8.7823822    211.24075   0.01130597   0.01020624            5 
 1558000   0.62110434   -8.7570969    211.16292   0.01129455   0.01019675            6 
 1559000   0.62763911   -8.7888891    211.37786  0.011298795  0.010187292            3 
 1560000   0.63085334   -8.7735736    211.30159  0.011287478  0.010177856            3 
 1561000   0.61874784   -8.7783105    211.31509  0.011280968  0.010168401            4 
 1562000    0.6338254   -8.7927774    210.78779  0.011245614  0.010158961            4 
 1563000   0.62154498   -8.7869556    210.98575  0.011248974  0.010149529            5 
 1564000   0.63964331   -8.7978803    211.33945  0.011260627  0.010140104            3 
 1565000    0.6335033   -8.7920804    211.41197  0.011257293  0.010130681            5 
 1566000   0.63010868   -8.7758269    211.29972  0.011244132  0.010121283            7 
 1567000   0.61702863   -8.7796739    211.36273  0.011240307  0.010111894            4 
 1568000   0.63060219    -8.781229     211.1153  0.011219988  0.010102526            3 
 1569000   0.62886227   -8.7890302    210.99735  0.011206573   0.01009316            6 
 1570000   0.63597392   -8.7955268      211.512  0.011226751  0.010083806            8 
 1571000   0.63812499    -8.792422    210.89059  0.011186643  0.010074442            5 
 1572000   0.61718236   -8.8139883    210.87301  0.011178595  0.010065097            6 
 1573000    0.6278755    -8.827556     210.8821   0.01117197  0.010055748            6 
 1574000   0.61445013   -8.8001337    210.92542  0.011167166  0.010046405            7 
 1575000   0.62461346   -8.7941952    210.84716  0.011155934   0.01003709            6 
 1576000   0.63581924   -8.7909794    210.82688  0.011147783  0.010027781            6 
 1577000   0.61762761   -8.8041796    211.11471  0.011155924   0.01001849            6 
 1578000   0.64070025   -8.8091711    210.75822  0.011130028  0.010009182            4 
 1579000   0.62087718   -8.8100977    211.15059  0.011143688 0.0099998947            4 
 1580000   0.62341212   -8.8199799    211.20266  0.011139381 0.0099906169            2 
 1581000   0.60945226   -8.8069213    211.35906  0.011140579 0.0099813353           10 
 1582000    0.6156941   -8.7999621    210.99553  0.011114387 0.0099720863            5 
 1583000   0.61080364   -8.8019455     211.2755  0.011122105 0.0099628321            9 
 1584000     0.621076    -8.794806    210.81661  0.011090941 0.0099535697            3 
 1585000   0.64265723   -8.8245628    211.02807  0.011095061 0.0099443262            4 
 1586000   0.61452685   -8.8088346    210.79529  0.011075835 0.0099351058            4 
 1587000   0.62572691   -8.8025802    210.86737  0.011072641 0.0099258722            5 
 1588000    0.6214949   -8.8062393    210.89488  0.011067112 0.0099166528            4 
 1589000   0.61443366   -8.8166609    210.71734  0.011050836 0.0099074406            6 
 1590000   0.62302183   -8.8098298    211.30164  0.011074509 0.0098982547            5 
 1591000   0.62028103   -8.8100265    211.02965  0.011053303 0.0098890695            6 
 1592000   0.61558955   -8.8115855    211.02689  0.011046215 0.0098798976           10 
 1593000   0.63055287   -8.8124307    210.73121  0.011023813  0.009870735            7 
 1594000   0.62307151   -8.7999674    211.42488  0.011053162 0.0098615779            5 
 1595000   0.61681876   -8.8308217    211.03527  0.011025876 0.0098524396            7 
 1596000   0.62529367   -8.8362757    210.47504  0.010989716 0.0098433151            3 
 1597000   0.63041544   -8.8237174    210.94459  0.011007336 0.0098341852            7 
 1598000    0.6142568   -8.8046617    210.76884  0.010991283 0.0098250814            5 
 1599000     0.614104   -8.8224442    211.07121  0.011000167 0.0098159771            9 
 1600000   0.60081504   -8.8162571    211.03417  0.010991363 0.0098068849            9 
 1601000   0.61422163   -8.8336755    211.06461  0.010986082 0.0097978088            4 
 1602000   0.60736803   -8.8032875    211.13499  0.010982886 0.0097887403            4 
 1603000   0.60506878   -8.8299398    210.74804  0.010955918 0.0097796742            7 
 1604000   0.61828463   -8.8271799     210.7346  0.010948389 0.0097706251            3 
 1605000   0.61848925   -8.8253547    210.87341  0.010948775 0.0097615844            4 
 1606000   0.62241689   -8.8320328    210.85888  0.010941204 0.0097525368            4 
 1607000   0.62119916   -8.8181782    210.64965  0.010923545 0.0097434953            4 
 1608000   0.58889544   -8.8328993    210.94836  0.010932233 0.0097344801            4 
 1609000    0.6102778   -8.8377232    210.84202  0.010919931 0.0097254618            4 
 1610000   0.61383196   -8.8606425    210.79807  0.010910873 0.0097164604            6 
 1611000   0.60785677   -8.8330045    210.71378   0.01089974 0.0097074697            5 
 1612000   0.61137334   -8.8312102    210.74242  0.010894459 0.0096984889            3 
 1613000   0.61070028   -8.8253423    210.57598  0.010879106 0.0096895155            4 
 1614000   0.60320732   -8.8198031    211.02372  0.010895483 0.0096805515            5 
 1615000   0.60387836   -8.8233681    210.51653  0.010862566 0.0096716015            5 
 1616000   0.61455575   -8.8460494    210.41896  0.010850813 0.0096626624            8 
 1617000   0.61293485    -8.828797    210.69813   0.01085849 0.0096537258            7 
 1618000   0.60818821   -8.8380582    210.64809  0.010849201  0.009644799            8 
 1619000   0.59471008   -8.8419968    210.72316  0.010846364 0.0096358694            5 
 1620000   0.61011415   -8.8206153    211.14511  0.010861374 0.0096269628           10 
 1621000   0.60202908   -8.8134119    211.19313  0.010857142 0.0096180758            6 
 1622000   0.60873739   -8.8520735    210.79563  0.010830026 0.0096091959            5 
 1623000   0.60259271   -8.8323672    210.64117  0.010815422 0.0096003071            5 
 1624000   0.58825893   -8.8126518    211.01593  0.010827993 0.0095914365            8 
 1625000    0.6016405   -8.8453429    210.33428  0.010786373 0.0095825735            6 
 1626000   0.60574548   -8.8472841    210.47645  0.010787026 0.0095737228            8 
 1627000   0.60835825   -8.8438256    210.53795  0.010783546  0.009564873            4 
 1628000   0.60770279   -8.8765999    210.68264  0.010784328 0.0095560444            5 
 1629000   0.59153604   -8.8292611    210.42434  0.010764495 0.0095472105            6 
 1630000   0.59913987   -8.8704242     210.7436  0.010774213 0.0095383964            5 
 1631000   0.60517635   -8.8412429    210.89848   0.01077552 0.0095295979            3 
 1632000   0.60150708   -8.8359851    210.70079  0.010758823 0.0095207816            4 
 1633000    0.6028213   -8.8327967    210.48008  0.010740971 0.0095119908            4 
 1634000   0.60638234   -8.8410498    210.49709  0.010735266 0.0095032112            6 
 1635000   0.60532695   -8.8355672    210.79527  0.010743898 0.0094944505            6 
 1636000   0.61251805   -8.8309686      210.786  0.010736858 0.0094857063            7 
 1637000   0.60004631   -8.8467274    210.33132  0.010707153 0.0094769579            5 
 1638000   0.60000386   -8.8911368    210.11409  0.010689565 0.0094681996           10 
 1639000   0.60152748   -8.8341395    210.67767  0.010711698 0.0094594534            6 
 1640000     0.600585   -8.8578725    210.60249  0.010701346 0.0094507112            3 
 1641000   0.60556424   -8.8627399    210.71405   0.01070049 0.0094419849            7 
 1642000   0.59992994   -8.8448681    210.69713  0.010693115 0.0094332679            9 
 1643000   0.61250339   -8.8676059    210.63066  0.010683235 0.0094245496            4 
 1644000   0.61386472   -8.8810215    210.24993  0.010657438 0.0094158457            7 
 1645000   0.58725267   -8.8549615    210.23195  0.010650048  0.009407151            7 
 1646000   0.59324956   -8.8620079    210.42246  0.010653223 0.0093984632            5 
 1647000    0.6176157   -8.8460395    210.66304  0.010658927 0.0093897986            5 
 1648000   0.59713261   -8.8638177    210.40778  0.010639552 0.0093811443            4 
 1649000   0.58571381   -8.8579555    210.15172   0.01062016 0.0093724894            5 
 1650000   0.60791654   -8.8691299    209.89281  0.010600647 0.0093638355            7 
 1651000   0.58607027   -8.8691728    210.43219  0.010621451 0.0093551989            4 
 1652000   0.59063268   -8.8823154    210.26634  0.010606655 0.0093465577            3 
 1653000   0.58443533   -8.8825805    210.23377  0.010598597 0.0093379424            6 
 1654000   0.58365651    -8.859599    210.66226  0.010613778 0.0093293265            8 
 1655000   0.59483861   -8.8859218    210.31739  0.010589999 0.0093207275            7 
 1656000   0.60467817   -8.8730463    210.55864  0.010595745 0.0093121335            5 
 1657000   0.59419565   -8.8461395    210.73123   0.01059803 0.0093035495            4 
 1658000   0.59894559   -8.8620253    210.49763  0.010579897 0.0092949867           13 
 1659000   0.58706755   -8.8762124    210.21468  0.010559307 0.0092864202            5 
 1660000   0.60534316   -8.8467659    210.21907  0.010553166 0.0092778664            5 
 1661000   0.57777295   -8.8606895    210.97834  0.010584906 0.0092693298            4 
 1662000   0.58793511   -8.8914504    210.27234  0.010543138 0.0092607976            5 
 1663000   0.58510282   -8.8650107    209.98166  0.010522232 0.0092522803            7 
 1664000   0.60831944   -8.8659999     210.5624  0.010544992 0.0092437699            5 
 1665000   0.58424073   -8.8562588    210.42714  0.010531889 0.0092352706           14 
 1666000   0.57554717    -8.877521    210.26858  0.010517636 0.0092267774            4 
 1667000   0.59105879   -8.8593553    210.67649  0.010531718 0.0092182939           12 
 1668000   0.59258271   -8.8836979    209.98708  0.010490961 0.0092098163            4 
 1669000    0.5902804   -8.8859088    210.01546  0.010486092 0.0092013432            5 
 1670000   0.58635994   -8.8782822    210.63801  0.010510879  0.009192882           10 
 1671000   0.59115792    -8.865257    210.45813  0.010495618  0.009184425            6 
 1672000   0.59067761   -8.8937071    210.26334  0.010479632 0.0091759815            4 
 1673000   0.57671991   -8.8827098     210.2113  0.010470776 0.0091675446            5 
 1674000   0.59467215   -8.8984934    209.96557  0.010452288 0.0091591196            4 
 1675000   0.57945267   -8.8744522    210.07318  0.010451402 0.0091506994            8 
 1676000    0.5904054   -8.8812604     209.8358  0.010433363 0.0091422927            4 
 1677000   0.58494127   -8.8880364    210.07691  0.010439123 0.0091339094            5 
 1678000   0.58722307   -8.8780419     210.4548  0.010451669 0.0091255397            6 
 1679000   0.59875944   -8.8978452    210.55666    0.0104505 0.0091171738            4 
 1680000   0.58074237   -8.8647153    210.57045  0.010444963 0.0091088165            6 
 1681000   0.58215909   -8.9005588    209.81631  0.010401364 0.0091004707            4 
 1682000   0.59020106   -8.8818223    210.27875  0.010418091 0.0090921158            5 
 1683000   0.59547506   -8.8837957    210.36956  0.010416397 0.0090837661            8 
 1684000   0.57661475   -8.8956388    210.22826  0.010403219  0.009075437           14 
 1685000   0.58058057   -8.8893942     209.9038  0.010380999 0.0090671152            3 
 1686000   0.58301595   -8.9006433    209.45112  0.010352467 0.0090587894           11 
 1687000   0.57859415   -8.9042051    210.32751  0.010389622 0.0090504822            5 
 1688000   0.56719803   -8.8963845    209.92895  0.010363791 0.0090421877            6 
 1689000   0.58319908   -8.8843627    210.08711  0.010365458 0.0090339029            5 
 1690000   0.57133522   -8.9124258    209.79983  0.010345159   0.00902562            9 
 1691000   0.57704083    -8.911334    210.01735  0.010349761 0.0090173468            5 
 1692000   0.56339344   -8.8953148    209.78517  0.010332209 0.0090090863            4 
 1693000   0.58679594   -8.8854752    210.36323   0.01035456 0.0090008361            4 
 1694000   0.56718484   -8.9083981    210.23681  0.010342228 0.0089925883            5 
 1695000   0.56188811   -8.8894407    210.00858  0.010324905 0.0089843583            4 
 1696000   0.57416044   -8.8955255    210.04269  0.010320494 0.0089761408            8 
 1697000   0.57608797   -8.8697395    210.45403  0.010334612  0.008967927            7 
 1698000   0.57208748   -8.8901128    210.11886  0.010312076 0.0089597244           17 
 1699000   0.56680597    -8.884558    210.22247  0.010311088  0.008951536            9 
 1700000   0.58392181   -8.8832558    209.75386  0.010282052  0.008943348            3 
 1701000   0.56716686   -8.8916964     210.0318  0.010289624 0.0089351667            3 
 1702000   0.57305675    -8.901275    210.40795  0.010301995 0.0089269956            7 
 1703000    0.5774339   -8.9060499    210.02103  0.010277012 0.0089188411            5 
 1704000   0.56842915   -8.8883374    210.19284  0.010279384 0.0089106732            3 
 1705000   0.56247583   -8.9008754     209.8317  0.010255704 0.0089025274            6 
 1706000   0.57511005   -8.8943416    209.71846  0.010244161 0.0088943939           10 
 1707000   0.57335829   -8.9264445    209.91019   0.01024752 0.0088862661            6 
 1708000   0.58206818   -8.9055637    210.17555  0.010254467 0.0088781443           10 
 1709000   0.56571245   -8.9379111    210.11443  0.010245486 0.0088700297            9 
 1710000   0.57895975   -8.9053179     210.1045  0.010239011 0.0088619285           12 
 1711000   0.57779316   -8.9117475    209.80472  0.010218426 0.0088538289            6 
 1712000   0.57057032   -8.9127436    209.68078  0.010206424 0.0088457401            3 
 1713000   0.56043879   -8.9099613    209.90122   0.01021119 0.0088376632            8 
 1714000   0.58910319   -8.8989965     210.1961  0.010219569 0.0088295985           10 
 1715000   0.56771716   -8.8979883    209.81803  0.010195239 0.0088215377            7 
 1716000   0.55850823   -8.8929086    210.16659  0.010206225 0.0088134832            7 
 1717000   0.56932547   -8.9286267    210.20107  0.010201954 0.0088054385            7 
 1718000   0.56407751   -8.9236801    209.84735  0.010178859 0.0087973927            9 
 1719000   0.56740832   -8.9194578    209.82826  0.010172012 0.0087893456            6 
 1720000   0.57779711   -8.9141291    209.91304  0.010170206 0.0087813107            8 
 1721000   0.57074616   -8.9163218    209.74275   0.01015605 0.0087733039            4 
 1722000   0.55554738   -8.9130265    209.94573  0.010159975 0.0087653063            4 
 1723000   0.57766432   -8.9135338    209.66129  0.010140322 0.0087573113            8 
 1724000   0.56558638   -8.9226768    209.56858  0.010129959 0.0087493236            4 
 1725000   0.54527167   -8.9439351    209.41473  0.010116654 0.0087413417            9 
 1726000   0.57157105   -8.9239139    210.25831  0.010151522 0.0087333715            9 
 1727000   0.56116676   -8.9307845    209.73979  0.010120623 0.0087254019            6 
 1728000   0.54737654   -8.9252603    209.94452  0.010124639 0.0087174423            3 
 1729000    0.5589909   -8.9267668    209.85012  0.010114234 0.0087094903            5 
 1730000   0.55977077   -8.9002332    209.60168   0.01009642 0.0087015419            4 
 1731000   0.55407814   -8.9098494    209.91348  0.010105598 0.0086936095            8 
 1732000   0.55413014   -8.9282441    209.86905  0.010097626 0.0086856875            4 
 1733000   0.55423997   -8.9286552      209.521  0.010075062 0.0086777815           10 
 1734000   0.55048321   -8.9287419    209.68936  0.010077343 0.0086698888            5 
 1735000   0.56880599    -8.917887    209.65409  0.010069841 0.0086620002            9 
 1736000   0.56089833   -8.9443722     209.8673  0.010074275 0.0086541234            5 
 1737000   0.55411042   -8.9176618     209.7209  0.010061452 0.0086462468           10 
 1738000   0.55917458   -8.9392782    209.71423  0.010055343 0.0086383936            7 
 1739000   0.56674999   -8.9119299    209.59766  0.010043974 0.0086305457            7 
 1740000   0.56112694   -8.9079779    210.19904  0.010067004 0.0086226989            6 
 1741000   0.56023162    -8.938342    209.71106  0.010037864 0.0086148615            3 
 1742000   0.55021823   -8.9298504    209.53685  0.010023768 0.0086070253            3 
 1743000   0.55374453   -8.9334845    209.63996  0.010022947 0.0085991878            7 
 1744000    0.5550083     -8.94388    209.45656  0.010008437 0.0085913638            3 
 1745000   0.55920908   -8.9276527    209.74837  0.010016636 0.0085835538            7 
 1746000   0.55723515   -8.9375688    209.61426  0.010004499 0.0085757554            5 
 1747000   0.55212093   -8.9237859    209.68461  0.010002128 0.0085679591            6 
 1748000   0.56821651   -8.9261025    209.71442 0.0099978273 0.0085601833            4 
 1749000   0.55489735    -8.950685    209.47625 0.0099807628  0.008552411            4 
 1750000   0.53965229    -8.931196    209.44887 0.0099737556 0.0085446445            7 
 1751000   0.55838079   -8.9540127    209.33502 0.0099626415 0.0085368916            6 
 1752000   0.55450117   -8.9388303    209.52656 0.0099660656  0.008529142           13 
 1753000   0.55152567   -8.9399427    209.52825 0.0099604604 0.0085214039           15 
 1754000    0.5575551   -8.9222539    209.70677 0.0099632636 0.0085136737            6 
 1755000   0.56877188   -8.9479524    209.29313 0.0099379453 0.0085059504           13 
 1756000   0.54625027   -8.9463822    209.25407 0.0099304322 0.0084982322            5 
 1757000   0.55395427    -8.951988    209.57374 0.0099399422 0.0084905233            6 
 1758000   0.56002976   -8.9718867    209.41377 0.0099267048 0.0084828321            7 
 1759000   0.55787092   -8.9586673    209.30878 0.0099160879 0.0084751453            5 
 1760000   0.54963334   -8.9446729    209.60557 0.0099245062 0.0084674612            5 
 1761000   0.55150423   -8.9562706    209.50623 0.0099141696 0.0084597987            8 
 1762000   0.53878511   -8.9435673    209.52568 0.0099094628 0.0084521456            6 
 1763000   0.55343381    -8.947341    209.57366 0.0099061099 0.0084444952            7 
 1764000   0.55281128   -8.9372391    209.35647 0.0098902341 0.0084368559            6 
 1765000   0.53539112   -8.9376661    209.45032 0.0098890614 0.0084292205            5 
 1766000   0.53719166   -8.9383973    209.58326 0.0098897347 0.0084215975            9 
 1767000   0.54571229    -8.951979    209.59598 0.0098847377 0.0084139743            7 
 1768000   0.55294309    -8.958541    209.06971 0.0098543415 0.0084063668            3 
 1769000   0.55596386   -8.9317217    209.76594 0.0098815686  0.008398773            5 
 1770000   0.54254023   -8.9328492    209.23904 0.0098511791 0.0083911797            3 
 1771000   0.54701039   -8.9569888    209.34094 0.0098504114 0.0083835935            5 
 1772000   0.55554712   -8.9462856    209.19579 0.0098380263 0.0083760306            8 
 1773000   0.55222567   -8.9683529    209.31448 0.0098380558 0.0083684713            7 
 1774000   0.54447745   -8.9409107     209.6031 0.0098460683 0.0083609162           10 
 1775000   0.54831235   -8.9415445    209.41557 0.0098317171 0.0083533755            6 
 1776000   0.54392814   -8.9667134    209.45304 0.0098279393 0.0083458361            6 
 1777000    0.5373873   -8.9660557     209.5464 0.0098267867 0.0083383116            7 
 1778000   0.54741661   -8.9603049    209.42478 0.0098155597 0.0083307891            3 
 1779000   0.54670389   -8.9567887     209.4538 0.0098114016 0.0083232788            5 
 1780000   0.54807075   -8.9582509    209.18734  0.009793415 0.0083157736            5 
 1781000   0.53386868   -8.9563863    209.39852 0.0097977973 0.0083082798           11 
 1782000   0.54193503   -8.9758817    209.28043 0.0097867766 0.0083007967            4 
 1783000   0.54738773   -8.9511663    209.02177 0.0097691983 0.0082933222           11 
 1784000    0.5410913    -8.974687    209.23787 0.0097738166 0.0082858493            6 
 1785000   0.54165033   -8.9806663    209.26064 0.0097694045 0.0082783881            5 
 1786000   0.54428754    -8.986738     209.0582 0.0097544884 0.0082709373            7 
 1787000   0.54053577   -8.9536125    209.12117 0.0097519666 0.0082634903            3 
 1788000   0.53838062   -8.9568045    209.26387 0.0097531632  0.008256055            6 
 1789000   0.53328057   -8.9786496     209.4569 0.0097567031 0.0082486248            3 
 1790000   0.53627375   -8.9548507    209.06817 0.0097331551 0.0082412075            6 
 1791000   0.54028779   -8.9751029    209.47777  0.009746779 0.0082337929            8 
 1792000   0.54207876   -8.9757894     209.6041 0.0097472142 0.0082263987            7 
 1793000   0.53377236   -8.9752856    209.15995 0.0097211353 0.0082189986            5 
 1794000    0.5321811   -8.9767059    209.35467 0.0097247615 0.0082116116            6 
 1795000   0.53277334   -8.9821173    209.37565 0.0097203182 0.0082042414            6 
 1796000   0.53867707   -8.9700406    209.48529 0.0097199932   0.00819688            7 
 1797000   0.53788826   -8.9554997    209.15675 0.0096993486 0.0081895296            5 
 1798000   0.53966123   -8.9635051    209.06334 0.0096896247 0.0081821851            9 
 1799000   0.54340824   -8.9653038     209.1327 0.0096874514 0.0081748526            8 
 1800000   0.54172059     -8.96802    209.17252 0.0096839128 0.0081675185            8 
 1801000   0.53886063   -8.9593494    209.22175 0.0096808139 0.0081601943            5 
 1802000   0.53396997   -8.9656931    209.21121 0.0096749544 0.0081528816            8 
 1803000   0.53133535    -8.962237    209.26092 0.0096718855 0.0081455681            8 
 1804000   0.52036253   -8.9729336    209.34298  0.009670315 0.0081382671            7 
 1805000   0.54023861   -8.9822828    209.47888 0.0096712315 0.0081309715           11 
 1806000   0.52263698   -8.9747577    209.24429 0.0096550523 0.0081236833            4 
 1807000   0.53213321   -8.9592592    209.08317 0.0096422788 0.0081164086            8 
 1808000   0.54048539   -8.9803917    209.60554 0.0096610222 0.0081091371            5 
 1809000   0.54157177    -8.961638    209.30562 0.0096418657 0.0081018751            6 
 1810000   0.53601199   -8.9833085     209.1961 0.0096314962 0.0080946247           10 
 1811000   0.52791175   -8.9820419    209.29204 0.0096305924 0.0080873844           10 
 1812000   0.52228293   -8.9765361     209.3538  0.009628118 0.0080801472            7 
 1813000   0.53390686   -8.9733454    209.33179 0.0096217957 0.0080729183            6 
 1814000   0.52706861   -8.9895343    209.38773 0.0096190615 0.0080656984            5 
 1815000   0.53045605   -8.9783874    208.98052 0.0095950651 0.0080584962            8 
 1816000   0.54162999   -8.9884593    208.82355 0.0095825783 0.0080512901            7 
 1817000    0.5237383    -8.965407    209.09996 0.0095899817 0.0080441025            7 
 1818000   0.52942528   -8.9824545    208.99072 0.0095796993 0.0080369212            9 
 1819000   0.53510975    -8.992585    209.20038 0.0095840378 0.0080297445            5 
 1820000   0.53232653   -8.9739875    209.05029 0.0095718995 0.0080225662            7 
 1821000   0.52305982   -8.9788147    208.64735  0.009548204 0.0080154046            6 
 1822000   0.52347855    -8.968594    209.17361  0.009567033 0.0080082407            6 
 1823000   0.52250282   -8.9803814      209.005 0.0095540774 0.0080010947            7 
 1824000    0.5196787   -8.9781173     208.9582 0.0095467012 0.0079939468            7 
 1825000   0.53225798    -9.005664      209.267 0.0095555709 0.0079868086           15 
 1826000   0.52100412   -8.9946286     208.9147 0.0095342599 0.0079796765           11 
 1827000   0.51998592   -8.9871332    208.96463 0.0095313188 0.0079725577           18 
 1828000   0.50524621   -8.9863595    208.87768 0.0095221409 0.0079654463           12 
 1829000   0.51900158   -8.9719263    209.22143 0.0095325966 0.0079583377            9 
 1830000   0.52738708   -8.9877508    209.13573 0.0095234852 0.0079512458           12 
 1831000   0.52450092   -8.9724988    208.89202 0.0095071918  0.007944156            9 
 1832000   0.52429093   -8.9879183    209.19796 0.0095159189 0.0079370734           11 
 1833000   0.52164768   -8.9786052    208.76772 0.0094911673 0.0079299911           11 
 1834000   0.52340893   -8.9859581    208.81442 0.0094881145 0.0079229222            8 
 1835000   0.52364247   -8.9871266      208.995 0.0094911444  0.007915866            4 
 1836000   0.53085365   -8.9947638    208.73321 0.0094740926 0.0079088187            9 
 1837000   0.51624448   -8.9782962    208.95628 0.0094790546 0.0079017865            6 
 1838000    0.5116701    -8.985563    209.19708 0.0094848152 0.0078947677           13 
 1839000   0.51635709   -9.0173775    208.88698 0.0094656053 0.0078877486            6 
 1840000    0.5151824   -9.0030106    209.21591 0.0094753582 0.0078807429            5 
 1841000   0.51097773   -8.9847296    209.14283 0.0094669034 0.0078737423            9 
 1842000   0.52214486    -8.989152    209.08351 0.0094590802 0.0078667546            8 
 1843000   0.51034189   -8.9955992    208.90946  0.009446078 0.0078597612            7 
 1844000   0.51082748   -9.0037443    209.11307 0.0094501568 0.0078527716           10 
 1845000   0.50164998   -8.9960083    208.87656 0.0094343522 0.0078457988           11 
 1846000   0.50269066   -8.9999034    209.00817 0.0094351826 0.0078388298           10 
 1847000   0.52050922   -9.0005174     209.1573 0.0094368031 0.0078318742            9 
 1848000   0.51739703   -9.0066054    208.59686  0.009406424 0.0078249306           11 
 1849000   0.50710646   -9.0200789    208.47692 0.0093959311 0.0078179852            7 
 1850000   0.52534886   -9.0070397    209.14655 0.0094210158 0.0078110498            9 
 1851000    0.5174459   -8.9914385    209.09446 0.0094135809 0.0078041317            8 
 1852000   0.50756427   -9.0107404    208.91358 0.0094003589 0.0077972153            7 
 1853000   0.50986917   -9.0357059    208.97154 0.0093978927 0.0077902992           26 
 1854000   0.51279579   -9.0087418     208.6992 0.0093805826 0.0077834012           15 
 1855000   0.50624994   -8.9847778    208.97221 0.0093877902 0.0077765053            7 
 1856000   0.51545732   -9.0140488     208.6539 0.0093684402 0.0077696251            8 
 1857000   0.50693854   -9.0033636    208.76415 0.0093683425 0.0077627492            6 
 1858000   0.51050324   -9.0195783    209.14182 0.0093802394 0.0077558796            8 
 1859000   0.51483514   -8.9948695    208.80687  0.009360179  0.007749016            8 
 1860000   0.51874688   -8.9867554    208.82933 0.0093561526 0.0077421692            8 
 1861000   0.51260868   -9.0232216    208.71519 0.0093460144 0.0077353189            9 
 1862000   0.49956266   -9.0148063     208.7704 0.0093434659 0.0077284796            6 
 1863000   0.51552315   -9.0099805    208.55228  0.009328694 0.0077216466            9 
 1864000   0.51733085   -9.0029033    208.73529 0.0093318711 0.0077148213            7 
 1865000   0.49795001   -9.0140758    208.77423 0.0093286073 0.0077080043           10 
 1866000   0.50032959   -9.0194119    208.47895 0.0093104211 0.0077011898           11 
 1867000   0.51035006   -9.0255028    208.87196 0.0093229763  0.007694387            5 
 1868000   0.51115779   -8.9983706    208.78009  0.009313887 0.0076875934           20 
 1869000   0.51209651   -9.0138647    208.85717 0.0093123402 0.0076808026            8 
 1870000   0.49702632   -9.0083587    208.60718 0.0092962199 0.0076740219            9 
 1871000    0.5041629   -9.0358581    208.97324 0.0093075555 0.0076672435            6 
 1872000   0.50633231   -9.0219614    208.62313 0.0092869984 0.0076604785            8 
 1873000   0.51138186   -9.0100987     208.9219 0.0092953329 0.0076537194           14 
 1874000   0.50784399   -9.0218076    208.99006 0.0092934035  0.007646973            8 
 1875000   0.52401422   -9.0162634    208.84684 0.0092820819 0.0076402268           13 
 1876000   0.50942341   -9.0154032    208.93158 0.0092808984  0.007633492           14 
 1877000   0.50704925   -9.0041109    208.32082 0.0092488376 0.0076267628            8 
 1878000   0.50686716    -9.013551    208.78671 0.0092645858 0.0076200399            8 
 1879000   0.50189397   -9.0342627    208.81899 0.0092610869 0.0076133286           13 
 1880000   0.48856261   -9.0088571    208.52443 0.0092431041 0.0076066257           14 
 1881000   0.49329937   -9.0422336    208.46278 0.0092354589 0.0075999283           12 
 1882000    0.5053349   -9.0235887    208.66605 0.0092395524 0.0075932435           13 
 1883000   0.50970317   -9.0212122    208.64916 0.0092338982  0.007586567           10 
 1884000   0.51064701   -9.0341213    208.78526 0.0092350167 0.0075798982           11 
 1885000   0.50027632   -9.0186757    208.27331 0.0092074851 0.0075732217           12 
 1886000   0.51024793   -9.0198525    208.88463 0.0092296142 0.0075665579            9 
 1887000    0.5042641   -9.0144145    208.74504 0.0092185583 0.0075599033           12 
 1888000   0.50486388   -9.0236069    209.03135  0.009226313  0.007553259            8 
 1889000   0.49879731   -9.0126597    208.38492 0.0091929115 0.0075466242           17 
 1890000   0.49297167   -9.0377426    208.71967 0.0092028073 0.0075399904           12 
 1891000   0.49909321    -9.020144    208.28948 0.0091789829 0.0075333793            8 
 1892000   0.50686906   -9.0212557     208.6539 0.0091901822 0.0075267671           13 
 1893000   0.50247977   -9.0250951     208.7864 0.0091911605 0.0075201592           12 
 1894000   0.49503461   -9.0245184    208.26228 0.0091632471 0.0075135576            9 
 1895000   0.49705462   -9.0211713    208.73264  0.009179096 0.0075069644           10 
 1896000   0.48946178   -9.0314714    208.41753 0.0091604048 0.0075003795           10 
 1897000    0.4861717   -9.0162754    208.70726 0.0091683034 0.0074937934           11 
 1898000   0.49507228   -9.0307961    208.55286  0.009156694 0.0074872199           11 
 1899000   0.50147642   -9.0347871    208.73516 0.0091598721 0.0074806515           25 
 1900000   0.47893729   -9.0139745    208.58105 0.0091482916 0.0074740872           10 
 1901000    0.4895503   -9.0308698    208.63045 0.0091456447   0.00746754           11 
 1902000   0.49950093   -9.0278872    208.41159 0.0091312475 0.0074609903           11 
 1903000   0.50033231   -9.0455694    208.62286 0.0091357005 0.0074544532            5 
 1904000   0.49352786   -9.0186373    208.50991 0.0091259588 0.0074479319            9 
 1905000   0.49552778   -9.0341782    208.70209 0.0091295754 0.0074414066           12 
 1906000   0.48290696   -9.0295065    208.63919 0.0091220352 0.0074348964            6 
 1907000   0.48955394   -9.0258657    208.38389 0.0091060957  0.007428386           23 
 1908000   0.48523259   -9.0401323    208.61054 0.0091112219 0.0074218784           10 
 1909000   0.49448012   -9.0490067    208.41702 0.0090980014 0.0074153874           11 
 1910000   0.49979511     -9.03706    208.54948 0.0090990176 0.0074089071           14 
 1911000   0.48911237   -9.0439653    208.52462 0.0090931718 0.0074024224            8 
 1912000   0.47876928   -9.0304121    208.61062 0.0090921646 0.0073959532           10 
 1913000    0.4844927   -9.0449793    208.73584 0.0090928665 0.0073894979            9 
 1914000   0.48879198   -9.0409951    208.75061 0.0090887586 0.0073830494            8 
 1915000   0.48938965   -9.0582404    208.46536 0.0090715996 0.0073766015           11 
 1916000   0.48885148   -9.0277348    208.42798 0.0090652393 0.0073701596           10 
 1917000   0.48217126   -9.0587453    208.63044 0.0090693113 0.0073637303           15 
 1918000   0.49621519   -9.0342607    208.61164 0.0090637661 0.0073573065            8 
 1919000   0.48478032   -9.0382977    208.16912 0.0090398262 0.0073508898            9 
 1920000   0.49021179    -9.041522    208.40107 0.0090451852 0.0073444816           13 
 1921000   0.49595317   -9.0522225    208.74523 0.0090554066 0.0073380768           12 
 1922000   0.47432667   -9.0396423    208.60295 0.0090445261 0.0073316875            9 
 1923000   0.48357134    -9.049147    208.48172 0.0090345694 0.0073252981            8 
 1924000   0.48539182   -9.0539021    208.25582 0.0090200891 0.0073189172           12 
 1925000   0.47875916   -9.0603381    208.35694  0.009019781  0.007312542            9 
 1926000   0.47535767   -9.0555729    208.45564 0.0090193681 0.0073061699            9 
 1927000   0.47902488   -9.0348179    208.52379 0.0090176349 0.0072998122            8 
 1928000   0.48888056   -9.0487266    208.22048 0.0089998479 0.0072934547            6 
 1929000   0.48745339    -9.046505    208.37458 0.0090018393 0.0072871151           16 
 1930000   0.46901445   -9.0489845    208.53207 0.0090039752 0.0072807705           11 
 1931000   0.48148185   -9.0491909    208.39477 0.0089933871 0.0072744372            7 
 1932000   0.48441159   -9.0549484     208.3107 0.0089851061 0.0072681153           10 
 1933000   0.47900151   -9.0653169    208.34363 0.0089818775 0.0072618015            6 
 1934000   0.47976052   -9.0434494      208.627 0.0089894434 0.0072554861           13 
 1935000   0.48098943   -9.0639832    208.42258  0.008975994 0.0072491808            9 
 1936000   0.48174285   -9.0527239    208.41507 0.0089710344 0.0072428842            9 
 1937000    0.4781432   -9.0618855    208.21225 0.0089576771 0.0072365901            6 
 1938000   0.48424076   -9.0585255     208.2009  0.008952567 0.0072303023           10 
 1939000   0.48678215   -9.0482863    208.16827 0.0089465476 0.0072240273            9 
 1940000   0.48289445   -9.0681447    208.25206 0.0089455351 0.0072177532           13 
 1941000   0.47914351   -9.0722149    208.53003 0.0089528605 0.0072114935            7 
 1942000   0.49100022   -9.0534024    208.51163  0.008947461 0.0072052382            7 
 1943000   0.47871927   -9.0696889    208.41814 0.0089388464 0.0071989873            7 
 1944000   0.47932541   -9.0782461    208.09917 0.0089205747 0.0071927415            9 
 1945000   0.48216165   -9.0635513    208.22847 0.0089215284 0.0071865014           11 
 1946000   0.47614352   -9.0730857    207.91061  0.008903332 0.0071802687            7 
 1947000   0.47125477    -9.046007    208.14998 0.0089090045 0.0071740434            3 
 1948000   0.46724728   -9.0681586    208.42976 0.0089163996 0.0071678281            8 
 1949000   0.47739856   -9.0612579    208.01479 0.0088940819 0.0071616203           10 
 1950000   0.47282684   -9.0734379    208.22395 0.0088984595 0.0071554175           15 
 1951000   0.46790386   -9.0725649    208.13347 0.0088900339 0.0071492232            7 
 1952000   0.47384615   -9.0769989    208.18896 0.0088878484 0.0071430346            8 
 1953000   0.46104703   -9.0441761    208.40258 0.0088924126 0.0071368522           15 
 1954000   0.48633092   -9.0705399    208.19833 0.0088791511 0.0071306765            9 
 1955000   0.46818304   -9.0665316     208.1864 0.0088741007 0.0071245095            6 
 1956000   0.46863116   -9.0531902    208.26891  0.008873079 0.0071183433            6 
 1957000    0.4722187   -9.0748471    208.25939 0.0088681397 0.0071121849           13 
 1958000   0.48159526   -9.0553621    208.26431 0.0088638196 0.0071060362            6 
 1959000   0.47525379   -9.0603334      208.273 0.0088596646 0.0070998977            9 
 1960000   0.46476708   -9.0754986    208.43512 0.0088620375 0.0070937633            9 
 1961000   0.46237217   -9.0490664    208.45433 0.0088583347 0.0070876415           10 
 1962000   0.47397793   -9.0887051    207.77265  0.008824866 0.0070815232            8 
 1963000    0.4652905   -9.0816254    208.08452 0.0088336099 0.0070754098            7 
 1964000   0.46033833   -9.0682044     207.9165 0.0088219833 0.0070693068            7 
 1965000   0.47502994   -9.0819748    208.17196 0.0088283275 0.0070632091            8 
 1966000   0.47942202   -9.0722477    208.17666 0.0088240363 0.0070571147           19 
 1967000   0.47298601    -9.080241    208.25775 0.0088229856 0.0070510262           10 
 1968000    0.4598241    -9.063638    207.91972 0.0088041885   0.00704494            6 
 1969000   0.47849776   -9.0684991    208.01739 0.0088038511 0.0070388601            8 
 1970000   0.46228713    -9.081991    208.13688 0.0088044363 0.0070327896           10 
 1971000   0.47124419   -9.0959533    208.17845 0.0088017273 0.0070267264           13 
 1972000   0.46222584     -9.10477    208.02502 0.0087907799 0.0070206733            7 
 1973000   0.46538828    -9.087259       207.93 0.0087823113 0.0070146223           10 
 1974000   0.46416093   -9.0813182    208.14614 0.0087869868 0.0070085825            6 
 1975000   0.46985512   -9.0761666     207.9351 0.0087736328  0.007002551            9 
 1976000    0.4580943   -9.0961136    208.18532 0.0087797454 0.0069965255            9 
 1977000   0.46401963   -9.0936335    207.96647 0.0087660793 0.0069905041            9 
 1978000   0.47006778   -9.0812013    208.01013 0.0087634872 0.0069844884            8 
 1979000   0.48154013   -9.0636754    208.22993 0.0087683146 0.0069784851           17 
 1980000   0.46820139   -9.0783429    207.82914 0.0087470177 0.0069724869           10 
 1981000   0.46322637   -9.0821204    207.98445 0.0087491357 0.0069664867            5 
 1982000   0.45630198   -9.0746298    208.08865 0.0087491024 0.0069605014            5 
 1983000   0.45929193   -9.0920494    207.95969  0.008739271 0.0069545226            6 
 1984000   0.45737335   -9.0779616    207.90582 0.0087326033 0.0069485495           10 
 1985000   0.45415194   -9.0877503    208.43031 0.0087502231  0.006942585           16 
 1986000   0.46847683   -9.0709061    207.97409 0.0087266738 0.0069366233            9 
 1987000   0.45833317   -9.0720334    208.03923 0.0087250138 0.0069306734           13 
 1988000   0.47291777   -9.0956244    207.70351 0.0087065522 0.0069247276           16 
 1989000   0.46416256   -9.0843959    208.24268 0.0087247643 0.0069187975            8 
 1990000   0.45553299   -9.0987195    207.98132 0.0087094356 0.0069128656           22 
 1991000   0.45965664   -9.0895242    208.07645 0.0087090429 0.0069069432            6 
 1992000    0.4501773   -9.0918391     207.9483 0.0086993099 0.0069010334            6 
 1993000    0.4551284   -9.0912296    207.76677 0.0086873546 0.0068951223           10 
 1994000   0.44892398   -9.0862062    207.88235 0.0086878281 0.0068892201           12 
 1995000   0.45733196   -9.0840526     208.2435 0.0086985589 0.0068833317            8 
 1996000   0.45593129   -9.1054815     208.1376 0.0086897796 0.0068774454            8 
 1997000   0.45754054   -9.0938148    208.00652 0.0086799584 0.0068715653            6 
 1998000   0.45969303   -9.0791013    207.97288  0.008674211 0.0068656881            9 
 1999000   0.45734312   -9.0882643    208.32206 0.0086844279 0.0068598236           10 
 2000000    0.4471136   -9.0927602    207.93877 0.0086641153 0.0068539642            9 
 2001000   0.45191223   -9.1029307    208.30915 0.0086752105 0.0068481105            7 
 2002000   0.46015512   -9.1031296    207.89485 0.0086536318 0.0068422564           10 
 2003000   0.44463389   -9.0894291    207.86059 0.0086478862 0.0068364185            9 
 2004000   0.45638889   -9.0902056    207.98505 0.0086487463 0.0068305773            5 
 2005000   0.46292896   -9.0912711    207.66946 0.0086313157 0.0068247398            7 
 2006000     0.451168   -9.0827071    208.09839 0.0086448319 0.0068189157            8 
 2007000   0.44527738   -9.1053689     208.1768 0.0086437803  0.006813098            8 
 2008000   0.45579204   -9.1029661    207.99937  0.008632112 0.0068072846            7 
 2009000   0.45435006   -9.1026306    208.13541 0.0086334583 0.0068014764            9 
 2010000   0.43811262   -9.1111749    207.76211 0.0086136862 0.0067956758            6 
 2011000   0.45175906   -9.1150513    207.98399 0.0086185974 0.0067898716           15 
 2012000   0.45272913   -9.1104733    208.09491 0.0086189079  0.006784083           16 
Loop time of 5097.83 on 48 procs for 2000000 steps with 4000 atoms

Performance: 67793.567 tau/day, 392.324 timesteps/s
99.4% CPU use with 48 MPI tasks x no OpenMP threads

MPI task timing breakdown:
Section |  min time  |  avg time  |  max time  |%varavg| %total
---------------------------------------------------------------
Pair    | 351.37     | 376.12     | 392.76     |  47.7 |  7.38
Neigh   | 33.639     | 35.046     | 36.384     |  11.6 |  0.69
Comm    | 323.23     | 343.76     | 374.66     |  64.7 |  6.74
Output  | 4.1201     | 4.1224     | 4.1674     |   0.3 |  0.08
Modify  | 4281.4     | 4291.8     | 4311.3     |  10.9 | 84.19
Other   |            | 47.02      |            |       |  0.92

Nlocal:        83.3333 ave          90 max          75 min
Histogram: 1 0 5 3 12 4 11 5 5 2
Nghost:        2255.46 ave        2276 max        2236 min
Histogram: 1 3 4 9 7 8 8 5 1 2
Neighs:        15161.8 ave       17037 max       13604 min
Histogram: 1 4 9 4 12 6 5 4 2 1
FullNghs:      30322.9 ave       32798 max       27019 min
Histogram: 1 0 4 4 8 8 11 5 5 2

Total # of neighbors = 1455501
Ave neighs/atom = 363.87525
Neighbor list builds = 106639
Dangerous builds = 0

#clear
#
#next RN
#
#jump SELF
Total wall time: 1:25:01
