
units lj                  # Use reduced LJ style units
atom_style atomic         # Uncharged point particles
atom_modify map hash      # Needed for indexing of clusters etc
                          # Used to be able to find where atoms are in relation to each other.

lattice fcc 1.0 spacing 1 1 1
Lattice spacing in x,y,z = 1.5874011 1.5874011 1.5874011
region box block 0 10 0 10 0 10 units lattice
create_box 2 box
Created orthogonal box = (0.0000000 0.0000000 0.0000000) to (15.874011 15.874011 15.874011)
  3 by 4 by 4 MPI processor grid
create_atoms 1 box
Created 4000 atoms
  using lattice units in orthogonal box = (0.0000000 0.0000000 0.0000000) to (15.874011 15.874011 15.874011)
  create_atoms CPU = 0.002 seconds
set type 1 type/fraction 2 0.21 78393
Setting atom values ...
  872 settings made for type/fraction
mass 1 1.0
mass 2 1.0
pair_style lj/cut  3.5
pair_modify tail  yes
pair_coeff 1  1  1.0  1.0   # Intearaction between 1 and 1 set with epsilon = 1 and sigma = 1
pair_coeff 1  2  1.5  0.8
pair_coeff 2  2  0.5  0.88

write_data data.0
System init for write_data ...
Neighbor list info ...
  update every 1 steps, delay 10 steps, check yes
  max neighbors/atom: 2000, page size: 100000
  master list distance cutoff = 3.8
  ghost atom cutoff = 3.8
  binsize = 1.9, bins = 9 9 9
  1 neighbor lists, perpetual/occasional/extra = 1 0 0
  (1) pair lj/cut, perpetual
      attributes: half, newton on
      pair build: half/bin/atomonly/newton
      stencil: half/bin/3d
      bin: standard
WARNING: Not all mixed pair coeffs generated from mixing. Use write_data with 'pair ij' option to store all pair coeffs. (../write_data.cpp:312)


#############################
#   M E L T   S Y S T E M   #
#############################

velocity all create 2.4 8172548 mom yes dist gaussian # Assign velocities
                                                    # Temperature 2.4, random number seed, zero linear momentum
                                                                                # Gaussian distribution

timestep 0.002   # simulation timestep
thermo 1000       # output thermodynamic data every 1000 steps bf 100

# Define a fix  in this case with index 1 applied to all
# particles in the simulation. This fix is for simulations
# in the anisotropic NPT ensemble. Note that we use the MTK
# correction.
fix 1 all npt temp 2.4 2.4 0.1 iso 5.68 5.68 0.5 mtk yes tchain 5 pchain 5 # Use NPT ensemble
                                                                         # Set temperature and pressure and damping
                                                                         # Numbers of thermostats in chain and in barostat
run 10000          # run for 10000 steps
Per MPI rank memory allocation (min/avg/max) = 3.642 | 3.644 | 3.648 Mbytes
Step Temp E_pair E_mol TotEng Press Volume 
       0          2.4   -6.9803555            0   -3.3812555   -3.6586826         4000 
    1000    2.4161328   -4.8990357            0   -1.2757425    5.5238954    4440.4235 
    2000    2.4051656   -4.8160831            0   -1.2092366    5.6258505     4460.864 
    3000    2.3711801   -4.7737503            0   -1.2178693    5.7173658    4478.0108 
    4000     2.395511    -4.866545            0   -1.2741768    5.9013854    4405.2264 
    5000    2.4161994   -4.8242296            0   -1.2008366    5.8456488    4435.6211 
    6000    2.3500796   -4.8235208            0   -1.2992826    5.9583361    4418.0694 
    7000    2.3504858   -4.8835363            0   -1.3586889    5.6540366    4413.9933 
    8000    2.3849957   -4.8366109            0   -1.2600117    5.5695111    4451.7059 
    9000    2.3787309   -4.8094294            0    -1.242225    5.9270304    4426.6029 
   10000    2.3860345   -4.8198275            0   -1.2416705    5.8882043    4424.2324 
Loop time of 2.41259 on 48 procs for 10000 steps with 4000 atoms

Performance: 716241.804 tau/day, 4144.918 timesteps/s
99.6% CPU use with 48 MPI tasks x no OpenMP threads

MPI task timing breakdown:
Section |  min time  |  avg time  |  max time  |%varavg| %total
---------------------------------------------------------------
Pair    | 0.98777    | 1.0439     | 1.1503     |   3.3 | 43.27
Neigh   | 0.19654    | 0.20625    | 0.23485    |   1.4 |  8.55
Comm    | 0.75506    | 0.8599     | 0.95906    |   4.9 | 35.64
Output  | 0.00023903 | 0.00025235 | 0.00073765 |   0.0 |  0.01
Modify  | 0.2517     | 0.27539    | 0.3212     |   2.9 | 11.41
Other   |            | 0.02689    |            |       |  1.11

Nlocal:        83.3333 ave          91 max          77 min
Histogram: 6 2 6 5 3 14 3 7 1 1
Nghost:        1536.67 ave        1571 max        1507 min
Histogram: 1 2 5 8 11 14 4 1 0 2
Neighs:        8617.44 ave        9764 max        7822 min
Histogram: 7 3 5 9 6 8 4 4 1 1

Total # of neighbors = 413637
Ave neighs/atom = 103.40925
Neighbor list builds = 908
Dangerous builds = 203

# Equilibrate just above the melting temperature to avoid step fn in T

fix 1 all npt temp 1.25 1.25 0.1 iso 5.68 5.68 0.5 mtk yes tchain 5 pchain 5
run 2000
Per MPI rank memory allocation (min/avg/max) = 3.642 | 3.645 | 3.649 Mbytes
Step Temp E_pair E_mol TotEng Press Volume 
   10000    2.3860345   -4.8198275            0   -1.2416705    5.8882043    4424.2324 
   11000    1.2452037   -6.5371777            0   -4.6698391    5.9296844    3616.2192 
   12000    1.2598865   -6.6276655            0   -4.7383083    5.5128234    3613.2268 
Loop time of 0.539236 on 48 procs for 2000 steps with 4000 atoms

Performance: 640906.307 tau/day, 3708.949 timesteps/s
99.5% CPU use with 48 MPI tasks x no OpenMP threads

MPI task timing breakdown:
Section |  min time  |  avg time  |  max time  |%varavg| %total
---------------------------------------------------------------
Pair    | 0.23064    | 0.24564    | 0.27075    |   1.9 | 45.55
Neigh   | 0.032684   | 0.035319   | 0.071038   |   2.8 |  6.55
Comm    | 0.14223    | 0.18967    | 0.22786    |   5.1 | 35.17
Output  | 4.8773e-05 | 5.0119e-05 | 6.3297e-05 |   0.0 |  0.01
Modify  | 0.039691   | 0.064188   | 0.092265   |   7.6 | 11.90
Other   |            | 0.004362   |            |       |  0.81

Nlocal:        83.3333 ave          94 max          71 min
Histogram: 1 1 1 6 13 10 10 2 3 1
Nghost:        1757.48 ave        1789 max        1737 min
Histogram: 6 6 7 6 6 7 4 3 1 2
Neighs:        10574.4 ave       12312 max        8825 min
Histogram: 1 1 2 13 10 5 10 3 1 2

Total # of neighbors = 507572
Ave neighs/atom = 126.89300
Neighbor list builds = 143
Dangerous builds = 8

#############################
# L I N E A R  Q U E N C H  #
#############################

# Define solid atoms. This closely follows ten Wolde  Ruiz-Montero and Frenkel  Faraday Discuss  1996  104  93-110
# Compute components of the per-atom q6 vector
compute q6 all orientorder/atom degrees 1 6 components 6 nnn NULL cutoff 1.3 # compute the Q6 parameter.
                                                                             # Use all neighbours within 1.3 unit cell.

# get number of connections
compute coord_number all coord/atom orientorder q6 0.5

# An atom is solid if it has 8 or more connections (of a possible 14)
variable is_solid atom c_coord_number>=8
group solid dynamic all var is_solid    # Must be dynamic to update
dynamic group solid defined

# do clustering
compute cluster solid cluster/atom 1.3 # Create a cluster where all atoms within are solid and max 1.3 units from another member

# define chunks one chunk per cluster
compute clus_chunks solid chunk/atom c_cluster nchunk every compress yes  # Says which atoms are in which chunk

# count the size of each chunk
compute size_chunks solid property/chunk clus_chunks count


# Find the maximum entry in the vector of chunk sizes
variable max_n equal max(c_size_chunks)


# Thermo style which includes this variable
# thermo_style custom step temp pe vol v_max_n

thermo ${N}  # Print the thermo information every 100 steps
thermo 1000  

# Reset the npt fix at a lower temperature (below freezing)
fix 1  all npt temp  ${temp} ${temp}  0.1  iso  5.68  5.68  0.5  mtk yes tchain  5  pchain  5
fix 1  all npt temp  0.45 ${temp}  0.1  iso  5.68  5.68  0.5  mtk yes tchain  5  pchain  5
fix 1  all npt temp  0.45 0.45  0.1  iso  5.68  5.68  0.5  mtk yes tchain  5  pchain  5

dump dmp2 all dcd ${N} traj.dcd
dump dmp2 all dcd 1000 traj.dcd


compute msd all msd com yes
variable twopoint equal c_msd[4]/6/(step*dt+1.0e-6)
fix 9 all vector 10 c_msd[4]
variable fit equal slope(f_9)/6/(10*dt)
thermo_style custom step temp pe c_msd[4] v_twopoint v_fit v_max_n

fix 1 all npt temp 1.25 ${temp} 0.1 iso 5.68 5.68 0.5 mtk yes tchain 5 pchain 5
fix 1 all npt temp 1.25 0.45 0.1 iso 5.68 5.68 0.5 mtk yes tchain 5 pchain 5
run 2000000 # 5000000  # Run for this many steps
Neighbor list info ...
  update every 1 steps, delay 10 steps, check yes
  max neighbors/atom: 2000, page size: 100000
  master list distance cutoff = 3.8
  ghost atom cutoff = 3.8
  binsize = 1.9, bins = 9 9 9
  4 neighbor lists, perpetual/occasional/extra = 1 3 0
  (1) pair lj/cut, perpetual
      attributes: half, newton on
      pair build: half/bin/atomonly/newton
      stencil: half/bin/3d
      bin: standard
  (2) compute orientorder/atom, occasional
      attributes: full, newton on
      pair build: full/bin/atomonly
      stencil: full/bin/3d
      bin: standard
  (3) compute coord/atom, occasional
      attributes: full, newton on
      pair build: full/bin/atomonly
      stencil: full/bin/3d
      bin: standard
  (4) compute cluster/atom, occasional
      attributes: full, newton on
      pair build: full/bin/atomonly
      stencil: full/bin/3d
      bin: standard
Per MPI rank memory allocation (min/avg/max) = 9.776 | 9.782 | 9.787 Mbytes
Step Temp PotEng c_msd[4] v_twopoint v_fit v_max_n 
   12000    1.2598865   -6.6276655            0            0 8.3333333e+20            1 
   13000     1.247018    -6.626513   0.53339939 0.0034192267   0.04368209            4 
   14000    1.2320768   -6.5847799    1.0711883 0.0063761204  0.044415728            4 
   15000    1.2556398   -6.5980898    1.6194865 0.0089971471  0.044437558            1 
   16000    1.2470733   -6.6238367    2.0808928  0.010837983  0.043430442            1 
   17000    1.2636258   -6.5995521    2.5492574  0.012496359  0.042723642            1 
   18000    1.2366442   -6.6352874    3.0132959  0.013950444  0.041793257            1 
   19000    1.2441641    -6.593113    3.5638187  0.015630783  0.041759272            1 
   20000    1.2602269    -6.620973    4.0693665  0.016955694  0.041723285            2 
   21000    1.2290214   -6.6292174    4.5807072  0.018177409  0.041826527            2 
   22000    1.2581293   -6.5979647    5.0519193  0.019136058  0.041810914            2 
   23000    1.2505449   -6.5519217    5.5416244  0.020078349  0.041707739            1 
   24000    1.2661808   -6.5675097    6.1338482  0.021298083  0.041742286            1 
   25000    1.2504483   -6.5799085    6.5822967  0.021940989  0.041824245            3 
   26000    1.2791252   -6.5737162     7.186563  0.023033855  0.041909743            3 
   27000    1.2539172   -6.5733538    7.7147535  0.023810967  0.042101914            3 
   28000     1.248987   -6.5992172    8.2250716  0.024479379  0.042320143            2 
   29000    1.2428913   -6.6171305    8.7710916  0.025204286  0.042529491            1 
   30000    1.2334936   -6.6491492    9.2669489  0.025741524  0.042644726            2 
   31000    1.2445161    -6.650542    9.6729363  0.026002517  0.042692337            3 
   32000     1.246105   -6.5545936    10.305418  0.026837026  0.042723104            3 
   33000    1.2365084   -6.6201196    10.775654  0.027211246  0.042793301            4 
   34000    1.2592246   -6.5923776    11.310982  0.027722995  0.042807589            3 
   35000    1.2309601   -6.6347867    11.714042  0.027890575  0.042759949            2 
   36000    1.2366636   -6.5757693    12.361798  0.028615274  0.042749736            2 
   37000    1.2489771   -6.6475348     12.81242  0.028856801  0.042764985            2 
   38000    1.2501806   -6.6108167    13.433252  0.029458885  0.042824318            4 
   39000    1.2566305   -6.5974215    14.094785  0.030117061  0.042944734            1 
   40000    1.2366881   -6.5861486    14.570678  0.030355579  0.043040627            1 
   41000    1.2101781   -6.6445094    14.956921  0.030400246  0.043058273            2 
   42000      1.21313   -6.6518966    15.530506  0.030814495  0.043067959            2 
   43000    1.2356898   -6.6365506    15.993844   0.03099582  0.043080572            5 
   44000    1.2132191   -6.5972888    16.490127  0.031231301  0.043082154            1 
   45000    1.2226249   -6.6297797     17.20334  0.031858038  0.043114891            2 
   46000    1.2440181   -6.6516463    17.665778  0.032003221  0.043200403            4 
   47000     1.254518   -6.5965621    18.130122  0.032145606  0.043246423            2 
   48000     1.232345    -6.659484    18.517996  0.032149298  0.043227187            2 
   49000    1.2303629   -6.6352799    18.991987  0.032299297  0.043187926            1 
   50000    1.2379945   -6.6154126    19.545913  0.032576521  0.043155418            2 
   51000    1.2240012   -6.5965368    20.201989  0.033009785  0.043156947            1 
   52000    1.2320186   -6.6383152     20.61732  0.033040576  0.043151812            4 
   53000    1.2424207    -6.600683    21.123362  0.033212833  0.043134707            1 
   54000    1.2088772   -6.5894148    21.589963  0.033317844  0.043105417            2 
   55000    1.2267892   -6.6102666    22.171102  0.033592578  0.043087044            1 
   56000     1.233063   -6.6518832    22.601393  0.033633026  0.043067209            1 
   57000    1.2349851    -6.608719     23.19815  0.033915424  0.043062675            4 
   58000     1.235791    -6.624899    23.719656  0.034079966  0.043053604            1 
   59000    1.2051021   -6.5911551    24.400436  0.034463893  0.043076751            2 
   60000    1.2214723   -6.6480758    24.885154  0.034562714  0.043103769            1 
   61000    1.2244587   -6.6615131    25.151774  0.034360347  0.043103962            2 
   62000     1.204296   -6.6596485    25.644468  0.034468371   0.04307698            2 
   63000    1.2402737    -6.635332    25.989398   0.03437751  0.043029211            1 
   64000    1.2216141   -6.6322074    26.536639  0.034552915  0.042981607            2 
   65000    1.2288744   -6.6522716    26.979747  0.034589419  0.042928279            2 
   66000    1.2443008   -6.6235794    27.466272  0.034679636  0.042871925            1 
   67000    1.2341959   -6.6440236    27.955306  0.034770281  0.042823809            2 
   68000    1.2560854   -6.6115317    28.439233  0.034852001  0.042774885            2 
   69000    1.2276628    -6.625037    29.015111  0.035042404  0.042735571            3 
   70000    1.2139291   -6.6454168    29.441121  0.035048953  0.042684298            1 
   71000    1.1979942   -6.5939465    30.072102  0.035295894  0.042632545            2 
   72000    1.2272944   -6.6142333    30.422493  0.035211219  0.042597678            2 
   73000     1.231067   -6.6318487     31.10175   0.03550428  0.042560701            2 
   74000    1.2501063   -6.6559787     31.38414    0.0353425  0.042524371            1 
   75000    1.2015656    -6.633022      31.8263  0.035362556  0.042483165            2 
   76000    1.2353727   -6.6727878    32.062294  0.035156023   0.04242995            1 
   77000    1.2165001   -6.6185988    32.632589  0.035316654  0.042361619            3 
   78000     1.227458    -6.652178    33.093928   0.03535676  0.042297787            3 
   79000    1.2012449   -6.6250814    33.625785  0.035470237  0.042236517            2 
   80000    1.2058271    -6.668275    34.067905    0.0354874   0.04218592            2 
   81000      1.21436   -6.6605654    34.813787  0.035816653   0.04214858            4 
   82000    1.2372842   -6.6615746    35.507793  0.036085155  0.042128727            2 
   83000    1.1910183   -6.6377622    36.074072  0.036218948  0.042127839            2 
   84000    1.2430814    -6.675157    36.645041  0.036354207  0.042137216            2 
   85000    1.2016871    -6.633008    37.344476  0.036612231  0.042147127            2 
   86000    1.2496301   -6.6587421    37.775522  0.036604187  0.042159752            2 
   87000     1.179081   -6.6861473    38.253265  0.036641058  0.042172673            1 
   88000    1.2308602   -6.6305822    38.963349  0.036897111  0.042187845            3 
   89000     1.214285   -6.6911073    38.986676  0.036504378  0.042198545            2 
   90000    1.2074753   -6.6651768    39.624122  0.036689002  0.042199519            1 
   91000    1.2246242   -6.6596396    40.154197  0.036771242  0.042198488            1 
   92000    1.2209461   -6.6383614    40.764487  0.036924354  0.042193924            2 
   93000    1.2090201   -6.6539896    41.070463   0.03680149  0.042192522            1 
   94000    1.2230328   -6.6159333    41.583977  0.036865228  0.042188595            4 
   95000     1.240109   -6.6308895    42.191913  0.037010449  0.042182583            2 
   96000    1.2185361   -6.6424646    42.397165  0.036803095  0.042172343            1 
   97000    1.1924403   -6.6508317    43.072164  0.037003577  0.042161395            2 
   98000    1.1873857   -6.6490547    43.604203  0.037078404  0.042151107            2 
   99000    1.1910221   -6.6074248    44.189396  0.037196461  0.042150616            1 
  100000    1.1985128   -6.6649353    44.966388   0.03747199  0.042160213            1 
  101000    1.2383703   -6.6935372    45.230652   0.03731902  0.042173814            1 
  102000     1.219051   -6.6383088    46.186416     0.037734  0.042187047            1 
  103000    1.2167127   -6.6970456    46.587389  0.037692062  0.042205232            2 
  104000    1.1979074   -6.6351981    47.045175  0.037696454  0.042215551            3 
  105000    1.2219167   -6.6956091    47.358259   0.03758592     0.042228            1 
  106000    1.2042188   -6.6839841    47.651192  0.037461629   0.04222785            1 
  107000    1.2162932   -6.6649697    48.039013  0.037413561  0.042218477            1 
  108000    1.2072954   -6.6900332    48.672012  0.037555565  0.042204624            2 
  109000    1.2122258    -6.667322    49.332907  0.037716289  0.042193616            1 
  110000    1.1959612   -6.6582181    49.956431  0.037845781  0.042192015            2 
  111000    1.2123373   -6.6807277    50.346863  0.037797945  0.042194683            2 
  112000    1.1936783   -6.6597645    50.807415  0.037803136  0.042199825            1 
  113000    1.2002168   -6.6624967     51.22837  0.037779033  0.042195764            1 
  114000    1.2213316    -6.699519    51.534714  0.037671575  0.042182496            2 
  115000    1.2057617   -6.6536456    52.050868   0.03771802  0.042169878            6 
  116000    1.2184162   -6.6782127    52.534828  0.037740537  0.042155285            2 
  117000    1.1800078   -6.6935145    52.804915  0.037610338   0.04213927            3 
  118000    1.2002643   -6.6730503    53.687842  0.037915143  0.042128373            6 
  119000    1.1792097   -6.7104221     53.95654  0.037784692  0.042120228            1 
  120000    1.2099602   -6.6432418    54.515786  0.037858184  0.042105629            3 
  121000    1.2314144   -6.6541409    54.837491  0.037766867    0.0420944            2 
  122000    1.2089012   -6.7217033    55.296829  0.037771058  0.042080354            1 
  123000    1.1748929   -6.6644497     55.82605  0.037822527  0.042062511            1 
  124000    1.1915871   -6.6790464    56.063315  0.037676959  0.042043972            2 
  125000    1.2191051   -6.6996002    56.510667  0.037673778  0.042017135            1 
  126000    1.2174325   -6.7005268    57.025183  0.037715068  0.041994578            4 
  127000    1.2132585   -6.6650744    57.497287  0.037727879  0.041968068            2 
  128000    1.1913443    -6.675292    58.043851  0.037788966  0.041938953            1 
  129000    1.2100068   -6.6847959    58.281673  0.037649659  0.041912011            2 
  130000    1.1900994   -6.6963562    58.996987  0.037818581  0.041890269            1 
  131000    1.1873109   -6.6544155    59.613347  0.037921977  0.041867912            3 
  132000    1.1913165   -6.7238595    59.935874  0.037838304  0.041846696            3 
  133000    1.1928741   -6.7144015    60.593484  0.037965842  0.041826682            1 
  134000    1.1876977   -6.6759326    61.070585   0.03797922  0.041807853            1 
  135000    1.1793827   -6.6504585    61.418729  0.037912795  0.041785372            1 
  136000    1.1961103    -6.675725     61.87242  0.037912022  0.041762588            2 
  137000    1.1787792   -6.6975981    62.076769  0.037759592  0.041737886            3 
  138000    1.2108314   -6.6238069    62.574835  0.037786736  0.041709203            1 
  139000    1.1764859   -6.6897577    63.258229  0.037924597  0.041684784            1 
  140000     1.197894   -6.6719611    63.848599  0.038005118  0.041664131            2 
  141000    1.2027693   -6.7163912    63.753267  0.037679236  0.041636829            4 
  142000    1.2208372   -6.7610537    64.298021   0.03773358  0.041605309            2 
  143000    1.2203702   -6.6367071    64.952648  0.037851193  0.041573727            1 
  144000    1.1920261   -6.6979963    65.077942  0.037660846  0.041540809            6 
  145000    1.1711379   -6.7204362      65.7409  0.037782126  0.041510408            2 
  146000     1.182145    -6.693031    66.110906  0.037734535  0.041480441            1 
  147000    1.2032651   -6.6975146    66.329395  0.037601698  0.041447402            1 
  148000    1.2106458   -6.6835243    66.989179  0.037719132  0.041412419            2 
  149000    1.2071093   -6.7079225    67.108418  0.037532672  0.041378621            2 
  150000     1.184948   -6.7328632    67.276023  0.037375568  0.041338769            5 
  151000    1.2003367   -6.6818786    67.962574  0.037506939  0.041300346            2 
  152000    1.2138875   -6.7317787      68.3972  0.037498465  0.041262628            1 
  153000     1.158677    -6.685644    68.923804  0.037540198   0.04122172            4 
  154000    1.1933676   -6.6795031    69.078876  0.037380344   0.04118269            1 
  155000    1.2115643   -6.7131467    69.878864  0.037569282  0.041144729            1 
  156000    1.1919616   -6.6797404     70.20716  0.037503824  0.041106378            2 
  157000    1.2134052   -6.6868602    70.705254  0.037529328   0.04106993            2 
  158000    1.1992068   -6.6822642    71.122438  0.037511834  0.041035416            1 
  159000    1.1752337   -6.7133016    71.801885  0.037632015  0.041003818            2 
  160000    1.1673703   -6.6788391      72.0691  0.037535989  0.040969675            4 
  161000    1.1995423   -6.6703044    72.582716  0.037568693  0.040936701            6 
  162000    1.2056537   -6.7021334    73.088271  0.037596847  0.040903334            1 
  163000    1.1941383   -6.7024862    73.415287  0.037533378  0.040868265            5 
  164000    1.2023613   -6.6511631    74.114216  0.037659663  0.040834335            3 
  165000    1.1882416   -6.7221838     74.05039  0.037399187  0.040801166            2 
  166000    1.1934774   -6.7054648     74.35237  0.037325487  0.040764436            4 
  167000    1.2099286   -6.7193295    74.779205  0.037314973  0.040724552            2 
  168000    1.1588651   -6.7023346    75.588605  0.037494348  0.040688464            2 
  169000    1.1592336   -6.7440916    75.666829  0.037311059  0.040655673            2 
  170000    1.2010919   -6.7143212    76.608034  0.037552958  0.040623372            3 
  171000    1.1700354   -6.7152698    77.261693  0.037651897  0.040598393            1 
  172000    1.1872455   -6.7195216    77.504425  0.037550593   0.04057095            1 
  173000    1.1676281   -6.7236897    78.105961  0.037623295  0.040546297            2 
  174000    1.1626268    -6.678788     78.57503  0.037631719  0.040521501            2 
  175000    1.1958298   -6.7264721    78.721942  0.037486639  0.040494823            1 
  176000    1.2230077   -6.7240291    79.373947  0.037582361  0.040469003            2 
  177000    1.1776888    -6.711913    80.236609  0.037776181  0.040446122            2 
  178000    1.1756887    -6.709263    80.652835  0.037758818  0.040426073            1 
  179000     1.158594   -6.7397716    80.833665   0.03763206  0.040403909            1 
  180000    1.1424631   -6.7413154     81.54145  0.037750671  0.040381536            1 
  181000      1.18992   -6.7164973    81.970626  0.037739699  0.040361303            2 
  182000    1.1985383   -6.7291822    82.483514  0.037767177  0.040341484            1 
  183000     1.182631   -6.7093308    83.062931   0.03782465  0.040324364            2 
  184000    1.1795868   -6.7039243      83.4131  0.037777672  0.040308176            1 
  185000    1.1855458   -6.6949502    84.200175  0.037928007  0.040294957            2 
  186000    1.2174621   -6.7584709    84.215354  0.037730893  0.040282231            3 
  187000    1.1834139    -6.744109    84.913987  0.037840458   0.04026863            1 
  188000    1.1960012   -6.7262019    85.493542  0.037896074  0.040253594            2 
  189000    1.1757665   -6.7416364    85.560759  0.037725202    0.0402404            3 
  190000    1.1658338   -6.7099923    86.266805  0.037836318  0.040224163            2 
  191000    1.1921312   -6.7351076    86.932414  0.037928627  0.040207091            3 
  192000    1.1660982   -6.7785061    86.820074  0.037682324  0.040189213            2 
  193000    1.1691315   -6.7280232    87.567129  0.037809641  0.040173223            2 
  194000    1.1635408   -6.6954831    88.440369  0.037989849  0.040157994            2 
  195000    1.1806132   -6.7499285    88.358202  0.037759915  0.040141829            1 
  196000    1.1802775   -6.7190731     88.84522  0.037774328  0.040124541            3 
  197000    1.1717684   -6.7284941      89.3207  0.037783714  0.040108055            4 
  198000    1.1553063     -6.70437    89.702401  0.037753536  0.040093211            2 
  199000     1.188416   -6.7464551    90.220021  0.037780578  0.040077735            2 
  200000     1.205803   -6.7372244     90.88112  0.037867133  0.040061182            1 
  201000    1.2024218   -6.7299833     90.98904  0.037723482   0.04004548            2 
  202000    1.1703875   -6.7630749    91.682497  0.037822812  0.040030221            2 
  203000    1.1742731    -6.748997    91.933598  0.037739572   0.04001266            2 
  204000    1.1700202   -6.7801871    92.003061   0.03758295  0.039993604            4 
  205000    1.2002279   -6.7361261    92.519813   0.03760968  0.039972453            2 
  206000    1.1958676   -6.7510246    93.233009  0.037715618  0.039952539            3 
  207000    1.1784051   -6.7362545    93.522515  0.037649966  0.039931812            2 
  208000    1.1943654   -6.7425636    93.820208  0.037588224  0.039909352            1 
  209000    1.1834628    -6.732956     94.16082  0.037544186  0.039886615            3 
  210000    1.1572819   -6.7399607    94.855158  0.037640936  0.039865674            2 
  211000    1.1501718   -6.7674449     95.29615   0.03763671   0.03984487            1 
  212000    1.1610397   -6.7213397    95.656902  0.037600983  0.039825827            1 
  213000    1.1509358   -6.7421982    95.734588  0.037454847  0.039803275            2 
  214000    1.1563989   -6.7910501     95.78472  0.037299346  0.039778864            1 
  215000    1.1687974   -6.7116553    96.276297  0.037316394  0.039755816            6 
  216000    1.1553995   -6.7544217    96.925059  0.037393927  0.039731515            4 
  217000    1.1487017   -6.7376189    97.194545  0.037325094  0.039706043            2 
  218000    1.1864167   -6.7447622    97.914792  0.037429202  0.039681951            3 
  219000    1.1663476   -6.7132929    98.235626  0.037380375  0.039657153            3 
  220000    1.1540849    -6.720781    98.209973  0.037200747  0.039630211            1 
  221000    1.1489822   -6.7383944    98.535007   0.03715498  0.039604436            1 
  222000    1.1865757    -6.766544    99.201692  0.037237872  0.039577027            2 
  223000    1.1591606   -6.7737213    99.503533  0.037183682  0.039550881            1 
  224000    1.2076083   -6.7845967    99.861462  0.037150841  0.039523723            2 
  225000    1.1655912   -6.7763055    99.954625  0.037020231  0.039497502            2 
  226000    1.1778435   -6.7747764    100.88882  0.037200894  0.039472421            1 
  227000    1.1522401   -6.7373009    101.59127  0.037294887  0.039448635            5 
  228000    1.1653986   -6.7557109    101.94283  0.037259807  0.039425289            2 
  229000     1.162331   -6.7874899     101.9917  0.037114884  0.039401066            3 
  230000    1.1798116   -6.7529337    102.82915   0.03725694  0.039374896            2 
  231000    1.1494901   -6.7512195    103.48298  0.037331524  0.039352785            3 
  232000    1.1321852   -6.7901048    103.48094  0.037169877  0.039331407            1 
  233000     1.179245   -6.7474796    104.10824  0.037234706  0.039310129            3 
  234000    1.1378193   -6.7349664    104.97661  0.037384832  0.039288549            2 
  235000    1.1707691   -6.7853467    104.57624  0.037083773  0.039266786            2 
  236000    1.1530847   -6.8053165    105.48599  0.037247879  0.039245847            4 
  237000    1.1433708   -6.7517454    105.71019  0.037169545  0.039222633            2 
  238000    1.1666093   -6.8089082    106.30067  0.037220124  0.039201326            2 
  239000    1.1646797   -6.7480947    106.71094  0.037207441  0.039182023            2 
  240000    1.1812528   -6.7392573    107.81071  0.037434275   0.03916406            2 
  241000    1.1581768   -6.7617531    107.94867  0.037326649  0.039145816            1 
  242000    1.1737082   -6.7971035    108.02109  0.037197347  0.039127036            3 
  243000    1.1419307   -6.7208073     108.6849  0.037271915  0.039107366            1 
  244000    1.1692718     -6.81183    109.08481  0.037255741  0.039087875            1 
  245000    1.1626845   -6.7669149    109.25768  0.037162475   0.03906837            2 
  246000    1.1585012   -6.7597579    109.73204  0.037172101  0.039049701            2 
  247000    1.1750745   -6.7713185    110.72138  0.037355391  0.039032947            1 
  248000    1.1862281   -6.7991707    110.68916  0.037193937  0.039016276            2 
  249000    1.1373118   -6.7682257    111.43198  0.037293167  0.038997609            1 
  250000    1.1467378   -6.7538569    111.18029  0.037060096  0.038978679            2 
  251000    1.1584961   -6.7777123    112.06817  0.037207228  0.038960213            2 
  252000     1.135586    -6.801381     112.4586   0.03718869  0.038941184            1 
  253000    1.1453168   -6.7654721    112.78244  0.037148367  0.038922502            1 
  254000    1.1393221   -6.7894438    113.07604  0.037098438  0.038902505            2 
  255000    1.1313535   -6.7633661    113.20394  0.036994753  0.038880918            1 
  256000    1.1577843   -6.7601453    113.75385  0.037029249  0.038859308            2 
  257000    1.1518788   -6.7936998    113.74353  0.036881819  0.038837188            2 
  258000    1.1541424   -6.7978375    114.22289  0.036893699  0.038815853            3 
  259000    1.1843113   -6.7639293     114.8038  0.036938161  0.038795166            1 
  260000    1.1588838   -6.7761122    115.32865  0.036964312  0.038774127            2 
  261000    1.1669451   -6.7932076    116.09214  0.037066457  0.038753791            1 
  262000     1.154792   -6.8059669    116.48791  0.037050863   0.03873522            2 
  263000    1.1293327   -6.7833176    116.39167   0.03687949  0.038712937            2 
  264000    1.1796312   -6.7773515    117.04383  0.036945653   0.03869263            2 
  265000    1.1187201   -6.7912742    117.54665  0.036964356   0.03867389            1 
  266000    1.1547476   -6.7952653    117.86739  0.036925873  0.038656452            2 
  267000    1.1678801   -6.8004434    118.70853  0.037050104  0.038639138            3 
  268000    1.1705989    -6.746431    119.10118  0.037033948  0.038622873            3 
  269000     1.146193   -6.8005785    119.51606  0.037024801  0.038604952            1 
  270000    1.1408822   -6.8028106    119.83878  0.036987277  0.038588602            2 
  271000    1.1345884   -6.7787126    120.15646   0.03694848   0.03857117            2 
  272000    1.1502638   -6.7851642    120.66543  0.036968576  0.038553132            2 
  273000    1.1504399   -6.7948899    121.12559  0.036973622  0.038533809            2 
  274000    1.1408214    -6.832808    120.90159  0.036770558  0.038515031            3 
  275000    1.1316318   -6.8190682    121.76388  0.036898145  0.038496221            6 
  276000    1.1346022   -6.8230754    122.11122  0.036869329  0.038477539            1 
  277000    1.1225899    -6.739303    122.59179  0.036880803  0.038458568            2 
  278000     1.126768   -6.8311494    122.56631  0.036740499  0.038438799            3 
  279000    1.1259445   -6.8025527    123.13648  0.036779117  0.038418968            1 
  280000     1.125056   -6.7944834    123.87095  0.036866355  0.038399545            2 
  281000    1.1476381   -6.8020112     124.5391  0.036933305   0.03838184            1 
  282000    1.1413182   -6.8245914    124.91974  0.036914815  0.038365253            2 
  283000     1.143379   -6.8425319    125.22709   0.03687488  0.038348769            3 
  284000    1.1485857   -6.8254009    125.52591  0.036832719  0.038332566            6 
  285000    1.1356733   -6.7809294    126.16654  0.036890802  0.038317081            1 
  286000    1.1086108   -6.8427722    126.16134  0.036760298  0.038300509            1 
  287000    1.1471289   -6.8169265     126.6972  0.036787803  0.038282407            1 
  288000    1.1396254   -6.7877299    127.12711  0.036784465  0.038264257            1 
  289000    1.1109986   -6.8193176    127.06622  0.036639625   0.03824659            4 
  290000    1.1240722   -6.7924425    127.77365  0.036716566  0.038227925            2 
  291000    1.1139834   -6.8617046    127.98255  0.036650215  0.038208963            1 
  292000    1.1219573   -6.8556826    128.87784  0.036780205  0.038191041            2 
  293000    1.1498828     -6.86519    129.00725  0.036691481  0.038173669            1 
  294000    1.1425278   -6.7847676    129.11663  0.036597683  0.038155291            1 
  295000    1.1196594   -6.8106743    129.80044  0.036666791  0.038138177            4 
  296000    1.1539342    -6.786234    130.10537  0.036628763  0.038121537            2 
  297000    1.1628385   -6.8512817    130.46816  0.036607229  0.038103801            1 
  298000    1.1229217   -6.8070238      131.039  0.036644017   0.03808508            1 
  299000    1.1129653   -6.8360562    131.17461  0.036559257  0.038066771            2 
  300000    1.1310235   -6.7776711     131.7016  0.036583779  0.038047047            1 
  301000      1.15916   -6.8470363    131.45917   0.03639512  0.038026729            2 
  302000     1.120163   -6.8236936    131.85958  0.036385095  0.038006933            2 
  303000    1.1465615    -6.854058    132.18668  0.036354973  0.037987246            6 
  304000    1.1506934   -6.7854128    133.06854  0.036477122  0.037968066            2 
  305000    1.1596785   -6.8109248    133.63865  0.036513292  0.037948192            2 
  306000    1.1442478   -6.8228323    133.87854  0.036459297  0.037928947            3 
  307000    1.1388612   -6.8558663     134.0242  0.036380076  0.037909037            2 
  308000    1.1356369   -6.8439337    134.38593  0.036359828  0.037888746            2 
  309000    1.1233323   -6.8046463    134.97065  0.036399851  0.037867946            3 
  310000    1.1467046   -6.8289796      135.006  0.036291936   0.03784878            2 
  311000    1.1375247   -6.8106758    135.90637  0.036416499  0.037828691            1 
  312000    1.1303684   -6.8130097    136.42043  0.036437081  0.037808622            2 
  313000    1.1204245   -6.8304776    136.62968  0.036376379   0.03778918            8 
  314000     1.128399   -6.8577748    136.35303  0.036187109  0.037769585            2 
  315000    1.1436262   -6.8232178    137.26111  0.036312462  0.037749745            1 
  316000    1.1279404   -6.8275297    137.63254  0.036295502  0.037729123            2 
  317000    1.1304743   -6.7968326    137.43675  0.036129534  0.037708406            2 
  318000    1.0900991   -6.8566204    137.87932  0.036131897  0.037686559            6 
  319000    1.1417741   -6.8496572      139.023  0.036317399  0.037665831            2 
  320000     1.144448   -6.8315455    138.56969  0.036085856  0.037646954            2 
  321000    1.1110913   -6.8555905    138.78407  0.036029093  0.037625655            3 
  322000    1.1285826   -6.8497409     139.7887  0.036177199  0.037603762            1 
  323000    1.1471845   -6.8373287    139.92191  0.036099564  0.037583277            3 
  324000    1.1104839   -6.8543798    140.19764  0.036059063  0.037562446            1 
  325000    1.1228311   -6.8882669    140.66196  0.036067169  0.037540982            3 
  326000    1.1155181   -6.8629739    140.92766  0.036024452  0.037519877            2 
  327000    1.1190482   -6.8380675    141.77367  0.036129886   0.03749974            3 
  328000    1.1189718   -6.8565316    142.07723  0.036096857  0.037478386            2 
  329000    1.1442936   -6.8388508    142.02868  0.035974843  0.037456901            2 
  330000    1.1199363   -6.8243344    142.35083  0.035947179  0.037435926            6 
  331000     1.110712   -6.8471112    142.40955   0.03585336  0.037414418            2 
  332000    1.1459429   -6.8491132    143.25902  0.035958589  0.037391862            2 
  333000    1.1120289   -6.8922157    143.07679  0.035805002  0.037369699            2 
  334000    1.1181968   -6.8096784    144.01607  0.035932154  0.037347429            2 
  335000    1.1096638   -6.8114207    144.37023  0.035912991  0.037325209            2 
  336000    1.1308349   -6.8361396    144.45892  0.035828106  0.037302597            2 
  337000    1.1244912   -6.8205405    145.16502  0.035896394  0.037279778            5 
  338000    1.1230856   -6.8334255    145.15074   0.03578667  0.037257164            3 
  339000    1.1447465   -6.7985421    145.56129  0.035782029  0.037234367            1 
  340000    1.1157566   -6.8577282    145.86806  0.035751976  0.037211612            1 
  341000    1.1026341   -6.8896232    145.76926  0.035622987  0.037187838            2 
  342000    1.1381687   -6.8426183    146.79207  0.035768049  0.037165196            2 
  343000    1.1303545   -6.8252693    147.66037  0.035874725  0.037143745            3 
  344000    1.1306331   -6.8795934    147.43336  0.035715447  0.037122244            2 
  345000    1.1098682   -6.8283362    147.87964  0.035719719  0.037100401            1 
  346000    1.1371553   -6.8313836    148.55218  0.035778463  0.037078662            1 
  347000    1.1266449    -6.805366      149.085  0.035803315  0.037058266            3 
  348000    1.1070475   -6.8702693    148.94722  0.035667439  0.037037219            3 
  349000     1.103596   -6.8526003     149.5905  0.035718839  0.037016304            2 
  350000    1.1006804   -6.8472456    149.27937  0.035542706  0.036994946            2 
  351000    1.0978489   -6.8290783    149.82846   0.03557181  0.036973364            2 
  352000    1.1151405   -6.8419323    150.68818  0.035674284  0.036950673            3 
  353000    1.1282396    -6.872968    150.57397  0.035546264  0.036929024            2 
  354000    1.1004738   -6.8478727    151.66549  0.035702798  0.036908138            3 
  355000     1.090412    -6.836086    151.98648  0.035677577  0.036888694            3 
  356000    1.1105355   -6.8899081     151.9233  0.035562569  0.036868817            3 
  357000    1.1101252   -6.8386064    152.88116  0.035686546  0.036849608            2 
  358000    1.1136797   -6.8868691    152.50697  0.035499759  0.036830045            2 
  359000    1.1075981   -6.8559362    153.59594  0.035653654  0.036810474            2 
  360000    1.1332804   -6.8724829    153.82766  0.035608254  0.036790177            2 
  361000    1.0917848   -6.8928411    153.64189  0.035466734  0.036770236            3 
  362000    1.0989943   -6.9308209    154.20443  0.035498258  0.036749256            2 
  363000    1.0839666   -6.8497884    154.23195  0.035406784  0.036728057            1 
  364000    1.1045553   -6.8973313    154.76234  0.035430938  0.036706745            2 
  365000     1.116739   -6.8893107    155.29962  0.035456535  0.036685319            1 
  366000    1.1123108   -6.8860021     155.6736  0.035444809  0.036663401            3 
  367000     1.101286   -6.8834989    155.89179  0.035397771  0.036642197            2 
  368000    1.1059594   -6.8682633    156.65172   0.03547367  0.036622324            2 
  369000    1.0956627   -6.8911272    155.94411  0.035217731  0.036601353            3 
  370000    1.1051038   -6.8413234    157.12493  0.035388497  0.036580717            2 
  371000    1.1240421   -6.8761645    157.38163   0.03535077  0.036560741            2 
  372000    1.1081901   -6.8914864     158.0654  0.035408916  0.036540223            2 
  373000    1.1082883   -6.8719608    158.22501  0.035349646  0.036518953            3 
  374000     1.097004   -6.8597185    158.39786   0.03529364   0.03649771            4 
  375000    1.1132718   -6.8952017     158.3712  0.035193599  0.036475773            1 
  376000    1.0934443   -6.8661159    159.04946  0.035250324  0.036453726            2 
  377000    1.1057465   -6.8508037    159.24169  0.035199312  0.036430973            1 
  378000    1.1030115   -6.8822315    159.32043  0.035123551  0.036408108            3 
  379000      1.14876   -6.8690884    159.18154  0.035000338  0.036386129            2 
  380000    1.0994874   -6.8822423    160.50184  0.035197771  0.036363663            1 
  381000    1.1094284   -6.8648426     160.6111  0.035129286  0.036342264            2 
  382000    1.1325334   -6.8576239    161.02479  0.035127571  0.036321087            2 
  383000    1.0964578   -6.8566722    161.59282  0.035159448  0.036299947            5 
  384000    1.0912638   -6.9231399      161.505  0.035048828  0.036277059            2 
  385000    1.0844806   -6.9083775    161.72787  0.035006032  0.036254493            3 
  386000    1.1122364   -6.9216679    162.01151  0.034976579   0.03623158            2 
  387000    1.1111836    -6.899277    162.00314  0.034884396  0.036209213            1 
  388000    1.1016055   -6.8984287    162.20856  0.034838608  0.036186085            1 
  389000    1.1121134   -6.8938722    163.39243  0.035002663  0.036162683            1 
  390000    1.0935401   -6.8531714    163.36794   0.03490768   0.03613879            3 
  391000     1.120652   -6.8909474    162.99676  0.034739292  0.036115243            3 
  392000    1.0993517   -6.8967547    163.72783  0.034806085  0.036091079            3 
  393000     1.080711   -6.8927265    163.97608  0.034770161  0.036066934            3 
  394000    1.0867303   -6.9140926     164.3259  0.034755901  0.036043206            1 
  395000    1.0939764   -6.8886926    165.16332  0.034844582  0.036020568            2 
  396000    1.0899333   -6.8759245    164.88882  0.034698826  0.035997775            2 
  397000    1.0816717   -6.9099915    165.78489  0.034799516    0.0359747            1 
  398000    1.0933239   -6.8929923    165.69044  0.034692303  0.035951974            2 
  399000    1.0942151   -6.8663868    166.23467   0.03471902  0.035929364            2 
  400000    1.1035791   -6.8948346    166.73388  0.034736224  0.035905993            3 
  401000    1.1007967   -6.8755392    166.56432  0.034614365  0.035882146            1 
  402000    1.1248676   -6.9293593    166.56631  0.034528671  0.035858158            3 
  403000    1.0743895   -6.8892738    166.86789  0.034505353  0.035833477            2 
  404000     1.088859    -6.889983    167.30251  0.034509593  0.035808808            2 
  405000    1.1212646   -6.9333985    167.70156  0.034506494  0.035785377            1 
  406000    1.0910241   -6.9006759     167.8482  0.034451601  0.035761963            5 
  407000     1.097418   -6.8893194    168.91288  0.034584947  0.035737949            3 
  408000    1.0769822   -6.9423045    169.25423  0.034569899  0.035715123            6 
  409000    1.0809126    -6.883827    169.28179  0.034490993  0.035693168            3 
  410000    1.0929161   -6.8674286    170.39771  0.034633681  0.035671868            2 
  411000    1.0763991   -6.9045438    170.66753  0.034604123  0.035650845            1 
  412000    1.0817677   -6.9131039    170.55714  0.034497804  0.035629178            2 
  413000    1.0831085   -6.9580163    170.66328  0.034435689  0.035606638            2 
  414000     1.100798   -6.9140379    171.13001   0.03444646  0.035584259            2 
  415000    1.0687964   -6.8896772     172.1513  0.034568534  0.035562962            1 
  416000    1.0994495   -6.8865696    172.17788  0.034490761  0.035542236            3 
  417000    1.1059447   -6.8964208    172.98766  0.034569876  0.035521537            1 
  418000    1.0910838   -6.9262064    173.38456    0.0345663  0.035500909            1 
  419000    1.0759451    -6.913501     173.3292  0.034472792  0.035480415            2 
  420000    1.0862812   -6.9088317    174.09189  0.034542042  0.035460333            1 
  421000    1.0936284   -6.9126926    174.09365  0.034460343   0.03544064            2 
  422000    1.1021824   -6.9161109    174.64924  0.034488396  0.035420697            2 
  423000    1.0903353   -6.9753586    175.13409  0.034502383  0.035401028            2 
  424000    1.0926159    -6.929625    175.21706  0.034437315  0.035381437            2 
  425000    1.0871412   -6.8869471    176.02227   0.03451417  0.035362818            3 
  426000    1.0875494   -6.9061473    176.04115  0.034436845  0.035343666            3 
  427000    1.0948236   -6.9127437    176.37188  0.034420742  0.035324747            3 
  428000    1.0742763   -6.9278318    176.87982  0.034439218  0.035305475            4 
  429000    1.1073868   -6.9164649    176.76836  0.034337289  0.035286278            3 
  430000    1.0799428   -6.9169256    177.58239  0.034415192  0.035267396            1 
  431000    1.0753546   -6.9450075    177.77778  0.034373121  0.035248473            2 
  432000    1.0827805   -6.9001554    178.06251  0.034348477  0.035229143            4 
  433000    1.0751403   -6.9133163    177.64576  0.034188945  0.035209043            4 
  434000    1.0978311   -6.9729108    176.80039  0.033947847  0.035188217            3 
  435000    1.0867587   -6.9146613    178.53198  0.034201528  0.035166845            4 
  436000    1.0594027   -6.9350258    178.70325   0.03415582  0.035145829            3 
  437000    1.0807944   -6.9668531    179.26661   0.03418509  0.035125342            1 
  438000    1.0710058   -6.9598195    179.40089   0.03413259  0.035104558            1 
  439000    1.0694631   -6.9203608    179.36589  0.034048194  0.035083384            5 
  440000    1.0664167   -6.8729403    180.89907  0.034261187  0.035063084            2 
  441000    1.1064424   -6.9332937    179.91297   0.03399716  0.035041722            1 
  442000      1.10034   -6.9372538    180.12928  0.033961025  0.035019837            2 
  443000    1.0819303   -6.9259175    179.70835  0.033805182  0.034997947            2 
  444000    1.0840567   -6.8996479    180.66881  0.033909312  0.034976254            2 
  445000    1.0771515   -6.9693724    181.11446  0.033916566  0.034954545            1 
  446000      1.07666   -6.9598568    181.70275  0.033950439  0.034932347            3 
  447000    1.0606638   -6.9404958    181.55714  0.033847342  0.034910345            1 
  448000    1.0821423   -6.9399592    182.32423  0.033914477  0.034888206            2 
  449000    1.0581474   -6.9235336    182.29448  0.033833422  0.034866561            3 
  450000    1.0741792   -6.9312186    182.56139  0.033807664  0.034845329            1 
  451000    1.0623186   -6.9333824    182.89371  0.033794107  0.034823964            2 
  452000    1.0393432   -6.9333482    183.56875  0.033843796  0.034802168            2 
  453000    1.0934428   -6.9217973    184.02915  0.033853779  0.034780321            1 
  454000    1.0695322   -6.9554694    183.60863  0.033702024  0.034757941            2 
  455000    1.0792648   -6.9837571    183.62534  0.033631014  0.034734899            2 
  456000    1.0729787   -6.9778025    184.32009  0.033684226  0.034712272            4 
  457000    1.0892789   -6.9415927    184.08063  0.033566854  0.034689774            2 
  458000    1.0724717   -6.9318757    185.01952  0.033664396  0.034666598            2 
  459000     1.071074   -6.9084898    185.03473  0.033593815  0.034644399            3 
  460000    1.0478727   -6.9511597    185.28637  0.033566372  0.034621957            3 
  461000    1.0765325   -6.9095458    185.74303  0.033576109  0.034599521            4 
  462000    1.0806498   -6.9037829    186.06963  0.033562344  0.034577054            2 
  463000    1.0466139   -6.9662784    186.20075  0.033513453   0.03455448            2 
  464000    1.0716633   -6.9280977    186.76657  0.033542847  0.034532002            2 
  465000    1.0729176   -6.9443022    187.54619  0.033610428  0.034510297            1 
  466000    1.0602875   -6.9438231    187.47999  0.033526464  0.034488436            1 
  467000    1.0815859   -6.9597368    187.89764  0.033529201   0.03446644            3 
  468000    1.0568996   -6.9644869    187.69767  0.033421949  0.034444908            1 
  469000    1.0704996   -6.9633401    188.26061  0.033450713  0.034423203            2 
  470000    1.0691565   -6.9694922    189.00885  0.033512207  0.034400868            2 
  471000    1.0792658   -6.9406593    189.32049  0.033496195   0.03437941            2 
  472000    1.0750283   -6.9412387    189.16453  0.033397693  0.034357741            1 
  473000    1.0655642   -6.9721922    189.61739  0.033406869  0.034335665            1 
  474000    1.0681978   -6.9422253    189.58227  0.033330217   0.03431347            3 
  475000    1.0845019   -6.9616682    189.99147  0.033331836  0.034291373            4 
  476000    1.0481614   -6.9809966    190.09448  0.033279846  0.034269466            1 
  477000    1.0464957   -6.9969153    190.07227  0.033206197  0.034246727            2 
  478000    1.0727967   -6.9560034    190.38174  0.033190679  0.034224097            2 
  479000     1.050753     -6.96609    191.01153  0.033230955  0.034201542            4 
  480000    1.0887196   -6.9306677     191.4037   0.03322981   0.03417909            8 
  481000    1.0675096    -6.971121    191.59234  0.033193406  0.034157094            2 
  482000      1.05237   -6.9735081     192.0744  0.033207885  0.034135395            6 
  483000    1.0621573    -6.944885     192.4937  0.033211473  0.034113876            3 
  484000    1.0656645   -6.9693908    192.56495  0.033155123  0.034091942            3 
  485000    1.0750723   -6.9642523    192.88545   0.03314183  0.034069999            2 
  486000    1.0567371   -6.9935839    192.94691  0.033084176   0.03404788            1 
  487000    1.0555296   -6.9483033    194.13289  0.033219181  0.034026738            4 
  488000    1.0565066   -6.9431829    194.49812  0.033213477   0.03400517            2 
  489000    1.0571537   -6.9867517    193.83535   0.03303261  0.033983838            2 
  490000    1.0552024   -6.9655257    194.93952  0.033152979  0.033962191            3 
  491000    1.0825691   -6.9500466     195.0803  0.033109351  0.033941958            3 
  492000    1.0656333   -6.9874122    195.20176  0.033062629  0.033920972            6 
  493000    1.0641489   -6.9587935    196.23444  0.033170122  0.033899883            4 
  494000    1.0391929   -6.9751101    195.33254  0.032950833  0.033878474            3 
  495000    1.0505006   -6.9816347    195.60626  0.032930347  0.033857057            4 
  496000    1.0675467   -7.0251508    196.27085  0.032975612  0.033835683            1 
  497000    1.0810722   -6.9937232    196.68895  0.032979369  0.033814467            3 
  498000    1.0348339   -6.9628577    197.70394  0.033082989  0.033793371            4 
  499000    1.0380167   -6.9787351    197.58137   0.03299622  0.033772268            1 
  500000    1.0405381   -6.9847212    197.95812   0.03299302  0.033751851            2 
  501000    1.0718886   -6.9736448    197.67745   0.03288048  0.033731593            7 
  502000    1.0570115   -6.9382246    199.13638  0.033057167   0.03371153            4 
  503000    1.0349058   -7.0007902    198.36104  0.032862995  0.033691238            4 
  504000    1.0771175   -7.0247947     199.0243  0.032907457  0.033670626            1 
  505000    1.0729438   -6.9801982    199.21495  0.032873755  0.033649681            3 
  506000    1.0532801   -6.9768629    199.10165  0.032790127  0.033629005            2 
  507000    1.0514399   -6.9676163    199.93003   0.03286161  0.033609034            2 
  508000      1.03307   -6.9837036    200.16534  0.032835522  0.033588861            3 
  509000    1.0296073   -7.0244834    200.81388  0.032877191   0.03356863            3 
  510000    1.0410656   -6.9661798    201.15548  0.032868542  0.033548183            3 
  511000    1.0330742   -7.0030888    200.96306  0.032772841  0.033528097            3 
  512000    1.0467224    -6.980274    201.44795  0.032787752  0.033507664            1 
  513000    1.0281675   -6.9959313    201.38724  0.032713976  0.033486966            3 
  514000    1.0437352   -6.9985861    201.34406   0.03264333    0.0334664            2 
  515000    1.0533695   -6.9896827    201.51703  0.032607934   0.03344542            2 
  516000    1.0323552   -7.0019004    202.58266  0.032716838  0.033424606            3 
  517000    1.0494047   -7.0375283    202.13962  0.032582143  0.033403348            1 
  518000    1.0474629   -7.0048482     203.1029  0.032674211  0.033381733            5 
  519000    1.0470853   -7.0026969    202.85244  0.032571041  0.033360926            2 
  520000    1.0396771   -6.9648806    203.53814  0.032618292  0.033339949            2 
  521000     1.055151   -6.9922644    203.29298  0.032516472  0.033319579            1 
  522000    1.0374555   -6.9934506     204.0134  0.032569189  0.033299345            3 
  523000    1.0481012   -7.0238548    204.26945  0.032547714   0.03327882            3 
  524000    1.0623458    -7.048869    204.75992  0.032563601  0.033258374            3 
  525000    1.0401553   -6.9948907    205.22168   0.03257487  0.033238268            2 
  526000     1.075492   -7.0266805    205.59968  0.032572826  0.033218424            3 
  527000    1.0335313   -7.0367771    205.91377  0.032560685  0.033198837            3 
  528000    1.0540661   -7.0382866    205.53302  0.032438923  0.033179392            3 
  529000    1.0257151   -6.9978571    206.50213  0.032530267  0.033159683            1 
  530000    1.0271686   -6.9979787    206.61098  0.032486003  0.033139515            2 
  531000    1.0253857   -7.0068982    206.55427  0.032415924  0.033119108            1 
  532000    1.0559765   -6.9842246    206.94553  0.032416279  0.033099027            2 
  533000    1.0721259   -7.0422281    206.87108  0.032343822  0.033078662            3 
  534000    1.0374445   -6.9937041    207.86143  0.032437801  0.033058396            1 
  535000    1.0343478    -6.974298    208.01478  0.032401056   0.03303859            2 
  536000    1.0413034   -7.0156252    208.09857  0.032353633  0.033018771            2 
  537000    1.0419519   -7.0364878    208.05977  0.032287363  0.032998866            2 
  538000    1.0370977   -6.9894519    208.58275  0.032308357  0.032978429            4 
  539000    1.0448095   -7.0110554    208.40108  0.032220328   0.03295804            3 
  540000    1.0137094   -7.0449889     208.3204   0.03214821  0.032936907            6 
  541000    1.0487665   -6.9985577    209.37579  0.032251355  0.032915916            3 
  542000    1.0275681   -7.0087016    208.36814  0.032036921  0.032894579            2 
  543000    1.0301423    -6.998692    208.93864  0.032065475  0.032873586            2 
  544000    1.0556422   -7.0306965    209.14399  0.032037988  0.032852425            4 
  545000    1.0286447   -6.9935546    210.64106  0.032208114  0.032831631            3 
  546000    1.0259854   -7.0433543     210.2724  0.032092857  0.032811299            2 
  547000    1.0388755   -7.0423427    210.14347  0.032014544  0.032790815            3 
  548000    1.0489492   -7.0071046    211.64085  0.032183828  0.032770631            4 
  549000    1.0355619   -7.0251035    211.78204  0.032146637  0.032750871            3 
  550000    1.0392701    -6.994728     211.8714  0.032101727  0.032731282            4 
  551000    1.0429769   -7.0303305    212.55335  0.032146604  0.032711692            3 
  552000    1.0415199   -7.0214316    212.07573  0.032016264  0.032692176            2 
  553000    1.0344137   -7.0502938    212.25118  0.031984808  0.032672362            3 
  554000    1.0432704   -7.0548508    211.89741  0.031873858  0.032652296            3 
  555000     1.039037   -7.0729481    213.28133  0.032024224  0.032632378            2 
  556000    1.0243448   -7.0352292    213.35442  0.031977581  0.032612558            4 
  557000    1.0237033   -7.0658117    213.40945  0.031928404  0.032592909            3 
  558000     1.024792   -7.0233508    213.71965   0.03191751  0.032573288            3 
  559000    1.0352111   -7.0204449    215.15122  0.032073826  0.032553888            3 
  560000    1.0470378   -7.0983472    214.09942  0.031860032  0.032534096            2 
  561000    1.0401808   -7.0289647      214.693  0.031891414  0.032514192            2 
  562000    1.0391414   -7.0274246    214.68241  0.031833098  0.032494006            3 
  563000    1.0492163   -7.0453381    215.06762  0.031833573  0.032474099            7 
  564000    1.0438873   -7.0060528    215.97238  0.031910813  0.032454119            4 
  565000    1.0002301    -7.041144    215.91413  0.031845742   0.03243451            1 
  566000    1.0339095   -7.0380974    215.86186  0.031781781  0.032414509            4 
  567000    1.0295229   -7.0782368    215.78776  0.031714839   0.03239397            3 
  568000    1.0382435   -7.0348878    216.40479  0.031749529  0.032373799            1 
  569000    1.0292072   -7.0240461    216.34376  0.031684792  0.032353684            2 
  570000    1.0137368   -7.0042555    217.00552  0.031725953  0.032333643            3 
  571000    1.0337662   -7.0429773    216.47771  0.031593361  0.032312954            1 
  572000    1.0161572   -6.9993397    216.88156  0.031596964  0.032292504            1 
  573000     1.021087   -7.0760307    217.33509  0.031607779  0.032272066            3 
  574000    1.0422857   -7.0481403    217.44509  0.031568684  0.032251311            1 
  575000    1.0326684   -7.0243606    217.74596  0.031557386  0.032230394            3 
  576000    1.0488443   -7.0450238    217.78218  0.031507839  0.032209644            2 
  577000     1.029195   -7.0261672    218.01657  0.031487084  0.032188557            5 
  578000    1.0242771   -7.0308074     218.6381  0.031522218  0.032167647            2 
  579000    1.0294471   -7.0562908    218.24594  0.031411333  0.032146492            2 
  580000    1.0362464    -7.071355    218.32098  0.031367957  0.032125416            1 
  581000    1.0269155   -7.0383899    219.42537  0.031472371  0.032104108            2 
  582000    1.0286997   -7.0271973    218.76144  0.031323231   0.03208292            1 
  583000    1.0069994   -7.0469069    219.45245  0.031368275  0.032061601            3 
  584000    1.0121403   -7.0616223    219.51545  0.031323552  0.032040471            3 
  585000    1.0101131   -7.0464865    220.31653  0.031384121   0.03201898            2 
  586000    1.0408651   -7.0348125    220.62774   0.03137482  0.031997762            1 
  587000    1.0463679   -7.0598411    220.48285  0.031300802  0.031976437            5 
  588000    1.0244892   -7.0223928    220.45967  0.031244284  0.031954983            3 
  589000    1.0254772   -7.0250129    220.23913  0.031160035  0.031933349            2 
  590000    1.0225707   -7.0646535     220.5801  0.031155381  0.031911085            2 
  591000     1.006083   -7.0315378    221.00834  0.031163048  0.031889089            3 
  592000    1.0212578    -7.083091    220.46274  0.031033607  0.031866569            3 
  593000    1.0171102   -7.0743326    221.12078  0.031073746  0.031844159            2 
  594000    1.0138515   -7.0226801    221.07951  0.031015643  0.031822146            4 
  595000    1.0000699   -7.0365083    221.33571  0.030999399  0.031799593            3 
  596000    1.0466848   -7.0973319    220.94146  0.030892262   0.03177729            1 
  597000    1.0268216   -7.0472441    221.92266  0.030977479  0.031754876            1 
  598000    1.0002527   -7.0523355    222.23151  0.030968717  0.031732149            4 
  599000    1.0154144   -7.0501036    221.91972  0.030873639  0.031709267            2 
  600000   0.99665884    -7.026047    222.52815  0.030906687  0.031685955            4 
  601000    1.0170893   -7.0568892    222.20674  0.030810695  0.031662798            2 
  602000    1.0035739   -7.0767766     223.0208  0.030872204  0.031639689            2 
  603000    1.0313544   -7.0600887    222.22121  0.030710505  0.031616229            1 
  604000    1.0282487   -7.0587158    223.00995  0.030768481   0.03159297            1 
  605000    1.0552854   -7.1065664    223.25523  0.030751409  0.031570216            3 
  606000    1.0066238   -7.0694784    223.68148  0.030759279  0.031547544            4 
  607000   0.99910139   -7.0618385    224.59928  0.030834607  0.031525066            2 
  608000      1.01436   -7.1220744    224.28559  0.030740898  0.031502781            2 
  609000    1.0065089   -7.0690843    224.22023  0.030681476  0.031480079            3 
  610000   0.99673057   -7.0762748    224.14527  0.030620938  0.031457183            2 
  611000    1.0121511   -7.0502983    224.85814  0.030668049  0.031434648            1 
  612000    1.0157104   -7.0630887     224.8142  0.030611956  0.031411499            2 
  613000    1.0012724   -7.0565436    225.30847   0.03062921  0.031388101            3 
  614000   0.99490802   -7.0685429    224.97834  0.030534519  0.031364729            2 
  615000    1.0062886   -7.1054422    224.66656  0.030442623  0.031341572            3 
  616000    1.0007504   -7.0685624    225.21706  0.030467676  0.031317911            2 
  617000    1.0190023   -7.0647072    225.70621  0.030484361  0.031294222            2 
  618000    1.0272878   -7.0802673    225.65273  0.030427822  0.031270691            4 
  619000   0.99580469   -7.0807172    226.00136  0.030425601  0.031247037            3 
  620000    1.0325483    -7.068371    225.25008  0.030275548  0.031223459            3 
  621000   0.98921509   -7.1198957    225.85937  0.030308558  0.031199699            1 
  622000    1.0328084   -7.0514415    226.22798  0.030309215  0.031175642            2 
  623000    1.0143122   -7.0786242    226.37334  0.030280008  0.031152106            2 
  624000    1.0001249   -7.0599403    226.64715  0.030268049   0.03112828            3 
  625000    1.0023928   -7.0848155    226.67202  0.030222936  0.031104824            3 
  626000    1.0181064   -7.0487712    226.93871  0.030210158  0.031081538            2 
  627000    1.0143801   -7.0950812    227.28928   0.03020857  0.031058372            2 
  628000    1.0007572   -7.0882457    227.97811  0.030251872  0.031034808            2 
  629000    1.0108584   -7.1021418    228.12301  0.030222974  0.031011217            3 
  630000    1.0125667   -7.0907026    227.33472   0.03007073  0.030987394            3 
  631000    1.0185322   -7.0790259    227.98452   0.03010889  0.030963379            3 
  632000    1.0033298   -7.0783228    228.70649  0.030156446  0.030940142            2 
  633000   0.99038168   -7.0774068    228.84922  0.030127596  0.030917078            2 
  634000    1.0055183   -7.0889993    228.16744  0.029990463  0.030893703           10 
  635000    1.0123043   -7.0820389    228.86104  0.030034258  0.030870411            2 
  636000    1.0034803   -7.1077857     228.8521  0.029985862  0.030846802            3 
  637000   0.98204574   -7.0991523    229.12386   0.02997434  0.030823399            3 
  638000   0.98164093   -7.1026167    229.36545  0.029958914  0.030799935            4 
  639000    0.9732865   -7.1045071    229.25601  0.029897759  0.030776369            2 
  640000    0.9923524   -7.0805366    229.95227  0.029941701  0.030752813            3 
  641000   0.96897435   -7.1128536    229.99943  0.029901121   0.03072955            3 
  642000   0.98583307   -7.0742778    230.95382   0.02997843   0.03070647            3 
  643000   0.99924073    -7.087211    230.70267  0.029899257  0.030683625            2 
  644000   0.99753998   -7.1244109    230.93954  0.029883481  0.030661024            6 
  645000   0.98667821    -7.102504    231.41501   0.02989858  0.030637939            4 
  646000   0.99013767    -7.092767    231.61381  0.029877943  0.030614823            3 
  647000     1.019907   -7.1141984     231.8031  0.029856144  0.030591759            1 
  648000   0.98491596    -7.101678    231.77375  0.029806296  0.030569012            3 
  649000    1.0126531   -7.1258502    232.04859  0.029795659   0.03054634            1 
  650000    1.0169715   -7.0746619    232.61166  0.029822007  0.030523589            2 
  651000   0.98100696   -7.0854946    232.80363  0.029800772  0.030501331            2 
  652000    1.0087965   -7.1189155    233.52062  0.029846705  0.030479012            3 
  653000   0.97050247   -7.1153485    233.77759  0.029833791  0.030456941            2 
  654000   0.98709898   -7.1119075    233.21392  0.029716351  0.030435002            2 
  655000    1.0129337   -7.1138648    233.43829  0.029699528  0.030412697            3 
  656000   0.97746842    -7.108669     234.2658  0.029759375  0.030390245            2 
  657000   0.99740342   -7.0907184     233.9332  0.029671893   0.03036788            3 
  658000   0.97892312   -7.0975079    234.17987  0.029658038  0.030345689            2 
  659000   0.98205453   -7.0856074    234.10191  0.029603175  0.030323329            2 
  660000    1.0045771   -7.1315288    233.89438  0.029532118  0.030300646            2 
  661000   0.98492563   -7.1249829    234.16577  0.029521656  0.030278142            2 
  662000   0.99179353   -7.0853712    235.25966  0.029614761  0.030255596            2 
  663000   0.98329076   -7.1151493    234.73871  0.029504615  0.030232899            3 
  664000     1.004925    -7.089656    235.83353  0.029597582  0.030210412            1 
  665000   0.98579016   -7.1214501    235.65643   0.02953088  0.030187789            2 
  666000   0.98124927   -7.1058188     235.0726  0.029413488  0.030164924            3 
  667000   0.99801435    -7.117752    235.23959  0.029390254  0.030142053            2 
  668000   0.99176838   -7.1138245    235.89878  0.029428491  0.030119356            2 
  669000   0.98386437   -7.1027161    235.99036   0.02939591  0.030096972            6 
  670000   0.97973899   -7.1120891    236.64235  0.029433128  0.030074171            2 
  671000    1.0067944   -7.0943187    236.39706    0.0293588  0.030051351            3 
  672000   0.97994581   -7.1297869    236.01987  0.029268338  0.030028537            2 
  673000   0.95361631   -7.1147592     236.8319  0.029325396  0.030005553            3 
  674000   0.99328158   -7.1331115     236.6685  0.029261683  0.029982589            6 
  675000   0.98443591   -7.1230268    237.56858  0.029329454  0.029959909            2 
  676000   0.96556301   -7.1184158    237.12652  0.029231574  0.029937338            3 
  677000   0.98050233   -7.1424374    237.39258  0.029221145  0.029914482            2 
  678000   0.97455434    -7.100985    237.87116  0.029236869  0.029891801            2 
  679000    0.9674053   -7.1453925    238.64844  0.029289205  0.029869317            1 
  680000   0.98766214   -7.1400506    238.85804  0.029271819  0.029847075            1 
  681000   0.98694563   -7.1555761    238.29805  0.029160309   0.02982498            2 
  682000   0.98847499    -7.146101    238.68448   0.02916477  0.029802605            2 
  683000   0.97333273   -7.1052636     239.6062  0.029234529  0.029780237            6 
  684000   0.97296206   -7.1156002    239.23077  0.029146049   0.02975764            2 
  685000   0.97705165   -7.1296347     239.0858  0.029085864  0.029735313            3 
  686000   0.97103602   -7.1266322    239.76956  0.029126526  0.029712836            3 
  687000   0.97630034   -7.1792251    240.08295  0.029122143  0.029690506            3 
  688000   0.96586257   -7.1361412    240.04498  0.029075216  0.029668269            4 
  689000   0.99008126   -7.1449118    240.15774  0.029046655  0.029646219            2 
  690000   0.98483589   -7.1679769    240.45352   0.02904028  0.029624098            6 
  691000   0.98836954   -7.1223708    240.90669  0.029052905  0.029602006            2 
  692000   0.97118949   -7.1664583    240.21246   0.02892732  0.029579882            2 
  693000   0.98836182   -7.1512992    241.20857   0.02900536  0.029557573            2 
  694000   0.97448969   -7.1359249    241.44858  0.028992385  0.029535748            2 
  695000   0.93807761   -7.1266134    241.59266  0.028967945  0.029513984            4 
  696000    0.9784797   -7.1357491     241.0518  0.028861566  0.029492194            2 
  697000   0.98502117   -7.1225945    242.01549  0.028935376  0.029470693            3 
  698000   0.98062672   -7.1716837    242.36801  0.028936008  0.029449018            2 
  699000   0.98356549   -7.1563199    241.92821  0.028842181  0.029427073            2 
  700000   0.97135986   -7.1749942    242.41999  0.028859522  0.029405096            1 
  701000   0.96973656   -7.1693483    241.99366  0.028767672  0.029382849            8 
  702000   0.97428097   -7.1739925     242.0287  0.028730852  0.029360646            3 
  703000   0.97942749   -7.1411692    243.40761  0.028853439   0.02933867            5 
  704000   0.96158549   -7.1606792    243.24372  0.028793053  0.029316959            2 
  705000   0.97206829    -7.152783    242.91183  0.028712983  0.029294852            1 
  706000   0.97945549   -7.1491645    242.71732  0.028649353  0.029272773            3 
  707000   0.97961842   -7.1991047    243.18799  0.028664308  0.029250757            4 
  708000   0.96614634   -7.1589225    243.35639  0.028643643  0.029228783            1 
  709000   0.95579497   -7.1727305    242.77355  0.028534737  0.029206429            4 
  710000   0.98959599   -7.1650521    243.79294  0.028614195  0.029184226            2 
  711000   0.97918435   -7.1601655    244.40334  0.028645492  0.029162141            3 
  712000   0.96074391   -7.1625563    244.04591  0.028563426  0.029140178            4 
  713000   0.98766099   -7.1229297    244.45677  0.028571385  0.029118619            4 
  714000   0.96836815   -7.1742632    245.01817  0.028596892  0.029097203            4 
  715000   0.97825157   -7.1794415    244.85414  0.028537779  0.029075401            1 
  716000   0.97838869   -7.1459591    245.73061  0.028599931  0.029053702            1 
  717000   0.95950467   -7.1942733    245.18273  0.028496365  0.029031801            2 
  718000   0.96103066   -7.1451673    245.32827  0.028473569    0.0290099            1 
  719000     0.958662   -7.1815067     244.5009  0.028338073  0.028988098            4 
  720000   0.95557144   -7.1572775    245.11861  0.028370209  0.028965986            1 
  721000   0.96764247   -7.1557099    245.60236  0.028386773   0.02894418            2 
  722000   0.95452948   -7.1686109    245.31046  0.028313765  0.028921833            2 
  723000   0.95266675   -7.1584401    246.19372  0.028376409  0.028899934            4 
  724000   0.96211743   -7.1835537    246.63092  0.028387536  0.028878164            3 
  725000   0.96744324   -7.1831327    246.76125  0.028363362  0.028856736            1 
  726000   0.97984835   -7.1723382    247.27077  0.028382779  0.028835402            3 
  727000   0.95856318   -7.1978495    246.89008  0.028300101  0.028814046            2 
  728000   0.96197394   -7.1628167    247.49685  0.028330684  0.028792657            3 
  729000   0.95880948   -7.1741062    247.93646  0.028342073  0.028771477            4 
  730000   0.97277962   -7.1759888    247.62276  0.028267438  0.028750316            2 
  731000   0.93584397   -7.1629741    247.96263  0.028267514  0.028729182            3 
  732000   0.97498872   -7.1899534    248.11546  0.028246296  0.028708048            1 
  733000   0.97105368    -7.205455    248.49114   0.02825047  0.028686737            1 
  734000   0.96597985   -7.1746442    248.73959   0.02824019  0.028665443            3 
  735000   0.95561969   -7.1804673    248.71248  0.028198693  0.028644216            1 
  736000   0.95755281   -7.1539222    248.86836   0.02817803   0.02862331            1 
  737000   0.96548718   -7.2054824    249.40697  0.028200697  0.028602137            2 
  738000   0.97480686   -7.1366819    249.92026  0.028220445  0.028580917            3 
  739000   0.95380336   -7.2119288    249.98625  0.028189699  0.028560078            4 
  740000   0.97627107   -7.1541109    251.01735   0.02826772  0.028539583            2 
  741000   0.96547289   -7.1539413    251.21622  0.028251937  0.028519292            3 
  742000   0.98107022   -7.1668106    250.33382  0.028114759  0.028498822           11 
  743000    0.9559483   -7.2222692    249.75933  0.028012487  0.028478343            2 
  744000   0.95918731   -7.1663387    251.87795  0.028212136  0.028457842            2 
  745000   0.95754066   -7.1790794    250.71735  0.028044446  0.028437319            5 
  746000    0.9458511   -7.2068712     251.2191  0.028062902  0.028416631            1 
  747000   0.94955722   -7.2016419    251.29762  0.028034094  0.028395999            2 
  748000   0.96206196   -7.1714229    251.85843  0.028059094  0.028375366            4 
  749000   0.95421285   -7.1768424    251.47641  0.027979129  0.028354789            2 
  750000   0.95101826   -7.1786895    252.18547  0.028020607  0.028334364            4 
  751000   0.93765614   -7.2041983    251.43616  0.027900151  0.028313479            4 
  752000   0.97483636   -7.1790282    252.50095  0.027981045   0.02829283            3 
  753000   0.95203223   -7.1930576    251.74065  0.027859744  0.028271635            4 
  754000   0.93837718   -7.2169531    251.04385  0.027745784  0.028250234            3 
  755000   0.95325327   -7.2192923    251.50799  0.027760263  0.028228901            2 
  756000   0.93945166   -7.1820091    252.66111  0.027850652  0.028207639            4 
  757000   0.93466979   -7.1768067    253.04351  0.027855956  0.028186638            3 
  758000   0.94452498    -7.157316    253.23147  0.027839872  0.028165774            3 
  759000   0.94559035   -7.1920007    252.39612  0.027711476  0.028144724            3 
  760000   0.92073893   -7.1937617    253.09731  0.027751898  0.028123685            3 
  761000    0.9649524   -7.1825354    253.46241  0.027755411  0.028102571            3 
  762000   0.94979937   -7.2024492    253.43087  0.027715537  0.028081377            3 
  763000   0.93823259   -7.2355673    252.94371  0.027626006  0.028060146            2 
  764000   0.96184118   -7.2359806     253.6329  0.027665019  0.028039094            3 
  765000   0.93543619   -7.2102829    253.42418   0.02760612   0.02801806            2 
  766000   0.94218478   -7.1890741     253.4105  0.027568593  0.027997083            2 
  767000   0.95308129   -7.2181525     253.3397  0.027524956  0.027976092            2 
  768000   0.92907533   -7.1989987     253.7966  0.027538693  0.027954964            3 
  769000   0.95521841   -7.1860269    254.36424  0.027564396  0.027933921            2 
  770000   0.95595912   -7.2028969    254.38722  0.027531084  0.027912869            3 
  771000    0.9292995     -7.22033    254.40687    0.0274975  0.027891856            6 
  772000   0.93407747    -7.229889    254.24357  0.027444254  0.027870939            2 
  773000   0.95059362   -7.2134536    254.95874   0.02748585  0.027849847            2 
  774000   0.95359992   -7.1951742    255.42005  0.027500005  0.027828786            4 
  775000   0.95569284   -7.2280606    255.36744  0.027458864  0.027807774            5 
  776000   0.95686631    -7.219931    253.79849  0.027254993   0.02778649            3 
  777000   0.93565618    -7.230063    254.84298  0.027331937  0.027765148            3 
  778000   0.95904868   -7.2185711    254.99957  0.027313579   0.02774395            2 
  779000   0.95070745    -7.239504     254.8149  0.027258761  0.027722682            3 
  780000   0.93163239   -7.1912152    255.70531  0.027318943  0.027701534            2 
  781000   0.92839951   -7.2096656    255.13685  0.027223309  0.027680561            2 
  782000   0.94177011   -7.2373918    255.87035  0.027266661   0.02765949            2 
  783000   0.93226819   -7.2285543    255.65046  0.027208435  0.027638338            6 
  784000   0.94490494   -7.2266581    256.08195  0.027219595  0.027617103            2 
  785000   0.94181019   -7.2379237    256.66952  0.027247295   0.02759581            3 
  786000   0.93343106   -7.2280485    256.46601  0.027191052  0.027574613           10 
  787000   0.93204443   -7.1720161    256.29508  0.027138403  0.027553349            2 
  788000   0.95602002   -7.1876054    256.24058    0.0270982  0.027532228            3 
  789000   0.95704013    -7.243609    256.80852   0.02712384  0.027511201            6 
  790000   0.95310072   -7.2514083    256.98864  0.027108506  0.027490084            6 
  791000   0.94621789   -7.2139242    257.12133  0.027088214  0.027469227            4 
  792000   0.93804691   -7.2529292    256.68561  0.027008166  0.027448278            2 
  793000   0.93197998   -7.2635649    257.03989  0.027011337  0.027427496            1 
  794000   0.93088641   -7.2370792    257.65077  0.027041433   0.02740651            2 
  795000   0.94997177    -7.275047    257.63286  0.027005541  0.027385664            5 
  796000   0.93109323   -7.2805022    257.07049   0.02691274  0.027364836            1 
  797000   0.92038502   -7.2459925    258.39683  0.027017653  0.027343922            2 
  798000   0.94143458   -7.2503302    258.47048  0.026991487  0.027323041            2 
  799000   0.93074295   -7.2361262     258.0835  0.026917345  0.027302157            7 
  800000   0.93757243   -7.2207614    259.31587   0.02701207  0.027281485            4 
  801000    0.9261536   -7.2196721    258.60155  0.026904032  0.027260773            3 
  802000   0.92975462   -7.2020842    258.73885  0.026884752  0.027240205            3 
  803000   0.93901995   -7.2175807     259.2844  0.026907887  0.027219687            3 
  804000    0.9473906   -7.2349773    259.79718  0.026927569   0.02719931            3 
  805000   0.93218775   -7.2661906    259.93068  0.026907937  0.027178974            4 
  806000   0.94078629   -7.2395068    260.59777  0.026943525  0.027158655            2 
  807000   0.95370783   -7.2500708    260.10068  0.026858806  0.027138364            4 
  808000   0.93814607   -7.2306771    261.04805  0.026923273  0.027118316            3 
  809000   0.92038311   -7.2356009     261.1983  0.026905469  0.027098202            3 
  810000   0.92941033   -7.2357909    261.07514  0.026859582  0.027078126            7 
  811000   0.93146722    -7.260784    260.75384  0.026793449   0.02705818            2 
  812000   0.93326596   -7.2671991    260.87333  0.026772714  0.027038226            3 
  813000   0.93036941   -7.2188742    262.06235  0.026861659  0.027018351            3 
  814000   0.93485935   -7.2366269     261.5141  0.026772533   0.02699841            3 
  815000   0.92558971    -7.230207    261.44279  0.026732392  0.026978556            8 
  816000   0.94684512   -7.2548771    261.39748  0.026695004  0.026958491            4 
  817000   0.94046126   -7.2295232    262.05615  0.026729513  0.026938522            3 
  818000   0.94155162   -7.2420666    262.44514  0.026736465  0.026918717            2 
  819000   0.95147812   -7.2233947    262.72293  0.026732085  0.026898879            4 
  820000   0.92616894   -7.2355243    262.32032  0.026658569  0.026879073            4 
  821000   0.93706096    -7.259478    262.57916  0.026652371  0.026859314            2 
  822000    0.9380949   -7.2654964    263.21325  0.026684231  0.026839741            3 
  823000   0.90921704    -7.283488    263.36759  0.026667435  0.026820018            2 
  824000   0.93218658   -7.2444752    263.96701  0.026695692  0.026800476            4 
  825000    0.9173201   -7.2469183    263.73407  0.026639805  0.026780946            1 
  826000   0.93730342   -7.2520841    263.51296  0.026585246  0.026761537            3 
  827000   0.93580895   -7.2481444    264.06673  0.026608901  0.026741882            2 
  828000   0.90147942   -7.2347118     264.0203  0.026572091  0.026722191            5 
  829000   0.91427923   -7.2753451    263.93456  0.026531419  0.026702708            2 
  830000   0.90399076   -7.2831967    264.31305  0.026537455  0.026683216            2 
  831000   0.91234079   -7.2861872     264.4062  0.026514862  0.026663341            4 
  832000   0.92295778   -7.2672988    263.98506  0.026440812  0.026643722            4 
  833000   0.90479716   -7.2555477    264.19357  0.026429929  0.026623948            2 
  834000   0.91432143   -7.2414485     264.7569  0.026454527  0.026604365            3 
  835000   0.91332545   -7.2518124    264.55108  0.026402304  0.026584509            3 
  836000   0.91872802   -7.2703173    264.49083  0.026364716  0.026564861            2 
  837000   0.91961874   -7.2771975    264.38031  0.026322213  0.026544975            4 
  838000   0.90299648   -7.2786989    264.84064  0.026336579  0.026525056            2 
  839000   0.92350516   -7.2673594    265.10444   0.02633139   0.02650502            7 
  840000   0.90084894   -7.2920922    264.56271  0.026246301  0.026484968            4 
  841000   0.90174358   -7.2460903    264.90176  0.026248688  0.026464842            2 
  842000   0.93246953   -7.2857649    265.25198  0.026252176  0.026444736            4 
  843000   0.89847461   -7.2408777    265.79605  0.026274817  0.026424736            4 
  844000   0.91524207   -7.3123377    265.30663  0.026195363  0.026404969            2 
  845000   0.91979275   -7.2706521     265.0986  0.026143846   0.02638498            3 
  846000   0.92581739   -7.3012065    265.42822  0.026145412    0.0263651            2 
  847000   0.90852408   -7.2437436    266.44091  0.026214178  0.026345484            3 
  848000   0.91680145   -7.2236001    266.29232  0.026168663  0.026326071            4 
  849000   0.91497047   -7.2755955    266.60216  0.026168253    0.0263066            9 
  850000   0.94071767   -7.2778742    266.84168  0.026160949  0.026287181            3 
  851000   0.90744574   -7.2672489    266.54653  0.026101305    0.0262676            1 
  852000   0.92248924   -7.2463437    267.32449  0.026146762  0.026248226            2 
  853000   0.91761743    -7.304773    266.67674  0.026052827    0.0262289            4 
  854000   0.90527427   -7.2949229     267.0915  0.026062793  0.026209289            4 
  855000   0.91587979   -7.3162337    267.13881  0.026036921  0.026189651            2 
  856000   0.90834236   -7.3083553    266.39385  0.025933981  0.026170089            2 
  857000    0.9057521   -7.2710489    267.54041  0.026015209  0.026150545            5 
  858000   0.93048412   -7.2679796    267.85846  0.026015779  0.026131233            3 
  859000   0.91523205   -7.2334315    268.61856  0.026059231  0.026112099            4 
  860000   0.89409805   -7.2758642    268.10803   0.02597946  0.026092774            2 
  861000   0.89085479   -7.2722259    267.70476  0.025910256  0.026073352            2 
  862000   0.90656837   -7.2932221       268.34  0.025941609   0.02605396            2 
  863000   0.92962919   -7.2961033     268.9082  0.025966416  0.026034454            2 
  864000   0.91081576   -7.2695804    268.54249  0.025901089  0.026014846            2 
  865000   0.91472399   -7.3123851    268.92538  0.025908032  0.025995634            4 
  866000     0.902124    -7.295746    268.94512  0.025880015  0.025976331            3 
  867000   0.91475441   -7.2387719    269.97762  0.025949406  0.025957162            2 
  868000   0.89629358    -7.298497    269.09148  0.025834435  0.025938343            4 
  869000   0.90444398   -7.3062802    269.68767  0.025861879  0.025919522            3 
  870000   0.90184091   -7.3029429    270.02405  0.025864373  0.025900799            2 
  871000   0.89400242   -7.3079118    269.81484  0.025814662  0.025881945            3 
  872000   0.90965016   -7.3336051    269.96775   0.02579967  0.025863019            3 
  873000   0.89973602   -7.2794686     270.8051  0.025850048   0.02584431            3 
  874000   0.90616465   -7.3124548    270.26461  0.025768937  0.025825607            3 
  875000    0.9048515   -7.2867694    270.52224  0.025764023  0.025806764            4 
  876000   0.90962638   -7.2948432    270.61329  0.025743273  0.025787879            2 
  877000   0.89578938   -7.2736735    270.50301  0.025703441   0.02576904            8 
  878000   0.90814301   -7.2815194    271.35491  0.025755022  0.025750074            2 
  879000   0.89927817   -7.3208442    270.58079  0.025652332  0.025731041            3 
  880000   0.88186343   -7.3105495    271.48735  0.025709029  0.025712151            3 
  881000   0.90024546   -7.3169743    271.47325  0.025678514  0.025693251            5 
  882000   0.89769021    -7.319469    271.18786  0.025622436  0.025674304            3 
  883000   0.91251266   -7.3186406    271.98051  0.025668225   0.02565558            2 
  884000   0.92305141   -7.3264926    271.09661  0.025555864   0.02563693            4 
  885000   0.90987426   -7.3014377    272.47894  0.025657151  0.025618243            1 
  886000    0.8940084   -7.3447314    271.44825   0.02553125  0.025599644            3 
  887000   0.89438799   -7.2964613    271.60933  0.025517599  0.025580875            4 
  888000   0.88855041   -7.2929732    271.92655  0.025518633  0.025561878            3 
  889000    0.9085583   -7.3030366    272.41296  0.025535523  0.025543201            3 
  890000   0.89291095   -7.3305115    272.08808  0.025476412  0.025524427            2 
  891000   0.91249283   -7.3319613    272.25819  0.025463729  0.025505705            5 
  892000   0.90559746   -7.3177022    272.48371  0.025456251  0.025486865            3 
  893000   0.90630173   -7.2854627     272.7508  0.025452669  0.025468141            3 
  894000    0.8749907   -7.3414168    273.09149  0.025455956  0.025449483            3 
  895000   0.89447699   -7.3043689    273.67322  0.025481678  0.025430938            4 
  896000    0.9001416   -7.3012518    273.43182  0.025430787  0.025412384            5 
  897000   0.88255978   -7.3032985    273.63236  0.025421067  0.025393905            3 
  898000    0.9005301   -7.3115199     273.5976  0.025389533  0.025375507            5 
  899000   0.88759089    -7.317756     274.1345  0.025411059  0.025357115            4 
  900000   0.86864139   -7.2827098    274.17063   0.02538617  0.025338777            4 
  901000   0.88831638   -7.3088417    274.74797  0.025411392  0.025320485            2 
  902000   0.87810109    -7.335337    273.80976  0.025296541  0.025302123            3 
  903000   0.89493184   -7.3420526    273.60629   0.02524975  0.025283559            3 
  904000   0.88695381   -7.3196915    274.04986  0.025262708  0.025265017            3 
  905000     0.920177   -7.3475114     274.1776  0.025246556  0.025246623            2 
  906000   0.90037436   -7.3117301    274.64005  0.025261226  0.025228356            2 
  907000   0.90896851   -7.2962212    275.78783   0.02533883  0.025210366            3 
  908000   0.88910408   -7.3065323    275.20194  0.025257153  0.025192223            2 
  909000   0.88624941   -7.3358729    274.78791  0.025191411  0.025173831            3 
  910000   0.91911816   -7.3333336    275.57336  0.025235655  0.025155393            2 
  911000   0.88205168   -7.3288677    275.32731  0.025185448  0.025137084            2 
  912000   0.88762714   -7.3541782      274.608  0.025092106  0.025118887            2 
  913000   0.88768626   -7.3034381    275.42639   0.02513932   0.02510082            3 
  914000   0.86908184   -7.2968984    276.22604  0.025184723  0.025082988            7 
  915000   0.86740867   -7.3605119    276.01764  0.025138218  0.025064963           10 
  916000   0.89977576   -7.3236515    276.14662  0.025122509  0.025047027            2 
  917000   0.89237194    -7.344987    276.60665  0.025136918  0.025028927            2 
  918000   0.89754977   -7.3438215    276.64929  0.025113407  0.025010965            3 
  919000   0.88198439   -7.3317553    275.84047  0.025012737  0.024992835            7 
  920000    0.8798905   -7.3526988    277.06217  0.025096211  0.024974649            4 
  921000   0.91151432    -7.336497    275.85308  0.024959562  0.024956559            4 
  922000   0.88438668   -7.3414109    276.96731  0.025033199  0.024938493            2 
  923000   0.89290823   -7.3422138    277.41635  0.025046619  0.024920269            3 
  924000   0.88170283    -7.387221    276.31482  0.024920168  0.024902088            3 
  925000   0.90648738   -7.3658899    276.97245  0.024952473  0.024883922            6 
  926000   0.89443281   -7.3188753     277.0851  0.024935664  0.024865815            2 
  927000   0.87876497   -7.3686664    276.98146  0.024899448  0.024847634            3 
  928000   0.89518489   -7.3610411    277.71357   0.02493836  0.024829475            5 
  929000   0.87877032   -7.3670704    276.90749  0.024839208  0.024810994            3 
  930000   0.87518054   -7.3801528    276.26487  0.024754916  0.024792426            7 
  931000   0.89439324   -7.3380118    276.64541  0.024762389  0.024773829            8 
  932000   0.88364967   -7.3808078    277.62007  0.024822968  0.024755253            3 
  933000    0.8912753   -7.3817936    277.09216  0.024749211   0.02473667            3 
  934000   0.89897593   -7.3832993    276.83319  0.024699607  0.024718085            4 
  935000   0.86073691   -7.3478948     277.5358  0.024735811  0.024699604            2 
  936000   0.89093907    -7.352662    277.87594  0.024739667  0.024681204            4 
  937000   0.89652047    -7.376292    278.29523  0.024750554  0.024662837            3 
  938000    0.8791307   -7.3622751    277.21918  0.024628569  0.024644285            5 
  939000   0.88734932    -7.341901    278.30421  0.024698634  0.024625927            3 
  940000   0.88538347   -7.3752493    278.19648  0.024662809   0.02460761            3 
  941000   0.89074095   -7.3339017    278.38087  0.024652929  0.024589283            3 
  942000    0.8752299   -7.3193141    278.62698  0.024648529  0.024571047            3 
  943000   0.89259677   -7.3589711    279.17652  0.024670954  0.024552963            3 
  944000   0.87594337   -7.3459789     279.1343  0.024641093   0.02453484            4 
  945000   0.88904205   -7.3576746    278.85077  0.024590015  0.024516812            4 
  946000   0.87955114   -7.3416057    278.60027  0.024541954  0.024498564            2 
  947000   0.88094323   -7.3721009    278.29144  0.024488863  0.024480272            2 
  948000   0.87229058   -7.3655778    278.79524  0.024507317  0.024461955            2 
  949000   0.88746181   -7.4010808    278.81072  0.024482852  0.024443805            3 
  950000   0.87502626   -7.3542306    279.33851  0.024503378   0.02442565            4 
  951000   0.87378793   -7.3380948    280.07161  0.024541851  0.024407715            3 
  952000    0.8768618   -7.3560672    280.86704  0.024585701  0.024389691            4 
  953000   0.88537837   -7.3543724    280.33955  0.024513777  0.024371812            8 
  954000   0.88161201   -7.3662495    280.64175  0.024514478  0.024353873            6 
  955000   0.88712037   -7.3623722    279.81815  0.024416942  0.024335995            4 
  956000   0.88721498   -7.3856741    280.27067  0.024430846  0.024318047            2 
  957000   0.86983523   -7.3944898    280.53019  0.024427916  0.024300111            5 
  958000    0.8550459    -7.347707    280.27455   0.02438018  0.024282273            3 
  959000   0.87485581   -7.3589815    281.38943  0.024451636  0.024264428            5 
  960000    0.8740516   -7.3855628    281.19024  0.024408875  0.024246649            8 
  961000   0.88021923   -7.4109923     280.5538  0.024328287  0.024228968            5 
  962000   0.87011996   -7.3710359    281.34445  0.024371488  0.024211298            3 
  963000   0.86670823   -7.4023359    281.01012  0.024317248   0.02419366            2 
  964000   0.88031442   -7.3686486    280.86823  0.024279757  0.024176057            6 
  965000    0.8581117   -7.3730581    280.78269   0.02424721  0.024158452            3 
  966000   0.85366996   -7.3825129     281.3042  0.024267098  0.024141079            4 
  967000   0.87704943   -7.3879462    281.66396  0.024273006  0.024123419            3 
  968000   0.87976219    -7.404966    281.59451  0.024241951  0.024105617            5 
  969000   0.87357912    -7.404073    280.76935  0.024145971   0.02408779            4 
  970000   0.85903387   -7.3527439    281.80891  0.024210388  0.024069915            6 
  971000   0.84487032   -7.3722913    281.42267  0.024152306  0.024052044            4 
  972000   0.85948819   -7.3551776     282.2878  0.024201629  0.024034046            5 
  973000   0.88831729   -7.3864384    281.75224  0.024130887  0.024016099            2 
  974000   0.86005312   -7.3985008    282.58338  0.024177223  0.023998205            3 
  975000   0.88327709   -7.4099171    281.86646   0.02409115  0.023980386            3 
  976000   0.85907086   -7.3696425    282.62168  0.024130949  0.023962626            3 
  977000   0.84215348   -7.3907448    282.03918  0.024056566  0.023944936            4 
  978000   0.86658798   -7.3802299    282.89962  0.024105285  0.023927125            5 
  979000    0.8578014   -7.4320912    281.87142  0.023993141  0.023909356            2 
  980000   0.86911145   -7.3947543    283.03967  0.024067999  0.023891507            1 
  981000   0.85951829   -7.4232121    281.64412  0.023924917  0.023873674            2 
  982000   0.87006664   -7.3896266    282.87898  0.024005345  0.023855952            5 
  983000    0.8568914   -7.4267787    282.61457  0.023958509   0.02383825            3 
  984000   0.85910766   -7.4053968    282.87074  0.023955855  0.023820514            3 
  985000   0.85280254   -7.3910665    282.94728   0.02393801  0.023802782            2 
  986000   0.86606045   -7.3671177    283.53469  0.023963378  0.023785091            3 
  987000   0.84651975   -7.3957561    283.12711  0.023904687  0.023767472            3 
  988000   0.85969305   -7.4096448    282.46554  0.023824691  0.023749721            3 
  989000   0.85475288   -7.3909768    282.99784  0.023845454  0.023731982            2 
  990000   0.86133045   -7.3980794    283.57986  0.023870359  0.023714289            2 
  991000   0.86370529   -7.3974253    284.11129   0.02389096  0.023696748            2 
  992000   0.85797234   -7.4024452    283.80875  0.023841461   0.02367914            4 
  993000   0.87840025   -7.4174696    284.27578  0.023856645  0.023661382            2 
  994000   0.84876883   -7.4437961    283.38081  0.023757614  0.023643622            5 
  995000   0.87131513   -7.4071822    284.20352   0.02380264  0.023626005            6 
  996000   0.85182484   -7.3994102    283.42165  0.023713324  0.023608456            2 
  997000   0.84644037   -7.3705791    284.72495  0.023798475  0.023590994            4 
  998000   0.86054338   -7.4010792    284.83585  0.023783889  0.023573575            4 
  999000   0.83327134   -7.4244601    284.46931  0.023729505  0.023556107            4 
 1000000   0.86522367   -7.4059986    284.80907  0.023734089  0.023538644            3 
 1001000   0.86293519   -7.4122352    285.09345  0.023734053  0.023521162            2 
 1002000   0.83025003   -7.4076802    285.44159   0.02373932    0.0235039            4 
 1003000   0.84193295   -7.3849595    285.01284   0.02368003  0.023486606            3 
 1004000   0.85421303   -7.4343265    285.30607  0.023680783  0.023469124            3 
 1005000   0.84470278   -7.4356864     285.3725  0.023662728   0.02345172            3 
 1006000   0.85130328   -7.4092453    285.77652  0.023672674  0.023434441            2 
 1007000   0.84539105   -7.4275352    285.01496  0.023586143  0.023417107            7 
 1008000   0.85512455   -7.4014486    286.44453   0.02368093  0.023399719            3 
 1009000   0.84880275   -7.4029328    286.37456  0.023651682   0.02338247            3 
 1010000   0.84215306   -7.3974256    286.52409  0.023640602  0.023365312            2 
 1011000   0.85632757   -7.4126779    286.55656  0.023619895  0.023348203            4 
 1012000   0.84939369   -7.4242484    286.62242  0.023601978  0.023331033            3 
 1013000   0.86104167    -7.404186    286.17833  0.023542147   0.02331393            4 
 1014000   0.82885887   -7.4293259    286.55775  0.023550111  0.023296823            3 
 1015000   0.84434209   -7.4007654    286.35848  0.023510549   0.02327969            4 
 1016000   0.85861444   -7.4251153    286.28349  0.023481258  0.023262469            3 
 1017000   0.83953884   -7.4303958    286.28544  0.023458328   0.02324532            5 
 1018000   0.85615874   -7.4171376    285.90896  0.023404466  0.023228063            3 
 1019000   0.84817918   -7.3976207    287.32331  0.023497163  0.023210884            2 
 1020000   0.85028648   -7.4434078    287.09415  0.023455404  0.023193733            3 
 1021000   0.83850009   -7.4431499    286.20046  0.023359489  0.023176469            3 
 1022000   0.83184212   -7.4229775    286.68888  0.023376458  0.023159284            2 
 1023000   0.85609271   -7.4595883    286.42379  0.023332013   0.02314201            6 
 1024000   0.84909151   -7.4524526    287.09382  0.023363755  0.023124699            2 
 1025000   0.85766807   -7.4454696     287.3848  0.023364618  0.023107463            3 
 1026000   0.83193806   -7.4337686     287.0871  0.023317665  0.023090403            2 
 1027000   0.86196051   -7.4407669    286.93974  0.023283004  0.023073404            5 
 1028000   0.83969976   -7.4315667    287.65132  0.023318039   0.02305634            4 
 1029000   0.81833401   -7.4605645    287.00747  0.023243235  0.023038996            3 
 1030000   0.83728624   -7.4610017    287.19539  0.023235873  0.023021676            3 
 1031000    0.8314058   -7.4292249    286.86746   0.02318683  0.023004444            4 
 1032000   0.84760548   -7.4576867    287.49344   0.02321491  0.022987192            5 
 1033000     0.852955   -7.4667767     287.3112  0.023177734  0.022969951           10 
 1034000   0.82457337   -7.4804985     288.0282  0.023213105  0.022952801            4 
 1035000   0.84858504   -7.4605438     286.9986  0.023107778  0.022935635            2 
 1036000   0.84733671    -7.433454    288.32697  0.023192324  0.022918436            7 
 1037000   0.84680229    -7.463263    287.97991  0.023142069  0.022901387            2 
 1038000   0.83760698   -7.4506679     288.3673  0.023150875  0.022884281            8 
 1039000   0.85500654   -7.4596948    287.27579  0.023041048  0.022867106            4 
 1040000   0.84235478   -7.4263306    287.80581  0.023061363  0.022849912            4 
 1041000    0.8276395   -7.4686255    287.77415  0.023036675  0.022832708            3 
 1042000    0.8230203   -7.4628717    287.91238  0.023025622   0.02281543            2 
 1043000   0.84462927   -7.4418695    288.37291  0.023040341  0.022798272            5 
 1044000   0.82784438   -7.4561668    288.10383  0.022996794  0.022781001            4 
 1045000   0.82588432    -7.465738    287.91224  0.022959509  0.022763732            4 
 1046000   0.84021687    -7.478364    287.57996  0.022911087  0.022746446            3 
 1047000   0.83377257   -7.4358216    288.00903  0.022923355  0.022729135            2 
 1048000   0.83052379   -7.4956214    288.28366  0.022923319  0.022712021            4 
 1049000   0.83853848   -7.4656221    288.36168  0.022907664   0.02269489            7 
 1050000   0.82802517   -7.4820601    289.11097  0.022945315  0.022677767            4 
 1051000   0.83313895   -7.4806949    289.47143  0.022952064  0.022660737            4 
 1052000   0.84682333   -7.4420216    289.00176  0.022893042  0.022643736            4 
 1053000   0.85663104   -7.4513887    289.31518  0.022896105  0.022626616            4 
 1054000   0.81490162   -7.4548594    289.34777  0.022876958  0.022609692           10 
 1055000    0.8409521    -7.454067    289.78142  0.022889527  0.022592748            3 
 1056000    0.8106488   -7.4403165    290.90456  0.022956484  0.022575987            2 
 1057000   0.84494761   -7.4837255    290.06389  0.022868487  0.022559187            5 
 1058000   0.82793138   -7.4546227    289.92373  0.022835833  0.022542434            3 
 1059000   0.82840681   -7.4608199    289.95894   0.02281704  0.022525607            3 
 1060000   0.83260604   -7.5189852    290.17761  0.022812705  0.022508735            7 
 1061000   0.83181067   -7.5022107    289.62319  0.022747659  0.022491833            2 
 1062000   0.82431185   -7.4637543    290.36901  0.022784762   0.02247492            5 
 1063000   0.83422818     -7.49229    289.88022  0.022725009  0.022458072            2 
 1064000   0.82203307   -7.4755944    289.84765    0.0227011  0.022441271            3 
 1065000   0.83229289   -7.4726794     290.3556  0.022719531  0.022424455            5 
 1066000   0.82071128   -7.4744339    290.87479  0.022738804  0.022407587            2 
 1067000   0.82908143   -7.4887282    290.43834  0.022683407  0.022390725            4 
 1068000   0.82432869   -7.4580554    290.94882  0.022701999  0.022373961           12 
 1069000   0.81516613   -7.4444349    290.84371  0.022672569  0.022357293           12 
 1070000   0.82527187    -7.470801    291.03754  0.022666475  0.022340537            2 
 1071000   0.81891163   -7.4887494    290.13546  0.022575121  0.022323767            4 
 1072000    0.8259121   -7.4824208    290.60464  0.022590535  0.022307007            4 
 1073000   0.84123952   -7.5078874     290.4787    0.0225597  0.022290174            3 
 1074000   0.83299498   -7.5142022    290.97944  0.022577548   0.02227338            4 
 1075000   0.81789553   -7.4866806    291.07283  0.022563785  0.022256586            9 
 1076000   0.83685605   -7.4781587    290.88663  0.022528395  0.022239824            2 
 1077000   0.81513921    -7.494431    290.55762  0.022482019  0.022222959            3 
 1078000   0.83155822   -7.4999407      290.337  0.022444109  0.022206147            3 
 1079000   0.81738363   -7.4764049    292.28834  0.022574015    0.0221894            4 
 1080000   0.80499427   -7.5026721    291.74575  0.022511246  0.022172828            5 
 1081000   0.81882873   -7.5047413    291.28643  0.022455013  0.022156163            2 
 1082000     0.831985   -7.4754018    291.63297   0.02246095   0.02213948            2 
 1083000   0.81721494   -7.4796188    291.21661  0.022408172  0.022122846            2 
 1084000   0.83215875   -7.4956766    291.68708  0.022423668  0.022106101            8 
 1085000    0.8007061   -7.4967445    291.57479  0.022394377  0.022089387            2 
 1086000   0.81736915   -7.4993453    291.60521  0.022376091  0.022072686            6 
 1087000   0.83317154   -7.4815788     291.4663  0.022344856  0.022056023            3 
 1088000   0.80206391   -7.4947465      291.809  0.022350567  0.022039218            4 
 1089000   0.81539791   -7.4924575    292.19339  0.022359457  0.022022518            2 
 1090000   0.80976035   -7.5102928    291.97416  0.022322183  0.022005857            2 
 1091000   0.81081691    -7.469319    292.66321  0.022354354  0.021989163            5 
 1092000     0.841576   -7.5169782    292.34554  0.022309641  0.021972465            4 
 1093000   0.80211075   -7.5161671    291.67006   0.02223773  0.021955665            3 
 1094000   0.80736028   -7.5085133    291.35565  0.022193453  0.021938721            2 
 1095000   0.81770495   -7.5250477    291.34137  0.022172098  0.021921806            5 
 1096000   0.81147562   -7.5176067    291.92319  0.022196107  0.021904852            4 
 1097000   0.81237178   -7.5083768    291.57645  0.022149533   0.02188801            4 
 1098000   0.81623034   -7.4804202    292.22207   0.02217836  0.021871152            5 
 1099000   0.83997836   -7.5034244    292.32991  0.022166356  0.021854295           15 
 1100000   0.80766748   -7.5169371      292.379  0.022149924   0.02183747            7 
 1101000    0.8236042   -7.5137218    291.98891   0.02210028  0.021820544            3 
 1102000    0.8132638   -7.4925411    292.24872  0.022099873  0.021803514            4 
 1103000   0.81716988   -7.5027557    292.57199  0.022104261  0.021786552            4 
 1104000   0.81341996   -7.5081405    291.81334  0.022026973  0.021769567            6 
 1105000   0.81659918   -7.5161738    291.22534  0.021962695  0.021752619            4 
 1106000   0.82466434   -7.4849002    291.71961  0.021980079  0.021735793            2 
 1107000   0.82022423   -7.4971205     293.0271   0.02205865  0.021718984            2 
 1108000    0.8257879   -7.4985222    292.87553  0.022027341  0.021702138            2 
 1109000   0.81769518   -7.5042838    292.06706  0.021946728  0.021685376            5 
 1110000   0.80780453   -7.5051754     291.8967  0.021914166  0.021668488            6 
 1111000   0.82193311   -7.5162943    292.65534  0.021951346  0.021651591            5 
 1112000   0.79327239   -7.5381948    292.36899  0.021910146  0.021634733            4 
 1113000   0.82735653   -7.5141578    293.14235  0.021948364  0.021617963            4 
 1114000   0.81071778   -7.5125854    293.46551  0.021952836  0.021601293            4 
 1115000   0.81745277   -7.5400086     292.8017  0.021883535  0.021584705            5 
 1116000    0.7978806   -7.5273148     293.4879  0.021915165  0.021568185            4 
 1117000   0.80335634   -7.5028931    293.64882  0.021907552  0.021551787            3 
 1118000   0.81898119   -7.5130348     293.6712  0.021889624  0.021535353            4 
 1119000   0.80874478   -7.4866126    294.34946  0.021920574  0.021518903            2 
 1120000   0.81517297     -7.53916    293.65381  0.021849242  0.021502442            3 
 1121000   0.80490192   -7.5282679    293.53319  0.021820784  0.021485954            5 
 1122000   0.79856701   -7.4923964     294.4969  0.021872913  0.021469572            3 
 1123000   0.80051588   -7.5221372    294.19151  0.021830774  0.021453175            2 
 1124000    0.8086205   -7.5123636    294.68955  0.021848276  0.021436879            4 
 1125000   0.80198182   -7.4868415    295.05925  0.021856241  0.021420627            3 
 1126000    0.7922147   -7.5046082    294.40251  0.021788226  0.021404366            3 
 1127000   0.80985551   -7.5235234    295.20574  0.021828286   0.02138821            4 
 1128000   0.81029291   -7.5142549    295.11279  0.021802068  0.021372057            2 
 1129000   0.80563795   -7.5404112    294.80127  0.021759763  0.021355796            3 
 1130000    0.8152091   -7.5402894    294.68745  0.021732113  0.021339572            7 
 1131000   0.80946604   -7.5511537    294.76741  0.021718789  0.021323412            7 
 1132000    0.7675507   -7.5339938     295.6588  0.021765224  0.021307261            2 
 1133000   0.78830853   -7.4894598    295.71523  0.021750164  0.021291286            3 
 1134000   0.80009334   -7.5189761    295.33787  0.021703253  0.021275284            5 
 1135000   0.79661321   -7.5180104    295.80819  0.021718663  0.021259345            3 
 1136000   0.80140272   -7.5475611    295.11032  0.021648351  0.021243283            3 
 1137000   0.80488886   -7.5301255    296.42821  0.021725902  0.021227297            8 
 1138000   0.78878846   -7.5736406    295.40766  0.021632078  0.021211323            3 
 1139000   0.79674181   -7.5419513    295.37822  0.021610932  0.021195226            2 
 1140000   0.81242864   -7.5628163    295.10691  0.021572143  0.021179216            4 
 1141000   0.79077276   -7.5456285     295.4731  0.021579981   0.02116325            5 
 1142000   0.79366805   -7.5547751    295.64507  0.021573633  0.021147296            5 
 1143000   0.78312895   -7.5568318    295.82359  0.021567774  0.021131293            3 
 1144000   0.80462206   -7.4919461    297.22713   0.02165116  0.021115415            3 
 1145000   0.79894665   -7.5323557    295.57073  0.021511698  0.021099521            4 
 1146000   0.78606134   -7.5569029    295.86456  0.021514293   0.02108359            3 
 1147000   0.79738765    -7.553366    296.37709  0.021532773  0.021067705            3 
 1148000   0.79956865    -7.559674    296.23272  0.021503536  0.021051718            6 
 1149000    0.8085042   -7.5255289    296.23782  0.021485191  0.021035766            3 
 1150000   0.79606508   -7.5742357    295.64047  0.021423222  0.021019748            2 
 1151000   0.79042693   -7.5580619    296.80376  0.021488833  0.021003726            1 
 1152000   0.78013292   -7.5345862    296.90066  0.021477189  0.020987765            3 
 1153000   0.79890902   -7.5716603    296.06119  0.021397889  0.020971865            5 
 1154000   0.81769739   -7.5533097    296.39618  0.021403537  0.020956014            4 
 1155000   0.79545258    -7.546639    297.04874  0.021432088  0.020940189            5 
 1156000   0.78091009   -7.5413327    296.82223  0.021397219  0.020924384            4 
 1157000   0.78333265    -7.557898    296.94811  0.021387792  0.020908664            3 
 1158000    0.7993445   -7.5636367    296.55291  0.021340883  0.020892894            6 
 1159000   0.77980915   -7.5484319    296.12389  0.021291623  0.020877011            7 
 1160000   0.80148427   -7.5558175     297.0836  0.021342212  0.020861182            5 
 1161000   0.79930182   -7.5831059    296.74429  0.021299476  0.020845319            3 
 1162000   0.78907741   -7.5741513     296.5849  0.021269714  0.020829425           13 
 1163000   0.79861834   -7.5577625    296.91864  0.021275339   0.02081355            4 
 1164000   0.75452337   -7.6035431    296.38078  0.021218555  0.020797703            2 
 1165000   0.78804778   -7.5516494    297.07377  0.021249912  0.020781813            8 
 1166000   0.79068455   -7.5477139    296.80222   0.02121228  0.020766004            5 
 1167000   0.78823409   -7.5937745    296.85386   0.02119779  0.020750144            3 
 1168000     0.763057   -7.5566297    296.85168  0.021179486   0.02073424           13 
 1169000   0.78998104    -7.561398    297.03258  0.021174265  0.020718402            6 
 1170000   0.77437076   -7.5602611    297.19329  0.021167613  0.020702493            6 
 1171000   0.78358252    -7.596821    296.67687  0.021112786  0.020686579            3 
 1172000   0.78604749   -7.5802996    296.86107  0.021107869  0.020670803            6 
 1173000   0.76499835    -7.555226    297.18284  0.021112733  0.020655015            6 
 1174000   0.78318263   -7.5892425    297.47117  0.021115217  0.020639218            4 
 1175000   0.78934159   -7.5888747    298.83217  0.021193771  0.020623487            5 
 1176000   0.78792391   -7.5618576    297.63734  0.021091081  0.020607785            7 
 1177000   0.79914729   -7.5460331    297.85286  0.021088421  0.020592069            2 
 1178000   0.79293879   -7.5937499    298.22381  0.021096761  0.020576297            6 
 1179000   0.79973535   -7.5964084    297.72725  0.021043769  0.020560614            2 
 1180000   0.77178976   -7.5829717    297.18133  0.020987382   0.02054484            3 
 1181000   0.78284116   -7.5750994    297.86003  0.021017501  0.020529039            6 
 1182000   0.76677817    -7.590901    297.68201  0.020987169   0.02051345            2 
 1183000   0.77001084   -7.6019004    298.77063  0.021046114  0.020497875            3 
 1184000   0.77963337   -7.5616683    298.00372  0.020974361  0.020482242            5 
 1185000   0.78998834   -7.5917765    297.50834  0.020921824  0.020466634            4 
 1186000   0.77555063   -7.6058376    298.25923  0.020956944  0.020450969            3 
 1187000   0.78813189   -7.6051619    297.75995  0.020904237  0.020435288            5 
 1188000   0.78025703   -7.5904381    297.70259  0.020882617  0.020419578            7 
 1189000   0.76316461   -7.5905905    297.82936  0.020873939  0.020403871            5 
 1190000   0.78284505   -7.5907636     298.3118  0.020890182  0.020388183            2 
 1191000   0.77805262   -7.6007007    298.48278  0.020884606  0.020372586            4 
 1192000   0.77605812   -7.6014426    298.90917  0.020896894  0.020356978            3 
 1193000   0.78137348   -7.5864087    298.46882  0.020848618  0.020341372            5 
 1194000   0.79023403   -7.5706411    299.24382  0.020885247  0.020325775            5 
 1195000   0.78966382   -7.5836923    298.79723  0.020836627  0.020310205            7 
 1196000   0.76630494   -7.5491036    298.37386  0.020789706  0.020294689            5 
 1197000   0.78181695   -7.5869045    298.34744  0.020770498  0.020279159            3 
 1198000   0.77207321    -7.593436    298.77493  0.020782897  0.020263675            7 
 1199000   0.76226751   -7.5816938    298.72867  0.020762349  0.020248236            3 
 1200000   0.79107326   -7.5833596     298.2245  0.020710034  0.020232754            5 
 1201000   0.77536243    -7.582183    298.43648  0.020707499  0.020217212            2 
 1202000   0.78051658   -7.5822088    298.68614   0.02070758  0.020201672            4 
 1203000   0.77160514   -7.5912565    298.85915  0.020702352  0.020186084            3 
 1204000   0.77789087    -7.595725    299.30722   0.02071617  0.020170519            3 
 1205000    0.7808769   -7.5854738    298.44085  0.020639063  0.020154986            3 
 1206000   0.77024148   -7.5974394    298.88034  0.020652318  0.020139377            4 
 1207000   0.76483835   -7.6053371    299.67576  0.020690125  0.020123857            5 
 1208000   0.75723585   -7.6043616    299.16344  0.020637655  0.020108309            5 
 1209000   0.77235454   -7.6088492    298.79122  0.020594928  0.020092891            4 
 1210000   0.75635361   -7.5881989    299.36841  0.020617659  0.020077402            3 
 1211000   0.76061081   -7.6169193    298.55973  0.020544985  0.020061861            2 
 1212000   0.77980338   -7.6471824    299.36863  0.020583651  0.020046308            7 
 1213000   0.78778689   -7.6199856    298.98787  0.020540524  0.020030809            4 
 1214000   0.76233206   -7.6058469    298.65471  0.020500735  0.020015294            3 
 1215000   0.78338358   -7.6281209    298.77987  0.020492446  0.019999734            3 
 1216000   0.76876678   -7.6052453    299.58879   0.02053103  0.019984182            3 
 1217000   0.77924702   -7.5977522     299.1705  0.020485518  0.019968675            8 
 1218000   0.78789654   -7.6306353    298.18612  0.020401349  0.019953008           10 
 1219000   0.76289472   -7.6002767    298.19205  0.020385018  0.019937319            6 
 1220000   0.75694737   -7.6411687    298.09584  0.020361738  0.019921549            5 
 1221000   0.76171491   -7.5937808    298.96179  0.020404163  0.019905812            6 
 1222000   0.75069097   -7.6064929     298.5531  0.020359595  0.019890081            6 
 1223000   0.76237579   -7.6344175    298.06946  0.020309993  0.019874262            4 
 1224000   0.77744102   -7.6175141    298.87895  0.020348512  0.019858447            2 
 1225000    0.7599772   -7.6317128    298.48315  0.020304976  0.019842634            5 
 1226000   0.76782645   -7.6353111    298.91853  0.020318008  0.019826949            4 
 1227000   0.75848233   -7.6321623    297.95467  0.020235987  0.019811165            6 
 1228000   0.75419549   -7.6146796    298.34535   0.02024602  0.019795355            7 
 1229000   0.75339319   -7.5906608    299.19943  0.020287458  0.019779688            6 
 1230000   0.77906902   -7.6014228    299.30676  0.020278236  0.019764094            6 
 1231000   0.78035518   -7.6077398     299.4976  0.020274682  0.019748477            9 
 1232000   0.74988236    -7.573606    299.32291  0.020246409  0.019732864            4 
 1233000   0.77327646   -7.6251743    298.63028  0.020183176  0.019717233            7 
 1234000   0.77936459   -7.6297452     298.7047  0.020171846  0.019701614            6 
 1235000   0.74584913   -7.6098715    298.68111  0.020153921  0.019686006            7 
 1236000   0.75234553     -7.61959    299.30161   0.02017945  0.019670403            5 
 1237000    0.7750906    -7.638009    298.85571  0.020133098  0.019654836            2 
 1238000   0.76890065   -7.6087515    298.62636  0.020101397  0.019639248            7 
 1239000   0.75769398   -7.6511595    298.89752  0.020103411  0.019623679            5 
 1240000   0.76444104   -7.6234758    299.70111  0.020141204  0.019608115            3 
 1241000   0.75857694   -7.5937893    299.37266  0.020102918  0.019592629            4 
 1242000   0.75461583   -7.6538149    299.78593  0.020114461  0.019577133            2 
 1243000   0.75810588   -7.6739654    299.03028  0.020047619  0.019561585            4 
 1244000   0.77517853   -7.6043779    299.07309  0.020034371   0.01954603            3 
 1245000   0.75485742   -7.6346418    299.03463  0.020015705  0.019530458            3 
 1246000   0.77342802   -7.6588182     298.8643  0.019988249  0.019514809            2 
 1247000   0.74716833   -7.6448268    299.25124  0.019998078  0.019499209            3 
 1248000   0.76658341   -7.6524327    299.22889  0.019980562  0.019483622            2 
 1249000   0.75075638   -7.6405774    299.68918  0.019995275  0.019467995            3 
 1250000   0.73889141   -7.6551245    298.66536  0.019911024  0.019452348            4 
 1251000   0.74780636   -7.7018383    298.60283  0.019890943   0.01943674            2 
 1252000   0.74154606   -7.6345552    299.07087  0.019906208  0.019421127            2 
 1253000   0.76896302   -7.6401696    298.79503  0.019871976  0.019405526            2 
 1254000    0.7342293   -7.6495191    299.78355   0.01992182  0.019389962            4 
 1255000   0.77032963   -7.6509314     299.1118  0.019861341  0.019374483            4 
 1256000   0.75185588   -7.6570849    299.40552  0.019865016  0.019359083            7 
 1257000   0.75270479   -7.6451779    299.93436  0.019884272  0.019343698            3 
 1258000   0.75676155   -7.6375921    300.19125  0.019885483  0.019328438            5 
 1259000   0.73453008   -7.6720109    299.71921  0.019838444  0.019313113            6 
 1260000   0.77075441   -7.6255122    299.96751  0.019839121  0.019297826            7 
 1261000   0.76051787   -7.6746569    300.23062  0.019840776  0.019282534            4 
 1262000    0.7587055   -7.6269258     300.8904  0.019868621  0.019267327            2 
 1263000   0.76021605   -7.6381705    300.04144  0.019796875  0.019252172            2 
 1264000   0.74561322   -7.6605106    299.93215  0.019774008  0.019236944            2 
 1265000    0.7384314   -7.6848904     299.9902    0.0197622  0.019221713            8 
 1266000   0.74353837   -7.6598528     299.9294  0.019742588  0.019206517            5 
 1267000   0.72786148   -7.6912172    299.68167  0.019710712  0.019191269            5 
 1268000   0.73973805   -7.6553913    300.26466  0.019733482  0.019176116            7 
 1269000   0.75243087   -7.6481874    300.94366  0.019762521  0.019161009           10 
 1270000    0.7476696    -7.665599    300.23303   0.01970033  0.019145921            4 
 1271000   0.74071348    -7.641503    300.17708  0.019681162  0.019130803            2 
 1272000   0.73456895   -7.6832607    300.45936  0.019684183  0.019115666            6 
 1273000   0.75461838   -7.6700451    300.71935  0.019685739  0.019100544            5 
 1274000    0.7481125    -7.642029    300.15806  0.019633573  0.019085471            4 
 1275000   0.76232493   -7.6720533    300.54774  0.019643643  0.019070372            2 
 1276000   0.73888387   -7.6756642    301.43831   0.01968641  0.019055232            4 
 1277000   0.75153994   -7.6916365    300.83537  0.019631648  0.019040057            5 
 1278000   0.74104707   -7.6919741    300.25981  0.019578757  0.019024929            4 
 1279000   0.75220302   -7.6884891    299.82796  0.019535312  0.019009758            5 
 1280000   0.72931998   -7.6915855    300.89785  0.019589704  0.018994625            7 
 1281000   0.76274118   -7.6813935    300.32011  0.019536827  0.018979469            4 
 1282000   0.73866101   -7.6747577    300.89322  0.019558842  0.018964387            3 
 1283000   0.75452791   -7.6786952    301.08566  0.019556096  0.018949392            4 
 1284000   0.72901266   -7.6689327    301.00976   0.01953594  0.018934405            6 
 1285000   0.73234895   -7.6858568    301.09847   0.01952649  0.018919495            4 
 1286000   0.73145299   -7.6664139    301.40701  0.019531299  0.018904637            3 
 1287000   0.74801384   -7.6807931    300.87845  0.019481899  0.018889752            3 
 1288000   0.72701434    -7.674443    300.95798  0.019471919  0.018874925            4 
 1289000   0.72487969    -7.692629    301.56593  0.019496116  0.018860069            4 
 1290000   0.74884644   -7.6219456    301.98136   0.01950784  0.018845273            3 
 1291000    0.7379893   -7.6871111    301.83197  0.019483086  0.018830486            4 
 1292000   0.73624401   -7.6774561    301.51743  0.019447718  0.018815677            3 
 1293000   0.72270514   -7.6618417    301.51097  0.019432262  0.018800895            3 
 1294000   0.74329429   -7.6799421    301.76451  0.019433572  0.018786083            3 
 1295000   0.72003346   -7.6748949    301.31665  0.019389746  0.018771271            8 
 1296000   0.73166281   -7.6863409    301.37727  0.019378682  0.018756435            5 
 1297000   0.73373873   -7.6719828    301.59718  0.019377871   0.01874156            2 
 1298000   0.74273382   -7.7369421    301.35996  0.019347712  0.018726615            3 
 1299000   0.73921726   -7.7222588    300.91855    0.0193045  0.018711637            4 
 1300000   0.73451939   -7.7251922    300.90866  0.019289017  0.018696704            4 
 1301000   0.72981465    -7.692396    301.39559   0.01930538  0.018681827            3 
 1302000    0.7301217    -7.700329    301.90122  0.019322915   0.01866699            3 
 1303000    0.7321868   -7.6851533    301.32427  0.019271186  0.018652154            7 
 1304000   0.74339464   -7.6795215    300.97197  0.019233894  0.018637384            2 
 1305000   0.73282782   -7.6903799    301.35407  0.019243555  0.018622585            3 
 1306000   0.74640847   -7.6782873    301.90243   0.01926381  0.018607862            5 
 1307000   0.72403003   -7.6918753    302.20801  0.019268554  0.018593247            9 
 1308000   0.74085661   -7.6819609    302.18591  0.019252415  0.018578559            5 
 1309000   0.73169366   -7.6675541    301.59768  0.019200259  0.018563909            5 
 1310000   0.75069732   -7.7172246    301.70239  0.019192264  0.018549241            2 
 1311000   0.72420928   -7.7075468     302.1537  0.019206312  0.018534566            5 
 1312000   0.73769589    -7.709588    301.64604  0.019159428  0.018519892            4 
 1313000   0.72386745   -7.7321398    301.30543  0.019123219  0.018505179            4 
 1314000   0.72802025   -7.7294299    301.79835  0.019139926  0.018490472            2 
 1315000   0.71112683   -7.7113868    301.76961  0.019123549  0.018475749            4 
 1316000   0.72476361   -7.7013757    301.80796  0.019111447  0.018461106            4 
 1317000   0.73821585   -7.7147407    301.53457  0.019079636  0.018446424            4 
 1318000    0.7367114   -7.7258201    301.43501  0.019058865  0.018431708            6 
 1319000   0.74535098   -7.7124536     300.9681  0.019014917  0.018417032            3 
 1320000   0.73487684   -7.7030248    302.09983  0.019071959  0.018402359            3 
 1321000   0.74855442   -7.7041893    302.22135  0.019065187  0.018387691            6 
 1322000   0.72376128    -7.715673    301.87256   0.01902878  0.018373044            4 
 1323000    0.7200234   -7.7365877    302.12909  0.019030555   0.01835842            5 
 1324000   0.72470087   -7.7345988    301.27176  0.018962221  0.018343786            2 
 1325000   0.73593667   -7.7072987    302.40599  0.019019245  0.018329161            5 
 1326000    0.7133253   -7.7428429    302.34301  0.019000943  0.018314589            3 
 1327000   0.73335811   -7.7217455    302.14649  0.018974284  0.018299992            3 
 1328000   0.73073957   -7.7433544    302.03719  0.018953137   0.01828543            2 
 1329000   0.71473426   -7.7242243    301.97567  0.018935018   0.01827093            4 
 1330000   0.72960558    -7.718507    301.57109  0.018895432  0.018256369            4 
 1331000   0.72432549   -7.7247241    301.94517  0.018904657  0.018241814            4 
 1332000   0.70665923   -7.7610593    302.72483  0.018939241  0.018227263            6 
 1333000    0.7211622   -7.7296454    302.52194  0.018912349  0.018212745            3 
 1334000   0.71555598    -7.726622    302.17285  0.018876365  0.018198259            5 
 1335000   0.72694901   -7.7381703    302.23406  0.018866046  0.018183784            5 
 1336000   0.73530997    -7.739774     302.7305   0.01888289  0.018169329            2 
 1337000   0.70712351   -7.7289319    301.64449  0.018801078  0.018154812            4 
 1338000   0.73152461   -7.7054755    302.71474  0.018853683  0.018140382            6 
 1339000   0.70461099   -7.6899206     303.0791  0.018862279  0.018126002            3 
 1340000   0.72845108    -7.720759    303.29121  0.018861393  0.018111711            3 
 1341000   0.71359729   -7.7023228    302.96425   0.01882701  0.018097424            2 
 1342000   0.70134045    -7.689946     303.1098  0.018822019  0.018083131            4 
 1343000   0.73311368   -7.7460638    302.39584  0.018763703  0.018068826            6 
 1344000   0.72420086   -7.7243227    303.10727  0.018793854  0.018054489            5 
 1345000   0.71527673    -7.725541    303.24954  0.018788695  0.018040235           11 
 1346000   0.71106112   -7.7381995    302.52191  0.018729687  0.018025998            7 
 1347000   0.71893544    -7.720687     303.2938  0.018763536  0.018011764            8 
 1348000   0.71810187   -7.7731818    302.76741  0.018717075  0.017997535            2 
 1349000   0.72125115   -7.7449941    303.63443   0.01875676  0.017983252            3 
 1350000   0.69846916   -7.7742491    302.71979  0.018686407  0.017969018            2 
 1351000   0.73744845    -7.764343    303.08292  0.018694974  0.017954802            3 
 1352000   0.71627845   -7.7567887    303.15428  0.018685545  0.017940621            4 
 1353000   0.70781539   -7.7495709    303.18571   0.01867367  0.017926478            3 
 1354000   0.71256095   -7.7490509    303.76017  0.018695234  0.017912323            4 
 1355000   0.71717781   -7.7460727    303.95795  0.018693601    0.0178982           11 
 1356000   0.71365505   -7.7537574    303.21471  0.018634139  0.017884063            3 
 1357000   0.71507287    -7.727933    304.09515  0.018674475  0.017869982            4 
 1358000    0.7189093   -7.7551134    303.93201  0.018650713  0.017855955            3 
 1359000   0.72496617   -7.7096044    303.36034  0.018601934  0.017841938            7 
 1360000    0.7029383   -7.7523491    303.70403  0.018609316  0.017827946            4 
 1361000   0.71196115   -7.7285818    304.05971  0.018617421     0.017814            2 
 1362000   0.72320307   -7.7396202    303.33508  0.018559415  0.017800095            2 
 1363000   0.71875691   -7.7551228    303.73524  0.018570264  0.017786131            3 
 1364000   0.70036142   -7.7426539     304.4942  0.018603018  0.017772163            4 
 1365000   0.70709271   -7.7680224    304.05337  0.018562477  0.017758221            3 
 1366000   0.70338096   -7.7262129    304.13143   0.01855365  0.017744306            5 
 1367000   0.71207469   -7.7522034    303.92273  0.018527355  0.017730445            3 
 1368000    0.7226731   -7.7905104    303.39398  0.018481602  0.017716529            6 
 1369000   0.72810124   -7.7653134    303.86304  0.018496655  0.017702581            3 
 1370000   0.71260741   -7.7711309    303.72193   0.01847457  0.017688577            7 
 1371000   0.70759301   -7.7586684    304.11289  0.018484858  0.017674626            4 
 1372000     0.709442    -7.787933    303.58493  0.018439318  0.017660684            8 
 1373000   0.70458822   -7.7740024    303.75021   0.01843592  0.017646767            4 
 1374000   0.70764307   -7.7778565    303.58091  0.018412234  0.017632836            6 
 1375000   0.69386546   -7.7636642    304.36741  0.018446509  0.017618939            6 
 1376000   0.70900856   -7.7591692    304.30644  0.018429411  0.017605081            5 
 1377000   0.71260467   -7.7750529    303.74496  0.018382048  0.017591239            7 
 1378000   0.70673452   -7.7548435     304.0839  0.018389205  0.017577389            4 
 1379000   0.71168391    -7.786855    304.45296  0.018398173  0.017563496            9 
 1380000    0.6991267   -7.7782219    304.03569  0.018359643  0.017549577            4 
 1381000   0.71232645   -7.7705503    303.28918  0.018301302  0.017535716            4 
 1382000   0.69816014   -7.7702438    303.90001  0.018324892  0.017521902            6 
 1383000   0.71162163   -7.7703202    303.69449  0.018299258  0.017508078            7 
 1384000   0.70929941   -7.7760992    304.59028  0.018339974  0.017494251            4 
 1385000   0.71625037   -7.7851559    303.95495  0.018288505  0.017480432            9 
 1386000   0.70955321   -7.7782398    304.28933  0.018295414   0.01746664            7 
 1387000   0.70205786   -7.7649905    303.99672  0.018264643  0.017452854            2 
 1388000   0.71188179   -7.7619218    303.72086  0.018234922   0.01743907            3 
 1389000   0.70259469   -7.7746807     303.4114  0.018203228    0.0174252            7 
 1390000   0.70600304   -7.7794569    303.58152  0.018200331  0.017411403            4 
 1391000   0.68735295    -7.772337    304.11618  0.018219277   0.01739765            2 
 1392000   0.70060087   -7.7518138    303.93676  0.018195448  0.017383938            3 
 1393000   0.69555871   -7.7623693    304.45548  0.018213417  0.017370145            2 
 1394000   0.71169216   -7.7795662    303.90986  0.018167734  0.017356393            4 
 1395000   0.68972943   -7.7684058    304.86444  0.018211735  0.017342628            4 
 1396000   0.68741402   -7.7770119    304.06436  0.018150929   0.01732884            4 
 1397000   0.69470538   -7.7796405    303.98579  0.018133249  0.017315086            4 
 1398000   0.68711532   -7.7835428    304.06599  0.018125059  0.017301378            4 
 1399000   0.70013058    -7.790801      304.111  0.018114784  0.017287666            4 
 1400000   0.70117783   -7.7942125    303.42974  0.018061294  0.017273951            7 
 1401000   0.68723978   -7.8091981    303.95674  0.018079749  0.017260212            3 
 1402000   0.69778609   -7.7901284    303.75934   0.01805512  0.017246453            5 
 1403000   0.68933184   -7.8032811    303.96764  0.018054623   0.01723271            5 
 1404000   0.69411234   -7.7850776     304.4647  0.018071266  0.017218995            4 
 1405000    0.7094464   -7.7819934     304.1585  0.018040243  0.017205341            7 
 1406000   0.70521578   -7.7798691    304.19795  0.018029751  0.017191683            3 
 1407000   0.68772803   -7.7880572     304.5296  0.018036579   0.01717805            3 
 1408000     0.698754   -7.7846832    304.74783  0.018036685  0.017164474            5 
 1409000   0.68476517   -7.7876826    304.83774  0.018029202  0.017150884            4 
 1410000   0.69495302   -7.7870498    304.86228  0.018017865  0.017137302           10 
 1411000    0.6826668   -7.7794747    304.14577  0.017962779  0.017123761            4 
 1412000   0.70359415   -7.7831208    304.45086  0.017968063  0.017110212            9 
 1413000   0.69812439   -7.7892803    304.70378  0.017970263  0.017096714            6 
 1414000   0.68448391   -7.7694589    304.79317  0.017962822  0.017083234            5 
 1415000   0.68618297    -7.810853    304.58285  0.017937741  0.017069676            4 
 1416000   0.67811476   -7.7735469    304.75514  0.017935213  0.017056145            6 
 1417000    0.6860007   -7.7702651    304.30591  0.017896137  0.017042675            5 
 1418000   0.67839851   -7.8063447     304.6022  0.017900929    0.0170292            6 
 1419000   0.67599061   -7.7990589     304.8182  0.017900999  0.017015753            6 
 1420000   0.69140054   -7.8008615    305.09776  0.017904798  0.017002285            8 
 1421000   0.68897706     -7.82506    305.10041  0.017892354  0.016988816            4 
 1422000   0.68919463    -7.800936    304.62478  0.017851898  0.016975376            4 
 1423000   0.66957853   -7.8224606    303.73408  0.017787191  0.016961884            4 
 1424000   0.69387198   -7.8049118    304.59968  0.017825356  0.016948412            4 
 1425000   0.69435398   -7.8180201    304.54655   0.01780974  0.016934943            3 
 1426000   0.67497868   -7.7917025    304.48926  0.017793903  0.016921517            4 
 1427000   0.68267134    -7.783951    305.31098  0.017829419  0.016908065            5 
 1428000   0.67920384   -7.8245482    304.01182  0.017741119  0.016894556            2 
 1429000   0.68749164   -7.8406619     304.6363  0.017765122  0.016881063            3 
 1430000   0.69779067   -7.8233937     304.6591  0.017754027  0.016867608            3 
 1431000    0.6784723    -7.810027    304.67816   0.01774273  0.016854118            4 
 1432000   0.68460523   -7.8284306    304.28929   0.01770771  0.016840606            2 
 1433000   0.65805655    -7.824282    304.68607  0.017718427  0.016827117            4 
 1434000   0.68318702   -7.8133775    303.20991  0.017620288  0.016813657            5 
 1435000   0.68665497    -7.804728    304.11755  0.017660717  0.016800201            7 
 1436000   0.67117716   -7.8051064    304.49849  0.017670525  0.016786794            5 
 1437000    0.6887227   -7.8360716    304.33227  0.017648589  0.016773411            4 
 1438000   0.68364947   -7.8071028    305.01472  0.017675865  0.016760044            4 
 1439000   0.67458966   -7.8263057    304.44614  0.017630655  0.016746697            4 
 1440000   0.67738975   -7.8067681    304.62146  0.017628557  0.016733338            8 
 1441000   0.67587258   -7.8347112    304.84747  0.017629394  0.016719972            4 
 1442000   0.68174396   -7.8282378     303.7529  0.017553912   0.01670659            5 
 1443000   0.67338645    -7.829475    305.35961  0.017634535  0.016693257            9 
 1444000   0.66007431   -7.8274269    304.55276   0.01757576  0.016679934            3 
 1445000   0.68005418   -7.8456612    305.31983  0.017607834   0.01666667            4 
 1446000   0.68233913   -7.8267577    304.66941  0.017558172  0.016653393           17 
 1447000   0.67448866   -7.8152046    304.44454  0.017533088  0.016640113            6 
 1448000   0.67621437   -7.8226688    304.32768  0.017514254   0.01662683            6 
 1449000   0.67200359   -7.8223145    304.26294  0.017498444  0.016613553            7 
 1450000   0.67090508   -7.8312423     304.2826  0.017487506  0.016600278            3 
 1451000   0.66240775   -7.8351316    305.05386  0.017519748  0.016587041            4 
 1452000   0.68205335   -7.8539599    305.05209  0.017507581  0.016573797            3 
 1453000   0.66735703   -7.8345895     305.0856  0.017497454  0.016560536            3 
 1454000   0.65999231   -7.8523299    304.38134  0.017445056  0.016547258            3 
 1455000   0.67000909   -7.8286793    304.55599  0.017443069     0.016534            6 
 1456000   0.67095399   -7.8477017    304.26102  0.017414207  0.016520745            4 
 1457000   0.67633858   -7.8591329    305.21606  0.017456878  0.016507499            4 
 1458000   0.68375358   -7.8437191    305.00588  0.017432892  0.016494311            4 
 1459000   0.66824662   -7.8651466    304.43095  0.017388106  0.016481142            5 
 1460000   0.66245778   -7.8373582    304.85093  0.017400167  0.016467966            2 
 1461000   0.65565881   -7.8481582    305.09158  0.017401984  0.016454801            6 
 1462000   0.65050394   -7.8559018    304.97961  0.017383699  0.016441634            6 
 1463000   0.65659872   -7.8547972    305.12835  0.017380289  0.016428424            3 
 1464000   0.65156654   -7.8057728    304.86741  0.017353564  0.016415317            4 
 1465000   0.66953154   -7.8321025    304.59695  0.017326334  0.016402225            4 
 1466000   0.66001049   -7.8510107    304.56659  0.017312789   0.01638911            4 
 1467000   0.67553055   -7.8330263    304.83266  0.017316102  0.016376023            7 
 1468000   0.65539943   -7.8357551    304.64244  0.017293508  0.016362942            7 
 1469000   0.65578178   -7.8276637    304.81857  0.017291728  0.016349825            9 
 1470000   0.67064079   -7.8579489    304.47989  0.017260765  0.016336723            7 
 1471000   0.67051451   -7.8479245    304.80063  0.017267201   0.01632362            4 
 1472000   0.65453224   -7.8407488    304.74574  0.017252363  0.016310533            9 
 1473000   0.65746179    -7.860725    304.47178  0.017225152  0.016297451            5 
 1474000    0.6865438   -7.8393225    304.33063  0.017205485  0.016284331            6 
 1475000   0.66526683   -7.8450005    304.62802  0.017210622  0.016271224            3 
 1476000   0.65864585   -7.8525352     304.4818  0.017190707  0.016258139            6 
 1477000   0.66780936   -7.8340678    305.09088  0.017213433  0.016245081            3 
 1478000   0.66293665   -7.8720454    305.14235  0.017204688  0.016232033            4 
 1479000   0.64485863   -7.8512458    304.80852  0.017174246  0.016218956            4 
 1480000   0.67356433   -7.8420558     305.4224  0.017197207  0.016205948            5 
 1481000   0.66098584   -7.8466267    305.20764  0.017173511  0.016192908            6 
 1482000   0.66011967   -7.8519961    304.89483  0.017144334  0.016179886            7 
 1483000   0.66234405   -7.8466074    304.08244  0.017087123  0.016166896            7 
 1484000   0.66679501   -7.8434665    304.81011   0.01711647  0.016153922            8 
 1485000   0.66759516   -7.8404493    304.77725    0.0171031  0.016140933            3 
 1486000   0.65579278   -7.8723622    305.30214  0.017121026  0.016127972            4 
 1487000   0.66199662    -7.855757    304.58471  0.017069307  0.016115013           11 
 1488000   0.67963732   -7.8362708    304.96886  0.017079349  0.016102047           13 
 1489000   0.65935886      -7.8543     304.3945  0.017035734  0.016089098            8 
 1490000   0.65581499   -7.8756068    304.60062  0.017035829  0.016076132            4 
 1491000   0.66948189   -7.8794485    304.75765  0.017033179  0.016063209            3 
 1492000   0.65150225   -7.8759634    305.68482  0.017073549  0.016050313            2 
 1493000   0.67330564   -7.8418678    305.36924  0.017044499  0.016037429            8 
 1494000   0.65287276   -7.8479155     305.2052   0.01702394   0.01602457            6 
 1495000   0.66091327   -7.8833161    304.88923   0.01699494  0.016011711            4 
 1496000   0.66793145   -7.8707393    305.11285  0.016996037  0.015998843            3 
 1497000   0.66996339   -7.8757233    304.80196  0.016967377  0.015986007            3 
 1498000   0.64583077   -7.8961654    304.37803  0.016932467   0.01597315            4 
 1499000   0.65557204   -7.8571244    305.19671  0.016966684  0.015960303            6 
 1500000   0.64906559   -7.8599127    304.50846  0.016917137  0.015947481            4 
 1501000   0.64488386   -7.8772849    305.24094  0.016946532  0.015934656            5 
 1502000   0.66591581   -7.8717435    304.80845  0.016911254  0.015921855            3 
 1503000   0.65872812   -7.8924491    304.81794  0.016900529  0.015909064            5 
 1504000   0.64692365   -7.8815205    304.51177  0.016872328  0.015896262            5 
 1505000   0.66308041   -7.8733161    304.43869   0.01685707  0.015883446            4 
 1506000   0.65657637   -7.8839981     304.5381  0.016851378  0.015870636            6 
 1507000   0.66160626   -7.8956274    304.50122  0.016838156  0.015857827            5 
 1508000   0.64639435   -7.9120549    304.72326   0.01683926  0.015844996            5 
 1509000   0.66848865   -7.8752478    304.39839   0.01681016  0.015832193           10 
 1510000   0.65298125   -7.9016236    303.91044  0.016772099  0.015819403            8 
 1511000   0.65792761   -7.8919019     304.4141  0.016788777   0.01580662           10 
 1512000   0.65828425    -7.875931    304.06601  0.016758488  0.015793831            4 
 1513000   0.65706657   -7.8970477    304.54619  0.016773859  0.015781062            9 
 1514000   0.66170652   -7.8849426    304.49483  0.016759953  0.015768278            5 
 1515000    0.6498878   -7.8790809    304.62175  0.016755872   0.01575549            3 
 1516000    0.6496157   -7.9024524      304.294  0.016726803  0.015742699            4 
 1517000   0.65004309   -7.9098949    305.19703  0.016765383  0.015729904            5 
 1518000   0.64402205   -7.9087636    304.87154   0.01673647  0.015717146            4 
 1519000   0.64211424    -7.884692    304.57432  0.016709146  0.015704383           11 
 1520000   0.64819357   -7.8959442    304.46605  0.016692217  0.015691603            7 
 1521000   0.63919536   -7.8879362    304.06968  0.016659527  0.015678815            6 
 1522000   0.64045983   -7.9079642    304.29991  0.016661186  0.015666055            4 
 1523000    0.6610739   -7.8999525    304.21457  0.016645577  0.015653351            5 
 1524000   0.66303343   -7.9163607    303.59838  0.016600961  0.015640624            4 
 1525000   0.64028711   -7.9031194     304.4015  0.016633961  0.015627905            6 
 1526000   0.64774995   -7.8667326     304.2665  0.016615689  0.015615195            9 
 1527000   0.63571061   -7.8947698    304.38852  0.016611467  0.015602527            4 
 1528000    0.6368524   -7.9060816    304.42098  0.016602366  0.015589852            4 
 1529000   0.65192518    -7.916402    304.79359  0.016611815  0.015577169            6 
 1530000   0.63732392   -7.9148961    304.22313  0.016569887  0.015564518            3 
 1531000   0.62789594   -7.8941982    304.85248   0.01659332  0.015551891            7 
 1532000   0.63324734   -7.8807315    304.59259  0.016568353  0.015539264            5 
 1533000   0.64919567   -7.8977135     304.0566  0.016528408   0.01552667            4 
 1534000   0.65470928   -7.9019042    304.65354  0.016550062  0.015514049            5 
 1535000   0.63884623   -7.9098369    304.59249  0.016535966  0.015501439            3 
 1536000   0.62384637   -7.8997517    304.79337  0.016536099  0.015488824            5 
 1537000   0.64669635   -7.9089234    304.45356  0.016506916  0.015476201            4 
 1538000    0.6401858   -7.9144796     303.2692  0.016432011  0.015463594            5 
 1539000   0.62884891   -7.9220067    304.13342   0.01646813  0.015450972            6 
 1540000   0.65107101   -7.9064247    304.04383  0.016452588   0.01543836            8 
 1541000   0.62823925   -7.9026035    304.22702  0.016451818  0.015425769            7 
 1542000   0.63354101   -7.9146329     304.3291  0.016446666  0.015413178            6 
 1543000   0.62342114     -7.90172    304.26077  0.016432316  0.015400595            6 
 1544000   0.64368686   -7.9194848    303.72867  0.016392955  0.015388043            7 
 1545000   0.64025211   -7.9132797    304.16196  0.016405715  0.015375496            6 
 1546000   0.63712439   -7.9064436    304.65648   0.01642176   0.01536294            3 
 1547000   0.63933767    -7.945034     304.2646  0.016390035  0.015350363            6 
 1548000   0.62656267   -7.9127721    304.50106  0.016392176  0.015337793            3 
 1549000   0.63024612    -7.946066    304.34589  0.016373245  0.015325266            5 
 1550000   0.64005858   -7.9327783    304.33221  0.016361947  0.015312726            6 
 1551000   0.63061816   -7.9210928    304.17594  0.016343001  0.015300233            6 
 1552000   0.63832003   -7.9584283    303.89667  0.016317476  0.015287751           12 
 1553000   0.63464831   -7.9315788    304.27977  0.016327526  0.015275291            5 
 1554000   0.64887826   -7.9277896     304.1624  0.016310725  0.015262838            9 
 1555000   0.63343068     -7.91071    304.17003  0.016300645  0.015250383            3 
 1556000   0.63258292   -7.9227028     304.3154  0.016297954  0.015237923            5 
 1557000   0.62598737   -7.9227495    304.32788  0.016288155  0.015225488            4 
 1558000   0.61974197   -7.9277829    304.49923  0.016286865  0.015213072            5 
 1559000   0.63828287   -7.9249256     304.4457  0.016273557  0.015200695            7 
 1560000   0.62637593   -7.9193096    304.45713  0.016263736  0.015188328            5 
 1561000   0.64068151   -7.9402245    304.69547   0.01626604  0.015175963           15 
 1562000   0.64497878   -7.9388267    304.58577  0.016249774  0.015163613            9 
 1563000   0.62164983   -7.9427296    304.83772  0.016252811   0.01515127           10 
 1564000    0.6259719   -7.9249861    304.46683  0.016222657  0.015138934            5 
 1565000   0.61784671   -7.9305677    305.09338  0.016245654  0.015126579            5 
 1566000   0.62950259   -7.9407825    304.25141  0.016190475  0.015114264            4 
 1567000   0.62481062   -7.9411652    304.54931  0.016195985  0.015101978            3 
 1568000   0.63250134   -7.9225766    304.59713  0.016188198  0.015089693            4 
 1569000   0.62596324   -7.9328323      304.074  0.016150096  0.015077426            6 
 1570000    0.6321201   -7.9607362    304.39286  0.016156734   0.01506518            3 
 1571000    0.6327365   -7.9304578    304.59362  0.016157099  0.015052921            3 
 1572000   0.62714822   -7.9521208    303.89033  0.016109538  0.015040718            4 
 1573000   0.62003209   -7.9628331    304.25297  0.016118508  0.015028487            6 
 1574000   0.63216154   -7.9406604    304.61498  0.016127434  0.015016262            4 
 1575000   0.62628868   -7.9334742    304.74574  0.016124113  0.015004058            3 
 1576000   0.61544286   -7.9494032    304.20074  0.016085065  0.014991888            3 
 1577000   0.63424883   -7.9429334    304.98293  0.016116198   0.01497972            3 
 1578000   0.62678387   -7.9657284    305.13096  0.016113802  0.014967569            6 
 1579000   0.62638087   -7.9500679    304.51607  0.016071146  0.014955407            5 
 1580000   0.61735525   -7.9411313    304.27737  0.016048385  0.014943252            3 
 1581000   0.61714228   -7.9584464    304.48535  0.016049196  0.014931108            4 
 1582000   0.61298069   -7.9288902    304.28846   0.01602868  0.014918957            9 
 1583000   0.61445648   -7.9514439    304.02131  0.016004491  0.014906802            4 
 1584000   0.63057577   -7.9465268    303.86955  0.015986403  0.014894654            8 
 1585000   0.62356575   -7.9536775     304.7016  0.016020063  0.014882521            4 
 1586000   0.62300714   -7.9595413    304.18507  0.015982822  0.014870402            6 
 1587000   0.61232121   -7.9476453    304.39913  0.015983991  0.014858318            8 
 1588000   0.62069244   -7.9778923    304.16272   0.01596152  0.014846229           10 
 1589000   0.62997415   -7.9721827    304.04797  0.015945457  0.014834122            4 
 1590000   0.61940778   -7.9605728    303.99293  0.015932544   0.01482202            3 
 1591000   0.62001768   -7.9718637    303.79532  0.015912179  0.014809937            4 
 1592000   0.61687964   -7.9401747    304.46432  0.015937203  0.014797848            2 
 1593000   0.61009893   -7.9766406    304.33856   0.01592062  0.014785771            3 
 1594000   0.61183686   -7.9878395    304.26365  0.015906715  0.014773685            5 
 1595000   0.61466249   -7.9629744    303.65397  0.015864889  0.014761605            4 
 1596000   0.60717531   -7.9723498    304.72244  0.015910737  0.014749552            5 
 1597000   0.60574944   -7.9912052     304.4301  0.015885519  0.014737489            7 
 1598000   0.63623211   -7.9955478     304.1667  0.015861843  0.014725428            5 
 1599000   0.61778792   -7.9986129    303.66335   0.01582569  0.014713411            9 
 1600000   0.60503897   -7.9721844    304.30121  0.015849021  0.014701405            8 
 1601000   0.60575703   -7.9893956    304.27702  0.015837863  0.014689394            5 
 1602000   0.61569792   -7.9652506    303.94993  0.015810962  0.014677417            3 
 1603000   0.60770369   -7.9805526    303.27803  0.015766169  0.014665413            4 
 1604000    0.6137518   -7.9912237    303.94009  0.015790736  0.014653437            6 
 1605000   0.60896389   -7.9876958    304.14114  0.015791337  0.014641469            4 
 1606000   0.61376708   -7.9878282    304.25506  0.015787415  0.014629506            7 
 1607000    0.6123746   -7.9899805    303.50196  0.015738538  0.014617578            3 
 1608000   0.62766108   -8.0263799    303.91589  0.015750202  0.014605633            6 
 1609000   0.61536064   -8.0082215    304.88225  0.015790462   0.01459371            4 
 1610000   0.60784653    -7.991885    303.95194  0.015732502  0.014581795            7 
 1611000   0.61413682   -7.9786598    304.31039  0.015741278  0.014569877            3 
 1612000   0.60115157   -7.9870183    304.49961  0.015741295  0.014557963            6 
 1613000    0.6112038   -8.0117127    304.56636  0.015734984  0.014546076            6 
 1614000   0.61945827   -7.9774202    304.39263  0.015716266  0.014534199            7 
 1615000   0.60587188   -8.0101707    304.51627  0.015712914  0.014522334            2 
 1616000   0.59136062    -8.002821    304.32489  0.015693321  0.014510472            6 
 1617000    0.5993279   -7.9779519    304.10891  0.015672486  0.014498639            3 
 1618000   0.60552744   -7.9881307    303.95769  0.015655011  0.014486825            4 
 1619000   0.59284662   -7.9956429    304.02447  0.015648778  0.014475019            2 
 1620000   0.61043785   -8.0008887    304.16936  0.015646572  0.014463207            4 
 1621000   0.61376474   -7.9806365     303.6386  0.015609634  0.014451424            7 
 1622000   0.59191013   -7.9799735    304.33238  0.015635654  0.014439645            3 
 1623000    0.6084832    -7.994258    304.28913    0.0156238  0.014427864            5 
 1624000   0.60788296   -7.9946242    304.94946  0.015648063  0.014416125           13 
 1625000   0.61043941   -7.9879241    304.12049  0.015595923  0.014404381            8 
 1626000   0.59212746   -7.9861601    304.25288  0.015593116  0.014392656            3 
 1627000   0.61302217   -8.0127829    303.73602  0.015557059  0.014380931            3 
 1628000   0.60082724   -7.9811342    304.10962  0.015566627  0.014369239            4 
 1629000   0.59461701   -8.0010816    304.64781  0.015584602  0.014357539            9 
 1630000   0.61252505   -7.9945556    304.53679  0.015569365  0.014345886            6 
 1631000   0.60206568   -7.9844216    304.38267  0.015551945  0.014334236            3 
 1632000   0.60085014    -7.985445    303.99936  0.015522843  0.014322594            8 
 1633000   0.58457238   -7.9754381    304.75914  0.015552109  0.014310977            6 
 1634000   0.61374798   -7.9893775    304.34526  0.015521484  0.014299361            6 
 1635000   0.60265212    -7.991228    304.66497  0.015528286  0.014287751            7 
 1636000     0.593297     -8.00777    304.31418  0.015500926  0.014276128            5 
 1637000   0.60084335   -7.9949577    303.74598  0.015462532  0.014264524            5 
 1638000   0.60602244   -8.0113297    304.18694  0.015475526  0.014252932            4 
 1639000   0.59829605   -7.9965076    304.23106  0.015468327  0.014241328            5 
 1640000   0.59670632   -8.0088107    303.99915  0.015447111  0.014229727            3 
 1641000   0.59404199   -7.9930074    303.43622  0.015409111  0.014218121            4 
 1642000   0.59972755   -8.0033931    304.07393  0.015432091  0.014206525            8 
 1643000   0.59584566    -8.016888    303.44227  0.015390661  0.014194943            8 
 1644000    0.5952929   -8.0007624    303.63664  0.015391152  0.014183363            9 
 1645000   0.58772746    -7.998728    304.08079  0.015404295  0.014171777            7 
 1646000   0.59794872   -8.0058151    304.50974  0.015416653  0.014160187           10 
 1647000    0.5962965   -7.9969094    303.99711  0.015381356  0.014148611            5 
 1648000   0.57274563   -8.0119162    303.81894  0.015363013  0.014137059            4 
 1649000   0.58879042   -8.0133198     303.9948  0.015362583  0.014125514            8 
 1650000   0.59241809    -8.032623    303.89402  0.015348183  0.014113976            9 
 1651000   0.59200078   -8.0054724    303.68543  0.015328358  0.014102429            4 
 1652000   0.59153487   -8.0161731    303.50335  0.015309895  0.014090903            8 
 1653000   0.59689924   -8.0139129    304.60164  0.015356001  0.014079383            4 
 1654000   0.60560852   -8.0364832    303.65982  0.015299265  0.014067865            6 
 1655000    0.6022797   -8.0208825     304.4123  0.015327911  0.014056356            7 
 1656000   0.59797781   -8.0033145    303.69309  0.015282462  0.014044862           10 
 1657000   0.59236251   -8.0239987    303.82426  0.015279836  0.014033405            9 
 1658000   0.58785444   -8.0297803    303.30446  0.015244494   0.01402193            8 
 1659000    0.5944595   -8.0320314    304.09972  0.015275252  0.014010484           10 
 1660000   0.60020601   -8.0166754    303.61661  0.015241798  0.013999029            7 
 1661000    0.6015742   -8.0392149    303.57291  0.015230429  0.013987579            8 
 1662000   0.60208097   -8.0222821     303.7507   0.01523018  0.013976144            5 
 1663000   0.59312836   -8.0312634    303.81364  0.015224175  0.013964729            8 
 1664000   0.58959696   -8.0201406    304.00566  0.015224643  0.013953311            8 
 1665000   0.58997455   -8.0427317    304.30935  0.015230698  0.013941923            6 
 1666000    0.5842054   -8.0217142    303.65955  0.015189053  0.013930534            3 
 1667000   0.57376299   -8.0271899    303.46302  0.015170117  0.013919162            5 
 1668000   0.58168418   -8.0358406    303.87253  0.015181481  0.013907789            6 
 1669000   0.57806881   -8.0078813    303.70862  0.015164201  0.013896428            4 
 1670000   0.58235572    -8.036616    303.34985  0.015137218  0.013885081            7 
 1671000   0.58925483   -8.0445368    303.69223  0.015145234  0.013873731            3 
 1672000   0.59071334   -8.0289212    303.36873  0.015120052  0.013862381            7 
 1673000   0.57981178   -8.0153343    303.47997  0.015116556  0.013851046           10 
 1674000   0.57725865    -8.023451    304.75899  0.015171196  0.013839715            6 
 1675000   0.58153319   -8.0401749    303.21299  0.015085223  0.013828405            7 
 1676000    0.5758943   -8.0281315    303.62585  0.015096751  0.013817083            5 
 1677000     0.583115    -8.011138    303.22655  0.015067906   0.01380578            6 
 1678000   0.58380708   -8.0570186    303.32384  0.015063758   0.01379448            5 
 1679000   0.58436886   -8.0594777    303.50856  0.015063955  0.013783166            6 
 1680000      0.58952   -8.0572895     304.0714  0.015082907   0.01377187            7 
 1681000   0.58921002   -8.0540243    303.41233  0.015041262  0.013760579            4 
 1682000   0.57749195   -8.0449526    303.25639  0.015024593  0.013749309            6 
 1683000   0.56194142   -8.0358355    303.79212  0.015042193  0.013738062            5 
 1684000   0.57626862   -8.0406688    303.79907  0.015033604  0.013726827            5 
 1685000   0.57743718   -8.0529597    303.43632  0.015006742  0.013715595            6 
 1686000   0.57756236    -8.033721    303.46312  0.014999166   0.01370437            6 
 1687000   0.58093512   -8.0316996    303.20767  0.014977656   0.01369313            8 
 1688000   0.57485747   -8.0647765    303.51054  0.014983735   0.01368191            8 
 1689000   0.57466492   -8.0555255    303.41621   0.01497021  0.013670698            9 
 1690000    0.5816673   -8.0601875    303.26902  0.014954094   0.01365951            9 
 1691000   0.57082789   -8.0394153    303.76464  0.014969675  0.013648326            7 
 1692000   0.57745158   -8.0452811    303.86448  0.014965745  0.013637171            5 
 1693000   0.58291305   -8.0500939    303.24326  0.014926327  0.013626022            4 
 1694000   0.58681605    -8.054098    303.27302   0.01491898  0.013614884            9 
 1695000   0.57580648   -8.0500277    303.42594  0.014917696  0.013603756            5 
 1696000   0.56642592   -8.0596261    303.71721  0.014923212  0.013592639            4 
 1697000   0.56537035   -8.0690361    303.28956  0.014893418  0.013581525           10 
 1698000   0.58233776   -8.0564133    304.13286  0.014926033  0.013570431            5 
 1699000   0.56975612   -8.0659268    303.81758  0.014901784  0.013559347            5 
 1700000    0.5667949   -8.0448562    303.37671  0.014871407  0.013548296            6 
 1701000   0.57291755   -8.0457338     303.4392  0.014865726  0.013537235            7 
 1702000   0.57810668   -8.0568191    303.65368  0.014867493  0.013526192           12 
 1703000   0.57879393   -8.0547423    303.52037   0.01485224  0.013515163            6 
 1704000   0.57593379   -8.0483227    303.95792  0.014864922  0.013504148            4 
 1705000   0.58350424   -8.0572157    303.85791  0.014851315   0.01349315            3 
 1706000   0.57261575   -8.0443143    303.57425  0.014828754  0.013482168            5 
 1707000    0.5684752   -8.0677392     303.3195   0.01480763  0.013471174            6 
 1708000   0.57498304   -8.0729244    303.44563  0.014805114  0.013460209            4 
 1709000   0.56628016   -8.0739602    303.49316  0.014798769  0.013449258           10 
 1710000   0.56827818   -8.0634159     303.2436  0.014777953  0.013438322            4 
 1711000   0.54772242   -8.0736115    303.63619  0.014788437  0.013427384            5 
 1712000   0.57328617    -8.040188    303.51547  0.014773923  0.013416447            5 
 1713000   0.57839515   -8.0527679    303.26129  0.014752933  0.013405512            3 
 1714000   0.56879164   -8.0493655    303.73859  0.014767532  0.013394592            5 
 1715000   0.56612028   -8.0546045     303.5536  0.014749932  0.013383678            6 
 1716000   0.55697369   -8.0448514      303.615  0.014744318  0.013372787           12 
 1717000   0.56629094   -8.0605921    303.97804  0.014753351    0.0133619            5 
 1718000   0.55353721   -8.0515424    303.96148   0.01474396  0.013351031            4 
 1719000   0.56550853    -8.061177    304.02545  0.014738484  0.013340159            4 
 1720000   0.56635844   -8.0651778    303.23646  0.014691689  0.013329309           11 
 1721000   0.56918434   -8.0883561    303.32059  0.014687226  0.013318446            6 
 1722000   0.57331263   -8.0853966     303.2557  0.014675557  0.013307594            5 
 1723000   0.56173632   -8.0812661    303.35262  0.014671727  0.013296739            4 
 1724000   0.56114614   -8.0743797     302.8858  0.014640652  0.013285889            7 
 1725000   0.56403696   -8.0775812    303.38234  0.014656152  0.013275043           10 
 1726000   0.57796691   -8.0761712    303.48526  0.014652629  0.013264219            5 
 1727000   0.56740791   -8.0647598    303.23089  0.014631871  0.013253402            6 
 1728000   0.57139898   -8.0765119     303.3885  0.014631004  0.013242592            7 
 1729000   0.56747752   -8.0882889    303.13863  0.014610499  0.013231795            5 
 1730000   0.55400504   -8.0876296    303.41692  0.014615459  0.013220997           10 
 1731000   0.56733055   -8.0934734    303.44915  0.014608567   0.01321021            9 
 1732000   0.56573938   -8.0867279    303.44587  0.014599975  0.013199428            5 
 1733000   0.56005071   -8.0947585    303.60743  0.014599319  0.013188674            5 
 1734000   0.55494501   -8.0813276    303.19573  0.014571113  0.013177936            3 
 1735000   0.56876673   -8.0916833    302.90186    0.0145486  0.013167188            6 
 1736000   0.56285368   -8.0937128    302.96038  0.014543029  0.013156455            5 
 1737000   0.55950064   -8.0956508    303.11828  0.014542232  0.013145726           10 
 1738000   0.54844925   -8.0956645    303.05486  0.014530824   0.01313501            5 
 1739000   0.55341234   -8.0695965    303.86042   0.01456107  0.013124312            5 
 1740000   0.55413056   -8.0854729    302.76314   0.01450015  0.013113621           12 
 1741000   0.56186367   -8.0831975    303.10868  0.014508361  0.013102949           14 
 1742000   0.56008768   -8.0849897    302.78104  0.014484359  0.013092275           11 
 1743000   0.56331004   -8.0906921     303.1726   0.01449477  0.013081596            5 
 1744000   0.55895932   -8.1041801    303.21694  0.014488577   0.01307094            6 
 1745000   0.56288849   -8.0965484    303.22701  0.014480755  0.013060293            3 
 1746000   0.57295761    -8.092313    303.28416  0.014475189  0.013049659            5 
 1747000   0.54841961   -8.0926687    303.01212  0.014453927  0.013039039            5 
 1748000   0.55593525   -8.0816472    303.31404  0.014460052  0.013028444           12 
 1749000   0.55682603   -8.1074021    302.87926  0.014431068  0.013017835            8 
 1750000   0.55520014   -8.1012822    303.28491  0.014442139  0.013007233            9 
 1751000   0.55457371   -8.1080348    303.45126  0.014441808   0.01299663            4 
 1752000   0.54194371   -8.1077491    303.25966  0.014424451  0.012986031            8 
 1753000   0.54923306   -8.1105728    303.35894  0.014420942   0.01297543           10 
 1754000   0.53988874   -8.1086744    303.11637  0.014401196  0.012964842            3 
 1755000    0.5470476   -8.1040731    302.88532  0.014382019   0.01295424            5 
 1756000   0.56010465   -8.0993326    302.85377  0.014372331  0.012943671            4 
 1757000   0.55094259   -8.1006389    302.58113  0.014351221    0.0129331            4 
 1758000   0.56884163   -8.0998653    302.52909   0.01434059  0.012922544            5 
 1759000   0.55568222   -8.0926937    303.42515  0.014374889  0.012912004            6 
 1760000   0.55182155   -8.1060167    302.69978  0.014332376  0.012901471            9 
 1761000   0.56237811   -8.0972681    302.49639  0.014314612  0.012890944            4 
 1762000   0.53987077   -8.1016921    302.79974  0.014320835  0.012880431            4 
 1763000   0.55203671   -8.1213926    303.20542  0.014331888  0.012869919            6 
 1764000   0.55918445   -8.1172041    302.81543   0.01430534   0.01285942            9 
 1765000   0.55077779   -8.0951497    303.20238  0.014315504  0.012848917            6 
 1766000   0.55058492   -8.1251895    303.00808   0.01429823  0.012838436           11 
 1767000   0.55365981   -8.1158259     302.5965  0.014270727  0.012827942            7 
 1768000   0.55230642   -8.1095405    302.91883  0.014277848  0.012817461            5 
 1769000   0.54441657   -8.0941573     302.3374  0.014242387  0.012806995            3 
 1770000   0.54868739   -8.1080022    302.27877   0.01423158   0.01279655            4 
 1771000    0.5499246   -8.1185701    303.03657  0.014259202  0.012786128            4 
 1772000   0.54309159   -8.1147284    302.72631  0.014236565  0.012775716            8 
 1773000   0.53700724   -8.1141524    302.65649  0.014225253  0.012765305            6 
 1774000   0.54463617   -8.0901438    302.63963  0.014216443  0.012754915            6 
 1775000   0.54453974   -8.0783934    302.86704   0.01421911  0.012744546            6 
 1776000   0.54381614   -8.1154109    302.94244  0.014214641  0.012734159            7 
 1777000   0.54004928   -8.1089193    303.11091  0.014214543  0.012723789            5 
 1778000   0.52944432    -8.129477    302.89352  0.014196359  0.012713416            8 
 1779000    0.5380527   -8.1306917    303.11948  0.014198964  0.012703067            6 
 1780000   0.54069386   -8.1282905    302.84557  0.014178164   0.01269273            4 
 1781000    0.5612524   -8.1160155    302.34928  0.014146981  0.012682398            7 
 1782000   0.54960433    -8.120687    302.88019   0.01416387  0.012672064            6 
 1783000   0.55007191   -8.1352572    302.47917  0.014137183  0.012661738            6 
 1784000   0.54358831   -8.1293162    303.00841   0.01415398  0.012651421            4 
 1785000   0.54374128   -8.1127932    302.47949  0.014121358   0.01264113            4 
 1786000   0.54720281    -8.117392    302.54551  0.014116532  0.012630837            5 
 1787000   0.54692782   -8.1308836      303.292  0.014143443  0.012620569            4 
 1788000   0.54588684     -8.13406    302.57704  0.014102211  0.012610307            6 
 1789000   0.53433915   -8.1193846    302.80891  0.014105129  0.012600052            6 
 1790000   0.53982257   -8.1249257    302.55603  0.014085476  0.012589803            3 
 1791000   0.53472655   -8.1188759    302.84993  0.014091287  0.012579568            7 
 1792000   0.54156739   -8.1132596    302.52607  0.014068363  0.012569345            6 
 1793000   0.53975752   -8.1407588    302.81408  0.014073902  0.012559133            4 
 1794000   0.52836561   -8.1234705    302.72956  0.014062131  0.012548927            5 
 1795000   0.53303831   -8.1436155    302.74382  0.014054959  0.012538722            7 
 1796000   0.53097631   -8.1389361    302.92672   0.01405562  0.012528543            7 
 1797000   0.54201344    -8.142796    302.73037  0.014038693  0.012518351            7 
 1798000    0.5413206   -8.1184458    302.39623  0.014015398  0.012508187            3 
 1799000   0.53931199   -8.1268373    302.66607  0.014020107  0.012498028            7 
 1800000   0.52683914   -8.1456429    302.27304  0.013994122   0.01248788            3 
 1801000   0.52585221   -8.1295505    302.64224  0.014003435  0.012477736            5 
 1802000   0.53639191   -8.1612341    302.54698  0.013991259  0.012467607            4 
 1803000   0.52850445   -8.1473811    303.10612  0.014009342  0.012457466            4 
 1804000   0.53818485   -8.1523064    302.79332  0.013987127  0.012447348            4 
 1805000   0.52375303   -8.1309745    302.63033  0.013971853  0.012437249            9 
 1806000   0.52892329   -8.1732239    302.25696  0.013946888  0.012427147            5 
 1807000   0.52823111   -8.1588594    302.40592   0.01394604  0.012417056            7 
 1808000   0.53431225   -8.1507921    302.50597  0.013942938  0.012406982            8 
 1809000   0.52460445   -8.1315529    302.25382  0.013923614  0.012396914            6 
 1810000    0.5367196   -8.1392125    302.43261  0.013924153   0.01238685            7 
 1811000   0.53022327   -8.1505694    302.24337  0.013907757  0.012376807            4 
 1812000   0.51944189   -8.1379729    302.15329  0.013895939  0.012366764            3 
 1813000   0.53309262   -8.1496249    302.74801   0.01391561  0.012356716            6 
 1814000   0.52153366   -8.1468041     302.5197   0.01389745  0.012346684            7 
 1815000   0.51964272   -8.1441956     302.1305  0.013871924  0.012336655            5 
 1816000   0.53504938   -8.1561803    302.62367  0.013886916  0.012326644            8 
 1817000   0.53106273   -8.1429492    302.43539  0.013870638  0.012316649            5 
 1818000   0.52042816   -8.1547716    302.72572  0.013876316  0.012306661            4 
 1819000   0.51811832   -8.1591183     302.3273  0.013850435  0.012296664            4 
 1820000   0.52488006   -8.1600261    301.97858  0.013826858  0.012286688            8 
 1821000   0.52863922   -8.1358637    302.03711  0.013821943  0.012276724            9 
 1822000   0.51681177   -8.1530515    302.20941  0.013822238  0.012266768            8 
 1823000   0.53373017   -8.1581467     302.3537  0.013821252  0.012256823            7 
 1824000   0.52836619    -8.158241    302.16671  0.013805131  0.012246887            9 
 1825000   0.53124889   -8.1421871    302.83825   0.01382823   0.01223697            6 
 1826000    0.5152086    -8.162826    302.51418  0.013805868  0.012227052            6 
 1827000   0.52172109    -8.168897    302.14043  0.013781264  0.012217134            5 
 1828000   0.51134927   -8.1574751    302.50754  0.013790461  0.012207235            6 
 1829000   0.52122071   -8.1529124    301.84077  0.013752541  0.012197347           12 
 1830000   0.51689419   -8.1696333    302.12603  0.013758016  0.012187443            5 
 1831000   0.52495589   -8.1515768    301.45914   0.01372015  0.012177553            5 
 1832000   0.52162114   -8.1704196    301.78907  0.013727669  0.012167675            4 
 1833000   0.50801649   -8.1698885    302.08609  0.013733683  0.012157816            4 
 1834000   0.51680293   -8.1594291    302.42374  0.013741537  0.012147968            4 
 1835000   0.52047759   -8.1513911    302.88903  0.013755178  0.012138127            8 
 1836000   0.51555824   -8.1642433    302.29855  0.013720885  0.012128291            4 
 1837000   0.52751784   -8.1645157    302.17917  0.013708001  0.012118459            5 
 1838000   0.52100564   -8.1947029    302.60396  0.013719802  0.012108632            9 
 1839000   0.50559377   -8.1652761     301.6871  0.013670795  0.012098817            5 
 1840000   0.51505288   -8.1669187    302.33784  0.013692837  0.012088998            4 
 1841000   0.49665099   -8.1623884    301.69192  0.013656161  0.012079199            6 
 1842000   0.51175249   -8.1739024    301.97373  0.013661497  0.012069398            5 
 1843000   0.51848737   -8.1674016    302.04313  0.013657222  0.012059619            5 
 1844000   0.52863271   -8.1656204    302.05281  0.013650254  0.012049849            5 
 1845000   0.51877381   -8.1661297    302.04863  0.013642666  0.012040087            7 
 1846000   0.51846008   -8.1753831    301.59055  0.013614597  0.012030333            8 
 1847000   0.50771009   -8.1564608    301.89623  0.013621017  0.012020585            4 
 1848000   0.52929815   -8.1683869    302.38492  0.013635684  0.012010855            7 
 1849000   0.51821164   -8.1614899    301.54814  0.013590596  0.012001127            4 
 1850000   0.51948925   -8.1668351    302.31825  0.013617939  0.011991409            5 
 1851000   0.49771731   -8.1785382    302.17305  0.013604045  0.011981702            6 
 1852000   0.50635809    -8.158875    302.31222  0.013602962  0.011971989            5 
 1853000   0.51673561   -8.1782143    302.14843  0.013588255  0.011962305            6 
 1854000   0.50662824   -8.1769507    301.92825  0.013571029  0.011952621            4 
 1855000   0.51179242   -8.1693461    302.36623  0.013583388  0.011942948            4 
 1856000   0.51194861   -8.1604537    302.00551  0.013559874  0.011933275            4 
 1857000   0.51467998   -8.1634755    302.16038  0.013559522  0.011923614            8 
 1858000   0.50806767   -8.1734346    301.70862  0.013531962  0.011913972            7 
 1859000   0.50381477   -8.1721708    302.17064  0.013545394  0.011904331            6 
 1860000   0.50647815   -8.1687768    302.26562  0.013542367  0.011894706            7 
 1861000   0.50650178   -8.1791294    302.15694  0.013530223   0.01188508            8 
 1862000   0.50700162   -8.1903925    302.40593    0.0135341  0.011875466            5 
 1863000   0.50996951   -8.1847006    302.10682  0.013513456  0.011865868            5 
 1864000   0.51532186   -8.1860416    302.04275  0.013503342  0.011856281            4 
 1865000   0.51063553   -8.1698334    301.89276  0.013489399  0.011846696            5 
 1866000   0.50658649   -8.1882024    301.60726   0.01346942  0.011837116            5 
 1867000   0.50797243     -8.19859    301.62622  0.013463052  0.011827553            5 
 1868000   0.51765279   -8.1832177    301.97152  0.013471249  0.011817991            6 
 1869000   0.51333524   -8.1963065    301.83247  0.013457842  0.011808435            3 
 1870000   0.49787283   -8.1963354    301.82609   0.01345036  0.011798897            7 
 1871000   0.51493439   -8.1768884    301.97997  0.013450025  0.011789367            5 
 1872000   0.51802902   -8.1951441     301.9048  0.013439494  0.011779846            6 
 1873000   0.51378094   -8.1915183     301.6395  0.013420515  0.011770337            4 
 1874000   0.50365663   -8.2078873    301.68634  0.013415436  0.011760831            4 
 1875000   0.49827224   -8.1838092    301.86456  0.013416203  0.011751341            3 
 1876000   0.51377707   -8.1816948    301.35406  0.013386375   0.01174186            5 
 1877000   0.49463611   -8.2012275    301.43174  0.013382691  0.011732381            6 
 1878000   0.50181158   -8.1940476    301.58252  0.013382256  0.011722903            5 
 1879000   0.50139878   -8.1880315    301.75367  0.013382724  0.011713447            7 
 1880000   0.50489763   -8.1997967    301.72527  0.013374347  0.011703986            5 
 1881000   0.50347949   -8.1914533      301.341  0.013350213  0.011694541            7 
 1882000   0.50962465   -8.1951626    301.89119  0.013367481  0.011685097            5 
 1883000   0.50729315   -8.2014014    301.14406  0.013327317  0.011675658            5 
 1884000   0.49388574   -8.2186292    301.16856  0.013321327  0.011666228            5 
 1885000    0.5085965   -8.1994631    301.45698   0.01332701  0.011656817            8 
 1886000   0.49683028   -8.1824074    301.53261  0.013323286  0.011647414            8 
 1887000   0.48947535    -8.183998    301.36811  0.013308961   0.01163802            6 
 1888000    0.4889225   -8.1995448    301.43686  0.013304946  0.011628638            8 
 1889000   0.48925965   -8.1894743    301.78797  0.013313392  0.011619265            6 
 1890000   0.48636424     -8.20229    301.67282  0.013301271  0.011609908            6 
 1891000   0.48951306   -8.2158107    301.30929  0.013278216  0.011600552            5 
 1892000   0.49281511   -8.1734303    300.86874  0.013251794  0.011591199            5 
 1893000   0.49133474   -8.1893619    301.49709  0.013272455  0.011581856            5 
 1894000   0.49151811    -8.208706    300.79057  0.013234362  0.011572516            5 
 1895000   0.49482925    -8.198566    301.58524  0.013262324  0.011563189            8 
 1896000   0.50746846    -8.199937    301.49911  0.013251543  0.011553871            5 
 1897000   0.50311359   -8.1962185    301.38106  0.013239372  0.011544565            8 
 1898000   0.50093472   -8.2148941    301.31124  0.013229331  0.011535257            4 
 1899000   0.50072496   -8.1998382    301.37996   0.01322538  0.011525959            6 
 1900000   0.49503352   -8.2034054    301.68354  0.013231734  0.011516674            3 
 1901000   0.49232646    -8.211537    301.66471  0.013223948  0.011507394            4 
 1902000   0.48631139   -8.2036484    301.46781  0.013208369  0.011498124            6 
 1903000   0.49941759   -8.1994045     300.9723   0.01317973  0.011488863            4 
 1904000   0.49043885    -8.206384    301.31147  0.013187652  0.011479613            4 
 1905000   0.49489688   -8.2171257    301.73845  0.013199407   0.01147038            5 
 1906000   0.49788304   -8.2164629    301.22484  0.013170026  0.011461141            4 
 1907000   0.49069475   -8.2194724    301.04589    0.0131553  0.011451914            4 
 1908000   0.49534134    -8.199978    301.42264   0.01316486  0.011442685            5 
 1909000   0.47836949   -8.2170341    301.65048   0.01316791   0.01143348            8 
 1910000   0.49380464   -8.2192996    301.38288   0.01314934   0.01142428            8 
 1911000   0.48708283   -8.2247889    301.32893  0.013140107  0.011415071            6 
 1912000    0.4867936   -8.2164749    300.87325  0.013113374  0.011405879           10 
 1913000   0.49528609   -8.2207074    301.27042   0.01312382  0.011396684            4 
 1914000   0.48458411   -8.2248709     301.2749  0.013117159  0.011387506            9 
 1915000   0.49006716   -8.2232666    301.61644  0.013125172  0.011378326            6 
 1916000     0.482256    -8.221075    301.23764  0.013101846  0.011369156           10 
 1917000   0.48853945   -8.2085827    300.83153  0.013077357  0.011360004            6 
 1918000   0.49197533    -8.226554    301.30437  0.013091083  0.011350861            5 
 1919000   0.49053463   -8.2181117    301.18999  0.013079294  0.011341718            9 
 1920000   0.48970353   -8.2181652    301.39657  0.013081448   0.01133259            9 
 1921000   0.49630133   -8.2322123    300.70468  0.013044624   0.01132347            9 
 1922000   0.48080182    -8.216636    301.51059   0.01307278  0.011314365            6 
 1923000   0.48397757   -8.2237905     301.2261  0.013053653  0.011305249            6 
 1924000     0.489264   -8.2266134    301.67904  0.013066487   0.01129616            7 
 1925000   0.47783625   -8.2235139    301.30411  0.013043468  0.011287085            4 
 1926000   0.48643028   -8.2184106    301.54421  0.013047084  0.011278018            5 
 1927000   0.49045289   -8.2145758    300.87729  0.013011472  0.011268948            5 
 1928000   0.46937439   -8.2005607    301.17046  0.013017396  0.011259894            8 
 1929000   0.48469553   -8.2346249    300.88792  0.012998441  0.011250847           10 
 1930000   0.48881456   -8.2202454    301.26763  0.013008101  0.011241825            9 
 1931000   0.47559197   -8.2279565    300.97767  0.012988851  0.011232801            5 
 1932000   0.48525995   -8.2425151     300.8999  0.012978774  0.011223792            6 
 1933000   0.48468559   -8.2113368    301.05428  0.012978715  0.011214795           10 
 1934000   0.48761819   -8.2195931    301.08315  0.012973248  0.011205791            6 
 1935000   0.47899341   -8.2331038    301.30474  0.012976087  0.011196804            5 
 1936000   0.47919776   -8.2279482    300.85414  0.012949989  0.011187821            7 
 1937000   0.47305083     -8.23236    300.67112  0.012935429  0.011178842            7 
 1938000   0.49211072   -8.2457886    301.19823   0.01295142  0.011169868            7 
 1939000   0.47016689   -8.2366813    301.22951  0.012946085  0.011160906            8 
 1940000   0.47439289   -8.2316787    301.31613  0.012943133  0.011151946            5 
 1941000   0.47719091   -8.2406637    301.17678  0.012930482  0.011143002            7 
 1942000   0.47760946   -8.2335259      301.019  0.012917053  0.011134066            6 
 1943000   0.48495611   -8.2291821    300.74906  0.012898827  0.011125143            6 
 1944000   0.48251496   -8.2449634    301.01222  0.012903473  0.011116235            8 
 1945000   0.47773097   -8.2498404    301.07868  0.012899687   0.01110733            8 
 1946000   0.47599861   -8.2430861    300.78865  0.012880638  0.011098428            6 
 1947000    0.4821849   -8.2262041    300.86273  0.012877193  0.011089545            5 
 1948000   0.47602744   -8.2486103    300.80032  0.012867912  0.011080659           10 
 1949000   0.47177348   -8.2439389    300.80963  0.012861708  0.011071786            5 
 1950000    0.4761081   -8.2393857       300.76  0.012852992  0.011062921           10 
 1951000   0.46265501   -8.2482626    300.87713  0.012851406   0.01105406            6 
 1952000   0.47653468    -8.241875    300.91113  0.012846275  0.011045213            7 
 1953000   0.48605453   -8.2498314    301.31136  0.012856774  0.011036387            5 
 1954000   0.47893961   -8.2425743     300.8928  0.012832344  0.011027558            8 
 1955000   0.47645348   -8.2486176    300.32502  0.012801578  0.011018744            6 
 1956000   0.45936146   -8.2430893    300.41692  0.012798948  0.011009933            8 
 1957000   0.46715714   -8.2525452    300.81842  0.012809505  0.011001123            6 
 1958000    0.4632599   -8.2478223    300.74783  0.012799959  0.010992327           11 
 1959000   0.47825888   -8.2547829     300.9657  0.012802693  0.010983535            8 
 1960000   0.46828845   -8.2406166    301.06092  0.012800209  0.010974754            6 
 1961000   0.47512022   -8.2589751    301.33774  0.012805446  0.010965987            5 
 1962000   0.46878913   -8.2753941    301.07994  0.012787969  0.010957225            6 
 1963000   0.46801814   -8.2611331    300.48051  0.012756007  0.010948469            6 
 1964000   0.46729915   -8.2708076    300.55148  0.012752524  0.010939719            8 
 1965000   0.47027439   -8.2617506    300.92468  0.012761861  0.010930985            8 
 1966000   0.46714243   -8.2590365    300.78883  0.012749611  0.010922258            8 
 1967000   0.46918577   -8.2411888    300.42867  0.012727871  0.010913544            6 
 1968000   0.46531275   -8.2485161    300.76893  0.012735812  0.010904832            7 
 1969000   0.46298654   -8.2514952     300.7936  0.012730388  0.010896133            5 
 1970000    0.4696949   -8.2557824    300.97254  0.012731495  0.010887437            5 
 1971000   0.46966928    -8.269773    300.84801   0.01271977  0.010878753            7 
 1972000   0.45848748   -8.2689572     301.1577  0.012726407  0.010870085            9 
 1973000   0.46860795   -8.2456677     300.7969  0.012704718  0.010861423            7 
 1974000    0.4646672   -8.2612865     300.7456  0.012696116  0.010852775            9 
 1975000   0.46774236   -8.2537488    300.66762  0.012686398  0.010844129            7 
 1976000   0.47131938   -8.2610712    300.57188   0.01267594  0.010835497            5 
 1977000   0.46234071    -8.247562    300.57274  0.012669564  0.010826857            5 
 1978000   0.46502444   -8.2721527    300.64117  0.012666042  0.010818238            6 
 1979000   0.45739458   -8.2487549    301.09819  0.012678886  0.010809618            5 
 1980000   0.45954817   -8.2556234    300.80945   0.01266033  0.010801006            5 
 1981000   0.47318299   -8.2707723    300.33514  0.012633987  0.010792405           12 
 1982000   0.45948104   -8.2597619    300.58229  0.012638004  0.010783815            8 
 1983000   0.45898021   -8.2495139    300.42776  0.012625137  0.010775238            8 
 1984000   0.46011026   -8.2612806    301.21744  0.012651942  0.010766671            9 
 1985000   0.46276661   -8.2665874    300.23236  0.012604213  0.010758106            6 
 1986000   0.45856412     -8.26028      300.856  0.012624035  0.010749548            6 
 1987000   0.45760503   -8.2634249    300.69358   0.01261087  0.010741002            6 
 1988000   0.45306772   -8.2650783    300.68879  0.012604326  0.010732471            9 
 1989000    0.4508415   -8.2749627     300.8249  0.012603691  0.010723937            8 
 1990000   0.46147885   -8.2696261    300.63325  0.012589332   0.01071541            8 
 1991000   0.44369355   -8.2613645    300.74653   0.01258775  0.010706903            5 
 1992000   0.46251245    -8.269647    300.63814  0.012576897    0.0106984            5 
 1993000   0.46784396   -8.2757504    300.57743  0.012568048  0.010689911            8 
 1994000   0.46352651   -8.2659963     300.5121  0.012559015  0.010681427            7 
 1995000   0.45441686   -8.2688302    300.83811  0.012566337  0.010672955            7 
 1996000   0.46147574     -8.24934    300.57677   0.01254913  0.010664493            5 
 1997000   0.45426186   -8.2674922    301.15402  0.012566935  0.010656033            5 
 1998000   0.45750296   -8.2712679    300.53546  0.012534846  0.010647581            6 
 1999000   0.45228391   -8.2697166    300.55499  0.012529389  0.010639138            5 
 2000000   0.45064134   -8.2476998    300.49295   0.01252054  0.010630702            5 
 2001000   0.44019236   -8.2678602    300.22844  0.012503267  0.010622277            6 
 2002000   0.45259469   -8.2739091    300.51712  0.012509038  0.010613854            7 
 2003000   0.46293631   -8.2743488    300.86515  0.012517272  0.010605449            9 
 2004000     0.458664   -8.2680704     300.7933  0.012508038   0.01059704           10 
 2005000   0.43913156    -8.279679    300.45367  0.012487684  0.010588641            7 
 2006000   0.45238129   -8.2731163    300.15596  0.012469091  0.010580248            6 
 2007000   0.44876013    -8.255348    300.51699  0.012477869  0.010571869            7 
 2008000   0.45347147   -8.2744077    300.31592   0.01246331  0.010563492            7 
 2009000    0.4531423   -8.2698225    300.34687   0.01245839  0.010555128            4 
 2010000   0.45339631   -8.2747551    300.16781  0.012444768   0.01054677            7 
 2011000   0.45051218   -8.2921825    300.38558  0.012447604   0.01053841            7 
 2012000   0.45947102   -8.2904215     300.1622  0.012432166  0.010530068            5 
Loop time of 4592.98 on 48 procs for 2000000 steps with 4000 atoms

Performance: 75245.242 tau/day, 435.447 timesteps/s
99.4% CPU use with 48 MPI tasks x no OpenMP threads

MPI task timing breakdown:
Section |  min time  |  avg time  |  max time  |%varavg| %total
---------------------------------------------------------------
Pair    | 279.69     | 301.8      | 323.21     |  54.5 |  6.57
Neigh   | 29.854     | 30.894     | 32.025     |   8.8 |  0.67
Comm    | 276.33     | 301.72     | 325.23     |  54.1 |  6.57
Output  | 4.057      | 4.0589     | 4.0884     |   0.2 |  0.09
Modify  | 3894.9     | 3911.8     | 3923.2     |   9.0 | 85.17
Other   |            | 42.68      |            |       |  0.93

Nlocal:        83.3333 ave          93 max          75 min
Histogram: 2 4 6 7 8 7 6 5 2 1
Nghost:        1944.38 ave        1967 max        1917 min
Histogram: 2 3 2 3 9 8 7 8 2 4
Neighs:        12315.7 ave       14498 max       10918 min
Histogram: 2 7 10 6 9 9 2 1 1 1
FullNghs:      24632.1 ave       27887 max       21911 min
Histogram: 2 4 7 5 13 5 5 4 2 1

Total # of neighbors = 1182339
Ave neighs/atom = 295.58475
Neighbor list builds = 107430
Dangerous builds = 0

#clear
#
#next RN
#
#jump SELF
Total wall time: 1:16:36
