
units lj                  # Use reduced LJ style units
atom_style atomic         # Uncharged point particles
atom_modify map hash      # Needed for indexing of clusters etc
                          # Used to be able to find where atoms are in relation to each other.

lattice fcc 1.0 spacing 1 1 1
Lattice spacing in x,y,z = 1.5874011 1.5874011 1.5874011
region box block 0 10 0 10 0 10 units lattice
create_box 2 box
Created orthogonal box = (0.0000000 0.0000000 0.0000000) to (15.874011 15.874011 15.874011)
  3 by 4 by 4 MPI processor grid
create_atoms 1 box
Created 4000 atoms
  using lattice units in orthogonal box = (0.0000000 0.0000000 0.0000000) to (15.874011 15.874011 15.874011)
  create_atoms CPU = 0.002 seconds
set type 1 type/fraction 2 0.13 78393
Setting atom values ...
  541 settings made for type/fraction
mass 1 1.0
mass 2 1.0
pair_style lj/cut  3.5
pair_modify tail  yes
pair_coeff 1  1  1.0  1.0   # Intearaction between 1 and 1 set with epsilon = 1 and sigma = 1
pair_coeff 1  2  1.5  0.8
pair_coeff 2  2  0.5  0.88

write_data data.0
System init for write_data ...
Neighbor list info ...
  update every 1 steps, delay 10 steps, check yes
  max neighbors/atom: 2000, page size: 100000
  master list distance cutoff = 3.8
  ghost atom cutoff = 3.8
  binsize = 1.9, bins = 9 9 9
  1 neighbor lists, perpetual/occasional/extra = 1 0 0
  (1) pair lj/cut, perpetual
      attributes: half, newton on
      pair build: half/bin/atomonly/newton
      stencil: half/bin/3d
      bin: standard
WARNING: Not all mixed pair coeffs generated from mixing. Use write_data with 'pair ij' option to store all pair coeffs. (../write_data.cpp:312)


#############################
#   M E L T   S Y S T E M   #
#############################

velocity all create 2.4 5300450 mom yes dist gaussian # Assign velocities
                                                    # Temperature 2.4, random number seed, zero linear momentum
                                                                                # Gaussian distribution

timestep 0.002   # simulation timestep
thermo 1000       # output thermodynamic data every 1000 steps bf 100

# Define a fix  in this case with index 1 applied to all
# particles in the simulation. This fix is for simulations
# in the anisotropic NPT ensemble. Note that we use the MTK
# correction.
fix 1 all npt temp 2.4 2.4 0.1 iso 5.68 5.68 0.5 mtk yes tchain 5 pchain 5 # Use NPT ensemble
                                                                         # Set temperature and pressure and damping
                                                                         # Numbers of thermostats in chain and in barostat
run 10000          # run for 10000 steps
Per MPI rank memory allocation (min/avg/max) = 3.642 | 3.644 | 3.648 Mbytes
Step Temp E_pair E_mol TotEng Press Volume 
       0          2.4     -7.50335            0     -3.90425   -3.2182506         4000 
    1000    2.4525158   -4.6874666            0   -1.0096126    5.5933725    4742.2555 
    2000    2.4055712    -4.670981            0   -1.0635263    5.3959658    4774.9746 
    3000    2.3982166   -4.6946045            0   -1.0981789    5.7484828     4713.059 
    4000    2.3471371   -4.6851356            0   -1.1653101    5.4983447     4747.868 
    5000    2.4429619   -4.6735919            0   -1.0100652    5.6801858    4732.5418 
    6000     2.389417   -4.5542412            0  -0.97101169    6.1494164    4745.6895 
    7000    2.4288307   -4.6960557            0   -1.0537204    5.3699267    4775.8836 
    8000    2.4218051   -4.6948775            0   -1.0630781    5.5460214    4740.2252 
    9000    2.3841001   -4.6522983            0   -1.0770422    5.8265467    4724.6916 
   10000    2.4173734   -4.6712213            0   -1.0460677    5.6522304    4742.1702 
Loop time of 2.18274 on 48 procs for 10000 steps with 4000 atoms

Performance: 791664.900 tau/day, 4581.394 timesteps/s
99.6% CPU use with 48 MPI tasks x no OpenMP threads

MPI task timing breakdown:
Section |  min time  |  avg time  |  max time  |%varavg| %total
---------------------------------------------------------------
Pair    | 0.92057    | 0.97428    | 1.0585     |   2.6 | 44.64
Neigh   | 0.19147    | 0.19881    | 0.21294    |   0.8 |  9.11
Comm    | 0.66473    | 0.7572     | 0.83421    |   3.3 | 34.69
Output  | 0.00024434 | 0.00024797 | 0.00031223 |   0.0 |  0.01
Modify  | 0.21657    | 0.2369     | 0.26414    |   3.1 | 10.85
Other   |            | 0.0153     |            |       |  0.70

Nlocal:        83.3333 ave          91 max          73 min
Histogram: 1 1 1 11 7 6 2 11 5 3
Nghost:        1465.10 ave        1487 max        1432 min
Histogram: 2 2 1 2 6 8 11 7 5 4
Neighs:        8046.40 ave        9300 max        6843 min
Histogram: 1 3 5 10 8 5 7 5 3 1

Total # of neighbors = 386227
Ave neighs/atom = 96.556750
Neighbor list builds = 904
Dangerous builds = 210

# Equilibrate just above the melting temperature to avoid step fn in T

fix 1 all npt temp 1.25 1.25 0.1 iso 5.68 5.68 0.5 mtk yes tchain 5 pchain 5
run 2000
Per MPI rank memory allocation (min/avg/max) = 3.642 | 3.644 | 3.648 Mbytes
Step Temp E_pair E_mol TotEng Press Volume 
   10000    2.4173734   -4.6712213            0   -1.0460677    5.6522304    4742.1702 
   11000    1.2512935   -6.2837376            0   -4.4072666    5.8619568    3882.2184 
   12000    1.2330752   -6.3206941            0   -4.4715437    5.6730917    3878.8563 
Loop time of 0.485734 on 48 procs for 2000 steps with 4000 atoms

Performance: 711501.025 tau/day, 4117.483 timesteps/s
99.6% CPU use with 48 MPI tasks x no OpenMP threads

MPI task timing breakdown:
Section |  min time  |  avg time  |  max time  |%varavg| %total
---------------------------------------------------------------
Pair    | 0.21132    | 0.22934    | 0.25073    |   1.9 | 47.22
Neigh   | 0.031616   | 0.033666   | 0.035887   |   0.5 |  6.93
Comm    | 0.14456    | 0.16645    | 0.1947     |   2.7 | 34.27
Output  | 5.0775e-05 | 5.2152e-05 | 6.7479e-05 |   0.0 |  0.01
Modify  | 0.041759   | 0.051676   | 0.060251   |   2.7 | 10.64
Other   |            | 0.004543   |            |       |  0.94

Nlocal:        83.3333 ave          91 max          75 min
Histogram: 2 2 3 9 3 11 7 4 5 2
Nghost:        1682.83 ave        1706 max        1658 min
Histogram: 2 2 3 9 7 8 6 5 4 2
Neighs:        9836.96 ave       11157 max        8639 min
Histogram: 2 3 5 10 6 7 8 5 0 2

Total # of neighbors = 472174
Ave neighs/atom = 118.04350
Neighbor list builds = 143
Dangerous builds = 13

#############################
# L I N E A R  Q U E N C H  #
#############################

# Define solid atoms. This closely follows ten Wolde  Ruiz-Montero and Frenkel  Faraday Discuss  1996  104  93-110
# Compute components of the per-atom q6 vector
compute q6 all orientorder/atom degrees 1 6 components 6 nnn NULL cutoff 1.3 # compute the Q6 parameter.
                                                                             # Use all neighbours within 1.3 unit cell.

# get number of connections
compute coord_number all coord/atom orientorder q6 0.5

# An atom is solid if it has 8 or more connections (of a possible 14)
variable is_solid atom c_coord_number>=8
group solid dynamic all var is_solid    # Must be dynamic to update
dynamic group solid defined

# do clustering
compute cluster solid cluster/atom 1.3 # Create a cluster where all atoms within are solid and max 1.3 units from another member

# define chunks one chunk per cluster
compute clus_chunks solid chunk/atom c_cluster nchunk every compress yes  # Says which atoms are in which chunk

# count the size of each chunk
compute size_chunks solid property/chunk clus_chunks count


# Find the maximum entry in the vector of chunk sizes
variable max_n equal max(c_size_chunks)


# Thermo style which includes this variable
# thermo_style custom step temp pe vol v_max_n

thermo ${N}  # Print the thermo information every 100 steps
thermo 1000  

# Reset the npt fix at a lower temperature (below freezing)
fix 1  all npt temp  ${temp} ${temp}  0.1  iso  5.68  5.68  0.5  mtk yes tchain  5  pchain  5
fix 1  all npt temp  0.45 ${temp}  0.1  iso  5.68  5.68  0.5  mtk yes tchain  5  pchain  5
fix 1  all npt temp  0.45 0.45  0.1  iso  5.68  5.68  0.5  mtk yes tchain  5  pchain  5

dump dmp2 all dcd ${N} traj.dcd
dump dmp2 all dcd 1000 traj.dcd


compute msd all msd com yes
variable twopoint equal c_msd[4]/6/(step*dt+1.0e-6)
fix 9 all vector 10 c_msd[4]
variable fit equal slope(f_9)/6/(10*dt)
thermo_style custom step temp pe c_msd[4] v_twopoint v_fit v_max_n

fix 1 all npt temp 1.25 ${temp} 0.1 iso 5.68 5.68 0.5 mtk yes tchain 5 pchain 5
fix 1 all npt temp 1.25 0.45 0.1 iso 5.68 5.68 0.5 mtk yes tchain 5 pchain 5
run 500000 # 5000000  # Run for this many steps
Neighbor list info ...
  update every 1 steps, delay 10 steps, check yes
  max neighbors/atom: 2000, page size: 100000
  master list distance cutoff = 3.8
  ghost atom cutoff = 3.8
  binsize = 1.9, bins = 9 9 9
  4 neighbor lists, perpetual/occasional/extra = 1 3 0
  (1) pair lj/cut, perpetual
      attributes: half, newton on
      pair build: half/bin/atomonly/newton
      stencil: half/bin/3d
      bin: standard
  (2) compute orientorder/atom, occasional
      attributes: full, newton on
      pair build: full/bin/atomonly
      stencil: full/bin/3d
      bin: standard
  (3) compute coord/atom, occasional
      attributes: full, newton on
      pair build: full/bin/atomonly
      stencil: full/bin/3d
      bin: standard
  (4) compute cluster/atom, occasional
      attributes: full, newton on
      pair build: full/bin/atomonly
      stencil: full/bin/3d
      bin: standard
Per MPI rank memory allocation (min/avg/max) = 9.758 | 9.764 | 9.773 Mbytes
Step Temp PotEng c_msd[4] v_twopoint v_fit v_max_n 
   12000    1.2330752   -6.3206941 1.8694031e-30 1.2981966e-32 8.3333333e+20            4 
   13000    1.2643275   -6.3142303   0.55752747 0.0035738939  0.045754876            1 
   14000    1.2452886   -6.2806591    1.1259368 0.0067020043  0.046969964            4 
   15000    1.2364878   -6.3192899    1.6791137 0.0093284093   0.04677075            1 
   16000    1.2631282   -6.3033024    2.1425261   0.01115899  0.045359978            3 
   17000    1.2267963    -6.336758    2.5914626  0.012703248  0.043564443            3 
   18000    1.2194118    -6.319464    3.0608277  0.014170498  0.042153889            1 
   19000    1.2747799   -6.3482172    3.5740712  0.015675751  0.041581841            2 
   20000    1.2346788   -6.3084263    4.0290847  0.016787852  0.041289649            2 
   21000    1.2210186   -6.3856912    4.4989992  0.017853171  0.041039541            3 
   22000     1.221219    -6.352977    5.0738523  0.019219137  0.040996891            1 
   23000    1.2284499    -6.345822    5.5490617  0.020105296  0.041135876            2 
   24000    1.2019092   -6.3450371    6.0930626  0.021156467  0.041278364            4 
   25000    1.2004526   -6.3566354    6.5237293  0.021745764  0.041289207            5 
   26000    1.2474203   -6.3387423    7.0400352  0.022564215  0.041273095            2 
   27000    1.2388788   -6.3370344    7.6388539  0.023576709  0.041400712            3 
   28000    1.2017796   -6.3395293     8.142968  0.024235023  0.041579149            3 
   29000    1.2088115   -6.3442163    8.6627237  0.024892884  0.041690692            2 
   30000    1.2054238   -6.3627394     9.094751  0.025263197  0.041764903            4 
   31000    1.2233658   -6.3948323    9.5348197  0.025631235  0.041700709            4 
   32000    1.2274909   -6.3786265    9.8780509  0.025724091  0.041561588            3 
   33000    1.2070146   -6.3583448     10.43385  0.026348107  0.041390588            4 
   34000    1.2054874   -6.3471238    10.952739  0.026844949  0.041258404            2 
   35000    1.2205375   -6.3573726    11.480251   0.02733393  0.041178531            5 
   36000     1.211437   -6.3417781    12.007401  0.027794909  0.041198572            5 
   37000    1.2359829   -6.3393273    12.567983  0.028306268  0.041223812            3 
   38000    1.2295594   -6.3740709    12.961168  0.028423614   0.04122433            1 
   39000    1.2163833   -6.3678013    13.460856  0.028762513  0.041209141            7 
   40000    1.2167045   -6.3849473    13.953357  0.029069494  0.041181534            1 
   41000     1.185442   -6.4073799    14.322207  0.029110176  0.041126569            3 
   42000     1.207044   -6.3435579    14.823285   0.02941128  0.041058466            3 
   43000     1.215486   -6.3993845    15.352166  0.029752259  0.041013978            4 
   44000    1.1986392   -6.4024375    15.906156  0.030125296  0.041024129            2 
   45000    1.1936316    -6.382454    16.415028    0.0303982  0.041015275            2 
   46000    1.1930239   -6.3950642     16.88669   0.03059183   0.04100045            3 
   47000     1.213061   -6.4248079    17.295926  0.030666536  0.040984628            3 
   48000    1.2059562   -6.4273604    17.779913  0.030867904  0.040957389            2 
   49000    1.2012263   -6.4313839    18.208168  0.030966272  0.040930859            2 
   50000    1.1947992   -6.4412776    18.567544  0.030945907  0.040881104            9 
   51000    1.1812368   -6.3882814    19.022011  0.031081716   0.04080984            2 
   52000    1.1692123   -6.4013583    19.548714  0.031328066  0.040746589            2 
   53000    1.1708127   -6.4151344    20.143988  0.031672937  0.040709852            2 
   54000    1.2055154   -6.4419572    20.770098   0.03205262  0.040702484            2 
   55000    1.1941906    -6.406401     21.32927  0.032317075  0.040725039            1 
   56000    1.1954602   -6.4326875    21.950429  0.032664329  0.040760817            3 
   57000    1.1739273   -6.4423278    22.371819  0.032707337  0.040818132            3 
   58000    1.1757703   -6.4417705    22.905516  0.032910223  0.040862681            3 
   59000    1.1747276   -6.4405868    23.465203  0.033142942  0.040900292            4 
   60000     1.190053   -6.4720541    23.976923  0.033301281  0.040942911            3 
   61000    1.1774185   -6.4403226    24.421736  0.033363027   0.04098363            1 
   62000     1.162624   -6.4535064    24.868695  0.033425665  0.041019354            4 
   63000    1.1464271   -6.4611417    25.212115  0.033349358  0.041019365            3 
   64000    1.1541672   -6.4839219    25.660443  0.033412035  0.041010873            3 
   65000    1.1610999   -6.4756743    25.890763  0.033193286  0.040988486            1 
   66000      1.18033   -6.4764788    26.514242  0.033477578  0.040947558            2 
   67000    1.1755684    -6.437251    27.025332  0.033613597  0.040915259            3 
   68000    1.1628365    -6.458991    27.260009  0.033406873  0.040865588            2 
   69000    1.1222201   -6.4567507    27.905883  0.033702757  0.040827834            4 
   70000    1.1820562   -6.5084296    28.553863  0.033992693  0.040795352            2 
   71000    1.1409986   -6.4937243    28.974643  0.034007797  0.040781661            2 
   72000    1.1526302   -6.4989927     29.48432   0.03412537  0.040771945            2 
   73000    1.1647264   -6.4813722    30.008008  0.034255717  0.040757191            2 
   74000    1.1579951     -6.47171    30.565378   0.03442047  0.040755445            2 
   75000    1.1545268    -6.476784    30.911802  0.034346446  0.040742088            3 
   76000    1.1732234   -6.5258222     31.24482  0.034259671  0.040726362            1 
   77000    1.1683854   -6.5536688    31.502531  0.034093648  0.040682379            2 
   78000    1.1570784   -6.4776764    31.962286  0.034147741  0.040624598            1 
   79000    1.1436196   -6.5258932    32.223602  0.033991141  0.040559844            2 
   80000    1.1391057   -6.5428187     32.19903  0.033540656  0.040472438            2 
   81000    1.1087183   -6.4936974    32.606781   0.03354607   0.04035935            3 
   82000    1.1448542   -6.5059401    32.983958  0.033520282   0.04024457            3 
   83000    1.1214442    -6.526657    33.459515  0.033593891  0.040124899            4 
   84000    1.1322106   -6.5044319    33.962455  0.033692912  0.040015641            3 
   85000    1.1452934   -6.5431303    34.381465  0.033707319  0.039915541            2 
   86000     1.115017   -6.5096066    34.763317  0.033685385  0.039814543            6 
   87000    1.1301031   -6.5440993    35.031988  0.033555544  0.039719739            6 
   88000    1.1231368   -6.5186474    35.417599  0.033539393  0.039617182            2 
   89000    1.1433645   -6.5543447    35.694865  0.033422158  0.039510209            2 
   90000    1.1341118   -6.5140713    36.145353  0.033467919  0.039403415            2 
   91000    1.1593703   -6.5611948    36.535989  0.033457865  0.039297862            3 
   92000    1.1334515   -6.5238389    37.130212  0.033632438  0.039197711            3 
   93000     1.120542   -6.5404406    37.356085  0.033473194  0.039094265            2 
   94000    1.1231703   -6.5396548    37.667421  0.033393104  0.038990913            3 
   95000    1.0932317   -6.5551547    38.122763   0.03344102  0.038883511            2 
   96000    1.1020042   -6.5551114    38.511939  0.033430502  0.038784306            1 
   97000    1.1072339   -6.5790752    38.745676  0.033286663  0.038685352            3 
   98000     1.112774   -6.5547402    39.313613  0.033429943  0.038586216            2 
   99000    1.1270798   -6.5930427    39.514376  0.033261259  0.038487279            4 
  100000    1.1194266   -6.5379667    39.673031  0.033060859  0.038381633            2 
  101000    1.1082238   -6.5889551    39.987463  0.032992956  0.038270172            2 
  102000    1.0822361   -6.5534579    40.210479  0.032851699  0.038151937            3 
  103000    1.1086736   -6.5597404    40.688035  0.032919122  0.038031369            5 
  104000    1.1039109   -6.5885068    40.955835  0.032817175  0.037921177            2 
  105000    1.0917513   -6.5742158    41.526773  0.032957756   0.03781328            2 
  106000    1.1024389   -6.5544378    41.970487  0.032995666  0.037712275            3 
  107000     1.100404    -6.608819    42.148673  0.032826069  0.037607518            5 
  108000    1.0875509   -6.5885376    42.613362  0.032880681  0.037502181            2 
  109000    1.0765258   -6.6137739    43.007027   0.03287999  0.037402845            6 
  110000    1.0862644   -6.5790008    43.270988  0.032781051  0.037305098            3 
  111000    1.1079774   -6.6231307    43.574737  0.032713767  0.037204667            3 
  112000    1.0670006   -6.5925335    44.031801  0.032761757  0.037104902            5 
  113000    1.0760731   -6.5974015    44.272403  0.032649265  0.037001509            3 
  114000    1.1046638    -6.614828    44.667287  0.032651525  0.036904252            2 
  115000    1.0697976   -6.5713794    45.109987  0.032688397  0.036809829            2 
  116000    1.0972915   -6.6218507    45.324884   0.03256098  0.036718058            6 
  117000     1.054813   -6.6536538    45.624263  0.032495913  0.036622012            4 
  118000    1.0766829   -6.5961695    46.059733   0.03252806  0.036525012            3 
  119000    1.0898146   -6.6243317    46.358291  0.032463789  0.036431352            2 
  120000    1.0800073    -6.637744    46.617206   0.03237306  0.036337064            3 
  121000    1.0889906   -6.6595802    46.806316  0.032235755  0.036238639            2 
  122000    1.0613768   -6.6295575    47.421817  0.032391951  0.036144567            4 
  123000     1.082012   -6.6588758    47.698391  0.032315983  0.036057024            3 
  124000    1.0810721   -6.5922318    48.267097  0.032437565  0.035976244            3 
  125000    1.0705439   -6.6616508    48.673901  0.032449267   0.03589804            2 
  126000    1.0851214   -6.6724802    49.022518    0.0324223  0.035824941            2 
  127000    1.0768624    -6.673611    49.408583   0.03242033  0.035751948            3 
  128000    1.0723995   -6.6631457    49.534662  0.032249129  0.035674497            3 
  129000     1.055574   -6.6576785    50.048718  0.032331213  0.035601005            4 
  130000    1.0601162   -6.6571142    50.283309   0.03223289  0.035526643            4 
  131000    1.0697375   -6.6559717    50.768626  0.032295563  0.035452701            2 
  132000    1.0508415   -6.6247886    50.957365  0.032170053  0.035378103            5 
  133000    1.0704199   -6.6713452    51.148435  0.032047891   0.03530174            7 
  134000    1.0389804   -6.6639074     51.35185   0.03193523  0.035224085            6 
  135000    1.0686147   -6.6708873    51.724869  0.031928931  0.035145232            7 
  136000    1.0429054   -6.6588282    51.959103  0.031837686  0.035062243            3 
  137000    1.0386166   -6.7066795    52.322364  0.031826255  0.034982006            3 
  138000    1.0587245   -6.6187094    52.485512   0.03169415  0.034900161            5 
  139000    1.0480492    -6.670342    53.075674  0.031819948  0.034820908            2 
  140000    1.0700836   -6.6788652    53.141302  0.031631727  0.034741922            3 
  141000    1.0454388   -6.6709136    53.563938  0.031657174  0.034666625            2 
  142000    1.0245871    -6.687137    53.702839  0.031515751  0.034586719            5 
  143000     1.057463   -6.6674443    54.127386  0.031542766  0.034506458            7 
  144000    1.0130944   -6.7023461      54.3622  0.031459606  0.034428375            2 
  145000    1.0585847   -6.6796684    54.492139  0.031317321   0.03434832            3 
  146000    1.0105573   -6.7067323    54.917486  0.031345597  0.034264536            3 
  147000    1.0229301   -6.7105863    54.908597  0.031127323  0.034179969            7 
  148000    1.0421025   -6.7206229    55.065212  0.031005187  0.034091249            2 
  149000    1.0176898   -6.7220478    55.492988  0.031036347  0.034002654            4 
  150000    1.0278974   -6.7358278    55.978804  0.031099335  0.033916382            3 
  151000    1.0387514    -6.739057    56.208501  0.031020144  0.033837335            2 
  152000    1.0122459   -6.7483312    56.552977  0.031004921   0.03375823            4 
  153000    1.0176663    -6.702605    57.051119  0.031073594  0.033679136            9 
  154000    1.0204333   -6.7089162    57.185514  0.030944542  0.033601754            4 
  155000    1.0129936   -6.7496776    57.714604  0.031029357  0.033525577            1 
  156000    1.0220729   -6.7575464     58.11031  0.031041832  0.033455367            4 
  157000    1.0195934   -6.7352233    58.370901  0.030982431  0.033384266            2 
  158000    1.0180901   -6.6957063    58.460825  0.030833769  0.033311856            4 
  159000    1.0166877    -6.742996    58.756636  0.030794883  0.033237273            6 
  160000    1.0079117   -6.7616455    58.927529  0.030691421  0.033163557            8 
  161000   0.98564605   -6.7789697     59.16831  0.030625419  0.033090831            2 
  162000   0.99264874   -6.7886895    59.576121  0.030646153  0.033017864            4 
  163000    1.0035211    -6.796262    59.676102  0.030509254  0.032945882            2 
  164000   0.98324622   -6.7788774    60.257547  0.030618672   0.03287646            2 
  165000   0.99563206    -6.763795    60.795239  0.030704666  0.032809976            3 
  166000    1.0104951   -6.7569195    61.163995  0.030704817  0.032743941            4 
  167000    1.0094958     -6.80754    61.365872  0.030621693  0.032679054            5 
  168000   0.99855194   -6.7768685    61.567556  0.030539462  0.032615445            4 
  169000    1.0158929   -6.7379325    61.753652  0.030450518  0.032550359            8 
  170000    1.0045899   -6.7423892    62.354524  0.030565943  0.032485382            5 
  171000    1.0043385   -6.8029818    62.342833  0.030381498   0.03242103            4 
  172000   0.99153016    -6.769734    62.581688  0.030320585   0.03235795            4 
  173000    1.0024766   -6.8101083    62.929859  0.030313034  0.032294114            4 
  174000   0.99445121   -6.8031648    63.294533  0.030313474  0.032231855            2 
  175000   0.96521338   -6.8244498    63.342242  0.030162972  0.032166136            7 
  176000   0.99606862   -6.8026305    63.554768   0.03009222  0.032099924            6 
  177000    1.0033721   -6.8126352    63.904356  0.030086796  0.032035254            1 
  178000   0.98113968   -6.7986766    64.297254  0.030101711  0.031972954            5 
  179000   0.95864486   -6.7957094    64.519641  0.030037077  0.031908406            4 
  180000   0.97184446   -6.8223035      64.7985  0.029999305  0.031845143            3 
  181000   0.97136668   -6.8190823    64.950979  0.029903766  0.031780734            3 
  182000   0.98481444   -6.8160428    64.923725   0.02972698  0.031712533            5 
  183000   0.97392758   -6.7879583    65.249557  0.029712913  0.031641502            4 
  184000   0.96357994   -6.8065452     65.26772  0.029559656  0.031570481            5 
  185000   0.95061189   -6.8221686    65.620899  0.029558964   0.03149928            4 
  186000   0.95744946   -6.8285067    65.710902  0.029440368  0.031426996            3 
  187000   0.95854537   -6.8265238    65.826585  0.029334485  0.031356204            3 
  188000   0.98059952   -6.8145336     66.32678  0.029400168  0.031286156            5 
  189000   0.96567883   -6.8592686    66.747341  0.029430044  0.031219537            7 
  190000   0.95459424   -6.8066206    67.067009  0.029415355  0.031154066            5 
  191000   0.95831104   -6.8346638    66.936846  0.029204558  0.031087073            4 
  192000   0.95184982   -6.8487997     67.39663  0.029252009  0.031019426            5 
  193000   0.96868173   -6.8598579    67.469338  0.029131838  0.030950661            2 
  194000   0.97620173   -6.8716811    67.833485  0.029138095  0.030882378            3 
  195000   0.95731566   -6.8708903     67.98631  0.029053979  0.030814386            8 
  196000    0.9649526   -6.8646988    68.169858  0.028983783  0.030746491            4 
  197000   0.96174833   -6.8864465    68.326327  0.028902846  0.030677645            3 
  198000   0.94758242   -6.8925849    68.592899  0.028869065   0.03060917            5 
  199000   0.95581701   -6.8733305    69.018829  0.028902357  0.030541552            2 
  200000   0.96158743   -6.8670826    69.233242  0.028847184  0.030475485            4 
  201000   0.93308419   -6.8932088    69.271445  0.028719504  0.030409313            4 
  202000   0.93032458   -6.8646698    69.643329  0.028730746  0.030341548            5 
  203000   0.96138967   -6.8808201    69.785133  0.028647427  0.030275073            3 
  204000   0.94392062   -6.8853073    70.131516  0.028648495  0.030208555            3 
  205000   0.93449183   -6.9168074    70.136369  0.028510719  0.030141672            3 
  206000   0.95275586   -6.9174529    70.364079  0.028464433  0.030074777            6 
  207000   0.95174541   -6.9329656    70.833612  0.028515947  0.030008479            3 
  208000   0.94541492   -6.9117212    71.059034  0.028469164  0.029943504            3 
  209000   0.95134793   -6.8622128    71.153097  0.028370453  0.029879157            7 
  210000   0.93242101   -6.9226643    71.335152    0.0283076  0.029814271           10 
  211000   0.91089089   -6.9069065    71.611233  0.028282477  0.029748268            6 
  212000     0.931227   -6.9187303    71.865113  0.028248865  0.029683221            2 
  213000   0.92204654   -6.9220137    72.041401  0.028185211  0.029618398            7 
  214000   0.92856953   -6.9403586    72.228497  0.028126362  0.029553739            4 
  215000   0.92525979   -6.9337946    72.478965  0.028092622  0.029489722            3 
  216000   0.94149074   -6.9697641    72.702689  0.028048877  0.029426012            6 
  217000   0.92505811    -6.940648    72.852258  0.027977058  0.029362857            5 
  218000   0.92367478    -6.946388    73.371181  0.028047088   0.02930211            2 
  219000    0.9169289   -6.9901493    73.330782  0.027903646  0.029239731            6 
  220000   0.91332681   -6.9905842    73.532872   0.02785336  0.029176061            3 
  221000   0.92720209   -6.9241882    73.856111  0.027849212  0.029112058            3 
  222000   0.91836931   -6.9667966    73.762064  0.027688463  0.029049219            3 
  223000   0.90742545     -6.97122    73.999494  0.027653025  0.028985825            4 
  224000   0.91678007    -6.990309    74.129256  0.027577848  0.028921027            3 
  225000   0.89886566   -6.9943612    74.574689  0.027620255  0.028857207            3 
  226000   0.90748921   -6.9662852    74.988973  0.027650801  0.028794659            4 
  227000   0.92419672   -6.9779156    74.946091  0.027513249  0.028732811            3 
  228000   0.91852052    -6.994355    75.009054   0.02741559  0.028670152            9 
  229000   0.92130128   -6.9789328    75.317089  0.027407965  0.028608525            5 
  230000   0.90502681   -6.9803423    75.140753   0.02722491  0.028546242            7 
  231000   0.90834851   -6.9605459    75.586338  0.027267798  0.028482943            3 
  232000   0.89068567   -6.9698752    75.823961  0.027235618  0.028421764            6 
  233000    0.9073529   -6.9844631    75.912256  0.027150306  0.028361295           11 
  234000   0.91446087   -7.0228911    76.085327  0.027095914  0.028299146           14 
  235000   0.89707156   -6.9838176      76.1888  0.027017305  0.028235623            3 
  236000   0.87991277   -7.0073783     76.34567  0.026958217  0.028172146            9 
  237000   0.88811977   -6.9670528    76.767181   0.02699268  0.028109956            6 
  238000   0.90845432   -7.0150102    76.751719  0.026873851  0.028047053            3 
  239000   0.88052234   -7.0248217    76.935899  0.026825627  0.027984573            5 
  240000   0.89876611   -7.0089313    77.057199  0.026755972  0.027921954            9 
  241000   0.90165234   -7.0314992    77.001271  0.026625612  0.027858601            3 
  242000   0.87140739   -6.9722094    77.439665  0.026666551  0.027795119            5 
  243000   0.87628073   -7.0306772    77.304951  0.026510614  0.027730735            8 
  244000   0.87394019   -7.0118805    77.484242  0.026463197  0.027665488            5 
  245000   0.88963498   -7.0255875    77.714587  0.026433533  0.027599979            4 
  246000   0.88464539   -7.0289344    77.881097  0.026382485  0.027534078            3 
  247000   0.87279227   -7.0621361    77.685659  0.026209736  0.027468614            4 
  248000   0.86909002   -7.0586714      77.9486  0.026192406  0.027402193            3 
  249000   0.87319792   -7.0365468    78.087076   0.02613356   0.02733586            7 
  250000   0.87142876   -7.0441251    78.448666  0.026149555  0.027269738            5 
  251000   0.86010322   -7.0721504    78.922327  0.026202632  0.027205223            9 
  252000   0.86110826   -7.0649933    78.542505  0.025973051  0.027140148            8 
  253000    0.8697796   -7.0466143    78.748756  0.025938325  0.027074538           15 
  254000   0.85365515    -7.055695    78.942359  0.025899724  0.027009524            7 
  255000   0.85754644   -7.0912197     78.76147  0.025739043  0.026943817            4 
  256000   0.86984703   -7.0854729    78.971353   0.02570682  0.026876267            7 
  257000   0.87395605   -7.0820935    79.074198  0.025640142  0.026807699            6 
  258000   0.87089599   -7.0883405    79.202771   0.02558229  0.026739817            4 
  259000   0.85298865   -7.0838701    79.217963  0.025488405  0.026672142            5 
  260000   0.84439184   -7.0720919    79.360508   0.02543606  0.026604921            6 
  261000   0.84127046    -7.050331    79.634936  0.025426225  0.026536856            9 
  262000   0.85848837   -7.0605082    79.647333  0.025333121  0.026469392            6 
  263000   0.86425861   -7.0678338    79.657133  0.025239903  0.026401883            9 
  264000   0.83836512   -7.0764755     79.92338   0.02522834  0.026334083            6 
  265000   0.84052091   -7.0737563    80.046666  0.025171908  0.026266807            6 
  266000   0.83614274   -7.1176172    80.207089  0.025127534  0.026199569            5 
  267000   0.83036749   -7.1057143    80.193594  0.025029211  0.026132335            3 
  268000   0.82511414   -7.1323016    80.369989  0.024990668  0.026065534            6 
  269000   0.82952893   -7.1445843    80.614653   0.02497356  0.025999269            7 
  270000   0.82797295   -7.0950004    80.746072  0.024921627  0.025932536            9 
  271000    0.8420697   -7.1197196    80.988678  0.024904268  0.025867483            6 
  272000   0.84787702    -7.115324    81.087318  0.024842928  0.025802382           14 
  273000   0.83625333   -7.1222914    81.074106  0.024747896  0.025737665            5 
  274000   0.82585999   -7.1414265    81.194688  0.024694248  0.025672928            5 
  275000   0.81745384   -7.1168181    81.365355  0.024656168  0.025608682           10 
  276000   0.82908554   -7.1324541    81.559656    0.0246255  0.025543946            7 
  277000   0.81903545   -7.1026993    81.539208  0.024530448  0.025479205           11 
  278000   0.84751848   -7.1348055    81.768369  0.024510902   0.02541492            9 
  279000   0.81859315   -7.1140513     82.02267  0.024499005  0.025350655            5 
  280000   0.82398814   -7.1459544    82.233132  0.024474147  0.025286624           12 
  281000   0.81434185   -7.1580587    82.322724  0.024413619  0.025223471            9 
  282000   0.81205809   -7.1544077     82.32793  0.024328585  0.025160082            4 
  283000   0.80955094   -7.1629134    82.514187  0.024297464  0.025096964            5 
  284000   0.82420974   -7.1303237    82.386856  0.024174547  0.025033847            4 
  285000   0.81279498   -7.1500994    82.777247  0.024203873  0.024970264            6 
  286000   0.82267999   -7.1736762    82.732696  0.024106263  0.024906862           19 
  287000   0.81509486   -7.1598165    82.712154  0.024016305  0.024843303            8 
  288000   0.80730984   -7.1607026    82.516436  0.023876283  0.024778813            7 
  289000   0.79885537   -7.1755802    82.674142  0.023839141  0.024713676            6 
  290000   0.81892872   -7.2126693    82.718201  0.023769598  0.024648631            7 
  291000   0.80833042   -7.1972687    82.971148  0.023760352  0.024583858            5 
  292000   0.79450033   -7.1923351    83.063037  0.023705205  0.024519584            6 
  293000   0.80039695   -7.1791573    83.086194  0.023630885  0.024454514            6 
  294000   0.80321096   -7.1668323    82.917002  0.023502552  0.024388682            6 
  295000   0.81180394   -7.2163919    82.911319  0.023421276  0.024322258            6 
  296000    0.8043669   -7.2241441    83.100173  0.023395319  0.024256103           14 
  297000   0.80340293   -7.2202862    83.065021  0.023306684   0.02419025           13 
  298000    0.7889259   -7.1861347     83.44011  0.023333364  0.024124259            5 
  299000   0.79190805     -7.20932     83.38123  0.023238916  0.024059121            6 
  300000   0.79476853   -7.2120284    83.398322    0.0231662  0.023993545            4 
  301000   0.76865858   -7.2308448    83.653321  0.023159834  0.023928586            6 
  302000   0.77719057   -7.2158553    83.668831  0.023087426  0.023863956           10 
  303000   0.78013117   -7.2028144    83.564645  0.022982576  0.023799172            8 
  304000   0.78381792   -7.2173858    83.898555  0.022998507  0.023734615            4 
  305000   0.77976537   -7.2167282    83.979567  0.022945237  0.023670614           11 
  306000   0.76594168   -7.2166233     83.99047  0.022873222  0.023606655            5 
  307000   0.79520536   -7.2221364    83.944309  0.022786186  0.023542497           11 
  308000   0.77463423   -7.2468516    84.010458  0.022730102  0.023477574           15 
  309000   0.76762188   -7.2325964    83.898089  0.022626237  0.023412709            5 
  310000   0.76900088   -7.2728098    84.162866  0.022624426  0.023347829            6 
  311000   0.75731976   -7.2518714    84.169848   0.02255355  0.023283257            4 
  312000   0.78449068   -7.2639429    84.032857  0.022444673   0.02321884            6 
  313000   0.76963009   -7.2411394    84.478188   0.02249153  0.023154385            6 
  314000   0.75571264   -7.2793508    84.615295  0.022456288  0.023090969           10 
  315000   0.76943465   -7.2356226    84.560866    0.0223706  0.023027459            9 
  316000    0.7658398   -7.2749989    84.470269  0.022275915  0.022964012           16 
  317000   0.76894254   -7.2692854    84.488975  0.022210561  0.022900624           10 
  318000   0.74032677   -7.2659778    84.832835  0.022230827  0.022837271            8 
  319000   0.75735774   -7.2771384    85.028125  0.022212154  0.022774234            6 
  320000   0.76463775   -7.2963289    84.902614  0.022110056  0.022710981            8 
  321000   0.76075462   -7.2785568    84.624604  0.021969004  0.022647605            9 
  322000   0.75159999   -7.3115818    84.787535  0.021942944   0.02258396            8 
  323000   0.73912358   -7.2807766    85.030605  0.021937721  0.022520781            5 
  324000   0.73330968   -7.3283752    85.099322  0.021887686  0.022457888            7 
  325000   0.74689166   -7.2946766    85.116711  0.021824798  0.022395151            7 
  326000   0.74500274   -7.2832264    85.138401  0.021763395  0.022332288            6 
  327000   0.74686331    -7.300104    85.320973  0.021743367   0.02226974            8 
  328000   0.74975305    -7.350088    84.984157  0.021591503   0.02220708            5 
  329000   0.75330308    -7.304798    85.406609   0.02163288  0.022144797           12 
  330000   0.75143341   -7.3305031    85.335255  0.021549307  0.022082959           14 
  331000    0.7453852   -7.3444512    85.116561  0.021429144  0.022021147            7 
  332000   0.73924844   -7.2995274    85.466379  0.021452404  0.021959077            5 
  333000   0.73997837   -7.3100419    85.553951  0.021409898  0.021897245            6 
  334000   0.76115427   -7.3216374    85.705807  0.021383684  0.021835335           26 
  335000   0.73154766   -7.3501995     85.55117  0.021281385  0.021773885            8 
  336000   0.74744429    -7.344057    85.493342  0.021203706  0.021712163            5 
  337000     0.745773   -7.3455734    85.687282  0.021188744  0.021650794            6 
  338000   0.72840559    -7.304869    85.640625  0.021114552  0.021588935           10 
  339000   0.71679659   -7.3291712    85.783961  0.021087503  0.021527296            6 
  340000   0.72693911    -7.348068    85.599612  0.020980297  0.021465303            7 
  341000     0.732345   -7.3278479    85.725091  0.020949436  0.021403506            7 
  342000   0.72936597   -7.3582356    85.440847   0.02081892  0.021341628            4 
  343000   0.72242274   -7.3498581    85.672225  0.020814438    0.0212796            7 
  344000   0.72727139   -7.3602087    85.716952  0.020764765  0.021218043           10 
  345000   0.71439015   -7.3481996    85.586792  0.020673138  0.021156665            8 
  346000   0.70790783   -7.3359781    85.882081  0.020684509  0.021095273            5 
  347000   0.72343965    -7.361789    85.763072  0.020596319  0.021033789            9 
  348000   0.70411595   -7.3771821    85.761164  0.020536677  0.020972525            9 
  349000    0.7053555   -7.3834452    85.921008     0.020516  0.020911482            8 
  350000    0.7057922   -7.4045451    85.855083  0.020441686  0.020850598           12 
  351000   0.71621346   -7.4152669    85.764073  0.020361841  0.020789707            7 
  352000   0.71613725   -7.3930565    85.990755   0.02035766  0.020729269            7 
  353000   0.70015317   -7.4066359    86.086157  0.020322511  0.020668895            6 
  354000   0.68816322   -7.4001724    86.002204   0.02024534  0.020608036            5 
  355000   0.71170395    -7.405171    85.935285  0.020172602  0.020547545            8 
  356000   0.68857188   -7.4141636    86.269303  0.020194125  0.020487232           10 
  357000   0.70050449   -7.4164452     86.02007  0.020079381  0.020426951            4 
  358000   0.69819425   -7.4303053    86.223257   0.02007059  0.020366685            6 
  359000   0.67451725   -7.4154504    86.173405  0.020003112  0.020306601           10 
  360000   0.69654513   -7.4291102    86.160388  0.019944534  0.020247023            6 
  361000   0.66328102   -7.4336678    86.004571  0.019853317  0.020187184            9 
  362000   0.68018459   -7.4401377    86.197037   0.01984278   0.02012736            9 
  363000   0.69581761   -7.4628988    86.124373  0.019771435  0.020067725           18 
  364000   0.68188801   -7.4393798    86.196883  0.019733719  0.020008271           15 
  365000   0.70471218   -7.4618216    86.097549  0.019656975  0.019948671           12 
  366000    0.6826588   -7.4426057    86.214082    0.0196298  0.019889241           22 
  367000   0.67487448   -7.4390829    86.253081  0.019585168  0.019830214           29 
  368000   0.66578813   -7.4600901     86.18304  0.019516087  0.019771347           25 
  369000   0.67159205   -7.4252457    86.233822  0.019474666  0.019712683           33 
  370000   0.69353243   -7.4326273    86.353041  0.019448883  0.019654007           20 
  371000   0.66611924   -7.4453519    86.500617  0.019429608  0.019595736           17 
  372000   0.65950266   -7.4432929    86.702071  0.019422507  0.019537981           16 
  373000   0.67375943   -7.4451211    86.472344  0.019319112  0.019480565           23 
  374000   0.66097124   -7.4747695    86.632603  0.019303165  0.019423278           14 
  375000   0.67183442   -7.4801554    86.765776  0.019281283  0.019366319           14 
  376000   0.66974161   -7.4805456    86.830169  0.019244275  0.019309274            6 
  377000   0.65525149   -7.4867789    86.696543  0.019163692   0.01925202            8 
  378000   0.67861911   -7.4626534    86.599699  0.019091644  0.019195143            7 
  379000    0.6780995    -7.475345    86.723604  0.019068514  0.019138061            8 
  380000   0.67094457   -7.5059355    86.507755  0.018970999  0.019081304            7 
  381000   0.65181049    -7.482336    86.710183  0.018965482  0.019024526            8 
  382000    0.6485378   -7.5075025     86.79971  0.018935364  0.018967886           23 
  383000   0.67062079   -7.5063884    86.867351  0.018900642  0.018911693           22 
  384000    0.6600223   -7.5174681    86.668822  0.018808338  0.018855407           15 
  385000   0.65771664   -7.5095032    86.692003  0.018764503   0.01879918            7 
  386000   0.65455796   -7.5187972    86.612615  0.018698751    0.0187432           15 
  387000   0.65051594   -7.5124074    86.777176  0.018685869  0.018687435           15 
  388000   0.64402914    -7.530725    86.691026  0.018619207  0.018631519           18 
  389000   0.64032504   -7.5464599    86.689353  0.018570984  0.018575686           16 
  390000   0.64904099   -7.5344273     86.87556  0.018563154  0.018520089           14 
  391000   0.63983236   -7.5303323    86.976603  0.018537213  0.018464985           12 
  392000   0.63724391   -7.5389459    86.841038  0.018461105  0.018409909            8 
  393000   0.63706008     -7.52222    86.841851  0.018414303  0.018355032           13 
  394000   0.63738799   -7.5347599    86.743642  0.018346794  0.018300066           12 
  395000   0.63495901   -7.5455071    86.732898   0.01829808  0.018245233            8 
  396000   0.63306803    -7.557278    86.885791  0.018284047  0.018190738            7 
  397000   0.64032714   -7.5551827    86.752068  0.018209922  0.018136278           12 
  398000   0.63637629   -7.5446142    86.765442  0.018166968  0.018081749           17 
  399000   0.62788746   -7.5493062    86.806272  0.018129965  0.018027489           21 
  400000   0.61816161   -7.5293992    86.733736  0.018069528   0.01797332           11 
  401000   0.62982039   -7.5562303    86.914907  0.018062117   0.01791956           12 
  402000   0.62742098   -7.5682921    86.823076   0.01799815  0.017865902           10 
  403000     0.626053   -7.5506014     86.98017  0.017985974  0.017812592           13 
  404000   0.61579118     -7.56282    87.071763  0.017960347  0.017759723           15 
  405000   0.61400807   -7.5702038    86.978634  0.017896838  0.017706818           28 
  406000   0.61394035   -7.5508763    87.258134  0.017910126  0.017654149           28 
  407000   0.62782818   -7.5993401    86.999764  0.017813219   0.01760163           25 
  408000   0.60790163   -7.5737217    86.947757  0.017758937  0.017549019            9 
  409000   0.60506039   -7.5505629    86.993296  0.017724795  0.017496675           24 
  410000   0.62064558   -7.6101707    86.964656  0.017675743  0.017444205           27 
  411000   0.61311211   -7.5846447    86.975636  0.017634963  0.017391952            9 
  412000   0.59785901   -7.6196056    87.098645   0.01761704   0.01733988           25 
  413000   0.60053702   -7.6000008    86.872504  0.017528754  0.017287881           15 
  414000   0.61014126    -7.621694    86.827946  0.017477445  0.017235916           25 
  415000   0.60976071   -7.6201386    86.831397  0.017436024  0.017183921           31 
  416000   0.59632224   -7.5952656    86.737378  0.017375276  0.017131761           21 
  417000   0.59579696   -7.5901016    86.992465  0.017384585  0.017080055           32 
  418000    0.5985302   -7.6035485    86.835998  0.017311802  0.017028559           27 
  419000   0.60494834   -7.6094486    86.847502  0.017272773   0.01697717           19 
  420000   0.59499903   -7.6104729    86.983219  0.017258575  0.016925899           17 
  421000   0.60267742   -7.6254755    86.771097  0.017175593  0.016874806           36 
  422000   0.59323886   -7.6076936    86.962489  0.017172687  0.016823797           14 
  423000   0.59437256    -7.635637    86.764923  0.017093168  0.016772709           29 
  424000   0.60716875   -7.6239756    86.851259  0.017069823   0.01672168           22 
  425000   0.57601105     -7.61433    86.610082  0.016982369  0.016670725           20 
  426000   0.57932369   -7.6386392    86.773539  0.016974479  0.016619984           33 
  427000   0.58137861   -7.6594015    86.689159  0.016918259  0.016569372           15 
  428000   0.59038115   -7.6414709    86.704111  0.016881641  0.016518804           25 
  429000   0.57639649   -7.6426565    86.751662  0.016851527  0.016468409           11 
  430000   0.57697288   -7.6649736    86.717984  0.016805811  0.016418287           22 
  431000   0.58189155    -7.626829    86.713421  0.016765936  0.016368152           18 
  432000   0.57834147   -7.6599673    86.564718  0.016698441   0.01631815           17 
  433000   0.57483426   -7.6428108    86.693152  0.016684594  0.016268337           22 
  434000   0.57254508   -7.6432737    86.779217  0.016662676  0.016218551           16 
  435000   0.57915474   -7.6671244    86.839836  0.016635984  0.016168973           15 
  436000   0.56490365   -7.6708288     86.84695  0.016599188  0.016119666           16 
  437000   0.56754812   -7.6612061    86.756398  0.016543936  0.016070438           18 
  438000   0.55682751   -7.6919057    86.531939  0.016463459  0.016021228           16 
  439000   0.56551615   -7.6740758    86.623943  0.016443421  0.015972295           18 
  440000   0.57165929   -7.6761804    86.695713  0.016419643  0.015923453           14 
  441000   0.54372274   -7.6919021    86.601642  0.016364634  0.015874798           11 
  442000   0.55842441   -7.7008859    86.726469  0.016351144  0.015826359           17 
  443000   0.55799816   -7.6892662    86.604696  0.016291327  0.015778034           28 
  444000   0.55716083    -7.666536    86.745727  0.016281105  0.015729853           14 
  445000   0.56002507   -7.7090663    86.764973  0.016248122  0.015681891           20 
  446000   0.55379596   -7.6948866    86.761804  0.016211099  0.015634039           12 
  447000   0.55947436   -7.6953759    86.692151  0.016161848  0.015586466           19 
  448000   0.53847566   -7.7011525    86.722049  0.016131333  0.015538892           28 
  449000   0.54727989   -7.7085856     86.81452  0.016112569  0.015491375           30 
  450000   0.54373767   -7.7053354    86.561092  0.016029832  0.015443912           14 
  451000   0.54944126   -7.7107604    86.693125  0.016018685  0.015396614           26 
  452000   0.55582711   -7.7166635    86.499295   0.01594751  0.015349478           25 
  453000   0.52970321   -7.7027242    86.624851  0.015935403  0.015302507           23 
  454000   0.53253225   -7.7080005    86.523552  0.015881709  0.015255659           31 
  455000   0.54487169    -7.690915    86.521904  0.015846503  0.015209008           27 
  456000   0.52897359   -7.7159579    86.506454  0.015808928  0.015162415           12 
  457000   0.53193074   -7.7214346    86.428757  0.015760167  0.015115905           24 
  458000   0.53060491   -7.7309823    86.397046  0.015719986  0.015069582           20 
  459000   0.55182316   -7.7330991    86.479117  0.015700638  0.015023302           20 
  460000   0.52563491   -7.7526212    86.441793  0.015659745  0.014977168           12 
  461000   0.53387094   -7.7490136    86.433552  0.015624286  0.014931231           43 
  462000   0.53887473   -7.7538221    86.436656  0.015591027  0.014885395           15 
  463000   0.52355295   -7.7738391    86.551301  0.015577988  0.014839761           22 
  464000   0.52043508   -7.7584301    86.383617  0.015514299  0.014794267           27 
  465000   0.52320502    -7.774476    86.503534  0.015502425  0.014748936           20 
  466000    0.5271362   -7.7646248    86.310411  0.015434623  0.014703669           18 
  467000   0.52438449   -7.7666592    86.426997  0.015422376  0.014658531           19 
  468000   0.51855679   -7.7759945    86.417786  0.015387782  0.014613533           18 
  469000   0.51438888   -7.7650268    86.317115  0.015337085  0.014568738           28 
  470000   0.52823079   -7.7694111    86.461653   0.01533008  0.014524066           20 
  471000   0.52482204   -7.7854528    86.355893   0.01527882  0.014479602           16 
  472000   0.51932466   -7.7745023    86.355972  0.015246464  0.014435267           20 
  473000   0.51585932   -7.7884773    86.400357   0.01522205  0.014391094           19 
  474000   0.51139051   -7.7960791    86.308285  0.015173749  0.014347023           26 
  475000   0.50197121   -7.7841321    86.252909  0.015132089  0.014303094           28 
  476000    0.5004779   -7.7896986    86.315851  0.015111318  0.014259287           23 
  477000   0.51769416   -7.7851861    86.308476   0.01507835  0.014215596           26 
  478000   0.49848864    -7.805619    86.323423  0.015049411   0.01417205           26 
  479000   0.50282566   -7.7736141    86.207276  0.014997786  0.014128571           37 
  480000   0.49506172   -7.8040225    86.222061  0.014969108  0.014085337           18 
  481000   0.50023989   -7.8027704      86.3537  0.014960794  0.014042213           21 
  482000   0.49885616   -7.8204086      86.3423  0.014927784  0.013999291           32 
  483000   0.49083536   -7.8060295    86.365016  0.014900796   0.01395659           16 
  484000   0.50169854   -7.8158403    86.265691  0.014852908  0.013914117           42 
  485000   0.50713831   -7.8100254     86.28044  0.014824818  0.013871711           15 
  486000   0.48941686   -7.8233141    86.099081  0.014763217   0.01382951           27 
  487000   0.50064694   -7.8173672    86.206678  0.014751314  0.013787304           20 
  488000   0.48876365   -7.8142414    86.138274  0.014709405    0.0137453           30 
  489000   0.49232392   -7.8279677    86.247323  0.014697908  0.013703391           33 
  490000   0.48454253   -7.8263769     86.26325  0.014670621  0.013661689           33 
  491000   0.48448271    -7.819661    86.138271   0.01461953  0.013620022           33 
  492000   0.47600854   -7.8288027    86.169793  0.014595155  0.013578568           26 
  493000   0.47940462   -7.8355965    86.124981  0.014557975  0.013537282           38 
  494000   0.47849232    -7.827604    86.127752  0.014528973  0.013496137           20 
  495000   0.48046787   -7.8347887    86.182018  0.014508757  0.013455105           26 
  496000   0.47131284   -7.8488375     86.18078  0.014479298  0.013414246           47 
  497000   0.47358612    -7.825147    85.985124  0.014417358  0.013373491           36 
  498000   0.48073593   -7.8304217    86.108511  0.014409055   0.01333291           44 
  499000   0.47187611   -7.8330077    86.190919  0.014393941  0.013292495           27 
  500000   0.47910721   -7.8360282    85.950863  0.014325144  0.013252171           28 
  501000   0.48161134   -7.8509174     86.12045  0.014324759  0.013212058           44 
  502000   0.46331361   -7.8243706    85.934367  0.014265333   0.01317206           41 
  503000   0.47946943   -7.8497183    86.171656  0.014276285  0.013132214           27 
  504000   0.45897512   -7.8430365    85.916577  0.014205783  0.013092492           23 
  505000   0.45751534   -7.8476163    86.145338  0.014215402  0.013052933           17 
  506000    0.4629498   -7.8456101    86.055156  0.014172457  0.013013589           37 
  507000   0.44996317   -7.8631408    86.155629  0.014161017  0.012974348           48 
  508000   0.45584185    -7.849201    86.017817  0.014110534  0.012935227           28 
  509000   0.45439259   -7.8750702    86.082385  0.014093383  0.012896289           23 
  510000    0.4561568   -7.8806776    86.047228  0.014060005  0.012857414           32 
  511000   0.46145826   -7.8737667    85.986967  0.014022663   0.01281876           24 
  512000      0.46344   -7.8824741    85.869827  0.013976209  0.012780169           32 
Loop time of 1092.72 on 48 procs for 500000 steps with 4000 atoms

Performance: 79069.067 tau/day, 457.576 timesteps/s
99.4% CPU use with 48 MPI tasks x no OpenMP threads

MPI task timing breakdown:
Section |  min time  |  avg time  |  max time  |%varavg| %total
---------------------------------------------------------------
Pair    | 67.794     | 72.388     | 75.901     |  19.2 |  6.62
Neigh   | 6.9571     | 7.1534     | 7.4179     |   3.3 |  0.65
Comm    | 60.889     | 65.064     | 71.305     |  26.1 |  5.95
Output  | 0.8176     | 0.81808    | 0.82763    |   0.2 |  0.07
Modify  | 932.44     | 936.1      | 940.01     |   6.6 | 85.67
Other   |            | 11.2       |            |       |  1.02

Nlocal:        83.3333 ave          89 max          74 min
Histogram: 2 1 0 2 7 4 13 8 7 4
Nghost:        1842.75 ave        1858 max        1825 min
Histogram: 3 2 2 6 6 10 8 4 3 4
Neighs:        11430.5 ave       12775 max       10078 min
Histogram: 1 5 3 6 8 10 5 6 2 2
FullNghs:      22860.8 ave       24606 max       20212 min
Histogram: 2 1 0 4 6 8 10 9 5 3

Total # of neighbors = 1097316
Ave neighs/atom = 274.32900
Neighbor list builds = 26907
Dangerous builds = 0

#clear
#
#next RN
#
#jump SELF
Total wall time: 0:18:15
