
units lj                  # Use reduced LJ style units
atom_style atomic         # Uncharged point particles
atom_modify map hash      # Needed for indexing of clusters etc
                          # Used to be able to find where atoms are in relation to each other.

lattice fcc 1.0 spacing 1 1 1
Lattice spacing in x,y,z = 1.5874011 1.5874011 1.5874011
region box block 0 10 0 10 0 10 units lattice
create_box 2 box
Created orthogonal box = (0.0000000 0.0000000 0.0000000) to (15.874011 15.874011 15.874011)
  3 by 4 by 4 MPI processor grid
create_atoms 1 box
Created 4000 atoms
  using lattice units in orthogonal box = (0.0000000 0.0000000 0.0000000) to (15.874011 15.874011 15.874011)
  create_atoms CPU = 0.016 seconds
set type 1 type/fraction 2 0.36 78393
Setting atom values ...
  1453 settings made for type/fraction
mass 1 1.0
mass 2 1.0
pair_style lj/cut  3.5
pair_modify tail  yes
pair_coeff 1  1  1.0  1.0   # Intearaction between 1 and 1 set with epsilon = 1 and sigma = 1
pair_coeff 1  2  1.5  0.8
pair_coeff 2  2  0.5  0.88

write_data data.0
System init for write_data ...
Neighbor list info ...
  update every 1 steps, delay 10 steps, check yes
  max neighbors/atom: 2000, page size: 100000
  master list distance cutoff = 3.8
  ghost atom cutoff = 3.8
  binsize = 1.9, bins = 9 9 9
  1 neighbor lists, perpetual/occasional/extra = 1 0 0
  (1) pair lj/cut, perpetual
      attributes: half, newton on
      pair build: half/bin/atomonly/newton
      stencil: half/bin/3d
      bin: standard
WARNING: Not all mixed pair coeffs generated from mixing. Use write_data with 'pair ij' option to store all pair coeffs. (../write_data.cpp:312)


#############################
#   M E L T   S Y S T E M   #
#############################

velocity all create 2.4 6229865 mom yes dist gaussian # Assign velocities
                                                    # Temperature 2.4, random number seed, zero linear momentum
                                                                                # Gaussian distribution

timestep 0.002   # simulation timestep
thermo 1000       # output thermodynamic data every 1000 steps bf 100

# Define a fix  in this case with index 1 applied to all
# particles in the simulation. This fix is for simulations
# in the anisotropic NPT ensemble. Note that we use the MTK
# correction.
fix 1 all npt temp 2.4 2.4 0.1 iso 5.68 5.68 0.5 mtk yes tchain 5 pchain 5 # Use NPT ensemble
                                                                         # Set temperature and pressure and damping
                                                                         # Numbers of thermostats in chain and in barostat
run 10000          # run for 10000 steps
Per MPI rank memory allocation (min/avg/max) = 3.642 | 3.644 | 3.648 Mbytes
Step Temp E_pair E_mol TotEng Press Volume 
       0          2.4   -6.0964775            0   -2.4973775   -4.1129651         4000 
    1000    2.4019999   -4.9730347            0   -1.3709357    5.6744431    4003.8023 
    2000     2.396333   -5.0736453            0   -1.4800444    5.6194356    3975.7564 
    3000    2.4338525   -5.1136822            0   -1.4638161    5.7471366    3940.6786 
    4000    2.4496834   -5.0693486            0   -1.3957422    5.7080976    3975.3051 
    5000    2.4207018   -5.0289161            0   -1.3987711    5.8288412    3984.9107 
    6000    2.3930477   -5.0448476            0   -1.4561734    5.5973629    3995.1286 
    7000    2.3843794   -5.0478131            0   -1.4721382    5.5556656    3995.7826 
    8000    2.3735196    -5.060389            0   -1.5009997    5.9060488    3958.7308 
    9000    2.3742533   -5.0442399            0   -1.4837503     5.704307    3979.1834 
   10000    2.3926453   -5.1139174            0   -1.5258466    5.8182191    3948.4284 
Loop time of 2.49755 on 48 procs for 10000 steps with 4000 atoms

Performance: 691877.578 tau/day, 4003.921 timesteps/s
99.6% CPU use with 48 MPI tasks x no OpenMP threads

MPI task timing breakdown:
Section |  min time  |  avg time  |  max time  |%varavg| %total
---------------------------------------------------------------
Pair    | 1.1043     | 1.1569     | 1.2753     |   3.3 | 46.32
Neigh   | 0.20896    | 0.21703    | 0.2345     |   1.1 |  8.69
Comm    | 0.73861    | 0.86026    | 0.94511    |   4.1 | 34.44
Output  | 0.00024184 | 0.00025061 | 0.00040916 |   0.0 |  0.01
Modify  | 0.20253    | 0.24809    | 0.29283    |   5.0 |  9.93
Other   |            | 0.01502    |            |       |  0.60

Nlocal:        83.3333 ave          92 max          75 min
Histogram: 2 3 6 5 7 10 3 9 2 1
Nghost:        1664.48 ave        1691 max        1633 min
Histogram: 2 3 3 5 2 11 11 5 5 1
Neighs:        9676.44 ave       10960 max        8099 min
Histogram: 1 0 4 7 7 9 8 4 7 1

Total # of neighbors = 464469
Ave neighs/atom = 116.11725
Neighbor list builds = 911
Dangerous builds = 236

# Equilibrate just above the melting temperature to avoid step fn in T

fix 1 all npt temp 1.25 1.25 0.1 iso 5.68 5.68 0.5 mtk yes tchain 5 pchain 5
run 2000
Per MPI rank memory allocation (min/avg/max) = 3.643 | 3.645 | 3.649 Mbytes
Step Temp E_pair E_mol TotEng Press Volume 
   10000    2.3926453   -5.1139174            0   -1.5258466    5.8182191    3948.4284 
   11000    1.2423874   -6.9612212            0   -5.0981059    5.7707037    3186.2989 
   12000    1.2612036   -7.0046455            0   -5.1133131    5.7984074    3171.8564 
Loop time of 0.599848 on 48 procs for 2000 steps with 4000 atoms

Performance: 576146.111 tau/day, 3334.179 timesteps/s
99.7% CPU use with 48 MPI tasks x no OpenMP threads

MPI task timing breakdown:
Section |  min time  |  avg time  |  max time  |%varavg| %total
---------------------------------------------------------------
Pair    | 0.26086    | 0.288      | 0.31924    |   2.3 | 48.01
Neigh   | 0.038173   | 0.040668   | 0.044743   |   0.6 |  6.78
Comm    | 0.18582    | 0.22182    | 0.25198    |   2.8 | 36.98
Output  | 5.0287e-05 | 5.1844e-05 | 6.6887e-05 |   0.0 |  0.01
Modify  | 0.041835   | 0.044496   | 0.047222   |   0.7 |  7.42
Other   |            | 0.004812   |            |       |  0.80

Nlocal:        83.3333 ave          91 max          76 min
Histogram: 1 1 12 3 8 2 12 3 4 2
Nghost:        1921.42 ave        1936 max        1894 min
Histogram: 1 1 1 3 4 7 8 10 8 5
Neighs:        12031.4 ave       13317 max       10912 min
Histogram: 6 3 4 5 9 7 3 7 2 2

Total # of neighbors = 577509
Ave neighs/atom = 144.37725
Neighbor list builds = 141
Dangerous builds = 11

#############################
# L I N E A R  Q U E N C H  #
#############################

# Define solid atoms. This closely follows ten Wolde  Ruiz-Montero and Frenkel  Faraday Discuss  1996  104  93-110
# Compute components of the per-atom q6 vector
compute q6 all orientorder/atom degrees 1 6 components 6 nnn NULL cutoff 1.3 # compute the Q6 parameter.
                                                                             # Use all neighbours within 1.3 unit cell.

# get number of connections
compute coord_number all coord/atom orientorder q6 0.5

# An atom is solid if it has 8 or more connections (of a possible 14)
variable is_solid atom c_coord_number>=8
group solid dynamic all var is_solid    # Must be dynamic to update
dynamic group solid defined

# do clustering
compute cluster solid cluster/atom 1.3 # Create a cluster where all atoms within are solid and max 1.3 units from another member

# define chunks one chunk per cluster
compute clus_chunks solid chunk/atom c_cluster nchunk every compress yes  # Says which atoms are in which chunk

# count the size of each chunk
compute size_chunks solid property/chunk clus_chunks count


# Find the maximum entry in the vector of chunk sizes
variable max_n equal max(c_size_chunks)


# Thermo style which includes this variable
# thermo_style custom step temp pe vol v_max_n

thermo ${N}  # Print the thermo information every 100 steps
thermo 1000  

# Reset the npt fix at a lower temperature (below freezing)
fix 1  all npt temp  ${temp} ${temp}  0.1  iso  5.68  5.68  0.5  mtk yes tchain  5  pchain  5
fix 1  all npt temp  0.45 ${temp}  0.1  iso  5.68  5.68  0.5  mtk yes tchain  5  pchain  5
fix 1  all npt temp  0.45 0.45  0.1  iso  5.68  5.68  0.5  mtk yes tchain  5  pchain  5

dump dmp2 all dcd ${N} traj.dcd
dump dmp2 all dcd 1000 traj.dcd


compute msd all msd com yes
variable twopoint equal c_msd[4]/6/(step*dt+1.0e-6)
fix 9 all vector 10 c_msd[4]
variable fit equal slope(f_9)/6/(10*dt)
thermo_style custom step temp pe c_msd[4] v_twopoint v_fit v_max_n

fix 1 all npt temp 1.25 ${temp} 0.1 iso 5.68 5.68 0.5 mtk yes tchain 5 pchain 5
fix 1 all npt temp 1.25 0.45 0.1 iso 5.68 5.68 0.5 mtk yes tchain 5 pchain 5
run 2000000 # 5000000  # Run for this many steps
Neighbor list info ...
  update every 1 steps, delay 10 steps, check yes
  max neighbors/atom: 2000, page size: 100000
  master list distance cutoff = 3.8
  ghost atom cutoff = 3.8
  binsize = 1.9, bins = 8 8 8
  4 neighbor lists, perpetual/occasional/extra = 1 3 0
  (1) pair lj/cut, perpetual
      attributes: half, newton on
      pair build: half/bin/atomonly/newton
      stencil: half/bin/3d
      bin: standard
  (2) compute orientorder/atom, occasional
      attributes: full, newton on
      pair build: full/bin/atomonly
      stencil: full/bin/3d
      bin: standard
  (3) compute coord/atom, occasional
      attributes: full, newton on
      pair build: full/bin/atomonly
      stencil: full/bin/3d
      bin: standard
  (4) compute cluster/atom, occasional
      attributes: full, newton on
      pair build: full/bin/atomonly
      stencil: full/bin/3d
      bin: standard
Per MPI rank memory allocation (min/avg/max) = 9.817 | 9.824 | 9.829 Mbytes
Step Temp PotEng c_msd[4] v_twopoint v_fit v_max_n 
   12000    1.2612036   -7.0046455 1.0714703e-30 7.4407658e-33 8.3333333e+20            1 
   13000    1.2821108   -7.0246749   0.48622046 0.0031167977  0.039549159            1 
   14000    1.2850906    -7.029594   0.93677041 0.0055760142  0.038297872            3 
   15000    1.2677064   -7.0058954    1.3617194 0.0075651076  0.037543973            1 
   16000    1.2653844   -7.0341951    1.8127564 0.0094414393  0.036882189            1 
   17000    1.2333222    -7.012102    2.2455047  0.011007375   0.03699858            2 
   18000    1.2650016   -7.0241482    2.7096269  0.012544568  0.036783378            3 
   19000    1.2524807   -7.0314076    3.1478637   0.01380642  0.037092866            2 
   20000    1.2460332   -7.0153105    3.6142565  0.015059402  0.037192464            2 
   21000    1.2531652   -7.0574298    4.0775119  0.016180602  0.037147736            1 
   22000    1.2044408   -7.0126603    4.5743155  0.017326952   0.03734653            1 
   23000    1.2512864   -7.0663721    5.0162624  0.018174863  0.037547847            2 
   24000     1.271193   -7.0355013    5.4627792  0.018967983  0.037710689            2 
   25000    1.2323138   -7.0267955    5.8883326  0.019627775  0.037795077            2 
   26000     1.239236   -7.0461836    6.4076603  0.020537372  0.037860505            2 
   27000    1.2683761   -7.0466569    6.8585314  0.021168306   0.03795601            2 
   28000    1.2443998   -7.0020064     7.367176  0.021926119  0.038033402            1 
   29000    1.2317999   -7.0405881    7.7563624  0.022288397  0.038049498            3 
   30000    1.2432105   -7.0452116    8.1457868  0.022627185  0.038037875            1 
   31000    1.2310641   -7.0236729    8.6352249   0.02321297  0.037981723            2 
   32000    1.2685163   -7.1068508    9.0342091  0.023526586  0.037890506            1 
   33000    1.2793626   -7.0838172    9.4889952  0.023962109  0.037841824            1 
   34000    1.2595262   -7.0429922    9.9856402  0.024474608  0.037811084            3 
   35000    1.2469678    -6.988413     10.45342  0.024889095  0.037811425            2 
   36000    1.2732538   -7.0500448    10.827688  0.025064093  0.037774448            1 
   37000    1.2451237   -7.0712952    11.271321  0.025385858  0.037741317            1 
   38000    1.2171299    -7.046653    11.779812   0.02583292  0.037691885            2 
   39000    1.2562418    -7.033196    12.180761  0.026027267   0.03768336            1 
   40000    1.2488517   -7.0654483    12.578572  0.026205357  0.037642289            1 
   41000    1.2290903   -7.0460592     12.95827  0.026337947  0.037578663            1 
   42000    1.2297565   -7.0849863    13.356848  0.026501683   0.03750483            2 
   43000    1.2368066   -7.0169195    13.759038  0.026664803  0.037389895            3 
   44000    1.2233023   -7.0187933    14.170278  0.026837647  0.037279497            2 
   45000    1.2598365   -7.0220059     14.43304  0.026727852  0.037145794            1 
   46000    1.2487362   -7.0674107    14.863625  0.026926857  0.037009947            1 
   47000    1.2264175   -7.0493628    15.412245  0.027326675  0.036898723            2 
   48000    1.2359726   -7.0879619    15.857229  0.027529911   0.03682453            1 
   49000    1.2336209   -7.0685921    16.278235  0.027684074  0.036747782            3 
   50000    1.2337318   -7.0486819    16.802983  0.028004972  0.036688559            2 
   51000    1.2369264     -7.04307    17.137142  0.028001866  0.036636008            2 
   52000    1.2110526   -6.9804326    17.642678  0.028273522  0.036569834            1 
   53000    1.2334887   -7.0513105    17.967306  0.028250481  0.036517335            1 
   54000    1.2328273   -7.0255771    18.308251  0.028253474  0.036457002            3 
   55000    1.2123982   -7.0314613    18.884069  0.028612225  0.036408242            1 
   56000    1.2417129   -7.0740643    19.128233  0.028464633  0.036354372            1 
   57000    1.2217755   -7.0280231    19.524275  0.028544262  0.036277111            1 
   58000    1.2479682   -7.0843495     19.79948  0.028447529  0.036190617            1 
   59000    1.2166258    -7.078496    20.225775  0.028567479  0.036097839            2 
   60000    1.2302784   -7.0696952    20.669064  0.028707033  0.036015634            3 
   61000    1.2412906   -7.0579435     20.95669  0.028629357  0.035935313            2 
   62000    1.1885434    -7.034685    21.489098  0.028883196  0.035853155            1 
   63000    1.2220044   -7.0911277    21.612461  0.028587911  0.035756616            2 
   64000    1.2492381   -7.0839569    22.064174  0.028729393  0.035648894            1 
   65000    1.2446938   -7.0740124     22.45862  0.028793102  0.035545137       -1e+20 
   66000    1.2303526   -7.0628657    22.839553  0.028837819  0.035452797            1 
   67000     1.218513     -7.05379    23.402771  0.029107924  0.035383594            2 
   68000    1.2258124   -7.0763732    23.802416  0.029169627  0.035329803            1 
   69000    1.2422111   -7.0833845    24.077614  0.029079243  0.035256485            1 
   70000    1.2436677   -7.1084366    24.489622  0.029154312   0.03518827            1 
   71000    1.2426822    -7.088592    24.780128  0.029084658  0.035112442            1 
   72000    1.2280096   -7.0603132    25.232944  0.029204797  0.035044853            1 
   73000    1.2278005   -7.1256071    25.653609  0.029284942  0.034989167            2 
   74000    1.2121359    -7.060429    25.979105  0.029255748  0.034928485            1 
   75000    1.2037071   -7.0725148    26.444752  0.029383057   0.03487412            1 
   76000    1.1688096   -7.0392702    26.815543  0.029403008  0.034818161            1 
   77000    1.1833061   -7.1280155    27.203858  0.029441405  0.034764809            2 
   78000     1.199374   -7.0727507    27.725428  0.029621183  0.034715686            2 
   79000    1.1988273   -7.0432877    28.160554  0.029705225  0.034682855            1 
   80000    1.2137323   -7.0451826    28.675123   0.02986992  0.034654714            1 
   81000    1.2340207   -7.0631811    29.093624  0.029931711  0.034636453            1 
   82000    1.2300998   -7.0891656    29.391272  0.029869179  0.034617474            1 
   83000    1.2018566   -7.0614754    29.831346   0.02995115  0.034591667            2 
   84000    1.2279743   -7.0640129    30.284033  0.030043683   0.03456809            2 
   85000    1.1949008   -7.0452394    30.959761  0.030352707  0.034558692            3 
   86000    1.1802663   -7.1169872    31.243805  0.030275004  0.034553933            3 
   87000    1.2071869   -7.0764332    31.742041  0.030404253  0.034549322            2 
   88000    1.1972304   -7.0871825    31.907982  0.030215892   0.03453841            2 
   89000    1.2070036   -7.0875445    32.554159  0.030481422  0.034530649            1 
   90000    1.2006069   -7.1118138    32.643921  0.030225853  0.034516704            2 
   91000     1.215443   -7.0943382    33.225258   0.03042606  0.034504214            1 
   92000    1.2341796   -7.1057668    33.667451  0.030495879  0.034495122            3 
   93000    1.2067697   -7.0636365    34.179105  0.030626438  0.034491877            2 
   94000    1.2274694   -7.0785394    34.820056  0.030868844  0.034495428            2 
   95000    1.2031013   -7.0961721    35.049923  0.030745547  0.034507019            1 
   96000    1.2117032   -7.0922059    35.325672  0.030664645   0.03450755            2 
   97000    1.2289654   -7.1360401    35.663415  0.030638673  0.034503034            2 
   98000    1.2013661   -7.0893966    35.816579  0.030456275  0.034485617            3 
   99000    1.2011586   -7.1443864    36.390205  0.030631485  0.034465275            1 
  100000    1.2067797   -7.0833009    36.663041  0.030552534  0.034444451            2 
  101000    1.2005299   -7.1376782    36.970235  0.030503494  0.034418454            1 
  102000    1.2071427   -7.1418762    37.434571    0.0305838  0.034392217            1 
  103000    1.2080776    -7.085635    37.790607  0.030574925  0.034367197            3 
  104000    1.2056032   -7.1212166    37.980012  0.030432702  0.034337483            1 
  105000    1.2238523     -7.09889    38.362232  0.030446215  0.034294919            1 
  106000    1.2286727   -7.0987543    38.653355  0.030387858  0.034253769            1 
  107000    1.2099327   -7.0966416    38.941938  0.030328612  0.034216786            1 
  108000    1.1971086   -7.1230019    39.286257   0.03031347  0.034175833            3 
  109000    1.2002425   -7.1290995    39.693896  0.030347016  0.034141403            1 
  110000    1.2265452   -7.1242102    40.037468  0.030331415  0.034100518            4 
  111000    1.1926462   -7.1358616    40.404657  0.030333826  0.034060533            3 
  112000    1.2267854   -7.0985958    40.948958  0.030467975  0.034027621            3 
  113000    1.2087309   -7.1010178     41.46438  0.030578451  0.033994172            2 
  114000    1.2098374   -7.1207446    41.691249  0.030476059  0.033959376            1 
  115000    1.2269958   -7.1062893    42.206986  0.030584773  0.033929219            1 
  116000    1.2083286   -7.1366368    42.824818  0.030764956  0.033909554            1 
  117000    1.2426678   -7.1248271    43.166189  0.030745149  0.033892712            2 
  118000    1.1972198   -7.1438935    43.443949  0.030680754  0.033868791            1 
  119000     1.224812   -7.1542239    43.871391  0.030722263  0.033846898            2 
  120000    1.2172396   -7.1388252    44.165684  0.030670614  0.033827597            2 
  121000    1.2262037   -7.1207701    44.764041  0.030829229  0.033807835            1 
  122000    1.2451107   -7.1213154    45.087217  0.030797279  0.033796078            1 
  123000    1.1982879   -7.1110817    45.613125  0.030903201  0.033781087            4 
  124000    1.2088517   -7.1220314    46.053871  0.030950182  0.033768973            4 
  125000    1.1905315   -7.0995559     46.45922  0.030972813   0.03375808            1 
  126000    1.1781838   -7.1436536    46.663337  0.030861995   0.03374928            1 
  127000    1.1942367   -7.1097137    47.079741  0.030892218  0.033738696            1 
  128000    1.1989739   -7.1147684     47.49632  0.030922083  0.033723133            1 
  129000    1.2058151   -7.1843344    47.542291  0.030712074  0.033703156            3 
  130000    1.1888206   -7.1664668    48.003395  0.030771407  0.033681426            1 
  131000    1.1983624   -7.0860071     48.61743  0.030927118    0.0336631            4 
  132000    1.2162839   -7.1717288    48.590587  0.030675876    0.0336402            3 
  133000    1.2006523   -7.1584947    49.241842  0.030853285  0.033615309            1 
  134000    1.2085787   -7.1441708    49.637421  0.030869043  0.033596982            1 
  135000    1.2038864   -7.0987177    50.078409  0.030912598  0.033578803            2 
  136000    1.2390353   -7.1643187    50.299478  0.030820759  0.033560918            2 
  137000    1.2074433   -7.1185227    50.892119  0.030956277  0.033543058            1 
  138000    1.1993472   -7.1270148    51.123484  0.030871669  0.033525543            1 
  139000    1.2000232   -7.1046371    51.364468  0.030794045   0.03350611            2 
  140000    1.1898709   -7.1653733    51.766889  0.030813624  0.033487498            2 
  141000    1.1722265   -7.1348313    52.403887  0.030971564  0.033471414            1 
  142000    1.2221101   -7.1708517     52.58217  0.030858081  0.033454716            1 
  143000    1.1849549   -7.1452358    53.006234  0.030889414  0.033437443            2 
  144000    1.1829878   -7.1083255      53.5356   0.03098125  0.033423951            1 
  145000    1.1832916   -7.1298761    53.842307  0.030943854  0.033411317            1 
  146000    1.1842606   -7.1244891     54.25816  0.030969269  0.033394347            1 
  147000    1.2107732   -7.1576688     54.40283  0.030840606  0.033377613            3 
  148000    1.1770086   -7.1532584    54.990526  0.030963134  0.033361919            1 
  149000    1.1722643   -7.1139816    55.329394  0.030944851  0.033346777            2 
  150000    1.1793913   -7.1097298    55.830166  0.031016759  0.033333655            3 
  151000    1.1896286    -7.150933    55.986849   0.03089782   0.03331943            1 
  152000    1.1992153   -7.1717205     56.57306  0.031015932   0.03330459            1 
  153000    1.2050973   -7.1602601    56.948907  0.031017923    0.0332901            2 
  154000    1.2004483   -7.1494611    57.231517  0.030969435  0.033276767            1 
  155000     1.197771   -7.1903584    57.719933  0.031032222  0.033263931            1 
  156000    1.1808227   -7.1581453      58.2642  0.031124038  0.033253611            2 
  157000    1.2103969   -7.1577323    58.735493  0.031175952  0.033246203            1 
  158000    1.1901488   -7.1577556    59.182535  0.031214417  0.033239764            3 
  159000    1.1703225   -7.1379543     59.50783   0.03118859   0.03323183            1 
  160000    1.1879198   -7.1421555    59.739946  0.031114555  0.033219833            1 
  161000    1.1847631   -7.1389083    60.110816  0.031113259  0.033211218            1 
  162000    1.1730056   -7.1127086      60.9091  0.031331842  0.033205296            2 
  163000    1.1895399   -7.1620697    61.075238  0.031224559  0.033199107            4 
  164000    1.2019936    -7.155653    61.599128   0.03130037  0.033195682            1 
  165000    1.1893742   -7.1861175    61.811189  0.031217772  0.033193801            1 
  166000    1.2002451   -7.1636562    62.347583  0.031298987  0.033191885            1 
  167000    1.1915076   -7.1300766    62.967907  0.031421111  0.033190472            2 
  168000    1.1850796   -7.1778804     63.31628  0.031406885  0.033187597            6 
  169000    1.1809221   -7.1964859    63.695094  0.031407837  0.033187076            2 
  170000    1.1825117     -7.17033    64.043854  0.031394046   0.03318542            1 
  171000    1.1970508   -7.1563053    64.538309  0.031451418  0.033183678            2 
  172000    1.1830841   -7.1959428    64.798608  0.031394674  0.033181649            2 
  173000    1.1771728   -7.1783842    65.147158  0.031381097  0.033180708            1 
  174000    1.1846724   -7.1745963    65.555981  0.031396543  0.033179785            2 
  175000     1.161573   -7.2072742    65.514763  0.031197506  0.033173578            1 
  176000    1.1574229   -7.1648394    66.238296   0.03136283  0.033166857            1 
  177000    1.2150155   -7.1886205    66.372929  0.031249025  0.033161614            1 
  178000      1.17846   -7.2183473    66.906839  0.031323427  0.033152776            1 
  179000    1.1823638   -7.2213024    66.912789  0.031151205  0.033141706            1 
  180000    1.1789115   -7.1658384    67.248813  0.031133709  0.033129621            2 
  181000    1.1547529   -7.1880096     67.75713  0.031195732  0.033119051            1 
  182000    1.1699177   -7.1559086    68.244518   0.03124749  0.033106139            1 
  183000    1.1658933   -7.1552153    68.739246  0.031302025  0.033093953            2 
  184000     1.176818   -7.1460894    69.058972  0.031276708  0.033083871            2 
  185000    1.1623163   -7.1741402    69.306296  0.031219052  0.033071477            3 
  186000    1.1663303   -7.1306601    69.452124  0.031116543  0.033058702            1 
  187000    1.1678214   -7.1629349    69.778384  0.031095536  0.033044989            1 
  188000    1.2130523   -7.1982721    69.927051  0.030996033  0.033031281            2 
  189000     1.196329   -7.1866864    70.316579  0.031003783  0.033013505            3 
  190000    1.1967499   -7.1660621    70.846265  0.031072923  0.032997568            3 
  191000    1.1742527    -7.185217    71.672796  0.031270853  0.032985529            1 
  192000    1.1844219   -7.1847247    71.990541  0.031245894  0.032977509            1 
  193000    1.1884202   -7.1714501    72.697943   0.03138944  0.032969748            1 
  194000     1.181582   -7.1285571    73.050625  0.031379134  0.032962346            1 
  195000    1.1506091   -7.2115242    73.398395  0.031366835  0.032956245            2 
  196000    1.1797417   -7.1487719    73.798052  0.031376723  0.032951291            1 
  197000    1.1809802   -7.1555286    74.321122  0.031438715  0.032946735            2 
  198000    1.1554841   -7.1953404    74.480008  0.031346804  0.032941358            1 
  199000    1.1640675   -7.1969814    74.985836  0.031401104  0.032936031            2 
  200000    1.1514201   -7.1774704    75.517201    0.0314655  0.032930711            3 
  201000    1.1559503   -7.1582929    75.818828  0.031434008  0.032923375            1 
  202000    1.1679679   -7.1840653    75.811358  0.031275313  0.032916451            2 
  203000    1.1856939   -7.2094348    76.120039  0.031247964  0.032907141            1 
  204000    1.1807719   -7.1964115     76.76382   0.03135777  0.032898066            1 
  205000    1.1941952   -7.2001398    76.986306  0.031295246  0.032888716            1 
  206000    1.1655359   -7.1752011    77.160064  0.031213618  0.032879937            1 
  207000    1.1389228   -7.2364194    77.588686  0.031235381  0.032869458            1 
  208000    1.1484177   -7.1993401    78.233479  0.031343541  0.032860592            2 
  209000    1.1756684   -7.1851526    78.304548  0.031221909  0.032851252            1 
  210000    1.1630145   -7.1341071    78.858175  0.031292926  0.032842094            1 
  211000    1.1677808   -7.2103812    79.006622  0.031203247  0.032833479            1 
  212000    1.1758758   -7.2168801    78.943983   0.03103144  0.032821964            2 
  213000    1.1409592   -7.1682181    79.712595  0.031186461  0.032808215            1 
  214000    1.1558426   -7.1519905    79.990669  0.031149014    0.0327956            1 
  215000    1.1590835   -7.2109945    80.232072  0.031097702   0.03278225            2 
  216000    1.1682035   -7.1584448    80.587252  0.031090761  0.032768762            1 
  217000    1.1843472   -7.2078203    81.032364  0.031118419  0.032754671            1 
  218000     1.136397   -7.1861093    81.368593  0.031104202  0.032743163            1 
  219000    1.1761926   -7.2139675    81.374066  0.030964257  0.032729502            1 
  220000    1.1833682   -7.2243724    81.966574  0.031047944    0.0327149            2 
  221000     1.151879   -7.2379572     81.80166  0.030845271  0.032698997            1 
  222000    1.1804408   -7.2014551    82.689474  0.031039592   0.03268418            3 
  223000    1.1735235   -7.2266773     83.06513  0.031040781  0.032669811            3 
  224000    1.1823307   -7.1951992    83.485278  0.031058511  0.032654973            1 
  225000    1.1750877   -7.2309951     83.38129  0.030881959  0.032637716            4 
  226000    1.1676257   -7.2560964     83.57138  0.030815406  0.032618872            2 
  227000    1.1457833   -7.2431647     83.83269  0.030775584  0.032599533            2 
  228000    1.1862679    -7.224723    84.462647  0.030870851  0.032580622            2 
  229000    1.1697358   -7.2648545    84.354875  0.030696825  0.032561022            1 
  230000     1.151324   -7.2389474    84.599928  0.030652148  0.032540716            2 
  231000    1.1589965   -7.2394892     85.30156  0.030772569  0.032521114            1 
  232000    1.1296053   -7.2131625    85.894391   0.03085287  0.032501755            2 
  233000    1.1821117   -7.2208066    85.817919  0.030693104  0.032482145            1 
  234000    1.1685915   -7.2079875    86.283807  0.030727851   0.03246224            3 
  235000    1.1552702   -7.2559418    86.536992  0.030686876  0.032441838            2 
  236000    1.1842826   -7.2128966    87.073306  0.030746224   0.03242303            1 
  237000    1.1682362   -7.2370597    87.462182  0.030753229  0.032405253            2 
  238000    1.1674198   -7.2767831    87.811399  0.030746288  0.032386779            1 
  239000    1.1445176   -7.2624538    88.038771  0.030696921  0.032367587            3 
  240000    1.1578119   -7.2200532    88.300564  0.030659918  0.032349295            3 
  241000    1.1652062   -7.2263964    88.970704   0.03076442  0.032332159            2 
  242000    1.1671152   -7.2082686    89.209829  0.030719638  0.032316173            1 
  243000     1.150591   -7.2201533    90.144249  0.030913666  0.032299928            1 
  244000    1.1368488   -7.2523369     90.08994  0.030768422  0.032284034            2 
  245000    1.1453075   -7.2693067    90.443687  0.030763159  0.032269482            2 
  246000    1.1658766   -7.2231636    90.835615  0.030770872  0.032254522            2 
  247000    1.1592271   -7.2510988    90.930244   0.03067822  0.032240295            2 
  248000    1.1791435   -7.2722404    91.525561  0.030754557  0.032225442            1 
  249000    1.1663704   -7.2643863    91.943159  0.030770803  0.032210656            2 
  250000     1.177591   -7.2278838    92.695908  0.030898636  0.032196803            2 
  251000    1.1733636   -7.1711425    93.108676  0.030912575  0.032183251            1 
  252000    1.1373955   -7.2434389    92.938695  0.030733695  0.032169104            1 
  253000    1.1477181   -7.2069907     93.55127  0.030813989  0.032155725            3 
  254000    1.1846492    -7.234247    93.872213   0.03079797   0.03214291            1 
  255000    1.1747138    -7.249075    93.949633  0.030702494  0.032128917            1 
  256000    1.1506213    -7.303791    94.156461   0.03064989  0.032114744            2 
  257000    1.1369781   -7.2627626    94.904847  0.030773297  0.032101862            1 
  258000    1.1721898   -7.2157824    95.593021  0.030876299  0.032090123            1 
  259000    1.1496678   -7.1979506    96.158834  0.030939136  0.032079276            4 
  260000    1.1230151   -7.2523072    95.802328  0.030705874  0.032066357            1 
  261000    1.1460114   -7.2376155     96.27327  0.030738592  0.032052184            2 
  262000    1.1527052    -7.278656    95.906224  0.030504524  0.032035982            1 
  263000    1.1499129   -7.2281057    96.440366  0.030557784  0.032019468            3 
  264000     1.154151   -7.2226592    96.519266   0.03046694  0.032001517            2 
  265000    1.1689915   -7.2414976    97.108997   0.03053742  0.031983495            3 
  266000    1.1561235   -7.2300337    97.560155  0.030563958  0.031966273            2 
  267000    1.1409384   -7.2477763    97.674969  0.030485321  0.031949892            2 
  268000    1.1160916   -7.2434937    97.977548  0.030465655  0.031932924            2 
  269000     1.147887   -7.2785609    98.483373  0.030509099  0.031914678            2 
  270000    1.1384566   -7.2380925    98.609158  0.030434925  0.031896389            1 
  271000    1.1649657   -7.2800663    99.269393  0.030525643  0.031878502            3 
  272000     1.150603   -7.2798532    99.123503   0.03036872  0.031860976            2 
  273000    1.1643632   -7.2572334    100.02078  0.030531374  0.031843468            2 
  274000    1.1393968   -7.2076521    100.31708   0.03051006  0.031827221            1 
  275000     1.148381   -7.2744903    100.54104  0.030466981  0.031809933            2 
  276000    1.1374865   -7.2927205    100.80958  0.030437675  0.031792205            1 
  277000    1.1307876   -7.2883938    101.04092  0.030397388  0.031774337            1 
  278000    1.1479154   -7.2642901    101.14858  0.030320316  0.031756794            1 
  279000    1.1612559   -7.3057164    101.00969  0.030170157  0.031737056            1 
  280000    1.1533696   -7.3144206    101.08677  0.030085349  0.031715281            4 
  281000    1.1431495   -7.2543617    101.84819  0.030204089  0.031693638            1 
  282000    1.1421064   -7.2798494    102.37641  0.030253077  0.031672566            1 
  283000    1.1486826   -7.2377312     102.2588  0.030111542  0.031651015            1 
  284000    1.1300336   -7.2664923    102.58433  0.030101037  0.031628021            1 
  285000    1.1736672   -7.2449679    102.80883  0.030061062  0.031606134            5 
  286000    1.1508532   -7.3025332    103.00993  0.030014548  0.031584459            3 
  287000    1.1461054   -7.2893178    103.47906  0.030046184  0.031562621            1 
  288000    1.1527531   -7.2729112    103.56973  0.029968092  0.031539656            2 
  289000    1.1531438   -7.2998559    103.94587  0.029972856  0.031519142            2 
  290000    1.1500064   -7.3200771    104.27158  0.029963097  0.031498144            5 
  291000    1.1263926    -7.235017    104.90118  0.030040429  0.031477048            2 
  292000    1.1049116   -7.2874818    104.97942  0.029959879  0.031455031            1 
  293000    1.1634407   -7.2619131    105.18676  0.029916599  0.031431779            2 
  294000    1.1217165    -7.249095    105.72846  0.029968385  0.031408216            4 
  295000    1.0964589   -7.2659583    105.62007  0.029836179  0.031384509            2 
  296000    1.1288977   -7.2637497    106.21578  0.029903091  0.031360682            1 
  297000    1.1199323   -7.2815412    106.30394  0.029827143  0.031337038            1 
  298000    1.1169152    -7.262176    106.67731  0.029831463  0.031313342            4 
  299000     1.150099   -7.3174561    106.89138  0.029791353  0.031289612            1 
  300000    1.1266822   -7.2796742    106.92308  0.029700855  0.031265409            2 
  301000    1.1287016   -7.2592878    107.65768   0.02980556  0.031241151            1 
  302000     1.139889   -7.3028448    107.56416   0.02968106  0.031216743            2 
  303000    1.1339457   -7.2651402    107.95275  0.029689975  0.031191669            1 
  304000    1.1172029   -7.2639856     108.4773  0.029736102  0.031167659            1 
  305000    1.1533022   -7.2793496    108.70203  0.029700007  0.031144703            2 
  306000    1.1344101   -7.3212192        108.9  0.029656864  0.031122031            1 
  307000    1.1236344   -7.2735733    109.05571  0.029602527  0.031098638            1 
  308000    1.1270132    -7.267277    109.25252  0.029559663  0.031074444            1 
  309000    1.1387026    -7.286035     109.6409  0.029568743  0.031050788            2 
  310000    1.0944623   -7.2885996    110.33149  0.029659003   0.03102647            1 
  311000    1.1418915   -7.3182841    110.21047  0.029531209    0.0310032            5 
  312000    1.1551371   -7.2848182    111.01862  0.029652408  0.030980575            1 
  313000    1.1384969   -7.3205864    111.13037  0.029587426  0.030958171            1 
  314000    1.1260584   -7.2937154    111.45696  0.029579873  0.030936013            1 
  315000    1.1348715   -7.2835878    111.77585   0.02957033  0.030913912            3 
  316000    1.1338413   -7.2682101    111.83918  0.029493456  0.030890631            1 
  317000    1.1387927   -7.3106227    111.96866  0.029434452  0.030867336            3 
  318000     1.149952   -7.2909449    112.63191    0.0295157  0.030845043            1 
  319000    1.1417053    -7.325002    112.92153  0.029498832  0.030823719            1 
  320000    1.1462044   -7.3349882    112.93152   0.02940925  0.030801511            1 
  321000    1.1325785   -7.3095329    113.43741  0.029448964  0.030779274            2 
  322000    1.1312002   -7.2977688    113.66415  0.029416188  0.030757677            1 
  323000    1.1392884   -7.2872908    114.30231  0.029489759    0.0307365            2 
  324000    1.1580183   -7.2769705    114.69647  0.029500121  0.030715941            1 
  325000     1.112879   -7.3210238     114.6276  0.029391693  0.030694741            1 
  326000    1.1199845    -7.296807    115.11281  0.029425565  0.030674012            3 
  327000    1.1413762   -7.3538683    114.90973  0.029283826   0.03065213            2 
  328000    1.1199473   -7.2972746    115.78023  0.029415708  0.030630079            3 
  329000    1.1315066   -7.2967294    115.90065  0.029356801  0.030609385            2 
  330000    1.1309433   -7.3030593    116.39271  0.029392099  0.030588777            3 
  331000    1.1294173   -7.2933852    116.69252  0.029378782  0.030568506            1 
  332000    1.1085511   -7.3161292    116.61877  0.029271779  0.030547412            3 
  333000    1.1326519   -7.3172278     116.6377  0.029188614  0.030525509            2 
  334000    1.1193571   -7.3330023    117.22001   0.02924651   0.03050395            1 
  335000    1.1195947   -7.2809709    117.70935  0.029280934  0.030482328            2 
  336000    1.1330604   -7.3366073    118.02702  0.029272575  0.030460721            2 
  337000    1.1257659   -7.3621965    117.83787  0.029138939  0.030439565            2 
  338000    1.0989318   -7.3017674    118.83555  0.029298706  0.030418479            1 
  339000    1.1239675   -7.3567352    118.70485  0.029180149  0.030397998            1 
  340000    1.1179319   -7.3235134    119.23146  0.029223396  0.030377403            1 
  341000    1.1204856   -7.2914823    119.76579  0.029268278  0.030358276            5 
  342000     1.158754   -7.3374827    120.14128   0.02927419  0.030338752            2 
  343000    1.1125564   -7.2880352    120.60606  0.029301764  0.030319103            2 
  344000    1.1183434   -7.2978398    120.71278  0.029242438  0.030299303            1 
  345000    1.0886697   -7.2974246    121.27743  0.029294065  0.030280216            1 
  346000    1.1147765   -7.3269297    121.37692  0.029233361  0.030262026            1 
  347000    1.1108931    -7.319977    121.73926  0.029236134  0.030243113            1 
  348000    1.1209394   -7.3110132    121.74491  0.029153473  0.030224553            2 
  349000    1.1566351   -7.3253311    121.97442  0.029124742  0.030204367            2 
  350000    1.1197458    -7.337938    122.35067  0.029131113  0.030183587            2 
  351000    1.1325824   -7.2622423    122.54733  0.029094807  0.030162705            1 
  352000    1.1083525   -7.3174463    122.57691  0.029019154   0.03014164            1 
  353000    1.1131394   -7.3432813    122.95988  0.029027355  0.030121082            2 
  354000    1.0967141   -7.3463745    123.30621  0.029026885  0.030100584            2 
  355000    1.0913068   -7.3303317    123.77011  0.029054016  0.030080838            2 
  356000    1.1055247   -7.3366179    123.95633  0.029015994  0.030061639            1 
  357000    1.1435738   -7.3592412    124.58813  0.029082197  0.030043182            2 
  358000    1.1130176   -7.3176187    124.92309  0.029078932  0.030024743       -1e+20 
  359000    1.1133868   -7.3455148    124.94786  0.029003682   0.03000539            1 
  360000    1.1064344   -7.3740512    124.97431  0.028929238  0.029985862            1 
  361000    1.1199967    -7.376788    125.10891  0.028880172  0.029966201            1 
  362000    1.1209303   -7.3238083    125.64235  0.028923193  0.029946619            2 
  363000    1.1225425   -7.2853668    126.06504   0.02894055  0.029926997            2 
  364000    1.1303044   -7.3317486    126.48855  0.028958001  0.029908085            3 
  365000    1.0919509   -7.3934669     126.5914  0.028902145  0.029889533            1 
  366000    1.1307309   -7.3307155    127.31554  0.028988056  0.029871162            2 
  367000     1.096106     -7.35037     127.2876  0.028902725  0.029853523            1 
  368000    1.0909285   -7.3691999    127.42456  0.028855198   0.02983482            1 
  369000      1.08235   -7.3652277    127.65766  0.028829642  0.029815221            2 
  370000    1.1140723   -7.3574891    128.16637    0.0288663  0.029795813            2 
  371000    1.0963783   -7.3327535    128.39843  0.028840617  0.029777063            2 
  372000    1.1327052   -7.3303401     128.7477  0.028841331  0.029759373            1 
  373000    1.1218836   -7.3334774    128.81548  0.028779151  0.029741003            1 
  374000    1.1095219   -7.3726719     129.1877  0.028785139  0.029721924            1 
  375000    1.0961034   -7.3804308    128.83582  0.028630183  0.029702352            1 
  376000    1.1133314   -7.3415657     129.0478   0.02860102  0.029682425            1 
  377000    1.0819453    -7.326118    129.93974  0.028722312   0.02966259            2 
  378000     1.131834   -7.4090226    129.15701  0.028473767  0.029642334            1 
  379000    1.1152417   -7.3838428    129.84672   0.02855029  0.029621951            2 
  380000    1.1079484   -7.3470466    130.00017  0.028508808  0.029600934            2 
  381000    1.1066787   -7.3712459    130.56502  0.028557528  0.029580136            3 
  382000    1.1351502    -7.343312     131.0123  0.028580345  0.029559872            2 
  383000    1.0980842   -7.3500523    131.29612  0.028567477  0.029539881            1 
  384000    1.1318306   -7.3473787    131.29901  0.028493709  0.029518718            2 
  385000    1.1226827   -7.3240198    131.65554  0.028496869  0.029497655            2 
  386000    1.0983232   -7.4089284    130.80903  0.028240292  0.029475336            1 
  387000    1.1084755   -7.3287064    131.88058  0.028398058  0.029453138            1 
  388000    1.0967649   -7.3965288    131.98545  0.028347391    0.0294306            3 
  389000    1.0960447   -7.3532274    132.52842  0.028390835  0.029408384            1 
  390000    1.1037266   -7.3848886    132.60681  0.028334789  0.029386077            1 
  391000    1.1039432   -7.3411231    132.63804  0.028268977  0.029363316            2 
  392000    1.0954023   -7.3877896    133.03625  0.028281515  0.029340552            2 
  393000    1.0878281   -7.3364725     133.3645  0.028279156  0.029318758            2 
  394000    1.0891611   -7.3563448    133.08518  0.028148304  0.029296143            1 
  395000    1.0908554   -7.3892828    133.38224  0.028139713  0.029272957            1 
  396000    1.0926968   -7.3702999    134.35716  0.028273814  0.029249605            1 
  397000    1.0933124   -7.4001368    134.20119  0.028169856  0.029227074            2 
  398000    1.1171609   -7.4168601    134.56607  0.028175475  0.029205169            2 
  399000    1.0712867   -7.3609167    134.91773  0.028178307  0.029183639            1 
  400000    1.0660447   -7.4188646     134.6474  0.028051543   0.02916103            1 
  401000    1.0881226   -7.4747836    135.01022  0.028056987  0.029138108            1 
  402000    1.0928049   -7.3942836    135.25834  0.028038627  0.029115298            2 
  403000     1.122079   -7.3818734    135.43965  0.028006545   0.02909291            1 
  404000    1.0805101   -7.3885276    135.60719  0.027971781  0.029070424            1 
  405000    1.1105368   -7.3743912    136.12865   0.02801001  0.029048133            1 
  406000    1.0838809   -7.4160754    136.64546  0.028047097  0.029025723            1 
  407000     1.100716    -7.384008    137.05634  0.028062314  0.029003729            1 
  408000    1.0807638   -7.4162458    136.72829  0.027926529  0.028981435       -1e+20 
  409000    1.0739796     -7.41396      136.901  0.027893439  0.028959777            2 
  410000     1.090616   -7.3782605    137.19014  0.027884175  0.028937921            1 
  411000    1.0866444   -7.3708382    138.00138  0.027980816    0.0289165            1 
  412000    1.0866167   -7.3914603    137.85244  0.027882776  0.028894586            1 
  413000    1.0755725   -7.4018579    138.34897   0.02791545  0.028873257            5 
  414000    1.0818994   -7.4121667    138.95676  0.027970363  0.028852535            2 
  415000    1.0926448   -7.4198628    138.62381  0.027836107  0.028831262            1 
  416000    1.1014139   -7.3838003    139.19026  0.027882664  0.028810106            4 
  417000    1.0784675   -7.3958835    138.78008  0.027733828  0.028788166            1 
  418000    1.0720031   -7.3801735    139.38689  0.027788454  0.028766361            3 
  419000    1.0642264   -7.3923533    139.71708  0.027787805  0.028744465            3 
  420000    1.0668918   -7.3937596    139.96875  0.027771577  0.028722353            1 
  421000     1.121828   -7.4197708     139.9733  0.027706513  0.028700471            1 
  422000    1.0912841   -7.3725998    140.60791  0.027766174  0.028678856            1 
  423000    1.0935708    -7.440662    140.22372  0.027624847  0.028657483            1 
  424000    1.0819351   -7.4263598    141.12982  0.027737778  0.028636199            2 
  425000    1.0582855   -7.3645876    141.32405  0.027710598  0.028615389            1 
  426000    1.0725995   -7.4004499    141.67341  0.027713892  0.028595052            1 
  427000    1.0757311   -7.3711763    142.56878  0.027823728  0.028574865            3 
  428000    1.0686627   -7.3939196    142.40704  0.027727227  0.028554393            2 
  429000    1.0785502   -7.3851252    142.50929  0.027682456  0.028533912            1 
  430000    1.0734706   -7.3350474    143.13028  0.027738427  0.028513244            1 
  431000    1.0678458   -7.3965137    142.75199  0.027600927    0.0284922            1 
  432000    1.0594789   -7.3971574    142.51562  0.027491439  0.028470905            2 
  433000    1.0968632   -7.4370214    143.27672  0.027574427  0.028449513            1 
  434000     1.085354    -7.424753     143.2233  0.027500634  0.028428266            3 
  435000    1.0825021   -7.4236521     143.5519  0.027500364  0.028407184            4 
  436000    1.0734958   -7.4083573    144.68707  0.027654257  0.028386289            1 
  437000    1.0878775   -7.4582092     144.4488  0.027545537  0.028365385            2 
  438000    1.0853461   -7.3875552    144.37115  0.027467874  0.028344615            2 
  439000    1.0387728   -7.4380477    145.00222  0.027525098   0.02832412            1 
  440000    1.0775909   -7.4284555    145.43921  0.027545305  0.028304015            1 
  441000    1.0756461   -7.3963085    145.87805  0.027565769  0.028284582            1 
  442000    1.0797046   -7.4432851    145.28511  0.027391611  0.028265073            2 
  443000    1.0961321   -7.4236867    145.98735  0.027461879  0.028245613            4 
  444000    1.0877784   -7.4224622    146.23397  0.027446316  0.028225572            2 
  445000    1.1161111    -7.439346     146.4453  0.027424214  0.028205612            2 
  446000    1.0905555   -7.4680763    146.41093  0.027356302  0.028185135            2 
  447000    1.0975284    -7.441603    146.36104  0.027285802  0.028164251            3 
  448000    1.0519032   -7.4165957    147.45559  0.027428495  0.028143707            1 
  449000    1.0793564   -7.3904938    147.57891  0.027390295  0.028123545            1 
  450000     1.092686   -7.4343236    146.95982  0.027214782  0.028103219            2 
  451000    1.0791272   -7.4564956    147.60051  0.027272821  0.028082431            2 
  452000    1.0597826     -7.42881    147.32272  0.027161268  0.028061625            2 
  453000    1.0665591   -7.4425566     147.8815  0.027204102  0.028040833            2 
  454000    1.0768623   -7.4766841    147.99129  0.027164333   0.02802014            2 
  455000    1.0567134   -7.4182696     149.0354  0.027295861  0.027999109            2 
  456000    1.0578003   -7.4330551    148.69977  0.027174665  0.027978318            2 
  457000    1.0617471   -7.4133189    149.18574  0.027203819  0.027957974            3 
  458000      1.08899   -7.4142245    148.94763  0.027101096  0.027937224            2 
  459000    1.0899333   -7.4574025    148.46956  0.026955258  0.027915685            8 
  460000    1.0812014   -7.4382789    149.45736  0.027075608  0.027894318            2 
  461000    1.0646482   -7.4144492    149.91393  0.027099409  0.027873295            2 
  462000    1.0832587   -7.4385217    150.18725  0.027090052  0.027852085            1 
  463000    1.0594356   -7.4123514    150.38799  0.027067672  0.027830879            1 
  464000    1.0667493   -7.4344599    150.79647  0.027082699  0.027810486            2 
  465000    1.0667207    -7.416595    150.43337  0.026959385  0.027789689            1 
  466000    1.0872571   -7.4343361    150.43441  0.026901718  0.027768711            2 
  467000    1.0571169   -7.4436497     151.4457  0.027024572  0.027748172            1 
  468000    1.0675248   -7.4444057    151.22639  0.026927776  0.027727498            1 
  469000    1.0696927   -7.4291039    151.34911  0.026892165  0.027707267            3 
  470000    1.0603163   -7.4362291    152.50614  0.027040095  0.027687452            2 
  471000    1.0555069   -7.4247653    152.73133  0.027022528  0.027667825            1 
  472000    1.0715427   -7.4095705     152.6971  0.026959233  0.027648723            2 
  473000    1.0496824   -7.4233357    153.45967  0.027036588  0.027629191            2 
  474000     1.064277    -7.423863    153.63668  0.027010668  0.027610755            3 
  475000    1.0803518   -7.4769871    153.90827  0.027001452  0.027591911            1 
  476000    1.0416695    -7.451241    154.03327  0.026966608  0.027573245            2 
  477000    1.0646821   -7.4549543    154.40485  0.026974991  0.027554505            1 
  478000    1.0657518   -7.4945558    154.17007  0.026877627  0.027535738            1 
  479000    1.0567174   -7.4396413    154.40372  0.026862165  0.027517162            2 
  480000    1.0622793   -7.4036334      155.566  0.027007986   0.02749893            2 
  481000    1.0860826   -7.3850632    155.86453  0.027003556   0.02748076            1 
  482000    1.0606186   -7.4460075    155.34085  0.026856993  0.027461897            1 
  483000    1.0596351   -7.4662383    155.43495  0.026817625  0.027442949            1 
  484000    1.0586326   -7.4325128    155.51563  0.026776107  0.027424135            1 
  485000     1.036903   -7.4636578    155.58678  0.026733124  0.027404653            2 
  486000    1.0533719    -7.398928    156.24274  0.026790594  0.027385271            1 
  487000    1.0893229   -7.4416163    156.11187  0.026713188  0.027365733            1 
  488000    1.0631049   -7.4608097    156.40461  0.026708437  0.027346238            4 
  489000    1.0676946   -7.4490338    156.75252  0.026713109   0.02732657            2 
  490000    1.0628331   -7.4352188    157.35393  0.026760873  0.027307698            1 
  491000    1.0754356    -7.464676    157.44548  0.026721907  0.027288762            1 
  492000    1.0664691   -7.4652588    157.39415    0.0266589  0.027269624            1 
  493000    1.0594534   -7.4658947    157.74774  0.026664595  0.027250615            1 
  494000    1.0533734   -7.4574994    158.07247  0.026665397  0.027231921            1 
  495000    1.0588197   -7.4545291     158.0753  0.026612004  0.027212635            3 
  496000    1.0613712    -7.521761    157.72789  0.026499982  0.027193008            6 
  497000    1.0477628   -7.4877294    158.08701  0.026506877  0.027172857            3 
  498000    1.0566628   -7.4401692     158.5142  0.026525134  0.027153174            2 
  499000    1.0742375   -7.4654433    158.18908  0.026417683  0.027133992            2 
  500000    1.0763211   -7.4475709    158.85274  0.026475456  0.027114543            1 
  501000    1.0331305    -7.435784    159.52805  0.026534938   0.02709577            1 
  502000    1.0629922   -7.4672422    159.60156  0.026494283  0.027077105            2 
  503000    1.0605798   -7.5066814    160.15706  0.026533642  0.027057953            1 
  504000    1.0283761   -7.4369134    160.05232  0.026463677  0.027039211            1 
  505000    1.0630144   -7.4661224     160.6289  0.026506419  0.027020708            2 
  506000    1.0568604   -7.5080599    160.25088  0.026391779  0.027001564            2 
  507000    1.0311298     -7.43835    160.92409  0.026450377  0.026982494            1 
  508000    1.0488119   -7.4835372     160.0828  0.026260302  0.026963236            1 
  509000    1.0472106   -7.4810291    160.57823  0.026289821  0.026943819            1 
  510000    1.0421528   -7.4821458    160.92289  0.026294591  0.026924109            1 
  511000    1.0640892   -7.4838172    160.95602  0.026248535  0.026904762            3 
  512000    1.0330362   -7.4580288     162.0086  0.026368587  0.026885536            2 
  513000    1.0169741   -7.5059668    162.01684  0.026318525  0.026866345            1 
  514000    1.0407143    -7.492585    162.07784  0.026277212   0.02684695            2 
  515000    1.0488911   -7.4500479    162.33521  0.026267833  0.026827997            1 
  516000    1.0350349   -7.5260275    162.22745  0.026199524  0.026809218            2 
  517000    1.0692696   -7.4924426    162.93547  0.026262971  0.026790027            1 
  518000    1.0556272   -7.4767734    163.04984  0.026230669  0.026771088            1 
  519000    1.0547697   -7.4652058    163.37682   0.02623263  0.026752545            2 
  520000    1.0360257   -7.4631418    163.48041  0.026198783  0.026733356            2 
  521000    1.0456704   -7.4791769    163.54137  0.026158249  0.026714054            1 
  522000    1.0580991   -7.4782284    163.09331  0.026036607  0.026694258            3 
  523000    1.0170616   -7.4956647    163.51006  0.026053228  0.026674555            2 
  524000    1.0446695   -7.4710493    163.37456   0.02598196  0.026655068            2 
  525000     1.045966   -7.4930747    163.89711  0.026015414  0.026635606            2 
  526000    1.0560563   -7.4755883    164.64867  0.026085024  0.026616151            2 
  527000    1.0427001   -7.4758967    164.57029  0.026023133  0.026596471            1 
  528000    1.0259932   -7.5198362    164.31188  0.025933062  0.026576373            2 
  529000     1.036932   -7.4804241    165.15928   0.02601753  0.026556389            1 
  530000     1.063244   -7.4904623    165.54852  0.026029642  0.026536887            1 
  531000    1.0625933   -7.5024602    165.67209  0.026000014  0.026517649            1 
  532000    1.0490281   -7.4975862    165.36462   0.02590298  0.026498395            1 
  533000     1.053425   -7.5108654    165.45954  0.025869222  0.026478797            1 
  534000    1.0365749   -7.5229398    165.95348  0.025897859  0.026459437            2 
  535000    1.0216187   -7.4852116    165.82816  0.025829931  0.026439871            3 
  536000    1.0396729   -7.5101234    166.56777   0.02589673   0.02642084            2 
  537000    1.0520768   -7.5051817    166.85805  0.025893552   0.02640213            2 
  538000    1.0637765   -7.5084641     166.7409  0.025827277  0.026382985            1 
  539000     1.044217   -7.5465934    166.93229   0.02580895  0.026364148            1 
  540000    1.0317063   -7.5030916    167.42688  0.025837482  0.026344911            1 
  541000    1.0211043   -7.5135342    166.88347  0.025706018  0.026325922            3 
  542000    1.0323303   -7.5092921    167.29521  0.025721895  0.026306903            3 
  543000    1.0354638   -7.5397153    167.86523  0.025762006  0.026287958            1 
  544000    1.0157975    -7.518166    168.33893  0.025787214  0.026268993            1 
  545000    1.0361788   -7.4782986    169.03541  0.025846392   0.02625034            2 
  546000     1.005966   -7.5297491    168.24747  0.025678796  0.026231677            2 
  547000    1.0237866   -7.5208594    168.65232  0.025693528  0.026212882            1 
  548000    1.0396615   -7.5238015    168.87603  0.025680661  0.026194201            1 
  549000    1.0221635   -7.5144949    168.83366  0.025627453  0.026175686            1 
  550000    1.0417323   -7.5218123    168.98953  0.025604474   0.02615668            2 
  551000    1.0296045   -7.5039239    169.29222  0.025603784  0.026137834            2 
  552000    1.0609843   -7.4735491    170.27035  0.025705065  0.026119186            1 
  553000    1.0390338   -7.5400193    169.64171   0.02556385  0.026100221            2 
  554000    1.0383219   -7.5000617    170.38285  0.025629189  0.026081605            1 
  555000    1.0369403    -7.496523    170.58789  0.025613797  0.026062667            1 
  556000    1.0355519   -7.5536635    170.17524  0.025505881  0.026043438            1 
  557000    1.0386156   -7.5479489    170.29631  0.025478203  0.026024121            4 
  558000    1.0300079    -7.508409    170.51543  0.025465267  0.026004983            1 
  559000    1.0313441   -7.4989207    171.61687  0.025583911  0.025985773            3 
  560000    1.0409823   -7.5262422    171.35554  0.025499337    0.0259668            2 
  561000    1.0302299   -7.5212773    171.62335  0.025493664  0.025947885            2 
  562000    1.0552215   -7.4952722    171.68056  0.025456786  0.025928848            2 
  563000    1.0142413   -7.5222685     171.4897  0.025383319  0.025910065            3 
  564000    1.0189041   -7.5448736    172.21087  0.025444869  0.025891316            2 
  565000    1.0359759   -7.5485767    172.14047   0.02538945  0.025872568            1 
  566000    1.0309609   -7.5771816    171.99191   0.02532272  0.025853764            1 
  567000    1.0330094   -7.5482783    172.49563  0.025352091  0.025834832            5 
  568000    1.0142811   -7.5157165    172.71862  0.025340173  0.025816125            3 
  569000    1.0179535   -7.5204919    173.01167  0.025338558  0.025797602            1 
  570000    1.0215298   -7.5722934    173.12462  0.025310617  0.025779288            2 
  571000    1.0166988   -7.5327254    173.95108  0.025386906  0.025761288            2 
  572000    1.0131967   -7.5463325    174.38428  0.025405635  0.025743386            2 
  573000    1.0122872   -7.5135323    174.34335  0.025355345  0.025725445            1 
  574000    1.0280225   -7.5459414    174.20808  0.025291533   0.02570767            1 
  575000    1.0454705   -7.5389798    174.26336   0.02525556  0.025689469            3 
  576000    0.9817163   -7.5742387    174.52241  0.025249191  0.025671016            1 
  577000    1.0351639   -7.5498219    174.47083  0.025197983  0.025652931            1 
  578000    1.0025246   -7.5497297    174.61159  0.025174682  0.025634807            2 
  579000    1.0214322   -7.5627005    174.81665  0.025160716  0.025616229            2 
  580000    1.0288504   -7.5565716    175.40849  0.025202369  0.025597844            1 
  581000     1.041387    -7.502619    175.39349   0.02515684  0.025579418            2 
  582000    1.0495201   -7.5334836    176.01192  0.025202166  0.025561113            1 
  583000    1.0283707   -7.5606033    174.96083  0.025008695   0.02554272            2 
  584000    1.0316695   -7.5580498    175.46191  0.025037374  0.025523806            1 
  585000    1.0197797   -7.5228333    176.11608   0.02508776  0.025505499            2 
  586000    1.0044836   -7.5374816    176.39205  0.025084194  0.025487139            2 
  587000    1.0204124   -7.5389739    176.54863  0.025063689  0.025468577            1 
  588000    1.0097909   -7.5873625    176.04869  0.024950211  0.025449842            2 
  589000    1.0305015   -7.5711615    176.70246  0.025000348  0.025431078            1 
  590000   0.98065094   -7.5421973    176.66167  0.024952214  0.025412027            2 
  591000    1.0066167   -7.5681311    177.10767   0.02497288  0.025393211            2 
  592000    1.0206404   -7.5049176    177.78451  0.025025973  0.025374605            2 
  593000    1.0204748   -7.5804545    177.82633  0.024989648  0.025356272            1 
  594000    1.0225875   -7.5671481    177.93289  0.024962526  0.025337868            1 
  595000    1.0060091   -7.6090215    177.97206  0.024926059  0.025319481            2 
  596000    1.0253546   -7.5814124    177.46311  0.024813075  0.025300852            1 
  597000    1.0094808      -7.5766    178.02379  0.024849776   0.02528216            4 
  598000    1.0238563   -7.5462431    178.57994  0.024885722  0.025263561            3 
  599000    1.0173247   -7.5536388    178.39637  0.024818638  0.025244942            1 
  600000   0.99437258   -7.5916351    178.24201  0.024755834   0.02522611            1 
  601000    1.0253144   -7.5370923    178.95082  0.024812925   0.02520744            2 
  602000   0.99774177   -7.5577559    178.41096  0.024696977  0.025188489            1 
  603000    1.0118201   -7.5742023    178.97642  0.024734166  0.025169257            1 
  604000    1.0235077   -7.5865239    179.00665  0.024697385  0.025150028            2 
  605000    1.0180493   -7.5737701     179.1927   0.02468219  0.025130829            2 
  606000    1.0227117   -7.5272139    179.37706  0.024666812  0.025111839            2 
  607000    1.0296444   -7.5482734    179.67222  0.024666697  0.025092696            1 
  608000    1.0063163   -7.5682742    179.25714  0.024569236  0.025073273            3 
  609000   0.99749457   -7.5764114    179.57883   0.02457291  0.025053738            4 
  610000    1.0382905   -7.5729791    179.75152  0.024556219  0.025034576            2 
  611000    1.0073088   -7.5375098    180.23615  0.024582127  0.025015356            1 
  612000   0.99826757    -7.531351    180.66958  0.024600978  0.024996353            1 
  613000    1.0029023   -7.6213974    179.91776  0.024458641  0.024976879            2 
  614000    0.9913853   -7.6026413     180.1985  0.024456908  0.024957346            4 
  615000    1.0149449   -7.5771209    180.46206  0.024452853  0.024937829            1 
  616000    1.0146876   -7.5703211    180.74266  0.024451118  0.024918048            1 
  617000    1.0207624   -7.5754829    180.44277  0.024370985  0.024898618            2 
  618000    1.0250801   -7.5810646      181.017   0.02440898  0.024878899            4 
  619000    1.0121344    -7.558925    181.17503  0.024390822  0.024859289            3 
  620000    1.0034803   -7.5412132    181.25741  0.024362555  0.024839759            3 
  621000   0.99575472   -7.5813169    181.43253  0.024346824  0.024820154            1 
  622000    1.0175273   -7.5945762    181.97372  0.024380188  0.024800359            1 
  623000    1.0063207   -7.5514126    182.08949   0.02435654  0.024780736            3 
  624000    1.0223795   -7.6153043    182.13376  0.024323419  0.024761319            2 
  625000    1.0007942   -7.6140579     182.0464  0.024272854  0.024741831            1 
  626000    1.0250544   -7.5432704    183.22998  0.024391638  0.024722731            3 
  627000   0.99661019   -7.6061936    182.56255  0.024264029  0.024703905            3 
  628000   0.99348859   -7.5662456    182.68407  0.024241517  0.024684835            1 
  629000    1.0054915   -7.6047503     183.1273  0.024261699  0.024665877            4 
  630000    0.9988712   -7.5620922    183.55628  0.024279931  0.024646978            3 
  631000   0.98821739   -7.6110697    183.62637   0.02425071  0.024628048            2 
  632000    1.0085961   -7.6267117    184.05233  0.024268503  0.024609509            2 
  633000    1.0033688   -7.5808082    184.12267  0.024239425  0.024590918            2 
  634000    1.0001681   -7.5991634    184.08045  0.024195642  0.024572388            4 
  635000    1.0143474   -7.5679754    184.53805  0.024217592   0.02455411            1 
  636000    1.0069554   -7.5725355    184.41733  0.024163696  0.024535387            1 
  637000    1.0053041   -7.6081939    185.08502  0.024213111    0.0245171            2 
  638000   0.99303462   -7.5828151    185.74159  0.024260918  0.024499121            1 
  639000    1.0086102   -7.6358972    185.30826   0.02416644  0.024481313            2 
  640000    1.0002238   -7.5888252    185.64026  0.024171909  0.024463663            2 
  641000    1.0161076   -7.5673405     186.2668  0.024215652  0.024445923            2 
  642000   0.99176558   -7.6145709    185.94989  0.024136798  0.024428177            3 
  643000   0.98632223   -7.5974008    186.50922  0.024171749  0.024410612            1 
  644000   0.99972483   -7.6297438    186.33246  0.024111344  0.024393091            1 
  645000    1.0070622   -7.6194785    187.13807  0.024178045  0.024375946            1 
  646000    1.0085807   -7.6701765    185.96505    0.0239893  0.024358431            1 
  647000   0.98383329    -7.609774    187.37002  0.024133182  0.024340971            1 
  648000   0.98637681   -7.5682897    187.89122  0.024162966  0.024323747            2 
  649000   0.98680693   -7.6312484      187.648  0.024094504   0.02430629            1 
  650000    1.0007893   -7.6232362    187.03083  0.023978311  0.024288542            3 
  651000   0.98199042   -7.6495508    187.48443  0.023999543  0.024270528            1 
  652000    1.0082719   -7.6559557    187.47654  0.023961725  0.024252415            3 
  653000    1.0017693   -7.6297276    188.08285  0.024002405   0.02423418            2 
  654000   0.97980235   -7.6231221    187.06209  0.023835639  0.024216235            1 
  655000   0.99399797   -7.6220983     188.0627  0.023926552  0.024198396            4 
  656000    1.0061241   -7.5999344     188.2407  0.023912691  0.024180701            3 
  657000    0.9947997    -7.649424    188.45891  0.023903971  0.024163092            2 
  658000   0.99916991   -7.6364933    188.52472  0.023875977  0.024145489            1 
  659000   0.98184308   -7.6234169    188.82899  0.023878223  0.024127867            2 
  660000   0.98249869   -7.6120324     189.0414  0.023868864  0.024110291            3 
  661000   0.99932326    -7.631869    189.15608  0.023847212  0.024092923            3 
  662000    1.0008963   -7.6452392    189.02294  0.023794428  0.024075642            1 
  663000   0.98583551   -7.6506229    189.58332  0.023828974  0.024058174            2 
  664000   0.97085338   -7.6414042    189.38834  0.023768617  0.024040424            4 
  665000   0.99706303   -7.6288044    189.85418  0.023791251  0.024022691            2 
  666000    1.0026232   -7.6447645    189.73229  0.023740276  0.024004905            1 
  667000    1.0054128   -7.6639958    189.79302  0.023712271  0.023987121            1 
  668000   0.96667069   -7.6028107    190.76498  0.023798027  0.023969571            3 
  669000   0.98310436   -7.6338529     190.3788  0.023714349  0.023952221            1 
  670000   0.98165143   -7.6068977    191.02755  0.023759645  0.023934896            2 
  671000    0.9836753    -7.630631    190.93246  0.023712427  0.023917568            2 
  672000   0.96470132   -7.6229581    191.00254  0.023685831  0.023900076            1 
  673000   0.99092907   -7.6522791    190.92283  0.023640767  0.023882655            3 
  674000   0.98816536   -7.6343314     192.0305  0.023742643  0.023865591            2 
  675000     1.003161   -7.6647425    191.63764  0.023658968  0.023848748            2 
  676000   0.98524494   -7.6205758    192.22561  0.023696451  0.023831777            1 
  677000   0.99282729   -7.6405149     191.9444  0.023626834  0.023814624            1 
  678000   0.98781611   -7.6540726    192.05676  0.023605796   0.02379726            3 
  679000   0.95907617   -7.6589089    192.22756  0.023591994  0.023780161            2 
  680000    0.9879991   -7.6280805    192.42607  0.023581627  0.023763072            2 
  681000   0.97809048   -7.6135627     192.9727  0.023613889  0.023746288            2 
  682000    0.9815594    -7.617955    193.09926  0.023594729   0.02372959            1 
  683000    1.0155527   -7.6353931     193.3227  0.023587445  0.023712864            1 
  684000    0.9823504   -7.6526849    193.25327  0.023544502  0.023695999            2 
  685000   0.97867146   -7.6259526    193.25025  0.023509762  0.023679026            2 
  686000   0.96297877   -7.6198167    194.20075  0.023590956  0.023662394            4 
  687000   0.98928463     -7.69411    193.17727  0.023432468  0.023645424            2 
  688000   0.99223152   -7.6917599    193.32036  0.023415742   0.02362821            1 
  689000   0.98731937   -7.6500026    193.38921  0.023390083  0.023610984            1 
  690000   0.98124744   -7.6540881    194.20554  0.023454775  0.023593726            3 
  691000   0.98421281   -7.6668319    194.28501  0.023430416   0.02357697            4 
  692000    0.9573693   -7.6353063    194.80377  0.023459028  0.023560257            2 
  693000   0.96586274    -7.635596    194.67269  0.023409414  0.023543595            2 
  694000   0.99029609   -7.6865255    194.75773  0.023385894  0.023527152            4 
  695000    0.9575155   -7.6381622    195.29665  0.023416865  0.023510477            1 
  696000   0.97889439   -7.6365829    195.50237  0.023407851  0.023494046            2 
  697000   0.96910491   -7.6530708    195.43759  0.023366523  0.023477763            5 
  698000   0.97633363   -7.6593154    195.33651  0.023320977  0.023461391            2 
  699000   0.97751682   -7.6954365    195.50957  0.023308246  0.023444747            1 
  700000   0.96780646   -7.6578302    195.75756  0.023304471   0.02342793            2 
  701000   0.98739691   -7.7176214    195.49532  0.023240052  0.023411249            1 
  702000    0.9899561   -7.6558411    195.59369  0.023218624   0.02339452            2 
  703000   0.96056294   -7.6925103     195.8813   0.02321969  0.023377573            4 
  704000   0.96515315   -7.6622162    196.44871  0.023253872  0.023360447            2 
  705000   0.97144653   -7.6569385    196.44054  0.023219922  0.023343614            1 
  706000   0.97948326    -7.692244    196.23936  0.023163286  0.023326782            2 
  707000   0.96941997   -7.6571243     197.0192  0.023222443  0.023310138            3 
  708000   0.98154781    -7.643388    197.41844  0.023236634  0.023293705            3 
  709000   0.98485248   -7.6613704    197.10497  0.023167016  0.023277381            1 
  710000    0.9647797   -7.6790774    197.30277  0.023157602  0.023260974            4 
  711000   0.97920866   -7.6536554    197.76648  0.023179381  0.023244841            1 
  712000   0.97209213    -7.659922    197.86414  0.023158257  0.023228948            1 
  713000   0.99859062   -7.6738483    197.98684  0.023140117  0.023212988            1 
  714000   0.94698656   -7.6432513    198.79755  0.023202328  0.023197018            4 
  715000   0.96999333   -7.6902592     198.2362  0.023104452  0.023180981            1 
  716000   0.94904242   -7.6786332    198.35437  0.023085937  0.023164775            2 
  717000   0.95701555   -7.6966546     198.6797   0.02309155  0.023148432            2 
  718000   0.96565929   -7.7135908    198.84378  0.023078433  0.023132143            4 
  719000   0.96987403   -7.6922742    199.09848  0.023075855  0.023115873            2 
  720000   0.97326938   -7.6908056    198.93467  0.023024846  0.023099561            4 
  721000   0.96312865   -7.6848887    199.00099  0.023000577  0.023082982            2 
  722000   0.95576643    -7.694639    199.04449  0.022973741  0.023066646            4 
  723000   0.97211107    -7.675652    199.49943  0.022994401  0.023050558            3 
  724000    0.9487943   -7.7266413    199.46299  0.022958447  0.023034188            1 
  725000   0.96622495   -7.6725548    199.48666  0.022929501  0.023017984            2 
  726000   0.95470798   -7.7381109    199.75323  0.022928516  0.023001599            2 
  727000   0.95656107    -7.735646    199.57622  0.022876687  0.022985191            2 
  728000    0.9705476   -7.7021831    199.91113    0.0228836  0.022968702            1 
  729000   0.96406151    -7.718242    199.99079  0.022861316  0.022952235            3 
  730000   0.94771695   -7.6795347    200.56069  0.022895056  0.022936094            1 
  731000   0.96253574   -7.6964876    200.74018  0.022884198      0.02292            1 
  732000   0.96783969   -7.7021002    201.17793   0.02290277  0.022903909            1 
  733000   0.97279564   -7.6734921      200.587  0.022804343  0.022887837            1 
  734000   0.92173918   -7.7185082    201.20252  0.022843156  0.022871927            3 
  735000   0.95360029   -7.7152821     201.6612  0.022864081  0.022856171            1 
  736000   0.96635514   -7.6642965    202.08547  0.022881054  0.022840781            5 
  737000   0.95023814   -7.6903363    202.32041  0.022876573  0.022825286            3 
  738000      0.94174   -7.7206029    201.57022  0.022760864  0.022809761            1 
  739000   0.97205119   -7.6949193    202.94733  0.022885355  0.022794061            1 
  740000   0.98180066    -7.700985    201.87433  0.022733595  0.022778517            2 
  741000   0.95432182   -7.7286617    202.80647  0.022807746  0.022763011            1 
  742000     0.947649   -7.7173079    202.66545  0.022761169  0.022747589            2 
  743000   0.93831508   -7.6951219    203.37861  0.022810521  0.022732437            7 
  744000   0.97545222   -7.6953128    203.49253  0.022792622  0.022717348            3 
  745000   0.94802538   -7.7760048     203.1656  0.022725459  0.022702162            1 
  746000   0.94001242   -7.7135769    203.57459  0.022740682  0.022687066            3 
  747000   0.93511274   -7.6878192    204.31536  0.022792878  0.022672071            2 
  748000   0.97673701   -7.7023323    203.82045   0.02270727  0.022657147            1 
  749000   0.96350082   -7.6910023      204.778  0.022783489  0.022642401            3 
  750000    0.9624509   -7.7171958    204.85983  0.022762204  0.022627425            1 
  751000   0.95111533   -7.7374247    204.38916  0.022679667  0.022612543            1 
  752000   0.95437003    -7.704683    204.56246  0.022668713  0.022597585            2 
  753000   0.94980007   -7.7228571    204.88906  0.022674752  0.022582611            2 
  754000   0.96399335   -7.7123716    205.73115  0.022737749  0.022567731            1 
  755000    0.9448058   -7.7209519    205.45129  0.022676743  0.022552681            1 
  756000   0.97787819   -7.7064592      205.039  0.022601301  0.022537605            2 
  757000   0.96035252    -7.714752    205.12354  0.022580751  0.022522616            1 
  758000   0.93804641   -7.7360681    204.80818   0.02251629    0.0225076            3 
  759000   0.94515406   -7.7574064    205.58214  0.022571601  0.022492536            2 
  760000   0.95325902   -7.7540901    205.84813  0.022571067  0.022477581            1 
  761000   0.96142059   -7.7602613    205.63237   0.02251778  0.022462522            1 
  762000   0.96264421   -7.7272518    206.12783  0.022542414  0.022447536            2 
  763000   0.93920504   -7.7227376    206.59897  0.022564326  0.022432471            3 
  764000   0.94684937   -7.7676476    206.23408  0.022494992  0.022417401            2 
  765000   0.95329073   -7.7089643    207.39807  0.022592382  0.022402472            2 
  766000   0.94782587   -7.7171695    206.91643   0.02251049  0.022387701            2 
  767000   0.94275668   -7.7637035    206.65315  0.022452537  0.022372732            2 
  768000   0.94776798     -7.73597    206.76273  0.022435192  0.022357863            5 
  769000   0.94519609   -7.7120015    207.69207  0.022506726  0.022343144            1 
  770000   0.94765421   -7.6924206    207.95171  0.022505596  0.022328624            2 
  771000   0.93217708   -7.7371228    207.41518  0.022418415  0.022313974            1 
  772000   0.92058361   -7.7527257      207.009  0.022345531  0.022298892            3 
  773000    0.9452699   -7.7048023    207.78608  0.022400397  0.022283686            3 
  774000    0.9420975   -7.7194717    207.50073  0.022340733  0.022268485            2 
  775000   0.93516841    -7.779056    207.36024    0.0222968  0.022253306            1 
  776000   0.96244111   -7.7549842    207.70326  0.022304903  0.022238115            3 
  777000   0.93667835   -7.7630555    207.56586  0.022261461  0.022222767            1 
  778000   0.92631918   -7.7209775    208.03553  0.022283155  0.022207543            1 
  779000   0.93369294   -7.7081986    208.57991  0.022312784  0.022192464            1 
  780000   0.92170036   -7.7599628    208.26322  0.022250344  0.022177585            3 
  781000   0.96475079   -7.7540644    208.34334  0.022230404  0.022162364            2 
  782000    0.9482849    -7.794086    207.81103  0.022145251  0.022147166            5 
  783000   0.92717336   -7.7612203     208.7167  0.022213356   0.02213182            3 
  784000   0.95867295   -7.7246827    208.49303  0.022161249  0.022116334            1 
  785000   0.94852817   -7.6938773    208.72729  0.022157887  0.022101029            1 
  786000   0.91819178   -7.7511817    209.28812  0.022189156  0.022086039            2 
  787000   0.97366968   -7.7714497    208.77512  0.022106641  0.022070924            4 
  788000   0.96038053   -7.7660413    209.01439  0.022103891   0.02205576            2 
  789000   0.93985136    -7.732995    209.38903  0.022115445  0.022040502            2 
  790000   0.93465123   -7.7297458    209.67954  0.022118095  0.022025404            2 
  791000   0.94199488   -7.7590005    209.28024  0.022048065  0.022010383            2 
  792000   0.93007756   -7.7657743    209.24887  0.022016927  0.021995264            2 
  793000   0.93480108   -7.7716407    209.88887  0.022056418  0.021980173            3 
  794000   0.93233673    -7.759493     209.3193   0.02196886  0.021964988            3 
  795000   0.93488564    -7.807617    209.89361  0.022001426  0.021949658            2 
  796000   0.92910707   -7.7624313    209.64031  0.021947269  0.021934122            2 
  797000   0.93805354   -7.7658989    209.66822  0.021922649  0.021918707            2 
  798000   0.95348042   -7.7894734    210.06787  0.021936912  0.021903033            2 
  799000   0.92056469   -7.7806312    209.33755  0.021833287  0.021887488            1 
  800000   0.93865862   -7.7551077    210.23267  0.021899237   0.02187201            2 
  801000   0.91896654   -7.7273711    211.16733  0.021969136  0.021856664            4 
  802000    0.9317459    -7.788953    210.40676  0.021862714  0.021841058            1 
  803000   0.91244524   -7.7838248    210.16265  0.021810154  0.021825397            1 
  804000   0.91636522   -7.7729256     210.8404  0.021853275  0.021809632            2 
  805000   0.94507886   -7.8053133     210.1365  0.021753261  0.021794002            3 
  806000   0.93084777   -7.7614128    210.43216  0.021756841  0.021778043            1 
  807000   0.93794025   -7.7721202    210.15806  0.021701575  0.021762095            2 
  808000   0.93441643   -7.7581984    210.95694   0.02175711  0.021746276            1 
  809000   0.93067947   -7.7741627    211.24999  0.021760403  0.021730597            3 
  810000   0.92362924   -7.7970689     211.3003  0.021738714  0.021714881            2 
  811000   0.92922624   -7.7683262     211.2528  0.021707029  0.021699182            1 
  812000   0.94004548   -7.7782495    210.81911  0.021635787  0.021683356            3 
  813000   0.93387162   -7.7448668    211.51157  0.021680153  0.021667591            2 
  814000    0.9370752    -7.756038     211.8011  0.021683159  0.021651735            2 
  815000   0.92536323   -7.7729831    211.54415  0.021630282  0.021635763            1 
  816000   0.92042876   -7.7688195    211.84126  0.021634116  0.021619621            1 
  817000   0.90918424   -7.7681605    211.48411  0.021571206  0.021603615            1 
  818000   0.91697983   -7.7751829    211.69027  0.021565838  0.021587669            2 
  819000   0.92153696   -7.7722725    211.30967  0.021500781  0.021571706            2 
  820000   0.92677439   -7.7854764    211.81274  0.021525685  0.021555573            2 
  821000   0.89868701   -7.7745135    211.73491  0.021491566  0.021539672            1 
  822000   0.92100043   -7.7761411    212.37521  0.021530333  0.021523951            2 
  823000   0.92086797   -7.7709083    212.72417  0.021539506  0.021508476            1 
  824000   0.91553331   -7.7610306    212.21466  0.021461838  0.021492794            1 
  825000   0.94014686   -7.8049132     212.6741  0.021482232  0.021477066            2 
  826000   0.93229626   -7.7883527    212.50751  0.021439417  0.021461118       -1e+20 
  827000   0.93953688   -7.8165184    212.61097  0.021423919   0.02144518            2 
  828000   0.92414794   -7.8126711    212.13144  0.021349782  0.021429077            2 
  829000   0.93608806   -7.7993431     212.6186  0.021372999  0.021412982            2 
  830000   0.91992665   -7.7762227    212.78505   0.02136396  0.021396798            3 
  831000    0.9117085    -7.796004    213.01201  0.021361011  0.021380722            1 
  832000   0.90633092   -7.7942259    212.86921  0.021321035  0.021364652            1 
  833000   0.91501915   -7.8102928    213.06888  0.021315414  0.021348547            2 
  834000   0.92152068   -7.7980914    212.32825  0.021215852  0.021332377            2 
  835000   0.92648901   -7.7772753    213.42121  0.021299522  0.021316339            3 
  836000    0.9121345   -7.7674356    213.34033  0.021265982  0.021300323            2 
  837000   0.92734772    -7.782756    213.83881  0.021290204  0.021284331            1 
  838000   0.92221031   -7.8114919    213.28019  0.021209247  0.021268261            2 
  839000   0.91448151   -7.7858732    213.00829  0.021156962    0.0212522            2 
  840000   0.91275265   -7.8152844    213.49171  0.021179733  0.021236202            2 
  841000   0.91637195   -7.8108718     213.7698  0.021182105  0.021220209            1 
  842000   0.93078097   -7.8175112    214.53726  0.021232904  0.021204447            3 
  843000   0.92782457   -7.7694422    214.92916  0.021246457  0.021188749            1 
  844000   0.91040647   -7.7902383    214.12661  0.021142043   0.02117293            2 
  845000   0.92417223   -7.8112013    214.42393  0.021146345  0.021157348            2 
  846000    0.8901915   -7.8112845    215.44593  0.021222018   0.02114181            2 
  847000   0.91352563   -7.8076848    215.41946  0.021194359  0.021126314            1 
  848000    0.9070008   -7.8012142    215.01564  0.021129682  0.021110728            1 
  849000   0.93224302   -7.8289324     215.5635  0.021158569  0.021095156            2 
  850000   0.92312553   -7.8023644    214.98814  0.021077269  0.021079426            1 
  851000   0.89643079   -7.8215308    214.98551  0.021052244  0.021063806            2 
  852000   0.89873225   -7.7926096    215.39625  0.021067709  0.021048148            5 
  853000   0.88657814   -7.8384895    215.05016  0.021009199  0.021032206            1 
  854000   0.89502827   -7.8270037    214.84934  0.020965001  0.021016231            2 
  855000   0.91313835   -7.8549531    215.52462  0.021006298  0.021000396            2 
  856000   0.92012139   -7.8233493    215.17431  0.020947654  0.020984599            1 
  857000   0.92045401   -7.8217956    215.43641  0.020948698  0.020968819            2 
  858000   0.93074545   -7.8188156    215.81135  0.020960698  0.020952866            4 
  859000   0.89205826   -7.8414608    215.56162   0.02091207  0.020936915            1 
  860000   0.91484129   -7.8144288    215.75843  0.020906825  0.020920996            1 
  861000   0.93555121   -7.8396974    216.08986  0.020914621  0.020905174            6 
  862000   0.92464631    -7.838678    215.72421  0.020855009  0.020889369            1 
  863000   0.92552252   -7.8415484     215.4856  0.020807802  0.020873542            1 
  864000   0.92167792   -7.8370158    216.81085   0.02091154   0.02085771            2 
  865000   0.93626313   -7.7951046    217.28168  0.020932724  0.020842033            2 
  866000   0.91895576   -7.8538819    216.06815  0.020791777  0.020826286            2 
  867000   0.91126797   -7.8266237    216.26254   0.02078648  0.020810302            3 
  868000   0.88423781   -7.8504702    216.18107  0.020754711   0.02079431            2 
  869000   0.92461789    -7.864219    216.47447  0.020758964  0.020778334            2 
  870000    0.9095695   -7.8301556    217.13926  0.020798779  0.020762395            1 
  871000   0.88604238   -7.8320153    217.05066  0.020766424  0.020746708            2 
  872000   0.91049471   -7.8104032    217.41908  0.020777817  0.020731062            3 
  873000   0.88746709   -7.8147909    217.23681  0.020736618  0.020715659            2 
  874000    0.9052037   -7.8316387     218.0178  0.020787357  0.020700262            3 
  875000   0.91219943   -7.8292692    218.03089  0.020764846  0.020684981            2 
  876000   0.90198976   -7.8624613    217.51041  0.020691629  0.020669713            1 
  877000   0.90202516   -7.8269915    218.55924  0.020767696  0.020654375            1 
  878000   0.91067182   -7.8439222    218.33062  0.020722344  0.020639042            2 
  879000   0.92085092   -7.8561098    218.50523  0.020715323  0.020623646            2 
  880000   0.90006748   -7.8296748    219.11039   0.02074909  0.020608445            1 
  881000   0.91150138   -7.8169922     218.9633  0.020711625  0.020593445            2 
  882000   0.89209409   -7.8406917    218.60646  0.020654427  0.020578416            1 
  883000   0.89389726   -7.8025403    220.02301  0.020764723  0.020563523            3 
  884000   0.91198614   -7.8373495    219.07121  0.020651509  0.020548401            1 
  885000   0.88233044   -7.8481353    218.93146  0.020615015  0.020533311            2 
  886000   0.90774125   -7.8291457    219.33177  0.020629399  0.020518316            2 
  887000   0.91035384   -7.8331944    219.31207   0.02060429   0.02050322            1 
  888000   0.92498122   -7.8816623     219.0237  0.020554026  0.020488022            3 
  889000    0.8885151   -7.8566551    219.33138  0.020559747  0.020472746            2 
  890000   0.90461929   -7.8115407    219.60605  0.020562364  0.020457596            1 
  891000   0.91197923   -7.8316927    219.79434  0.020556897  0.020442468            2 
  892000   0.89615677   -7.8423134    219.60927  0.020516561  0.020427405            1 
  893000   0.90984281   -7.8275948    219.47569   0.02048112   0.02041238            4 
  894000   0.89092459   -7.8716168    219.85021  0.020493122  0.020397304            1 
  895000    0.8855681   -7.8608174    220.01631   0.02048569  0.020381952            2 
  896000   0.90224652     -7.83675    219.76897  0.020439822   0.02036675            2 
  897000   0.90097324   -7.8686631     219.8119  0.020421024  0.020351525            1 
  898000   0.90200815   -7.8435732    219.95144  0.020411232  0.020336286            2 
  899000   0.91448951   -7.8664687    219.56551  0.020352754   0.02032108            2 
  900000   0.90730444   -7.8947264     219.0358  0.020281093  0.020305585            3 
  901000   0.90060549   -7.8622232    219.88784  0.020337388   0.02029007            2 
  902000   0.88589454   -7.8523434    219.96029  0.020321535  0.020274679            2 
  903000    0.8910355   -7.8578698    220.34593  0.020334619  0.020259272            2 
  904000   0.91681502    -7.903946    219.74015  0.020256282  0.020243695            3 
  905000   0.89111803   -7.8928799    219.14199  0.020178821  0.020228122            1 
  906000   0.90094927   -7.8780968    220.25726   0.02025913  0.020212547            1 
  907000   0.89839205   -7.8793768    220.48147  0.020257393  0.020196983            3 
  908000   0.87765627   -7.8809876    220.31949  0.020220218  0.020181458            2 
  909000   0.89140058   -7.8740422    220.59451  0.020223186  0.020165952            3 
  910000    0.9140784   -7.8850935    220.54555  0.020196479  0.020150522            2 
  911000   0.87235128   -7.8750502    220.67556  0.020186202  0.020135001            1 
  912000   0.87843187   -7.8868396    220.74748  0.020170639  0.020119601            2 
  913000   0.88526151   -7.8719134    221.15695  0.020185921  0.020104083            4 
  914000   0.87859867   -7.8534759    221.50633  0.020195691  0.020088727            3 
  915000   0.90939294   -7.8891076    221.26133  0.020151305  0.020073444            2 
  916000   0.88447264   -7.8381012    221.94027  0.020191073  0.020058221            3 
  917000   0.87158219   -7.8550083    221.40111  0.020120058  0.020042929            2 
  918000   0.88867656   -7.8998003    221.22868  0.020082487  0.020027736            4 
  919000    0.8910785   -7.8947195    221.80242   0.02011266  0.020012474            2 
  920000   0.89441389   -7.8650985     221.5071  0.020064049  0.019997115            2 
  921000   0.86932812   -7.9436268    220.85673  0.019983418  0.019981595            2 
  922000   0.87576224   -7.8704255    221.33179  0.020004681  0.019965974            3 
  923000   0.87972498    -7.906863    221.39948  0.019989119  0.019950554            1 
  924000   0.89986863   -7.9192053    221.37832  0.019965577   0.01993511            2 
  925000   0.88896849   -7.9329921    221.72491  0.019975218  0.019919465            3 
  926000   0.87316133   -7.9223622    221.45055  0.019928955  0.019903929            1 
  927000   0.89587368   -7.8975912    221.91378  0.019949099  0.019888294            2 
  928000   0.90292232   -7.8991897    222.09594   0.01994396  0.019872827            1 
  929000   0.89113251   -7.9563739    221.24982  0.019846593  0.019857226            2 
  930000   0.89442889   -7.8810424    222.36998  0.019925625  0.019841589            1 
  931000   0.90369083   -7.8728307    222.18413  0.019887587  0.019826121            6 
  932000   0.87454086   -7.8815514    222.09679   0.01985844  0.019810734            1 
  933000   0.88494968   -7.8683673    222.42204  0.019866206  0.019795254            2 
  934000   0.86172766   -7.8943813    222.56502  0.019857692  0.019779931            4 
  935000   0.89005056   -7.8829173    222.57976  0.019837768  0.019764521            1 
  936000    0.8738497    -7.904851    222.46219  0.019806107  0.019749078            2 
  937000   0.87742781   -7.8716216    222.97168  0.019830281  0.019733576            3 
  938000   0.88389615   -7.9286284    222.45592  0.019763319  0.019718192            2 
  939000   0.88305554   -7.9131208    222.29686  0.019728156  0.019702863            1 
  940000   0.86979556   -7.9133905    222.41937  0.019718029  0.019687599            1 
  941000   0.88211929   -7.8731721    223.31388  0.019776291  0.019672373            1 
  942000   0.88373843   -7.9260348    223.06021  0.019732856  0.019657051            2 
  943000   0.88421434   -7.8762922    223.05559  0.019711523  0.019641632            3 
  944000   0.87502006   -7.8968969    223.33993  0.019715742  0.019626347            2 
  945000   0.86295116    -7.888139    223.87031   0.01974165  0.019611172            1 
  946000   0.86789508    -7.896243    224.00154  0.019732342  0.019596061            1 
  947000   0.86109494   -7.8862647    223.47916  0.019665536  0.019580798            1 
  948000   0.88439967   -7.9118179    223.54848  0.019650886  0.019565508            2 
  949000   0.87299695   -7.9104239    223.51485  0.019627226  0.019550172            2 
  950000   0.87574941   -7.8767667    224.07784  0.019655951  0.019534858            2 
  951000   0.86864037   -7.9199648    223.55946  0.019589858  0.019519671            2 
  952000    0.8679187    -7.915874    223.94375  0.019602919  0.019504417            4 
  953000   0.88698314    -7.952896    223.66565  0.019558032  0.019489199            3 
  954000   0.87810169   -7.9207208    224.08381  0.019574057  0.019473887            3 
  955000   0.87698639    -7.906291    224.00979  0.019547102  0.019458664            1 
  956000   0.86562492   -7.9075824    223.83894  0.019511763  0.019443384            1 
  957000   0.84755963    -7.908197    224.23924  0.019526231  0.019428047            1 
  958000    0.8724402   -7.9223478    224.01542  0.019486379  0.019412666            4 
  959000   0.86892513   -7.9166076    224.28425   0.01948942  0.019397344            2 
  960000   0.88040501    -7.913117    223.60027  0.019409746  0.019381937            1 
  961000    0.8646242   -7.8937884    223.92975  0.019418119  0.019366477            1 
  962000    0.8834977   -7.9486191    224.11358  0.019413858   0.01935105            4 
  963000   0.85761206   -7.9497372    223.63413  0.019352209  0.019335448            2 
  964000   0.85228902   -7.9040589    224.17239  0.019378665  0.019319984            2 
  965000    0.8746358   -7.8994416     224.4033  0.019378523  0.019304569            5 
  966000   0.86039811   -7.9274968    224.71683   0.01938551  0.019289297            3 
  967000   0.85645711   -7.9177731    225.22713  0.019409439  0.019273972            4 
  968000   0.86015451   -7.9302907    224.38655  0.019317024  0.019258643            3 
  969000   0.84178587   -7.9185172    224.95266  0.019345774  0.019243305            1 
  970000   0.85635933    -7.899246    225.07148  0.019336037  0.019228034            2 
  971000   0.86511203   -7.9200256    225.34382  0.019339497  0.019212857            1 
  972000   0.85855289   -7.9191329    225.79114  0.019357951  0.019197649            2 
  973000   0.87881495   -7.8933446    226.20319  0.019373347  0.019182699            2 
  974000   0.87354564   -7.9341776    225.48335  0.019291868  0.019167574            5 
  975000   0.85986987      -7.9389    225.14383  0.019243062  0.019152238            2 
  976000   0.85310639   -7.9398214    225.22755  0.019230495  0.019136955            3 
  977000   0.87033206   -7.9418829    225.58649  0.019241427  0.019121594            1 
  978000    0.8652447    -7.995874    225.14868  0.019184448  0.019106179            4 
  979000   0.85912571   -7.9579974    225.53031  0.019197337  0.019090886            3 
  980000   0.85286656   -7.9540217    225.85154  0.019205063  0.019075643            2 
  981000    0.8820983   -7.9961196    225.51854  0.019157199  0.019060465            3 
  982000    0.8478906   -7.9222936    226.07495  0.019184907  0.019045357            2 
  983000   0.86276635   -7.9519308     225.9876  0.019157986  0.019030174            4 
  984000   0.85746332   -7.9737282    225.56304  0.019102561  0.019014883            4 
  985000   0.87322432   -7.9696616    225.78422  0.019101879  0.018999652            2 
  986000   0.84830895   -7.9708368    226.24441  0.019121401  0.018984619            2 
  987000   0.84384671   -7.9258101    226.58185  0.019130518  0.018969579            1 
  988000   0.85517456   -7.9560763    226.47399  0.019102057  0.018954429            1 
  989000   0.84507517   -7.9431794    226.11664  0.019052632  0.018939442            1 
  990000   0.83854752   -7.9431053    226.92108  0.019101101  0.018924493            1 
  991000   0.87541495   -7.9639136    225.88101  0.018994367  0.018909436            2 
  992000   0.85158605   -7.9552403    226.15241  0.018998018  0.018894313            2 
  993000   0.86423199   -7.9721246    226.22679  0.018985128   0.01887925            2 
  994000    0.8632733   -8.0003338    226.61835  0.018998856   0.01886421            2 
  995000   0.86155292   -7.9733408    226.04567  0.018931798  0.018849067            2 
  996000   0.84846041   -7.9701082     226.4093  0.018943214  0.018833843            2 
  997000   0.85503185    -7.956151    226.68802  0.018947511  0.018818705            1 
  998000   0.86527326   -7.9303953    227.21595  0.018972608  0.018803578            2 
  999000   0.87804382   -7.9824027    226.27062   0.01887476  0.018788463            3 
 1000000   0.86276203   -7.9932378    226.89313  0.018907761  0.018773289            1 
 1001000   0.85981777   -7.9305681    226.68327  0.018871401  0.018758232            1 
 1002000   0.85272279   -7.9651364    227.59124   0.01892808  0.018743138            3 
 1003000   0.84811804   -7.9422473    227.46634  0.018898832   0.01872808            2 
 1004000   0.85507397   -7.9693964    227.34331  0.018869797   0.01871304            2 
 1005000   0.83333818   -7.9964268    226.95747  0.018819027  0.018698153            2 
 1006000   0.84025692    -7.951793    227.28341   0.01882732  0.018683215            1 
 1007000   0.85212802   -8.0112316    226.72736  0.018762609  0.018668107            2 
 1008000   0.84894642   -7.9804993    227.07194  0.018772482  0.018652897            1 
 1009000    0.8643662   -8.0058787    227.19358  0.018763923  0.018637758            2 
 1010000   0.85590306   -7.9988832    227.06045  0.018734361  0.018622711            2 
 1011000   0.84633306   -8.0044862    227.23505  0.018730222  0.018607568            4 
 1012000   0.84368664   -7.9891733    227.42102  0.018727027  0.018592505            2 
 1013000   0.86219497   -7.9947478    227.24935  0.018694419   0.01857746            2 
 1014000   0.84185232   -7.9791415    227.76262  0.018718164  0.018562529            2 
 1015000   0.85115268   -7.9489261    227.74478  0.018698257  0.018547728            1 
 1016000   0.84050891   -7.9522083    228.23556  0.018720108  0.018532872            2 
 1017000   0.85941662   -7.9972358    227.64648  0.018653432  0.018518026            2 
 1018000   0.84104851   -7.9579243      227.769  0.018645138  0.018503047            1 
 1019000   0.86211488   -7.9840237    227.97072  0.018643337  0.018488044            2 
 1020000   0.83938744   -7.9609538    228.17572  0.018641808  0.018473086            2 
 1021000   0.83686752   -7.9970893    228.14557  0.018621088  0.018458041            2 
 1022000   0.84743703   -8.0291421    228.11621  0.018600474  0.018443107            5 
 1023000   0.84325583   -8.0232996    227.95713  0.018569333  0.018428124            2 
 1024000   0.84331297     -8.01434    228.01818  0.018556167  0.018413188            1 
 1025000   0.85033869   -7.9960667    228.58202  0.018583904  0.018398278            2 
 1026000   0.84239547   -8.0098662    228.41239  0.018552014  0.018383359            1 
 1027000   0.85075127   -7.9730759    228.22648  0.018518864  0.018368431            1 
 1028000   0.83656557   -7.9928543    227.82438  0.018468254  0.018353546            2 
 1029000   0.84026566   -8.0021741    228.49269  0.018504429  0.018338731            3 
 1030000   0.84808421   -8.0066884    228.42593  0.018481062  0.018323944            2 
 1031000   0.84803306   -7.9731386    228.95193  0.018505652   0.01830913            2 
 1032000   0.84280873    -7.996683    229.05857  0.018496331  0.018294326            2 
 1033000    0.8276925   -8.0228995    228.52166  0.018435113  0.018279364            2 
 1034000   0.81773318   -8.0255893    228.35205  0.018403615  0.018264363            3 
 1035000   0.83421456   -7.9985121    228.39392  0.018389204  0.018249488            2 
 1036000   0.84366885   -8.0081409     228.8997  0.018412138  0.018234536            4 
 1037000    0.8528629   -8.0271377    228.41528  0.018355455  0.018219636            4 
 1038000   0.85245211   -8.0072907    229.38443  0.018415577  0.018204762            1 
 1039000   0.83378411   -8.0326335    228.77586  0.018349042  0.018189851            2 
 1040000   0.84588227   -7.9976767    228.94384  0.018344859  0.018175046            2 
 1041000   0.83660176     -7.99514    229.54251  0.018375161  0.018160213            3 
 1042000   0.84420477   -7.9822113    229.15343   0.01832641   0.01814549            5 
 1043000   0.84478127   -8.0087037    229.22252  0.018314359  0.018130606            1 
 1044000   0.83047791   -8.0129016    228.85239  0.018267272  0.018115675            1 
 1045000   0.83467069   -8.0231062    229.35312  0.018289723  0.018100854            3 
 1046000   0.82866178   -8.0223288     229.1887  0.018259138  0.018086084            2 
 1047000   0.85310537   -7.9989496    229.25219  0.018246752  0.018071272            4 
 1048000    0.8325433   -8.0171649    229.51909  0.018250564  0.018056553            1 
 1049000   0.83570025   -8.0118023    229.31469  0.018216928  0.018041879            2 
 1050000   0.83031035   -8.0095554    229.61845  0.018223687  0.018027208            4 
 1051000   0.82058899   -8.0038358    229.53029  0.018199357  0.018012598            2 
 1052000    0.8237188   -7.9999248    229.88986   0.01821054  0.017997985            6 
 1053000   0.83169978    -8.030781    230.13142  0.018212363  0.017983352            1 
 1054000   0.83242926   -8.0155914    230.13418  0.018195302  0.017968825            1 
 1055000   0.83914095   -8.0176622    230.10042  0.018175389  0.017954293            3 
 1056000   0.83956664   -7.9797621    229.89849  0.018142242  0.017939842            2 
 1057000   0.82828426   -8.0243409    230.55292  0.018176673  0.017925408            3 
 1058000   0.85072866   -7.9745369    230.85526  0.018183307  0.017911004            2 
 1059000   0.84920547   -8.0116509    230.51555  0.018139404  0.017896528            2 
 1060000   0.83265943   -8.0465251    229.89589  0.018073576  0.017881895            3 
 1061000   0.82488175    -8.030527    229.75208  0.018045246  0.017867161            2 
 1062000   0.82013843   -8.0006361    230.19119  0.018062711  0.017852502            1 
 1063000   0.82655915   -8.0418325    229.60183  0.017999516  0.017837839            1 
 1064000   0.82152707   -8.0271948    230.29564  0.018036939  0.017823121            4 
 1065000   0.83444325   -8.0286668    229.67323  0.017971301  0.017808428            1 
 1066000   0.80634925   -8.0085516      230.526  0.018021107  0.017793783            2 
 1067000   0.81806026   -8.0252682    230.34764  0.017990288  0.017779054            2 
 1068000   0.81287702   -8.0266445    230.11526   0.01795531   0.01776436            1 
 1069000   0.82418124   -8.0499612    230.05583  0.017933881  0.017749647            1 
 1070000   0.82728405   -8.0633894    230.38579  0.017942819  0.017734918            3 
 1071000   0.81644021    -8.077946     230.0416  0.017899284  0.017720132            5 
 1072000   0.81585378   -8.0430231    230.46247  0.017915304  0.017705442            4 
 1073000   0.83362937   -8.0853923       230.25  0.017882106  0.017690749            5 
 1074000   0.83544265   -8.0680644    230.56445  0.017889855  0.017676084            1 
 1075000   0.79787545   -8.0843253     229.8634  0.017818868  0.017661476            3 
 1076000   0.82520709   -8.0405547     230.6618  0.017864142  0.017646944            1 
 1077000    0.8317246    -8.033523    230.33448  0.017822229  0.017632415            2 
 1078000   0.81193519   -8.0594791    230.45439  0.017814965   0.01761775            2 
 1079000   0.83631386   -8.0410963     231.1199  0.017849853  0.017603168            2 
 1080000   0.83731295   -8.0274403    230.67234  0.017798792  0.017588643            3 
 1081000   0.83060849    -8.066673    230.79863  0.017792062   0.01757408            5 
 1082000   0.80451048   -8.0352968    230.53162  0.017755054  0.017559485            4 
 1083000   0.83954692   -8.0427578    230.43533   0.01773125  0.017544945            3 
 1084000   0.82513309   -8.0408037    231.05191  0.017762293  0.017530418            1 
 1085000   0.79408151   -8.0746721    230.86218   0.01773135  0.017515823            1 
 1086000   0.81988655   -8.0460933     230.8976  0.017717741  0.017501223            4 
 1087000   0.82765127   -8.0780898    230.48051  0.017669466  0.017486675            2 
 1088000   0.84367542   -8.0374598    231.89134  0.017761285  0.017472269            3 
 1089000   0.81105815   -8.0764962    231.19273  0.017691516  0.017457891            1 
 1090000   0.81469305   -8.0576917    231.17067  0.017673598   0.01744349            3 
 1091000   0.80008713   -8.0562165    232.14083  0.017731503  0.017429181            3 
 1092000   0.81603025   -8.0627003    231.63869  0.017676945  0.017414816            2 
 1093000   0.82472515   -8.0323767    231.17034  0.017625064  0.017400401            1 
 1094000   0.83115109   -8.0714321     231.1299  0.017605873  0.017385993            1 
 1095000   0.82336086   -8.0525851    231.40308  0.017610584  0.017371568            3 
 1096000   0.82805845   -8.0617824    231.52295  0.017603631  0.017357115            1 
 1097000   0.82128498   -8.0770764    231.04593  0.017551347  0.017342657            2 
 1098000   0.81555326   -8.0550514    231.04532  0.017535316  0.017328179            1 
 1099000   0.80940446   -8.0766074    231.33454  0.017541291  0.017313675            2 
 1100000   0.81863991    -8.101174    230.98953  0.017499206   0.01729912            2 
 1101000   0.81428035   -8.1208907    231.02822  0.017486241  0.017284529            2 
 1102000   0.82419354   -8.1108484    231.34967  0.017494681   0.01726996            1 
 1103000   0.81291151   -8.0689608     231.2954  0.017474721  0.017255385            4 
 1104000   0.80529678    -8.095889    231.17062  0.017449473  0.017240801            2 
 1105000   0.81587719   -8.0883687    231.14336  0.017431626  0.017226221            1 
 1106000   0.81637974   -8.1177508    231.22197  0.017421788  0.017211724            1 
 1107000   0.80501534     -8.06902    231.81082  0.017450378  0.017197336            1 
 1108000   0.81053511   -8.0820677    232.00262  0.017449054  0.017183001            3 
 1109000   0.82188241   -8.1375744    231.61243     0.017404  0.017168695            1 
 1110000   0.80437655   -8.0783235    231.41551  0.017373536   0.01715432            1 
 1111000    0.8301788   -8.0712905    232.17975  0.017415223  0.017140038            2 
 1112000   0.81502194   -8.0746943    232.16441  0.017398412  0.017125766            5 
 1113000   0.80562599   -8.1083434    232.18274  0.017384153  0.017111496            2 
 1114000   0.80511749   -8.0443758    232.60664  0.017400257   0.01709735            1 
 1115000   0.80888108     -8.07274     232.4772  0.017374978   0.01708317            1 
 1116000   0.79341553   -8.0794814    232.33006  0.017348422   0.01706902            2 
 1117000   0.79557376   -8.1126574    232.20319  0.017323425  0.017054829            1 
 1118000   0.81221097   -8.0660126    232.37524  0.017320754  0.017040657            4 
 1119000   0.81529403    -8.080907    232.17628  0.017290459  0.017026445            5 
 1120000   0.81321404   -8.0479764    232.25069  0.017280557  0.017012266            2 
 1121000   0.81399369   -8.0884369    232.50674  0.017284177  0.016998003            2 
 1122000   0.81140406   -8.0993338    232.02268  0.017232819  0.016983761            5 
 1123000   0.81627225   -8.0693413    232.83636  0.017277854  0.016969556            2 
 1124000   0.80180641   -8.0794923    232.98186  0.017273269  0.016955406            1 
 1125000   0.80674099   -8.0752537    232.26843  0.017205069  0.016941316            2 
 1126000   0.80133305   -8.0901397    232.46736  0.017204512  0.016927207            1 
 1127000   0.81087404    -8.091895    232.47059  0.017189485  0.016913024            2 
 1128000   0.82122502   -8.1212184    232.51782  0.017177735  0.016898832            1 
 1129000   0.78318088   -8.1024277    232.53236  0.017163593  0.016884651            2 
 1130000   0.78160657   -8.1204694    232.16078  0.017121001  0.016870363            2 
 1131000   0.79961997   -8.1227433    232.66936  0.017143336  0.016856069            3 
 1132000   0.79440085   -8.1151892     232.4764  0.017113987  0.016841807            4 
 1133000   0.80079034   -8.1300485    232.17441   0.01707667  0.016827562            2 
 1134000   0.77990458   -8.1314147    231.87237  0.017039416  0.016813317            3 
 1135000   0.79489438   -8.1289521    232.69974   0.01708515  0.016799057            2 
 1136000   0.79899477   -8.0949197    232.81673  0.017078692  0.016784808            4 
 1137000   0.81783881   -8.1339251    232.11715  0.017012397  0.016770555            2 
 1138000   0.81106335   -8.1095521    232.47713  0.017023809  0.016756251            3 
 1139000   0.80225631    -8.129651      232.998  0.017046971   0.01674203            2 
 1140000   0.79815007    -8.106225    232.81496  0.017018637  0.016727814            2 
 1141000    0.7990363   -8.1277889    233.03355  0.017019687  0.016713613            4 
 1142000   0.81870296   -8.1286556    232.23227  0.016946313  0.016699457            3 
 1143000   0.79929808   -8.1577566    232.13967  0.016924735  0.016685254            1 
 1144000   0.80181281   -8.1580165    232.49652  0.016935935  0.016670991            1 
 1145000   0.81659646   -8.1385964    232.98208  0.016956483  0.016656765            1 
 1146000   0.78535714    -8.104032    233.43848  0.016974875  0.016642723            3 
 1147000   0.80244203   -8.1326152    232.55313  0.016895752  0.016628686            2 
 1148000   0.78603758   -8.1130813    233.13648   0.01692338    0.0166147            2 
 1149000   0.79949751   -8.1130228    233.02403  0.016900495  0.016600693            1 
 1150000   0.81382423   -8.1221508    233.24133  0.016901546   0.01658671            2 
 1151000   0.79926025   -8.1347464     233.3124  0.016892007  0.016572759            4 
 1152000   0.81066681    -8.115743    233.10491  0.016862335  0.016558808            3 
 1153000   0.79585899   -8.1460093    233.35295  0.016865637  0.016544842            1 
 1154000   0.79049087     -8.15532    233.82677  0.016885237  0.016530989            1 
 1155000   0.80436445   -8.1315398    233.49255  0.016846504  0.016517141            2 
 1156000   0.80486989    -8.091618    233.90089  0.016861368  0.016503299            5 
 1157000     0.784662   -8.1709579    233.18287  0.016795079   0.01648937            5 
 1158000   0.78986352   -8.1775843    232.96814  0.016765123  0.016475426            2 
 1159000   0.77923226   -8.1336964     233.9348  0.016820161   0.01646151            2 
 1160000   0.78215607   -8.1639057     232.9897  0.016737766   0.01644767            2 
 1161000   0.79927176   -8.1664681    233.60186  0.016767288  0.016433828            3 
 1162000   0.77547406   -8.1174412    234.10867  0.016789204   0.01642001            2 
 1163000   0.80337221   -8.1517254     234.2147  0.016782366  0.016406188            2 
 1164000   0.79493861   -8.1711781    234.20676   0.01676738   0.01639239            2 
 1165000   0.79113212   -8.1445624    233.62008  0.016711022  0.016378476            1 
 1166000   0.79379509   -8.1593963    233.77239  0.016707575  0.016364609            5 
 1167000   0.77069725   -8.1794161    233.45344  0.016670483  0.016350723            3 
 1168000   0.79234029   -8.1440043    233.78899  0.016680151   0.01633684            3 
 1169000   0.80312559   -8.1704946    234.13463  0.016690521  0.016323054            1 
 1170000   0.78334245   -8.1472779    233.75404  0.016649148  0.016309195            2 
 1171000   0.78665985   -8.1701368    233.54506  0.016620058   0.01629537            2 
 1172000   0.79623358   -8.1740203    233.87429  0.016629287  0.016281598            2 
 1173000   0.78415813   -8.1511701    234.34217   0.01664835   0.01626788            3 
 1174000   0.79107655   -8.1530768    234.07532  0.016615227  0.016254182            3 
 1175000   0.78166826   -8.1657588     234.0574  0.016599816  0.016240462            1 
 1176000   0.77087948   -8.1863502    233.95019  0.016578103  0.016226723            2 
 1177000   0.78987131   -8.1534592    234.13777  0.016577299  0.016212991            3 
 1178000   0.78695934   -8.1820254     234.3568  0.016578721  0.016199276            1 
 1179000   0.78287638   -8.1649746    233.76388  0.016522751    0.0161855            1 
 1180000   0.79013497   -8.1826786    233.75387  0.016508041  0.016171655            1 
 1181000   0.78732093   -8.2047724    233.91346  0.016505324  0.016157821            2 
 1182000   0.76811312   -8.1575011     234.1736  0.016509701  0.016144022            1 
 1183000   0.78368577   -8.1786391    233.81663  0.016470599  0.016130322            3 
 1184000   0.76859326   -8.1679551    234.35013  0.016494238  0.016116576            2 
 1185000   0.78657753    -8.182278    234.29209  0.016476237  0.016102885            2 
 1186000   0.77805404   -8.1574831    234.93947  0.016507833  0.016089244            2 
 1187000   0.78036384   -8.1591655    234.60074  0.016470145  0.016075668            2 
 1188000   0.79371959   -8.1947892    234.35026  0.016438711  0.016062092            1 
 1189000   0.77159908   -8.1591999    235.12266   0.01647902  0.016048477            1 
 1190000   0.77380954   -8.1772875    234.97856  0.016455081  0.016034912            2 
 1191000   0.78776839   -8.1491394    234.52174  0.016409302  0.016021298            5 
 1192000   0.79070069   -8.1738121    234.25523  0.016376904  0.016007759            2 
 1193000   0.77674144   -8.1726539    234.36379  0.016370759  0.015994206            3 
 1194000   0.78155299   -8.1604193    235.10219  0.016408584   0.01598068            3 
 1195000   0.77308623   -8.1440384    235.10968  0.016395375  0.015967117            4 
 1196000   0.77618547   -8.1387244    235.61416  0.016416817  0.015953692            2 
 1197000   0.78011873   -8.1459186     234.7347  0.016341876  0.015940222            1 
 1198000   0.77633607    -8.193338    234.35156  0.016301583  0.015926712            2 
 1199000   0.77852116   -8.1683313    234.46423  0.016295818  0.015913169            2 
 1200000   0.77750141   -8.1794843    234.35634  0.016274746  0.015899591            2 
 1201000   0.78960497   -8.1880785     234.6609  0.016282327  0.015886079            2 
 1202000   0.76230092   -8.1848409    234.71706  0.016272674    0.0158725            3 
 1203000   0.77550774   -8.2003939    234.85377  0.016268618  0.015858969            2 
 1204000   0.76944026   -8.2077791    235.02332  0.016266841  0.015845445            3 
 1205000   0.77517534   -8.1885552    234.81685  0.016239063  0.015831939            2 
 1206000   0.75926216   -8.1847767    235.05058  0.016241748  0.015818417            1 
 1207000   0.76573247   -8.1897581    234.36075  0.016180665  0.015804959            3 
 1208000   0.79062265   -8.2022582    234.66786  0.016188456  0.015791536            3 
 1209000   0.77874537   -8.2004654    234.95033  0.016194536  0.015778107            3 
 1210000   0.76481667   -8.1906521    234.71253  0.016164774  0.015764644            2 
 1211000   0.76371111   -8.2097147     234.8046  0.016157762  0.015751177            1 
 1212000   0.76929225   -8.1975109    235.28567  0.016177507  0.015737687            1 
 1213000   0.77335764   -8.1954119    234.45368  0.016107013  0.015724233            2 
 1214000   0.77698556   -8.1694574    235.03229  0.016133463  0.015710774            1 
 1215000   0.79316316   -8.1876721    234.56445  0.016088097  0.015697411            3 
 1216000   0.76800616   -8.2012258    234.92557  0.016099614  0.015683997            3 
 1217000   0.75490171   -8.1890141    235.34042  0.016114792  0.015670623            3 
 1218000   0.75468595   -8.2300135     234.3778  0.016035701  0.015657184            6 
 1219000   0.77791038   -8.2219264    234.98467  0.016064032  0.015643766            2 
 1220000   0.76961069   -8.2187384    234.56591  0.016022262  0.015630382            2 
 1221000   0.76094564   -8.2065947    235.42305  0.016067639  0.015617017            6 
 1222000   0.77379551   -8.1898299    234.97663  0.016024048  0.015603681            1 
 1223000   0.77270888   -8.1892356    235.02939   0.01601454  0.015590322            2 
 1224000   0.76769813   -8.2183725    234.98865  0.015998683   0.01557696            3 
 1225000   0.76808152   -8.2306456    234.58423  0.015958111  0.015563582            2 
 1226000   0.76980618    -8.215661    234.72157   0.01595443  0.015550174            4 
 1227000   0.73709408   -8.2245248    234.60747  0.015933678  0.015536729            2 
 1228000   0.77781294   -8.2197214    235.12022  0.015955498  0.015523363            6 
 1229000   0.78942828    -8.241846     234.9221  0.015929082  0.015510041            4 
 1230000   0.75243081   -8.2475825    234.78433  0.015906797  0.015496714            1 
 1231000   0.75433885   -8.2526144    234.96867  0.015906355  0.015483365            2 
 1232000   0.76534005    -8.277094    234.89247  0.015888289  0.015470032            2 
 1233000   0.76317016   -8.2512047    234.75277  0.015865962  0.015456687            2 
 1234000   0.75471777   -8.2220644    235.12909  0.015878518  0.015443351            2 
 1235000   0.75895476   -8.2651771    234.70748  0.015837212  0.015430025            2 
 1236000   0.78095135   -8.2437215    234.95744  0.015841251  0.015416719            4 
 1237000   0.75358285   -8.2338858    235.42206  0.015859745   0.01540345            4 
 1238000   0.75684204   -8.2490556    234.89914  0.015811736  0.015390163            2 
 1239000    0.7775445   -8.2305642    235.14351  0.015815409  0.015376914            3 
 1240000   0.75722684   -8.2605161     234.8261  0.015781324  0.015363679            2 
 1241000    0.7592342   -8.2603259    235.18683   0.01579283  0.015350477            2 
 1242000   0.76659618   -8.2363769    235.93879  0.015830569  0.015337324            1 
 1243000   0.75749959   -8.2438399    235.35944  0.015778992  0.015324143            1 
 1244000   0.76396821   -8.2142046    235.26886   0.01576024     0.015311            4 
 1245000   0.76062375   -8.2719818     235.3567  0.015753461  0.015297842            3 
 1246000   0.75730136   -8.2442028    235.60654  0.015757527  0.015284705            2 
 1247000   0.75072831   -8.2374917    236.10075  0.015777917  0.015271641            2 
 1248000   0.74713885   -8.2269244    235.78726  0.015744341  0.015258567            2 
 1249000   0.74972492   -8.2436617    235.32373  0.015700809  0.015245439            3 
 1250000   0.74445373   -8.2572144    235.29036  0.015686024  0.015232314            4 
 1251000    0.7384931   -8.2260402    235.93038  0.015716119  0.015219254            1 
 1252000   0.75173302   -8.2742772    235.43154  0.015670363  0.015206211            2 
 1253000   0.73462344   -8.2553136    235.47557  0.015660785  0.015193114            1 
 1254000   0.75252092   -8.2517771    235.77995  0.015668524  0.015180073            2 
 1255000   0.74032022   -8.2465695    236.01205  0.015671451  0.015167015            1 
 1256000   0.75091085   -8.2531996    236.23141  0.015673528  0.015154035            1 
 1257000   0.76351779   -8.2649274     235.7355  0.015628182  0.015141075            1 
 1258000   0.75404331   -8.2450705    236.05577  0.015636975   0.01512811            2 
 1259000   0.74078034   -8.2452505    236.13954  0.015630099  0.015115178            2 
 1260000   0.74790937   -8.2540189    236.18716  0.015620844  0.015102329            1 
 1261000   0.75156632   -8.2390666    236.17164   0.01560743  0.015089466            2 
 1262000   0.73891394   -8.2430712    236.42568  0.015611838  0.015076564            2 
 1263000   0.74906148   -8.2754065    236.26218   0.01558869  0.015063647            1 
 1264000   0.75234091   -8.2771185    235.93969  0.015555096  0.015050825            3 
 1265000   0.75161795   -8.2668371    236.03939  0.015549367  0.015038009            2 
 1266000   0.74862826    -8.268911    236.18063  0.015546382  0.015025201            1 
 1267000   0.73790274   -8.2614957    236.71622  0.015569338  0.015012381            4 
 1268000   0.74627989   -8.2810777    235.74687  0.015493354  0.014999529            2 
 1269000    0.7589484   -8.2843589    236.09284  0.015503864  0.014986727            2 
 1270000   0.75907156   -8.2689286    236.29416  0.015504866  0.014973925            1 
 1271000   0.75139288   -8.2719802    237.16403    0.0155497  0.014961223            2 
 1272000   0.74927467   -8.3047087     236.1975  0.015474155  0.014948431            1 
 1273000   0.76296941   -8.2689656     237.0394  0.015517112  0.014935716            3 
 1274000   0.74152438   -8.2869969    236.71355  0.015483618  0.014923067            3 
 1275000   0.74595346   -8.2832003    236.73011  0.015472556  0.014910427            5 
 1276000   0.74636887   -8.2917662    236.55668  0.015449104  0.014897793            1 
 1277000   0.72679699   -8.2804427    236.62685  0.015441585  0.014885183            5 
 1278000   0.74993359   -8.2777696    235.86088  0.015379556  0.014872548            5 
 1279000   0.74439301   -8.2562341    236.92202  0.015436671  0.014859962            1 
 1280000   0.75323148    -8.279081     237.0229  0.015431178  0.014847418            3 
 1281000   0.75717715   -8.3000372    237.27977  0.015435843  0.014834844            1 
 1282000   0.75213293   -8.2927375    236.63633  0.015381977  0.014822273            1 
 1283000   0.73691961   -8.3188802    236.62675  0.015369365  0.014809713            1 
 1284000   0.76596725   -8.2936109     236.8514  0.015371975  0.014797158            2 
 1285000   0.73684451   -8.3158501     236.3653  0.015328489  0.014784652            3 
 1286000   0.72606458   -8.3053146    236.91228  0.015352014  0.014772147            1 
 1287000   0.73972859   -8.3067279    236.66263  0.015323921  0.014759608            1 
 1288000   0.73484041   -8.3355455    236.31981  0.015289843  0.014747103            2 
 1289000   0.74599448    -8.297094     236.7882  0.015308262  0.014734609            1 
 1290000   0.74176288   -8.3080514    236.74259  0.015293449  0.014722142            6 
 1291000   0.73807773   -8.2981928    236.69304  0.015278404  0.014709684            2 
 1292000    0.7500616   -8.2862196    236.93407  0.015282125  0.014697238            1 
 1293000     0.742194   -8.2869779    237.03287  0.015276673   0.01468486            1 
 1294000   0.73283336   -8.3070145    236.76222  0.015247438  0.014672408            4 
 1295000   0.73666678    -8.312937    236.76453  0.015235813  0.014659949            2 
 1296000   0.74173274   -8.2808407    237.35495  0.015262021  0.014647531            2 
 1297000   0.75197334   -8.3112135     236.4919  0.015194802    0.0146351            4 
 1298000   0.74070034   -8.3307175    237.04379  0.015218528  0.014622661            2 
 1299000   0.72666473   -8.3366117    237.28204  0.015222097  0.014610268            2 
 1300000   0.71376812   -8.3065472    237.12603  0.015200387  0.014597854            1 
 1301000   0.75045461   -8.2755132    237.13436  0.015189236  0.014585529            3 
 1302000   0.71960616   -8.3115522     237.6002  0.015207386  0.014573181            2 
 1303000   0.74245213   -8.2804111    237.52808  0.015191103  0.014560864            5 
 1304000   0.73616597   -8.3183318    237.42941  0.015173148  0.014548487            2 
 1305000   0.71496695   -8.3008128    237.85204  0.015188508  0.014536184            2 
 1306000     0.730661   -8.3182381    237.46903   0.01515244  0.014523887            3 
 1307000   0.73574399   -8.3129972    237.14084  0.015119921  0.014511554            2 
 1308000    0.7196179   -8.3183066     237.4133   0.01512572  0.014499251            5 
 1309000   0.71749527   -8.3073892    237.44416   0.01511613  0.014486965            3 
 1310000    0.7399116   -8.3119105    237.39116  0.015101219  0.014474698            2 
 1311000   0.70979739   -8.3414817    237.11925  0.015072416  0.014462425            3 
 1312000   0.73966844   -8.3103443    237.64772  0.015094495  0.014450127            2 
 1313000   0.73298572   -8.3088818    237.64379  0.015082748  0.014437902            2 
 1314000   0.71733857   -8.2705525    237.96211  0.015091458  0.014425757            2 
 1315000   0.73989172   -8.3301253    237.63729  0.015059397   0.01441365            2 
 1316000   0.73186926   -8.3222561     237.2201  0.015021537  0.014401483            2 
 1317000   0.73658123   -8.3270968    238.07766  0.015064392  0.014389295            4 
 1318000   0.74060767   -8.2789477    237.61572  0.015023755  0.014377164            1 
 1319000   0.72365205   -8.2989844    237.10262  0.014979948  0.014365006            3 
 1320000   0.71517819   -8.2983518    237.82541   0.01501423  0.014352876            3 
 1321000   0.73039732   -8.3215051    237.73052  0.014996879  0.014340736            2 
 1322000   0.72518535    -8.331726    237.75754  0.014987237  0.014328597            5 
 1323000   0.74974058   -8.3459417    237.30533  0.014947426  0.014316419            3 
 1324000   0.71070869   -8.3144816    237.39777  0.014941954  0.014304301            2 
 1325000   0.73054231   -8.3056926    237.30215  0.014924664  0.014292206            2 
 1326000   0.71043001   -8.3192031    237.80505  0.014945013  0.014280162            2 
 1327000   0.73243771   -8.3252624    237.41424  0.014909209  0.014268038            3 
 1328000   0.73272773    -8.336428    237.68389  0.014914903  0.014255942            1 
 1329000   0.71341653   -8.3622729    237.38383  0.014884865  0.014243797            2 
 1330000   0.71967388   -8.3217943    237.39948  0.014874654  0.014231643            5 
 1331000   0.71903006   -8.3350958    237.23687  0.014853298  0.014219523            8 
 1332000   0.72206738   -8.3141267    237.68136  0.014869955  0.014207422            3 
 1333000   0.72528738   -8.3400233    237.73424  0.014862106  0.014195353            2 
 1334000   0.72260716   -8.3266906    237.70163  0.014848928  0.014183317            1 
 1335000   0.71875698   -8.3191421    237.90513  0.014850508  0.014171259            1 
 1336000   0.71533668   -8.3058021    237.74915  0.014829663  0.014159235            1 
 1337000   0.73198798   -8.3262822    237.82762  0.014823462  0.014147193            1 
 1338000   0.72533618    -8.348331    237.17151  0.014771519  0.014135155            1 
 1339000    0.7269152   -8.3318056    237.42563  0.014776303  0.014123129            3 
 1340000   0.71752117   -8.3549211    237.18063  0.014750039  0.014111079            2 
 1341000   0.71550395   -8.3472052    237.26893  0.014744527  0.014098998            3 
 1342000   0.70785191   -8.3360009      237.015  0.014717772  0.014086914            2 
 1343000   0.71628691   -8.3768639    237.17188  0.014716548  0.014074851            3 
 1344000   0.71374429   -8.3370825    237.24378  0.014710056  0.014062791            2 
 1345000   0.70848864   -8.3578478    237.83383  0.014735677  0.014050761            3 
 1346000   0.70581487   -8.3548868    237.04795  0.014676074  0.014038752            1 
 1347000   0.73182101   -8.3474771    237.67016  0.014703672  0.014026751            2 
 1348000   0.70483463    -8.330743    237.94009  0.014709452  0.014014788            1 
 1349000   0.72346675   -8.3511932    237.43257  0.014667196  0.014002859            1 
 1350000   0.71302787   -8.3596335    237.61029  0.014667302  0.013990922            3 
 1351000   0.72736833   -8.3466244     237.3786  0.014642154  0.013978981            2 
 1352000   0.72582152    -8.370567     236.9519  0.014605023  0.013967033            2 
 1353000   0.71064669   -8.3475193    237.37206  0.014620107  0.013955065            1 
 1354000   0.70742385   -8.3642867    237.43855  0.014613402  0.013943053            2 
 1355000   0.71575496    -8.376217    237.37169  0.014598505  0.013931018            2 
 1356000   0.70758523   -8.3869054    237.30088  0.014583387  0.013919012            1 
 1357000   0.71908186   -8.3862885    237.38756  0.014577964  0.013906992            2 
 1358000   0.71139361   -8.3915946    237.20974  0.014556317  0.013895004            1 
 1359000   0.70221242   -8.3799104    237.27573  0.014549652  0.013883054            2 
 1360000   0.69609982   -8.3745796    237.36316  0.014544311  0.013871146            2 
 1361000   0.70407306   -8.3608183    237.77044  0.014558562  0.013859243            2 
 1362000   0.73274668   -8.3774245    237.51743  0.014532393  0.013847354            2 
 1363000   0.68804928   -8.3788161    237.41049  0.014515193  0.013835483            1 
 1364000     0.702007   -8.3654007    237.30203  0.014497924  0.013823615            5 
 1365000    0.7165332   -8.3772602    237.27207  0.014485474  0.013811726            4 
 1366000   0.71064187   -8.3933064    237.55304  0.014492011  0.013799857            3 
 1367000   0.71860693    -8.390922    237.39902  0.014472021  0.013788019            1 
 1368000   0.71243246   -8.3489634    237.61486  0.014474589  0.013776184            4 
 1369000     0.717459   -8.3668147    237.43402  0.014453008  0.013764383            2 
 1370000   0.69748283   -8.3629561    237.64333  0.014455191  0.013752574            2 
 1371000   0.70118044   -8.3852777    237.46255  0.014433658  0.013740745            1 
 1372000   0.70283795   -8.3617748    237.52507  0.014426936  0.013728946            4 
 1373000   0.70988787   -8.4038248    237.56268  0.014418711  0.013717124            4 
 1374000   0.72579665   -8.3879221    237.31781  0.014393365  0.013705313            2 
 1375000   0.70600221   -8.3955275    237.50165   0.01439404  0.013693493            1 
 1376000   0.71910968   -8.3937698    236.87587   0.01434568  0.013681642            2 
 1377000    0.7324186   -8.4020831    237.86415  0.014395071  0.013669829            2 
 1378000   0.70451181   -8.3901274    237.79133  0.014380221  0.013657997            3 
 1379000   0.69776212   -8.4105968    237.46765  0.014350232  0.013646189            1 
 1380000   0.70650455   -8.4123321    237.08063  0.014316463  0.013634385            2 
 1381000   0.69071316   -8.4116298    237.04152  0.014303737  0.013622569            5 
 1382000   0.69729432   -8.4163346    237.61679  0.014328074  0.013610773            2 
 1383000   0.69119034    -8.377162    237.84336  0.014331366  0.013599008            3 
 1384000   0.69639746   -8.3804327    237.76097  0.014316051  0.013587261            1 
 1385000   0.70835116   -8.4222602    236.88191  0.014252822  0.013575489            1 
 1386000   0.68617654   -8.3885541    236.75205  0.014234731  0.013563694            2 
 1387000   0.67606735    -8.432277    237.41485   0.01426429  0.013551894            3 
 1388000   0.70164752   -8.4156411    237.56552  0.014263059  0.013540142            1 
 1389000   0.70261091   -8.4373142    237.02602  0.014220423  0.013528383            1 
 1390000   0.70211938   -8.4081367    236.89999  0.014202637   0.01351664            1 
 1391000   0.70201797   -8.4288553    237.37666  0.014220984   0.01350493            1 
 1392000   0.71068685   -8.4254173    237.23645  0.014202374  0.013493229            1 
 1393000   0.68467573   -8.4193438     237.0667  0.014182023   0.01348154            3 
 1394000   0.69235718   -8.4132454    237.36275  0.014189548  0.013469864            1 
 1395000   0.70403322   -8.4252091    237.24078  0.014172089  0.013458177            2 
 1396000   0.69422665   -8.4201798    237.06043  0.014151172   0.01344648            2 
 1397000   0.68955854   -8.4159005    237.59339  0.014172834  0.013434811            1 
 1398000   0.68780421   -8.3924371    237.12511  0.014134782  0.013423149            1 
 1399000   0.69173815   -8.3892172    237.77502  0.014163392  0.013411522            2 
 1400000   0.69642669   -8.3948304    237.68067  0.014147659  0.013399901            2 
 1401000   0.69242074   -8.4120128    237.23115  0.014110822  0.013388256            2 
 1402000   0.69248732   -8.4302035    236.59853  0.014063155  0.013376614            3 
 1403000   0.69056117   -8.3991199    237.32501  0.014096282  0.013364991            2 
 1404000   0.69149098   -8.4204377    237.07598  0.014071461  0.013353378            1 
 1405000    0.7076694   -8.4122827    236.98505  0.014056053  0.013341787            3 
 1406000   0.68364311   -8.4303102      237.075  0.014051387   0.01333017            1 
 1407000   0.70922194   -8.4202545    237.44769  0.014063474  0.013318579            2 
 1408000   0.69698114   -8.4102808    237.58233  0.014061454   0.01330703            1 
 1409000   0.69333521   -8.4173774     236.9087  0.014011634  0.013295468            2 
 1410000   0.69230792   -8.4184321     237.2832  0.014023829  0.013283912            1 
 1411000   0.69819994   -8.4283252     237.1724  0.014007347  0.013272374       -1e+20 
 1412000   0.69710782   -8.4157231    237.43806  0.014013106  0.013260861            2 
 1413000   0.69116899   -8.4067081    237.60764  0.014013189  0.013249345            3 
 1414000   0.69891865    -8.413926    237.19041   0.01397869   0.01323784            5 
 1415000   0.70077513   -8.4342742    237.50831  0.013987533  0.013226363            5 
 1416000   0.69680139    -8.424589    236.82835  0.013937638  0.013214878            5 
 1417000   0.69624404   -8.4175502    237.14173  0.013946232  0.013203404            3 
 1418000   0.67743802    -8.421043    237.76525   0.01397304   0.01319192            4 
 1419000   0.66923162   -8.4457156    236.98268  0.013917235  0.013180442            1 
 1420000   0.68833846    -8.462792    237.16988   0.01391842  0.013168948            2 
 1421000   0.68365634   -8.4582896    237.08934  0.013903902  0.013157478            2 
 1422000   0.68661962   -8.4478862    237.55455  0.013921387  0.013146029            1 
 1423000   0.68768196   -8.4574363    237.33106  0.013898516  0.013134579            1 
 1424000   0.68875888   -8.4340379    237.41588   0.01389372  0.013123143            3 
 1425000   0.68841327   -8.4791907    236.99239  0.013859204  0.013111739            1 
 1426000   0.68051176   -8.4486643    237.64976  0.013887901  0.013100356            3 
 1427000   0.68270043    -8.448889    238.12018   0.01390564  0.013088991            3 
 1428000   0.70047597   -8.4217009    237.31719  0.013849042  0.013077644            4 
 1429000   0.69148494    -8.428947    237.58077  0.013854722  0.013066297            1 
 1430000   0.68543454   -8.4307357      237.533  0.013842249  0.013054943            1 
 1431000   0.68422381   -8.4750915     237.4358  0.013826916  0.013043566            1 
 1432000   0.68696478   -8.4370312    237.59413  0.013826474  0.013032207            3 
 1433000   0.68480841    -8.469711    237.20326  0.013794095  0.013020868            1 
 1434000   0.68409974   -8.4356096    237.67048  0.013811627  0.013009493            2 
 1435000   0.68170243   -8.4452922    237.30443  0.013780745   0.01299814            2 
 1436000   0.67240209   -8.4697614    237.16869  0.013763271  0.012986821            2 
 1437000   0.67891951   -8.4362031    237.28847   0.01376064   0.01297551            3 
 1438000   0.68288476   -8.4445352    236.86632  0.013726606  0.012964202            3 
 1439000   0.67942544   -8.4808859    237.36306  0.013745834  0.012952901            3 
 1440000   0.67812011   -8.4503856    237.34055  0.013734985    0.0129416            2 
 1441000   0.68645381   -8.4244813    237.99059  0.013763046  0.012930334            3 
 1442000    0.6893655    -8.447443    237.44621  0.013722042  0.012919078            2 
 1443000   0.67014695   -8.4351539    237.44667  0.013712559  0.012907847            2 
 1444000   0.67092359   -8.4184917    237.18053  0.013687704  0.012896633            1 
 1445000   0.66930921   -8.4453846    237.63978  0.013704716  0.012885412            2 
 1446000   0.68037096   -8.4505683     237.4002  0.013681432  0.012874214            1 
 1447000    0.6891386    -8.434237    237.36601  0.013670007  0.012863021            2 
 1448000   0.68158934   -8.4296054     237.3797  0.013661355  0.012851854            2 
 1449000   0.67876604   -8.4404909      237.695   0.01367006  0.012840658            2 
 1450000    0.6584879   -8.4431148     237.6513  0.013658121  0.012829468            3 
 1451000   0.66016035   -8.4571614    237.16245  0.013620632  0.012818289            2 
 1452000   0.68708441   -8.4626243    237.08658  0.013606898  0.012807076            2 
 1453000   0.66399571   -8.4645996    237.64639  0.013629639  0.012795902            2 
 1454000   0.67665474    -8.448658    237.55677  0.013615129  0.012784719            1 
 1455000   0.66902248   -8.4461458    237.47319  0.013600984  0.012773574            1 
 1456000   0.68467727   -8.4698121    237.00082  0.013564607  0.012762418            1 
 1457000   0.68595098    -8.467751      237.438  0.013580302  0.012751261            2 
 1458000   0.67085098   -8.4861668    237.21353  0.013558158   0.01274011            1 
 1459000   0.66725611   -8.4804675    237.46081  0.013562989  0.012728937            3 
 1460000   0.67006717   -8.4789892    236.97064  0.013525721  0.012717778            1 
 1461000   0.67619622   -8.4685168    236.63472  0.013497303  0.012706628            2 
 1462000   0.66845478   -8.4569186    236.87561  0.013501802  0.012695487            1 
 1463000   0.67848781   -8.4680665    236.50048  0.013471205  0.012684341            1 
 1464000   0.67458344   -8.4599423    237.32483  0.013508927  0.012673244            2 
 1465000   0.65743812   -8.4708229     237.6022  0.013515484  0.012662154            2 
 1466000   0.66476708    -8.469818    237.41613  0.013495687  0.012651066            4 
 1467000   0.67939149   -8.4567626    237.20799  0.013474664  0.012639998            2 
 1468000     0.674793   -8.4738061    237.69083  0.013492895   0.01262895            2 
 1469000   0.67463567   -8.4620711    237.07177  0.013448592  0.012617932            2 
 1470000   0.68086889   -8.4770349    236.87962   0.01342855  0.012606891            3 
 1471000   0.67291903    -8.470643    237.06474  0.013429908  0.012595843            1 
 1472000   0.66962548   -8.4777651    237.21905   0.01342952  0.012584828            1 
 1473000   0.64418493   -8.4699018    237.33473  0.013426948  0.012573817            1 
 1474000   0.67603544   -8.4605171    237.23375   0.01341213  0.012562829            2 
 1475000   0.66306287   -8.4805447    237.15159  0.013398395  0.012551825            2 
 1476000   0.67185287    -8.491511    236.73274   0.01336567  0.012540833            1 
 1477000   0.68591023   -8.4854459    237.55043  0.013402755   0.01252987            1 
 1478000   0.65797975   -8.4618001    237.30223  0.013379693  0.012518867            5 
 1479000   0.66576253    -8.479812    236.89402  0.013347646  0.012507879            4 
 1480000   0.67134355   -8.4720953    237.39738   0.01336697  0.012496909            4 
 1481000    0.6546043   -8.4918821     236.9693  0.013333857  0.012485965            1 
 1482000   0.64799103   -8.4771208    237.06114  0.013330024  0.012475015            3 
 1483000   0.66768667   -8.4693673    237.08726  0.013322503  0.012464104            1 
 1484000   0.66311537   -8.4823546    237.09078  0.013313723  0.012453204            2 
 1485000   0.65955313    -8.501211    236.86215  0.013291928    0.0124423            4 
 1486000   0.66818683   -8.5034306    237.04661  0.013293327  0.012431409            2 
 1487000   0.67300989   -8.4752635    236.94586  0.013278742  0.012420534            2 
 1488000   0.67039841   -8.4869095    237.00524  0.013273143  0.012409671            2 
 1489000   0.64701803   -8.5054815    236.83825  0.013254883  0.012398788            2 
 1490000   0.66936761   -8.4836483    236.65301  0.013235627  0.012387941            2 
 1491000   0.66472479   -8.4938725    237.16616   0.01325543  0.012377115            2 
 1492000   0.65898306   -8.4961218    237.05895  0.013240558  0.012366277            2 
 1493000    0.6650197   -8.5012462    236.91977  0.013223921   0.01235542            1 
 1494000   0.65915741    -8.497885    237.35434   0.01323931  0.012344619            1 
 1495000   0.64785845   -8.4979344    236.82257  0.013200812  0.012333791            1 
 1496000   0.65209436   -8.5109116    237.06868  0.013205698  0.012322975            1 
 1497000   0.67332483   -8.4882624    237.16024  0.013201973  0.012312156            2 
 1498000   0.66903932   -8.4860209    237.34534  0.013203457  0.012301339            3 
 1499000   0.65406089   -8.4940477    236.99122  0.013174962  0.012290553            2 
 1500000   0.65041067   -8.5038913    236.88049  0.013160027  0.012279745            2 
 1501000   0.64914353   -8.5215971    236.99583  0.013157663  0.012268981            2 
 1502000   0.66502949   -8.5033507    237.11424  0.013155473  0.012258231            1 
 1503000   0.63659424   -8.5305994    236.96326  0.013138349  0.012247487            2 
 1504000   0.65674173   -8.5249958    237.00563  0.013131961  0.012236754            2 
 1505000   0.64980726   -8.5027158    236.85586  0.013114943  0.012226019            2 
 1506000   0.65073939   -8.5153743    237.21454  0.013126081  0.012215269            1 
 1507000   0.64725175   -8.5057666    237.09481   0.01311075  0.012204551            4 
 1508000   0.65001112   -8.5246984    236.86712  0.013089474  0.012193839            3 
 1509000   0.64674162   -8.4945571    237.20998  0.013099734  0.012183144            2 
 1510000   0.65211039   -8.5004977    236.96241  0.013077396  0.012172452            3 
 1511000   0.65828046   -8.5426182    236.47775  0.013042012  0.012161754            3 
 1512000   0.64487811   -8.5264968    237.11722   0.01306863  0.012151057            1 
 1513000   0.64579009   -8.5376939    237.02222   0.01305476  0.012140371            1 
 1514000   0.66232559   -8.5215569    236.81044  0.013034481  0.012129698            2 
 1515000   0.65399254   -8.5244813    236.96651  0.013034461  0.012119039            2 
 1516000    0.6431361   -8.5244693    236.95794  0.013025392  0.012108396            3 
 1517000   0.63483527   -8.5398241    236.51178  0.012992297  0.012097765            2 
 1518000   0.63291479   -8.5673842    236.34827  0.012974762  0.012087117            5 
 1519000   0.63820832   -8.5739906    236.85329  0.012993926  0.012076457            2 
 1520000    0.6407552   -8.5270719      236.891  0.012987445  0.012065815            5 
 1521000   0.63957363   -8.5296396    236.67184  0.012966899  0.012055185            3 
 1522000   0.63605248   -8.5517279    236.46335  0.012946964  0.012044575            3 
 1523000   0.65193109   -8.5348866    236.61246  0.012946622  0.012033975            4 
 1524000   0.65324698   -8.5689982    236.56518  0.012935541  0.012023382            1 
 1525000   0.64529787   -8.5460588    236.97871  0.012949656  0.012012804            3 
 1526000   0.64620399   -8.5503577    236.33658  0.012906104  0.012002227            2 
 1527000   0.64587532   -8.5229372    236.71101  0.012918086   0.01199167            2 
 1528000   0.63953012   -8.5162114    236.52089  0.012899263  0.011981118            4 
 1529000   0.63308212   -8.5289078    236.49665  0.012889506  0.011970585            2 
 1530000   0.63925261   -8.5355231    236.72072  0.012893285  0.011960058            2 
 1531000   0.63717905   -8.5536007     237.0006  0.012900098  0.011949529            2 
 1532000   0.63160351   -8.5301977     236.6714  0.012873771  0.011939015            2 
 1533000    0.6467749    -8.547912     236.7963  0.012872162  0.011928509            1 
 1534000   0.64545375    -8.561111    236.39611  0.012842031  0.011917999            2 
 1535000   0.65295268   -8.5744817    236.33706  0.012830459  0.011907487            2 
 1536000   0.64354217   -8.5854949    236.38772  0.012824855  0.011896988            1 
 1537000   0.65847107   -8.5684317     236.5025  0.012822734   0.01188649            2 
 1538000   0.65048263   -8.5223848    236.62432  0.012820997   0.01187602            3 
 1539000   0.64727817   -8.5305292    237.34746  0.012851823  0.011865559            1 
 1540000   0.64291211   -8.5445719    236.37299  0.012790746  0.011855099            3 
 1541000   0.64899026   -8.5574358    236.56449  0.012792802  0.011844639            2 
 1542000   0.64952992   -8.5844281    236.47889  0.012779879  0.011834205            1 
 1543000   0.64962408   -8.5420635    235.92948  0.012741925  0.011823754            3 
 1544000   0.64020813   -8.5522432    236.22013  0.012749359   0.01181333            3 
 1545000    0.6377473   -8.5748889     236.6364   0.01276356    0.0118029            3 
 1546000   0.64451122   -8.5431219    236.69129  0.012758263  0.011792473            3 
 1547000   0.64268075    -8.542282    236.63395  0.012746927  0.011782043            3 
 1548000   0.62853557   -8.5630694    236.20131  0.012715402   0.01177161            3 
 1549000   0.63197477   -8.5520302    236.38811  0.012717243  0.011761205            3 
 1550000   0.64386843   -8.5503561    236.53581  0.012716979  0.011750793            1 
 1551000     0.620942   -8.5701241     236.0028  0.012680142  0.011740387            5 
 1552000   0.62371609   -8.5732036    236.14326  0.012679514  0.011729986            1 
 1553000   0.63839977   -8.5681071    235.86454  0.012656393  0.011719595            6 
 1554000   0.63253437   -8.5852532    236.04009  0.012657662  0.011709219            3 
 1555000   0.62399222   -8.5738795    236.04095  0.012649569  0.011698856            2 
 1556000   0.64670496   -8.5636339    236.45033  0.012663364  0.011688493            1 
 1557000    0.6284716   -8.5800141    236.13233  0.012638211  0.011678151            2 
 1558000   0.63827521   -8.5529687    236.56044  0.012652998  0.011667806            7 
 1559000   0.62609374   -8.5876254    235.81075  0.012604808  0.011657489            3 
 1560000   0.62538717   -8.5956392    236.26404  0.012620942  0.011647176            3 
 1561000    0.6319277   -8.5719196    236.37325  0.012618687  0.011636866            2 
 1562000   0.62889408   -8.5784708    236.29276  0.012606315  0.011626562            3 
 1563000   0.62241005     -8.57742     236.3999  0.012603961  0.011616294            6 
 1564000    0.6282427   -8.5994535    236.01821  0.012575565  0.011606036            2 
 1565000   0.62079709   -8.5871471    236.24494  0.012579603  0.011595781            1 
 1566000   0.63044083   -8.5920256    235.81653  0.012548772   0.01158553            1 
 1567000   0.62583085   -8.5779955    236.33349  0.012568256  0.011575277            3 
 1568000   0.62742689   -8.5987731    235.99597  0.012542303  0.011565024            2 
 1569000   0.63811207   -8.6014209    235.65283  0.012516084  0.011554773            6 
 1570000   0.64192419   -8.6193938    235.97095  0.012524997  0.011544526            6 
 1571000    0.6211034    -8.609782    235.88157  0.012512283   0.01153428            1 
 1572000    0.6323876   -8.5926395    236.45814  0.012534888  0.011524058            1 
 1573000   0.62220454   -8.5993644     236.1421  0.012510177  0.011513839            2 
 1574000   0.62154654   -8.5893956    236.02114  0.012495825  0.011503654            4 
 1575000    0.6199006   -8.5946046    236.20867  0.012497813  0.011493463            2 
 1576000   0.62831814   -8.5804368    236.20073  0.012489463  0.011483268            4 
 1577000   0.61714721   -8.5839624    235.78654  0.012459657  0.011473089            3 
 1578000   0.60493846   -8.6353646    235.85968  0.012455623  0.011462904            2 
 1579000   0.61817533   -8.6047826    235.59357  0.012433691  0.011452727            2 
 1580000   0.61106579   -8.6047003    235.82679  0.012438122  0.011442542            4 
 1581000      0.63068   -8.6088245     235.7933  0.012428489  0.011432385            3 
 1582000    0.6327921   -8.5994315    235.46506  0.012403343  0.011422228            2 
 1583000   0.62425274   -8.5829412     235.8247   0.01241444  0.011412074            2 
 1584000   0.61815153    -8.614188     235.7394  0.012402115  0.011401938            3 
 1585000   0.61314309   -8.6108703    236.20379  0.012418706  0.011391828            1 
 1586000     0.620644   -8.6044172    235.81208  0.012390294  0.011381709            2 
 1587000   0.62135064   -8.5937344    235.57585  0.012370083  0.011371644            3 
 1588000   0.62096218   -8.6116648    235.76368   0.01237215   0.01136155            2 
 1589000   0.62396681   -8.6055752    235.43833  0.012347301   0.01135146            2 
 1590000   0.61226282   -8.6202323    235.75521  0.012356143  0.011341378            5 
 1591000   0.60742086   -8.6183418    235.82426  0.012351994  0.011331298            3 
 1592000   0.62142012   -8.6188824    235.65917  0.012335593  0.011321231            1 
 1593000   0.62054343   -8.6272187    235.96519  0.012343858  0.011311173            1 
 1594000   0.62219683   -8.6261263    235.81673  0.012328353  0.011301131            1 
 1595000   0.61413347   -8.6277539    235.78966  0.012319209  0.011291101            2 
 1596000   0.61423446   -8.6061455    236.13105  0.012329315  0.011281087            1 
 1597000   0.61693768   -8.6255356     235.7637  0.012302426   0.01127108            1 
 1598000   0.62358616   -8.6268738    235.68467  0.012290607  0.011261085            1 
 1599000   0.62325318    -8.619067    235.40283  0.012268232  0.011251088            3 
 1600000   0.60904851   -8.6242702    235.58336  0.012269967  0.011241098            1 
 1601000   0.59764362   -8.6148168     235.6972  0.012268228   0.01123113            3 
 1602000   0.61503562   -8.6268392    236.28898  0.012291353  0.011221173            3 
 1603000   0.62184165   -8.6228017    235.71222  0.012253702  0.011211217            2 
 1604000   0.61193169   -8.6035928    235.93971  0.012257882  0.011201278            2 
 1605000   0.60362293   -8.6118713    235.76285  0.012241062  0.011191349            2 
 1606000   0.61131957   -8.6111028    235.88574  0.012239817  0.011181429            2 
 1607000   0.62842597   -8.6180277    235.60609  0.012217698  0.011171523            2 
 1608000   0.60847989   -8.6261377     235.6612  0.012212956  0.011161613            1 
 1609000   0.60815574   -8.6421919    235.85589  0.012215449   0.01115173            1 
 1610000   0.60803887   -8.6149884    235.90181  0.012210238  0.011141864            2 
 1611000   0.61573709   -8.6046521    235.72409  0.012193466  0.011132003            2 
 1612000   0.61913743   -8.6236831    235.56833   0.01217785  0.011122144            3 
 1613000   0.60850075   -8.6380193    235.86564  0.012185661  0.011112289            3 
 1614000   0.60152201   -8.6175364    235.94471  0.012182193  0.011102449            1 
 1615000   0.61140684   -8.6129355    235.73902  0.012164036   0.01109263            2 
 1616000   0.61346874   -8.6290213    235.77219   0.01215822  0.011082807            2 
 1617000   0.60300015   -8.6278939    235.60762  0.012142219  0.011073013            3 
 1618000   0.60721951   -8.6194192    235.64854  0.012136822  0.011063223            2 
 1619000   0.61109392    -8.644181    235.55908  0.012124721  0.011053426            3 
 1620000   0.60585143   -8.6373858    235.27845  0.012102801  0.011043651            1 
 1621000   0.60606181   -8.6190748    235.24536  0.012093634  0.011033897            2 
 1622000   0.59687293   -8.6422514    235.62735  0.012105803  0.011024137            1 
 1623000   0.60937563   -8.6509632    235.99459    0.0121172  0.011014378            2 
 1624000   0.60397571   -8.6311083      235.694  0.012094315  0.011004628            3 
 1625000   0.61422176   -8.6452365    235.80267  0.012092444   0.01099491            2 
 1626000   0.60896566    -8.647426    235.22534  0.012055419  0.010985179            2 
 1627000   0.58839128   -8.6335921    235.81331  0.012078125  0.010975449            1 
 1628000   0.60522027   -8.6287136    236.02506  0.012081545  0.010965738            5 
 1629000   0.62301185   -8.6506496    235.70064  0.012057532  0.010956038            4 
 1630000    0.5994885   -8.6535986    235.79845  0.012055136   0.01094634            1 
 1631000   0.59487034   -8.6351303    235.55571  0.012035342  0.010936662            5 
 1632000   0.60122335   -8.6411876    235.51595  0.012025937  0.010927006            2 
 1633000   0.60133875   -8.6228286    235.69122  0.012027517  0.010917362            3 
 1634000   0.59273755   -8.6554551    235.42756  0.012006709  0.010907716            1 
 1635000   0.59339128   -8.6248119    235.52592  0.012004379  0.010898075            3 
 1636000   0.60331018    -8.649983    235.56174  0.011998866  0.010888453            5 
 1637000   0.59133119   -8.6520118    235.22958  0.011974627   0.01087884            2 
 1638000   0.60341535   -8.6631437    235.78078  0.011995359  0.010869246            4 
 1639000   0.59409419   -8.6330599    235.42875  0.011970142  0.010859665            5 
 1640000   0.60095049   -8.6426433    235.68851  0.011976042  0.010850077            3 
 1641000   0.60396005   -8.6592521    235.51114  0.011959737  0.010840502            6 
 1642000    0.5832857   -8.6435205    235.31221  0.011942358  0.010830933            2 
 1643000   0.61099541   -8.6507402    235.40724  0.011939909  0.010821382            3 
 1644000   0.59494454   -8.6466997    235.49976  0.011937336  0.010811833            3 
 1645000   0.58838527   -8.6419098    235.11807  0.011910743  0.010802293            2 
 1646000    0.5879203   -8.6482453    235.49455  0.011922567  0.010792763            2 
 1647000   0.58594242   -8.6461519    235.11234   0.01189599  0.010783226            4 
 1648000   0.58470324   -8.6323744    235.64127  0.011915517  0.010773726            4 
 1649000   0.58987523   -8.6449424    235.70092  0.011911306  0.010764236            4 
 1650000    0.5962909   -8.6391705    235.41077  0.011889433  0.010754742            6 
 1651000   0.59263555   -8.6618457    235.35088  0.011879209  0.010745248            5 
 1652000   0.59471874   -8.6665234    235.60567   0.01188487  0.010735776            3 
 1653000   0.59257082    -8.641961    235.38538  0.011866575  0.010726308            3 
 1654000   0.60827499   -8.6610121    235.07218   0.01184362  0.010716853            4 
 1655000   0.58375035   -8.6581415    234.91999  0.011828801  0.010707402            3 
 1656000   0.59120534   -8.6785022     235.3781  0.011844711   0.01069795            3 
 1657000   0.59159592   -8.6607487    235.12558  0.011824863  0.010688506            2 
 1658000   0.58261402   -8.6746004    235.10562  0.011816728  0.010679067            3 
 1659000   0.59089556   -8.6643762    235.23885  0.011816298  0.010669648            6 
 1660000   0.58409392   -8.6550173    235.54602    0.0118246  0.010660224            2 
 1661000   0.57447667   -8.6673206    235.52567  0.011816459  0.010650815            2 
 1662000     0.596545     -8.65851    235.32807  0.011799442  0.010641436            4 
 1663000    0.5855534   -8.6564766    235.32116     0.011792  0.010632062            3 
 1664000   0.59094691   -8.6635555    235.23704  0.011780701  0.010622689            6 
 1665000   0.57859625   -8.6482483    234.80191  0.011751847   0.01061332            2 
 1666000   0.58228243   -8.6537851    235.87026  0.011798232  0.010603977            3 
 1667000   0.57095754    -8.658275    235.04267  0.011749783  0.010594632            6 
 1668000   0.59132602   -8.6617596    235.00682  0.011740948  0.010585284            2 
 1669000   0.58933216   -8.6446167    235.49669  0.011758373  0.010575959            2 
 1670000   0.57687639   -8.6677498    234.89022  0.011721069   0.01056663            2 
 1671000   0.58451409   -8.6724904    235.14126  0.011726574   0.01055731            3 
 1672000   0.57637805   -8.6931861    235.02819  0.011713925  0.010547999            3 
 1673000   0.57459798   -8.6589543    235.53859  0.011732346  0.010538706            2 
 1674000    0.5862744   -8.6686394     235.3334  0.011715124  0.010529418            3 
 1675000   0.58316114    -8.694494      234.986  0.011690846  0.010520139            3 
 1676000   0.58727519   -8.6837467    235.13671  0.011691364  0.010510879            1 
 1677000   0.58672505     -8.67909    235.20206   0.01168764  0.010501617            3 
 1678000   0.59055716   -8.6496725    235.44989  0.011692982  0.010492385            2 
 1679000   0.58178006   -8.6700955    235.16922  0.011672087  0.010483136            4 
 1680000   0.57044148   -8.6868161    234.92834  0.011653191  0.010473903            4 
 1681000   0.57984703   -8.6796723    235.12355  0.011655936  0.010464672            3 
 1682000   0.59638584   -8.6730911    234.65885  0.011625984  0.010455458            3 
 1683000   0.57785792   -8.6794578    235.35765  0.011653676  0.010446252            3 
 1684000   0.58307772   -8.6770894     235.3757  0.011647649  0.010437048            2 
 1685000   0.57683141   -8.6954117    235.11302  0.011627746  0.010427847            2 
 1686000   0.58154164   -8.6972762    234.70908  0.011600884  0.010418657            2 
 1687000   0.59286255   -8.6800983    234.74956  0.011596007  0.010409486            3 
 1688000   0.57008956   -8.6857301    235.26883  0.011614773  0.010400321            2 
 1689000   0.58073835    -8.690394    235.27956  0.011608425  0.010391162            2 
 1690000   0.56670076    -8.688471    235.16805  0.011596058  0.010382015            2 
 1691000   0.57682585   -8.6933245    234.99305  0.011580576  0.010372878            4 
 1692000    0.5867367   -8.6805097    234.67828  0.011558229   0.01036375            2 
 1693000   0.57054204   -8.6714111     235.2511  0.011579597   0.01035464            5 
 1694000   0.57723096   -8.6950516    234.99471  0.011560149  0.010345549            2 
 1695000   0.58144952   -8.6785974    234.55786  0.011531851  0.010336462            3 
 1696000   0.55727737   -8.6732385    234.73064  0.011533542  0.010327374            3 
 1697000   0.57103388   -8.6950722    234.89508   0.01153482  0.010318295            2 
 1698000   0.57598248   -8.6962266    234.69977  0.011518442  0.010309224            5 
 1699000    0.5736152    -8.691982    234.89354  0.011521166  0.010300155            2 
 1700000   0.57740286    -8.708764    234.93963  0.011516648  0.010291093            2 
 1701000   0.56557841   -8.6965946    234.57972  0.011492246  0.010282041            5 
 1702000   0.57590958   -8.6866516      234.919  0.011502105  0.010273006            4 
 1703000   0.58211587   -8.6945125    234.80576   0.01148981  0.010263967            2 
 1704000   0.57039449   -8.6917143    235.15816  0.011500301  0.010254947            2 
 1705000   0.56999123   -8.6943001    235.03316  0.011487447  0.010245925            4 
 1706000   0.57328245    -8.700988    234.57749  0.011458455  0.010236921            2 
 1707000   0.58532731   -8.6943425    234.82273  0.011463714  0.010227924            2 
 1708000   0.56766217   -8.7065438    234.41682  0.011437198  0.010218936            4 
 1709000   0.56660601   -8.6875373    234.80949  0.011449653  0.010209953            5 
 1710000   0.57400201    -8.692197    234.91755  0.011448224  0.010200991            2 
 1711000   0.56003168   -8.6963925    234.94669  0.011442952  0.010192024            2 
 1712000   0.55916757   -8.7037401     235.2659  0.011451806  0.010183072            3 
 1713000   0.56881775   -8.7037794    234.59563  0.011412514  0.010174118            2 
 1714000   0.56621973   -8.7072105    234.46747  0.011399624  0.010165195            2 
 1715000   0.57277912   -8.6844352    234.64604  0.011401654  0.010156273            3 
 1716000   0.56316663   -8.6955921    234.85023  0.011404926   0.01014736            4 
 1717000   0.58096275   -8.7093476    234.82124  0.011396876  0.010138452            3 
 1718000   0.58380558   -8.7159665    235.12538  0.011404995  0.010129553            4 
 1719000   0.57023465   -8.7012272    235.17524  0.011400778  0.010120664            5 
 1720000   0.55433237   -8.7171109    234.86807  0.011379267  0.010111769            2 
 1721000    0.5633637   -8.7269783    234.60678  0.011360003  0.010102897            2 
 1722000    0.5719296   -8.7177068    234.49093  0.011347799  0.010094032            4 
 1723000   0.55552832   -8.7089097    234.51339    0.0113423   0.01008519            2 
 1724000   0.56290152   -8.7068362    234.47681  0.011333952  0.010076341            2 
 1725000   0.55889856   -8.7224514    234.37638   0.01132253    0.0100675            3 
 1726000   0.56721268   -8.7042651    234.46267  0.011320137   0.01005867            1 
 1727000   0.57870282    -8.708733    234.31146  0.011306285  0.010049854            3 
 1728000    0.5618899   -8.7008206    234.37918  0.011303009  0.010041041            2 
 1729000   0.55568942   -8.7046664    234.82573  0.011317994  0.010032252            2 
 1730000   0.56340704   -8.7029563    234.62666  0.011301862  0.010023453            1 
 1731000   0.56178762   -8.7108855    234.62463  0.011295235  0.010014673            3 
 1732000   0.56067127   -8.7150526    234.36265  0.011276109  0.010005902            2 
 1733000   0.54250885   -8.7076097    234.44821  0.011273717  0.009997136            2 
 1734000   0.53435237   -8.7041706    234.65345  0.011277079 0.0099883816            3 
 1735000   0.56819983    -8.727949     234.7301   0.01127426 0.0099796346            3 
 1736000   0.57183015   -8.7075069    234.50074  0.011256756 0.0099708962            2 
 1737000   0.55407341   -8.6919692    234.81836  0.011265513 0.0099621599            2 
 1738000   0.56040477   -8.6886855    234.94373  0.011265043 0.0099534468            1 
 1739000   0.55843845   -8.7111298    234.39487  0.011232263 0.0099447368            3 
 1740000   0.56760673   -8.7370812    234.62322  0.011236744 0.0099360368            1 
 1741000   0.56174518    -8.720967    234.27255  0.011213505 0.0099273535            1 
 1742000   0.54928218   -8.7307428    234.59205  0.011222352 0.0099186689            4 
 1743000   0.55907127   -8.7103254    234.47019  0.011210088 0.0099099931            1 
 1744000   0.56690407   -8.7201587    234.85914  0.011222245 0.0099013386            3 
 1745000   0.55471821    -8.714926    234.20273  0.011184467 0.0098926823            2 
 1746000   0.55151601   -8.7124947    234.35953  0.011185545 0.0098840256            2 
 1747000   0.56269255    -8.723576    234.51175  0.011186403  0.009875381            5 
 1748000    0.5663557   -8.7234038    234.58786  0.011183632 0.0098667512            2 
 1749000   0.55145925   -8.7341502    234.47384  0.011171805 0.0098581317            1 
 1750000   0.55632223   -8.7188414    234.52673  0.011167939 0.0098495164            2 
 1751000   0.56017898   -8.7415701    234.19586  0.011145815 0.0098409041            1 
 1752000   0.55309509   -8.7231689    234.57979  0.011157715 0.0098322993            1 
 1753000   0.54747792   -8.7311432    233.97826  0.011122754 0.0098237032            2 
 1754000     0.556093   -8.7244017    234.08285  0.011121382 0.0098151338            4 
 1755000   0.55913048   -8.7353327    234.57526  0.011138426 0.0098065666            2 
 1756000   0.55411072   -8.7338066    234.33524  0.011120693 0.0097980215            2 
 1757000   0.54837606   -8.7122597     234.6658  0.011130042 0.0097894691            4 
 1758000   0.55683074   -8.7336553    234.08867  0.011096353 0.0097809321            2 
 1759000   0.55059445   -8.7532088      234.304  0.011100246 0.0097724128            2 
 1760000   0.55621395   -8.7444606    234.24809  0.011091292 0.0097638928            2 
 1761000   0.55480072   -8.7010024    234.50892  0.011097337 0.0097553894            2 
 1762000    0.5447227   -8.7439692    234.25294  0.011078932 0.0097468902            2 
 1763000   0.53930994   -8.7443954     234.5875  0.011088462 0.0097383904            4 
 1764000    0.5554396   -8.7395896    234.71666  0.011088277 0.0097298999            1 
 1765000   0.55034156   -8.7330821    234.40269  0.011067171 0.0097214133            3 
 1766000   0.54808571   -8.7463582    234.06205  0.011044831 0.0097129405            2 
 1767000   0.55412378   -8.7125167    234.57655  0.011062844 0.0097044746            1 
 1768000   0.55127505   -8.7211254    234.40117  0.011048321 0.0096960175            6 
 1769000   0.55608443   -8.7249081     234.2689  0.011035844 0.0096875723            2 
 1770000   0.55040173   -8.7312894    234.30619  0.011031365 0.0096791458            2 
 1771000   0.54167044   -8.7351752    234.67665  0.011042568 0.0096707161            3 
 1772000     0.539163   -8.7295436    233.91941  0.011000725 0.0096622982            1 
 1773000   0.54661765   -8.7339074    234.41649  0.011017883 0.0096538988            2 
 1774000    0.5400211   -8.7438058    234.39576  0.011010699 0.0096454958            2 
 1775000    0.5433687   -8.7240818      234.396  0.011004507 0.0096370964            2 
 1776000   0.55035073   -8.7396041    234.57624  0.011006768 0.0096287153            2 
 1777000   0.54332073   -8.7411829    234.34294  0.010989633 0.0096203436            2 
 1778000   0.55341178   -8.7384759    234.57015  0.010994102  0.009611977            2 
 1779000   0.53629799   -8.7324153    234.45613  0.010982581 0.0096036194            2 
 1780000   0.54834331   -8.7559112    234.44083  0.010975694 0.0095952609            2 
 1781000    0.5480123   -8.7546575     233.9111  0.010944745 0.0095869118            2 
 1782000   0.53757101   -8.7355743    234.17512   0.01095095 0.0095785689            2 
 1783000   0.53179066   -8.7458868    234.02372  0.010937732 0.0095702308            3 
 1784000   0.54050328   -8.7499938    234.14074  0.010937067  0.009561906            3 
 1785000   0.55269237   -8.7476837    234.25624  0.010936332 0.0095535952            3 
 1786000   0.54065602   -8.7455437    234.09485  0.010922679 0.0095452941            3 
 1787000   0.54716625   -8.7674296    233.98933  0.010911646 0.0095370041            2 
 1788000   0.53856599   -8.7463022    234.34627  0.010922179 0.0095287254            2 
 1789000   0.54247777   -8.7435934    234.04572  0.010902074 0.0095204537            3 
 1790000   0.53253049   -8.7444595    234.41172  0.010913022 0.0095121903            1 
 1791000   0.53213589   -8.7504866    234.15334  0.010894907 0.0095039298            5 
 1792000   0.53303351   -8.7610875     234.0622  0.010884589 0.0094956624            2 
 1793000    0.5419036    -8.756363    234.11854  0.010881137 0.0094874101            2 
 1794000   0.52504175    -8.749616    234.44158  0.010890077 0.0094791646            2 
 1795000   0.53541089   -8.7690091    234.09769  0.010868045 0.0094709345            1 
 1796000   0.53559446   -8.7512754    233.90811  0.010853197 0.0094627095            1 
 1797000   0.52964425   -8.7338088    234.04825  0.010853657 0.0094545001            2 
 1798000   0.52673826   -8.7614568    234.15352  0.010852499 0.0094463047            1 
 1799000   0.53351315    -8.770142    233.74447  0.010827518 0.0094381105            3 
 1800000    0.5463809   -8.7675437    234.10108  0.010838013 0.0094299202            2 
 1801000   0.53687746   -8.7498944    234.32725   0.01084246   0.00942174            2 
 1802000   0.52880174   -8.7608362     234.2634   0.01083349 0.0094135747            2 
 1803000   0.53791002   -8.7609449    234.07473  0.010818762  0.009405417            3 
 1804000   0.53717122   -8.7556771    234.11356  0.010814558  0.009397273            2 
 1805000   0.53814578   -8.7647675    233.82113  0.010795066 0.0093891386            2 
 1806000   0.52956719   -8.7571859    233.93131  0.010794173 0.0093810094            2 
 1807000   0.54025791    -8.763197    233.62105  0.010773891 0.0093728822            1 
 1808000   0.54248299   -8.7720187    233.83466  0.010777778 0.0093647594            4 
 1809000   0.53531702   -8.7580913    234.13632  0.010785716 0.0093566581            1 
 1810000   0.54484939   -8.7540321    233.83931  0.010766083 0.0093485616            3 
 1811000   0.54168395   -8.7552671    234.23187  0.010778201 0.0093404821            2 
 1812000   0.54277883   -8.7750201    233.85994  0.010755148 0.0093324057            3 
 1813000   0.52517822   -8.7529672    233.83509  0.010748074 0.0093243364            4 
 1814000     0.521411   -8.7654215    233.80866  0.010740934 0.0093162761            3 
 1815000   0.52910013   -8.7742008    233.66261  0.010728311 0.0093082251            3 
 1816000    0.5313614   -8.7565742    234.17134  0.010745748 0.0093001897            2 
 1817000   0.53947717   -8.7603216    233.96992  0.010730596 0.0092921624            2 
 1818000    0.5227954   -8.7700509    233.58014  0.010706827 0.0092841451            4 
 1819000   0.52271075   -8.7689845    233.79268  0.010710678 0.0092761381            1 
 1820000   0.53570749   -8.7830958    233.53706  0.010693089 0.0092681316            2 
 1821000   0.52645756   -8.7599754    234.14562  0.010715066 0.0092601366            2 
 1822000   0.52075042   -8.7833601    234.30558  0.010716501 0.0092521503            2 
 1823000   0.52202322   -8.7752565    233.65133  0.010680716  0.009244178            3 
 1824000   0.51918765   -8.7813245    233.91651  0.010686975 0.0092362073            1 
 1825000   0.51399578   -8.7695336    234.21866  0.010694916 0.0092282417            3 
 1826000    0.5077323   -8.7536083    233.82751  0.010671208 0.0092202866            3 
 1827000   0.52869757   -8.7803543    233.88019   0.01066777 0.0092123325            2 
 1828000   0.51077497   -8.7495584    233.59501  0.010648934 0.0092043868            1 
 1829000   0.52298295   -8.7804289    233.94958  0.010659267 0.0091964657            2 
 1830000   0.51630878   -8.7834132    234.08146  0.010659447 0.0091885489            1 
 1831000    0.5211092   -8.7750763     233.8308  0.010642218 0.0091806331            2 
 1832000   0.52473162   -8.7937434    233.81551  0.010635713 0.0091727245            2 
 1833000   0.51597425   -8.7726002    234.03378  0.010639834 0.0091648341            1 
 1834000   0.52575651   -8.7810022    233.93916  0.010629733 0.0091569402            1 
 1835000   0.50971014   -8.7790088     233.8912  0.010621762 0.0091490537            2 
 1836000   0.51858594   -8.7730558    234.27591  0.010633438 0.0091411765            2 
 1837000   0.51176259   -8.7787518    233.97317  0.010613916 0.0091333185            3 
 1838000   0.52537833   -8.7787114     233.4248  0.010583279 0.0091254694            2 
 1839000   0.53250948   -8.7909744    234.07997  0.010607213 0.0091176323            3 
 1840000   0.51638698   -8.7808343    233.69319  0.010583931 0.0091098059            2 
 1841000   0.51848958   -8.7745718    233.96586  0.010590524 0.0091019766            2 
 1842000   0.51668707   -8.8014674    233.48719  0.010563119 0.0090941465            3 
 1843000   0.51248775   -8.8170774    233.59153  0.010562105 0.0090863245            2 
 1844000   0.50895968   -8.7885911    233.84858  0.010567995 0.0090785098            3 
 1845000   0.50585969   -8.7791643     233.5771  0.010550005 0.0090707098            1 
 1846000   0.50782746   -8.8077994    233.71699  0.010550605 0.0090629148            3 
 1847000    0.5254959   -8.7935797    233.98479  0.010556975 0.0090551275            1 
 1848000   0.50919536   -8.7763958    233.52314  0.010530445 0.0090473437            2 
 1849000    0.5201221    -8.802078    233.50291  0.010523838 0.0090395727            1 
 1850000   0.51434968   -8.7918137     233.7021  0.010527122 0.0090318059            1 
 1851000   0.50826752   -8.7891269    233.74162  0.010523214 0.0090240552            3 
 1852000   0.52948032   -8.7930615    233.75264  0.010518027 0.0090163083            2 
 1853000    0.5175847   -8.7968418    233.52803   0.01050225 0.0090085725            1 
 1854000   0.50237729   -8.7869566    233.42836  0.010492105 0.0090008411            2 
 1855000   0.52831815   -8.8213248    233.75826  0.010501269 0.0089931194            2 
 1856000   0.51457065   -8.7994762     233.4993  0.010483984  0.008985414            2 
 1857000   0.49551721   -8.7944384    233.76996  0.010490484 0.0089777071            2 
 1858000    0.5097956   -8.7941546    233.81975  0.010487072 0.0089700001            3 
 1859000   0.50319532   -8.8070981    233.71707  0.010476827 0.0089623164            4 
 1860000   0.51366566   -8.8120388    233.15295   0.01044592 0.0089546313            4 
 1861000   0.51167119   -8.8040738    233.81584  0.010469991 0.0089469612            2 
 1862000   0.50837577   -8.8043584     233.7657  0.010462124 0.0089393078            4 
 1863000   0.51312662   -8.7885438    233.44378  0.010442108  0.008931658            3 
 1864000   0.51183635   -8.7988407    233.53306  0.010440498 0.0089240216            1 
 1865000   0.50457031   -8.8091787    233.41765  0.010429743  0.008916388            2 
 1866000   0.50491859   -8.7971528    233.81666  0.010441973  0.008908763            1 
 1867000   0.51274503   -8.7991165    233.63542   0.01042829 0.0089011403            4 
 1868000   0.49274752   -8.8043681    233.76044  0.010428285 0.0088935365            2 
 1869000   0.50978802   -8.7909211    233.63858  0.010417272 0.0088859415            2 
 1870000   0.50475766   -8.8053759    233.51655  0.010406263 0.0088783561            5 
 1871000   0.50279772   -8.8051641    233.22302  0.010387628 0.0088707793            2 
 1872000    0.5090913   -8.8011193     233.3233  0.010386543 0.0088631989            2 
 1873000   0.51303438   -8.8116371    233.65415  0.010395718 0.0088556323            2 
 1874000   0.49741513   -8.8264085    233.49489  0.010383088 0.0088480657            4 
 1875000   0.50047479   -8.8132735    233.42197   0.01037431 0.0088405162            2 
 1876000   0.50223644    -8.819066    233.73273  0.010382584 0.0088329756            2 
 1877000   0.52023142   -8.8062161    233.40972  0.010362712 0.0088254435            3 
 1878000    0.5003651   -8.8086192    233.64008  0.010367416 0.0088179079            1 
 1879000   0.50691411   -8.8318683    233.57969   0.01035922 0.0088103878            3 
 1880000   0.51350169   -8.8094373    233.57746  0.010353611 0.0088028646            2 
 1881000   0.50791635   -8.8284586    233.31276  0.010336379 0.0087953629            4 
 1882000   0.50678934   -8.8138753    233.46136  0.010337467 0.0087878566            3 
 1883000   0.49636916   -8.8256499    233.30343  0.010324988 0.0087803616            4 
 1884000   0.50357046   -8.8134185    233.76601  0.010339968 0.0087728812            3 
 1885000   0.50257101   -8.8143084    233.34854  0.010316027  0.008765401            3 
 1886000   0.49930702   -8.8086273    233.37542  0.010311745 0.0087579377            2 
 1887000    0.5025082   -8.8145926    233.41852  0.010308184 0.0087504713            4 
 1888000   0.50227348   -8.8118954     233.7557  0.010317607 0.0087430218            5 
 1889000   0.50953112    -8.814919    233.53999  0.010302629 0.0087355789            7 
 1890000   0.49654619   -8.8180571    233.23016  0.010283517 0.0087281489            1 
 1891000   0.49448179   -8.8387546    233.47533  0.010288883 0.0087207146            8 
 1892000   0.49561052   -8.8057381    233.50106  0.010284578 0.0087132988            3 
 1893000   0.49712794   -8.8274603    233.35768  0.010272833 0.0087058899            4 
 1894000   0.51243101     -8.81309    233.77626  0.010285826 0.0086984944            1 
 1895000   0.48973193    -8.831199    233.13523  0.010252209 0.0086910904            2 
 1896000   0.49421884   -8.8286746    233.43535  0.010259993 0.0086836939            2 
 1897000    0.4936573     -8.80345    233.51316  0.010258002 0.0086763203            2 
 1898000   0.49663592   -8.8220831    233.60571  0.010256661 0.0086689481            2 
 1899000   0.49199512   -8.8095617    233.39791  0.010242141 0.0086615788            2 
 1900000   0.48838042   -8.8070227    233.49436  0.010240981 0.0086542199            2 
 1901000   0.48586029   -8.8259736    233.25898  0.010225275 0.0086468737            3 
 1902000   0.50717831   -8.8245572    233.41886  0.010226904 0.0086395355            2 
 1903000   0.49207274   -8.8328276    233.35829  0.010218878 0.0086322048            2 
 1904000   0.49313661   -8.8158486      233.381  0.010214505 0.0086248761            1 
 1905000   0.49813671   -8.8201825    233.10819  0.010197209 0.0086175546            4 
 1906000   0.48207312   -8.8317301     233.5015  0.010209055 0.0086102444            2 
 1907000   0.48816517   -8.8396996    233.27004  0.010193587 0.0086029415            2 
 1908000   0.48953282   -8.8255609     233.1912  0.010184801 0.0085956412            2 
 1909000   0.49976645   -8.8266922    233.32803  0.010185439 0.0085883511            2 
 1910000   0.48029515   -8.8232851    233.21657  0.010175243 0.0085810724            3 
 1911000   0.48911526   -8.8459475    233.41798  0.010178702 0.0085738027            2 
 1912000   0.49070055   -8.8362389    232.99445  0.010154919 0.0085665345            3 
 1913000   0.48800136    -8.831732    233.52222    0.0101726 0.0085592779            2 
 1914000   0.48309623   -8.8220763    233.06075  0.010147194  0.008552029            2 
 1915000   0.49009837   -8.8263528    233.41778  0.010157432 0.0085447847            2 
 1916000   0.49465622   -8.8323563    233.37182  0.010150131 0.0085375468            3 
 1917000   0.49398118   -8.8350922    233.09825  0.010132944 0.0085303234            1 
 1918000   0.48393196   -8.8216557     233.6825  0.010153046 0.0085231071            4 
 1919000   0.48391343    -8.822694     233.0669  0.010121022 0.0085159024            3 
 1920000   0.48917209   -8.8245157    233.43707  0.010131817 0.0085087049            2 
 1921000   0.48257913   -8.8314961    232.94508    0.0101052 0.0085015172            2 
 1922000   0.48452488   -8.8423704    233.64703  0.010130378  0.008494335            2 
 1923000   0.47959901   -8.8371445    232.96836  0.010095699 0.0084871599            3 
 1924000    0.4824312   -8.8486455    232.83706  0.010084765 0.0084799902            2 
 1925000   0.48058566   -8.8316056    233.34286  0.010101422 0.0084728203            2 
 1926000   0.48619323   -8.8229774    232.88863  0.010076524 0.0084656543            2 
 1927000    0.4885461   -8.8441897    233.28279  0.010088341 0.0084585131            4 
 1928000   0.48861263   -8.8384963     233.0544  0.010073236 0.0084513641            2 
 1929000   0.48135891   -8.8406417    233.32755  0.010079815 0.0084442295            1 
 1930000   0.46826574   -8.8436967    232.81626  0.010052516 0.0084370989            3 
 1931000   0.48977303   -8.8418668    233.30646  0.010068464  0.008429975            1 
 1932000   0.47916285   -8.8429124    233.15177  0.010056581 0.0084228664            2 
 1933000   0.48010551   -8.8484399    232.99875  0.010044781 0.0084157601            2 
 1934000   0.47467326   -8.8526415    233.15169  0.010046178 0.0084086634            3 
 1935000   0.48756877   -8.8399984    233.36141  0.010050018  0.008401582            1 
 1936000   0.48231084   -8.8362503     233.3969  0.010046354 0.0083945048            3 
 1937000   0.47102619   -8.8465034    232.73747  0.010012798 0.0083874318            2 
 1938000   0.49153075    -8.853926    232.90921  0.010015016 0.0083803634            3 
 1939000   0.47528862   -8.8373978    232.77991  0.010004294 0.0083733078            1 
 1940000   0.48488616   -8.8503627    232.95655  0.010006725 0.0083662643            3 
 1941000   0.47535848   -8.8633667    233.03177  0.010004798 0.0083592246            1 
 1942000   0.47317575   -8.8434011    233.19545  0.010006671 0.0083521876            1 
 1943000   0.47862475   -8.8526101    233.25203  0.010003947 0.0083451566            3 
 1944000    0.4643957   -8.8510211    232.98895 0.0099875234 0.0083381384            5 
 1945000   0.48231643   -8.8392751    233.12743 0.0099883217 0.0083311358            1 
 1946000   0.47459401   -8.8591517    232.90599 0.0099737063 0.0083241369            4 
 1947000   0.48074552   -8.8612891    233.14614 0.0099788625 0.0083171377            3 
 1948000   0.48096905   -8.8457965    233.25949 0.0099785887 0.0083101526            1 
 1949000   0.47240418   -8.8417552    232.83131 0.0099551612 0.0083031674            3 
 1950000    0.4722685   -8.8630679    233.33243 0.0099714713 0.0082961902            2 
 1951000   0.47753619   -8.8522743    232.86077 0.0099462145 0.0082892199            6 
 1952000   0.47015924    -8.850556    232.76568 0.0099370595 0.0082822523            4 
 1953000   0.46865134   -8.8616145    233.12557 0.0099473275    0.0082753            2 
 1954000   0.47190653   -8.8617638    233.01611 0.0099375685 0.0082683571            5 
 1955000   0.47697819   -8.8636594    232.64323 0.0099165913 0.0082614177            3 
 1956000   0.46979889   -8.8571038    233.05103 0.0099288953  0.008254486            2 
 1957000   0.47024572   -8.8803425    233.17146 0.0099289499 0.0082475643            5 
 1958000   0.47373043   -8.8539333    233.05497 0.0099189211 0.0082406454            5 
 1959000   0.46773466   -8.8543465    232.57465 0.0098934257 0.0082337363            2 
 1960000   0.46673769   -8.8737074    232.97448 0.0099053775 0.0082268354            3 
 1961000    0.4730536   -8.8744522    233.19133 0.0099095416 0.0082199421            6 
 1962000   0.48248344   -8.8636012    233.12866  0.009901829 0.0082130547            2 
 1963000   0.47645102   -8.8623125    233.09512 0.0098953608 0.0082061752            5 
 1964000   0.46937213   -8.8542772    232.79225 0.0098774715 0.0081992982            4 
 1965000   0.46539932   -8.8670718    232.80073 0.0098728046 0.0081924329            3 
 1966000   0.46750377   -8.8625378    233.06768  0.009879098 0.0081855677            2 
 1967000   0.44964722   -8.8927176    232.76289 0.0098611628 0.0081787134            4 
 1968000   0.46681354   -8.8677961    233.02119 0.0098670899 0.0081718684            2 
 1969000   0.47012847   -8.8752322    233.01811 0.0098619479 0.0081650318            3 
 1970000   0.46903192   -8.8863659    232.93695 0.0098535089 0.0081581954            4 
 1971000   0.46271549   -8.8544831    232.93463 0.0098484115  0.008151368            2 
 1972000   0.47605902   -8.8736489    232.96654 0.0098447658 0.0081445561            1 
 1973000   0.45749579   -8.8650264    232.79312 0.0098324515 0.0081377412            4 
 1974000   0.47167439   -8.8717808    233.03432 0.0098376527 0.0081309388            3 
 1975000   0.47293519   -8.8694905    232.69648  0.009818417 0.0081241416            4 
 1976000   0.46436481   -8.8817575     233.0504 0.0098283736  0.008117358            2 
 1977000   0.47306394   -8.8590033    232.70236 0.0098087321 0.0081105798            1 
 1978000   0.46628017   -8.8589302    233.03515 0.0098177935 0.0081038129            4 
 1979000   0.45729653   -8.8971361    232.70056 0.0097987436 0.0080970458            2 
 1980000   0.46013907   -8.8861486    232.80053 0.0097980022 0.0080902857            3 
 1981000   0.45684573     -8.87639    232.83024  0.009794306 0.0080835399            3 
 1982000   0.45433976    -8.872076    232.72415 0.0097849035 0.0080767997            1 
 1983000   0.45750721   -8.8482201    232.74909 0.0097810175 0.0080700681            3 
 1984000   0.46186462   -8.8941905    232.63559 0.0097713201 0.0080633441            3 
 1985000   0.45872295   -8.8689222    232.73209 0.0097704486 0.0080566243            5 
 1986000   0.46467843   -8.8696412    232.35948 0.0097498942 0.0080499083            2 
 1987000   0.45216718   -8.8697585    232.38595 0.0097460977 0.0080432011            7 
 1988000   0.45867125   -8.8802854    232.76435  0.009757057 0.0080364948            2 
 1989000   0.44495536   -8.9018752    232.76824 0.0097523144  0.008029797            3 
 1990000   0.45022785   -8.8932472    232.73794 0.0097461449 0.0080231088            1 
 1991000   0.45301071   -8.8748673    232.98333 0.0097515208 0.0080164285            2 
 1992000   0.46095181   -8.8803917    232.97082  0.009746102 0.0080097523            2 
 1993000   0.46199338   -8.8808906     232.6657 0.0097284536 0.0080030847            4 
 1994000   0.46279724   -8.8721754    232.88572 0.0097327698 0.0079964239            2 
 1995000   0.45235775   -8.8810375    232.88998 0.0097280693 0.0079897775            3 
 1996000   0.45694606   -8.8830583    232.59214 0.0097107606 0.0079831281            4 
 1997000   0.44703316   -8.8853126    232.49636 0.0097019012 0.0079764892            2 
 1998000   0.44922546   -8.8824352    232.74173 0.0097072796 0.0079698549            2 
 1999000   0.45111754   -8.8834829    232.44613 0.0096901003 0.0079632305            2 
 2000000   0.46324212   -8.8875701    232.43103 0.0096846261 0.0079566087            2 
 2001000   0.45795422   -8.8802427    232.66241 0.0096894226  0.007950006            1 
 2002000   0.45392582   -8.8874258    232.74135 0.0096878685 0.0079434018            5 
 2003000   0.45216381   -8.8936086    232.61253 0.0096776721 0.0079368037            2 
 2004000   0.45619414   -8.8819544    232.36064 0.0096623685 0.0079302199            4 
 2005000   0.45929874   -8.9079538    232.72148 0.0096725468 0.0079236447            2 
 2006000   0.45803141   -8.8966103    232.87725  0.009674196 0.0079170741            3 
 2007000   0.46079379   -8.8944721    232.55602 0.0096560382 0.0079105117            5 
 2008000   0.44871898    -8.885743    232.55168 0.0096510491 0.0079039542            4 
 2009000   0.45391305   -8.8950678    232.38726 0.0096394253 0.0078974032            3 
 2010000   0.44893733   -8.8918684    232.54016 0.0096409684 0.0078908551            2 
 2011000   0.44385281   -8.8832106    232.48003 0.0096336826 0.0078843182            2 
 2012000   0.45137866   -8.8944849    232.51508 0.0096303462 0.0078777852            2 
Loop time of 4939.85 on 48 procs for 2000000 steps with 4000 atoms

Performance: 69961.637 tau/day, 404.871 timesteps/s
99.4% CPU use with 48 MPI tasks x no OpenMP threads

MPI task timing breakdown:
Section |  min time  |  avg time  |  max time  |%varavg| %total
---------------------------------------------------------------
Pair    | 315.86     | 337.69     | 352.3      |  46.3 |  6.84
Neigh   | 32.572     | 33.681     | 35.424     |  10.7 |  0.68
Comm    | 310.32     | 332.15     | 355.05     |  56.8 |  6.72
Output  | 4.1555     | 4.1575     | 4.1922     |   0.3 |  0.08
Modify  | 4174       | 4185.7     | 4199.1     |   9.7 | 84.73
Other   |            | 46.44      |            |       |  0.94

Nlocal:        83.3333 ave          91 max          77 min
Histogram: 4 3 10 4 2 12 4 6 2 1
Nghost:        2146.21 ave        2168 max        2126 min
Histogram: 1 0 5 10 11 9 7 3 0 2
Neighs:        14091.6 ave       15623 max       12765 min
Histogram: 4 4 6 8 5 4 6 6 3 2
FullNghs:      28184.2 ave       30827 max       25895 min
Histogram: 3 5 6 7 4 8 6 5 3 1

Total # of neighbors = 1352842
Ave neighs/atom = 338.21050
Neighbor list builds = 106959
Dangerous builds = 0

#clear
#
#next RN
#
#jump SELF
Total wall time: 1:22:23
