
units lj                  # Use reduced LJ style units
atom_style atomic         # Uncharged point particles
atom_modify map hash      # Needed for indexing of clusters etc
                          # Used to be able to find where atoms are in relation to each other.

lattice fcc 1.0 spacing 1 1 1
Lattice spacing in x,y,z = 1.5874011 1.5874011 1.5874011
region box block 0 10 0 10 0 10 units lattice
create_box 2 box
Created orthogonal box = (0.0000000 0.0000000 0.0000000) to (15.874011 15.874011 15.874011)
  3 by 4 by 4 MPI processor grid
create_atoms 1 box
Created 4000 atoms
  using lattice units in orthogonal box = (0.0000000 0.0000000 0.0000000) to (15.874011 15.874011 15.874011)
  create_atoms CPU = 0.002 seconds
set type 1 type/fraction 2 0.68 78393
Setting atom values ...
  2740 settings made for type/fraction
mass 1 1.0
mass 2 1.0
pair_style lj/cut  3.5
pair_modify tail  yes
pair_coeff 1  1  1.0  1.0   # Intearaction between 1 and 1 set with epsilon = 1 and sigma = 1
pair_coeff 1  2  1.5  0.8
pair_coeff 2  2  0.5  0.88

write_data data.0
System init for write_data ...
Neighbor list info ...
  update every 1 steps, delay 10 steps, check yes
  max neighbors/atom: 2000, page size: 100000
  master list distance cutoff = 3.8
  ghost atom cutoff = 3.8
  binsize = 1.9, bins = 9 9 9
  1 neighbor lists, perpetual/occasional/extra = 1 0 0
  (1) pair lj/cut, perpetual
      attributes: half, newton on
      pair build: half/bin/atomonly/newton
      stencil: half/bin/3d
      bin: standard
WARNING: Not all mixed pair coeffs generated from mixing. Use write_data with 'pair ij' option to store all pair coeffs. (../write_data.cpp:312)


#############################
#   M E L T   S Y S T E M   #
#############################

velocity all create 2.4 2750902 mom yes dist gaussian # Assign velocities
                                                    # Temperature 2.4, random number seed, zero linear momentum
                                                                                # Gaussian distribution

timestep 0.002   # simulation timestep
thermo 1000       # output thermodynamic data every 1000 steps bf 100

# Define a fix  in this case with index 1 applied to all
# particles in the simulation. This fix is for simulations
# in the anisotropic NPT ensemble. Note that we use the MTK
# correction.
fix 1 all npt temp 2.4 2.4 0.1 iso 5.68 5.68 0.5 mtk yes tchain 5 pchain 5 # Use NPT ensemble
                                                                         # Set temperature and pressure and damping
                                                                         # Numbers of thermostats in chain and in barostat
run 10000          # run for 10000 steps
Per MPI rank memory allocation (min/avg/max) = 3.642 | 3.644 | 3.648 Mbytes
Step Temp E_pair E_mol TotEng Press Volume 
       0          2.4   -4.2819815            0  -0.68288149   -3.8317514         4000 
    1000    2.3925382     -3.93722            0     -0.34931    5.7489115    3644.0857 
    2000    2.3957244   -3.9119299            0  -0.31924173    5.7983714    3654.1394 
    3000    2.4119197   -3.9559064            0  -0.33893136    5.5683724     3645.815 
    4000    2.3431738   -3.8984423            0  -0.38456033    5.8076745     3641.133 
    5000    2.4216052   -3.8527251            0  -0.22122532    5.6452208    3692.7764 
    6000    2.3998681   -3.9422744            0  -0.34337228    5.6493826    3641.1977 
    7000    2.4044882   -3.8841399            0  -0.27830935    5.7780956    3665.3513 
    8000    2.4019015   -3.9703747            0  -0.36842317    5.7006706    3627.0994 
    9000    2.4144514   -3.9294315            0   -0.3086598     5.468479    3672.4064 
   10000    2.4125994   -3.9330957            0  -0.31510135    5.9241136    3624.8635 
Loop time of 2.65405 on 48 procs for 10000 steps with 4000 atoms

Performance: 651079.474 tau/day, 3767.821 timesteps/s
99.7% CPU use with 48 MPI tasks x no OpenMP threads

MPI task timing breakdown:
Section |  min time  |  avg time  |  max time  |%varavg| %total
---------------------------------------------------------------
Pair    | 1.2091     | 1.2673     | 1.4239     |   3.8 | 47.75
Neigh   | 0.21573    | 0.22253    | 0.25221    |   1.2 |  8.38
Comm    | 0.74627    | 0.89625    | 0.99348    |   5.4 | 33.77
Output  | 0.00025002 | 0.00025462 | 0.00032214 |   0.0 |  0.01
Modify  | 0.19844    | 0.25204    | 0.31106    |   7.1 |  9.50
Other   |            | 0.01563    |            |       |  0.59

Nlocal:        83.3333 ave          94 max          74 min
Histogram: 3 4 4 6 5 10 6 7 2 1
Nghost:        1753.15 ave        1789 max        1719 min
Histogram: 1 3 5 8 10 7 6 1 5 2
Neighs:        10538.4 ave       12243 max        9148 min
Histogram: 3 6 3 7 9 7 8 3 0 2

Total # of neighbors = 505844
Ave neighs/atom = 126.46100
Neighbor list builds = 902
Dangerous builds = 198

# Equilibrate just above the melting temperature to avoid step fn in T

fix 1 all npt temp 1.25 1.25 0.1 iso 5.68 5.68 0.5 mtk yes tchain 5 pchain 5
run 2000
Per MPI rank memory allocation (min/avg/max) = 3.644 | 3.646 | 3.650 Mbytes
Step Temp E_pair E_mol TotEng Press Volume 
   10000    2.4125994   -3.9330957            0  -0.31510135    5.9241136    3624.8635 
   11000    1.2494397   -5.7780881            0    -3.904397    5.9401733    2777.6122 
   12000    1.2666312   -5.8494633            0   -3.9499914    5.5723703    2770.1857 
Loop time of 0.65304 on 48 procs for 2000 steps with 4000 atoms

Performance: 529217.581 tau/day, 3062.602 timesteps/s
99.7% CPU use with 48 MPI tasks x no OpenMP threads

MPI task timing breakdown:
Section |  min time  |  avg time  |  max time  |%varavg| %total
---------------------------------------------------------------
Pair    | 0.29778    | 0.32262    | 0.34322    |   2.2 | 49.40
Neigh   | 0.040783   | 0.043887   | 0.0469     |   0.7 |  6.72
Comm    | 0.21149    | 0.23701    | 0.26487    |   2.8 | 36.29
Output  | 5.3872e-05 | 5.5456e-05 | 6.9867e-05 |   0.0 |  0.01
Modify  | 0.040879   | 0.044622   | 0.04817    |   0.9 |  6.83
Other   |            | 0.004848   |            |       |  0.74

Nlocal:        83.3333 ave          92 max          76 min
Histogram: 2 3 6 9 4 12 8 1 2 1
Nghost:        2104.48 ave        2127 max        2080 min
Histogram: 1 2 6 6 9 6 7 5 4 2
Neighs:        13789.7 ave       15804 max       12166 min
Histogram: 2 5 4 7 9 10 7 3 0 1

Total # of neighbors = 661907
Ave neighs/atom = 165.47675
Neighbor list builds = 144
Dangerous builds = 12

#############################
# L I N E A R  Q U E N C H  #
#############################

# Define solid atoms. This closely follows ten Wolde  Ruiz-Montero and Frenkel  Faraday Discuss  1996  104  93-110
# Compute components of the per-atom q6 vector
compute q6 all orientorder/atom degrees 1 6 components 6 nnn NULL cutoff 1.3 # compute the Q6 parameter.
                                                                             # Use all neighbours within 1.3 unit cell.

# get number of connections
compute coord_number all coord/atom orientorder q6 0.5

# An atom is solid if it has 8 or more connections (of a possible 14)
variable is_solid atom c_coord_number>=8
group solid dynamic all var is_solid    # Must be dynamic to update
dynamic group solid defined

# do clustering
compute cluster solid cluster/atom 1.3 # Create a cluster where all atoms within are solid and max 1.3 units from another member

# define chunks one chunk per cluster
compute clus_chunks solid chunk/atom c_cluster nchunk every compress yes  # Says which atoms are in which chunk

# count the size of each chunk
compute size_chunks solid property/chunk clus_chunks count


# Find the maximum entry in the vector of chunk sizes
variable max_n equal max(c_size_chunks)


# Thermo style which includes this variable
# thermo_style custom step temp pe vol v_max_n

thermo ${N}  # Print the thermo information every 100 steps
thermo 1000  

# Reset the npt fix at a lower temperature (below freezing)
fix 1  all npt temp  ${temp} ${temp}  0.1  iso  5.68  5.68  0.5  mtk yes tchain  5  pchain  5
fix 1  all npt temp  0.45 ${temp}  0.1  iso  5.68  5.68  0.5  mtk yes tchain  5  pchain  5
fix 1  all npt temp  0.45 0.45  0.1  iso  5.68  5.68  0.5  mtk yes tchain  5  pchain  5

dump dmp2 all dcd ${N} traj.dcd
dump dmp2 all dcd 1000 traj.dcd


compute msd all msd com yes
variable twopoint equal c_msd[4]/6/(step*dt+1.0e-6)
fix 9 all vector 10 c_msd[4]
variable fit equal slope(f_9)/6/(10*dt)
thermo_style custom step temp pe c_msd[4] v_twopoint v_fit v_max_n

fix 1 all npt temp 1.25 ${temp} 0.1 iso 5.68 5.68 0.5 mtk yes tchain 5 pchain 5
fix 1 all npt temp 1.25 0.45 0.1 iso 5.68 5.68 0.5 mtk yes tchain 5 pchain 5
run 500000 # 5000000  # Run for this many steps
Neighbor list info ...
  update every 1 steps, delay 10 steps, check yes
  max neighbors/atom: 2000, page size: 100000
  master list distance cutoff = 3.8
  ghost atom cutoff = 3.8
  binsize = 1.9, bins = 8 8 8
  4 neighbor lists, perpetual/occasional/extra = 1 3 0
  (1) pair lj/cut, perpetual
      attributes: half, newton on
      pair build: half/bin/atomonly/newton
      stencil: half/bin/3d
      bin: standard
  (2) compute orientorder/atom, occasional
      attributes: full, newton on
      pair build: full/bin/atomonly
      stencil: full/bin/3d
      bin: standard
  (3) compute coord/atom, occasional
      attributes: full, newton on
      pair build: full/bin/atomonly
      stencil: full/bin/3d
      bin: standard
  (4) compute cluster/atom, occasional
      attributes: full, newton on
      pair build: full/bin/atomonly
      stencil: full/bin/3d
      bin: standard
Per MPI rank memory allocation (min/avg/max) = 9.846 | 9.850 | 9.855 Mbytes
Step Temp PotEng c_msd[4] v_twopoint v_fit v_max_n 
   12000    1.2666312   -5.8494633 9.7483486e-31 6.7696863e-33 8.3333333e+20            2 
   13000    1.2444174   -5.8664398   0.56244771 0.0036054339  0.046995188            2 
   14000    1.2521894   -5.8796608    1.1407124 0.0067899543  0.047117754            1 
   15000    1.2462072   -5.8766162    1.6604321 0.0092246224  0.046451416            1 
   16000    1.2552041   -5.8914031     2.235782  0.011644697  0.046300713            2 
   17000    1.2305766   -5.9235757     2.749553  0.013478201  0.045886814            2 
   18000    1.2438344   -5.8726587    3.3031985  0.015292585  0.045553479            3 
   19000     1.234898   -5.8608022    3.7979989  0.016657889   0.04514036            1 
   20000    1.2300671   -5.8950814    4.3402388  0.018084328  0.044954941            2 
   21000    1.2347033   -5.8686743    4.9474112  0.019632584  0.044986387            2 
   22000    1.2405912   -5.8860617    5.4155871  0.020513587  0.044898317            2 
   23000    1.2593358   -5.9008635    5.9004891  0.021378583  0.044730424            2 
   24000    1.2396794   -5.9253187    6.4427882  0.022370792  0.044617357            3 
   25000    1.2118349   -5.8946134    7.0006648  0.023335549  0.044543266            2 
   26000    1.2352341   -5.9121101    7.5032842  0.024048987  0.044453327            2 
   27000    1.2176839   -5.9182551     8.003557  0.024702336  0.044357326            3 
   28000    1.2218283   -5.9269813    8.5310598  0.025390058  0.044183397            3 
   29000    1.2197864   -5.9327643    9.1060891  0.026166922  0.044102985            3 
   30000    1.2231816   -5.9281125    9.4968392  0.026380108  0.044006029            3 
   31000    1.2178411   -5.8967481    10.090741  0.027125647  0.043902631            1 
   32000    1.2300893   -5.8984496    10.627978  0.027677025   0.04386041            1 
   33000    1.1963253   -5.8945842    11.214517  0.028319486  0.043858234            2 
   34000    1.2468692   -5.9490234     11.80387  0.028931053  0.043955528            3 
   35000    1.1916255   -5.9360056    12.346177  0.029395659  0.044056663            2 
   36000    1.2216472   -5.9315245    12.868353  0.029787853  0.044124953            3 
   37000    1.1911894    -5.941362    13.250115    0.0298426  0.044115943            8 
   38000    1.1989672   -5.9346852    13.810876  0.030287009  0.044098723            3 
   39000    1.1941974     -6.00406    14.342925  0.030647276  0.044086875            2 
   40000     1.190789   -5.9989683    14.928435  0.031100906  0.044099636            4 
   41000    1.1843345   -5.9151197    15.517132  0.031538885  0.044111978            2 
   42000    1.2075078   -5.9419197    15.882896  0.031513683  0.044087982            1 
   43000    1.2010668    -5.949544     16.45021  0.031880252  0.044059287            1 
   44000    1.2017593   -5.9873732    17.054436  0.032300067  0.044032172            2 
   45000     1.190686   -5.9686272    17.488701  0.032386483  0.044047053            4 
   46000     1.214755   -5.9778336    17.946046  0.032510952  0.044020606            4 
   47000    1.1953826   -6.0062954    18.414968  0.032650652  0.043965158            1 
   48000    1.1821152   -5.9968496    18.953489  0.032905363  0.043898868            3 
   49000    1.1892722   -5.9945643    19.402415  0.032997304  0.043823591            3 
   50000    1.1658326   -5.9716582    19.830359  0.033050598  0.043728266            1 
   51000    1.1646607   -6.0263867    20.137638  0.032904637  0.043616301            4 
   52000    1.1869964   -5.9889472    20.713464  0.033194653  0.043505373            5 
   53000    1.1930364   -5.9910049    21.107709  0.033188221  0.043378123            5 
   54000    1.1831707     -6.04225    21.612308  0.033352327  0.043256081            2 
   55000    1.1728756   -5.9457122    22.074468  0.033446163  0.043144429            2 
   56000    1.2043537   -5.9777453    22.534162  0.033532979   0.04301973            6 
   57000    1.1871931   -6.0166545    23.025281  0.033662691  0.042902404            6 
   58000    1.1831795   -6.0230159    23.453282  0.033697244   0.04278865            2 
   59000    1.1679642   -6.0440746     23.93111  0.033801003  0.042688055            4 
   60000    1.1711137    -6.045302    24.580251  0.034139237  0.042612504            2 
   61000    1.1715234   -6.0431794    25.218474  0.034451467  0.042553935            4 
   62000    1.1607684   -6.0176818    25.731966  0.034585976  0.042507594            3 
   63000    1.1493905   -6.0382348    26.112105  0.034539821  0.042471743            5 
   64000    1.1448703    -6.049144    26.671221  0.034728152  0.042448393            3 
   65000    1.1395156   -6.0141251    27.091291  0.034732425  0.042405139            2 
   66000    1.1552328    -6.078003    27.425032  0.034627565  0.042345634            2 
   67000    1.1746642   -6.0713163    27.884818   0.03468261   0.04228282            4 
   68000    1.1876004   -6.0574481    28.306262  0.034689047  0.042208514            1 
   69000    1.1728047    -6.102251    28.643664  0.034593797  0.042124843            3 
   70000    1.1580507   -6.1096335    29.016161  0.034543048  0.042028747            2 
   71000    1.1618975   -6.0871657    29.585183  0.034724393   0.04193459            1 
   72000    1.1397532   -6.0666203    30.170557  0.034919626  0.041852418            3 
   73000    1.1574766   -6.0173691    30.612812  0.034946132  0.041780338            2 
   74000    1.1195639   -6.0287807     31.01149  0.034922849  0.041710449            8 
   75000     1.154111   -6.1204084    31.508535  0.035009483  0.041650161            4 
   76000    1.1244138   -6.0739306    31.887245  0.034964084  0.041580535            2 
   77000    1.1500473   -6.0871926    32.327184   0.03498613    0.0415094            2 
   78000    1.1680929   -6.0795996    32.793965  0.035036287  0.041428505            3 
   79000    1.1510131   -6.1143736    33.185517  0.035005819  0.041355392            5 
   80000    1.1399082   -6.1286832    33.532155  0.034929328   0.04128261            4 
   81000    1.1440529   -6.0898964    34.016603  0.034996505  0.041196519            2 
   82000    1.1569479   -6.0850005    34.402321  0.034961708  0.041115348            2 
   83000    1.1613379   -6.1380828    34.794933  0.034934672  0.041027278            5 
   84000    1.1392551   -6.1477077    35.319075  0.035038765  0.040941239            5 
   85000    1.1278335     -6.11455     35.86071  0.035157559   0.04086438            3 
   86000    1.1295333   -6.1324866    36.263213  0.035138772  0.040790406            2 
   87000    1.1274803   -6.1501306    36.693718   0.03514724  0.040726037            3 
   88000    1.0926894   -6.1520465    37.291801  0.035314206  0.040668127            2 
   89000    1.1208141   -6.1365552    37.697186   0.03529699  0.040608875            3 
   90000    1.1710869    -6.121759    38.265116  0.035430663  0.040560371            2 
   91000    1.1116872   -6.1487997    38.435233    0.0351971  0.040497764            2 
   92000    1.1307811   -6.1133849    38.903361  0.035238552  0.040435144            4 
   93000    1.1314979   -6.1351089    39.376045  0.035283194  0.040373156            6 
   94000    1.0948737   -6.1375753    39.909696  0.035380936   0.04031352            3 
   95000    1.1186899   -6.1226505    40.068742  0.035148019  0.040250314            3 
   96000    1.1299341   -6.1623531    40.494489  0.035151466  0.040179162            1 
   97000    1.1279944   -6.2111656    40.905107  0.035141844  0.040112642            2 
   98000    1.1180032   -6.1768752    41.384601  0.035190987  0.040049756            5 
   99000    1.1076162   -6.1187795    41.867586  0.035242075  0.039985749            8 
  100000    1.1043534   -6.1732072    42.054335  0.035045279  0.039917429            2 
  101000    1.0826522   -6.2220533    42.449881  0.035024654  0.039848383            5 
  102000    1.1174996   -6.2282445    42.983483  0.035117224   0.03977969            4 
  103000     1.078191   -6.1865806    43.391752  0.035106596  0.039714915            6 
  104000    1.0945064   -6.2504398    43.561751  0.034905249  0.039644623            3 
  105000    1.1189447    -6.192302     44.02388  0.034939587  0.039568591            2 
  106000    1.1029071   -6.2103473    44.279381  0.034810834   0.03949431            2 
  107000    1.0948099   -6.1881179    44.931955  0.034993734  0.039415067            2 
  108000    1.1017221    -6.196801    45.128147  0.034821101   0.03933574            3 
  109000    1.0936751   -6.2226701    45.583136  0.034849492  0.039258053            1 
  110000      1.06894   -6.2399932    45.898245  0.034771398  0.039185348            3 
  111000     1.084208   -6.2438245    46.344016  0.034792805  0.039105669            3 
  112000    1.0851603   -6.2549561    46.488873  0.034589935  0.039024627            1 
  113000    1.0784056   -6.2332177    47.017321   0.03467354  0.038943191            2 
  114000    1.1029112   -6.2232351    47.172898  0.034483112  0.038851647            4 
  115000    1.0936615   -6.2183961    47.565321  0.034467624  0.038759025            3 
  116000    1.0766018   -6.2530874    47.617183  0.034207747  0.038666924            5 
  117000     1.092307   -6.2216934     48.12363   0.03427609  0.038571625            2 
  118000     1.084777   -6.2717671     48.31325  0.034119527  0.038473208            3 
  119000    1.0980963     -6.22695    48.586402  0.034024091  0.038368124            4 
  120000    1.1013068   -6.2465346    48.821672  0.033903938  0.038263162            4 
  121000    1.0433159   -6.2745285    49.087045  0.033806504  0.038161005            7 
  122000     1.073494   -6.2808647    49.395806  0.033740305  0.038054496            5 
  123000    1.0886763   -6.3031742    49.514922  0.033546695  0.037937685            8 
  124000    1.0730814   -6.3280006    49.724364  0.033416911  0.037820308            4 
  125000    1.0862177   -6.2737966    50.322977  0.033548651  0.037707896            3 
  126000    1.0458518   -6.2873936    50.441701  0.033360913  0.037594113            4 
  127000    1.0430057   -6.2539172    50.890314  0.033392594  0.037481228            3 
  128000    1.0763469    -6.260109    51.126149  0.033285253  0.037362637            4 
  129000    1.0653498   -6.3111262    51.495406  0.033265766  0.037245456            5 
  130000    1.0490543   -6.2858938    51.641077  0.033103255   0.03713014            4 
  131000    1.0586075   -6.2983703    51.959653  0.033053214  0.037015783            6 
  132000    1.0497234   -6.2924766    52.135652  0.032913921  0.036900887            3 
  133000    1.0643575    -6.327046    52.603719  0.032959723  0.036788447            5 
  134000      1.06418    -6.272362    52.951748  0.032930191  0.036677756            3 
  135000    1.0361645   -6.3242931      52.9789  0.032703025  0.036568531            3 
  136000    1.0367166   -6.2994843    53.436605  0.032743017  0.036461438            2 
  137000    1.0587594   -6.3223223    54.059371  0.032882829  0.036358442            7 
  138000    1.0504048   -6.3305075    54.241268  0.032754389  0.036252442            2 
  139000     1.030872   -6.3276692    54.403622  0.032616081  0.036150241            7 
  140000    1.0446662   -6.3291379     54.89065  0.032673006  0.036044064            4 
  141000    1.0442774    -6.399196    54.868093  0.032427951  0.035941524            1 
  142000    1.0365353   -6.3520801    55.333523  0.032472725  0.035839713            3 
  143000     1.058376   -6.3657342    55.760435  0.032494426  0.035740308            5 
  144000    1.0259921   -6.3661621    56.010912  0.032413722  0.035644316            3 
  145000    1.0331512   -6.3555684    56.642931  0.032553408  0.035552465            3 
  146000    1.0286021   -6.3449554    56.781263  0.032409396  0.035459415            2 
  147000    1.0399692   -6.3643831    56.846653  0.032225994   0.03536288            3 
  148000    1.0302974   -6.3529799    57.074921   0.03213678  0.035263823            4 
  149000    1.0033844    -6.337435    57.307496  0.032051172  0.035162199            4 
  150000     1.022099   -6.3860429    57.269254  0.031816252   0.03505974            4 
  151000    1.0273035   -6.3733482    57.807098  0.031902372  0.034958109            6 
  152000    1.0404772   -6.3956989    57.932674  0.031761334  0.034857749            5 
  153000    1.0254292   -6.4068897    58.418876   0.03181856  0.034757325            3 
  154000    1.0077374   -6.4187088    58.366811  0.031583772  0.034656187            5 
  155000     1.035352   -6.3777353    58.797124  0.031611357   0.03455172            2 
  156000    1.0348146    -6.411473    58.951912  0.031491406  0.034449322            6 
  157000    1.0060904   -6.4148008    59.389392  0.031523032  0.034349974            3 
  158000    1.0014624   -6.4220376    59.376348  0.031316639   0.03425118            6 
  159000    1.0077859   -6.4428334    59.405749  0.031135088  0.034148629            4 
  160000    1.0194631   -6.4290717    60.095061  0.031299511  0.034045888            3 
  161000     1.018357   -6.4578669    60.117381  0.031116657  0.033944193            3 
  162000    1.0227965   -6.4345593    60.420946  0.031080734   0.03384157            7 
  163000    1.0098793   -6.4589623    60.433144   0.03089629  0.033739945            3 
  164000    1.0216331   -6.4614653    60.472973  0.030728137  0.033634236            3 
  165000     1.025285   -6.4826503    60.679507  0.030646216   0.03352765           10 
  166000    1.0035884   -6.4427048    60.995298  0.030620129  0.033420658            4 
  167000    1.0096942   -6.4059201     61.39055  0.030634007  0.033315891            6 
  168000    1.0067274   -6.4556615    61.419814  0.030466178  0.033213714            5 
  169000    1.0189802   -6.4658936    61.746132   0.03044681  0.033109897            4 
  170000    1.0051979   -6.4514855    61.947573  0.030366457  0.033006599            5 
  171000   0.99791342   -6.4631427    62.022476  0.030225378  0.032902023            8 
  172000    1.0095746   -6.4404606    62.047764  0.030061901  0.032793551            8 
  173000   0.99414643   -6.4455926    62.519863  0.030115541  0.032688521            5 
  174000    0.9869762   -6.4702882    62.869235  0.030109787  0.032584484            3 
  175000   0.96267189   -6.4853845     62.78595  0.029898071  0.032480483            7 
  176000    0.9922713   -6.5613322    62.809327  0.029739265  0.032374632            5 
  177000   0.98129907   -6.4931726    63.168035   0.02974013  0.032267896            5 
  178000   0.96885155   -6.4975802    63.118961  0.029550075  0.032162745            3 
  179000   0.99570606   -6.4921188    63.565495  0.029592875  0.032058172            4 
  180000   0.98279227   -6.5432745     63.50079  0.029398514  0.031952934            2 
  181000   0.98066889   -6.4834778    64.015266  0.029472958  0.031846902            2 
  182000   0.96355539   -6.5172529    64.091729   0.02934603  0.031742115            3 
  183000   0.99808932     -6.53539    64.277347  0.029270195  0.031640158            3 
  184000   0.98635811   -6.5224046    64.474663  0.029200481  0.031537704            4 
  185000   0.95377346   -6.5121727    64.644253  0.029119033  0.031432925            5 
  186000   0.97850577   -6.5063484    64.701123  0.028987958  0.031329635            2 
  187000   0.98113693   -6.5735341    64.797865  0.028876054  0.031224076           10 
  188000    0.9815957   -6.5305544    65.050717  0.028834538  0.031120411            4 
  189000   0.98499191    -6.519638    65.110087  0.028708151  0.031018245            8 
  190000   0.94000651   -6.5776274    65.611436  0.028776945  0.030917949            3 
  191000   0.96504461   -6.5278258    65.841522  0.028726668  0.030819053            6 
  192000   0.96313335   -6.5456866    65.732471  0.028529718  0.030717846            4 
  193000   0.95695076   -6.5562735    65.868628  0.028440685  0.030615791            8 
  194000    0.9599192   -6.5508117     66.32154  0.028488634  0.030515028            2 
  195000   0.94806052   -6.5641998    66.287683  0.028328069  0.030414829            4 
  196000   0.96224176   -6.5598214     66.61553  0.028322929  0.030314327           10 
  197000   0.98949868   -6.5524906    66.749547  0.028235849  0.030216652            4 
  198000   0.93841727   -6.5509601    66.884246  0.028149935  0.030118687            5 
  199000   0.96198157   -6.5940688    67.109027  0.028102608   0.03002096            3 
  200000   0.95822411   -6.5817318    67.516469  0.028131862  0.029924654            5 
  201000   0.93727568   -6.6085842    67.421134  0.027952377  0.029827499            4 
  202000   0.93754189   -6.6205339    67.207473  0.027725855  0.029729392            3 
  203000   0.93936325   -6.5954953    67.419032  0.027676121  0.029630036            7 
  204000   0.94594886    -6.568485     67.80602  0.027698538  0.029532226            6 
  205000   0.93216403   -6.6224833     67.78277  0.027553971  0.029434171           11 
  206000   0.91062344   -6.6290758    67.901046   0.02746806  0.029335543            7 
  207000   0.95148557   -6.6528461    67.829645   0.02730662  0.029235635            4 
  208000    0.9260785   -6.6266684    68.145957  0.027302066  0.029135654            2 
  209000   0.93180134   -6.6530805    68.186236  0.027187494  0.029035727            6 
  210000   0.91950729   -6.6148554    68.529723  0.027194334  0.028938415            6 
  211000   0.93828299   -6.6087253    68.801266  0.027172696  0.028842759            3 
  212000   0.92852853   -6.6198331    69.163309  0.027186835  0.028748517            7 
  213000   0.94020643   -6.6446022    69.064498  0.027020539  0.028656152            3 
  214000   0.94024185   -6.6451196    69.318516  0.026993192  0.028562619            3 
  215000   0.91199461   -6.6308887    69.683247  0.027009011    0.0284708            8 
  216000   0.91588472   -6.6526894    69.785627  0.026923467  0.028379083            4 
  217000   0.93258884   -6.6499296    69.895133  0.026841449  0.028288327            3 
  218000   0.91997409   -6.6421522    70.029833  0.026769814  0.028197958           13 
  219000   0.92893851   -6.6936011    70.047492  0.026654297  0.028107756           10 
  220000   0.91779135   -6.6655966    70.181387  0.026583859  0.028018072            5 
  221000   0.91480624   -6.6928936    70.401484  0.026546563  0.027928219            5 
  222000   0.89046175   -6.6705737    70.475029   0.02645459  0.027838435            5 
  223000   0.94789356   -6.7037209    70.570929  0.026371797  0.027748593            6 
  224000   0.92709402   -6.6806621    70.645778  0.026281911  0.027658317           11 
  225000   0.93623575   -6.6934866    70.592992  0.026145552  0.027567949            3 
  226000    0.9079004   -6.6857816    71.061914  0.026202771  0.027475913            6 
  227000   0.90800407   -6.6868078    71.051124  0.026083379  0.027385698            7 
  228000   0.91192708   -6.7418582    70.889722  0.025909986   0.02729509            3 
  229000   0.86949198   -6.7193605    71.314664  0.025951479  0.027205013            4 
  230000   0.89906152   -6.6876915    71.570296  0.025931267  0.027115675            5 
  231000   0.90301534   -6.6763734    71.821983  0.025909806  0.027027789            5 
  232000   0.89641914   -6.7369802    71.554643  0.025702099  0.026939143            7 
  233000   0.90495399   -6.7190177    71.720049  0.025650947  0.026851469            6 
  234000   0.89027848   -6.7677602     71.79751  0.025568914  0.026763795            5 
  235000   0.90712956   -6.7257518     72.51484  0.025714482  0.026679116            8 
  236000   0.88523499   -6.7196782    72.655584   0.02565522   0.02659657            5 
  237000   0.88081268   -6.7159644    72.888548  0.025628885  0.026515272            7 
  238000   0.89616648   -6.7243944    73.130719  0.025605994  0.026434338            5 
  239000   0.87499139   -6.7665849     73.01357  0.025458009  0.026352671            5 
  240000   0.88333138   -6.7683772    73.109713  0.025385317  0.026271225            9 
  241000   0.88465349   -6.7652757     73.27114  0.025335802  0.026189425           13 
  242000   0.86363694   -6.7440203    73.526202   0.02531894  0.026108108            8 
  243000   0.89323316    -6.754097    73.555821  0.025224904  0.026027759           12 
  244000   0.87912841   -6.7852688    73.517592  0.025108467  0.025948119           11 
  245000   0.88061851   -6.8003543    73.903832  0.025137358  0.025869027            8 
  246000   0.88867911   -6.7513808    74.267753  0.025158453  0.025790375            3 
  247000   0.86912247   -6.7908516    73.997429  0.024965394  0.025712418            7 
  248000   0.86621528   -6.7672369    74.113072  0.024903586  0.025633063            8 
  249000   0.88219561   -6.8342166    74.013695  0.024770313  0.025555033            5 
  250000   0.87365629   -6.7969223    74.123024  0.024707675  0.025475184           12 
  251000   0.86307828   -6.8125235    74.261022  0.024655054  0.025395532            8 
  252000   0.86929336    -6.792256     74.32515  0.024578423  0.025315092            2 
  253000   0.88340448   -6.7879191    74.374097  0.024497397  0.025235673            7 
  254000   0.87127197   -6.7874645    74.560564  0.024462127  0.025156684           17 
  255000   0.83931513   -6.8142171     74.78927  0.024440938  0.025078378           12 
  256000   0.85987399      -6.8395    74.821039  0.024355807  0.025000822           23 
  257000   0.86668499   -6.8151763    74.881991  0.024280801  0.024923829            5 
  258000   0.84912734   -6.8422752    75.151147  0.024273626  0.024846462            6 
  259000   0.85649987   -6.8248865    75.071829  0.024154385  0.024769006            5 
  260000   0.86283925   -6.8557621    75.016852  0.024043863  0.024690579            5 
  261000   0.84852224   -6.8450217    75.175726  0.024002467   0.02461196            6 
  262000   0.83893317   -6.8344274    75.192545  0.023916204  0.024533383            7 
  263000   0.85767045   -6.8909771    75.296251  0.023858128   0.02445555           10 
  264000   0.83756943   -6.8827078    75.302111  0.023769606  0.024377605            5 
  265000   0.85022201   -6.8898517    75.509254  0.023745048  0.024299685            3 
  266000   0.85839863   -6.8728403    75.468003  0.023642858  0.024221938            7 
  267000   0.82193238   -6.8986965    75.497477  0.023563507  0.024144267           11 
  268000   0.84940591   -6.9033506    75.588602  0.023503918  0.024066573           12 
  269000   0.84409065   -6.9169602    75.849264  0.023497294  0.023990027           13 
  270000   0.82816366   -6.9023825    75.736305  0.023375403  0.023913482            4 
  271000   0.84274675   -6.8688284    76.049601  0.023385486   0.02383791           10 
  272000   0.83885482    -6.903399    75.948261  0.023268462  0.023761942            7 
  273000   0.82776626   -6.8906633    76.227764  0.023268548  0.023686632            9 
  274000   0.82086966   -6.8934713    76.062407  0.023133335  0.023610857            5 
  275000   0.83732936   -6.9022465    76.303424   0.02312225  0.023536042            7 
  276000   0.82454613   -6.8980888    76.472149  0.023089417  0.023461721            6 
  277000   0.82367274   -6.9171196    76.363644  0.022973419  0.023386731            4 
  278000    0.8170777   -6.9225841    76.292287  0.022869391  0.023312319            8 
  279000   0.82246445   -6.9638405     76.34729   0.02280385  0.023237306           22 
  280000   0.83327667   -6.9530374    76.348794  0.022722855  0.023162447           10 
  281000   0.82968195   -6.9284215    76.658178  0.022733742    0.0230883            4 
  282000   0.81878062   -6.9447454    76.690685  0.022662732  0.023014095            8 
  283000   0.80225208   -6.9228212    76.718086   0.02259072  0.022940382            8 
  284000   0.82206212   -6.9283868    76.994328  0.022592232  0.022867229           12 
  285000   0.80869739   -6.9424547    77.023032  0.022521354  0.022793878            5 
  286000   0.81312261   -6.9509626    77.134799  0.022475175    0.0227211           19 
  287000   0.80058903   -6.9500776    77.087487  0.022383126  0.022648549            9 
  288000   0.81008586   -7.0067199    77.129255  0.022317493  0.022575997           26 
  289000   0.81868485   -6.9785347    77.280158  0.022283782  0.022503098            6 
  290000   0.80906064   -7.0259679    77.066763  0.022145622  0.022430316           12 
  291000   0.81633822   -7.0107455    77.169915  0.022099059  0.022357822           28 
  292000   0.80004666   -7.0116915    77.010706  0.021977941  0.022284862           28 
  293000   0.79203592   -7.0203109    77.054114  0.021915277  0.022212353           20 
  294000   0.81329907   -6.9883035    77.249002  0.021895976  0.022140075           25 
  295000    0.7884552   -7.0001494    77.264154  0.021826032   0.02206791            8 
  296000   0.80574508   -6.9760342    77.252932  0.021749136  0.021996278           21 
  297000   0.80148786    -6.996553    77.651581  0.021787761  0.021925227           10 
  298000   0.79783582   -7.0049966    77.554823   0.02168759  0.021854574           11 
  299000   0.79440126   -7.0515996    77.492025  0.021597554  0.021783444            7 
  300000   0.79666342   -7.0229244    77.565327  0.021545924  0.021712252            6 
  301000   0.79101031   -7.0315777    77.598513  0.021483531    0.0216418           10 
  302000   0.77982118   -7.0552085    77.555149  0.021400427  0.021571302            9 
  303000   0.79195177   -7.0465364    77.864476  0.021414872  0.021501312           12 
  304000    0.7970604   -7.0741579    77.622759  0.021278168  0.021431597            6 
  305000   0.76724095   -7.0282892    78.084931   0.02133468   0.02136244            9 
  306000   0.77074524   -7.0664724    78.283708  0.021319093  0.021293574           12 
  307000   0.76892479   -7.0896161     78.14128  0.021210988  0.021225103           14 
  308000   0.77783249   -7.0876702    78.291886  0.021182869  0.021156703           12 
  309000   0.76991097   -7.0608384    78.220897  0.021095172   0.02108835           10 
  310000   0.77721587   -7.0579836    78.254135  0.021036058  0.021019936           31 
  311000   0.76640952    -7.088063    78.121726  0.020932938  0.020951385            8 
  312000   0.77264554   -7.0878531    78.313341  0.020917025  0.020883094           10 
  313000   0.76779534   -7.0814676    78.145056  0.020805393  0.020815193            9 
  314000   0.77279287   -7.1012627     78.36129  0.020796521  0.020747325            6 
  315000     0.771127   -7.0824673    78.557261  0.020782344  0.020679663           10 
  316000   0.74735617   -7.1205709    78.430651  0.020683189  0.020612251           12 
  317000   0.77423857    -7.091298    78.631263  0.020670679  0.020545156           14 
  318000   0.74474548   -7.1036098    78.590246  0.020594928  0.020478683           24 
  319000   0.75476284   -7.1221729    78.724401  0.020565413  0.020412246           21 
  320000   0.75100807    -7.122668    78.637353  0.020478477  0.020345989           19 
  321000   0.73796981   -7.1514026    78.431019  0.020361116  0.020279485           14 
  322000   0.75935263    -7.143129    78.675439  0.020361138  0.020212661           15 
  323000   0.76381173   -7.1382053    78.636698  0.020288106  0.020146051            9 
  324000   0.75014818   -7.1496132     78.51048  0.020193025  0.020079833           24 
  325000   0.74576356    -7.129664    78.620672  0.020159147  0.020013363            8 
  326000   0.75635341   -7.1661785     78.51965  0.020071485   0.01994729           19 
  327000   0.75652969   -7.1755077    78.438301  0.019989373  0.019880829           21 
  328000   0.74263761   -7.1539894    78.730661  0.020002708  0.019814361           13 
  329000   0.75424371   -7.1722794    78.740911  0.019944506   0.01974867            7 
  330000   0.74463156   -7.1855382    78.616282  0.019852597  0.019682782            8 
  331000   0.74869028   -7.1953696     78.60906  0.019790801    0.0196168           14 
  332000   0.72480394   -7.2015587    78.686359  0.019750592  0.019550992           25 
  333000   0.74728002    -7.173313    78.683641  0.019690601  0.019485059           17 
  334000   0.73355882   -7.1839348    78.606944  0.019612511  0.019419695           15 
  335000   0.72791815   -7.2149106    78.733465  0.019585439  0.019353961           17 
  336000   0.72604718    -7.207403    78.515675  0.019473134  0.019288875           24 
  337000   0.73535459   -7.2251997     78.37204  0.019379832  0.019223418           18 
  338000   0.72372028   -7.2117318    78.728931  0.019410486  0.019158039           27 
  339000   0.71836297   -7.1989929    78.698925  0.019345852  0.019093561           24 
  340000   0.71561993   -7.2078708     78.68986   0.01928673  0.019029226           36 
  341000   0.72149809   -7.2512182    78.745475  0.019243762  0.018964853           23 
  342000   0.71590041   -7.2365379     78.64468  0.019162934  0.018900303           15 
  343000   0.70666887    -7.243264    78.670925  0.019113441  0.018836199           17 
  344000   0.71770784   -7.2636692     78.51568  0.019020271  0.018772321           17 
  345000   0.71399819   -7.2564114    78.793455  0.019032235  0.018708615           44 
  346000   0.71352129   -7.2635422    78.766309  0.018970691  0.018645319           20 
  347000   0.71121132   -7.2671365    78.728253  0.018906881  0.018582195           34 
  348000   0.71561243   -7.2449115    78.922633  0.018899098  0.018519225           13 
  349000   0.71197109   -7.2586462    78.773095  0.018809239  0.018456352           26 
  350000   0.69215469   -7.2690345    78.750397  0.018750095   0.01839371           18 
  351000   0.71082936   -7.2768302    78.947348  0.018743435  0.018331352           26 
  352000   0.68886272   -7.2718067    78.744302  0.018642117  0.018269131           36 
  353000   0.71300033   -7.2424142    78.936293   0.01863463  0.018207239           35 
  354000    0.7033038   -7.2520854    78.874122  0.018567354  0.018145881           22 
  355000   0.68440238   -7.2759826    78.885936  0.018517825  0.018084482           18 
  356000   0.71308693   -7.2640336     78.92178  0.018474199  0.018023482           36 
  357000   0.69329867   -7.2808279    79.036499   0.01844923  0.017962679           19 
  358000   0.70004549   -7.2725179    78.893198  0.018364338  0.017901613           19 
  359000   0.69789601   -7.2940479    78.728874   0.01827504  0.017840641           15 
  360000   0.69947466     -7.27687    79.098283  0.018309788  0.017779769           11 
  361000   0.68583762   -7.3065216    78.982043  0.018232235  0.017719327           17 
  362000   0.70794557   -7.3349908    78.856072  0.018152871  0.017658719           34 
  363000   0.69128488   -7.2974971    79.035021  0.018143944   0.01759845           47 
  364000   0.69485466   -7.2939141    78.885287  0.018059818  0.017538521           39 
  365000   0.66597554   -7.3075894    79.160947  0.018073276  0.017478807           62 
  366000    0.7059516   -7.3304705    79.019694  0.017991733  0.017419453           39 
  367000   0.67762531   -7.3342443    78.897814  0.017915035  0.017359983           55 
  368000   0.68174867   -7.3379752    79.074143  0.017906282  0.017300761           28 
  369000   0.67770664   -7.3534076    78.919812  0.017822902  0.017241581           23 
  370000   0.68313598   -7.3354963    79.058328   0.01780593  0.017182751           17 
  371000   0.67496379   -7.3645825    78.985734  0.017741629   0.01712431           32 
  372000   0.68168342    -7.323974    79.046216  0.017707486  0.017066081           54 
  373000   0.67008317   -7.3676189    78.924153  0.017632742  0.017008031           41 
  374000    0.6797096   -7.3434764    78.988413  0.017599914  0.016949996           39 
  375000   0.67265045   -7.3528157    78.884529  0.017529895  0.016891937           69 
  376000   0.67038294   -7.3675988    79.071106  0.017524625  0.016834259           30 
  377000   0.66279146   -7.3651617    79.027474  0.017468496  0.016776696           83 
  378000   0.66061688   -7.3759233     78.89423  0.017392908  0.016719686           78 
  379000   0.65746827   -7.3891647    78.897292  0.017347689  0.016662567           44 
  380000   0.64095793   -7.3810219    79.096242  0.017345667  0.016605711          106 
  381000   0.65682564   -7.3550387    78.907191  0.017258791  0.016549318           37 
  382000   0.66061827   -7.3815367    79.095396  0.017254667  0.016492965           54 
  383000   0.64912141   -7.4171615    78.886847   0.01716424  0.016436736           60 
  384000   0.66203254   -7.4346861    78.920343   0.01712681  0.016380436           52 
  385000   0.64522728   -7.4326302    78.900757  0.017078086  0.016324125           58 
  386000   0.64974019   -7.4316576    78.743844  0.016999966    0.0162681           54 
  387000   0.64507091   -7.4549828    79.045011   0.01702089  0.016212222           82 
  388000   0.66295563   -7.4443693    78.891899  0.016944136  0.016156265           60 
  389000   0.64992365    -7.464954    78.817693  0.016884681  0.016100557           55 
  390000    0.6437553   -7.4289833    78.915187  0.016862219  0.016045088          125 
  391000   0.64213844   -7.4507134    78.795244   0.01679353  0.015989822           18 
  392000   0.64517686   -7.4623699    78.686946  0.016727667  0.015934628           89 
  393000   0.63521946   -7.4773002    78.789273  0.016706801  0.015879534           36 
  394000   0.63825788   -7.4800422    78.772039  0.016660753  0.015824557           65 
  395000   0.63323557   -7.4593177    78.726174  0.016608897  0.015769654          129 
  396000   0.63615263   -7.4655207    78.738929   0.01656964   0.01571501          102 
  397000   0.63279875   -7.4474848    78.757912  0.016531888  0.015660698          131 
  398000   0.63170865   -7.4578249    78.673426   0.01647266  0.015606511           84 
  399000    0.6253287   -7.4551001     78.83308   0.01646472  0.015552602           73 
  400000   0.63086861   -7.4972817    78.694415   0.01639467  0.015498917          131 
  401000   0.63567762   -7.4827956    78.689997  0.016352867   0.01544528           73 
  402000   0.62143361   -7.4942866    78.627594  0.016299253  0.015391858          209 
  403000   0.61095022   -7.5016965    78.663971   0.01626633  0.015338676           63 
  404000   0.61775208   -7.5032384    78.705029  0.016234536  0.015285712           58 
  405000    0.6285888   -7.5382531    78.535635  0.016159596  0.015232846           59 
  406000   0.61606824   -7.5248935    78.754438  0.016164704  0.015180036          100 
  407000   0.61298125   -7.5110659    78.578752  0.016089015   0.01512758          149 
  408000   0.60929431    -7.539058    78.723659  0.016079179  0.015075297          174 
  409000   0.62334728   -7.5147485     78.59494  0.016013639  0.015023237           93 
  410000   0.60585417   -7.5337132    78.855952  0.016027633  0.014971297           91 
  411000   0.61471509   -7.5287565     78.77428  0.015972076  0.014919657          232 
  412000   0.61235331   -7.5403762    78.721785  0.015922691  0.014868134          111 
  413000   0.61331928    -7.553561    78.562973  0.015852093  0.014816808           91 
  414000    0.6020876   -7.5631608    78.520722  0.015805298   0.01476586           94 
  415000   0.60475886    -7.547471    78.773537  0.015817979  0.014715075           76 
  416000     0.594607   -7.5599912     78.59081  0.015743351  0.014664433          161 
  417000     0.600002   -7.5598262    78.705993  0.015728616  0.014613896          233 
  418000    0.6172182   -7.5511278    78.477661  0.015645467  0.014563459          107 
  419000   0.60323619   -7.5699666    78.520668   0.01561668  0.014513386           81 
  420000   0.60738463   -7.5740051     78.61689  0.015598589  0.014463363           63 
  421000   0.60173747   -7.5760139     78.57714   0.01555367  0.014413637           76 
  422000   0.59475736   -7.5615322    78.452004  0.015492102  0.014363917           64 
  423000    0.5885299   -7.5625584     78.41428  0.015448046  0.014314427          139 
  424000   0.58028413   -7.5786314    78.514919  0.015431391  0.014265063           57 
  425000   0.59051347   -7.6023187    78.453915  0.015383121  0.014215817           86 
  426000   0.58969262   -7.5969311    78.641297  0.015383665  0.014166858          101 
  427000   0.59378827   -7.5958033    78.441922  0.015308728  0.014118133           96 
  428000   0.59379181   -7.5884984     78.50011  0.015284289   0.01406953          144 
  429000    0.5845371   -7.5928221    78.475722  0.015243924  0.014021036          161 
  430000   0.58010172   -7.5847171    78.414153  0.015196541  0.013972697          173 
  431000   0.58668378    -7.616775    78.304597    0.0151401  0.013924466          147 
  432000   0.58775265   -7.5999648    78.435173  0.015130242  0.013876512          190 
  433000   0.57890254   -7.5897122    78.494669  0.015106749  0.013828757          118 
  434000   0.57449583   -7.6195046    78.257177   0.01502634  0.013781047          235 
  435000   0.57665814   -7.6293171    78.385479  0.015016375   0.01373353          160 
  436000   0.55713492   -7.6314903    78.237491  0.014953649  0.013686233          249 
  437000   0.57956202   -7.6099084    78.419293  0.014954098  0.013639222          153 
  438000   0.57015399   -7.6270758    78.371924  0.014910944  0.013592427          135 
  439000   0.56481569    -7.625487    78.314353   0.01486605  0.013545717          296 
  440000   0.55790894   -7.6408512    78.204393  0.014811438  0.013499254          243 
  441000   0.56147757   -7.6202616    78.419716   0.01481854   0.01345297          252 
  442000   0.55018375   -7.6247082    78.144717  0.014733167  0.013406763          131 
  443000   0.56895201   -7.6373262    78.206533  0.014711538  0.013360796           55 
  444000   0.55058171   -7.6508484    78.362643  0.014707703   0.01331489           95 
  445000   0.55415874     -7.64964    78.262179  0.014655839  0.013269266          104 
  446000   0.56207391   -7.6343849    78.311166  0.014632131   0.01322379          122 
  447000    0.5461235   -7.6568752    78.117696  0.014563329  0.013178526          103 
  448000   0.55272602   -7.6538198    78.125945  0.014532356  0.013133335          116 
  449000   0.54915756   -7.6716601    78.058337  0.014487442  0.013088322          268 
  450000   0.54874972   -7.6671653     78.07774  0.014458841  0.013043449          315 
  451000   0.54730291    -7.674836    78.193196  0.014448115  0.012998771          190 
  452000   0.54520572   -7.6691509     78.14126  0.014406575  0.012954244          249 
  453000   0.56041518   -7.6657391    78.035328  0.014355285   0.01290988          135 
  454000   0.54568001   -7.6807415    78.140788  0.014343023  0.012865744          141 
  455000   0.54057201   -7.6906377    78.066558  0.014297904  0.012821806          136 
  456000   0.53338653   -7.6962027    77.978259  0.014250413  0.012777937          207 
  457000   0.54277764   -7.6830849    78.073051  0.014236515  0.012734254          287 
  458000   0.53473453    -7.694397     78.06552  0.014204061  0.012690799          135 
  459000   0.54643714   -7.6988959    78.071298  0.014174164  0.012647504          355 
  460000    0.5353859   -7.6871942    78.008142   0.01413191  0.012604364          169 
  461000   0.53331492   -7.7059177    78.045254  0.014107963  0.012561459          259 
  462000   0.53027852   -7.6876571    78.025979   0.01407395  0.012518758           75 
  463000   0.53813861   -7.7042012    77.940956   0.01402825  0.012476236           80 
  464000   0.52791015   -7.6885713    78.144432   0.01403456  0.012433867          317 
  465000   0.52621535   -7.7172493    78.107386  0.013997739  0.012391725          158 
  466000   0.52688639   -7.7006458    77.998781   0.01394828  0.012349789          238 
  467000   0.51418583   -7.7319746    77.984773  0.013915912  0.012307969          246 
  468000   0.52385269   -7.7262925    77.917667  0.013874228  0.012266339          382 
  469000   0.51516393   -7.7204153     78.02233  0.013863243  0.012224858          327 
  470000    0.5267727   -7.7361342     77.93163  0.013817665  0.012183554          148 
  471000   0.52668729   -7.7449944    77.992545  0.013799106  0.012142419          219 
  472000   0.51358939   -7.7433882    78.010322  0.013773009  0.012101377          173 
  473000   0.51868137   -7.7358716     77.93485  0.013730594  0.012060553          314 
  474000   0.50568861   -7.7319765    77.989758   0.01371128  0.012019887          212 
  475000   0.49586762   -7.7340858    78.096457  0.013701133   0.01197936          274 
  476000   0.52100192   -7.7432448    77.784604  0.013617753  0.011939029          134 
  477000   0.50731026   -7.7633771    77.880446  0.013605948  0.011898812          172 
  478000   0.49334293   -7.7588929    77.744725  0.013553822  0.011858753          404 
  479000   0.50598681   -7.7546611    77.826948  0.013539831  0.011818818          308 
  480000   0.49808892   -7.7538614    77.902304  0.013524706  0.011779051          256 
  481000   0.49355537   -7.7409163    77.868472  0.013490726   0.01173948          426 
  482000   0.50482819   -7.7607127    77.763856   0.01344465  0.011699992          151 
  483000   0.49170782   -7.7522401     77.78628  0.013420683  0.011660675          304 
  484000   0.49402935   -7.7634376    77.839685   0.01340215  0.011621517          356 
  485000   0.50335874    -7.771941    77.746251  0.013358462  0.011582579          299 
  486000    0.4917767   -7.7571012    77.648903  0.013314284  0.011543777          330 
  487000   0.50640989   -7.7892735    77.866518  0.013324182  0.011505154          456 
  488000   0.49670715   -7.7985418    77.708601  0.013269911  0.011466654          450 
  489000   0.48432968    -7.766693    77.635024  0.013230236  0.011428322          160 
  490000   0.48994967    -7.775914    77.699407  0.013214185  0.011390169          435 
  491000   0.49193127   -7.7770065    77.720358  0.013190828  0.011352247          308 
  492000   0.47318987   -7.7975312    77.713303  0.013162822   0.01131441          263 
  493000   0.48949419   -7.7938776    77.757262  0.013143553  0.011276748          128 
  494000   0.48224124   -7.7953173    77.593311   0.01308929  0.011239221          387 
  495000   0.47339815   -7.7928034    77.613803  0.013066297   0.01120177          442 
  496000    0.4714002   -7.7939192    77.562693  0.013031366  0.011164566          150 
  497000   0.47429697   -7.7806198    77.716644   0.01303096  0.011127498          224 
  498000   0.47092028   -7.8008762    77.666887  0.012996467  0.011090607          324 
  499000   0.47957917   -7.7928571    77.659021  0.012969108  0.011053849          309 
  500000   0.46666382   -7.8098966    77.559543   0.01292659    0.0110172          429 
  501000   0.46248069   -7.8119938    77.547732  0.012898824  0.010980728          450 
  502000   0.46643482   -7.7981847    77.607061  0.012882978  0.010944377          434 
  503000   0.47693263   -7.8138549    77.715559  0.012875341  0.010908195          471 
  504000   0.44879585   -7.8234307    77.578823  0.012827186  0.010872181          266 
  505000   0.46699546   -7.8103123    77.619369  0.012808477  0.010836349          543 
  506000   0.45397613   -7.8244307     77.59614  0.012779338  0.010800665          333 
  507000   0.45773302   -7.8197697    77.621761  0.012758343  0.010765121          508 
  508000   0.45265079   -7.8136854    77.504778  0.012714038  0.010729665          500 
  509000   0.45383458   -7.8082591    77.557316  0.012697661  0.010694359          178 
  510000   0.44300925   -7.8545302    77.532985  0.012668788   0.01065917          295 
  511000   0.44983696   -7.8561847    77.454508  0.012631198  0.010624145          526 
  512000   0.45087004   -7.8544073    77.493623  0.012612894  0.010589287          193 
Loop time of 1306.45 on 48 procs for 500000 steps with 4000 atoms

Performance: 66133.338 tau/day, 382.716 timesteps/s
99.4% CPU use with 48 MPI tasks x no OpenMP threads

MPI task timing breakdown:
Section |  min time  |  avg time  |  max time  |%varavg| %total
---------------------------------------------------------------
Pair    | 94.976     | 101.99     | 111.63     |  33.3 |  7.81
Neigh   | 9.1477     | 9.4928     | 9.9452     |   6.2 |  0.73
Comm    | 84.676     | 93.737     | 99.867     |  33.7 |  7.17
Output  | 0.9704     | 0.97112    | 0.9943     |   0.3 |  0.07
Modify  | 1083.3     | 1087.9     | 1093.6     |   6.6 | 83.27
Other   |            | 12.32      |            |       |  0.94

Nlocal:        83.3333 ave          89 max          78 min
Histogram: 5 2 4 12 3 5 4 6 4 3
Nghost:        2411.00 ave        2427 max        2379 min
Histogram: 2 0 3 1 8 3 3 11 11 6
Neighs:        16772.1 ave       19066 max       14890 min
Histogram: 4 6 8 7 2 7 4 3 5 2
FullNghs:      33544.6 ave       35851 max       31224 min
Histogram: 3 2 6 8 7 5 5 5 4 3

Total # of neighbors = 1610142
Ave neighs/atom = 402.53550
Neighbor list builds = 26704
Dangerous builds = 0

#clear
#
#next RN
#
#jump SELF
Total wall time: 0:21:50
