
units lj                  # Use reduced LJ style units
atom_style atomic         # Uncharged point particles
atom_modify map hash      # Needed for indexing of clusters etc
                          # Used to be able to find where atoms are in relation to each other.

lattice fcc 1.0 spacing 1 1 1
Lattice spacing in x,y,z = 1.5874011 1.5874011 1.5874011
region box block 0 10 0 10 0 10 units lattice
create_box 2 box
Created orthogonal box = (0.0000000 0.0000000 0.0000000) to (15.874011 15.874011 15.874011)
  3 by 4 by 4 MPI processor grid
create_atoms 1 box
Created 4000 atoms
  using lattice units in orthogonal box = (0.0000000 0.0000000 0.0000000) to (15.874011 15.874011 15.874011)
  create_atoms CPU = 0.002 seconds
set type 1 type/fraction 2 0.71 78393
Setting atom values ...
  2865 settings made for type/fraction
mass 1 1.0
mass 2 1.0
pair_style lj/cut  3.5
pair_modify tail  yes
pair_coeff 1  1  1.0  1.0   # Intearaction between 1 and 1 set with epsilon = 1 and sigma = 1
pair_coeff 1  2  1.5  0.8
pair_coeff 2  2  0.5  0.88

write_data data.0
System init for write_data ...
Neighbor list info ...
  update every 1 steps, delay 10 steps, check yes
  max neighbors/atom: 2000, page size: 100000
  master list distance cutoff = 3.8
  ghost atom cutoff = 3.8
  binsize = 1.9, bins = 9 9 9
  1 neighbor lists, perpetual/occasional/extra = 1 0 0
  (1) pair lj/cut, perpetual
      attributes: half, newton on
      pair build: half/bin/atomonly/newton
      stencil: half/bin/3d
      bin: standard
WARNING: Not all mixed pair coeffs generated from mixing. Use write_data with 'pair ij' option to store all pair coeffs. (../write_data.cpp:312)


#############################
#   M E L T   S Y S T E M   #
#############################

velocity all create 2.4 5833274 mom yes dist gaussian # Assign velocities
                                                    # Temperature 2.4, random number seed, zero linear momentum
                                                                                # Gaussian distribution

timestep 0.002   # simulation timestep
thermo 1000       # output thermodynamic data every 1000 steps bf 100

# Define a fix  in this case with index 1 applied to all
# particles in the simulation. This fix is for simulations
# in the anisotropic NPT ensemble. Note that we use the MTK
# correction.
fix 1 all npt temp 2.4 2.4 0.1 iso 5.68 5.68 0.5 mtk yes tchain 5 pchain 5 # Use NPT ensemble
                                                                         # Set temperature and pressure and damping
                                                                         # Numbers of thermostats in chain and in barostat
run 10000          # run for 10000 steps
Per MPI rank memory allocation (min/avg/max) = 3.642 | 3.644 | 3.648 Mbytes
Step Temp E_pair E_mol TotEng Press Volume 
       0          2.4   -4.1166387            0   -0.5175387   -3.7043072         4000 
    1000    2.4067673   -3.7134294            0  -0.10418091    5.8832871    3646.5081 
    2000    2.3663909    -3.727824            0  -0.17912496    5.6910603      3660.71 
    3000    2.3797125   -3.7327013            0  -0.16402495     5.717001    3656.0945 
    4000    2.3982432   -3.6835677            0 -0.087102293    5.6229475    3691.1222 
    5000    2.4315329   -3.5962224            0  0.050165172    5.7496674    3730.7532 
    6000    2.4157187   -3.6943935            0   -0.0717213    5.4647081    3694.6601 
    7000    2.3874813   -3.6779061            0 -0.097579506    5.1600798    3729.1061 
    8000    2.4224978   -3.6329541            0 -0.00011581479    5.8436123    3698.8678 
    9000    2.3705075    -3.741916            0  -0.18704364     5.602472    3655.2838 
   10000     2.398019   -3.7475408            0  -0.15141148    5.6075545    3645.0121 
Loop time of 3.31176 on 48 procs for 10000 steps with 4000 atoms

Performance: 521777.105 tau/day, 3019.543 timesteps/s
99.2% CPU use with 48 MPI tasks x no OpenMP threads

MPI task timing breakdown:
Section |  min time  |  avg time  |  max time  |%varavg| %total
---------------------------------------------------------------
Pair    | 1.193      | 1.2594     | 1.3922     |   3.3 | 38.03
Neigh   | 0.21621    | 0.22439    | 0.24781    |   1.1 |  6.78
Comm    | 0.95319    | 1.139      | 1.2486     |   6.5 | 34.39
Output  | 0.00025331 | 0.00025767 | 0.00035559 |   0.0 |  0.01
Modify  | 0.5478     | 0.67327    | 0.8388     |   7.5 | 20.33
Other   |            | 0.0155     |            |       |  0.47

Nlocal:        83.3333 ave          92 max          73 min
Histogram: 1 6 0 4 10 7 8 5 4 3
Nghost:        1749.27 ave        1780 max        1708 min
Histogram: 1 1 4 6 4 5 12 10 1 4
Neighs:        10464.5 ave       12340 max        9025 min
Histogram: 4 4 6 5 9 9 6 3 0 2

Total # of neighbors = 502294
Ave neighs/atom = 125.57350
Neighbor list builds = 909
Dangerous builds = 235

# Equilibrate just above the melting temperature to avoid step fn in T

fix 1 all npt temp 1.25 1.25 0.1 iso 5.68 5.68 0.5 mtk yes tchain 5 pchain 5
run 2000
Per MPI rank memory allocation (min/avg/max) = 3.644 | 3.646 | 3.649 Mbytes
Step Temp E_pair E_mol TotEng Press Volume 
   10000     2.398019   -3.7475408            0  -0.15141148    5.6075545    3645.0121 
   11000    1.2577696   -5.4251542            0   -3.5389714    5.5888978    2817.9847 
   12000    1.2706962   -5.4448442            0   -3.5392764    5.8579102    2803.6801 
Loop time of 0.655474 on 48 procs for 2000 steps with 4000 atoms

Performance: 527252.104 tau/day, 3051.227 timesteps/s
99.6% CPU use with 48 MPI tasks x no OpenMP threads

MPI task timing breakdown:
Section |  min time  |  avg time  |  max time  |%varavg| %total
---------------------------------------------------------------
Pair    | 0.29083    | 0.32201    | 0.34759    |   2.6 | 49.13
Neigh   | 0.040512   | 0.043559   | 0.045824   |   0.7 |  6.65
Comm    | 0.21224    | 0.2404     | 0.27674    |   3.3 | 36.68
Output  | 5.0847e-05 | 5.2596e-05 | 6.6754e-05 |   0.0 |  0.01
Modify  | 0.041411   | 0.044518   | 0.047603   |   0.9 |  6.79
Other   |            | 0.004938   |            |       |  0.75

Nlocal:        83.3333 ave          95 max          77 min
Histogram: 5 8 7 9 8 5 3 2 0 1
Nghost:        2082.73 ave        2124 max        2062 min
Histogram: 4 7 13 8 8 4 0 3 0 1
Neighs:        13600.1 ave       16181 max       11974 min
Histogram: 4 4 10 13 4 5 5 2 0 1

Total # of neighbors = 652804
Ave neighs/atom = 163.20100
Neighbor list builds = 143
Dangerous builds = 7

#############################
# L I N E A R  Q U E N C H  #
#############################

# Define solid atoms. This closely follows ten Wolde  Ruiz-Montero and Frenkel  Faraday Discuss  1996  104  93-110
# Compute components of the per-atom q6 vector
compute q6 all orientorder/atom degrees 1 6 components 6 nnn NULL cutoff 1.3 # compute the Q6 parameter.
                                                                             # Use all neighbours within 1.3 unit cell.

# get number of connections
compute coord_number all coord/atom orientorder q6 0.5

# An atom is solid if it has 8 or more connections (of a possible 14)
variable is_solid atom c_coord_number>=8
group solid dynamic all var is_solid    # Must be dynamic to update
dynamic group solid defined

# do clustering
compute cluster solid cluster/atom 1.3 # Create a cluster where all atoms within are solid and max 1.3 units from another member

# define chunks one chunk per cluster
compute clus_chunks solid chunk/atom c_cluster nchunk every compress yes  # Says which atoms are in which chunk

# count the size of each chunk
compute size_chunks solid property/chunk clus_chunks count


# Find the maximum entry in the vector of chunk sizes
variable max_n equal max(c_size_chunks)


# Thermo style which includes this variable
# thermo_style custom step temp pe vol v_max_n

thermo ${N}  # Print the thermo information every 100 steps
thermo 1000  

# Reset the npt fix at a lower temperature (below freezing)
fix 1  all npt temp  ${temp} ${temp}  0.1  iso  5.68  5.68  0.5  mtk yes tchain  5  pchain  5
fix 1  all npt temp  0.45 ${temp}  0.1  iso  5.68  5.68  0.5  mtk yes tchain  5  pchain  5
fix 1  all npt temp  0.45 0.45  0.1  iso  5.68  5.68  0.5  mtk yes tchain  5  pchain  5

dump dmp2 all dcd ${N} traj.dcd
dump dmp2 all dcd 1000 traj.dcd


compute msd all msd com yes
variable twopoint equal c_msd[4]/6/(step*dt+1.0e-6)
fix 9 all vector 10 c_msd[4]
variable fit equal slope(f_9)/6/(10*dt)
thermo_style custom step temp pe c_msd[4] v_twopoint v_fit v_max_n

fix 1 all npt temp 1.25 ${temp} 0.1 iso 5.68 5.68 0.5 mtk yes tchain 5 pchain 5
fix 1 all npt temp 1.25 0.45 0.1 iso 5.68 5.68 0.5 mtk yes tchain 5 pchain 5
run 2000000 # 5000000  # Run for this many steps
Neighbor list info ...
  update every 1 steps, delay 10 steps, check yes
  max neighbors/atom: 2000, page size: 100000
  master list distance cutoff = 3.8
  ghost atom cutoff = 3.8
  binsize = 1.9, bins = 8 8 8
  4 neighbor lists, perpetual/occasional/extra = 1 3 0
  (1) pair lj/cut, perpetual
      attributes: half, newton on
      pair build: half/bin/atomonly/newton
      stencil: half/bin/3d
      bin: standard
  (2) compute orientorder/atom, occasional
      attributes: full, newton on
      pair build: full/bin/atomonly
      stencil: full/bin/3d
      bin: standard
  (3) compute coord/atom, occasional
      attributes: full, newton on
      pair build: full/bin/atomonly
      stencil: full/bin/3d
      bin: standard
  (4) compute cluster/atom, occasional
      attributes: full, newton on
      pair build: full/bin/atomonly
      stencil: full/bin/3d
      bin: standard
Per MPI rank memory allocation (min/avg/max) = 9.841 | 9.848 | 9.855 Mbytes
Step Temp PotEng c_msd[4] v_twopoint v_fit v_max_n 
   12000    1.2706962   -5.4448442 4.1227843e-30 2.8630445e-32 8.3333333e+20            2 
   13000    1.2358926   -5.5210233   0.64376077 0.0041266714  0.053167792            3 
   14000    1.2467073   -5.5433844    1.2608202 0.0075048818  0.052781807            2 
   15000    1.2543109   -5.5383913    1.8564729  0.010313738   0.05174959            3 
   16000    1.2714966    -5.510293    2.4490276  0.012755352  0.050722773            2 
   17000    1.2215717   -5.4805957    3.0640054  0.015019634  0.050677209            2 
   18000    1.2466045   -5.5104518     3.704612  0.017150981  0.050442036            3 
   19000    1.2332384     -5.53531    4.2818796  0.018780173  0.050463384            3 
   20000    1.2221489   -5.4962817    4.8894309  0.020372628   0.05046087            2 
   21000     1.233516   -5.5122977    5.4663452  0.021691846  0.050494834            4 
   22000    1.2618272   -5.5643159    6.0531845  0.022928729  0.050572586            4 
   23000    1.2265536   -5.4942043    6.6804506  0.024204531  0.050420276            1 
   24000    1.2436816    -5.549538    7.2991542  0.025344285   0.05038848            3 
   25000     1.238532    -5.537166    8.0022176  0.026674058  0.050520282            6 
   26000     1.241261   -5.5006582    8.6448765  0.027707937  0.050699771            2 
   27000    1.2532336   -5.5177519    9.3483503  0.028852932  0.050994975            1 
   28000    1.2504997   -5.5632587    9.8758168  0.029392311  0.051241764            2 
   29000    1.2239025   -5.5604788    10.522687  0.030237606   0.05136461            3 
   30000    1.2281216   -5.5294717     11.17949  0.031054139  0.051458815            2 
   31000    1.2259156   -5.6135698    11.694972  0.031438096  0.051539209            2 
   32000    1.2437767   -5.5126402    12.358958  0.032184785  0.051532512            2 
   33000    1.2381006   -5.5083952    12.856934  0.032467005  0.051442205            2 
   34000    1.2394713   -5.5449471    13.409808  0.032867176   0.05135442            2 
   35000    1.2408266   -5.5788952    14.007019  0.033350045  0.051235668            1 
   36000      1.22704    -5.519031    14.552855  0.033687163  0.051109096            2 
   37000    1.2315684   -5.5399623    15.124893  0.034065075  0.050948322            2 
   38000     1.223241   -5.5128223    15.614628  0.034242604  0.050794184            2 
   39000    1.2197142   -5.5205918    16.193349  0.034601173  0.050608131            3 
   40000     1.230903   -5.5367609    16.848062  0.035100129  0.050441241            1 
   41000    1.2723312   -5.5543113    17.453333  0.035474253  0.050351139            1 
   42000    1.2213462   -5.5269649    18.130303  0.035972824  0.050286159            5 
   43000    1.2277424    -5.535151    18.732415  0.036303129  0.050253117            3 
   44000    1.2249177   -5.5425156    19.396304  0.036735423  0.050201995            3 
   45000    1.2402674   -5.4958415    20.067856  0.037162697  0.050195956            3 
   46000    1.2250016   -5.5559187    20.747583    0.0375862  0.050220445            5 
   47000    1.2567014   -5.5602961     21.39841  0.037940443  0.050274305            1 
   48000    1.2456522   -5.5391429    21.813104  0.037869972  0.050322817            2 
   49000    1.2398609   -5.5241903    22.403349  0.038100933  0.050313794            2 
   50000    1.2152263   -5.5259282    23.051479  0.038419131  0.050311863            2 
   51000    1.2272883   -5.5834946    23.572625  0.038517361  0.050304229            2 
   52000    1.2342184   -5.5698531    24.099071  0.038620306  0.050265428            3 
   53000    1.2487634   -5.5583794    24.611559  0.038697419  0.050206399            3 
   54000    1.2478129   -5.5425623    25.157456  0.038823235  0.050138308            3 
   55000     1.239897   -5.5471051    25.888343  0.039224762  0.050096301            2 
   56000    1.2196383   -5.5440416     26.55821  0.039521146    0.0500719            1 
   57000    1.2519522   -5.5633164     27.02402  0.039508801   0.05004324            2 
   58000    1.2106908   -5.5511226     27.83613  0.039994439  0.050046114            2 
   59000    1.2420754   -5.5863524    28.313716  0.039991124  0.050071472            1 
   60000    1.2385456   -5.5213992    28.974464  0.040242311  0.050063991            3 
   61000    1.2246405   -5.5522844     29.48112  0.040274754  0.050033241            7 
   62000    1.2083111   -5.5157683    30.149417   0.04052341  0.050009891            7 
   63000    1.2194972   -5.5622051    30.529557  0.040383011  0.049984638            2 
   64000    1.2238902    -5.550265    31.073299  0.040460024  0.049945216            2 
   65000    1.2170475   -5.5537932    31.611759  0.040527895   0.04989036            2 
   66000     1.246021   -5.5137691    32.196286  0.040651876  0.049834655            4 
   67000    1.2317208   -5.5598835    32.909357  0.040932036  0.049802529            2 
   68000    1.2328575   -5.5274291    33.858293  0.041493006  0.049809548            4 
   69000    1.2398483   -5.5501256    34.289402  0.041412321  0.049828462            2 
   70000     1.258807   -5.5553892     34.83101  0.041465488  0.049815129            5 
   71000    1.2490522   -5.5420475    35.449005  0.041606813  0.049805579            3 
   72000    1.2364908   -5.5465929    35.992589  0.041658089  0.049790642            3 
   73000    1.2246239   -5.5535146      36.6619  0.041851483  0.049788886            6 
   74000    1.2224051   -5.5869809    37.446398  0.042169367  0.049810719            3 
   75000      1.20779   -5.5466031    38.100395  0.042333772  0.049841481            3 
   76000    1.2443866   -5.5468355    38.802399   0.04254649   0.04988436            2 
   77000    1.2013912   -5.5286826    39.344233  0.042580338   0.04991541            4 
   78000    1.2059871   -5.6173774    39.854468   0.04257956  0.049934747            3 
   79000    1.2035351   -5.5710027    40.316891  0.042528366  0.049936043            2 
   80000    1.2215089   -5.5629935     41.01944  0.042728583  0.049936631            3 
   81000    1.2379557     -5.58969      41.4277   0.04262109  0.049935905            4 
   82000    1.2407423   -5.5816382     41.94126  0.042623231  0.049934521            2 
   83000    1.2156922   -5.5815015    42.555836  0.042726742  0.049927644            1 
   84000    1.1897852   -5.5827612    43.098778  0.042756724   0.04992363            2 
   85000    1.2294295   -5.5716765    43.861475  0.043001446  0.049914855            2 
   86000    1.2326618   -5.5513068     44.49029  0.043110746  0.049908365            2 
   87000    1.2034664   -5.5787742    45.202282  0.043297204  0.049904587            3 
   88000    1.2325208    -5.590213    45.672583  0.043250552  0.049900699            5 
   89000    1.2239163   -5.5689692    45.928825  0.043004518  0.049880908            2 
   90000     1.199658   -5.5562002     46.63237   0.04317812   0.04985162            2 
   91000    1.2188374   -5.5972041     46.82785  0.042882647  0.049818424            1 
   92000    1.1960125   -5.5684098    47.492356  0.043018438  0.049788996            7 
   93000    1.2178431   -5.5481612    48.212741  0.043201381    0.0497499            2 
   94000    1.2067549   -5.5901516    48.762941  0.043229557  0.049720805            2 
   95000     1.230461   -5.6086301     49.42009  0.043350956  0.049700831            3 
   96000    1.2081159   -5.5910196    49.851179  0.043273592  0.049675873            3 
   97000    1.2229236   -5.6009713    50.609532  0.043478979  0.049653648            5 
   98000    1.2149156   -5.5897284    51.436303  0.043738352  0.049634614            3 
   99000    1.2005029   -5.6139136     51.60413   0.04343782  0.049611795            5 
  100000    1.2145633   -5.5858756    52.398436  0.043665363   0.04958968            2 
  101000    1.2227861    -5.558005     52.85148  0.043606832  0.049565674            4 
  102000    1.2139433   -5.5725562    53.443474  0.043662969  0.049543565            2 
  103000    1.2260482   -5.5988725    53.924875  0.043628539  0.049520019            4 
  104000    1.2356566   -5.5845346    54.547681  0.043708078  0.049500293            3 
  105000    1.2205102   -5.5783861    54.804975  0.043496012  0.049460355            3 
  106000     1.221983   -5.5974918    55.441322  0.043585945  0.049414157            5 
  107000    1.1968573   -5.5670448     55.97927  0.043597562  0.049371233            2 
  108000    1.1930197   -5.5622644    56.617123  0.043686052  0.049336974            2 
  109000    1.1876141   -5.5606362    57.185923  0.043720125  0.049300167            2 
  110000    1.2144136   -5.5612494    57.886396   0.04385333  0.049265929            3 
  111000     1.207993   -5.5625624    58.344452  0.043802141  0.049231713            2 
  112000    1.2023847   -5.6007487    58.652976  0.043640607  0.049194962            2 
  113000    1.2201997   -5.5870258     59.06537  0.043558533  0.049158566            2 
  114000    1.1822088   -5.5727776    59.895099  0.043782967  0.049128931            3 
  115000    1.2005134    -5.587809    60.728321  0.044006029  0.049108465            5 
  116000    1.2196097   -5.6056228    61.084101  0.043882256   0.04908862            3 
  117000    1.1991861   -5.6495392    61.577864  0.043858878  0.049060559            3 
  118000    1.2315361   -5.5880708    62.260799   0.04396949  0.049029445            2 
  119000    1.1961421   -5.5290119    63.053296  0.044154969   0.04899972            4 
  120000    1.2212043   -5.6160509    63.258849  0.043929756  0.048975975            5 
  121000    1.2230892   -5.6210688    64.130864  0.044167261  0.048949567            2 
  122000    1.2067296   -5.5871067    64.663887  0.044169322  0.048918901            3 
  123000    1.2109129   -5.6116129    64.724568  0.043851333  0.048882979            2 
  124000    1.2086992   -5.5904791    65.423555  0.043967443  0.048848197            5 
  125000    1.1963977   -5.6207982    65.801009  0.043867339  0.048813756            3 
  126000     1.196663   -5.6221454    66.854954  0.044216239  0.048784007            3 
  127000    1.2032381   -5.6189683    67.156143  0.044065711  0.048760897            1 
  128000    1.1926549   -5.6078947    67.560391  0.043984629  0.048728967            4 
  129000    1.2128861   -5.5722493    68.469276  0.044230799  0.048700268            1 
  130000    1.2111449   -5.6122763    68.703808  0.044040903  0.048676043            5 
  131000    1.2132884    -5.597546    69.214852  0.044029804  0.048641653            4 
  132000     1.218653   -5.5618708    69.640979  0.043965264  0.048602388            4 
  133000    1.1754212   -5.6212536    69.981434  0.043848016  0.048567056            3 
  134000    1.1844464   -5.6549559    70.876219   0.04407725  0.048528671            7 
  135000    1.1918333   -5.5975345    71.676365   0.04424467  0.048502048            2 
  136000    1.1684408   -5.5829469    72.179567  0.044227676   0.04847775            4 
  137000     1.241922   -5.6065877    72.676778  0.044207286  0.048453512            4 
  138000    1.1993546   -5.5675244    73.589467  0.044438083  0.048434535            5 
  139000    1.1972275   -5.5967308    74.114419  0.044433105  0.048420161            5 
  140000    1.2155805   -5.6026358    74.688122  0.044457216  0.048404936            1 
  141000     1.164302   -5.5970363    75.043457  0.044351925  0.048387243            2 
  142000    1.1997557   -5.6329608    75.566827  0.044346729   0.04836671            3 
  143000     1.208452    -5.626597    76.348695  0.044492246  0.048349565            1 
  144000    1.2237281   -5.6472144    76.783173  0.044434707  0.048336253            3 
  145000    1.2013127    -5.607252    77.284885    0.0444166  0.048321226            3 
  146000    1.1892559   -5.6119439    78.130689  0.044595142  0.048311475            2 
  147000    1.1755592   -5.6055689    78.400326  0.044444629  0.048299329            2 
  148000    1.1943862   -5.5954041    79.107036   0.04454225  0.048282898            4 
  149000    1.1978728   -5.5935871    79.858904  0.044663816  0.048269184            3 
  150000    1.2123544   -5.6000325    80.249379  0.044582988  0.048253438            2 
  151000     1.178105   -5.6112061    80.947147  0.044672818  0.048237426            2 
  152000    1.2072263   -5.6475815    81.419009  0.044637614  0.048224617            1 
  153000     1.183323    -5.604614    81.731614  0.044516129  0.048209685           11 
  154000    1.2012107   -5.6209843    83.113508  0.044974842  0.048199012            7 
  155000    1.1823812   -5.6001207    83.686679  0.044992838  0.048194886            2 
  156000    1.1907484   -5.6204994    83.981639  0.044861986   0.04819081            2 
  157000    1.2005335   -5.6233687     84.56333  0.044884995  0.048188658            2 
  158000    1.2098971   -5.6696141    84.558587  0.044598411  0.048184384            6 
  159000    1.2125398   -5.6472686    85.708195  0.044920437   0.04817583            2 
  160000    1.1661615   -5.5952463    86.215497  0.044903904  0.048167574            3 
  161000    1.1877649   -5.6379857    86.652898  0.044851396  0.048155349            2 
  162000    1.1812733   -5.6158204    86.839108  0.044670323  0.048141164            5 
  163000    1.2023553    -5.609056    87.635187  0.044803265  0.048126304            2 
  164000    1.1798575   -5.6927977    87.758784  0.044592878  0.048110339            2 
  165000    1.2116459   -5.6125881    88.829453   0.04486336  0.048095919            3 
  166000    1.2069947   -5.6096388    89.189009  0.044773599  0.048081753            2 
  167000    1.1876626   -5.6552372    89.585979  0.044703582  0.048065819            3 
  168000    1.1796838   -5.6329891    90.006897  0.044646278  0.048053228            5 
  169000    1.1463277   -5.6142754    91.055105  0.044898967  0.048038682            2 
  170000    1.1964811   -5.6732206    91.318197  0.044763822   0.04802747            4 
  171000     1.175216   -5.6465402    92.288901  0.044975098  0.048020982            2 
  172000    1.2156702   -5.6333976     92.84743   0.04498422   0.04801562            2 
  173000    1.2012412   -5.6721372    93.177249  0.044883068  0.048007233            2 
  174000    1.1917446   -5.6528208    93.756415  0.044902498   0.04799766            2 
  175000    1.1977571   -5.6322494    94.168471  0.044842129  0.047988132            5 
  176000    1.1637367   -5.6501145    94.763656  0.044869155  0.047973022            2 
  177000    1.1717897   -5.6260893    95.477378  0.044951684  0.047960371            4 
  178000    1.1804511   -5.7037074    95.706278   0.04480631  0.047950171            2 
  179000      1.18066   -5.6254459    96.699543  0.045018409  0.047937245            3 
  180000    1.1787341   -5.6517664    97.239368  0.045018226  0.047930052            1 
  181000    1.1919629    -5.641767    97.708101  0.044985314  0.047919646            3 
  182000    1.1784323   -5.6560649    98.191852  0.044959639  0.047912928            3 
  183000    1.1744475   -5.6607487    98.808049  0.044994557  0.047904116            2 
  184000    1.1759433   -5.6548572    98.847822  0.044768035   0.04788987            3 
  185000    1.1964376   -5.6470805    100.22364  0.045145783  0.047880741            2 
  186000    1.1738393   -5.6706086    100.78036   0.04515249  0.047873482            2 
  187000    1.1572393   -5.6601162    100.89822  0.044963555  0.047863009            1 
  188000    1.1715408   -5.6132508     102.1166  0.045264449  0.047852077            2 
  189000    1.1507082   -5.6484164    102.20991  0.045066099  0.047845923            4 
  190000    1.1790145   -5.6500625    103.22545  0.045274319  0.047837482            4 
  191000    1.1882583   -5.6292649    103.86237  0.045315171  0.047834926            3 
  192000    1.1775826   -5.6545567     104.1636  0.045209894  0.047831546            1 
  193000    1.1627557   -5.6384734    104.15482  0.044971854  0.047825617            3 
  194000    1.1878705   -5.6224989    105.51649  0.045324953  0.047820409            2 
  195000    1.1889794   -5.6663884     105.8899  0.045252094  0.047819919            2 
  196000    1.1704565   -5.6978837    106.55132  0.045302433  0.047818417            3 
  197000    1.1671391   -5.6662962    107.51164  0.045478699  0.047816563            1 
  198000    1.1692337   -5.6869168    107.67218  0.045316575  0.047816535            3 
  199000    1.1871955   -5.6760416    108.55069  0.045456736  0.047815873            3 
  200000    1.1650012   -5.6882078     108.8935  0.045372291  0.047817213            3 
  201000     1.172242   -5.6715976    109.38272  0.045349386  0.047811676            2 
  202000    1.1645791   -5.7152506    109.17583  0.045039535  0.047807088            2 
  203000    1.1699544    -5.670978    110.29563  0.045277351  0.047801383            4 
  204000    1.1690007   -5.7108364    110.59686  0.045178455  0.047798028            7 
  205000    1.1827629   -5.6615621    111.67891   0.04539793  0.047794503            3 
  206000    1.1648695   -5.6849176    112.09135  0.045344399  0.047791685            3 
  207000    1.1900276   -5.6455549    113.00391  0.045492719  0.047788005            1 
  208000    1.1551038    -5.667237    113.23914  0.045368245  0.047785462            2 
  209000    1.1851525   -5.7157667    113.69709   0.04533377  0.047783388            1 
  210000    1.1612897   -5.6942028    113.97245  0.045227161  0.047777078            2 
  211000     1.174986   -5.6355124    114.91718  0.045385931  0.047772503            3 
  212000    1.1487031   -5.6940605    114.93983  0.045180752  0.047765922            2 
  213000    1.1669138   -5.6733287    115.58821  0.045222303   0.04776068            3 
  214000    1.1803392   -5.6561668    116.58843  0.045400477  0.047755039            6 
  215000    1.1823671   -5.7115412     116.9438  0.045327053     0.047749            1 
  216000    1.1475498   -5.7002415    117.39322  0.045290593  0.047742095            2 
  217000    1.1656568   -5.6707673    118.27952  0.045422242  0.047735944            4 
  218000    1.1574979   -5.7069237    118.26691  0.045209063  0.047728572            2 
  219000    1.1578682   -5.7203135    118.71249  0.045172179  0.047715342            2 
  220000    1.1571136   -5.6634841    119.32786  0.045199947  0.047702887            2 
  221000    1.1606898   -5.6587065    119.68267  0.045129212  0.047691492            4 
  222000    1.1714946   -5.6868556    120.21938  0.045127395  0.047680254            2 
  223000     1.179001   -5.6846645    120.79243  0.045139175  0.047667558            3 
  224000    1.1668721   -5.6394443    121.76114  0.045298042  0.047656298            1 
  225000    1.1507651   -5.7087139    121.81828  0.045117883  0.047643251            2 
  226000    1.1534149   -5.7343803    122.40251  0.045133667  0.047631912            2 
  227000    1.1650728   -5.6584444    123.03506  0.045167054  0.047618687            2 
  228000    1.1525581   -5.6817328     123.3025  0.045066702  0.047604491            5 
  229000    1.1582542   -5.6813112    124.59602   0.04534062  0.047590072            2 
  230000    1.1713358   -5.7212105    124.17807  0.044992053  0.047574419            3 
  231000    1.1559092   -5.6981513     124.3692  0.044866235  0.047558031            3 
  232000    1.1753919   -5.7290019    125.18265  0.044965033   0.04754274            2 
  233000    1.1840138   -5.7093433    126.15358  0.045119305  0.047526603            4 
  234000    1.1758168   -5.6844697    126.28355  0.044972774  0.047510455            3 
  235000    1.1862668   -5.6559285    127.23551  0.045118975  0.047494373            3 
  236000    1.1774468   -5.6952474    127.21614  0.044920954  0.047477796            1 
  237000     1.154917   -5.6995773    127.69765   0.04490072  0.047459484            2 
  238000    1.1607721   -5.6759246    128.76156   0.04508458  0.047443059           12 
  239000    1.1495627   -5.7327345    128.70799  0.044877264  0.047424848            2 
  240000    1.1414944   -5.6965196    129.45518  0.044949716  0.047407866            2 
  241000    1.1706698   -5.6986455    130.17366  0.045011638   0.04739099            3 
  242000    1.1370092   -5.7248934    130.39582  0.044902141  0.047374409            6 
  243000    1.1328752   -5.7200499    131.53021  0.045106383  0.047359397            3 
  244000    1.1485064   -5.7009614    131.50547  0.044913072  0.047343954            2 
  245000    1.1452853   -5.7274814    131.44853  0.044710384  0.047326608            1 
  246000     1.162793    -5.765034    132.11162  0.044753259  0.047308672            2 
  247000    1.1753787   -5.6740346    133.33218  0.044983866  0.047290959            3 
  248000    1.1676986   -5.6873663    134.00649  0.045029061   0.04727633            3 
  249000    1.1498127   -5.7181151     134.3242  0.044954552  0.047259743            3 
  250000     1.147725   -5.7172652    134.14459  0.044714864   0.04724058            4 
  251000    1.1430572   -5.7053686    135.29069  0.044917226  0.047221497            2 
  252000    1.1804295   -5.6757803     135.5604  0.044828175   0.04720421            1 
  253000    1.1620965    -5.758262    135.50805  0.044633744  0.047184832            4 
  254000    1.1545018   -5.7288028    136.30953  0.044720973  0.047164097            4 
  255000      1.14301   -5.7204012    137.04883  0.044787198  0.047144657            3 
  256000    1.1546321   -5.7547822    137.31973  0.044700432  0.047126714            4 
  257000    1.1453551   -5.6806746    137.39643   0.04455137  0.047104707            3 
  258000    1.1558123   -5.7178766    137.69322  0.044474553  0.047082075            6 
  259000    1.1592422   -5.7267009    138.05718  0.044419943  0.047057768            2 
  260000    1.1569407    -5.739696    138.33977  0.044339669  0.047034502            4 
  261000     1.145675   -5.7107085    139.19882  0.044444066  0.047006503            3 
  262000    1.2072693   -5.7373278    139.20524  0.044276476  0.046979296            6 
  263000    1.1443848   -5.6964782    139.74209  0.044278228   0.04695236            3 
  264000    1.1398166   -5.7122867    140.62174  0.044388177  0.046926061            3 
  265000    1.1325938   -5.7481366     140.4881  0.044178646  0.046897998            3 
  266000     1.156686    -5.708767    142.13825  0.044529528  0.046873621            2 
  267000     1.161402   -5.6776765    142.41833  0.044450166  0.046850278            1 
  268000    1.1651786   -5.7159503     142.5391  0.044321859  0.046826894            5 
  269000     1.144977   -5.7470165    143.21922  0.044367787  0.046801499            4 
  270000    1.1422606   -5.6992635     143.3454  0.044242406  0.046774394            3 
  271000    1.1573549   -5.7637371    143.71711  0.044193452  0.046747188            2 
  272000    1.1381179   -5.7227286    144.28357  0.044204524  0.046721382            2 
  273000    1.1764634   -5.7463042    144.50291  0.044109558  0.046693532            2 
  274000    1.1502808   -5.7455408    145.05033  0.044115062  0.046664573            3 
  275000    1.1454713   -5.7188301    145.19885  0.043999652  0.046634261            2 
  276000    1.1341785   -5.7395126    145.15936   0.04382831  0.046602815            4 
  277000    1.1347134   -5.7364662    146.04243   0.04393575  0.046571462            3 
  278000    1.1586664   -5.7210946     147.0521  0.044080366   0.04654002            3 
  279000    1.1327009    -5.758823    146.70435  0.043818505  0.046508824            4 
  280000    1.1466351     -5.70521    147.49259  0.043896605  0.046476063            3 
  281000    1.1436206   -5.7075852    147.84178  0.043843944  0.046442469            3 
  282000    1.1555147   -5.7554004    147.76771  0.043666582  0.046409486            2 
  283000    1.1526236   -5.7298574    148.56576  0.043747279  0.046377516            2 
  284000    1.1638643   -5.6804449    149.89279  0.043982626  0.046346595            4 
  285000    1.1595074   -5.7236601    150.11574   0.04389349  0.046316683            5 
  286000    1.1636207    -5.719718    150.87666   0.04396173  0.046287219            9 
  287000    1.1515957   -5.7290756    151.28435  0.043926929  0.046260186            3 
  288000    1.1361987   -5.7373437    151.42675  0.043815611  0.046232106            4 
  289000    1.1507339   -5.7614669    152.12903  0.043866504  0.046204191            6 
  290000    1.1352995   -5.7654939    151.87268  0.043641575  0.046173884            3 
  291000    1.1449462   -5.7302888    152.51053  0.043674265  0.046143443            2 
  292000    1.1331727   -5.7486948     153.2168  0.043726257  0.046112909            2 
  293000      1.14334   -5.7481157    153.10604  0.043545519  0.046083558            3 
  294000     1.118744   -5.7068924    154.39307  0.043762208  0.046052732            1 
  295000     1.149621   -5.7761548    153.85779  0.043462653  0.046022219            2 
  296000    1.1164985   -5.7492001    154.70243  0.043553611  0.045991835            2 
  297000    1.1096509   -5.7757887     155.0561    0.0435062  0.045960303            3 
  298000     1.148434   -5.7487387    155.63234  0.043521347  0.045930431            2 
  299000    1.1491109    -5.742234    156.19338  0.043532156  0.045899158            5 
  300000    1.1204073   -5.7512727    156.18792  0.043385534  0.045868088            7 
  301000    1.1231675   -5.7617876    156.93935  0.043449433  0.045836166            7 
  302000    1.1426196   -5.7722298    157.92655  0.043577967  0.045806998            1 
  303000    1.1286432    -5.780658    157.93025  0.043435163  0.045777271            4 
  304000    1.1347076    -5.745802    158.63585  0.043485704  0.045747103            1 
  305000    1.1387933    -5.764602    159.42378   0.04355841  0.045716367            3 
  306000    1.1036109   -5.7508762    158.79187  0.043243973  0.045686667            4 
  307000    1.1317887   -5.7413376    159.72006  0.043355065  0.045656413            6 
  308000    1.1606342   -5.8016333    159.98976  0.043287273  0.045625387            2 
  309000    1.1486038   -5.7411106    160.15555  0.043191895  0.045594164            3 
  310000    1.1354602   -5.7079897    161.21197  0.043336552  0.045564421            3 
  311000      1.12012   -5.7940978    161.38488  0.043243537  0.045534894            3 
  312000     1.147308   -5.7177125    162.43637  0.043385783  0.045506158            3 
  313000     1.119821   -5.7622422     162.8496  0.043357188  0.045477365            2 
  314000    1.1226168   -5.7585793    163.37773  0.043359271  0.045450448            3 
  315000    1.1338361   -5.7516439     164.1409  0.043423519  0.045423153            4 
  316000    1.1370511   -5.8035632    164.41814  0.043359214  0.045396873            4 
  317000    1.1282791    -5.780381    164.96789  0.043366953   0.04537013            3 
  318000    1.1340198   -5.7702155    165.90752  0.043476813  0.045344469            3 
  319000    1.1359479   -5.7488616    166.23565  0.043426242  0.045320746            1 
  320000    1.1389367   -5.7826366    165.96991  0.043221331  0.045295824            2 
  321000    1.1310637   -5.7398547    166.77174  0.043294845  0.045270086            2 
  322000    1.1146054   -5.7831504    167.02372  0.043225601  0.045242921            3 
  323000    1.1320754    -5.793365    166.88591  0.043056221  0.045215543            4 
  324000    1.1173584   -5.7577705    168.02866  0.043217248  0.045188989            4 
  325000    1.1149965   -5.7760445    168.63702   0.04324026  0.045164024            3 
  326000    1.1328933   -5.7569885    169.46692  0.043319764  0.045139226            4 
  327000      1.10635    -5.832508    169.07795  0.043088163  0.045113717            3 
  328000    1.1073297   -5.7892072    169.26903  0.043005343  0.045087651            4 
  329000    1.1045615   -5.7816902    170.38168  0.043156454  0.045061231            8 
  330000    1.1291265   -5.7505564    170.49301  0.043053792  0.045035258            2 
  331000    1.1172375    -5.795289     171.5484  0.043189426  0.045010807            3 
  332000    1.1223243   -5.7829573    171.18918  0.042969172  0.044983866            4 
  333000    1.1023297   -5.7864988    172.05403  0.043056563  0.044956663            2 
  334000    1.1360736   -5.7734932    172.68395  0.043084817  0.044929542            2 
  335000    1.1073299   -5.7798076    172.68448  0.042956338  0.044903762            4 
  336000    1.1159788   -5.7653072    172.85179  0.042869987  0.044877195            4 
  337000    1.1078398   -5.7443023    173.89743  0.043001342  0.044849971            4 
  338000    1.1445298   -5.7932976    174.33474  0.042981939  0.044823621            1 
  339000    1.1222557   -5.7465326    173.91103   0.04275099  0.044795342            2 
  340000    1.1482081   -5.7801587     174.7216  0.042823921  0.044766599            3 
  341000      1.13716   -5.7701388    175.85618  0.042975606  0.044739646            5 
  342000      1.11753   -5.8395863     174.4091  0.042497345  0.044711811            2 
  343000    1.0922889   -5.7886913    176.20287  0.042809248  0.044685693            4 
  344000    1.1140327   -5.7632778    177.51249  0.043002056  0.044661938            1 
  345000    1.1081757   -5.7637185    178.51952  0.043120657  0.044637743            6 
  346000    1.0975539   -5.8249512    177.31076  0.042704904  0.044612959            2 
  347000    1.1211307   -5.8056962    178.67593  0.042909686  0.044587633            3 
  348000    1.0992791   -5.8134155      177.984  0.042620688  0.044560349            3 
  349000    1.1198839   -5.7724469    179.02615   0.04274741  0.044532808            1 
  350000    1.1269098   -5.8248248    178.70837  0.042549611  0.044506613            3 
  351000      1.11662   -5.7919696    180.34939  0.042817994  0.044481107            2 
  352000    1.1277032   -5.8083487    180.14136  0.042647103  0.044455322            1 
  353000    1.1103123   -5.8203113    180.92396  0.042711039   0.04442967            1 
  354000    1.0958651   -5.7967898    181.53199   0.04273352  0.044403396            7 
  355000    1.1231869   -5.8165223    181.52182  0.042610755  0.044378053            2 
  356000    1.1077026    -5.834732    182.24756  0.042660946  0.044350523            3 
  357000    1.1344664   -5.8386103     182.3085  0.042555672  0.044323559            3 
  358000    1.1279731   -5.8229136    182.37216  0.042451621  0.044296367            4 
  359000    1.1148362   -5.7961804     182.8951  0.042454758  0.044269436            4 
  360000    1.1191967   -5.8374211    183.55132  0.042488731   0.04424211            1 
  361000    1.1016324   -5.8303031    183.65372  0.042394673  0.044214389            4 
  362000    1.1007357    -5.815617    184.32597  0.042432314  0.044187101            2 
  363000     1.137643   -5.7989897    185.06228  0.042484453  0.044161554            2 
  364000    1.0783845   -5.8035369    185.59749  0.042490268  0.044134814            3 
  365000    1.0990094   -5.7705239    186.45756  0.042570218  0.044109127            1 
  366000    1.1165211    -5.803554    185.91385  0.042330111  0.044083276            1 
  367000    1.1281789   -5.8171048    186.35631  0.042315239  0.044056848            4 
  368000    1.1111518   -5.7652708    186.63636  0.042263669  0.044029715            2 
  369000    1.1275288   -5.7713969    187.66923  0.042382393  0.044002963            3 
  370000    1.1115386    -5.765267    187.87275  0.042313682  0.043976811            3 
  371000    1.1081466   -5.8004003    187.96634  0.042220652  0.043950927            2 
  372000    1.1146041   -5.8193871    188.38568  0.042201094  0.043923784            3 
  373000    1.1012678   -5.8331311    188.49925  0.042113327  0.043897596            4 
  374000    1.1219923   -5.8087825    189.41608  0.042205009  0.043870148            2 
  375000    1.0982103   -5.8400046    188.99819  0.041999598  0.043841718            3 
  376000    1.1125362   -5.7982663    189.50998  0.042001325  0.043812773            4 
  377000     1.106627   -5.8437863    190.37733  0.042081638  0.043785209            2 
  378000    1.1009203   -5.8168148    191.60259  0.042240431   0.04375922            4 
  379000     1.072537   -5.8239876    191.17586  0.042035149  0.043732437            2 
  380000    1.1211885   -5.8330909    192.37549  0.042187606  0.043704967            2 
  381000      1.12423   -5.8255479    191.91973  0.041977194  0.043678786            3 
  382000    1.0929721   -5.8112255    192.94534  0.042091043   0.04365342            4 
  383000    1.0956281   -5.8261596     193.2848  0.042055004  0.043627642            3 
  384000    1.1006618   -5.8218254    192.90546  0.041863165  0.043601883            4 
  385000      1.12536   -5.8145874    193.91998  0.041974021  0.043574887            3 
  386000    1.1052537   -5.7953378    194.76952  0.042048687  0.043548078            3 
  387000    1.0995718   -5.8048233    194.50343  0.041882737  0.043520447            4 
  388000    1.1139107   -5.8396785    193.90453  0.041646162  0.043491409            6 
  389000    1.1008603   -5.8320871    195.76308  0.041937249  0.043464089            6 
  390000     1.109187   -5.8233141    194.89784  0.041644837  0.043436773            2 
  391000    1.0799375   -5.7810035    196.27235  0.041831276  0.043409523            5 
  392000    1.0975711   -5.8077072    196.46244  0.041764975  0.043381302            2 
  393000    1.0975589    -5.851033    196.97968  0.041768379   0.04335425            3 
  394000    1.1040798   -5.7908725    197.66396  0.041807099  0.043327623            5 
  395000    1.1049865   -5.8413448    197.38732  0.041642893  0.043299853            3 
  396000     1.115563   -5.8255892      198.286  0.041726852    0.0432728            2 
  397000     1.103078     -5.84795     198.2775  0.041619962  0.043246871            1 
  398000    1.1115441   -5.8475862    198.78063  0.041620735  0.043218776            5 
  399000    1.0976834   -5.8569123    199.02441  0.041567336  0.043192148            4 
  400000    1.0781905   -5.8681204    199.37618  0.041536705  0.043164686            3 
  401000    1.1057468   -5.8208763    199.43791  0.041445949  0.043137074            2 
  402000    1.0736031   -5.8290769    200.04024  0.041467711  0.043108648            1 
  403000    1.0971187   -5.8825649    200.05799  0.041368485  0.043080146            4 
  404000    1.0683772   -5.8046252    201.66087  0.041596714  0.043052012            4 
  405000    1.0958577   -5.7918191    201.60593  0.041482701  0.043024552            2 
  406000     1.086431   -5.8388527    202.07084  0.041475952   0.04299604            3 
  407000    1.0855746    -5.884824    201.67086  0.041292149  0.042968389            4 
  408000    1.1084007   -5.8804562    202.73548  0.041408391  0.042940498            2 
  409000    1.0887737   -5.8720373    202.11097  0.041179904  0.042912282            4 
  410000    1.0912796   -5.8680482    202.97726  0.041255542   0.04288387            5 
  411000    1.0923246   -5.8619163    203.84767  0.041331645  0.042856392            6 
  412000    1.0929211   -5.8556199    203.91504  0.041244951  0.042829909            7 
  413000    1.1169745   -5.8923765    204.20186  0.041202959  0.042802665            5 
  414000    1.0838199   -5.8241416     204.6964  0.041202979  0.042775431            1 
  415000    1.0685609   -5.8735629     205.2272  0.041210282  0.042747886            2 
  416000     1.092772   -5.8795783    205.48149  0.041162157  0.042719573            5 
  417000     1.074676   -5.8224614    206.31057  0.041229131  0.042692928            3 
  418000       1.0798   -5.8342809    206.97293  0.041262547  0.042666918            4 
  419000    1.0974518   -5.8570875    206.69135  0.041108065  0.042640068            2 
  420000    1.0823305   -5.8982281    207.01605  0.041074613  0.042613409            3 
  421000    1.1124515    -5.869224    208.02878   0.04117751  0.042586487            3 
  422000    1.0931469   -5.8605159    207.47764  0.040971097  0.042560076            3 
  423000     1.077098   -5.8460902    208.56415  0.041088288  0.042533813            3 
  424000    1.0532958   -5.8818289    208.41165   0.04096141  0.042508829            4 
  425000    1.0939558   -5.8790003    208.49999   0.04088235  0.042482342            5 
  426000    1.1067853    -5.893286    209.24095  0.040931329  0.042455647            3 
  427000    1.0614906   -5.8490303    209.95263  0.040974361  0.042428511            4 
  428000    1.0899266   -5.8897629    209.82986  0.040854724  0.042401698            4 
  429000    1.0643444   -5.8760883     209.9834  0.040789317  0.042375264            2 
  430000    1.0706863   -5.9117797     210.6833  0.040830096  0.042348543            2 
  431000    1.0825465   -5.8637114    211.96301  0.040982793  0.042322428           12 
  432000    1.0797734   -5.8645812    211.94861  0.040885149  0.042294176            3 
  433000    1.0818276   -5.8703899    211.92616  0.040786405   0.04226643            5 
  434000    1.0677025   -5.8770633    212.34846  0.040773515  0.042238757            2 
  435000     1.084064   -5.8911384    212.35798  0.040681606   0.04221109            7 
  436000    1.0629708   -5.8784679    213.29053  0.040766539  0.042182149            3 
  437000    1.1015471   -5.8773297    213.10952  0.040638733  0.042154474            5 
  438000    1.0794319   -5.8418475     214.5998  0.040829491   0.04212815            2 
  439000    1.0941283   -5.8704453    214.46459  0.040710819  0.042101193            5 
  440000    1.0782227   -5.8738824    214.87058  0.040695186  0.042074177            3 
  441000    1.0731404   -5.8831214    214.87311  0.040603384  0.042047534            3 
  442000    1.1091532   -5.9258271    215.60315  0.040649162  0.042020906            5 
  443000    1.0873011   -5.9082218    215.28052  0.040496711  0.041994169            3 
  444000    1.0796717   -5.8957015    215.88447  0.040518858  0.041967678            3 
  445000    1.0516824   -5.8216017    217.71737  0.040771044  0.041941678            4 
  446000    1.0747898   -5.8919332    216.95989  0.040538095  0.041914976            2 
  447000    1.0815911   -5.8656753    216.55097  0.040371172  0.041887365            5 
  448000    1.0841497   -5.9193607    216.77356  0.040322462  0.041859358            4 
  449000    1.0572107   -5.8939243    217.49188  0.040365976  0.041831606            4 
  450000    1.1042148   -5.8845259      218.307  0.040427222  0.041803807            3 
  451000    1.0825088   -5.9415867    218.01031  0.040282762  0.041776531            4 
  452000    1.0781405   -5.9284951    218.17783  0.040224526  0.041748574            3 
  453000     1.097908    -5.914516    218.94071   0.04027607  0.041720572            5 
  454000    1.0797913    -5.871357    219.94806  0.040372257  0.041692616            5 
  455000     1.078208   -5.8723989    220.16597  0.040323438  0.041665963            3 
  456000    1.0553543    -5.867897    220.92361  0.040373466  0.041639378            2 
  457000    1.0694993   -5.8721576    221.26664  0.040347674  0.041613525            3 
  458000    1.0769898   -5.8886633    221.61115  0.040322261  0.041587589            8 
  459000     1.055854   -5.9010604    222.08371  0.040320209    0.0415633            4 
  460000    1.0842662   -5.9185906    222.91007  0.040382258  0.041538824            4 
  461000    1.0738418   -5.9133369    222.35584  0.040194475  0.041513512            5 
  462000    1.0682494   -5.8939986    223.80471  0.040368815  0.041487755           11 
  463000    1.0795719   -5.8969063    223.03688  0.040143428  0.041461687            3 
  464000    1.0703185   -5.9121617    223.20223  0.040086608  0.041435211            3 
  465000    1.0603798   -5.9069117    223.89693  0.040124897  0.041408652            3 
  466000    1.0805283   -5.8770605    224.33656   0.04011741  0.041382286            3 
  467000    1.0766151   -5.8797548    224.86797  0.040126332  0.041356406            7 
  468000    1.0707337   -5.9208575      225.007  0.040065349  0.041329858            2 
  469000    1.0726175   -5.8998355    225.40939   0.04005142  0.041302117            3 
  470000    1.0610068   -5.8976706    225.27657  0.039942655  0.041276296            5 
  471000    1.0691367   -5.9152804     226.8718  0.040140092  0.041249952            3 
  472000    1.0534817   -5.9070552    226.48178   0.03998619  0.041223564            5 
  473000    1.0626009   -5.9048116    227.03071  0.039998364  0.041196933            2 
  474000    1.0694432   -5.9154877    227.13971  0.039933142  0.041170201            4 
  475000      1.06039   -5.8656151    227.45551  0.039904476  0.041144184            4 
  476000    1.0638267   -5.8998928    228.08834  0.039931432   0.04111798            2 
  477000     1.062489   -5.9300264    227.61903  0.039765729  0.041091194            3 
  478000    1.0470208    -5.902032    228.68738  0.039868789  0.041063261            5 
  479000    1.0490992   -5.9256572    228.69882  0.039787547  0.041036241            2 
  480000    1.0367536   -5.9383419    228.75116  0.039713743  0.041009638            6 
  481000    1.0722076    -5.913686    229.66162  0.039788915   0.04098256            5 
  482000    1.0445102    -5.925392    229.41762   0.03966418  0.040955432            2 
  483000    1.0694217   -5.9174369    230.76966  0.039815332  0.040928526            2 
  484000     1.083517   -5.9480001    230.96081   0.03976598  0.040902688            3 
  485000    1.0532451   -5.8578895    231.90463  0.039846157  0.040877113            4 
  486000    1.0564514   -5.9743594    231.31335  0.039662784  0.040851926            4 
  487000     1.070422   -5.9325176    232.03409   0.03970467  0.040826408            5 
  488000    1.0599014   -5.9519933    231.23774  0.039487319   0.04080053            3 
  489000    1.0437242   -5.9172792    232.84896  0.039681146  0.040774415            3 
  490000    1.0688397   -5.9622109     232.5976  0.039557415  0.040748585            6 
  491000    1.0362189   -5.9201573    233.26353  0.039589873  0.040722676            7 
  492000    1.0599064   -5.9148846    234.05584  0.039643604  0.040696985            3 
  493000    1.0696952   -5.9085818    233.87869  0.039533247  0.040671222            7 
  494000    1.0687989   -5.9434649    234.04282  0.039480908  0.040645055            6 
  495000    1.0593871   -5.9071025     235.5055   0.03964739   0.04061901            3 
  496000    1.0579741   -5.9444078    233.99536  0.039313737  0.040592521            4 
  497000    1.0391555   -5.9036574    235.24649  0.039444415  0.040566026            5 
  498000    1.0411635   -5.9803557     234.8503  0.039298913  0.040540147            3 
  499000    1.0714557   -5.9322841     235.4339  0.039317619  0.040513093            3 
  500000    1.0595541   -5.9334608    235.84227  0.039307045  0.040487031            4 
  501000    1.0633079   -5.9427014    236.91881  0.039407653  0.040460746            2 
  502000    1.0197535   -5.9408126    236.73885  0.039299278   0.04043451            8 
  503000    1.0287687   -5.9558874    237.08367  0.039278274  0.040408388            2 
  504000    1.0907163   -5.9607739    237.82045  0.039322164   0.04038281            5 
  505000    1.0535132   -5.9135341    238.30456  0.039324184  0.040356844            5 
  506000    1.0379077   -5.9760941     238.8054  0.039328953   0.04033106            4 
  507000      1.05381   -5.9157155     238.3195  0.039171516  0.040305509            2 
  508000     1.065463   -5.9463555    239.28414  0.039252647  0.040280605            2 
  509000    1.0595928   -5.9136539    240.43383  0.039363757  0.040256325            3 
  510000    1.0678661   -5.9421785    240.07504  0.039227948  0.040230862            4 
  511000    1.0661152   -5.9535968    239.92262  0.039126325  0.040205172            4 
  512000    1.0453455   -5.9613437    240.23127  0.039100142  0.040180444            6 
  513000    1.0521906   -5.9232421    241.05517  0.039157759   0.04015542            6 
  514000    1.0376177   -5.9267971    241.51496  0.039156122  0.040130464            4 
  515000    1.0474062   -5.9521236    241.39757  0.039061095  0.040104812            3 
  516000    1.0358444   -5.9114752    242.00396  0.039083326  0.040079176            7 
  517000    1.0565122   -5.9644906    241.99329  0.039006011  0.040053687            5 
  518000    1.0541752   -5.9347973    242.73677  0.039050317  0.040028269            6 
  519000    1.0550743   -5.9470507    242.71572  0.038971695  0.040002942            4 
  520000    1.0452975   -5.9337472    243.09282  0.038957183  0.039977591            3 
  521000    1.0484914   -5.9504168    243.74877  0.038987328  0.039952641            2 
  522000    1.0414319   -5.9745803    243.68393  0.038902288  0.039927449            3 
  523000    1.0510749   -5.9767049    244.34772   0.03893367  0.039902478            4 
  524000    1.0567814    -5.962375    244.13539  0.038825603  0.039877701            4 
  525000    1.0367446   -5.9865199    244.19911  0.038761763  0.039851816            4 
  526000    1.0399953   -5.9711191    244.38542  0.038717588  0.039826375            3 
  527000    1.0503039   -5.9655142    245.37724  0.038800956  0.039800723            3 
  528000    1.0496748   -5.9855119    245.02227  0.038671444  0.039775693            2 
  529000    1.0108833   -5.9550546    245.90873  0.038737986  0.039750348            4 
  530000    1.0331777    -5.948024    247.07751  0.038848665  0.039725066            5 
  531000     1.033824   -5.9336471    247.49682  0.038841309  0.039699905            3 
  532000    1.0394198   -5.9651406    246.57323  0.038623627  0.039674123            3 
  533000    1.0551252   -5.9583502    247.25455  0.038657685  0.039648857            2 
  534000    1.0346695   -5.9735212    247.38706   0.03860597  0.039622574            2 
  535000    1.0605792   -5.9517072    247.79519  0.038597382  0.039597049            5 
  536000    1.0331836   -5.9668452    248.47385  0.038630885  0.039571392            3 
  537000    1.0426848   -6.0012833    248.37393   0.03854344  0.039545345            6 
  538000    1.0536525   -5.9479066    248.91968  0.038556332  0.039518991            3 
  539000     1.035667   -5.9564441    249.69616  0.038604849  0.039493702            2 
  540000    1.0411595   -5.9702682    249.46743  0.038498061  0.039468215            2 
  541000    1.0259638   -5.9506494    250.53171  0.038590837  0.039444091            2 
  542000    1.0654003   -5.9405667     250.7017  0.038545771  0.039419448            6 
  543000    1.0578288    -5.958107     251.3388   0.03857256  0.039394876            2 
  544000    1.0164774    -5.961167    251.59439  0.038540807  0.039370488            8 
  545000     1.030146   -5.9779152     250.9708   0.03837474  0.039345635            5 
  546000    1.0471989   -5.9654238    252.23867  0.038497965  0.039320701            5 
  547000    1.0226923   -5.9649694    252.02318  0.038394757  0.039296802            5 
  548000    1.0096397   -5.9839749    252.38774   0.03838013  0.039272301            3 
  549000     1.059015   -5.9734327    252.28211  0.038294188  0.039248237            3 
  550000     1.028504   -5.9844392    253.02105  0.038336522  0.039224388            4 
  551000    1.0455703   -5.9909751     253.6675  0.038364716  0.039200403            2 
  552000    1.0467745    -5.998278    252.95763  0.038188047  0.039175911            6 
  553000    1.0483289    -6.032955     252.7266  0.038084177  0.039150539            3 
  554000    1.0408406   -5.9712979    253.31004  0.038103194  0.039124774            3 
  555000    1.0257356   -5.9818749     254.5809  0.038225361  0.039099334            5 
  556000    1.0263916   -5.9921611     254.2067  0.038100524  0.039074994            3 
  557000    1.0338305   -6.0015042    254.87203  0.038131662  0.039050085            4 
  558000    1.0248255   -5.9661588    255.11003  0.038098869  0.039024639            4 
  559000    1.0410514   -5.9887414    255.74579   0.03812549  0.038999535            5 
  560000    1.0250639    -5.978768    255.95256  0.038088178  0.038973698            3 
  561000    1.0416211   -5.9679108    256.05124  0.038034943    0.0389487            4 
  562000    1.0247101   -5.9683107    255.84513  0.037936704  0.038923532            4 
  563000    1.0239789   -6.0342164    255.81678  0.037865124  0.038897952            3 
  564000    1.0075044   -5.9798975    256.37843  0.037880973  0.038872197            2 
  565000   0.99999934   -6.0444891    256.55853  0.037840491  0.038846566            4 
  566000    1.0397927   -5.9763366    257.81588  0.037958757  0.038820853            4 
  567000    1.0271691   -6.0257309    256.61247  0.037714943  0.038794962            3 
  568000     1.045241   -6.0408242    257.87726  0.037834106  0.038768745            5 
  569000   0.99989368   -5.9817284    258.39659  0.037843671  0.038743163            3 
  570000    1.0281267   -6.0002712    259.62561  0.037956961  0.038718107            5 
  571000    1.0260903   -6.0186009    259.59431  0.037885918  0.038693353            2 
  572000    1.0275412   -6.0114466    259.23913  0.037767938  0.038668928            2 
  573000    1.0293655   -5.9814384    260.58108  0.037897191   0.03864455            2 
  574000     1.033849   -5.9913279    261.10773  0.037907626  0.038620749            3 
  575000    1.0136886   -5.9657788    261.23342  0.037859916  0.038596491            3 
  576000    1.0165555   -5.9960138    261.14988    0.0377821  0.038572514            4 
  577000    1.0244082   -6.0159331     260.6149  0.037639355  0.038548109            5 
  578000    1.0250395   -6.0039679    261.47614  0.037698406  0.038523676            2 
  579000    1.0151402   -6.0395956    261.61288  0.037652976  0.038498773            6 
  580000    1.0317687   -6.0300426    261.31819  0.037545717  0.038474221            4 
  581000    1.0194156   -5.9936901    262.71222  0.037681041  0.038450299            2 
  582000    1.0133933   -6.0059866    262.89816  0.037642921  0.038426233            4 
  583000    1.0285248   -6.0639991    262.20194  0.037478837  0.038401598            6 
  584000    1.0098094   -5.9520417    264.32483  0.037717585  0.038377996            2 
  585000   0.99997146   -6.0128999     264.5102  0.037679515  0.038353359            3 
  586000     1.034323   -6.0182945    263.72951  0.037504197  0.038329423            6 
  587000    1.0341559   -6.0063859    264.35465  0.037529053  0.038305031            4 
  588000     1.013499   -6.0158896    264.74402  0.037520411  0.038281012            3 
  589000    1.0261929   -6.0098673    264.39869  0.037407851   0.03825727            6 
  590000    1.0271123   -6.0044701    265.20802   0.03745876  0.038233303            4 
  591000    1.0178945   -6.0155349    265.97871  0.037504049  0.038209634            5 
  592000    1.0125036   -6.0228667    265.98874  0.037442109  0.038185545            3 
  593000    1.0421333   -6.0221099    265.44706  0.037302847  0.038161048            4 
  594000    1.0147115   -6.0092142    267.03248  0.037462469  0.038136752            2 
  595000    1.0129118   -6.0746252    266.95315  0.037388397  0.038112909            3 
  596000    1.0309473   -6.0377367    266.71044  0.037291728  0.038088353            5 
  597000    1.0107078   -6.0255019    267.35802  0.037319657  0.038063892            4 
  598000    0.9964559   -5.9982823    267.25606  0.037243041  0.038039056            6 
  599000    1.0148725   -6.0264677    267.37628  0.037197591  0.038014284            2 
  600000     1.035432   -6.0240504    267.65223  0.037173921   0.03798952            6 
  601000    1.0176987   -6.0487612    268.56356   0.03723843  0.037965355            3 
  602000    1.0176994   -6.0320319    268.40169  0.037154165   0.03794055            3 
  603000   0.99150741   -6.0243728    268.01238  0.037038747  0.037915073            4 
  604000    1.0016556   -6.0406728    268.18749  0.037001586  0.037890109            4 
  605000    1.0232879   -6.0351192    269.07149  0.037062189  0.037865132            2 
  606000    1.0318539   -5.9919197    271.28845  0.037305893   0.03784043            6 
  607000    1.0185574    -6.014396    269.86475  0.037048977   0.03781627            4 
  608000   0.99583914   -6.0440222    269.61241  0.036953455  0.037791274            4 
  609000    1.0057049   -6.0598733    269.58554    0.0368891  0.037766763            5 
  610000    1.0114828   -6.0271196    270.75594  0.036988517  0.037741944            3 
  611000    0.9794739   -6.0237806    271.33486  0.037006937  0.037717788            4 
  612000     1.015874   -6.0113581    271.73007  0.037000282  0.037693696            4 
  613000   0.99475874   -6.0699695    271.89627  0.036962517  0.037669969            4 
  614000    1.0091271   -6.0317519    272.55684  0.036991971  0.037646438            7 
  615000   0.99656357    -6.014601     273.6838  0.037084526  0.037623378            5 
  616000    1.0145551   -6.1053816    272.85337  0.036911982  0.037600438            3 
  617000    1.0112281   -6.0301647    273.83088  0.036984182  0.037577026            4 
  618000    1.0093547   -6.0244284    274.38049  0.036998448  0.037554002           11 
  619000    1.0161595   -6.0485086    274.05779  0.036895233  0.037530318            3 
  620000   0.99681372   -6.0551118    274.62736   0.03691228  0.037506884            3 
  621000   0.98055496   -6.0456981    274.47144  0.036831917  0.037483447            5 
  622000    1.0247159    -6.044665    275.04656  0.036849753  0.037460472            4 
  623000    1.0120679   -6.0482443    275.31037  0.036825893  0.037436885            2 
  624000    1.0029662    -6.073107    275.31505  0.036767501  0.037413443            3 
  625000   0.99093635   -6.0590811    275.53107  0.036737476  0.037389686            9 
  626000    1.0065529   -6.0422853    275.95045  0.036734617   0.03736585            2 
  627000     1.016124   -6.0694273    275.05614  0.036557169  0.037341926            3 
  628000   0.99559398   -6.0721225    275.10953  0.036506041    0.0373174            5 
  629000    0.9970101   -6.0111614    276.59278  0.036644513  0.037293031            3 
  630000    1.0166434   -6.0548285     276.6194  0.036589868  0.037269227            4 
  631000   0.97733393   -6.0215845    277.34518  0.036627731   0.03724509           10 
  632000   0.98699541   -6.0516557    277.52821  0.036593909  0.037221061            5 
  633000   0.98881787   -6.0495119    276.75334  0.036434089  0.037196673            2 
  634000    1.0103146   -6.0216034    278.67685  0.036629449  0.037172931            3 
  635000    1.0130503    -6.079444    277.18091  0.036375447  0.037149212            6 
  636000   0.99662747    -6.073608    277.48269  0.036357795  0.037124615            5 
  637000    1.0127653   -6.0901585    277.92739  0.036358895   0.03710009            2 
  638000    1.0139358   -6.0642756    278.61525  0.036391751  0.037075778            4 
  639000     1.000624   -6.0675563    279.41821  0.036439517  0.037051423            3 
  640000    1.0276835    -6.054184    279.71822  0.036421644  0.037027434            3 
  641000   0.99596773    -6.063275    279.76149  0.036370449  0.037003381            5 
  642000    1.0063193   -6.0362961    280.00661  0.036345613  0.036979598            2 
  643000    1.0008094   -6.0695773     280.8616  0.036399897  0.036956266            3 
  644000    1.0155216   -6.0882116    280.20859  0.036258875  0.036933018            5 
  645000   0.97724768   -6.1092231    280.54101  0.036245609  0.036908769            2 
  646000   0.98720907   -6.0707201    281.35396  0.036294371  0.036885152            6 
  647000   0.99037394   -6.0928774    281.22719  0.036221946  0.036860977            5 
  648000   0.99978328   -6.0903104    282.01418  0.036267256  0.036837477            4 
  649000   0.98589981   -6.0721099     282.6853  0.036297548  0.036814197            4 
  650000    1.0060965   -6.0855916    281.18033   0.03604876  0.036791222            4 
  651000     1.008569   -6.0553582     283.5341  0.036294687  0.036768194            2 
  652000   0.99899467   -6.0842916    282.80908  0.036146355  0.036745406            8 
  653000   0.98986498   -6.0748439     283.9894  0.036241628  0.036723039            3 
  654000   0.99167595   -6.0861419    284.26851  0.036221778  0.036700333            5 
  655000   0.98269783   -6.1362392    283.91973  0.036122103  0.036677507            3 
  656000   0.98919335   -6.0879296    284.68175  0.036163841  0.036655238            6 
  657000   0.98267845    -6.066159    284.56598  0.036094113  0.036632598            5 
  658000   0.97112357   -6.0615197    285.62701  0.036173633  0.036609795            3 
  659000   0.98848939   -6.0931047    284.73826  0.036006355  0.036587189            7 
  660000    1.0004667   -6.0644545    286.63403  0.036191165  0.036564966            9 
  661000    1.0121743   -6.0847081    285.49986  0.035993427  0.036542612            5 
  662000    1.0094524   -6.0480523    287.28247  0.036163453  0.036521051            2 
  663000   0.97794735   -6.0685692    288.19852  0.036224047  0.036499119            3 
  664000   0.97848776   -6.0814688    287.80061  0.036119555  0.036477533            3 
  665000   0.98876339   -6.0898955    286.98965  0.035963615  0.036455363            5 
  666000   0.98099051   -6.1074515    286.99359  0.035910109  0.036432846            4 
  667000   0.99963988     -6.11522    288.17468  0.036003834  0.036410443            5 
  668000   0.97730979   -6.0784957    289.65469  0.036134567  0.036388651            6 
  669000   0.97745598   -6.1040788    288.37852   0.03592159   0.03636684            5 
  670000   0.98633335   -6.1085188    287.90575  0.035809173  0.036344967            5 
  671000   0.97513768   -6.0799264    289.10471  0.035904708  0.036322617            5 
  672000   0.99244946   -6.0604384    289.95451  0.035956661   0.03630035            6 
  673000   0.97549408   -6.1090664    288.74995   0.03575408  0.036278078            4 
  674000   0.97370565    -6.062523    290.42718  0.035908405  0.036256415            3 
  675000   0.98470559   -6.1247588    290.40013  0.035851868  0.036234588            8 
  676000   0.97715431   -6.0791788    289.80226  0.035725131  0.036212626            6 
  677000   0.99691034   -6.0786242    290.77347  0.035791909  0.036190725            2 
  678000   0.99204668   -6.0942364    290.45235  0.035699649  0.036168475            5 
  679000   0.98209067   -6.0706161    290.55789  0.035660026  0.036146327            2 
  680000   0.98522873   -6.1240128    291.27044  0.035694907  0.036123465            8 
  681000   0.98545504   -6.1053336    291.26471  0.035641791  0.036100637            7 
  682000   0.99121506   -6.1072666    292.20624  0.035704574  0.036078103            4 
  683000   0.97400963   -6.0938039    291.62102  0.035580896  0.036055949            3 
  684000   0.99423557   -6.0832981    292.75917  0.035667541  0.036033896            5 
  685000   0.98276172   -6.1470515    291.84904  0.035504749  0.036011269            3 
  686000   0.99135827   -6.1000494    292.83593  0.035572877  0.035988759            5 
  687000   0.98823876   -6.1159995    292.01085  0.035421016  0.035966115            7 
  688000   0.97539173   -6.1062409    292.30954   0.03540571  0.035943539            3 
  689000   0.97196972   -6.1379346    292.39469  0.035364621  0.035920774            9 
  690000    0.9957827   -6.1094446    293.96315  0.035502796  0.035897957            9 
  691000   0.98615385   -6.1597328    292.14736  0.035232436   0.03587504            9 
  692000   0.95009623   -6.1117713    294.21569  0.035430599  0.035851823            5 
  693000   0.97538098   -6.1163214    293.52518  0.035296439  0.035828754            3 
  694000   0.96710774   -6.0999211    294.28003  0.035336219  0.035805501            2 
  695000   0.99788802   -6.1307807    294.01778  0.035253931  0.035781963            4 
  696000   0.96578104   -6.1082719    293.58277  0.035151194  0.035758445            8 
  697000   0.97655994   -6.1375586     294.1014  0.035162769  0.035735481            5 
  698000   0.97194907   -6.1471185    294.06012  0.035107464  0.035711935            2 
  699000   0.96101229   -6.1343809    294.64232  0.035126648  0.035688597            3 
  700000   0.95149298   -6.1067078    295.51794  0.035180707  0.035664973            6 
  701000   0.97187331   -6.0899928    295.23729  0.035097157  0.035641338            4 
  702000   0.96747082   -6.1293246    294.81681  0.034997248  0.035617446            6 
  703000   0.98352366   -6.1429981    295.25344  0.034999222  0.035593669            7 
  704000   0.98286249   -6.1402361    294.22627   0.03482792  0.035569606            3 
  705000   0.96406342   -6.1142864    295.77172  0.034961196  0.035545548            4 
  706000   0.97479745   -6.1349226    295.71359  0.034904815  0.035521692            4 
  707000   0.96949767    -6.145918    295.74691  0.034859371  0.035497685            4 
  708000   0.97121396   -6.0935994    296.42958  0.034890487  0.035473135            2 
  709000   0.97746989    -6.175899       295.42  0.034722614  0.035448941           11 
  710000    0.9533062    -6.103952    296.81351  0.034837267   0.03542453            4 
  711000    0.9605005    -6.151545    296.60358  0.034763664  0.035400453            3 
  712000   0.95746197    -6.147413    296.86546  0.034745489  0.035376518            4 
  713000     0.963019   -6.1057366    297.79505  0.034805406  0.035352606            4 
  714000   0.98706018   -6.1120492    298.94943   0.03489139  0.035329144            3 
  715000   0.94792822   -6.1646627    298.05873  0.034738779  0.035305675            6 
  716000   0.97702742   -6.1407163    298.48126  0.034739439  0.035281797            3 
  717000   0.96975905   -6.1149775    299.37364  0.034794705  0.035257937            2 
  718000   0.95921544   -6.0748757    300.21596  0.034844006  0.035234318           18 
  719000    0.9763406   -6.1661482    298.67333  0.034616751  0.035210326            7 
  720000   0.95740288   -6.1570176    299.39272  0.034651935  0.035186741            3 
  721000   0.95352818   -6.1372078    298.96674  0.034554639  0.035163098            5 
  722000   0.97801734   -6.1696558      299.245  0.034538897  0.035139509            6 
  723000   0.95180647   -6.1496263    299.31178  0.034498822  0.035115811           10 
  724000   0.98785198   -6.1328178    301.08025  0.034654725  0.035092382            2 
  725000   0.97853719   -6.1234047    301.66327  0.034673939  0.035069261            9 
  726000   0.98056022   -6.1596279    300.87203  0.034535357  0.035045992            5 
  727000   0.96381108   -6.1667348    300.29284  0.034421463  0.035022414            4 
  728000    0.9642331   -6.1629731    300.85015  0.034437976  0.034998979            3 
  729000    0.9362633   -6.1261249    301.73323  0.034491682  0.034975957            4 
  730000   0.96502384   -6.1812089    302.25037  0.034503467   0.03495282            4 
  731000   0.94919153   -6.1267396    302.25428  0.034456712  0.034929897            8 
  732000   0.96358192   -6.1706773    303.31906  0.034530858  0.034906915            7 
  733000   0.94504812   -6.1663939    303.31434  0.034483213  0.034884111           10 
  734000   0.97771673   -6.1222827    303.24415  0.034428264  0.034861543            7 
  735000   0.96376935   -6.1625949    303.60856   0.03442274  0.034838574            4 
  736000   0.97137527   -6.1512992    303.41201  0.034353714  0.034815815           12 
  737000   0.96096357   -6.1617665    303.26466  0.034290441  0.034792725            3 
  738000   0.95436508   -6.1730418    303.63017  0.034285249  0.034769648            4 
  739000   0.97173383   -6.1434037     304.9807  0.034391148  0.034746712            2 
  740000   0.96915242   -6.1577193    303.99523  0.034233697  0.034723379            6 
  741000   0.95027089   -6.1475521    304.50777  0.034245139  0.034700354            3 
  742000   0.96174727   -6.1265742    305.13353  0.034269265  0.034677051            5 
  743000    0.9553705   -6.1821095    303.95743  0.034091232  0.034653547            5 
  744000   0.95127991   -6.1837785    304.77977  0.034137519  0.034629953            7 
  745000   0.95151109   -6.1312213    305.69714  0.034194311  0.034606359            3 
  746000   0.93309571   -6.1595751    305.16159  0.034088649  0.034582788            4 
  747000   0.94151101   -6.1983978    303.40262  0.033846789  0.034559157            3 
  748000   0.95326696   -6.1757041    305.89756  0.034079497     0.034536            6 
  749000   0.95954815   -6.1661246    306.31306  0.034080224  0.034513008            5 
  750000   0.94516017   -6.1590114    306.21545  0.034023938   0.03448983            4 
  751000   0.92289041   -6.2039436    305.56272  0.033906205   0.03446618            7 
  752000   0.96860825    -6.139959    307.50937  0.034076836  0.034442824            3 
  753000   0.96015832   -6.1788763    307.01192  0.033976529  0.034419476            5 
  754000   0.95174702   -6.1385756     307.4768  0.033982847   0.03439604            5 
  755000   0.94450352   -6.1993937    306.11628  0.033787669  0.034372422            5 
  756000   0.94760925    -6.156819    307.59178  0.033905619   0.03434878            3 
  757000     0.958933   -6.1588158     308.3101  0.033939906  0.034325517            5 
  758000   0.97737546   -6.1645488     307.6713  0.033824901  0.034302587            2 
  759000   0.95138691   -6.1549716    308.09709  0.033827085  0.034279277            2 
  760000    0.9436936   -6.1892373     308.0066  0.033772653  0.034256342            6 
  761000   0.94989282   -6.1846416    308.54554  0.033787291  0.034233061            5 
  762000   0.94722497   -6.1688213    308.44921  0.033732416  0.034210058            7 
  763000   0.94704886   -6.1817853    309.39544  0.033791551   0.03418723            4 
  764000   0.94548313   -6.1724111    308.99957  0.033704142  0.034164433            8 
  765000   0.93690392   -6.2202121    309.10211  0.033671254  0.034141209            3 
  766000   0.96112614   -6.1769659    310.29735  0.033757327   0.03411814            4 
  767000   0.93240004   -6.1870282    310.18735  0.033701364  0.034094914            5 
  768000   0.94304744   -6.2344283    309.23981  0.033554667  0.034071506            5 
  769000   0.95571971   -6.1847418    310.17743  0.033612639  0.034048083            9 
  770000   0.94867139   -6.1996943     310.6053  0.033615292  0.034024718            4 
  771000   0.93861633   -6.2106145    310.51688  0.033562136  0.034001213            5 
  772000   0.94460384   -6.1788954    310.44442   0.03351084  0.033977884            7 
  773000   0.96368078   -6.1726317    311.24704  0.033554015  0.033954389            5 
  774000    0.9417228    -6.199155    310.42058  0.033421682  0.033931019            6 
  775000   0.97258744   -6.1843109    312.33376  0.033584276  0.033907784            6 
  776000   0.94280683   -6.2074503    311.53795  0.033455536  0.033884386            3 
  777000   0.96011097   -6.2004032    311.21606  0.033377955  0.033860617            3 
  778000   0.94857065   -6.1985089    311.01854  0.033313896  0.033836898            5 
  779000   0.94571791    -6.216476    311.26787  0.033297804  0.033813617            4 
  780000   0.92916805   -6.2212178    312.02814   0.03333634  0.033790451            4 
  781000   0.93661099   -6.1851415    312.63114  0.033357997  0.033767104            8 
  782000    0.9396138   -6.1734977    312.27405  0.033277286  0.033743581            4 
  783000     0.942076   -6.1867073    312.19853  0.033226748  0.033720093            4 
  784000   0.94486649   -6.1870286     313.2163  0.033292548  0.033696652            5 
  785000   0.92831509   -6.2289942    312.49245  0.033173296  0.033672857            7 
  786000   0.95215905   -6.2048306    314.16769  0.033308703  0.033649142            7 
  787000   0.95922129   -6.2185805    312.90041   0.03313219  0.033625701            5 
  788000   0.93149302   -6.1979898    313.84513  0.033190051  0.033602126            9 
  789000   0.93618714   -6.1988494    313.63277  0.033125557  0.033578834            5 
  790000   0.92058165   -6.2029973    315.18293  0.033247144  0.033555666            4 
  791000   0.94344632   -6.1914275    314.49025  0.033132137  0.033532832            5 
  792000   0.94696438   -6.1931355    315.61936  0.033209107  0.033510335            5 
  793000   0.93707615   -6.1822366    315.80125  0.033186344  0.033487544           10 
  794000   0.91699437   -6.2479439    315.33765  0.033095891   0.03346467            6 
  795000   0.93482936   -6.2661947    314.84597  0.033002722  0.033441632            7 
  796000   0.94311275   -6.2242296    315.49047  0.033028734   0.03341835            4 
  797000    0.9316631   -6.2204696    316.23085  0.033064707  0.033395449            4 
  798000   0.93800267   -6.2318815    316.01944  0.033001195  0.033372817            4 
  799000   0.91727116   -6.2349334    316.71761  0.033032708  0.033349791            4 
  800000   0.91605467   -6.1965234    316.36143  0.032954316  0.033327013            5 
  801000   0.96919651   -6.1977624    317.29207  0.033009995  0.033304591            4 
  802000   0.90256176   -6.2011703    317.35313   0.03297518  0.033282026            3 
  803000   0.92843897    -6.209298    317.29426  0.032928006  0.033259657            4 
  804000   0.94269423   -6.2190334    317.44819  0.032903005   0.03323705            7 
  805000   0.94009728    -6.202364    318.18828  0.032938745  0.033214264            9 
  806000   0.92744732    -6.224611    317.94814   0.03287305  0.033191514            8 
  807000   0.93608786   -6.1987001    317.54188  0.032790363  0.033168293            3 
  808000   0.91786933   -6.2250938    317.34775   0.03272976  0.033144867            3 
  809000   0.92765239   -6.2758248    317.21819  0.032675957  0.033121267            4 
  810000   0.91901673   -6.2248632    318.38355  0.032755509    0.0330977            6 
  811000   0.92548434   -6.2398026    317.58237  0.032632796  0.033074619            5 
  812000   0.92885029   -6.2278164    319.09285  0.032747624  0.033051343            5 
  813000   0.90837332   -6.2315692    319.51848  0.032750971  0.033028558            3 
  814000   0.92163854   -6.2470632    318.95779  0.032653336  0.033005553            5 
  815000    0.9373438   -6.2149197    319.19835  0.032637868  0.032982744            8 
  816000   0.92919815   -6.2573495    319.45278  0.032623854  0.032960334            4 
  817000    0.9321008    -6.255435    319.88604  0.032628115  0.032937586            4 
  818000   0.91989806   -6.2090726    319.84907  0.032584461  0.032915282            8 
  819000   0.93172411   -6.2052711    321.24274  0.032686481  0.032893147            5 
  820000   0.89031091   -6.2261628    321.17617  0.032639854  0.032871087            5 
  821000    0.9163167   -6.2064467    320.96585   0.03257875  0.032848612            2 
  822000   0.95102243   -6.2544119    320.62077  0.032504133  0.032826628            7 
  823000   0.92060979   -6.2284536    321.81415  0.032585475  0.032804259            6 
  824000   0.94482572   -6.2469124    321.57236  0.032521477  0.032781866            5 
  825000   0.94692946   -6.2397324    321.03848  0.032428129  0.032759509            5 
  826000   0.93239493   -6.2712292    321.07466   0.03239252  0.032736822            9 
  827000   0.90915674   -6.2576285    320.82744   0.03232844  0.032713937            5 
  828000   0.92234512   -6.2607351    321.91414  0.032398766  0.032691261            3 
  829000   0.92361965   -6.2753251    321.51765  0.032319828  0.032668665            4 
  830000   0.95416716   -6.2748159     321.3983  0.032268906  0.032645966            7 
  831000   0.92255822   -6.2685468    321.55591   0.03224588  0.032623473            4 
  832000   0.92654791   -6.2381273     322.1441  0.032266036  0.032600797            4 
  833000   0.93360081   -6.2421068    322.23315  0.032236209   0.03257818            5 
  834000   0.90072329   -6.2323957    322.28992  0.032203229  0.032555641            4 
  835000   0.89841788   -6.2891823    322.30445  0.032166113  0.032532701            4 
  836000   0.91100084   -6.2623474    322.38033    0.0321352  0.032509975            6 
  837000   0.93254239   -6.2781741    323.27849  0.032186229  0.032487167            9 
  838000   0.90447946   -6.2356983    323.31396  0.032151349  0.032464577            5 
  839000   0.92142214   -6.2891329    323.05861  0.032087665  0.032441676           10 
  840000   0.93860667   -6.2544351     323.7354  0.032116607  0.032419259            3 
  841000   0.91446038   -6.2437261     324.3356  0.032137892   0.03239685            5 
  842000   0.92816444   -6.2682552    324.36169  0.032102305  0.032374562            3 
  843000   0.90054184   -6.2706427    324.65064  0.032092787  0.032352221            9 
  844000    0.8901865   -6.2657624    325.11505  0.032100617  0.032329751            8 
  845000   0.91634863   -6.3003124    324.20367  0.031972749  0.032307199            2 
  846000   0.91543915   -6.2694459    326.02611  0.032114471  0.032285043            4 
  847000   0.90237255   -6.2464111    325.20673   0.03199594   0.03226305            7 
  848000   0.92173503   -6.2222087    326.19515  0.032055341  0.032241322            8 
  849000   0.92053666   -6.2621042    325.94671  0.031993199  0.032219248           10 
  850000   0.93544729   -6.2726523    326.05563  0.031966238  0.032196992           11 
  851000   0.92373452   -6.2683135    326.83371  0.032004867   0.03217489            6 
  852000    0.9330171   -6.3048289     324.9737  0.031785377  0.032152509            8 
  853000    0.9261852   -6.2853126     326.5307  0.031900224  0.032130277            2 
  854000   0.92608872   -6.2701461    326.75068  0.031884336  0.032108315            4 
  855000   0.91770717   -6.2680001    326.96252  0.031867692  0.032086499            5 
  856000   0.90273571   -6.3411063    325.93103  0.031730045  0.032064306            6 
  857000     0.924404   -6.2928517    326.88267  0.031785557  0.032041623           12 
  858000   0.90279504   -6.2592337    326.84769  0.031745113  0.032018982            5 
  859000   0.93261558   -6.2993366    326.13253  0.031638779  0.031996618            7 
  860000   0.91265444   -6.2860725    326.74522  0.031661358  0.031973801            4 
  861000   0.90764607   -6.2679265    327.65742  0.031712875  0.031951513            6 
  862000   0.91107335   -6.2432013     328.4566  0.031753345  0.031929345            6 
  863000    0.9037928   -6.2773851    327.66604  0.031640213  0.031907086            9 
  864000   0.92006418   -6.2951355    327.80973  0.031617451  0.031885056            4 
  865000   0.89914559   -6.2597919    328.48988  0.031646424  0.031863212            4 
  866000   0.90950494    -6.292686    328.21289  0.031583226  0.031841157            8 
  867000    0.9007024   -6.2420283    328.32791  0.031557854  0.031819207            5 
  868000   0.89025564   -6.2794038    328.53753  0.031541621  0.031797134            8 
  869000   0.91166549   -6.2550361    329.35787  0.031583992  0.031774966            6 
  870000   0.91856222   -6.2871916    329.63871  0.031574589  0.031753059            6 
  871000   0.90490852   -6.2889117    329.35227  0.031510932  0.031730962            4 
  872000   0.91784057   -6.3074855    329.71227    0.0315092  0.031708429            6 
  873000   0.91459075   -6.3013911    329.28679  0.031432492  0.031686265            8 
  874000   0.90992885   -6.2661465    330.98043  0.031558012   0.03166456            3 
  875000   0.90485464   -6.3201916    330.51877  0.031477978  0.031642977            6 
  876000   0.90241887   -6.2693037    330.83886  0.031472495  0.031621487            5 
  877000   0.89676258   -6.2856501    330.72999  0.031426263  0.031599879            5 
  878000   0.90470607   -6.2907281    330.83816  0.031400737  0.031578136            6 
  879000   0.90822256   -6.2878035     331.0311  0.031383305  0.031556433            4 
  880000   0.90545733   -6.3142963    330.04629  0.031254383  0.031534697            5 
  881000   0.88275009    -6.320604    330.74054  0.031284577  0.031513104            8 
  882000   0.89136239   -6.2776654    331.76659  0.031346049  0.031491516            2 
  883000   0.90682399   -6.3222222    331.74732  0.031308732  0.031469922            4 
  884000   0.92653471   -6.2809053    333.03254   0.03139447  0.031448527            8 
  885000   0.89070362   -6.2880896    333.60555  0.031412952  0.031427224            3 
  886000    0.9239555   -6.2855295    333.85083  0.031400567   0.03140619            6 
  887000   0.89782081   -6.3083522    332.75331  0.031262055  0.031385087            5 
  888000   0.89265119   -6.2984814     332.6563  0.031217746  0.031363752            6 
  889000   0.89949424   -6.2779751    334.39069  0.031345209  0.031342411            4 
  890000   0.89442008   -6.3244121    333.61759  0.031237602  0.031321275            9 
  891000   0.88323113   -6.3014377    333.39633  0.031181849  0.031299914            6 
  892000   0.89863212   -6.3380559    332.77445  0.031088793  0.031278276            7 
  893000   0.88273772   -6.2915762     333.9428  0.031163008  0.031256767            4 
  894000    0.8976654   -6.3110382    334.80674  0.031208682  0.031235647            7 
  895000   0.89602756   -6.3043951    336.06982  0.031291417  0.031214681            3 
  896000   0.89486268   -6.3109035    334.92256  0.031149792  0.031193697            6 
  897000   0.89559355   -6.3074845    335.51667  0.031170259  0.031172744            7 
  898000   0.88824994   -6.2994612      335.508  0.031134744  0.031151616           10 
  899000   0.88510083   -6.3278108    334.18302  0.030977291  0.031130686            4 
  900000   0.89765742   -6.3680442    334.66435  0.030987439  0.031109313            4 
  901000   0.88685499   -6.3223903    335.49493  0.031029868  0.031088061            8 
  902000    0.8842003   -6.3085036    335.87126  0.031030234  0.031067395            8 
  903000    0.8887086   -6.3040813    335.89723  0.030998268  0.031046228           11 
  904000   0.88674871   -6.3106712    336.22773  0.030994445  0.031025213            4 
  905000   0.85872837   -6.3385939    336.33009  0.030969622  0.031003782            3 
  906000   0.88893111   -6.3224448    335.87837   0.03089389    0.0309825            4 
  907000   0.89557763   -6.3436493    335.76779  0.030849668  0.030961171            3 
  908000   0.91016725   -6.3271261    336.87796  0.030917581  0.030939894            5 
  909000   0.89401114   -6.3244399    336.61255  0.030859236  0.030918807            5 
  910000   0.91491165   -6.3247276    336.55427  0.030819988  0.030897747            3 
  911000   0.89995119   -6.3252037    337.19504  0.030844772  0.030876714           12 
  912000   0.89412504   -6.3154197    337.04342  0.030797096  0.030855715            6 
  913000   0.88753947   -6.3271837    337.23585  0.030780929  0.030835008           16 
  914000   0.90228303   -6.3136296    337.68268  0.030787991  0.030814293            8 
  915000    0.8805446   -6.2780003    338.58025  0.030836088   0.03079362            5 
  916000   0.88908958   -6.3331374    338.00264  0.030749876  0.030772812            5 
  917000   0.88523728   -6.3389614    337.60408  0.030680123  0.030751894            6 
  918000   0.88109753   -6.3373396    337.78502  0.030663128  0.030730846            6 
  919000   0.89473114   -6.3432955    338.49859  0.030694467  0.030709844            6 
  920000    0.8841272    -6.349093    338.71745  0.030680929  0.030688963            4 
  921000   0.88650015   -6.3377578    337.94883   0.03057807  0.030668246            8 
  922000   0.90989885    -6.369149    338.14606  0.030562732  0.030647294            6 
  923000   0.87969817   -6.3422284    338.41719  0.030554098  0.030626154            4 
  924000   0.89200724   -6.3132937    339.40763  0.030610356  0.030605459            7 
  925000   0.90555538   -6.3537003    339.61191  0.030595668  0.030584518           10 
  926000   0.88169885   -6.3316163     339.4757  0.030550369  0.030563511            6 
  927000     0.882235   -6.3568238    339.44711  0.030514843  0.030542653            3 
  928000   0.88936238   -6.3179091    339.91321  0.030523816  0.030521561            6 
  929000   0.88089007     -6.30309    339.66871  0.030469027  0.030500571            3 
  930000   0.89983635   -6.3280181    341.46923  0.030597601   0.03047969            5 
  931000   0.87131954   -6.3645162    340.40091  0.030469111  0.030458829            5 
  932000   0.87673394   -6.3581927    339.57128  0.030362239  0.030437805            7 
  933000   0.88505749   -6.3312234    339.91026  0.030359973  0.030416826            8 
  934000    0.8667467   -6.3234753    340.75813  0.030403116  0.030395896            6 
  935000   0.89306492   -6.3127461    341.07864  0.030399166  0.030375071            5 
  936000   0.86690831   -6.3482698    339.46842  0.030223328  0.030354203           10 
  937000   0.89728334   -6.3321849    340.64499  0.030295712   0.03033331           10 
  938000   0.89172514   -6.3621706    340.44559  0.030245699  0.030312283            4 
  939000   0.86325737   -6.3459553    341.29873  0.030289202  0.030291324            4 
  940000   0.87363107   -6.3632611    341.02719  0.030232907  0.030270471            9 
  941000   0.86579662   -6.3336682    340.72903  0.030174374  0.030249627            6 
  942000   0.89839404   -6.3468609     341.7221  0.030230193  0.030228724            7 
  943000   0.89501295   -6.3318696    342.02566  0.030224961  0.030207884            4 
  944000   0.87853715   -6.3596458    342.45369  0.030230728  0.030187054            4 
  945000    0.8797885   -6.3879068    340.28821  0.030007778  0.030166141            6 
  946000   0.87270396   -6.3769883    341.76057  0.030105759  0.030144939            5 
  947000   0.86778635   -6.3763141    342.04186  0.030098721  0.030123855            8 
  948000   0.89118942    -6.353317    341.44681  0.030014664  0.030102585            5 
  949000   0.89401515   -6.4136263    341.45541  0.029983791  0.030081254            5 
  950000   0.88922589   -6.4158066    340.55805  0.029873513  0.030059836           11 
  951000   0.88822436   -6.3364471    342.39427  0.030003003  0.030038629            5 
  952000   0.87402677   -6.3552378    342.46392  0.029977584  0.030017526            7 
  953000   0.86148425   -6.3712175     343.1709  0.030007949  0.029996412            6 
  954000   0.86083484   -6.3652736    343.46146  0.030001874  0.029975169            8 
  955000   0.87548075   -6.3804938    342.57021  0.029892689  0.029954154            7 
  956000   0.87640061   -6.3925508    341.81429  0.029795527  0.029932754            6 
  957000   0.85493829   -6.3905193    343.07713  0.029874359  0.029911454            4 
  958000   0.87434757   -6.3933655    342.62292  0.029803664  0.029890303            7 
  959000   0.88474768   -6.3783487     344.0322  0.029895047  0.029869127            9 
  960000   0.86484803    -6.370964    343.81689  0.029845216  0.029848125           12 
  961000   0.88859055   -6.4110822    343.21577  0.029762033  0.029826844            9 
  962000   0.85075901   -6.3818327    344.02365  0.029801079  0.029805865            5 
  963000   0.86657249   -6.3750815    344.07664  0.029774718   0.02978516            4 
  964000   0.88059942   -6.3474976    344.60606  0.029789597  0.029764384            2 
  965000   0.85518515   -6.3769651    344.51053  0.029750477  0.029743488            5 
  966000   0.86314168   -6.3647515    344.81849  0.029746246  0.029722608            4 
  967000   0.87093985   -6.3902488    344.75635   0.02971013  0.029701716            6 
  968000   0.87395597   -6.3498729    346.49278  0.029828924  0.029680845            4 
  969000    0.8860582   -6.3989178    343.71724  0.029559446  0.029659971            4 
  970000   0.87051439   -6.3741032    344.84867  0.029626175  0.029639002            9 
  971000    0.8863061    -6.367776    345.81671  0.029678743  0.029618149            3 
  972000   0.88102398   -6.4254722    343.81328  0.029476447  0.029597014           19 
  973000   0.87850112   -6.4343715    344.72601  0.029524325  0.029575565            5 
  974000   0.86765558   -6.3911817    344.93089  0.029511541  0.029554295            5 
  975000   0.87854086   -6.4259537      344.323  0.029429316   0.02953313            5 
  976000   0.85990483   -6.4052411    344.94586  0.029452345  0.029512023            3 
  977000   0.85241355   -6.4054877    344.64773  0.029396769  0.029490866           14 
  978000   0.86159901   -6.3968157    345.75734   0.02946126  0.029469844            6 
  979000   0.86411241   -6.3813519    345.64348  0.029421474  0.029448643            6 
  980000   0.87748881   -6.3557898    346.18786  0.029437743  0.029427538            8 
  981000   0.86865835   -6.3990679    345.32026  0.029334035  0.029406609            7 
  982000    0.8594427   -6.3970064    346.40852  0.029396514  0.029385468            8 
  983000   0.84762904   -6.4068062    345.73808  0.029309773   0.02936433            7 
  984000   0.86195447   -6.4145688    346.13262    0.0293134  0.029343073            5 
  985000   0.84450867   -6.3869801    347.51484  0.029400579  0.029322117            3 
  986000   0.87768673    -6.418065    346.04258  0.029246331  0.029301062            8 
  987000   0.84768112   -6.3985479    345.58793  0.029178312  0.029279897            6 
  988000   0.87455211   -6.4001097    346.26628  0.029205995  0.029258599            8 
  989000   0.85963775   -6.4131382    345.87069  0.029143132  0.029237398            8 
  990000   0.87026355   -6.4144788    347.26314  0.029230904  0.029216245            2 
  991000   0.85177187   -6.4167487    346.58579   0.02914445  0.029195002            8 
  992000   0.82618453   -6.4284949      346.765  0.029130124  0.029173855            5 
  993000   0.88067791   -6.3890139    347.47241  0.029160155  0.029153004            7 
  994000   0.83718776   -6.4055662    346.79019  0.029073625  0.029132033            8 
  995000    0.8488954   -6.4038714    348.10459  0.029154488  0.029110996            7 
  996000   0.88128733   -6.4479994    347.27952  0.029056185  0.029089922           10 
  997000   0.86151501   -6.4032373    347.29041  0.029027951  0.029068913            9 
  998000   0.87263959   -6.4150152    347.38541  0.029006798  0.029047811           10 
  999000    0.8535371   -6.4396101     347.1025  0.028954162  0.029026686           11 
 1000000   0.86843895   -6.3794338    349.15229  0.029096025  0.029005783            7 
 1001000   0.85813209   -6.3965376    349.27279  0.029076989  0.028985262           16 
 1002000   0.83818877   -6.3993197    348.58174  0.028990497  0.028964866            6 
 1003000   0.84750905   -6.4096459    348.79721  0.028979496  0.028944323            4 
 1004000   0.84801821   -6.3906639    348.62769  0.028936561  0.028923557            5 
 1005000   0.84384697   -6.4469452    347.75521  0.028835424   0.02890265           13 
 1006000   0.84760032   -6.4208388    348.40054  0.028860217  0.028881655           18 
 1007000   0.85437355   -6.3987969    348.49708  0.028839546  0.028860903            5 
 1008000   0.85424229   -6.4525688    349.08819  0.028859804  0.028839775            6 
 1009000   0.83271405   -6.4355352    348.56739  0.028788188   0.02881866            5 
 1010000   0.86233283   -6.4294746    348.07719   0.02871924  0.028797579           29 
 1011000   0.83995849   -6.4484552    348.03657  0.028687485  0.028776408            7 
 1012000   0.85928319    -6.437097    350.28608  0.028844374  0.028755427            6 
 1013000    0.8507584    -6.433808    349.61164  0.028760417  0.028734633            5 
 1014000   0.83880797   -6.4564803    348.68031  0.028655515  0.028713664            7 
 1015000   0.85337913    -6.429696    349.33533  0.028681062  0.028692628            3 
 1016000   0.85780319   -6.4637333    347.45282  0.028498427  0.028671408            8 
 1017000   0.85795307   -6.4111697    351.04883  0.028765063  0.028650551            5 
 1018000   0.86124423   -6.4645674    349.44705  0.028605685  0.028629679            6 
 1019000   0.86357314   -6.3946796    350.79615  0.028687942  0.028608712            6 
 1020000   0.84674407   -6.4190252    350.59857  0.028643674  0.028587666           12 
 1021000   0.85003132   -6.4637129    349.64245  0.028537581  0.028566704           10 
 1022000   0.83688548   -6.4435141    350.56222  0.028584656  0.028545782            6 
 1023000   0.84216806   -6.4574017    350.76575  0.028573294  0.028525041           10 
 1024000   0.84726271   -6.3971673    351.48092   0.02860359  0.028504273            4 
 1025000   0.83745621   -6.4427858    350.67835  0.028510435  0.028483493            3 
 1026000   0.85567534   -6.4359209    349.63967  0.028398283  0.028462607            5 
 1027000   0.82979914   -6.4514195    350.88168  0.028471412  0.028441552           22 
 1028000   0.83747299   -6.4431103    350.91314  0.028446266   0.02842066           11 
 1029000   0.85324249   -6.4701549     350.1888  0.028359961  0.028399786            5 
 1030000    0.8278204   -6.5094209    351.13668  0.028409116  0.028378664           10 
 1031000   0.83456074   -6.4532092     352.0963  0.028459126  0.028357615            4 
 1032000   0.83134059   -6.4469381    350.32468  0.028288492  0.028336993            5 
 1033000    0.8496226   -6.4513814    351.42425   0.02834981  0.028316347            5 
 1034000   0.82336513   -6.4274817    351.41986  0.028322039  0.028295839            7 
 1035000   0.85633596   -6.4765581    351.55229  0.028305337  0.028275265           13 
 1036000   0.85678435   -6.4530075    353.38779  0.028425659  0.028254893           16 
 1037000   0.82065902   -6.4578606    352.45027  0.028322908  0.028234444            9 
 1038000   0.83750117   -6.4505067    352.41538  0.028292821  0.028213833            4 
 1039000   0.84279473   -6.4581419     353.1059  0.028320973  0.028193335            4 
 1040000   0.82867246   -6.4501685    352.92868  0.028279542  0.028172964           14 
 1041000   0.83840801   -6.4286834     352.1318  0.028188585  0.028152759            5 
 1042000   0.83376457   -6.4720439    352.77297   0.02821281  0.028132449            6 
 1043000   0.84229972    -6.423817    352.97806  0.028202146  0.028111967           12 
 1044000   0.84142922   -6.4390978    353.22268  0.028194658  0.028091568            8 
 1045000   0.83145775   -6.4351594    353.85061  0.028217752  0.028070968            6 
 1046000    0.8291069   -6.4488134    354.32189  0.028228321  0.028050553            8 
 1047000   0.84855648   -6.4803442    352.75416  0.028076581  0.028030011           13 
 1048000   0.85528063   -6.4825572    352.42058  0.028023265  0.028009505           15 
 1049000   0.82164369   -6.4766516    352.41728  0.027996289  0.027988948           15 
 1050000   0.83461594   -6.5026258    353.18706  0.028030719  0.027968433            6 
 1051000   0.84515529   -6.4865881    353.15062  0.028001159  0.027947804           10 
 1052000   0.84013022   -6.4740244    352.99839  0.027962483  0.027927233            5 
 1053000   0.84848777   -6.4858937    353.45787  0.027972291  0.027906725           15 
 1054000    0.8228616   -6.4464522    353.17218  0.027923164  0.027886079            9 
 1055000   0.82411517    -6.472154    353.32333  0.027908636  0.027865429            3 
 1056000   0.82823097   -6.4872502     354.0999   0.02794349  0.027844763            8 
 1057000   0.83663331   -6.4843159    354.11311  0.027918094  0.027824163            4 
 1058000   0.82058681   -6.4854201     353.8883     0.027874  0.027803538            9 
 1059000   0.83673689    -6.476222     354.4099  0.027888724  0.027783035           13 
 1060000   0.81928061   -6.4778895    354.57375  0.027875295  0.027762725           12 
 1061000   0.81737798   -6.4515209    354.98393  0.027881238  0.027742661            7 
 1062000   0.83023921   -6.4682549    355.56566  0.027900633  0.027722636            5 
 1063000   0.80072492    -6.493055    354.07624  0.027757623  0.027702366           11 
 1064000   0.82538995   -6.4537641    355.00867  0.027804564  0.027681807            4 
 1065000   0.83615434    -6.479716    354.34454   0.02772649  0.027661314            5 
 1066000   0.81635623   -6.4662983    354.07729  0.027679588  0.027640791            6 
 1067000   0.83840437   -6.4937255    354.80136  0.027710197   0.02762029           12 
 1068000   0.82306178    -6.481675    355.31367  0.027724226  0.027600062            7 
 1069000   0.83459909   -6.5019645    354.94963  0.027669912  0.027579674           11 
 1070000    0.8250816   -6.4833328    355.18111   0.02766208  0.027559309            5 
 1071000   0.83260934   -6.5053144    354.63076   0.02759343  0.027538854            6 
 1072000   0.82155591   -6.4924365    355.23023   0.02761429  0.027518297            6 
 1073000   0.82916306   -6.5114893     354.3485  0.027520076  0.027497799            5 
 1074000   0.82677081   -6.4688493    355.64773  0.027595262  0.027477335            4 
 1075000   0.81194285   -6.4827584    356.58097  0.027641936  0.027456927            4 
 1076000    0.8132217   -6.5146896    354.91316  0.027487079  0.027436516           11 
 1077000   0.82042587   -6.5214621    354.91189  0.027461459  0.027415801            9 
 1078000    0.8351904   -6.5399082    354.71297  0.027420607  0.027395039            6 
 1079000   0.81887355   -6.5137647    355.49784  0.027455811   0.02737447            6 
 1080000   0.82901759   -6.5208415    354.99735  0.027391771  0.027353831           15 
 1081000   0.83495922   -6.5279552    354.78107  0.027349759  0.027333109            9 
 1082000   0.83562448   -6.5243558     355.0353  0.027344062  0.027312408            6 
 1083000   0.82655914   -6.5189015    355.26887  0.027336786  0.027291742            6 
 1084000   0.80076101   -6.5121185    356.05429  0.027371948  0.027271173            9 
 1085000   0.82018737   -6.4917625     356.5468  0.027384547  0.027250714            8 
 1086000   0.81603362   -6.5207953    355.44889  0.027275083  0.027230266           21 
 1087000   0.82825853   -6.5319097    356.00352  0.027292511  0.027209725            8 
 1088000   0.81436337   -6.4984935     355.6699  0.027241873   0.02718926            8 
 1089000   0.81879301   -6.5259944    356.06354   0.02724698  0.027168852           17 
 1090000   0.82399805   -6.5347142    356.12976  0.027227046  0.027148482           12 
 1091000   0.82094807   -6.5121961    357.10252  0.027276391  0.027128159           14 
 1092000    0.8231729   -6.5366702     356.7177  0.027222046  0.027107805            7 
 1093000   0.80683194   -6.5104879    356.47252  0.027178448  0.027087449            7 
 1094000   0.80504846   -6.5432842      356.437  0.027150899  0.027067125           15 
 1095000   0.83664759   -6.5100659    357.28686  0.027190781   0.02704697           10 
 1096000   0.84383482   -6.5353419    357.00164  0.027144285  0.027026718            3 
 1097000   0.81846315   -6.5193253    357.45645  0.027154091  0.027006332            8 
 1098000   0.79516629   -6.5062909    357.37735  0.027123357  0.026986094            7 
 1099000   0.80685224   -6.5380102    357.67943  0.027121582  0.026965871            6 
 1100000   0.81548359   -6.5299811    356.93148  0.027040263  0.026945718            9 
 1101000   0.81969864   -6.5028568    357.14751  0.027032055  0.026925621            5 
 1102000    0.8168337   -6.5142399    357.87274  0.027062367  0.026905434            7 
 1103000   0.80445887   -6.4997039    358.69153  0.027099693   0.02688532           10 
 1104000    0.8087501   -6.4979976    358.54503  0.027064088  0.026865302            6 
 1105000    0.8161615   -6.5108219    358.86606  0.027063805  0.026845199           18 
 1106000   0.81004249   -6.5231892    357.56942  0.026941638  0.026825242            5 
 1107000   0.81856179   -6.5201689    358.99025  0.027024259  0.026805365            8 
 1108000    0.8062693   -6.5170649    358.67182  0.026975919  0.026785559            5 
 1109000    0.8093486   -6.5242447    357.68527  0.026877463  0.026765725           13 
 1110000   0.80695512   -6.5091705    359.54343   0.02699275  0.026746005           11 
 1111000   0.81203539   -6.4954101    359.78716  0.026986736  0.026726244           14 
 1112000   0.80231708   -6.5030092    359.42119  0.026935041  0.026706417            8 
 1113000   0.80561047   -6.5479329     357.2747  0.026750127  0.026686631            5 
 1114000   0.82074382   -6.5426734    358.61906   0.02682668  0.026666704           17 
 1115000   0.80242929   -6.5203093    359.02723  0.026833126  0.026646761            6 
 1116000   0.80512377   -6.5263057    358.38208  0.026760908  0.026626793            7 
 1117000   0.79876338   -6.5154995    360.03702  0.026860416  0.026606958            7 
 1118000   0.81996469   -6.5322591    360.13923  0.026844009  0.026587059            7 
 1119000   0.82232904   -6.5588304    358.50625   0.02669841  0.026567235            8 
 1120000   0.81350907   -6.5302215    359.74082   0.02676643  0.026547317            9 
 1121000   0.82067322   -6.5189473    361.17657  0.026849284  0.026527487            9 
 1122000   0.83174267   -6.5336332    358.99376  0.026663232  0.026507472           15 
 1123000   0.79857208   -6.5862168    358.91352  0.026633535  0.026487331            9 
 1124000   0.81361292   -6.5705392    357.92903   0.02653685  0.026467203           15 
 1125000    0.7953397   -6.5685604    359.20697  0.026607924  0.026447032            5 
 1126000   0.79696658   -6.5620488    358.41678  0.026525812  0.026426831           10 
 1127000   0.81545905   -6.5625229    359.93951   0.02661487  0.026406582            4 
 1128000   0.78493946   -6.5611746    358.73048  0.026501957  0.026386422           14 
 1129000   0.82267334   -6.5561428    359.46422  0.026532641  0.026366378            8 
 1130000   0.78746117   -6.5326547    359.09867  0.026482203  0.026346247            8 
 1131000   0.81541696   -6.5755057    359.19366  0.026465787  0.026326268            8 
 1132000   0.79249456   -6.5843788    359.67493  0.026477837  0.026306186            4 
 1133000   0.79021572   -6.5588959    358.53929  0.026370939  0.026285948            9 
 1134000   0.80585491    -6.560715    359.34272  0.026406725  0.026265731            9 
 1135000    0.8071658   -6.5865895    358.91027  0.026351708  0.026245502           10 
 1136000   0.78486305   -6.5885404    359.00415  0.026335398  0.026225324            4 
 1137000   0.79222668   -6.5863642    359.40325  0.026341487  0.026205055            7 
 1138000   0.79143008   -6.5691493    359.13156  0.026298445   0.02618489            7 
 1139000   0.80231473   -6.5594148    359.81268  0.026325189  0.026164692           12 
 1140000   0.78142238   -6.5817151    360.08377  0.026321913   0.02614446            9 
 1141000   0.79142082   -6.6071076    359.06209  0.026224225  0.026124284           12 
 1142000   0.79808715   -6.5943701     359.4601  0.026230305   0.02610412            8 
 1143000   0.79111572   -6.6185629    358.83101  0.026161491  0.026083899            9 
 1144000   0.79491846   -6.5826031    359.64252  0.026197736  0.026063613           10 
 1145000   0.80246223   -6.5899689    359.79478  0.026185938  0.026043557            6 
 1146000   0.79404541   -6.6087306    359.60643  0.026149391  0.026023524            8 
 1147000   0.78444696   -6.5669082    359.80413  0.026140957   0.02600365           11 
 1148000   0.80482073   -6.5878906    360.58723  0.026175031  0.025983678           11 
 1149000   0.79871573   -6.5911803    360.11603  0.026118076  0.025963823           33 
 1150000     0.786286   -6.6069967    359.84731  0.026075892  0.025943873           17 
 1151000    0.8001766   -6.5608445    361.47713  0.026171237  0.025923897           10 
 1152000   0.77665851   -6.5911408    360.56112  0.026082257  0.025903981            4 
 1153000   0.79162308   -6.5616867    360.93019   0.02608631  0.025884026            8 
 1154000   0.80288201   -6.5975237    359.96727   0.02599417  0.025864115            7 
 1155000    0.8122222   -6.5764935    361.07378  0.026051499   0.02584421            7 
 1156000   0.77056846   -6.5752066    361.49412  0.026059265  0.025824211           10 
 1157000   0.77905348   -6.5955241    360.88727  0.025993033  0.025804417            9 
 1158000   0.77196108    -6.613414    360.63916  0.025952732   0.02578463            7 
 1159000    0.7966212   -6.5964681    361.18987  0.025969936  0.025764715            8 
 1160000   0.77518181   -6.6275483    360.78336  0.025918345  0.025744711           26 
 1161000   0.79733851   -6.6002766    360.86999  0.025902239  0.025724787           11 
 1162000    0.7830582   -6.6105115     361.7602   0.02594379  0.025704898            5 
 1163000   0.80318945   -6.6159753    360.93938  0.025862667  0.025685129            7 
 1164000   0.77018087   -6.6203511    361.36642  0.025871021  0.025665222            9 
 1165000   0.79329103   -6.6104528    361.63454  0.025867993  0.025645457           10 
 1166000   0.77915265   -6.5961594    361.91214  0.025865648  0.025625763           13 
 1167000   0.79112643   -6.6144553    361.55909  0.025818273  0.025606139            4 
 1168000   0.78109081   -6.6280923     362.1309  0.025836965  0.025586417           12 
 1169000   0.79227168   -6.6462197    361.58985  0.025776294  0.025566809            9 
 1170000   0.76016699   -6.6242745    361.95683  0.025780401  0.025547279           13 
 1171000   0.76509529   -6.6066865    362.95675  0.025829544  0.025527798            5 
 1172000   0.78160217   -6.6030956    362.77026  0.025794245  0.025508218            8 
 1173000   0.77279433    -6.605379    362.12771  0.025726606    0.0254888           11 
 1174000   0.79074885   -6.6210817     362.7074  0.025745841   0.02546932           12 
 1175000   0.78235354   -6.5932908    362.98937  0.025743927  0.025449883            7 
 1176000   0.77754863   -6.5961971    362.05312  0.025655692  0.025430436           15 
 1177000   0.79733319   -6.6155469    362.61621  0.025673762  0.025410977            9 
 1178000   0.76227523   -6.6396834    363.86383  0.025740226  0.025391574            6 
 1179000   0.78061329   -6.6140954    363.14887  0.025667859  0.025372123           17 
 1180000   0.78426472   -6.6488507    362.77878   0.02561997  0.025352634           10 
 1181000   0.78456946   -6.6395235    361.83099  0.025531399  0.025333247           10 
 1182000   0.77749971   -6.6356818    362.21847  0.025537117  0.025313605           13 
 1183000   0.76763052   -6.6390877     362.9696  0.025568442   0.02529408            9 
 1184000   0.79090374   -6.6505532    362.54003  0.025516612   0.02527468           15 
 1185000   0.77553822   -6.6069585    363.99163  0.025597161  0.025255267           15 
 1186000   0.78974603   -6.6316193    363.89798  0.025568998  0.025235875            7 
 1187000   0.77432068   -6.6263613    363.55743  0.025523549  0.025216577           10 
 1188000   0.77569596   -6.5955111    363.35207  0.025487659  0.025197208           16 
 1189000   0.77918042   -6.6381891     362.5679  0.025411263  0.025177827           13 
 1190000   0.77365396   -6.6236778    364.06769  0.025494936  0.025158409           17 
 1191000   0.77467309   -6.6295705     363.1341  0.025408208   0.02513903            8 
 1192000   0.78106309   -6.6427795    362.65779  0.025353593  0.025119484            7 
 1193000   0.77868997   -6.6497519    363.63321  0.025400476  0.025099901           12 
 1194000   0.77732283   -6.6184415     363.5101   0.02537061  0.025080346           15 
 1195000   0.77895696   -6.6091689    363.60784  0.025356195  0.025060928            8 
 1196000   0.77255045   -6.6122935    364.07003  0.025367198  0.025041501           12 
 1197000   0.77677665   -6.6304867    363.01178  0.025272332  0.025022066            8 
 1198000    0.7795124   -6.6526793    363.07538  0.025255661  0.025002841            9 
 1199000   0.79010499   -6.6586067    363.22696  0.025245132  0.024983425            7 
 1200000   0.78260381    -6.646646    363.51738  0.025244262  0.024964046            8 
 1201000   0.78476439   -6.6349142    364.16278  0.025268025  0.024944663           16 
 1202000   0.77249721   -6.6478053    363.97718  0.025234136  0.024925303           15 
 1203000   0.76304007   -6.6227646    363.45293  0.025176845  0.024905954           14 
 1204000   0.77769855   -6.6342525    363.24356  0.025141442  0.024886577            8 
 1205000   0.77139094   -6.6589223    363.32575  0.025126262  0.024867253           13 
 1206000   0.76638246    -6.587229     364.1856  0.025164842  0.024847963           18 
 1207000   0.74929252   -6.6351545    364.81564  0.025187492  0.024828665            7 
 1208000   0.76296852    -6.655728    364.29564   0.02513077  0.024809395           18 
 1209000   0.76410229   -6.6542426    364.03934  0.025092317  0.024790095           13 
 1210000   0.77721994     -6.65908    364.36514  0.025094018  0.024770878            7 
 1211000   0.77725958   -6.6854496    363.78956  0.025033689  0.024751665            9 
 1212000   0.78036716   -6.6712324    363.94956  0.025024035  0.024732382            9 
 1213000   0.77326833   -6.6329372    363.93253  0.025002235  0.024713239           14 
 1214000   0.76989295   -6.6570418    364.50567  0.025020983  0.024693978           12 
 1215000   0.77570964   -6.6532802    364.52538  0.025001741   0.02467473           26 
 1216000   0.76401717   -6.6457394    364.84176  0.025002862  0.024655443           11 
 1217000   0.75430602   -6.6553765    364.69645  0.024972367  0.024636231           31 
 1218000   0.76576264    -6.630966    364.81099  0.024959701  0.024617102           14 
 1219000   0.76018288   -6.6746223    365.33391  0.024974974  0.024597965           23 
 1220000    0.7619878   -6.6692733    365.23644  0.024947844  0.024578864            8 
 1221000   0.76089026   -6.6745264    365.62892  0.024954198  0.024559774            9 
 1222000   0.76847331   -6.6804186    365.42072   0.02491958  0.024540712            6 
 1223000   0.74821084   -6.6575072    365.14786  0.024880612  0.024521692           11 
 1224000   0.77356616   -6.6418807    365.48384  0.024883159  0.024502733            9 
 1225000   0.77396039   -6.6590863    366.09818  0.024904638  0.024483819           10 
 1226000    0.7508536   -6.6388219    365.53259   0.02484588  0.024464939            7 
 1227000   0.76689581   -6.6391465    364.84303  0.024778799  0.024446021           11 
 1228000   0.74165645   -6.6550652    367.01365  0.024905921  0.024427192            5 
 1229000   0.76690775   -6.6744146    366.57334    0.0248558  0.024408429           17 
 1230000   0.75159951    -6.656774    366.00283   0.02479694  0.024389642           28 
 1231000   0.75633243   -6.6553538    366.48492  0.024809431  0.024370763            9 
 1232000   0.75546021   -6.6530684    366.57066  0.024795093  0.024352108            9 
 1233000   0.77081626   -6.6517243    366.15193  0.024746684  0.024333497           18 
 1234000   0.75954254   -6.6304808    365.05113  0.024652292  0.024314897            5 
 1235000   0.75947121   -6.6893283      366.284   0.02471552  0.024296208           12 
 1236000   0.75973662   -6.6660123    366.78707  0.024729441  0.024277478            8 
 1237000   0.75118795   -6.6586924    366.96807  0.024721643  0.024258846           30 
 1238000   0.76005748   -6.6408828    367.27257  0.024722171   0.02424038            6 
 1239000   0.75804479   -6.6557552    366.24999   0.02463344  0.024221881            6 
 1240000   0.77535423   -6.7011408    367.11824  0.024671925  0.024203333           12 
 1241000   0.76315361   -6.7017102    366.93061  0.024639444   0.02418478           10 
 1242000   0.73949304    -6.692714    366.49057  0.024590081  0.024166154           14 
 1243000   0.76439246    -6.653215    367.60476  0.024644996  0.024147658            8 
 1244000   0.74786136   -6.6848462    366.49186  0.024550634  0.024129064           13 
 1245000   0.74719345   -6.6897167    366.38969  0.024524075   0.02411054            6 
 1246000   0.74936978   -6.7149533    366.77453  0.024530132  0.024091928           13 
 1247000   0.77979915   -6.6781049    367.62588  0.024567353  0.024073433           10 
 1248000   0.76038681   -6.6728331    366.21318  0.024453337  0.024055019            8 
 1249000   0.76363642   -6.6643269    367.37218  0.024511087  0.024036634            5 
 1250000   0.75639455   -6.6743394    368.09834  0.024539889  0.024018234           13 
 1251000   0.77411144   -6.6823289    367.98815  0.024512933  0.023999843           20 
 1252000   0.73997587   -6.6820074    367.61891  0.024468777  0.023981522            8 
 1253000   0.73192404   -6.7130625    367.96216  0.024472078  0.023963099           10 
 1254000   0.76151228   -6.7109938    367.38604  0.024414277  0.023944806            8 
 1255000   0.75556786   -6.7024247    368.19033  0.024448229  0.023926481           19 
 1256000   0.75955592   -6.6856801    368.15611  0.024426493  0.023908161           11 
 1257000   0.77642286   -6.7224941    366.99958  0.024330388  0.023889873           10 
 1258000   0.73883202   -6.6833657    367.85056  0.024367419  0.023871546            8 
 1259000   0.75057399   -6.6869829    367.49509  0.024324536  0.023853218           13 
 1260000   0.74460245   -6.6339598    368.41509  0.024366077  0.023834987           10 
 1261000   0.76340611   -6.6954207    368.13107  0.024327985  0.023816746           12 
 1262000   0.74379708   -6.6815816     369.1007  0.024372735  0.023798523           13 
 1263000   0.73470853   -6.7041337     367.7239  0.024262596  0.023780359           12 
 1264000   0.75667531   -6.6781924    369.34678  0.024350394   0.02376219           16 
 1265000   0.76103776    -6.685612    368.53145  0.024277434  0.023744068            6 
 1266000   0.74541174   -6.7119059    368.25267  0.024239907  0.023725902           17 
 1267000   0.75357328   -6.7222456    367.98942  0.024203461  0.023707709            7 
 1268000   0.77057726    -6.712879    368.40134  0.024211444  0.023689558           17 
 1269000   0.74843218    -6.708033    367.90491  0.024159766  0.023671335           13 
 1270000   0.72982722   -6.6932709    368.27474  0.024165009  0.023653235           13 
 1271000   0.73484044    -6.648117    368.72789  0.024175707   0.02363506           12 
 1272000   0.74060069   -6.7094268    368.80825  0.024161966  0.023616949            8 
 1273000   0.73360845   -6.7103383    368.57204  0.024127523  0.023598728           10 
 1274000   0.76507563   -6.7230383    368.26029  0.024088193  0.023580446           22 
 1275000   0.75651341    -6.720149    368.75013  0.024101316   0.02356207           36 
 1276000   0.74765327   -6.7202921    368.24056  0.024049148  0.023543745           22 
 1277000   0.72737644   -6.7233508    368.08581  0.024020217  0.023525403           24 
 1278000   0.73301098    -6.718155    368.52837   0.02403028  0.023507118           24 
 1279000   0.75122195   -6.7170218    367.93359  0.023972739  0.023488878            8 
 1280000   0.74434303    -6.736896    368.35665  0.023981553  0.023470622           21 
 1281000   0.74037712    -6.712751     368.7135  0.023986046  0.023452349           21 
 1282000   0.75902107   -6.6845481    369.13589  0.023994793   0.02343422            5 
 1283000   0.75247148   -6.7041386    369.10283  0.023973943  0.023416039           13 
 1284000   0.73937315   -6.7294744    368.30335  0.023903385  0.023397899            7 
 1285000   0.71962663     -6.74106      369.007  0.023930415  0.023379726            8 
 1286000   0.74080675   -6.7237909     368.6858  0.023890993  0.023361491           18 
 1287000   0.75150761   -6.7320526    368.36236  0.023851487  0.023343311           13 
 1288000   0.73838051   -6.7187058    368.67586  0.023853252  0.023325141           17 
 1289000   0.72576827   -6.7436549    368.92989   0.02385117  0.023307012           11 
 1290000   0.73951485   -6.7324689    369.08266  0.023842549  0.023288809            5 
 1291000   0.73269994   -6.7262604    369.07242   0.02382342  0.023270669           17 
 1292000    0.7570009   -6.7431948    368.57701  0.023773027    0.0232525            8 
 1293000    0.7239595   -6.7263115    368.62982  0.023758045  0.023234392            9 
 1294000   0.74061531   -6.7421427    368.77414  0.023748979  0.023216324           14 
 1295000   0.72338217   -6.7404843    368.70302  0.023726063  0.023198228           10 
 1296000   0.74541877   -6.7424302    368.87217  0.023718632  0.023180167            9 
 1297000   0.71848609   -6.7290367    368.92231  0.023703566  0.023162067            7 
 1298000   0.72910156   -6.7421673    368.69271  0.023670564  0.023144038           23 
 1299000   0.72372745   -6.7412586    368.70829  0.023653342  0.023126055           12 
 1300000   0.74604494   -6.7223313    369.82265   0.02370658  0.023108074           29 
 1301000   0.72244444   -6.7335201     368.5256  0.023605278  0.023090042            4 
 1302000   0.72738171   -6.7365467    368.12793  0.023561695  0.023072018            9 
 1303000   0.74282504   -6.7457851    369.07398  0.023604118  0.023054009           21 
 1304000   0.72269742   -6.7542541    369.05019  0.023584496  0.023035889           12 
 1305000   0.73206199   -6.7340766    369.23255  0.023578068  0.023017774            9 
 1306000   0.73524549   -6.7282513    369.29999  0.023564318   0.02299973            4 
 1307000   0.71621082   -6.7435106    369.09641  0.023533308  0.022981694           25 
 1308000   0.71515101   -6.7601329    368.91283   0.02350362  0.022963668           20 
 1309000   0.72925721   -6.7886752    368.10276  0.023434094  0.022945522           43 
 1310000   0.74721142   -6.7571606    368.71673  0.023455263   0.02292745            9 
 1311000   0.72956215   -6.7530017    369.07752  0.023460305  0.022909545            6 
 1312000   0.71830897   -6.7316073    370.67384  0.023543816   0.02289175            7 
 1313000   0.72948963   -6.7342382    370.95323  0.023543617  0.022874038            8 
 1314000   0.73841748   -6.7739132    369.74264  0.023448925  0.022856242            7 
 1315000   0.72856781   -6.7474066    369.76997  0.023432825  0.022838477           30 
 1316000    0.7437121   -6.7496401    370.36457   0.02345267  0.022820858           10 
 1317000   0.73393327   -6.7564806    370.22387   0.02342596  0.022803236            8 
 1318000   0.72768717   -6.7320698    370.67226  0.023436536  0.022785592            8 
 1319000   0.70735316   -6.7477213    370.12441  0.023384155  0.022767928            9 
 1320000   0.71715582   -6.7527387    371.46052   0.02345079  0.022750279            8 
 1321000   0.73142351   -6.7655512    370.17721  0.023352082  0.022732585           11 
 1322000   0.71362828   -6.7767493    370.19592  0.023335597  0.022714926           14 
 1323000   0.73120114   -6.7861934    370.20758  0.023318694  0.022697238           13 
 1324000   0.73175158   -6.7742795    369.92555   0.02328333  0.022679518           10 
 1325000    0.7164314    -6.779472     370.0038  0.023270679  0.022661844           14 
 1326000   0.71821643   -6.7632664    371.15405  0.023325418  0.022644298            6 
 1327000     0.727717    -6.763046    370.83804  0.023287995  0.022626827           20 
 1328000   0.72045693   -6.7678791     370.6415  0.023258127  0.022609437           14 
 1329000   0.71420193   -6.7677717    371.05969  0.023266848  0.022592001           37 
 1330000   0.71134737   -6.7797038    370.99315  0.023245185  0.022574518           21 
 1331000   0.70582583    -6.765955    370.79834  0.023215524  0.022557041           23 
 1332000   0.73825516   -6.7785747    370.02906  0.023149966  0.022539426           11 
 1333000   0.73473735   -6.7960128    370.85161  0.023184022  0.022521875           27 
 1334000   0.69288993   -6.7545784    370.65744  0.023154513  0.022504442           12 
 1335000   0.72272444    -6.749204    370.37752  0.023119695  0.022487045           17 
 1336000   0.72425198   -6.7612968    372.07892  0.023208515  0.022469764           20 
 1337000   0.70773639   -6.7617779    371.39162  0.023148319  0.022452485           24 
 1338000   0.72575417   -6.7509505    369.72007   0.02302691  0.022435155            7 
 1339000   0.72592618   -6.7667958    370.83219  0.023078927  0.022417813           17 
 1340000   0.71364146   -6.7977272    370.66949  0.023051585  0.022400448            9 
 1341000   0.69418117   -6.7894302    371.02327   0.02305638  0.022383086           38 
 1342000   0.72341153   -6.8168981    371.06851  0.023042009   0.02236564           34 
 1343000   0.71454333   -6.7906696    370.85018  0.023011304  0.022348232           13 
 1344000   0.71505642   -6.8097069    370.43816  0.022968636  0.022330846           15 
 1345000   0.71231118   -6.8160741    370.85065  0.022977116  0.022313398           26 
 1346000   0.70824157   -6.8049172    371.16009  0.022979203  0.022295978           52 
 1347000   0.72400313   -6.8077004    371.62123  0.022990673  0.022278669           17 
 1348000   0.71501656   -6.8211343    371.41403  0.022960808  0.022261299           26 
 1349000   0.71293717   -6.8378432    371.65349   0.02295858  0.022243946           36 
 1350000   0.71546957   -6.8045504    371.31302  0.022920557  0.022226663           22 
 1351000   0.71544695   -6.8017845    370.76531  0.022869807  0.022209328           10 
 1352000   0.71717751   -6.7961326    371.17286  0.022878012  0.022192036            7 
 1353000   0.70998097   -6.7993386    370.84205  0.022840728  0.022174718           13 
 1354000   0.71778795   -6.8053435    370.41624  0.022797651  0.022157403           23 
 1355000    0.7021858   -6.7983731    371.38807  0.022840595   0.02214017           24 
 1356000   0.72260468   -6.7961833    372.29796  0.022879668  0.022122951           13 
 1357000   0.72446775   -6.8032629    372.28165  0.022861806  0.022105771           28 
 1358000    0.7178797   -6.7905251    371.53982  0.022799449  0.022088646           11 
 1359000   0.71166262   -6.8092868    371.59906  0.022786305  0.022071446           37 
 1360000   0.72321323   -6.8094615    370.74767  0.022717382  0.022054256           65 
 1361000   0.70421061   -6.8470896    370.86753  0.022708029  0.022037053           28 
 1362000   0.71225241   -6.8151936    371.66457  0.022740123  0.022019884           31 
 1363000   0.72994356   -6.8168725    372.03768  0.022746251  0.022002798           15 
 1364000   0.71377171    -6.823067    372.25706  0.022742977  0.021985702           22 
 1365000   0.72940969   -6.8212701    371.22525  0.022663324  0.021968613           18 
 1366000   0.70257068    -6.841195    372.00319  0.022694192  0.021951549           18 
 1367000   0.70677329   -6.8090116    372.81347  0.022726986  0.021934538           16 
 1368000    0.6933785   -6.8250461    372.16857  0.022671087  0.021917531           20 
 1369000   0.70803553   -6.8168802    372.12435  0.022651835  0.021900352           16 
 1370000   0.70915782   -6.8362759     371.9771  0.022626344  0.021883322           33 
 1371000   0.72570241   -6.8082269    372.00214  0.022611363  0.021866237           27 
 1372000   0.70315471   -6.8222026    372.14258  0.022603412  0.021849217           31 
 1373000   0.71469254   -6.8264385    371.12942  0.022525456  0.021832101           28 
 1374000   0.69849414   -6.8357401      370.952  0.022498302  0.021814992           27 
 1375000   0.70086062   -6.8361851     371.6304  0.022523054  0.021797928           23 
 1376000   0.68833714   -6.8341081    371.60977  0.022505436  0.021780841           18 
 1377000   0.69435835   -6.8237144    371.55584  0.022485829  0.021763703           21 
 1378000   0.70322841    -6.841594    371.25562  0.022451356  0.021746503           23 
 1379000   0.70133603   -6.8292884    372.05329  0.022483278  0.021729324           34 
 1380000   0.71121075   -6.8396601    371.32748  0.022423157  0.021712224           26 
 1381000   0.71726435   -6.8326652    372.22161  0.022460874  0.021695174           16 
 1382000   0.71089996   -6.8284062    371.25435  0.022386297  0.021678074           15 
 1383000   0.69893339   -6.8211008     372.5451  0.022447885  0.021661032           24 
 1384000   0.70214534   -6.8108609    372.53979  0.022431346  0.021644066           12 
 1385000   0.69984238   -6.7955743    372.61299  0.022419554  0.021627108           12 
 1386000   0.70613867   -6.8358678    372.05594  0.022369886  0.021610184           10 
 1387000   0.71178413   -6.8434649     372.3763  0.022373006  0.021593147           30 
 1388000   0.69798238   -6.8537425    372.17153  0.022344592  0.021576183           16 
 1389000   0.70323629   -6.8399574    371.40589  0.022282571  0.021559155           20 
 1390000   0.69472508   -6.8230326    371.85484  0.022293456  0.021542168           30 
 1391000   0.68349934   -6.8824426    371.87619  0.022278708  0.021525278           18 
 1392000   0.67825579   -6.8246317    371.84147  0.022260624  0.021508328           27 
 1393000   0.69990865    -6.842547    372.80265  0.022302145  0.021491378           46 
 1394000   0.69721751   -6.8364514     372.8284  0.022287685  0.021474562           22 
 1395000   0.69450657   -6.8404159    373.44791  0.022308716  0.021457796           47 
 1396000   0.70635927   -6.8275979    372.77554  0.022252599  0.021441051           19 
 1397000    0.6984889   -6.8448588     371.9449  0.022187121  0.021424319           21 
 1398000   0.69629775   -6.8652191     372.8758   0.02222674  0.021407573           18 
 1399000   0.70793753   -6.8478486    372.62476  0.022195899  0.021390826            8 
 1400000   0.69127499   -6.8633081    372.61758  0.022179618  0.021373996           20 
 1401000   0.70092349   -6.8468825    372.62983  0.022164515  0.021357157           12 
 1402000   0.67006805   -6.8566722    371.63842  0.022089777  0.021340328           17 
 1403000   0.67059643   -6.8614598    372.14991  0.022104414  0.021323553           16 
 1404000   0.69200337   -6.8568783    372.48122  0.022108335  0.021306791           17 
 1405000   0.70508637   -6.8471804    372.47137  0.022092015  0.021290007           16 
 1406000   0.70446834   -6.8704296    371.77413  0.022034977  0.021273221           19 
 1407000   0.68380568   -6.8639939    371.94491  0.022029431  0.021256415           38 
 1408000   0.70601721   -6.8582522    371.48808  0.021986747  0.021239592           21 
 1409000   0.69245147   -6.8498179    372.41888  0.022026194  0.021222768           44 
 1410000   0.69229188   -6.8657643    371.29819  0.021944337  0.021205971           63 
 1411000   0.68990425   -6.8582886    371.98277  0.021969216  0.021189206           61 
 1412000   0.68861463   -6.8448935    372.08341  0.021959597   0.02117252           30 
 1413000   0.68881811   -6.8634049    372.36335  0.021960566  0.021155907           13 
 1414000   0.69637061   -6.8788529    371.96122  0.021921335  0.021139281           32 
 1415000    0.6868597   -6.8736419    372.78066  0.021954103  0.021122658           38 
 1416000   0.70110787   -6.8820043    372.70143  0.021933935  0.021105947           23 
 1417000   0.68917966   -6.8809152    372.48378  0.021905656  0.021089313           33 
 1418000   0.68679113   -6.8714656    372.93701  0.021916844   0.02107268           37 
 1419000   0.70029431   -6.8718557    372.25317  0.021861238  0.021056087           29 
 1420000   0.68468543   -6.8543057    372.36364  0.021852326  0.021039504           37 
 1421000   0.68597479   -6.8984141    372.58943   0.02185019  0.021022928           15 
 1422000   0.67880457   -6.8926292    372.16822   0.02181014  0.021006267           27 
 1423000   0.67721906   -6.8632275     372.4674  0.021812333  0.020989645           15 
 1424000   0.67340358    -6.882844    372.14638  0.021778229  0.020972952           18 
 1425000   0.67730006   -6.8657534    372.75074  0.021798289  0.020956317           22 
 1426000   0.68435346   -6.8701297    372.63345  0.021776148  0.020939691           30 
 1427000   0.67819247   -6.8884844    372.16207  0.021733361  0.020923043           18 
 1428000   0.68021409   -6.8685729     372.1397  0.021716836  0.020906402           13 
 1429000   0.68064941    -6.863518     372.1318  0.021701178  0.020889813           14 
 1430000   0.67747867   -6.8787423    372.05408  0.021681473   0.02087324           19 
 1431000   0.68752349    -6.877157    372.80576  0.021710095  0.020856598           21 
 1432000   0.69483264   -6.9039455    371.34084  0.021609686  0.020839858           20 
 1433000   0.68292613   -6.9204541     370.3789  0.021538666  0.020823104           27 
 1434000    0.6904613   -6.9258119    371.94287  0.021614532  0.020806334           34 
 1435000   0.68736281   -6.9248714    371.17012  0.021554595  0.020789579           39 
 1436000   0.66502807     -6.93277    372.18812   0.02159866  0.020772878           16 
 1437000   0.67582713   -6.9087119     371.4075  0.021538361  0.020756175           51 
 1438000   0.68058914   -6.8830999    372.64113  0.021594873  0.020739576           52 
 1439000   0.65774291   -6.9178758    370.94989  0.021481926  0.020722945           13 
 1440000   0.68456057   -6.8755844    372.11754   0.02153458  0.020706333           16 
 1441000   0.68688141   -6.9039045    371.32716  0.021473928  0.020689768           31 
 1442000   0.67347127   -6.9258366    371.29666  0.021457274  0.020673159           33 
 1443000   0.67283893   -6.9358321    371.15366  0.021434145  0.020656515           39 
 1444000   0.68376507   -6.9378198    371.49566  0.021439038  0.020639926           30 
 1445000   0.67744092   -6.9025441     372.4132  0.021477117  0.020623404           22 
 1446000   0.67617166   -6.9326015    372.07978  0.021443048  0.020606809           80 
 1447000   0.67330829   -6.9058066    372.55751  0.021455742   0.02059022           16 
 1448000   0.67283602   -6.9131327    372.34947  0.021428952  0.020573617           18 
 1449000    0.6533567   -6.9183145    371.17178  0.021346433  0.020557003           11 
 1450000   0.68386469   -6.9161513    371.97348  0.021377786  0.020540437           17 
 1451000   0.67248357   -6.9163261    372.10678  0.021370709  0.020523832           14 
 1452000   0.67632669   -6.9112857    372.79844  0.021395686  0.020507331           11 
 1453000   0.66997812   -6.9315807    372.20393  0.021346864  0.020490804           21 
 1454000   0.69373661    -6.909334     372.3414  0.021340062  0.020474231           15 
 1455000   0.68853759   -6.9184481    371.71375  0.021289447  0.020457722           31 
 1456000   0.66131569   -6.9123339    371.33005  0.021252865  0.020441256           42 
 1457000   0.65377563   -6.9106277    372.16769  0.021286187  0.020424854           31 
 1458000   0.68026072   -6.8970122    371.57901  0.021237941   0.02040841           16 
 1459000   0.66600673   -6.9111901    371.35426  0.021210547  0.020392032           27 
 1460000   0.65689801   -6.9313598    371.02498  0.021177225  0.020375595           15 
 1461000   0.67224594   -6.9272378    372.86373  0.021267609  0.020359179           18 
 1462000   0.67372888   -6.9373481    372.60099  0.021238086   0.02034281           25 
 1463000   0.67515397   -6.9200113     371.3621  0.021153002  0.020326444           26 
 1464000   0.67391887   -6.9199341    372.24373  0.021188737  0.020310086           28 
 1465000   0.66728303   -6.9550629    370.89642  0.021097635  0.020293692           27 
 1466000   0.67496612   -6.9241161    372.55569  0.021177563  0.020277375           19 
 1467000   0.67283611   -6.9050835    372.70167  0.021171419   0.02026113           13 
 1468000   0.66339883   -6.9114288    371.55977  0.021092176  0.020244845           26 
 1469000   0.65703669   -6.9430451    372.44971  0.021128302  0.020228546           21 
 1470000   0.65124092    -6.919241    371.80174  0.021077196  0.020212236           26 
 1471000   0.67132201    -6.931759    372.15513  0.021082888  0.020195955           72 
 1472000   0.65690081   -6.9376722    371.39128  0.021025322  0.020179679           18 
 1473000   0.66449407   -6.9518402    371.35724  0.021009122  0.020163371           48 
 1474000   0.66496053   -6.9354451    371.79943  0.021019868  0.020147061           62 
 1475000   0.67643833   -6.9387793    372.17923  0.021027075  0.020130778           21 
 1476000    0.6695267   -6.9164524    373.15608  0.021067981  0.020114574           24 
 1477000   0.66209712   -6.9302914    372.43871  0.021013243  0.020098422           41 
 1478000   0.65879633   -6.9244176    371.89388  0.020968306  0.020082226           21 
 1479000   0.65362737   -6.9264663    371.75433  0.020946266  0.020066009           18 
 1480000   0.66225719   -6.9231063    372.11023  0.020952153  0.020049836           45 
 1481000    0.6659062   -6.9078452    372.45003  0.020957125  0.020033701           24 
 1482000   0.64810628   -6.9261693    372.81784  0.020963666  0.020017606           42 
 1483000   0.66395754   -6.9134807    373.17273  0.020969472  0.020001433           26 
 1484000   0.65466173   -6.9449189    371.92142  0.020885076  0.019985353           16 
 1485000   0.66854802    -6.931585    372.99319  0.020931155  0.019969293           40 
 1486000   0.65799385    -6.953727    372.29468  0.020877898  0.019953246           29 
 1487000     0.671108   -6.9206974    372.98487  0.020902537  0.019937209           23 
 1488000   0.65858862   -6.9370797    372.08332  0.020837999  0.019921194           28 
 1489000   0.64527322   -6.9129753    372.08803  0.020824268  0.019905231           40 
 1490000    0.6737393   -6.9453443    372.23495  0.020818509  0.019889266           17 
 1491000   0.65675345   -6.9440902    371.85578  0.020783355   0.01987322           19 
 1492000   0.65872958   -6.9534598    371.83608  0.020768324   0.01985713           16 
 1493000     0.679386   -6.9698762    371.30927  0.020725009  0.019841045           52 
 1494000   0.67089997   -6.9668842    371.30529  0.020710915   0.01982499           66 
 1495000   0.64475487   -6.9658174    372.47897  0.020762484   0.01980894           22 
 1496000    0.6539908   -6.9601691    371.79426  0.020710464  0.019792935           22 
 1497000   0.65287017   -6.9463913    372.54109  0.020738203  0.019776999           23 
 1498000   0.65463352   -6.9817852     372.6828  0.020732243  0.019760981           54 
 1499000   0.66262093   -6.9684537     371.4126  0.020647799  0.019744894           17 
 1500000   0.67264735   -6.9815974    372.02363   0.02066798  0.019728844           27 
 1501000    0.6373268   -6.9589974    371.38645  0.020618835  0.019712817           19 
 1502000   0.64237564   -6.9763568    370.75348  0.020569989   0.01969676           27 
 1503000   0.65696794   -6.9711454    371.15928  0.020578802  0.019680669           19 
 1504000   0.66294281   -6.9962045    371.54381  0.020586426  0.019664612           28 
 1505000   0.65284945    -6.979703    371.34686  0.020561842  0.019648538           64 
 1506000   0.64864726   -6.9968827     371.6196   0.02056328  0.019632501           29 
 1507000   0.64170536   -6.9728471     371.1913  0.020525951  0.019616504           19 
 1508000   0.65118286   -6.9700644    371.10711  0.020507687  0.019600529           26 
 1509000    0.6446867   -6.9842662    370.76957  0.020475457  0.019584515           58 
 1510000   0.63624378   -6.9891875    370.44603  0.020444042  0.019568506           25 
 1511000   0.65677691   -7.0011227    370.68565  0.020443727  0.019552446           31 
 1512000   0.65397581   -7.0156312    370.61312  0.020426208  0.019536429           32 
 1513000   0.65869031   -7.0046125    371.22501  0.020446409  0.019520449           95 
 1514000   0.64690085   -7.0211013    370.87605  0.020413697  0.019504484           27 
 1515000   0.65312398   -6.9804434    371.24229  0.020420368  0.019488535          107 
 1516000   0.64754041    -7.001471    371.47838  0.020419876  0.019472617           37 
 1517000   0.65312458   -6.9944252    371.63266   0.02041489  0.019456706           71 
 1518000   0.65135095    -6.995462    371.26835  0.020381442  0.019440797          160 
 1519000   0.64615057   -6.9834397    371.36266  0.020373198  0.019424912           54 
 1520000   0.64040735   -6.9806443    371.76337  0.020381764  0.019409028           80 
 1521000   0.64639008   -7.0194017    370.61182  0.020305272  0.019393148           64 
 1522000   0.63266825   -6.9976245    369.85676  0.020250589  0.019377255           39 
 1523000   0.65783535   -7.0356446    371.57797  0.020331471  0.019361335           83 
 1524000    0.6274876   -7.0175175    370.36694   0.02025191  0.019345462          105 
 1525000    0.6376483   -6.9794179    371.10993  0.020279231  0.019329634           44 
 1526000   0.65050957   -7.0340817    371.41523  0.020282614   0.01931378          157 
 1527000   0.65987032   -7.0052988      371.083    0.0202512   0.01929794          201 
 1528000   0.64369763   -6.9955997    371.59405  0.020265819  0.019282185          135 
 1529000   0.64856785    -7.007227    372.50084  0.020301986  0.019266448          106 
 1530000   0.63714714   -7.0131507     372.0928  0.020266492  0.019250753          169 
 1531000   0.65146936   -7.0048704    371.55113  0.020223771  0.019235052          164 
 1532000   0.62569381   -7.0113063    372.36054  0.020254599  0.019219369           89 
 1533000   0.65296861   -7.0155694    370.74236  0.020153422  0.019203665           81 
 1534000   0.64878008   -6.9900022    371.95256  0.020206028   0.01918798           65 
 1535000   0.64409996   -7.0112389    370.93616  0.020137685  0.019172314          125 
 1536000   0.63899034   -7.0084034      371.047  0.020130588  0.019156641          129 
 1537000   0.64141452   -7.0172051    372.56586  0.020199841  0.019141001          141 
 1538000   0.63024174   -7.0026301    371.13545  0.020109203    0.0191254           33 
 1539000   0.63997419   -7.0142853    370.65267  0.020069995  0.019109803          134 
 1540000   0.65276179   -7.0149218    371.58482  0.020107403  0.019094193           89 
 1541000    0.6366997   -6.9993769    372.28839  0.020132403  0.019078648          155 
 1542000   0.65522527   -7.0247769    370.99676  0.020049544  0.019063034          135 
 1543000   0.64699066    -6.996356    371.19209  0.020047099  0.019047391          182 
 1544000   0.62064465    -7.026189    371.59615  0.020055924  0.019031803          126 
 1545000    0.6504153   -6.9972267    372.50923  0.020092191  0.019016237          202 
 1546000   0.62572959   -7.0121278    371.74892  0.020038213  0.019000689          187 
 1547000   0.62623296   -7.0255083    371.35037   0.02000379  0.018985157          122 
 1548000   0.63588244    -7.018961    371.45208  0.019996344  0.018969659          150 
 1549000   0.63666039   -7.0325233     371.2376  0.019971896  0.018954092           61 
 1550000   0.63044614     -7.01391    371.71597  0.019984729  0.018938578           96 
 1551000   0.64745087   -7.0260327    371.91014  0.019982277  0.018923086           45 
 1552000   0.63248886   -7.0357503    371.51979  0.019948442  0.018907605          118 
 1553000   0.63324904   -7.0366046    371.54739  0.019937078  0.018892104           73 
 1554000   0.63383146   -7.0458266    372.35827  0.019967732  0.018876682          125 
 1555000   0.63326665   -7.0424421    371.18712  0.019892128   0.01886118          200 
 1556000   0.64410338   -7.0405301    371.15443  0.019877594  0.018845706          154 
 1557000   0.63054892   -7.0488839    371.67675  0.019892782  0.018830226          216 
 1558000   0.62354713    -7.034047    372.15916  0.019905817  0.018814768          202 
 1559000    0.6274456   -7.0456484    371.51062  0.019858382  0.018799272          156 
 1560000   0.62628655   -7.0532489    370.98045  0.019817332  0.018783823          186 
 1561000   0.63931421   -7.0508031    370.88611    0.0197996  0.018768399          226 
 1562000   0.62349899   -7.0309187    370.88262  0.019786738  0.018752963          221 
 1563000   0.63431746   -7.0552886    371.26014  0.019794207  0.018737636          231 
 1564000   0.63548074   -7.0434088    370.87067  0.019760799  0.018722294          224 
 1565000   0.64907141   -7.0720276    371.27792  0.019769857  0.018706918          181 
 1566000   0.62445141   -7.0574984    371.20549  0.019753378  0.018691586          239 
 1567000   0.60978622   -7.0373591    371.53545   0.01975832  0.018676302          133 
 1568000   0.62138785   -7.0496065    371.67236  0.019752995  0.018661005          123 
 1569000   0.64384026   -7.0675908    371.37817   0.01972478  0.018645703          209 
 1570000   0.62707255    -7.072593    371.04487  0.019694526  0.018630401          179 
 1571000   0.63198335   -7.0609048    370.93827  0.019676335  0.018615056          233 
 1572000   0.62988799   -7.0803993    370.12781  0.019620855  0.018599708          260 
 1573000   0.63261978    -7.073029    370.83648  0.019645925   0.01858442          197 
 1574000   0.61829243   -7.0739967    370.91534  0.019637618  0.018569142          349 
 1575000   0.63842351   -7.0488859    371.21123  0.019640806  0.018553893          221 
 1576000   0.61891773   -7.0428823    370.74675  0.019603783  0.018538694          279 
 1577000   0.63967621   -7.0542235    371.62272  0.019637641  0.018523472          292 
 1578000   0.61657232   -7.0657823    371.32227   0.01960933  0.018508228          326 
 1579000    0.6108946   -7.0605835    371.70536  0.019617129  0.018493036          285 
 1580000   0.62299338   -7.0696278    371.15167   0.01957551  0.018477852          351 
 1581000   0.62129501    -7.072613    371.16856  0.019564019   0.01846264          294 
 1582000   0.63587567    -7.086115    371.17614  0.019552051  0.018447445          247 
 1583000   0.60822408   -7.0907828    371.15016  0.019538332  0.018432255          362 
 1584000   0.61571065   -7.0989215    371.23915  0.019530679  0.018417067          355 
 1585000   0.62062085   -7.0844745    371.13208  0.019512728  0.018401898          318 
 1586000    0.6208354   -7.0803479    370.70822  0.019478154  0.018386756          281 
 1587000   0.62268445   -7.0565205    371.90513   0.01952873  0.018371623          356 
 1588000   0.60790158   -7.0800929    370.90811  0.019464111  0.018356504          356 
 1589000   0.61320821   -7.0897746     370.7022  0.019441063  0.018341339          370 
 1590000    0.6162592   -7.1027029    370.17353  0.019401128  0.018326224          448 
 1591000   0.60971252   -7.0728941    370.78398  0.019420908  0.018311119          375 
 1592000   0.62519089    -7.059962    370.63213  0.019400761   0.01829603          407 
 1593000   0.62833719   -7.0534497    370.85992  0.019400498  0.018280981          276 
 1594000   0.61613736   -7.0682533    371.19593  0.019405893  0.018265948          220 
 1595000    0.6008672   -7.0872833    370.51074  0.019357928  0.018250898          230 
 1596000   0.61703233   -7.0795023    370.83603  0.019362784  0.018235848          244 
 1597000   0.61641652   -7.0641204    370.82622  0.019350147  0.018220816          276 
 1598000   0.61734524   -7.0946803    370.89116  0.019341425  0.018205816          291 
 1599000   0.62745254   -7.0777846    370.76086  0.019322538  0.018190821          302 
 1600000   0.61891983   -7.0643471    370.87591  0.019316454   0.01817583          304 
 1601000   0.59978533    -7.090914    370.35805  0.019277433  0.018160852          379 
 1602000   0.60832113    -7.088312    370.38316  0.019266706  0.018145845          289 
 1603000   0.60366077   -7.0691888    371.41513  0.019308335  0.018130874          278 
 1604000   0.62261953   -7.0729835     369.7412  0.019209331  0.018115905          225 
 1605000   0.62794475   -7.0953389    370.76037  0.019250279  0.018100946          204 
 1606000   0.61941634    -7.104617    370.30803  0.019214821  0.018085957          138 
 1607000   0.59802554   -7.0995396    370.84218  0.019230563  0.018071011          377 
 1608000   0.60303022   -7.1044482    369.45443  0.019146685  0.018056015          262 
 1609000   0.59536062   -7.1054787    370.27357   0.01917721  0.018041058          256 
 1610000   0.62017314   -7.0978855      369.693  0.019135249  0.018026109          234 
 1611000   0.60788746   -7.1318705    370.21392  0.019150317  0.018011141          262 
 1612000   0.61717494   -7.0770323    370.28719  0.019142224   0.01799616          171 
 1613000   0.62119093   -7.1331074    370.03853   0.01911751  0.017981203          196 
 1614000   0.59810113    -7.140159    369.76652  0.019091621  0.017966245          145 
 1615000    0.6033362   -7.1065535    370.03157  0.019093476  0.017951279          313 
 1616000   0.60867414   -7.1089933    369.64057  0.019061498  0.017936307          166 
 1617000   0.61197278   -7.1087583    369.75215   0.01905546  0.017921338          165 
 1618000   0.60543189   -7.0976273    370.51797  0.019083126  0.017906431          210 
 1619000   0.61066336   -7.1114744    370.11622   0.01905066  0.017891533          198 
 1620000   0.59932802   -7.1003763    369.96482  0.019031112  0.017876607          160 
 1621000   0.60612544   -7.1145264     369.9243  0.019017289  0.017861712          376 
 1622000   0.60227601   -7.1088631    370.20476  0.019019973  0.017846824          289 
 1623000   0.60996392   -7.1154995    369.33622  0.018963659  0.017831983          422 
 1624000   0.61625578    -7.102266    369.84046  0.018977856  0.017817158          230 
 1625000   0.60498761   -7.1193038    370.03518  0.018976163  0.017802334          327 
 1626000   0.60784032   -7.1063009    370.08144  0.018966864  0.017787556          207 
 1627000   0.62233783   -7.1298129    370.06986  0.018954613  0.017772735          345 
 1628000   0.59250299   -7.1411669    369.27544  0.018902306  0.017757934          381 
 1629000   0.61406249   -7.1332031     369.0568  0.018879517  0.017743121          442 
 1630000   0.59911612   -7.1561704     369.3565  0.018883257  0.017728306          307 
 1631000   0.61445722   -7.1492453    369.42243  0.018875048  0.017713452          500 
 1632000   0.60382303   -7.1346303    369.87645  0.018886665  0.017698642          392 
 1633000   0.61485274   -7.1580703    369.36593  0.018849047  0.017683838          537 
 1634000   0.59037279   -7.1365424    370.03791  0.018871783  0.017669012          523 
 1635000   0.59907863   -7.1415663    368.99768  0.018807221   0.01765423          495 
 1636000   0.61354346   -7.1352651     369.9196  0.018842685  0.017639463          359 
 1637000   0.59818343   -7.1681288    368.46142  0.018756945   0.01762468          392 
 1638000   0.59253998    -7.129606    369.21833  0.018784002   0.01760992          346 
 1639000   0.60701445   -7.1429186    368.78393  0.018750454  0.017595212          339 
 1640000    0.6121517   -7.1629832    370.17095    0.0188095  0.017580501          495 
 1641000   0.60992711   -7.1471124    369.45964  0.018761915  0.017565793          473 
 1642000   0.59791951   -7.1337754    369.75502   0.01876548  0.017551154          476 
 1643000   0.58890655   -7.1369907    369.71214  0.018751884  0.017536485          422 
 1644000   0.59926743   -7.1585161    369.09759  0.018709326  0.017521826          445 
 1645000    0.5923537   -7.1482853    368.96384  0.018691177  0.017507143          457 
 1646000   0.58856849   -7.1555043     368.4962  0.018656146  0.017492484          479 
 1647000   0.60094203    -7.181572    368.65416  0.018652811  0.017477776          574 
 1648000    0.5901228   -7.1626151    368.66442  0.018642011  0.017463116          487 
 1649000   0.60748484    -7.159278    369.15187   0.01865534  0.017448458          489 
 1650000    0.5948726   -7.1762204    369.30275  0.018651654  0.017433807          615 
 1651000   0.59516271   -7.1708658    369.41397  0.018645971  0.017419146          497 
 1652000   0.59011768    -7.147496    368.39931    0.0185835  0.017404502          480 
 1653000   0.59357756   -7.1703154    368.90554  0.018597779   0.01738992          475 
 1654000   0.59663656   -7.1679399     368.9046  0.018586487   0.01737535          493 
 1655000   0.60148257   -7.1523323    368.04732  0.018532091  0.017360768          456 
 1656000   0.59780314   -7.1765078    368.87754  0.018562678  0.017346175          429 
 1657000   0.59996151   -7.1554736     369.0399  0.018559641  0.017331619          350 
 1658000   0.59718446   -7.1725739    368.72946  0.018532844   0.01731704          458 
 1659000   0.59197079   -7.1814855    369.19088   0.01854485   0.01730249          473 
 1660000   0.59974419   -7.1655283    368.39838  0.018493894  0.017287935          549 
 1661000    0.5845263   -7.1836397    368.64615  0.018495191  0.017273378          469 
 1662000   0.59299973   -7.1652909    368.13538  0.018458452  0.017258823          492 
 1663000   0.57779853   -7.1908904    368.05106  0.018443128  0.017244259          563 
 1664000   0.58705433   -7.1929865    367.76386  0.018417661  0.017229718          575 
 1665000   0.59408469   -7.1930562    368.25867  0.018431365  0.017215144          547 
 1666000   0.57703154   -7.1855991    369.00336  0.018457551  0.017200613          459 
 1667000   0.59535678   -7.2092832     368.2019  0.018406414  0.017186098          549 
 1668000   0.59280508   -7.2093621    368.51033  0.018410788  0.017171601          603 
 1669000   0.58213056   -7.1836263    368.69494  0.018408975  0.017157084          548 
 1670000    0.5821306   -7.1858976    368.98566  0.018412458  0.017142586          678 
 1671000   0.59085415   -7.2063136    368.20332  0.018362423  0.017128132          519 
 1672000   0.58452542   -7.2145634    367.41865  0.018312333  0.017113659          543 
 1673000   0.59025582   -7.2014168    368.52155  0.018356324  0.017099194          651 
 1674000   0.58401831   -7.2009333    367.40363  0.018289707  0.017084734          686 
 1675000   0.58705835   -7.2105039    367.55628  0.018286382  0.017070299          678 
 1676000   0.58881304   -7.1934939    368.22929  0.018308934  0.017055852          448 
 1677000    0.5945749   -7.1931245    368.13473  0.018293318  0.017041429          528 
 1678000   0.56825677   -7.1913009     368.3157  0.018291404  0.017027047          636 
 1679000   0.59105286   -7.1935259    368.36676  0.018283043  0.017012682          488 
 1680000   0.58628512   -7.1996156    367.90468   0.01824924  0.016998309          562 
 1681000   0.58176509   -7.2197535     368.2139  0.018253713  0.016983943          538 
 1682000   0.58653363   -7.2120314    367.66774  0.018215801  0.016969575          571 
 1683000   0.57372754   -7.2135442    368.31359  0.018236957  0.016955208          601 
 1684000   0.57683772   -7.2144591    368.28143  0.018224536  0.016940871          597 
 1685000   0.58360541   -7.1902426    368.25423  0.018212375  0.016926543          610 
 1686000   0.58157723   -7.1928378    368.03567  0.018190771  0.016912228          588 
 1687000    0.5773166   -7.2228483    367.43134  0.018150135   0.01689794          453 
 1688000   0.58906417   -7.2330405    367.45994  0.018140795  0.016883637          528 
 1689000   0.57988274   -7.2238244    367.04904  0.018109781  0.016869374          577 
 1690000   0.56735394   -7.1993042    367.54681   0.01812361  0.016855097          617 
 1691000   0.57620009   -7.2151974      367.436  0.018107431  0.016840851          675 
 1692000   0.57961865   -7.2008636    367.56909  0.018103284  0.016826618          680 
 1693000   0.57850595   -7.2120316    367.66317  0.018097222  0.016812399          654 
 1694000   0.58422429   -7.2394309    367.67614  0.018087177  0.016798185          679 
 1695000   0.56571048   -7.1932345    368.42905  0.018113523  0.016783992          685 
 1696000    0.5751935   -7.2237873    367.60792  0.018062496   0.01676982          749 
 1697000   0.57527255    -7.226583     368.2005  0.018080952   0.01675565          573 
 1698000   0.56959744    -7.228958    367.17052  0.018019755  0.016741477          607 
 1699000   0.57786547   -7.2260062    367.76494  0.018038304  0.016727303          613 
 1700000    0.5862372   -7.2303416    367.86236  0.018032468   0.01671312          621 
 1701000   0.58187502    -7.233783    367.70779  0.018014295  0.016698956          677 
 1702000   0.57863497   -7.2153312    367.90028  0.018013135  0.016684828          594 
 1703000   0.58000532   -7.2135192     367.7601  0.017995699  0.016670694          697 
 1704000   0.57268102    -7.211864    367.63202  0.017978874    0.0166566          667 
 1705000   0.57161112   -7.2378547    367.58936  0.017966245  0.016642511          663 
 1706000   0.58065055   -7.2280557    367.29457  0.017941313  0.016628412          522 
 1707000   0.57669191    -7.221846    367.42382  0.017937113   0.01661433          510 
 1708000   0.56677952   -7.2270255    367.06967  0.017909332  0.016600267          527 
 1709000   0.58194285   -7.2377839    367.07847  0.017899282  0.016586222          462 
 1710000    0.5656689   -7.2413035    367.00473  0.017885221  0.016572179          681 
 1711000   0.56147654   -7.2281207    366.88757  0.017869061  0.016558131          654 
 1712000   0.56849544   -7.2379189    366.94608  0.017861472  0.016544092          676 
 1713000   0.56543557   -7.2322025    366.49233  0.017828971  0.016530065          488 
 1714000   0.56576181   -7.2201025    367.38001  0.017861728   0.01651606          409 
 1715000   0.57364707   -7.2373328    366.67143  0.017816882  0.016502035          642 
 1716000    0.5686704   -7.2473194    366.47761  0.017797087  0.016488013          705 
 1717000   0.57610457    -7.228926    367.64481  0.017843371  0.016474044          684 
 1718000    0.5703997   -7.2226309    367.32045  0.017817251  0.016460074          614 
 1719000   0.55793289    -7.227031    366.95365  0.017789104  0.016446113          657 
 1720000   0.56307435   -7.2273942    367.08628  0.017785188  0.016432194          636 
 1721000   0.56118063   -7.2478603    367.80125  0.017809474   0.01641829          666 
 1722000   0.57038927   -7.2234433    366.94156  0.017757528  0.016404394          512 
 1723000   0.56297245   -7.2634995    367.27263  0.017763234  0.016390511          533 
 1724000   0.56512778   -7.2459405    367.20985  0.017749896  0.016376611          677 
 1725000   0.55504806   -7.2357951    367.17237  0.017737796  0.016362731          677 
 1726000   0.56303312   -7.2456944    366.32965  0.017686831  0.016348866          675 
 1727000   0.56894442    -7.239894    366.91782  0.017704971  0.016335034          619 
 1728000   0.55278696   -7.2499294    366.57549  0.017678216  0.016321205          640 
 1729000   0.55773193   -7.2366555    366.91909  0.017684552  0.016307423          642 
 1730000    0.5548133   -7.2478636    367.84594  0.017718976  0.016293653          502 
 1731000   0.56043865   -7.2388694     367.2849   0.01768173  0.016279884          632 
 1732000   0.56733391   -7.2338497    366.97762  0.017656737  0.016266139          585 
 1733000   0.57198299   -7.2574211    366.33024  0.017615418   0.01625239          715 
 1734000    0.5702126   -7.2408035    367.06448  0.017640546  0.016238639          571 
 1735000   0.56068382   -7.2492045    367.09611  0.017631898  0.016224897          648 
 1736000   0.56132326    -7.233288    367.57496  0.017644727  0.016211176          493 
 1737000   0.55045686    -7.229092    366.46524   0.01758133  0.016197461          687 
 1738000   0.55679024   -7.2430136    366.28293  0.017562473  0.016183771          646 
 1739000   0.56821483   -7.2338478    366.62165  0.017568605   0.01617008          717 
 1740000   0.56926118   -7.2402316    366.72166  0.017563298  0.016156409          640 
 1741000   0.55797054   -7.2664567    365.89023  0.017513413  0.016142741          763 
 1742000   0.55201536   -7.2126044      367.759  0.017592757  0.016129088          711 
 1743000   0.55323967   -7.2557341    366.62041  0.017528227  0.016115463          727 
 1744000   0.56745773   -7.2460063    366.12939  0.017494715  0.016101813          765 
 1745000   0.56406468   -7.2536936    366.79224  0.017516344  0.016088165          796 
 1746000   0.54509895   -7.2397625    366.53575   0.01749407  0.016074564          771 
 1747000   0.55984176   -7.2454285    366.98777  0.017505618  0.016061009          759 
 1748000   0.54269891   -7.2395271    366.89115  0.017490997  0.016047467          737 
 1749000   0.54995698    -7.278117    366.08806  0.017442732  0.016033912          881 
 1750000   0.55823092   -7.2569484    366.58509  0.017456433  0.016020353          577 
 1751000   0.55278075   -7.2646481     366.5438  0.017444498  0.016006812          624 
 1752000   0.55931408   -7.2789503    365.92186  0.017404959  0.015993287          811 
 1753000   0.55710063   -7.2768577    366.19616   0.01740807  0.015979763          886 
 1754000   0.57025719   -7.2485248    366.11139  0.017394118  0.015966269          892 
 1755000   0.55624553   -7.2623623    366.56352  0.017405675  0.015952783          879 
 1756000   0.55115844    -7.250539    366.43764  0.017389789  0.015939288          932 
 1757000   0.55228038   -7.2690748    366.43237  0.017379642  0.015925806          843 
 1758000   0.56346975   -7.2787245    366.28906  0.017362963  0.015912316          840 
 1759000   0.54606421   -7.2719502    366.57935  0.017366844   0.01589885          828 
 1760000   0.54282411   -7.2611953    365.97619  0.017328418  0.015885378          779 
 1761000   0.54786671   -7.2724045    365.96345  0.017317975  0.015871938          872 
 1762000   0.55568729   -7.2722419    366.75076  0.017345382  0.015858522          768 
 1763000   0.54534373   -7.2747353    365.92968  0.017296733  0.015845098          794 
 1764000   0.55480949   -7.2903384     365.9991  0.017290207  0.015831679          674 
 1765000   0.53609923   -7.2845918    366.66344  0.017311777  0.015818286          826 
 1766000   0.56137937   -7.2706872    366.22555  0.017281311  0.015804938          765 
 1767000   0.53976568   -7.2937747    365.91535  0.017256902  0.015791549          871 
 1768000   0.54887377   -7.2631806    366.38436  0.017269248  0.015778197          866 
 1769000    0.5415297    -7.274886    365.83754  0.017233726  0.015764867          915 
 1770000   0.55654167   -7.2696045    366.22014  0.017242003  0.015751537          848 
 1771000   0.53845122   -7.2898577    366.28323  0.017235236  0.015738219          930 
 1772000   0.54267748   -7.2868808    365.45265  0.017186449  0.015724899          997 
 1773000   0.54723026   -7.2949445    365.70969  0.017188837  0.015711606          961 
 1774000   0.54705444   -7.2829291     366.0461   0.01719495  0.015698312          950 
 1775000   0.55330996   -7.2748921    366.03588  0.017184783  0.015685046          837 
 1776000   0.54603771   -7.2635095     365.7654  0.017162416  0.015671813          807 
 1777000   0.54145961   -7.2938641    365.88033  0.017158147  0.015658573          931 
 1778000   0.54937661   -7.2687273    366.50973  0.017177996  0.015645336          897 
 1779000   0.53664963   -7.2847312    365.76626  0.017133514  0.015632116          969 
 1780000   0.53876532   -7.2775998    366.04676   0.01713702  0.015618881          968 
 1781000   0.55064099   -7.3055842    365.26915  0.017091014  0.015605674          892 
 1782000   0.54643514   -7.2976121    366.36315  0.017132583  0.015592473          909 
 1783000   0.53970047   -7.3086517    365.31796  0.017074124  0.015579292         1010 
 1784000   0.54426951   -7.3020932    365.76234  0.017085311   0.01556612         1018 
 1785000     0.542624   -7.2935572    365.95201  0.017084594  0.015552951          804 
 1786000   0.54406891   -7.3126102    365.90871  0.017073008  0.015539788          774 
 1787000   0.53475366   -7.2875873    365.28698  0.017034461  0.015526636          929 
 1788000   0.54897948   -7.2970352    366.02363  0.017059267  0.015513529          808 
 1789000   0.54855392   -7.2831943    365.90288  0.017044107  0.015500426          853 
 1790000    0.5342953   -7.3154324    366.09363  0.017043465  0.015487348          917 
 1791000   0.52654543   -7.2911523    365.63395  0.017012561  0.015474284          827 
 1792000   0.53247624    -7.291462    365.38922  0.016991686  0.015461213         1031 
 1793000   0.54485425   -7.2923577    365.77757  0.017000259  0.015448145         1038 
 1794000   0.52656675   -7.2835207    366.23153   0.01701187  0.015435087          952 
 1795000   0.53408227   -7.3044611    365.71155  0.016978252  0.015422057          990 
 1796000   0.53166562   -7.3149543    365.59931  0.016963591  0.015409026          966 
 1797000   0.53907751   -7.3027332    365.48099  0.016948664  0.015396015          944 
 1798000   0.53644116   -7.2937248    366.00405   0.01696348  0.015383037         1069 
 1799000   0.52341832    -7.306726    365.84732  0.016946791  0.015370049          974 
 1800000   0.53783186    -7.309571    365.79166  0.016934799  0.015357061         1013 
 1801000   0.53527828   -7.3081568    365.17255   0.01689675  0.015344085          999 
 1802000   0.52493356   -7.3138562    365.38027  0.016896979  0.015331117          991 
 1803000   0.53445917   -7.3074771     365.6536   0.01690024  0.015318174         1064 
 1804000    0.5356909   -7.3155894    365.85319  0.016900092  0.015305242         1004 
 1805000   0.53314964   -7.3141317    365.62048  0.016879985  0.015292314          996 
 1806000   0.52554071   -7.3010551    364.94284   0.01683937    0.0152794         1053 
 1807000   0.53385764    -7.288538    365.57167  0.016859051  0.015266535         1034 
 1808000   0.53036384   -7.3060772    365.98378  0.016868721  0.015253669          989 
 1809000   0.52904692   -7.3105935     365.5057  0.016837373  0.015240817         1060 
 1810000   0.53790976   -7.2979153    365.93396  0.016847788  0.015227986          930 
 1811000   0.53225322   -7.2986319    364.87471  0.016789744  0.015215166          944 
 1812000   0.52803003   -7.3074772    365.49549  0.016809027  0.015202346          834 
 1813000   0.53513283   -7.3165801    365.14169  0.016783494  0.015189535          966 
 1814000   0.52676674     -7.30795    366.12286  0.016819315  0.015176735          942 
 1815000   0.52865286   -7.3100793    366.75935  0.016839272  0.015163964         1045 
 1816000   0.53395321   -7.3160177    365.78361  0.016785224  0.015151218         1110 
 1817000   0.51990326   -7.3146618    365.09022  0.016744185  0.015138475         1144 
 1818000   0.52488072   -7.3208161    364.97054  0.016729489  0.015125718          941 
 1819000   0.52509883   -7.3237144     365.5663  0.016747586  0.015112971         1028 
 1820000   0.53499488   -7.3264737    365.11376  0.016717663  0.015100226          924 
 1821000   0.52204616   -7.3266705    365.23817  0.016714176  0.015087513          983 
 1822000   0.53297976   -7.3296809    364.81002   0.01668542  0.015074806          966 
 1823000   0.52718393   -7.3280087    364.65151  0.016669021  0.015062119          939 
 1824000    0.5230626   -7.3400794    365.44103  0.016695953  0.015049446          875 
 1825000   0.51868821   -7.3267889    365.07465  0.016670075  0.015036794          979 
 1826000   0.52243729   -7.3205399    364.66038   0.01664204  0.015024143         1095 
 1827000   0.52768923   -7.3159143    365.63015  0.016677164  0.015011512         1025 
 1828000    0.5195314   -7.3095234    365.67996  0.016670312  0.014998895          922 
 1829000   0.52700848   -7.3109887    364.99808  0.016630129  0.014986279          925 
 1830000    0.5238325   -7.3220371    365.30019  0.016634799  0.014973683          983 
 1831000    0.5318433   -7.3231001    365.14558  0.016618677  0.014961096         1008 
 1832000   0.52176091   -7.3413281    365.06357  0.016605875  0.014948531         1030 
 1833000   0.51605537   -7.3252187    365.59407  0.016620934  0.014935977         1029 
 1834000   0.51609625   -7.3366562    364.75072  0.016573552   0.01492343         1074 
 1835000   0.51358655   -7.3208996    364.74333  0.016564184   0.01491091          974 
 1836000     0.519762   -7.3476707    364.74742  0.016555348  0.014898383         1066 
 1837000   0.52671256   -7.3388483    365.26025  0.016569599  0.014885871         1039 
 1838000   0.53679094   -7.3256105    364.94594  0.016546334  0.014873382          958 
 1839000   0.52015741   -7.3484772    364.53806  0.016518853  0.014860896          848 
 1840000   0.50436771   -7.3362029    364.91697  0.016527037  0.014848415          954 
 1841000   0.52737085   -7.3345328    364.62993  0.016505066  0.014835945          882 
 1842000   0.51471935   -7.3540613    364.61763   0.01649555  0.014823478         1044 
 1843000    0.5143546   -7.3417179    364.76929  0.016493457  0.014811036          957 
 1844000   0.51444081    -7.335999    364.70093  0.016481423  0.014798603          971 
 1845000   0.51446172   -7.3538021    364.40319  0.016459042  0.014786161          998 
 1846000   0.51800709   -7.3319207    364.94465  0.016474569   0.01477373          933 
 1847000   0.51455682   -7.3430838    364.60392  0.016450276  0.014761339          909 
 1848000   0.51742424    -7.357575    364.79089  0.016449805  0.014748942          877 
 1849000   0.51423989   -7.3328276    364.58601  0.016431675  0.014736577          998 
 1850000    0.5089489   -7.3549869    364.79535  0.016432223   0.01472423          881 
 1851000   0.51688416   -7.3478259    364.54667   0.01641215  0.014711881          974 
 1852000   0.50116885   -7.3700567    365.34587  0.016439249  0.014699543         1054 
 1853000   0.50655157   -7.3447742    364.53117  0.016393738  0.014687228          992 
 1854000   0.50035374   -7.3375672    364.91486  0.016402142  0.014674922          907 
 1855000   0.50924354   -7.3455438     364.8508  0.016390422  0.014662653          936 
 1856000   0.51379385    -7.336889    364.40905  0.016361757  0.014650384          919 
 1857000   0.52543916   -7.3312863    364.85589  0.016372998  0.014638129          963 
 1858000   0.51400075   -7.3385095    364.77879  0.016360728  0.014625865          904 
 1859000   0.51384254    -7.342241     364.7278  0.016349641  0.014613629          949 
 1860000   0.50636799   -7.3633016    365.52355  0.016376503  0.014601386         1016 
 1861000   0.50821777   -7.3564374    365.11339  0.016349337  0.014589141          944 
 1862000   0.50715804   -7.3329182    364.16834  0.016298261  0.014576923          893 
 1863000   0.51379216   -7.3403372    364.78479  0.016317087  0.014564716          865 
 1864000    0.5163968   -7.3588485    364.41026  0.016291589  0.014552534         1013 
 1865000    0.5004193   -7.3673272      364.856   0.01630277  0.014540354         1017 
 1866000   0.51664795   -7.3477031    364.75462  0.016289506  0.014528207          955 
 1867000   0.51874008   -7.3432072    364.87151  0.016285999  0.014516064          921 
 1868000   0.50449663   -7.3581509    364.48644  0.016260102  0.014503931          941 
 1869000   0.49360729   -7.3585467    364.60497  0.016256687  0.014491805          964 
 1870000   0.52553963   -7.3506172    364.78704  0.016256107  0.014479697          891 
 1871000   0.51042211    -7.358072    364.48646  0.016234031  0.014467581          973 
 1872000   0.50836571   -7.3546427    364.38811  0.016220981  0.014455484          869 
 1873000   0.50571686   -7.3565822    365.05769  0.016242111  0.014443401          969 
 1874000    0.4996547   -7.3547654    364.92399  0.016227499  0.014431331          840 
 1875000   0.50580541   -7.3563398    364.25634  0.016189171  0.014419274          984 
 1876000   0.50243662   -7.3618195    364.35988   0.01618514  0.014407222          963 
 1877000    0.5095047   -7.3514209    364.80371  0.016196222   0.01439518          964 
 1878000   0.48086707   -7.3526066     364.4811  0.016173283  0.014383162          903 
 1879000   0.51418249   -7.3674496    364.06105  0.016146046  0.014371158          847 
 1880000   0.49926409    -7.358242    364.94039  0.016176436  0.014359173          889 
 1881000   0.50635545   -7.3784747    364.73409  0.016158696  0.014347205          890 
 1882000   0.49836497   -7.3651862    364.94842  0.016159601  0.014335241          997 
 1883000   0.50501395   -7.3643241    364.60818  0.016135961  0.014323294          903 
 1884000   0.50555596   -7.3690254    365.08442  0.016148461  0.014311361          926 
 1885000   0.49896479     -7.36724    364.98449  0.016135477  0.014299439          884 
 1886000   0.50740705   -7.3688907    364.35389  0.016099058  0.014287524          896 
 1887000   0.49472441   -7.3546079    364.37091  0.016091279  0.014275622          946 
 1888000   0.48631652   -7.3844657    364.32501   0.01608073  0.014263724          947 
 1889000   0.49603843   -7.3699955    363.83472  0.016050588  0.014251827          900 
 1890000   0.50370271   -7.3686928    365.00703  0.016093784  0.014239952          916 
 1891000   0.49780358    -7.371326    364.62338  0.016068367  0.014228095          934 
 1892000   0.49596946   -7.3477305     364.8361  0.016069243   0.01421625          936 
 1893000   0.50134443   -7.3859936    364.29644  0.016036998  0.014204422          910 
 1894000   0.49224399   -7.3696111    364.99471  0.016059254  0.014192603          877 
 1895000   0.49749293    -7.371218    363.83617  0.015999832  0.014180786          967 
 1896000   0.49889812   -7.3769457    364.40577  0.016016428  0.014168999          930 
 1897000   0.49809532   -7.3729959    363.79479  0.015981145  0.014157201          931 
 1898000   0.49470279   -7.3570693    364.92629  0.016022405  0.014145436          858 
 1899000   0.49807553   -7.3883193    364.14976  0.015979891  0.014133682          982 
 1900000   0.49401374   -7.3806138    364.49211  0.015986496  0.014121933          962 
 1901000   0.48599148   -7.3850324    363.62174  0.015939932  0.014110181         1027 
 1902000   0.48919015   -7.3652106    364.63951  0.015976144  0.014098447         1012 
 1903000    0.4872793   -7.3885346    364.10321  0.015944264  0.014086718         1046 
 1904000   0.49865116   -7.3801933    364.19355  0.015939844  0.014074993         1016 
 1905000    0.4890466   -7.3773784    364.11831  0.015928185  0.014063274         1072 
 1906000   0.49333608   -7.3912325    363.84983   0.01590809  0.014051569         1032 
 1907000   0.49130782     -7.39135    364.00134  0.015906368  0.014039872          951 
 1908000    0.4912256    -7.392138    363.51531  0.015876804  0.014028194          989 
 1909000   0.49179891   -7.3733322    364.10884  0.015894397  0.014016531         1064 
 1910000   0.48622468   -7.3886708    364.55343  0.015905473   0.01400488         1008 
 1911000    0.4937799   -7.3793944    364.08525  0.015876734   0.01399323         1005 
 1912000   0.49835174   -7.3851226    363.58286  0.015846533  0.013981596         1020 
 1913000   0.48305059   -7.4018925    364.38696  0.015873278  0.013969969          949 
 1914000   0.49673344   -7.3999583     364.0986   0.01585243  0.013958351         1053 
 1915000   0.48740165   -7.3822724    364.42425  0.015858322  0.013946746         1028 
 1916000   0.48433325   -7.3733853    363.47619  0.015808811  0.013935142          967 
 1917000   0.49517396   -7.3991878     363.8471  0.015816688   0.01392356          983 
 1918000   0.48843938   -7.3982537    363.54601   0.01579536  0.013911985          959 
 1919000   0.48826746   -7.3882156    363.54629  0.015787141  0.013900434         1064 
 1920000   0.48257117   -7.4057098    363.83385    0.0157914  0.013888889         1000 
 1921000   0.48103046   -7.3759492    363.22283  0.015756673  0.013877355         1038 
 1922000   0.48450202   -7.3967932    363.71832  0.015769958  0.013865815         1049 
 1923000   0.48295965   -7.3920396     363.9595  0.015772209  0.013854293          998 
 1924000   0.48318434   -7.3884487    364.05121  0.015767984  0.013842796          995 
 1925000   0.49965413   -7.4068936    363.46983  0.015734625  0.013831287         1020 
 1926000   0.48744598   -7.4015064    363.61539  0.015732753  0.013819805          990 
 1927000   0.48158736   -7.4040907    364.12765  0.015746741  0.013808326         1033 
 1928000   0.47167153   -7.3970896    363.62054  0.015716656  0.013796864          996 
 1929000   0.48362502   -7.4181363    363.66973  0.015710633  0.013785407          968 
 1930000   0.47572876    -7.388511     363.5745  0.015698381  0.013773965          974 
 1931000   0.48166345   -7.3950454    363.51751  0.015687792   0.01376254          976 
 1932000   0.47250695   -7.4058986    363.60385  0.015683396  0.013751122         1021 
 1933000   0.48045553   -7.4115615    363.62676   0.01567627  0.013739713          973 
 1934000    0.4793813    -7.405387    363.72925  0.015672581  0.013728329          963 
 1935000   0.46814059   -7.4099982    363.37123  0.015649062  0.013716948          997 
 1936000   0.48633919   -7.4166528    363.29004  0.015637484  0.013705586          996 
 1937000   0.47726373   -7.4098893    363.27086  0.015628586   0.01369422         1070 
 1938000   0.47931843   -7.4013508    363.63726  0.015636277  0.013682872         1021 
 1939000   0.46941875   -7.4216586    362.97009   0.01559954  0.013671545         1033 
 1940000   0.47793099   -7.3952459    363.74414  0.015624748  0.013660215         1102 
 1941000   0.47469013   -7.4137479    363.73051  0.015616113  0.013648898         1094 
 1942000   0.47204347   -7.4126789    363.52985  0.015599462  0.013637601          989 
 1943000   0.46612364   -7.4085057    363.23575  0.015578819  0.013626302         1017 
 1944000   0.47243841   -7.4111912    363.44733  0.015579875  0.013615023          957 
 1945000     0.480661   -7.4266729    363.26472  0.015564041  0.013603763         1046 
 1946000   0.47054976   -7.4129753    363.56482  0.015568894  0.013592499         1024 
 1947000   0.48649384   -7.4074127      363.499  0.015558081  0.013581249          918 
 1948000   0.47646132   -7.3917106    363.60768  0.015554743  0.013570031          979 
 1949000   0.48400083   -7.4044423    363.78463  0.015554328  0.013558815         1017 
 1950000   0.47949882   -7.4016577    363.64793   0.01554051  0.013547606         1041 
 1951000   0.47912895   -7.4048333    363.80753  0.015539361  0.013536414          982 
 1952000    0.4709073   -7.4065098    363.50759  0.015518596  0.013525234          987 
 1953000    0.4754729    -7.410094    362.73492  0.015477681  0.013514056         1061 
 1954000   0.47133527     -7.42707    363.60027  0.015506664  0.013502903          946 
 1955000   0.48517563   -7.4203148    362.75664  0.015462773  0.013491752         1006 
 1956000   0.48177454   -7.4181056    364.03084  0.015509153  0.013480626          976 
 1957000   0.48108187   -7.4225517       363.28  0.015469256  0.013469487          962 
 1958000   0.47055601   -7.4048209    363.39934  0.015466434  0.013458365          954 
 1959000   0.47718485   -7.4221516    362.76729  0.015431652  0.013447248         1100 
 1960000   0.47767687   -7.4147636    363.70957  0.015463842  0.013436148         1075 
 1961000   0.47548229   -7.4194982    363.31995    0.0154394  0.013425061         1069 
 1962000   0.46105437   -7.4172521    363.44181  0.015436706  0.013413991         1047 
 1963000   0.46873182   -7.4112728    363.04547  0.015412017  0.013402909         1063 
 1964000   0.45998597   -7.4123048    363.04048  0.015403958   0.01339186          988 
 1965000   0.47509837   -7.4064958    362.54774  0.015375222  0.013380821         1063 
 1966000   0.45989799   -7.4228694    363.30178  0.015399363  0.013369793          968 
 1967000   0.47268439   -7.4259946    362.81317  0.015370834  0.013358782         1055 
 1968000   0.47237305   -7.4305825     363.0558  0.015373298  0.013347767          959 
 1969000   0.46858218   -7.4334459    362.95491   0.01536122  0.013336777         1096 
 1970000   0.46740845    -7.440062    363.16661  0.015362378  0.013325787         1126 
 1971000   0.46696172   -7.4309222    362.71444  0.015335466  0.013314806         1091 
 1972000   0.46769768   -7.4227692    363.37726  0.015355699   0.01330383         1022 
 1973000   0.46431969   -7.4150038    363.55023  0.015355222  0.013292871          887 
 1974000   0.45529767   -7.4235276    362.70088  0.015311587  0.013281929          847 
 1975000   0.46353926   -7.4194606    363.32484  0.015330162  0.013271006          972 
 1976000   0.46789154   -7.4390774    363.06357  0.015311385  0.013260094         1005 
 1977000   0.45574737   -7.4307447    363.07097  0.015303953  0.013249186         1029 
 1978000   0.45308855   -7.4245272    362.74224  0.015282366  0.013238293         1005 
 1979000   0.46991562   -7.4316781    363.04399   0.01528735  0.013227404         1023 
 1980000   0.45440773   -7.4456994    363.05176  0.015279956  0.013216514         1048 
 1981000   0.46120332   -7.4462125    362.32782   0.01524179  0.013205654         1009 
 1982000   0.46041168   -7.4366101    363.18246  0.015270033  0.013194799          989 
 1983000   0.46182831   -7.4303292    362.88891  0.015249996  0.013183968         1010 
 1984000   0.46915443   -7.4265728    362.81552  0.015239227  0.013173136         1032 
 1985000   0.45564331   -7.4436487    363.13634  0.015245019  0.013162317         1019 
 1986000   0.45815003   -7.4328941    362.96282  0.015230061  0.013151499         1055 
 1987000   0.46233099   -7.4407923    362.80441  0.015215753  0.013140683          962 
 1988000   0.46000405   -7.4371112    362.78332  0.015207215   0.01312989         1074 
 1989000   0.45894011   -7.4428287    362.48144  0.015186921  0.013119115          975 
 1990000   0.45656737   -7.4384873    362.93072  0.015198104  0.013108344         1045 
 1991000   0.47668265   -7.4520543    362.88527  0.015188568  0.013097583         1053 
 1992000   0.45061386   -7.4568031    362.51809  0.015165583  0.013086831         1101 
 1993000   0.44986831   -7.4408708    362.61878  0.015162184  0.013076097         1055 
 1994000   0.46378024   -7.4324746    362.41134   0.01514591  0.013065369         1095 
 1995000   0.45674969   -7.4275257    362.78022  0.015153727  0.013054658         1077 
 1996000   0.46281254   -7.4431538     362.8655  0.015149695  0.013043947         1066 
 1997000   0.45390055   -7.4423429    362.83493  0.015140833  0.013033258         1051 
 1998000   0.44643578   -7.4481886    362.89747  0.015135864  0.013022575         1001 
 1999000   0.46675758   -7.4322654     363.0348  0.015134017  0.013011921         1008 
 2000000   0.45551712   -7.4341448    363.56947  0.015148728  0.013001273          982 
 2001000   0.45167941   -7.4699251    362.12177  0.015080866   0.01299063         1071 
 2002000   0.45745172   -7.4316191    363.06733  0.015112693  0.012979995         1004 
 2003000   0.44992601   -7.4619323     362.1528  0.015067099  0.012969373         1103 
 2004000    0.4317974   -7.4358991     362.7087  0.015082697  0.012958759         1102 
 2005000   0.45083124   -7.4556542    362.25116  0.015056158  0.012948167         1034 
 2006000   0.45419783   -7.4445095    362.02818  0.015039389  0.012937581         1038 
 2007000   0.44747844   -7.4441826    362.60037  0.015055654  0.012926996         1124 
 2008000   0.45498806   -7.4499261    362.78255  0.015055717  0.012916424         1108 
 2009000   0.45240531   -7.4543485    362.25803  0.015026466  0.012905858         1124 
 2010000   0.44922051   -7.4487392    363.78385  0.015082249  0.012895301         1026 
 2011000   0.45304161   -7.4571256    362.13055  0.015006239  0.012884767         1037 
 2012000   0.44508457   -7.4591548    362.86524   0.01502921  0.012874242         1189 
Loop time of 5210.72 on 48 procs for 2000000 steps with 4000 atoms

Performance: 66324.841 tau/day, 383.824 timesteps/s
99.4% CPU use with 48 MPI tasks x no OpenMP threads

MPI task timing breakdown:
Section |  min time  |  avg time  |  max time  |%varavg| %total
---------------------------------------------------------------
Pair    | 372.19     | 401.01     | 436.57     |  79.8 |  7.70
Neigh   | 36.241     | 37.641     | 39.052     |  12.0 |  0.72
Comm    | 338.61     | 368.14     | 392.63     |  72.5 |  7.06
Output  | 4.9463     | 4.9482     | 4.9962     |   0.3 |  0.09
Modify  | 4333       | 4349.4     | 4369.1     |  13.7 | 83.47
Other   |            | 49.55      |            |       |  0.95

Nlocal:        83.3333 ave          91 max          78 min
Histogram: 5 6 3 15 3 5 5 2 1 3
Nghost:        2420.06 ave        2436 max        2401 min
Histogram: 4 1 3 6 4 8 8 7 3 4
Neighs:        16720.9 ave       19360 max       14671 min
Histogram: 7 5 3 9 4 6 4 4 3 3
FullNghs:      33442.1 ave       37178 max       31243 min
Histogram: 7 4 11 7 6 3 6 1 1 2

Total # of neighbors = 1605220
Ave neighs/atom = 401.30500
Neighbor list builds = 106982
Dangerous builds = 0

#clear
#
#next RN
#
#jump SELF
Total wall time: 1:26:55
