
units lj                  # Use reduced LJ style units
atom_style atomic         # Uncharged point particles
atom_modify map hash      # Needed for indexing of clusters etc
                          # Used to be able to find where atoms are in relation to each other.

lattice fcc 1.0 spacing 1 1 1
Lattice spacing in x,y,z = 1.5874011 1.5874011 1.5874011
region box block 0 10 0 10 0 10 units lattice
create_box 2 box
Created orthogonal box = (0.0000000 0.0000000 0.0000000) to (15.874011 15.874011 15.874011)
  3 by 4 by 4 MPI processor grid
create_atoms 1 box
Created 4000 atoms
  using lattice units in orthogonal box = (0.0000000 0.0000000 0.0000000) to (15.874011 15.874011 15.874011)
  create_atoms CPU = 0.003 seconds
set type 1 type/fraction 2 0.33 78393
Setting atom values ...
  1342 settings made for type/fraction
mass 1 1.0
mass 2 1.0
pair_style lj/cut  3.5
pair_modify tail  yes
pair_coeff 1  1  1.0  1.0   # Intearaction between 1 and 1 set with epsilon = 1 and sigma = 1
pair_coeff 1  2  1.5  0.8
pair_coeff 2  2  0.5  0.88

write_data data.0
System init for write_data ...
Neighbor list info ...
  update every 1 steps, delay 10 steps, check yes
  max neighbors/atom: 2000, page size: 100000
  master list distance cutoff = 3.8
  ghost atom cutoff = 3.8
  binsize = 1.9, bins = 9 9 9
  1 neighbor lists, perpetual/occasional/extra = 1 0 0
  (1) pair lj/cut, perpetual
      attributes: half, newton on
      pair build: half/bin/atomonly/newton
      stencil: half/bin/3d
      bin: standard
WARNING: Not all mixed pair coeffs generated from mixing. Use write_data with 'pair ij' option to store all pair coeffs. (../write_data.cpp:312)


#############################
#   M E L T   S Y S T E M   #
#############################

velocity all create 2.4 8172548 mom yes dist gaussian # Assign velocities
                                                    # Temperature 2.4, random number seed, zero linear momentum
                                                                                # Gaussian distribution

timestep 0.002   # simulation timestep
thermo 1000       # output thermodynamic data every 1000 steps bf 100

# Define a fix  in this case with index 1 applied to all
# particles in the simulation. This fix is for simulations
# in the anisotropic NPT ensemble. Note that we use the MTK
# correction.
fix 1 all npt temp 2.4 2.4 0.1 iso 5.68 5.68 0.5 mtk yes tchain 5 pchain 5 # Use NPT ensemble
                                                                         # Set temperature and pressure and damping
                                                                         # Numbers of thermostats in chain and in barostat
run 10000          # run for 10000 steps
Per MPI rank memory allocation (min/avg/max) = 3.642 | 3.644 | 3.648 Mbytes
Step Temp E_pair E_mol TotEng Press Volume 
       0          2.4   -6.2616635            0   -2.6625635   -4.0519521         4000 
    1000    2.3568949   -5.0502595            0   -1.5158009    5.5204563    4057.0442 
    2000    2.4038532     -4.97638            0   -1.3715016    5.6663721    4088.0318 
    3000    2.4390515   -5.0627032            0   -1.4050407    5.4570914    4066.4304 
    4000     2.407286   -5.0132242            0   -1.4031978    5.7920991    4062.2071 
    5000     2.364829   -5.0192579            0   -1.4729012     5.839158    4047.2362 
    6000    2.4054087   -4.9828047            0   -1.3755936    5.5991289    4087.4906 
    7000     2.420846   -5.0234337            0   -1.3930726    5.7634648    4061.8532 
    8000    2.3491982   -5.0228672            0   -1.4999508    5.4372374    4084.6071 
    9000     2.397697   -4.9555209            0   -1.3598746     5.535167    4112.1069 
   10000    2.3990202    -5.072467            0   -1.4748363    5.3904963    4065.8732 
Loop time of 2.49248 on 48 procs for 10000 steps with 4000 atoms

Performance: 693285.736 tau/day, 4012.070 timesteps/s
99.6% CPU use with 48 MPI tasks x no OpenMP threads

MPI task timing breakdown:
Section |  min time  |  avg time  |  max time  |%varavg| %total
---------------------------------------------------------------
Pair    | 1.0397     | 1.14       | 1.2261     |   3.4 | 45.74
Neigh   | 0.20301    | 0.21369    | 0.22731    |   1.0 |  8.57
Comm    | 0.77268    | 0.8586     | 1.0144     |   5.2 | 34.45
Output  | 0.0002522  | 0.00025778 | 0.00032519 |   0.0 |  0.01
Modify  | 0.21951    | 0.26431    | 0.29935    |   4.7 | 10.60
Other   |            | 0.01563    |            |       |  0.63

Nlocal:        83.3333 ave          92 max          72 min
Histogram: 1 0 3 6 7 8 6 8 6 3
Nghost:        1620.81 ave        1644 max        1596 min
Histogram: 3 1 7 4 8 5 9 3 4 4
Neighs:        9392.56 ave       10925 max        7864 min
Histogram: 1 1 6 6 11 6 9 6 1 1

Total # of neighbors = 450843
Ave neighs/atom = 112.71075
Neighbor list builds = 900
Dangerous builds = 165

# Equilibrate just above the melting temperature to avoid step fn in T

fix 1 all npt temp 1.25 1.25 0.1 iso 5.68 5.68 0.5 mtk yes tchain 5 pchain 5
run 2000
Per MPI rank memory allocation (min/avg/max) = 3.643 | 3.645 | 3.649 Mbytes
Step Temp E_pair E_mol TotEng Press Volume 
   10000    2.3990202    -5.072467            0   -1.4748363    5.3904963    4065.8732 
   11000    1.2358834   -6.9194766            0    -5.066115    5.5564602    3265.7018 
   12000    1.2372078   -6.9694768            0    -5.114129    5.5228119     3254.826 
Loop time of 0.582888 on 48 procs for 2000 steps with 4000 atoms

Performance: 592909.292 tau/day, 3431.188 timesteps/s
99.6% CPU use with 48 MPI tasks x no OpenMP threads

MPI task timing breakdown:
Section |  min time  |  avg time  |  max time  |%varavg| %total
---------------------------------------------------------------
Pair    | 0.25247    | 0.2813     | 0.30936    |   2.3 | 48.26
Neigh   | 0.037414   | 0.040211   | 0.043338   |   0.6 |  6.90
Comm    | 0.18378    | 0.2116     | 0.24188    |   2.9 | 36.30
Output  | 5.3223e-05 | 5.468e-05  | 7.6501e-05 |   0.0 |  0.01
Modify  | 0.04088    | 0.044892   | 0.048777   |   0.9 |  7.70
Other   |            | 0.004825   |            |       |  0.83

Nlocal:        83.3333 ave          93 max          75 min
Histogram: 2 2 8 9 7 7 5 4 2 2
Nghost:        1885.35 ave        1906 max        1864 min
Histogram: 1 3 5 7 7 9 8 3 1 4
Neighs:        11733.9 ave       13237 max        9828 min
Histogram: 1 0 6 5 7 10 6 5 4 4

Total # of neighbors = 563229
Ave neighs/atom = 140.80725
Neighbor list builds = 141
Dangerous builds = 7

#############################
# L I N E A R  Q U E N C H  #
#############################

# Define solid atoms. This closely follows ten Wolde  Ruiz-Montero and Frenkel  Faraday Discuss  1996  104  93-110
# Compute components of the per-atom q6 vector
compute q6 all orientorder/atom degrees 1 6 components 6 nnn NULL cutoff 1.3 # compute the Q6 parameter.
                                                                             # Use all neighbours within 1.3 unit cell.

# get number of connections
compute coord_number all coord/atom orientorder q6 0.5

# An atom is solid if it has 8 or more connections (of a possible 14)
variable is_solid atom c_coord_number>=8
group solid dynamic all var is_solid    # Must be dynamic to update
dynamic group solid defined

# do clustering
compute cluster solid cluster/atom 1.3 # Create a cluster where all atoms within are solid and max 1.3 units from another member

# define chunks one chunk per cluster
compute clus_chunks solid chunk/atom c_cluster nchunk every compress yes  # Says which atoms are in which chunk

# count the size of each chunk
compute size_chunks solid property/chunk clus_chunks count


# Find the maximum entry in the vector of chunk sizes
variable max_n equal max(c_size_chunks)


# Thermo style which includes this variable
# thermo_style custom step temp pe vol v_max_n

thermo ${N}  # Print the thermo information every 100 steps
thermo 1000  

# Reset the npt fix at a lower temperature (below freezing)
fix 1  all npt temp  ${temp} ${temp}  0.1  iso  5.68  5.68  0.5  mtk yes tchain  5  pchain  5
fix 1  all npt temp  0.45 ${temp}  0.1  iso  5.68  5.68  0.5  mtk yes tchain  5  pchain  5
fix 1  all npt temp  0.45 0.45  0.1  iso  5.68  5.68  0.5  mtk yes tchain  5  pchain  5

dump dmp2 all dcd ${N} traj.dcd
dump dmp2 all dcd 1000 traj.dcd


compute msd all msd com yes
variable twopoint equal c_msd[4]/6/(step*dt+1.0e-6)
fix 9 all vector 10 c_msd[4]
variable fit equal slope(f_9)/6/(10*dt)
thermo_style custom step temp pe c_msd[4] v_twopoint v_fit v_max_n

fix 1 all npt temp 1.25 ${temp} 0.1 iso 5.68 5.68 0.5 mtk yes tchain 5 pchain 5
fix 1 all npt temp 1.25 0.45 0.1 iso 5.68 5.68 0.5 mtk yes tchain 5 pchain 5
run 2000000 # 5000000  # Run for this many steps
Neighbor list info ...
  update every 1 steps, delay 10 steps, check yes
  max neighbors/atom: 2000, page size: 100000
  master list distance cutoff = 3.8
  ghost atom cutoff = 3.8
  binsize = 1.9, bins = 8 8 8
  4 neighbor lists, perpetual/occasional/extra = 1 3 0
  (1) pair lj/cut, perpetual
      attributes: half, newton on
      pair build: half/bin/atomonly/newton
      stencil: half/bin/3d
      bin: standard
  (2) compute orientorder/atom, occasional
      attributes: full, newton on
      pair build: full/bin/atomonly
      stencil: full/bin/3d
      bin: standard
  (3) compute coord/atom, occasional
      attributes: full, newton on
      pair build: full/bin/atomonly
      stencil: full/bin/3d
      bin: standard
  (4) compute cluster/atom, occasional
      attributes: full, newton on
      pair build: full/bin/atomonly
      stencil: full/bin/3d
      bin: standard
Per MPI rank memory allocation (min/avg/max) = 9.814 | 9.819 | 9.825 Mbytes
Step Temp PotEng c_msd[4] v_twopoint v_fit v_max_n 
   12000    1.2372078   -6.9694768 3.9604762e-30 2.7503306e-32 8.3333333e+20            1 
   13000    1.2336433   -6.9281041   0.49431882 0.0031687103   0.04127881            2 
   14000    1.2186704   -6.9424743   0.92202581 0.0054882487  0.037694205            1 
   15000    1.2448605   -6.9939751    1.4325602 0.0079586674  0.038512639            4 
   16000    1.2740976   -6.9836776    1.8819328 0.0098017331  0.039174176            1 
   17000    1.2402921   -6.9442598    2.3426833  0.011483741  0.038902619            1 
   18000    1.2436884   -6.9504996     2.773263   0.01283918  0.038590418            2 
   19000    1.2592249   -6.9237916     3.219008  0.014118456  0.038230648            2 
   20000    1.2635625   -6.9986175    3.6260377   0.01510849  0.037931331            1 
   21000    1.2253305   -6.9368029    4.0438257  0.016046927  0.037504137            1 
   22000    1.2571854   -6.9615155    4.4880317   0.01700012  0.037204132            1 
   23000    1.2419008   -6.9799399    4.8948033  0.017734794  0.036930014            2 
   24000    1.2546859   -6.9576441    5.3995696  0.018748505  0.036895407            1 
   25000     1.223046   -6.9329833    5.8247989  0.019415996  0.036943487            1 
   26000    1.2532948   -6.9390095    6.3185026   0.02025161  0.036926639            1 
   27000    1.2157443   -7.0103319    6.7269221  0.020762105  0.036988231            1 
   28000    1.2048658   -6.9267323     7.210749  0.021460562  0.036988772            1 
   29000    1.2532146   -6.9598488    7.6236296  0.021906981   0.03700509            1 
   30000    1.2168786   -6.9490054    8.1553435  0.022653731  0.037046021            2 
   31000    1.2358702    -6.949846    8.6305051  0.023200282  0.037142884            2 
   32000    1.2483737   -6.9279702    9.0944689  0.023683512  0.037251062            2 
   33000    1.2390496   -6.9911202    9.5247917  0.024052504  0.037299855            1 
   34000    1.2343087   -6.9827696    9.8435269  0.024126291  0.037267465            2 
   35000    1.2592926   -7.0111915    10.188923  0.024259341  0.037180279            3 
   36000     1.243096   -7.0158476    10.601835  0.024541285  0.037067118            2 
   37000    1.2511783   -6.9298996    11.119405  0.025043705  0.036995226            3 
   38000    1.2256201   -6.9539437    11.546954  0.025322267  0.036953587            2 
   39000      1.24719   -7.0114214    11.915411  0.025460281  0.036866056            1 
   40000    1.2051499   -6.9979771    12.353031  0.025735481   0.03678724            2 
   41000    1.2352711    -6.991853    12.917825  0.026255742  0.036764372            2 
   42000    1.2463936   -6.9405471    13.387775  0.026563046  0.036767647            2 
   43000    1.2485813   -7.0029763    13.815494  0.026774212  0.036775521            2 
   44000    1.2491996   -6.9850348    14.253625  0.026995501  0.036775977            1 
   45000     1.237512   -6.9998334    14.546126  0.026937271   0.03674972            1 
   46000    1.2073552   -6.9773765    15.109054  0.027371475  0.036721979            1 
   47000    1.2132313   -6.9946003    15.636247  0.027723841  0.036756851            1 
   48000    1.2424744   -6.9841757    16.226377  0.028170793   0.03681251            1 
   49000    1.2421738   -6.9478646    16.932666   0.02879705  0.036928869            2 
   50000    1.2155763    -7.009963    17.025741  0.028376235  0.037028683            1 
   51000    1.2485112   -6.9288221    17.462758  0.028533918  0.037038186            1 
   52000    1.2248131   -6.9935983    17.956848     0.028777  0.037062869            2 
   53000    1.2694305   -7.0021242    18.386211  0.028909137  0.037092075            2 
   54000    1.2312376    -7.014559    18.881357  0.029137896  0.037123788            2 
   55000    1.2673692   -6.9913651    19.228546   0.02913416  0.037151392            1 
   56000    1.2616237   -6.9927993    19.631147  0.029213016  0.037156388            2 
   57000    1.2255686   -6.9920539    20.061995  0.029330402  0.037142144            1 
   58000    1.2228323   -7.0384488    20.432688  0.029357311  0.037125231            2 
   59000    1.2450561   -7.0088343    20.877083  0.029487405  0.037107507            1 
   60000     1.218254   -7.0091778    21.314346  0.029603259  0.037079621            2 
   61000    1.2106779   -6.9903666    21.952849  0.029990231  0.037075463            2 
   62000    1.2325935   -7.0058935     22.37533  0.030074367  0.037080085            2 
   63000    1.2026096   -6.9881563    22.695332   0.03002028  0.037078768            1 
   64000    1.2365506   -7.0033063    23.022158  0.029976768  0.037046868            1 
   65000    1.2097689   -6.9753603     23.50387  0.030133166  0.037015794            2 
   66000    1.2249248   -6.9838539    24.054461  0.030371794  0.036993347            1 
   67000    1.2335031   -7.0017678    24.448211  0.030408222  0.036980529            1 
   68000    1.1983993   -6.9738772    24.793966  0.030384762  0.036972141            1 
   69000    1.2537636    -6.983971    25.150343   0.03037481  0.036943425            1 
   70000    1.2441609   -7.0380383    25.403939  0.030242784  0.036898938            2 
   71000    1.1960609   -6.9746026    25.850551  0.030341022  0.036846818            1 
   72000    1.2121257    -7.053549     26.28846  0.030426458  0.036795213            2 
   73000    1.2246212   -7.0014292    26.717214  0.030499103  0.036754594            1 
   74000    1.2207291   -7.0057189    27.203862  0.030634979  0.036706663            1 
   75000    1.2473499   -7.0013231    27.550107   0.03061123  0.036663704            2 
   76000    1.2377967   -6.9604562    28.010427  0.030713187  0.036623395            2 
   77000    1.2155631   -7.0720409    28.336429  0.030667131   0.03658484            2 
   78000    1.2405098   -7.0583648    28.661713  0.030621488  0.036535522            1 
   79000    1.2338426   -7.0290478    29.174241  0.030774516  0.036492863            3 
   80000    1.2261667   -7.0097548     29.78785   0.03102901  0.036460147            4 
   81000    1.2142297   -7.0453389    30.309661  0.031182779  0.036438953            2 
   82000     1.255853   -7.0159539    30.816935  0.031318024  0.036433841            1 
   83000      1.23419   -7.0721041    31.072835  0.031197626  0.036424426            2 
   84000    1.1951945   -7.0319267    31.349739  0.031100931  0.036405184            2 
   85000    1.2234551   -6.9990869    31.912548  0.031286811  0.036379731            2 
   86000    1.2376455   -7.0098199    32.266218  0.031265715  0.036358298            1 
   87000    1.2193213   -7.0379374    32.713863  0.031335118  0.036332342            1 
   88000    1.2106639   -6.9972551    33.094499  0.031339487  0.036312259            2 
   89000    1.2493181    -7.037947    33.442426  0.031313133  0.036281167            1 
   90000    1.2102466   -7.0216013    33.647973  0.031155531  0.036240236            1 
   91000    1.2270133   -7.0239341    34.148675   0.03127168  0.036193898            1 
   92000    1.2303213    -7.037891    34.175022  0.030955636  0.036141316            1 
   93000     1.227733   -7.0137005    34.536023  0.030946257   0.03607359            1 
   94000    1.2155837   -7.0190126    34.881329  0.030923164  0.036005549            2 
   95000    1.2111559    -7.056145    35.402821  0.031055106  0.035938061            3 
   96000    1.2317733   -7.0435516    35.801019  0.031077273  0.035883718            2 
   97000     1.200003   -7.0694513    36.251811  0.031144167  0.035828468            3 
   98000    1.2239882   -7.0065494    36.896727  0.031374767  0.035788355            2 
   99000    1.2318345   -7.0583103    37.299098  0.031396547  0.035759565            4 
  100000    1.2212445   -6.9983121    37.713609  0.031428007  0.035725761            1 
  101000    1.2106669   -7.0128613    38.307985  0.031607248  0.035699515            1 
  102000    1.1809785   -7.0120151    38.898824  0.031780085  0.035686669            1 
  103000    1.2340571   -6.9991572    39.453816  0.031920563  0.035680787            1 
  104000    1.2214979   -7.0453475    39.765355  0.031863265  0.035679573       -1e+20 
  105000    1.2224746   -7.0399388    40.300508   0.03198453   0.03567911            2 
  106000     1.204787   -7.0165905    41.049633  0.032271724  0.035693609            2 
  107000    1.2351296   -7.0164868    41.432872  0.032268592  0.035703813            3 
  108000    1.2321614   -7.0598246    41.751413  0.032215596  0.035711377            2 
  109000    1.2149599   -7.0244664    41.917114  0.032046723  0.035713087            1 
  110000    1.2313856   -7.0470929    42.371521  0.032099637  0.035709797            1 
  111000    1.2115372    -7.030498    42.720071  0.032072125  0.035701771            1 
  112000    1.2325627   -7.0602402     43.17813  0.032126584  0.035694708            3 
  113000    1.2182127   -7.0057705    43.838656  0.032329392  0.035690653            1 
  114000    1.1998631   -7.0491929    44.028228  0.032184377  0.035689122            1 
  115000    1.2270365   -7.0500024    44.392139  0.032168216  0.035685083            2 
  116000    1.2426718   -7.0448413    44.642092  0.032070468  0.035674389            1 
  117000    1.2008754    -7.024159    45.102433   0.03212424  0.035659219            2 
  118000    1.2051553   -7.0269086    45.543749  0.032163664  0.035641282            1 
  119000     1.210423   -7.0476333    45.975265  0.032195563  0.035629661            1 
  120000    1.1878182   -7.0794323    46.322938  0.032168707  0.035618104            1 
  121000    1.2058227   -7.0689975    46.539483  0.032051985  0.035604442            3 
  122000    1.2061632   -7.0377554    46.899256  0.032035011  0.035583842            1 
  123000    1.1924722   -7.0383397     47.36582  0.032090664  0.035560342            2 
  124000    1.2118143   -7.0796931    47.300987  0.031788297  0.035528504            2 
  125000     1.216168   -7.0509121    47.997783  0.031998522  0.035493289       -1e+20 
  126000    1.1908747   -7.0046459    48.261105   0.03191872  0.035461681            2 
  127000    1.1998302   -7.0437641    48.416278  0.031769211  0.035430284            3 
  128000    1.1998329   -7.0586816    48.824712  0.031786922  0.035395604            1 
  129000    1.2132048   -7.0325293    49.326831  0.031864878  0.035364679            2 
  130000     1.230935   -7.0714386    49.546623  0.031760656  0.035330543            3 
  131000    1.1902334   -7.0648372    50.017212  0.031817565  0.035293784            3 
  132000    1.2018862   -7.0262779    50.489898  0.031874936  0.035261989            1 
  133000    1.2012994   -7.0235555    50.891847  0.031887122  0.035228409            2 
  134000    1.2143391   -7.0409098    51.396994  0.031963305  0.035198254            2 
  135000     1.213158   -7.0487899    51.710442  0.031920026  0.035168837            1 
  136000    1.2010454   -7.0764415    51.904665  0.031804329  0.035140922            2 
  137000    1.1880848   -7.0442334    52.345059   0.03184006  0.035111817            1 
  138000    1.1945942   -7.0281513    53.181525  0.032114447  0.035085294            1 
  139000    1.2167002   -7.0625077    53.501204  0.032075062  0.035063739            1 
  140000    1.2001957   -7.1221696    53.655804  0.031937978  0.035039941            1 
  141000    1.1980661   -7.0783648    54.003305  0.031916847  0.035013639            3 
  142000    1.2348674   -7.0629554    54.626036  0.032057533  0.034989362            2 
  143000    1.2409501   -7.0740164     54.82828  0.031951212  0.034965503            2 
  144000    1.1931772   -7.0728579    55.150135  0.031915587  0.034938714            3 
  145000    1.1782476   -7.0737382    55.599018  0.031953458  0.034912623       -1e+20 
  146000    1.2005224   -7.0795781    55.602091  0.031736353  0.034882062            2 
  147000    1.1797528   -7.0745921    56.025821  0.031760669  0.034849057            2 
  148000    1.1843652   -7.0728855    56.369209   0.03173942  0.034812783            2 
  149000    1.2206656   -7.0645533    56.915363  0.031831858  0.034778615            1 
  150000    1.1872824   -7.0777726    57.579859  0.031988811  0.034750359            1 
  151000    1.1783261   -7.0688899    57.944567  0.031978238  0.034723933            1 
  152000    1.1755714   -7.0734159    58.243552  0.031931772  0.034696145            2 
  153000    1.2371952   -7.1046671    58.539974  0.031884517  0.034670027            1 
  154000    1.1987564   -7.1069457    58.821968  0.031830069  0.034644884            1 
  155000    1.1556635   -7.0636102    59.474267  0.031975412  0.034619467            1 
  156000    1.2025334   -7.0780037    59.966922  0.032033612  0.034601362            2 
  157000    1.2203182   -7.0857062    60.429232  0.032074964  0.034584005            2 
  158000    1.2068752   -7.0842342    60.840996  0.032089133  0.034566819            2 
  159000    1.2017924   -7.0662653    61.387034  0.032173498  0.034549995            2 
  160000    1.2174538   -7.0879392    61.579278   0.03207254   0.03453384            2 
  161000    1.2041143   -7.0779295    61.751639  0.031962546  0.034512673            3 
  162000    1.2008616   -7.0669948    62.382066   0.03208954  0.034492664            1 
  163000    1.1629245   -7.1034314    62.586063  0.031996965  0.034472408            2 
  164000     1.190249   -7.0592081    63.143234  0.032084976  0.034451453            3 
  165000    1.1864836   -7.0947127    63.110122  0.031873799   0.03442875            1 
  166000     1.194365   -7.1003763    63.609439  0.031932449  0.034405018            1 
  167000    1.1960982   -7.0875052    63.983926  0.031928107  0.034378733            2 
  168000    1.1955415   -7.0753766     64.36155  0.031925372  0.034354641            2 
  169000    1.2041823   -7.0241868    64.999595  0.032051082  0.034331396            1 
  170000    1.2085479    -7.059728    65.117982  0.031920579  0.034308296            2 
  171000    1.2026265   -7.0707184    65.684103  0.032009797  0.034284625            2 
  172000    1.1918488   -7.0834616    65.697972  0.031830413  0.034263298            2 
  173000    1.1641849   -7.0781941    66.171919   0.03187472  0.034237984            2 
  174000     1.176431   -7.0429434    66.939584  0.032059188  0.034215326            3 
  175000    1.1684975   -7.1029317    66.740204  0.031781049   0.03419067            2 
  176000    1.1891083   -7.1067222    67.012149  0.031729237  0.034165543            1 
  177000     1.180879   -7.1202064    67.108084  0.031595143  0.034136962            3 
  178000    1.1951553   -7.1035339    67.645227  0.031669114  0.034106746            1 
  179000    1.1961011   -7.0489543    68.393274  0.031840444  0.034081226            1 
  180000    1.1635492   -7.1048823    68.874016  0.031886118  0.034058795            1 
  181000    1.1818966   -7.1306502     68.97973  0.031758623  0.034034086            3 
  182000    1.2007863   -7.0720314    69.716723  0.031921576  0.034009339            2 
  183000    1.1609143   -7.0993925    69.611323  0.031699145   0.03398497            2 
  184000    1.1698359   -7.0886241    70.097947  0.031747258   0.03396112            3 
  185000    1.1693749   -7.0975757    70.372709  0.031699418  0.033937771            2 
  186000    1.1732634   -7.0985556    70.772421  0.031708074  0.033914676            2 
  187000     1.174027   -7.1240295    71.579638  0.031898235  0.033895048            1 
  188000    1.1778471   -7.0896832    71.917184  0.031878184  0.033878464            2 
  189000    1.1718295   -7.1415416    72.419221  0.031930873  0.033858405            2 
  190000     1.199218   -7.1002292    72.466441  0.031783526  0.033840422            2 
  191000    1.1618691   -7.0659414    73.467898  0.032054057   0.03382626            2 
  192000    1.1642465   -7.1154036    73.732559  0.032001979  0.033815372            2 
  193000    1.1736558   -7.1287041    74.134062  0.032009526  0.033803781            1 
  194000     1.178767   -7.1224896    74.463269   0.03198594  0.033791392            1 
  195000    1.1660017   -7.0907511    74.551855  0.031859767  0.033777119            2 
  196000    1.1874763   -7.1551022    75.021074  0.031896715  0.033763534            2 
  197000     1.183984   -7.1523977    75.395924  0.031893369  0.033749953            1 
  198000     1.188146   -7.1325734    75.878338  0.031935327  0.033737733            3 
  199000     1.180865   -7.1281224    76.166034  0.031895324  0.033725226            1 
  200000    1.1688093   -7.1039521    76.897157  0.032040482  0.033711692            3 
  201000    1.1710366   -7.1332454    77.276136  0.032038199   0.03370121            2 
  202000    1.1685824   -7.1199094    77.648223  0.032033095  0.033689607            1 
  203000    1.1748218   -7.1006432    78.147607  0.032080298  0.033678531            3 
  204000    1.1324853   -7.1214887    78.466944   0.03205349  0.033671157            1 
  205000    1.1606006    -7.128748    78.711022   0.03199635  0.033661155            1 
  206000    1.1567064   -7.1289108    79.130637  0.032010776  0.033649706       -1e+20 
  207000    1.1700753   -7.1348872    79.499923    0.0320048  0.033638157            1 
  208000    1.1672353   -7.1145207    80.156983  0.032114176   0.03362717            2 
  209000    1.1593637   -7.1357065    80.211739  0.031982352  0.033616253            2 
  210000    1.1829406   -7.1247635     80.80692  0.032066238  0.033606111            2 
  211000    1.1724349   -7.1725106    80.899294  0.031950748  0.033594333            1 
  212000    1.1639866   -7.1142397     81.44744  0.032015503  0.033581804            2 
  213000    1.1603308   -7.1333176    81.430706  0.031858648  0.033570179            3 
  214000    1.1911502   -7.0952082    81.993843  0.031929067  0.033558709            2 
  215000     1.131888   -7.1336997     82.37663  0.031928926  0.033547163            1 
  216000    1.1599396   -7.1331501    82.768259  0.031932198  0.033533506            1 
  217000    1.1684629   -7.1645206     82.89656  0.031834316  0.033519959            1 
  218000    1.1748956   -7.1130068    83.877835  0.032063392  0.033506665            1 
  219000    1.1610977   -7.1120581    84.221971  0.032047934  0.033494029            1 
  220000    1.1403126   -7.1137486    84.216165  0.031900063   0.03348286            1 
  221000    1.1691371    -7.141518    84.829724  0.031987075  0.033472334            1 
  222000    1.1611649    -7.129326    84.993362  0.031904415  0.033461276            2 
  223000    1.1474674   -7.1725012    85.744796  0.032042151  0.033450398            2 
  224000    1.1739424   -7.1561382    86.004957  0.031995892  0.033440715            3 
  225000    1.1813269   -7.1810873    86.038265  0.031866024  0.033428606            1 
  226000    1.1756181   -7.1304272    86.415506  0.031864124  0.033413521            1 
  227000    1.1527248   -7.1346619    86.693112  0.031825665  0.033399095            2 
  228000    1.1617643   -7.1370446    87.044751  0.031814602  0.033385179            1 
  229000     1.160499   -7.1387003    87.453989  0.031824596  0.033370899            1 
  230000    1.1554859   -7.1795252    87.654884  0.031759016  0.033354446            2 
  231000    1.1844433   -7.1465331    88.039024   0.03176011  0.033339436            3 
  232000    1.1856113   -7.1173442    88.391357  0.031749769  0.033325746            2 
  233000    1.1570283   -7.1397937    88.951553   0.03181386  0.033310825            2 
  234000    1.1441863   -7.1294172    89.286411  0.031797155  0.033296977            1 
  235000    1.1863926   -7.1098533    90.088197  0.031946169  0.033285147            3 
  236000    1.1366623   -7.1539254    90.348683  0.031902783  0.033274168            1 
  237000     1.184934   -7.1694271    90.668134  0.031880497  0.033262263            1 
  238000    1.1480335   -7.1412815    91.093336  0.031895426  0.033251291            1 
  239000    1.1764282   -7.1585651    91.316266  0.031839702   0.03324071            1 
  240000    1.1774706     -7.15729    91.798693  0.031874546  0.033229293            1 
  241000     1.160978   -7.1354771    92.398564  0.031949711  0.033218117            1 
  242000    1.1630579   -7.1461836     92.71296   0.03192595  0.033207415            2 
  243000    1.1483477   -7.1599309    93.062534  0.031914449  0.033197778            3 
  244000    1.1617633   -7.1495603    93.664059  0.031989091   0.03318923            1 
  245000     1.154795   -7.1433554    93.853164  0.031922845  0.033180412       -1e+20 
  246000    1.1648918   -7.1643702    93.719367  0.031747753  0.033171615            1 
  247000    1.1410063   -7.1416701    94.695466  0.031948538   0.03316293            1 
  248000    1.1600685   -7.2110179    94.586345  0.031783046  0.033153219            1 
  249000    1.1533755   -7.1823736    95.194641  0.031858983   0.03314277            2 
  250000    1.1495234   -7.2157153    95.169757  0.031723252  0.033131032            1 
  251000    1.1517814   -7.1214307    95.964855  0.031860842  0.033119221            3 
  252000    1.1297602   -7.1924641    95.843752  0.031694362  0.033106218            1 
  253000    1.1467815   -7.1624091    96.061443  0.031640791  0.033091929            2 
  254000    1.1883043   -7.1861153    96.560451  0.031679938   0.03307675            3 
  255000    1.1446847   -7.1627865    96.970308  0.031689643  0.033062677            1 
  256000    1.1580216   -7.1346552    97.481131  0.031732139  0.033048875            1 
  257000    1.1567504   -7.1770018    97.873305  0.031735832  0.033036638            3 
  258000    1.1634591   -7.1338203    98.651449  0.031864163  0.033027889            2 
  259000    1.1527732    -7.153719    99.260834  0.031937205  0.033018893            2 
  260000    1.1450992   -7.1946473     99.16326  0.031783096  0.033007789            3 
  261000    1.1412574   -7.2385958    99.119965  0.031647498   0.03299571            2 
  262000    1.1560495   -7.2246984    99.120723  0.031526947  0.032983213            2 
  263000     1.134704   -7.1393322     100.2468  0.031763877  0.032970486            1 
  264000    1.1099281   -7.1844652    100.19499  0.031627207  0.032959925            1 
  265000    1.1709231   -7.2125502     100.7075  0.031669025  0.032947096            2 
  266000    1.1262519   -7.2092009    101.06528  0.031662054  0.032933767            2 
  267000    1.1259176   -7.1581386     101.5195  0.031685237  0.032920357            1 
  268000     1.159518   -7.2305435    101.88453  0.031680514  0.032907268            2 
  269000    1.1284557   -7.2103207    101.85564   0.03155379  0.032893258            1 
  270000    1.1510708    -7.177081     102.4013  0.031605339  0.032879452            2 
  271000    1.1294464   -7.1974874    102.44652  0.031502621  0.032866262            2 
  272000    1.1153923   -7.1555642     102.8457    0.0315091  0.032851859            2 
  273000    1.1531938   -7.1772566    103.20992  0.031504858  0.032838735            1 
  274000    1.1501534   -7.1608482    103.66504  0.031528295   0.03282482            2 
  275000    1.1312856   -7.1715002    103.85704  0.031471831  0.032810307            1 
  276000    1.1222699   -7.1839219    104.06864  0.031421691   0.03279494            3 
  277000    1.1685104   -7.2146721    104.55807  0.031455496  0.032779238            1 
  278000    1.1242895   -7.1809068     105.1574  0.031522003   0.03276383            2 
  279000    1.1616788   -7.1722311    105.33096  0.031460859  0.032748764            2 
  280000    1.1246837   -7.1780087     105.3556  0.031355833  0.032732361            1 
  281000    1.1331683   -7.2190273    105.39484  0.031255884  0.032715137            1 
  282000    1.1293756   -7.2041084    105.38591  0.031142408  0.032696128            1 
  283000    1.1640222   -7.2476683    105.72095   0.03113102  0.032676646            1 
  284000    1.1398794   -7.2098104    106.29875  0.031190948  0.032657557            1 
  285000     1.125069   -7.1549782     106.8877  0.031253713  0.032638853            1 
  286000    1.1344939   -7.1757128    107.32389  0.031271531   0.03262199            2 
  287000    1.1273533   -7.2153819    107.66569  0.031261815  0.032605861            1 
  288000    1.1462331   -7.1628775      108.339   0.03134809  0.032590218            3 
  289000    1.1550969   -7.1637814    108.52407  0.031292984    0.0325747            1 
  290000    1.1372529   -7.2141996    108.80215  0.031264985  0.032558597            2 
  291000    1.1073468   -7.2050691    108.98156  0.031208924  0.032542801            1 
  292000    1.1303079   -7.2029745    109.90031  0.031364242  0.032526578            1 
  293000    1.1447059   -7.2757696    109.87816  0.031250898  0.032511437            1 
  294000    1.1496468   -7.1826825     110.5956  0.031347958  0.032497075            1 
  295000    1.1328456   -7.2368455    110.46235  0.031204054  0.032482108            2 
  296000    1.1470084   -7.1593832    111.07505  0.031271128  0.032466121            2 
  297000    1.1367982    -7.220043    110.74067  0.031072017  0.032448781            1 
  298000    1.1077163   -7.2395857    110.80648  0.030986153  0.032430189            3 
  299000    1.1271149   -7.2610959    111.33943  0.031031055  0.032411206            2 
  300000    1.1220275   -7.1882885    111.91411  0.031087252  0.032391994            1 
  301000    1.1356393   -7.2219509    111.58489  0.030892826  0.032372392            3 
  302000    1.1288436   -7.2292021    112.00477  0.030906392  0.032352733            2 
  303000    1.1244912   -7.1735214    112.45547  0.030928348  0.032333976            1 
  304000    1.1241913   -7.2007618    113.07381   0.03099611  0.032315009            4 
  305000    1.1348096   -7.2227817    112.99105  0.030871871  0.032295902            1 
  306000    1.1191088   -7.2258662    113.35994  0.030871442  0.032275718            2 
  307000    1.1292868   -7.1909181    114.09121  0.030969383  0.032256752            1 
  308000    1.1128522   -7.1986395    114.28498  0.030921261  0.032238129            2 
  309000    1.1457796    -7.218579    114.35034  0.030838818  0.032218863            2 
  310000     1.122284   -7.2543079    114.61045  0.030809261   0.03219951            2 
  311000    1.1155765   -7.2108868    115.23219  0.030876793  0.032180063       -1e+20 
  312000    1.1097403   -7.2176858    115.27036  0.030788023  0.032161344            2 
  313000    1.1391921   -7.1897853    115.76883  0.030822373  0.032142243            2 
  314000    1.1612688   -7.1654313    116.31668  0.030869606  0.032123522            4 
  315000     1.106293   -7.2091865    116.16571  0.030731668  0.032104464            1 
  316000    1.1415053   -7.1959361    116.34793  0.030682472  0.032083637            1 
  317000    1.0916252    -7.177356    116.57654  0.030645778  0.032062661            1 
  318000     1.111098   -7.2195432     117.3632  0.030755556  0.032042242            2 
  319000    1.1103041   -7.2171906    117.84905  0.030786063  0.032022011            1 
  320000    1.1196773   -7.2401451    118.27407  0.030800538  0.032002971            3 
  321000    1.1368047   -7.2141144    118.35988  0.030726864  0.031983792            1 
  322000    1.1160147   -7.2342012    118.27696  0.030609979  0.031964179            1 
  323000    1.0959743   -7.2562395    118.32929  0.030528713  0.031943809            1 
  324000     1.156455   -7.2223332    118.85033  0.030568502  0.031922085            2 
  325000    1.1411778    -7.226191    119.08382  0.030534313  0.031900843            1 
  326000    1.1340781   -7.2182103     119.4332   0.03052996  0.031879207            2 
  327000    1.1278686   -7.2232286    119.60494  0.030480363  0.031858042            1 
  328000    1.1458169   -7.2433018    119.83565  0.030446049  0.031836594            2 
  329000    1.1329535   -7.2484777    120.16854  0.030437828  0.031814016            2 
  330000    1.1215609   -7.2190419     120.5214  0.030434697  0.031792043            1 
  331000    1.1216905   -7.2236536    120.93831  0.030447713  0.031769203            2 
  332000    1.1152092    -7.262425    120.84339  0.030332175  0.031746786            4 
  333000    1.0814375   -7.2574562    121.31354  0.030358743  0.031724154            4 
  334000     1.126036   -7.2621279    121.16002  0.030229546  0.031700442            1 
  335000    1.1287897   -7.2430991    121.84471   0.03030963  0.031677254            2 
  336000    1.1204802   -7.2430231     121.8986  0.030232788  0.031655071            1 
  337000    1.1055783   -7.2098075     122.8525  0.030378957  0.031632522            3 
  338000    1.1308172   -7.2345532    122.87853  0.030295495  0.031611099            2 
  339000    1.1341211     -7.24943    122.90066  0.030211568  0.031587743            1 
  340000    1.1052234   -7.2875352    123.01073  0.030149688  0.031564517            2 
  341000    1.1109606   -7.2166323    123.42305  0.030162035  0.031541733            1 
  342000    1.1147258   -7.2762768    123.95661  0.030203852  0.031518475            1 
  343000      1.10925   -7.2962169     123.8612  0.030092615  0.031496887            2 
  344000    1.1398359   -7.2445087    124.67809  0.030203026  0.031474796            3 
  345000    1.1039282   -7.2262338    124.70539  0.030122076  0.031452553            3 
  346000    1.1314152   -7.2141283    125.05846  0.030120053   0.03142988            1 
  347000    1.1207532   -7.2729479    125.51034  0.030141771  0.031407266            1 
  348000    1.1059062   -7.2661388     125.8094  0.030126772  0.031385876            1 
  349000    1.1363421   -7.2470922    126.16235  0.030124724  0.031363972            1 
  350000    1.1095681   -7.2562466     126.2239   0.03005331  0.031342021            1 
  351000    1.1154213   -7.2353777    126.61657  0.030060915   0.03132028            1 
  352000     1.114948   -7.2337343    126.68131  0.029990841  0.031297949            5 
  353000    1.1240499   -7.2511111    126.83247  0.029941564  0.031275901            1 
  354000    1.1067801   -7.2650557    127.59808  0.030037213  0.031253806            2 
  355000    1.1190925   -7.2685509    127.63068  0.029960254  0.031231888            2 
  356000    1.1197373   -7.2576146    128.05977  0.029976538  0.031210317            1 
  357000    1.1185227    -7.249856    128.98032  0.030107451  0.031189626            1 
  358000    1.1027312   -7.2575729    129.05742    0.0300413  0.031170326            2 
  359000    1.1171437   -7.2859113     129.6153  0.030087116  0.031151605            2 
  360000    1.0940579   -7.2290924    130.24287  0.030148813  0.031133805            3 
  361000    1.1157258   -7.2392965    130.62173  0.030152754  0.031116531            1 
  362000    1.0917553   -7.2445252    130.89509  0.030132386   0.03109997            2 
  363000    1.0944701   -7.2602402    131.59969  0.030211132  0.031083206            3 
  364000    1.1328091   -7.2689092    131.77244  0.030167682  0.031066984            1 
  365000    1.0846307   -7.2918874    131.80066  0.030091476  0.031050245            2 
  366000    1.1115627   -7.2450462     132.5038  0.030169353   0.03103358            1 
  367000    1.1302034   -7.2631656    132.73589  0.030139847  0.031017285            2 
  368000    1.0932906   -7.2614622    133.41026  0.030210656  0.031001083            1 
  369000     1.120928    -7.280646    133.24579  0.030091641  0.030984691            2 
  370000     1.094201   -7.2783651    133.87926  0.030152987  0.030969857            1 
  371000    1.1152057   -7.3035778    133.99701  0.030098161  0.030954721            1 
  372000    1.0886248   -7.2881037    134.44962  0.030118642  0.030938792            1 
  373000    1.1006427   -7.2745255    134.55001  0.030060323  0.030923169            1 
  374000    1.1079115   -7.3008292    134.80013   0.03003568  0.030907686            3 
  375000    1.0997464   -7.2478387    135.18444  0.030040986  0.030891925            2 
  376000    1.1035938   -7.2850797    135.46787  0.030023908  0.030875787            4 
  377000     1.102594   -7.2909206    135.57102  0.029967068   0.03085966            2 
  378000    1.1416468   -7.3143447     135.9386  0.029968826  0.030843661            4 
  379000    1.0981212   -7.2541931    136.88793   0.03009849  0.030828301            2 
  380000    1.1033677   -7.2789576    136.61396  0.029959202  0.030813331            2 
  381000    1.1008703   -7.2642135    137.43056  0.030059178  0.030798809            1 
  382000    1.1175035   -7.2599982    137.67147  0.030033043  0.030783723            1 
  383000    1.1131434   -7.2307687    138.09651  0.030047108  0.030768839            1 
  384000    1.1146768   -7.2655794     137.9303   0.02993279  0.030753647            1 
  385000    1.0886694   -7.2546606    138.39501  0.029955629  0.030738145            1 
  386000    1.0845056   -7.2644211    138.48326  0.029897077  0.030722362            2 
  387000    1.0966834   -7.3301691    139.00292  0.029931723  0.030706493            1 
  388000    1.0818153   -7.2948627    139.14416  0.029884914  0.030690933            3 
  389000    1.1427384    -7.266015    139.09596  0.029797764  0.030675215            2 
  390000     1.098837   -7.2535399    139.58627  0.029826126  0.030660406            1 
  391000    1.0801603   -7.2467735    140.25257  0.029891853  0.030644217            1 
  392000    1.1088899   -7.2473827    141.03288  0.029981479  0.030628747            4 
  393000    1.1090279   -7.2703977    140.85426  0.029867316  0.030613055            3 
  394000    1.0785222   -7.2498534    140.98107  0.029818332  0.030597187            2 
  395000    1.0869436   -7.2834935    141.05794  0.029759059  0.030581221            2 
  396000    1.0880449   -7.2831064    141.25073   0.02972448  0.030563619            2 
  397000    1.0728417   -7.3358501    140.84111  0.029563625  0.030546606            2 
  398000    1.0754359   -7.3605409    140.76354  0.029473103  0.030528477            2 
  399000    1.0881723   -7.2973366    141.46268  0.029545256  0.030510587            1 
  400000    1.1031375   -7.2657195     142.3076  0.029647417  0.030492863            3 
  401000    1.1318047   -7.2465532    142.58363  0.029630846  0.030474851            2 
  402000    1.0835763   -7.2976843    142.83839  0.029609949  0.030456908            2 
  403000    1.0914441   -7.3082755    142.42891  0.029451801  0.030439824            2 
  404000     1.120304   -7.2747315    143.40486   0.02958021  0.030421849            1 
  405000    1.0667463   -7.3182373    143.54437  0.029535878   0.03040475            2 
  406000    1.0727398   -7.3148213    144.01963  0.029560679  0.030387999            1 
  407000    1.1197599   -7.3167193    144.16214  0.029517228  0.030371074            2 
  408000    1.0905997   -7.2932452    144.75946  0.029566882  0.030354175            1 
  409000    1.0797484   -7.3085539    145.15027   0.02957422  0.030337523            1 
  410000    1.0924039   -7.3120747    145.40442  0.029553744  0.030321002            6 
  411000    1.0781666   -7.2917612    146.10071  0.029623015  0.030305006            1 
  412000    1.1082661   -7.3137522    146.13992  0.029559046   0.03028944            1 
  413000    1.1001709   -7.3014139    146.47446  0.029554976  0.030274026            1 
  414000     1.075131   -7.2974428    146.73258  0.029535544  0.030258902            1 
  415000    1.1123195   -7.3017683    147.25521   0.02956932   0.03024346            2 
  416000    1.1046683   -7.3138509    147.37348  0.029521931  0.030227794            4 
  417000    1.1015969   -7.3072371    147.84188   0.02954474  0.030211849            2 
  418000    1.0684084   -7.2892658    147.47707  0.029401329  0.030196599            2 
  419000    1.0788263   -7.3202357    148.05349  0.029445802  0.030180897            2 
  420000    1.0900733   -7.2953154    148.62895   0.02948987  0.030165675            1 
  421000    1.0760074    -7.290313    148.69018  0.029431944  0.030150378            3 
  422000    1.0889074    -7.343654    149.07757  0.029438698  0.030134899            1 
  423000    1.0824602   -7.3176015    149.19001  0.029391254  0.030119572            2 
  424000    1.0783957   -7.3064709     149.6758  0.029417413  0.030103612            1 
  425000    1.0597637   -7.3372092    149.58728  0.029330839  0.030088033            2 
  426000    1.0952432   -7.3646993    149.61911  0.029268214  0.030071434            3 
  427000    1.0666281   -7.3319485    150.35809   0.02934389  0.030055385            2 
  428000    1.1063854   -7.3228733    150.84171  0.029369492  0.030039974            1 
  429000    1.0861782   -7.3471884    150.80687  0.029294264  0.030024102            3 
  430000    1.0776593    -7.322152     151.2207  0.029306338  0.030008666            4 
  431000    1.0702604   -7.3025706    151.93209  0.029375887  0.029992697            4 
  432000    1.0754057   -7.3258562    152.19338  0.029358291  0.029977308            2 
  433000    1.0673225   -7.3097508     152.3971  0.029329696  0.029962347            1 
  434000    1.0674019   -7.3205936    152.96958  0.029372039  0.029947257            2 
  435000    1.0711656   -7.3146683    152.78886  0.029269897  0.029932291            1 
  436000     1.034895   -7.3352931     152.6816  0.029182263  0.029916625            3 
  437000     1.066748   -7.3672929    153.36546  0.029245893  0.029900896            1 
  438000    1.0596606   -7.3356777    152.95074  0.029100216  0.029884778            2 
  439000    1.0652748   -7.3585277    153.55923  0.029149436  0.029868452            2 
  440000     1.072612   -7.3734464    153.89799  0.029147347  0.029851949            2 
  441000    1.0849373   -7.3178753    154.09572  0.029118617   0.02983547            1 
  442000    1.0878101   -7.2814154    154.65731  0.029158618  0.029819396            2 
  443000    1.0891437   -7.3409282    154.24854  0.029015903  0.029802182            2 
  444000    1.0602531   -7.3629185    154.45414   0.02898914   0.02978455            2 
  445000    1.0998648   -7.3016556    154.81471  0.028991519  0.029767836            1 
  446000    1.0759449   -7.3168179    155.48021  0.029050862  0.029751041            2 
  447000    1.0456074   -7.3315012    155.88913  0.029062104  0.029734442            1 
  448000    1.0714449   -7.3726941    155.61177  0.028945641  0.029718072            2 
  449000    1.0478151   -7.3814102    155.92831  0.028939925  0.029701217            2 
  450000    1.0796211   -7.3905478    156.32934  0.028949877  0.029683962            2 
  451000     1.083748   -7.3455916    157.10288  0.029028617  0.029667121            2 
  452000    1.0698267   -7.3828479    156.05391  0.028771001  0.029650286            1 
  453000    1.0812768   -7.3373689    157.14527  0.028908255  0.029633712            1 
  454000    1.0737849   -7.3222486     157.3467  0.028881553  0.029616545            3 
  455000    1.0570801   -7.3812469    157.62953  0.028869877  0.029599322            1 
  456000    1.0802813   -7.3178705    157.96716  0.028868268  0.029582753            1 
  457000     1.070634    -7.354076     158.3784  0.028880088  0.029566254            2 
  458000    1.0822585   -7.3407653    158.48872  0.028837103  0.029549555            1 
  459000    1.1001279   -7.3442618    158.62002  0.028798116  0.029532872            2 
  460000    1.0857064   -7.3483317    159.09837  0.028822168  0.029515702            3 
  461000     1.078036   -7.3700754    159.42137  0.028818035  0.029499006            2 
  462000    1.0333231   -7.3608536    159.51149  0.028771914  0.029481851            2 
  463000    1.0828375   -7.3261729    160.05824  0.028808178  0.029464613            1 
  464000    1.0830231   -7.3938394    159.68971  0.028679904  0.029447002            2 
  465000    1.0551541   -7.3414946    160.82059  0.028820894  0.029430201            2 
  466000    1.0576086   -7.3680963    159.93857  0.028601318  0.029412921            1 
  467000     1.076338   -7.3557529    159.96352  0.028544525  0.029394325            2 
  468000    1.0885662   -7.3454575    160.36331   0.02855472  0.029375688            2 
  469000     1.071059   -7.3608213    160.62253  0.028539896  0.029356886            2 
  470000    1.0585927   -7.3603052    160.84603  0.028518799  0.029338368            2 
  471000    1.0408003   -7.3716528    161.25592  0.028530772  0.029319902            2 
  472000     1.051567   -7.3461819    161.98534  0.028599107  0.029302611            3 
  473000    1.0686273   -7.3940889    161.73467  0.028494479  0.029285229            1 
  474000    1.0646038   -7.3828431    162.42964  0.028556547  0.029267918            2 
  475000    1.0724497   -7.3413232    162.73972  0.028550827  0.029250648            1 
  476000    1.0880705   -7.3576734    163.00089   0.02853657  0.029233492            2 
  477000    1.0550114   -7.4050884    163.77558  0.028612085  0.029216158            2 
  478000    1.0746929   -7.3966465    163.30183  0.028469635  0.029199468            2 
  479000    1.0374642   -7.3760771    163.74924  0.028488038  0.029182167            1 
  480000    1.0519386   -7.3605962    163.89946  0.028454767  0.029165482            3 
  481000    1.0718329   -7.3878896    163.91923  0.028399035  0.029148574            2 
  482000    1.0745245   -7.4133335    164.16875  0.028383256  0.029131479            1 
  483000    1.0679815   -7.3490442    164.86939  0.028445374  0.029114894            3 
  484000    1.0566663   -7.3484833    164.92376  0.028395964   0.02909771            2 
  485000    1.0840488   -7.3781177    164.81371  0.028318507  0.029080564            1 
  486000    1.0594989    -7.398651    165.42113  0.028364392  0.029063337            2 
  487000     1.060235   -7.3900167    164.96047  0.028227323  0.029045843            2 
  488000    1.0649905   -7.3766786    165.80422  0.028313562  0.029028695            1 
  489000    1.0578969   -7.3784249    166.19287  0.028321893  0.029011022            3 
  490000    1.0598257   -7.3881374    166.08914  0.028246452  0.028993564            4 
  491000    1.0605472   -7.3763648    167.05387   0.02835266  0.028976739            4 
  492000    1.0566033   -7.3727877    166.98398  0.028283195  0.028959857            1 
  493000    1.0483346   -7.3862661    167.51745  0.028315999   0.02894312            2 
  494000    1.0792809   -7.3582241    167.47332  0.028251234  0.028926195            2 
  495000    1.0433709   -7.3783777     167.6003  0.028215539  0.028909237            1 
  496000    1.0594362   -7.3716198    168.58806  0.028324607  0.028892449            4 
  497000    1.0405005    -7.437776    167.92857  0.028157038  0.028875068            1 
  498000    1.0461477   -7.3768375    168.36067  0.028172803  0.028857622            2 
  499000    1.0616894   -7.3668118    168.23836  0.028095918  0.028840273            2 
  500000    1.0311304   -7.3243295    168.92612  0.028154353  0.028823182            2 
  501000    1.0673355   -7.3878642    169.12499  0.028131235  0.028805992            2 
  502000    1.0550465   -7.3770706     169.8525  0.028195966  0.028788629            3 
  503000    1.0633771   -7.4058304    169.14008  0.028021882  0.028771055            1 
  504000    1.0715286   -7.4270932     169.7133  0.028061061  0.028753941            2 
  505000    1.0482135   -7.4291508    169.95167   0.02804483  0.028736719            1 
  506000    1.0740544   -7.3917088    170.46567  0.028074056  0.028719615            4 
  507000    1.0542881   -7.3845999    170.87249   0.02808555  0.028702889            3 
  508000    1.0301508   -7.4259172    171.40487  0.028117597  0.028686241            2 
  509000    1.0361437   -7.3781761    171.15607  0.028021623   0.02866941            2 
  510000    1.0701588   -7.3558218    172.22292     0.028141  0.028652952            3 
  511000    1.0508411   -7.3451102    172.17657  0.028078371  0.028636412            1 
  512000    1.0457819    -7.365547    171.35217   0.02788935  0.028619451            2 
  513000    1.0474385   -7.4102354    171.94838  0.027931835  0.028602234            2 
  514000    1.0524452   -7.4271854    172.15564  0.027911096  0.028584891            2 
  515000    1.0506305   -7.4119941    172.49865  0.027912403  0.028567449            1 
  516000    1.0657353   -7.3957493    172.63876  0.027880936  0.028549984            4 
  517000    1.0604714   -7.4363649    172.31159  0.027774273  0.028532168            1 
  518000    1.0388528   -7.4497236    172.57073  0.027762343  0.028514117            2 
  519000    1.0562365   -7.4431457     172.9449   0.02776893  0.028496061            3 
  520000    1.0238849   -7.4185232    173.33561  0.027778143  0.028478002            3 
  521000    1.0332143   -7.4315755    173.59521  0.027766348  0.028460092            2 
  522000    1.0450962   -7.4253679     174.2151  0.027812117  0.028442509            2 
  523000    1.0692942   -7.4461796    173.60692  0.027662033  0.028424452            2 
  524000    1.0547148   -7.4399332    174.48677  0.027749169  0.028406693            2 
  525000    1.0324745   -7.4248223    175.14637  0.027801011  0.028388979            3 
  526000    1.0565944   -7.4090372    174.68883  0.027675671  0.028371276            2 
  527000    1.0337602   -7.4109107    175.08076   0.02768513    0.0283537            2 
  528000    1.0629585   -7.4316684    175.20059  0.027651608  0.028336063            3 
  529000     1.051733   -7.4016169    175.73911   0.02768417  0.028318054            2 
  530000    1.0258117   -7.4177879    175.76098  0.027635374  0.028300106            1 
  531000    1.0558191   -7.4050672    176.21079  0.027653922  0.028282273            2 
  532000    1.0503573   -7.4564406    175.85732  0.027546572  0.028264294            2 
  533000    1.0332399   -7.4421601     176.5241   0.02759914  0.028245844            3 
  534000    1.0530223   -7.3634181    177.22535  0.027656889   0.02822788            4 
  535000    1.0415746   -7.3886062    176.56428  0.027502224  0.028210351            1 
  536000    1.0314872   -7.3997621    176.81062  0.027489214  0.028192291            2 
  537000    1.0482303   -7.4243195    177.10239  0.027483301  0.028174085            1 
  538000     1.048186   -7.4138807    177.60024   0.02750933  0.028155964            1 
  539000    1.0269129    -7.429313    177.40152  0.027427569  0.028137621            2 
  540000    1.0180089    -7.426336     177.5003  0.027392021  0.028118828            2 
  541000    1.0333027   -7.4458255    177.85133  0.027395461  0.028100351            2 
  542000    1.0372283    -7.393815    177.96226   0.02736197  0.028081817            5 
  543000     1.038857   -7.4251152    178.74209   0.02743126  0.028063529            1 
  544000    1.0143599   -7.4089562    178.62778  0.027363324  0.028045776            1 
  545000    1.0142144   -7.4763449    179.28173  0.027413109  0.028028015            2 
  546000    1.0418379   -7.4377588    179.22259  0.027353875  0.028010335            2 
  547000    1.0310342   -7.4479329    179.03539  0.027275349   0.02799207            4 
  548000    1.0482858   -7.4597692    179.70098  0.027326791  0.027973207            1 
  549000    1.0587097   -7.4029028    179.93156  0.027312016  0.027955019            1 
  550000    1.0396248   -7.4193855    180.30768  0.027319346  0.027936163            2 
  551000    1.0223983   -7.4189394    179.55672  0.027156188  0.027917771            1 
  552000    1.0446878   -7.4480107    179.35771   0.02707695   0.02789891            1 
  553000    1.0282268   -7.4562431    179.91612  0.027112133  0.027880112            1 
  554000    1.0373899   -7.3879465    180.75153  0.027188859  0.027861515            1 
  555000    1.0139504   -7.4192612    181.44467  0.027243945  0.027842997            1 
  556000    1.0133281   -7.4308516    181.42741  0.027192357  0.027824553            2 
  557000    1.0321886   -7.4391105    181.15566  0.027102881  0.027806103            4 
  558000     1.039613   -7.4332537    181.31002  0.027077362  0.027787045            1 
  559000     1.026374   -7.4407638    181.41531   0.02704462  0.027767844            2 
  560000     1.050582   -7.4431651     180.8551  0.026912961  0.027748911            2 
  561000    1.0296886   -7.4440606    181.43426  0.026951019  0.027730079            1 
  562000    1.0245503   -7.4671538    181.62925  0.026931976  0.027710822            2 
  563000    1.0352847   -7.4753796    182.41278  0.027000116  0.027691582            1 
  564000    1.0184148    -7.490428    182.58785  0.026978111  0.027672294            2 
  565000    1.0388393   -7.4374477    183.21583  0.027022984  0.027653633            1 
  566000     1.028949   -7.4389171    183.48356  0.027014658  0.027635161            1 
  567000    1.0362169   -7.4617488    183.86774  0.027023477  0.027617046            2 
  568000    1.0338694   -7.4452794    183.87373  0.026976779   0.02759906            2 
  569000   0.99988397   -7.4689427    183.91484   0.02693539  0.027580794            2 
  570000    1.0136129   -7.4551135    184.35007  0.026951764  0.027562681            3 
  571000    1.0045774   -7.4486484    184.35827   0.02690576  0.027544512            2 
  572000    1.0220781   -7.4344157    184.73322  0.026913348  0.027526265            1 
  573000    1.0479798   -7.4322097     184.5328   0.02683723  0.027508169            1 
  574000    1.0080369   -7.4762482     184.6918  0.026813559  0.027489804            2 
  575000    1.0318406   -7.4943886    184.95517  0.026805098  0.027471294            2 
  576000    1.0222111   -7.4511961    185.43076  0.026827367  0.027453345            1 
  577000     1.004874   -7.4899865    185.67546  0.026816213  0.027435628            1 
  578000    1.0053899   -7.4566927    186.13848  0.026836574  0.027417839            2 
  579000    1.0150883   -7.4613708    187.01393  0.026916225  0.027400156            2 
  580000    0.9863886   -7.4287866    187.60052  0.026954098  0.027382992            5 
  581000    1.0256331   -7.4728623    187.11411  0.026837939  0.027365672            1 
  582000    1.0239598   -7.4515725     187.2252  0.026807732  0.027348186            1 
  583000    1.0206074   -7.4845259    187.12585  0.026747549  0.027330457            2 
  584000    1.0035349   -7.4681369    187.01929  0.026686542  0.027312601            1 
  585000    1.0220297   -7.4532657    188.04014  0.026786345  0.027294618            1 
  586000    1.0318784   -7.4781062     188.0038  0.026735467  0.027277168            1 
  587000    1.0067451   -7.4789913    187.76822  0.026656477  0.027259125            4 
  588000    1.0136148   -7.4775284     187.8566  0.026623668  0.027241317            2 
  589000    1.0401127   -7.4811203    188.37024  0.026651138  0.027223801            1 
  590000    1.0498292   -7.4612591    188.90613  0.026681657  0.027206166            3 
  591000    1.0167981   -7.4643229    189.15817  0.026672049  0.027188442            6 
  592000    1.0240853   -7.4645133    188.91881  0.026593301  0.027170838            1 
  593000    1.0134557   -7.5165858    188.90392  0.026546363  0.027152805            2 
  594000    1.0326602    -7.447565    189.84294  0.026633409  0.027135274            1 
  595000    1.0242976   -7.4913642    189.70449  0.026569256  0.027117586            3 
  596000    1.0408941   -7.4792152     190.1931  0.026592995  0.027100333            2 
  597000    1.0396228   -7.4668826    190.30134  0.026563559  0.027083228            1 
  598000   0.99999061   -7.4695404    191.24786   0.02665104  0.027066136            3 
  599000   0.99329239   -7.4970738    190.79633   0.02654373  0.027048869            1 
  600000    1.0259354   -7.4990766    191.03778  0.026533024  0.027031793            1 
  601000    1.0225054   -7.5022246    191.38225  0.026536641  0.027014754            1 
  602000    1.0041202   -7.4522156    191.70888  0.026537775   0.02699768            1 
  603000      1.03228    -7.500791    191.41673  0.026453389  0.026980525            2 
  604000    1.0224923   -7.4466879    191.93354  0.026480897  0.026963463            1 
  605000    1.0098551    -7.442793    192.09321  0.026459119  0.026946145            5 
  606000    1.0067062   -7.5091415    192.20596  0.026430962  0.026928752            3 
  607000    1.0028254   -7.4850751    192.32633  0.026403944  0.026911217            3 
  608000     1.008985   -7.4595829    192.59029  0.026396695  0.026893562            1 
  609000    1.0248444   -7.4593422    192.48839  0.026339408  0.026876135            2 
  610000   0.98506578   -7.4596861    193.22594  0.026396986  0.026858889            1 
  611000   0.98958707   -7.4961308    193.02931  0.026326965  0.026841304            1 
  612000    1.0231285   -7.5197616    193.25294  0.026314398  0.026823888            2 
  613000    1.0052718   -7.4994373    193.53862  0.026310307  0.026806561            1 
  614000    1.0100124   -7.5381686    193.37144  0.026244767  0.026788632            1 
  615000    1.0054648   -7.5353655    193.68768  0.026244943  0.026770774            1 
  616000     1.005961   -7.5128157    193.49454   0.02617621  0.026753004            1 
  617000   0.99379181   -7.4857558     194.4187  0.026258604  0.026735146            1 
  618000      1.01017   -7.5198194    194.09229    0.0261721  0.026717141            2 
  619000    1.0058004   -7.4691716    194.40061  0.026171326     0.026699            3 
  620000   0.98803838   -7.5065781    194.56561  0.026151292  0.026680816            5 
  621000    1.0160863   -7.5004667    194.38379  0.026084781  0.026662703            6 
  622000    1.0291592   -7.4776797    194.36756  0.026040669  0.026644634            2 
  623000   0.97795622   -7.5116478    195.11208  0.026098459  0.026626746            1 
  624000   0.99562742   -7.4899628    195.64681  0.026128046  0.026608929            1 
  625000   0.98286796   -7.5063094     195.0676  0.026009013  0.026591154            3 
  626000   0.99229359   -7.5320063    195.87524  0.026074979   0.02657355            1 
  627000    1.0044796   -7.5121257    195.08083  0.025927808  0.026555691            2 
  628000     1.018616    -7.485529    196.14446  0.026027662  0.026537596            1 
  629000    1.0011371   -7.5218238    196.69542  0.026059276  0.026520064            1 
  630000    1.0044011   -7.5044257    196.90867  0.026046121  0.026502481            2 
  631000    1.0013088   -7.4941786    197.18867  0.026041822  0.026484814            1 
  632000   0.99045621   -7.4639993    197.20928  0.026003333   0.02646721            2 
  633000   0.97680604   -7.5269263    197.20078  0.025961135  0.026449723            2 
  634000   0.99038295   -7.5427467    197.02407   0.02589696  0.026432331            2 
  635000    1.0017344     -7.50423    198.05189  0.025991062  0.026415014            2 
  636000   0.99310175   -7.4865631    198.19509  0.025968958  0.026398142            3 
  637000    1.0078438   -7.4930238    198.38601  0.025953168  0.026380587            3 
  638000   0.95897966    -7.501108    198.89348  0.025978772  0.026363615            3 
  639000    1.0028778   -7.5288335    198.64708  0.025905984  0.026346743            2 
  640000   0.99793367    -7.517128    198.79543  0.025884821  0.026329688            2 
  641000    1.0085827   -7.5207748    199.04339  0.025876675   0.02631241            3 
  642000    1.0066166   -7.5550908    198.55725  0.025773267  0.026294858            1 
  643000   0.97962531   -7.5165511     199.2204  0.025819129  0.026277489            1 
  644000    1.0003607   -7.5024186    199.30298  0.025789723  0.026260298            1 
  645000    1.0115374   -7.5030897     200.1302  0.025856615  0.026243239            1 
  646000   0.98036528    -7.560952    199.99332  0.025798931  0.026225867            3 
  647000    1.0084806   -7.5134635    200.01169  0.025761424  0.026208875            1 
  648000   0.99789693   -7.5221891    199.67729  0.025678664  0.026191599            2 
  649000    1.0095147   -7.5478912     200.8075   0.02578422  0.026174425            1 
  650000   0.97743657   -7.5122375    200.79474  0.025742915  0.026157366            1 
  651000    1.0114382   -7.5573464    200.92571  0.025720137   0.02614055            3 
  652000   0.99452604   -7.5125549    201.80586  0.025793182  0.026124108            3 
  653000   0.98781799   -7.5191808      201.058  0.025658244  0.026107382            2 
  654000   0.98878634   -7.5229343    201.55937  0.025682896  0.026090441            1 
  655000    1.0266877   -7.5368253    201.30205  0.025610947  0.026073558            2 
  656000   0.97463923   -7.4942378    202.51592  0.025726107  0.026056768            1 
  657000    1.0310413   -7.5483179    201.66268  0.025578726  0.026040021            2 
  658000    0.9908279   -7.5691607    202.67725  0.025668345   0.02602313            1 
  659000   0.97176842   -7.4964293    203.08294  0.025680695  0.026006497            3 
  660000   0.99646246   -7.5365569     203.1285  0.025647537  0.025989829            1 
  661000   0.99378598   -7.5533315    202.86675  0.025575738  0.025973129            3 
  662000   0.98801064   -7.4999743    203.33933  0.025596592  0.025956367            3 
  663000   0.98706516   -7.5451644     203.1442  0.025533459  0.025939678            2 
  664000   0.97826094   -7.5346089    203.69196   0.02556375  0.025922948            2 
  665000   0.99808784   -7.5729236    203.29245  0.025475244  0.025906394            1 
  666000   0.97190969   -7.5111267     204.2385  0.025555367  0.025889831            1 
  667000   0.98606677   -7.5299439    203.57965  0.025434738  0.025873135            3 
  668000   0.99732754   -7.5392715    204.38261  0.025496832  0.025856282            3 
  669000   0.96685857   -7.5424883    204.21186  0.025437451  0.025839123            2 
  670000   0.98702581   -7.5416792    204.14192  0.025390786  0.025821963            1 
  671000   0.99477364   -7.5556729     204.2616  0.025367809  0.025805091            2 
  672000   0.98004414   -7.5439807     205.4076  0.025472173  0.025788242            2 
  673000    1.0009807     -7.53096    205.24742  0.025414489  0.025771323            2 
  674000   0.99045291   -7.5497209    205.75375  0.025439385  0.025754576            1 
  675000   0.97264375   -7.5663395    205.33493  0.025349991  0.025737652            1 
  676000   0.98385046   -7.5451593    205.25843  0.025303061  0.025720623            3 
  677000     1.002491   -7.5854102    204.86857  0.025217698  0.025703349            3 
  678000   0.98118664   -7.5506649    205.79453  0.025294313  0.025685743            1 
  679000   0.97738663    -7.574777    205.79789  0.025257473  0.025668398            2 
  680000   0.99127523   -7.5815655    206.08426  0.025255424  0.025651257            2 
  681000    1.0047003   -7.5510161    206.29859  0.025244566  0.025634232            1 
  682000   0.96599164   -7.5625273    206.55872  0.025239336  0.025617265            2 
  683000   0.99597858   -7.5484192    206.45042  0.025189168  0.025600332            2 
  684000    1.0030369   -7.5842724    206.81505  0.025196765  0.025583269            2 
  685000   0.99062409   -7.5713105    206.74038  0.025150898  0.025566182            2 
  686000   0.99563618   -7.5261006    207.69031   0.02522963  0.025549175            3 
  687000   0.98853897   -7.5572736    207.56091  0.025177208  0.025532115            1 
  688000   0.98482693   -7.5459123    207.57539  0.025142368    0.0255153            3 
  689000   0.99921893   -7.5761839    207.52822  0.025100171  0.025498356            2 
  690000   0.97640902   -7.5997804    207.33617    0.0250406  0.025481388            1 
  691000    0.9840496   -7.5650143    207.82592  0.025063424  0.025464304            2 
  692000   0.97360905   -7.5578827    207.45634    0.0249827  0.025447084            2 
  693000   0.97525594   -7.5824677     207.4007  0.024939959  0.025429665            2 
  694000   0.94880804   -7.5777339    208.17561  0.024997072  0.025412317            2 
  695000   0.98331463   -7.5743343    208.77712  0.025033228  0.025394982            1 
  696000   0.97710405   -7.5710999    208.48066  0.024961765  0.025377888            2 
  697000   0.97395296   -7.5982943    208.57366  0.024937071   0.02536063            1 
  698000   0.99654614   -7.5736378    208.27485  0.024865669  0.025343107            2 
  699000   0.96315911    -7.571049    208.73241  0.024884645  0.025325514            3 
  700000   0.97012029    -7.587933    208.81817  0.024859307   0.02530785            2 
  701000    1.0109419   -7.5941057    208.02823  0.024729937   0.02528983            1 
  702000   0.97687638   -7.5793657    208.58619  0.024760944  0.025271819            1 
  703000   0.97619234   -7.5713055    209.39542  0.024821648  0.025253827            1 
  704000   0.97756705    -7.607181    209.10664  0.024752206  0.025235773            2 
  705000   0.98589258   -7.5827165    208.65676   0.02466392  0.025217594            2 
  706000   0.96156679   -7.5987554    209.02977  0.024673013  0.025199303            2 
  707000    0.9712503   -7.5496989    209.28163  0.024667802  0.025181038            1 
  708000   0.99060216    -7.570809    209.56904  0.024666789  0.025162754            3 
  709000   0.97607456   -7.5773001    209.13779  0.024581311  0.025144479            2 
  710000   0.96459495   -7.5824968    209.87482  0.024633195  0.025126463            2 
  711000   0.95593326   -7.5853479    210.10019  0.024624963  0.025108338            3 
  712000   0.95744786   -7.5832529    210.48468  0.024635379  0.025090337            1 
  713000   0.95190885   -7.6028268    210.23784  0.024571978  0.025072358            3 
  714000   0.97411308    -7.613078    210.31467   0.02454653  0.025054314            3 
  715000   0.95270093   -7.6274412    210.19905  0.024498723  0.025035943            3 
  716000   0.96551806   -7.5884751    210.72302  0.024525491  0.025017766            2 
  717000   0.96682883   -7.5913348    210.53869  0.024469861   0.02499954            1 
  718000   0.97412865   -7.5517035    212.03835  0.024609836  0.024981614            1 
  719000   0.95940729   -7.5651844    211.31583  0.024491867  0.024963734            2 
  720000    0.9691548   -7.5758954    212.07918  0.024546202  0.024945896            1 
  721000   0.95084434   -7.5706481    212.41336  0.024550782  0.024928102            2 
  722000   0.98510106   -7.6067298    211.89503  0.024456952  0.024910187            4 
  723000   0.95548658   -7.5973663    212.52605  0.024495856  0.024892088            2 
  724000   0.96450261   -7.5685133    212.45312  0.024453628  0.024874407            1 
  725000   0.94700865    -7.607327    212.35177  0.024408249  0.024856719            1 
  726000   0.96855345    -7.631119    212.65882  0.024409874  0.024839151            1 
  727000   0.95716063   -7.6059391     213.3497  0.024455491  0.024821563            2 
  728000   0.96664195   -7.6318247    212.86065  0.024365917  0.024804182            2 
  729000   0.95427953   -7.6332924    213.41576  0.024395948    0.0247866            4 
  730000   0.99167555   -7.5776643    214.37232  0.024471726  0.024769408            1 
  731000   0.96101081   -7.6002034    213.77434  0.024370079  0.024751868            1 
  732000   0.95229883   -7.6193135    213.57617  0.024314227  0.024734257            2 
  733000   0.94005028    -7.604056    214.07645  0.024337932  0.024716777            1 
  734000   0.97612617   -7.6175966    213.76081  0.024268938  0.024699321            2 
  735000   0.96477274   -7.6592802    213.90703  0.024252498  0.024681523            2 
  736000   0.96569269   -7.6217718    213.94772  0.024224153  0.024663687            1 
  737000   0.96952288   -7.6012045    214.43356  0.024246219  0.024645948            2 
  738000   0.95975777   -7.6208157    214.10728  0.024176522  0.024628426            2 
  739000   0.95041789   -7.6043806    214.94433  0.024238197  0.024610543            1 
  740000   0.95934521   -7.6619561     213.9403  0.024092376  0.024592633            3 
  741000   0.95291179   -7.6545889    214.20134  0.024089219  0.024574609            3 
  742000   0.96828288   -7.6511399    214.95847  0.024141787  0.024556732            1 
  743000   0.97107595   -7.6262428    215.80619  0.024204373  0.024538804            1 
  744000   0.96528541    -7.659058    215.46265  0.024133362  0.024520941            2 
  745000   0.96776186   -7.6083708    215.71677  0.024129392  0.024503069            5 
  746000   0.96184086   -7.6639909    214.91363  0.024007331  0.024485176            1 
  747000   0.97157211   -7.6515019    215.28018  0.024016084   0.02446716            3 
  748000   0.96634859   -7.6220661    216.23897  0.024090795  0.024449506            1 
  749000   0.96852524   -7.6660377    215.41414  0.023966861  0.024431853            1 
  750000   0.93814804   -7.6089621    216.01064  0.024001182  0.024414114            3 
  751000   0.93919317   -7.6048437    216.45361  0.024018377  0.024396405            3 
  752000   0.96792274   -7.6505825    216.16468   0.02395442  0.024378596            2 
  753000   0.94086181   -7.6438349    216.56135  0.023966506   0.02436091            1 
  754000   0.94760087   -7.6342641    217.05408  0.023989178  0.024343306            3 
  755000   0.97710085   -7.6314867    217.14229   0.02396714  0.024325886            2 
  756000   0.96370158   -7.6181849    217.24542  0.023946806   0.02430834            3 
  757000   0.93668551   -7.6479673    216.96261  0.023884039   0.02429087            1 
  758000   0.94607138   -7.6128207    218.05011  0.023972088   0.02427323            2 
  759000   0.94876965    -7.619035    217.56039  0.023886735  0.024255631            1 
  760000   0.94392192   -7.6232712    217.13617  0.023808791  0.024238055            2 
  761000   0.97326732   -7.6176213    217.79227  0.023849351   0.02422079            2 
  762000   0.94286601   -7.6230343    218.43016  0.023887813  0.024203588            3 
  763000   0.94413546   -7.6357732    218.11887  0.023822507  0.024186185            1 
  764000   0.95155488   -7.6334424    218.00654  0.023779073  0.024168627            3 
  765000   0.97089343   -7.6472239    218.21834  0.023771061  0.024150848            2 
  766000   0.93995446    -7.651446     218.9841  0.023823336  0.024133217            2 
  767000   0.94530979   -7.6451459     218.7173  0.023763287  0.024115589            4 
  768000   0.93683538   -7.6548738    218.16466  0.023672381  0.024098037            2 
  769000    0.9453561   -7.6278679    218.74821  0.023704834  0.024080446            1 
  770000   0.95032054   -7.6681585    218.78418  0.023677942  0.024062674            3 
  771000    0.9527227   -7.6662124    218.82588  0.023651738  0.024045233            1 
  772000   0.95709279   -7.6489224    218.88896   0.02362791  0.024027686            2 
  773000    0.9397537   -7.6486327    220.30752  0.023750272  0.024010143            2 
  774000   0.94819206   -7.6564699    219.72263  0.023656614  0.023992958            2 
  775000   0.96187943   -7.6735439    220.04859  0.023661138  0.023975992            1 
  776000   0.94391927   -7.6207614    220.29927  0.023657568  0.023959149            3 
  777000   0.93457019   -7.6638013     220.0803  0.023603635  0.023942219            4 
  778000   0.96936681   -7.6384377    221.11295  0.023683906   0.02392541            2 
  779000   0.92618507   -7.6749651    221.04025  0.023645726  0.023908508            5 
  780000   0.94401977   -7.6715525    220.19806  0.023525434  0.023891537            3 
  781000    0.9601286     -7.66024    221.53245  0.023637692  0.023874575            2 
  782000   0.95993867   -7.6398692    221.40266  0.023593634  0.023857656            3 
  783000   0.95272299    -7.687971    220.30191   0.02344635  0.023840601            3 
  784000   0.93550439   -7.6765333    221.39376    0.0235325  0.023823535            1 
  785000   0.94472409    -7.635991    221.82236  0.023548021  0.023806729            2 
  786000   0.91956713   -7.6614679    221.27348  0.023459868  0.023789892            3 
  787000     0.940871   -7.6358488    221.66199  0.023471197  0.023772881            2 
  788000   0.94708124   -7.6289143    221.92165  0.023468872  0.023755863            2 
  789000   0.94399544   -7.6517477    222.08184  0.023456046  0.023738908            1 
  790000   0.95064268   -7.6656488    221.99163  0.023416838  0.023722241            2 
  791000   0.93933472   -7.6384672    222.70102   0.02346197  0.023705428            2 
  792000    0.9459581    -7.672131    222.69637  0.023431857  0.023688551            2 
  793000   0.95571414   -7.6459736    222.03136  0.023332425  0.023671594            1 
  794000   0.92206099   -7.6776342     222.4843  0.023350578   0.02365462            4 
  795000   0.93476573   -7.6692631    222.75467  0.023349546  0.023637523            3 
  796000   0.93908669   -7.6613983    222.94056  0.023339673  0.023620814            1 
  797000   0.93637789   -7.6957036    222.68314  0.023283473  0.023604118            4 
  798000   0.92181944   -7.6720713    223.70676   0.02336119  0.023587209            2 
  799000   0.92096975    -7.672166    223.08034  0.023266618  0.023570528            2 
  800000   0.93846422   -7.6901864    223.17566  0.023247464  0.023553784            1 
  801000   0.92230053   -7.6890281    224.54214  0.023360606  0.023537172            3 
  802000   0.93602034    -7.639468    224.44507  0.023321391  0.023520503            1 
  803000   0.90889088   -7.6435806    224.17908  0.023264744  0.023503739            1 
  804000   0.93980236   -7.6465884    223.93542  0.023210553  0.023486836            2 
  805000   0.93535993    -7.667676    224.55183  0.023245531  0.023469987            2 
  806000   0.95839941   -7.6801682    223.88502  0.023147748   0.02345312            2 
  807000   0.94025217   -7.6767594    224.33215  0.023165237   0.02343635            1 
  808000   0.93923046   -7.6874982    224.71984  0.023176551  0.023419674            1 
  809000   0.93148463   -7.6902772    224.45686  0.023120813  0.023402904            3 
  810000   0.94142745   -7.7072843    224.63593  0.023110692  0.023386112            2 
  811000   0.95407012   -7.6834031    224.96457  0.023115965  0.023369255            2 
  812000   0.93125967   -7.7110829    225.69115  0.023162064  0.023352493            2 
  813000   0.93116122   -7.6957991    225.87887  0.023152815  0.023335914            2 
  814000   0.93827384   -7.6851808    225.61481  0.023097339  0.023319325            4 
  815000   0.92955586   -7.6822519    226.42564  0.023151905  0.023302876            3 
  816000   0.92175725   -7.6794565    225.74128  0.023053644  0.023286448            2 
  817000   0.89723507   -7.7285678    225.60621   0.02301165  0.023269906            2 
  818000    0.9039716   -7.7118002    225.69122  0.022992178  0.023253252            2 
  819000   0.94568938   -7.7144593    226.67325  0.023064026  0.023236854            2 
  820000   0.91794894   -7.6959313    227.02387  0.023071531  0.023220597            2 
  821000   0.92068577   -7.6898122    226.63127   0.02300358  0.023204298            3 
  822000   0.92390431   -7.7361124    227.01576  0.023014574   0.02318786            2 
  823000   0.91990679   -7.7208623    226.70868  0.022955516  0.023171744            1 
  824000   0.94883818   -7.6341695    227.59334  0.023017126  0.023155625            1 
  825000   0.91711688   -7.7066914    227.50974  0.022980781  0.023139506            2 
  826000   0.91626806   -7.6863738       227.88  0.022990315  0.023123543            4 
  827000   0.93831284   -7.7083822    228.12124  0.022986824  0.023107567            4 
  828000   0.91979781   -7.7269374    227.93661   0.02294048  0.023091471            1 
  829000   0.92805326   -7.7131136    228.20328  0.022939614  0.023075222            5 
  830000   0.90840734   -7.7164025    227.90223   0.02288175  0.023058987            2 
  831000   0.92260072   -7.6986219    228.05881  0.022869916   0.02304278            4 
  832000   0.92950425   -7.6738401    228.70598  0.022907249  0.023026698            2 
  833000   0.93137623   -7.6930444    228.21961  0.022831094  0.023010704            2 
  834000   0.91304463   -7.7070086    228.83846  0.022865554  0.022994898            2 
  835000    0.9023094   -7.6986091    229.32309  0.022886536  0.022979117            2 
  836000   0.91443188   -7.7378049    228.74745  0.022801779  0.022963296            1 
  837000   0.94274759   -7.7205533    229.57448  0.022856878   0.02294752            2 
  838000   0.91704877   -7.6965077    229.67767  0.022839864  0.022931895            1 
  839000   0.91021136    -7.705476    230.23798  0.022868294  0.022916237            4 
  840000   0.91153441   -7.7389101    229.56746  0.022774549  0.022900627            2 
  841000    0.9265188   -7.7477836    230.22972  0.022813092  0.022884838            2 
  842000   0.91867818   -7.7296975    230.05288  0.022768495  0.022869147            4 
  843000   0.91256444   -7.7192854    230.31868  0.022767762  0.022853404            2 
  844000   0.92665782   -7.7493755    229.75196  0.022684831  0.022837514            2 
  845000   0.90572019   -7.7197291    230.69457  0.022750943  0.022821684            1 
  846000   0.92849874   -7.7412443    229.92935  0.022648675  0.022805814            3 
  847000   0.91778584   -7.7273421    230.37063  0.022665351  0.022789766            1 
  848000   0.92497597   -7.7105713    230.37268  0.022638825   0.02277377            2 
  849000    0.9021565   -7.6882077    231.06295  0.022679913   0.02275801            1 
  850000    0.9111369   -7.7422821     230.6326  0.022611039  0.022742014            1 
  851000    0.9085868   -7.7402993    230.22859  0.022544907  0.022725981            2 
  852000   0.92189374   -7.7025067    231.19176  0.022612653  0.022709864            3 
  853000   0.90758156   -7.7297196    231.05236  0.022572524  0.022693659            2 
  854000   0.92401421   -7.7521323    230.36853  0.022479365  0.022677458            3 
  855000   0.91726152   -7.7360398    230.49984  0.022465871  0.022661343            2 
  856000   0.91972217   -7.7301819    231.19272   0.02250708  0.022645166            6 
  857000   0.92304655   -7.7357817    230.31636  0.022395601  0.022628856            1 
  858000   0.90094658   -7.6816191    230.81276  0.022417712  0.022612327            2 
  859000   0.92252183   -7.7414475    230.70752  0.022381405   0.02259586            2 
  860000   0.91607882   -7.7308289    231.30102   0.02241289  0.022579262            3 
  861000   0.91142632   -7.7638325    230.65172  0.022324015  0.022562679            3 
  862000   0.88892985   -7.7210223    231.32414  0.022363122  0.022546019            2 
  863000   0.90694795   -7.7540156    231.20035  0.022325256  0.022529652            1 
  864000   0.92009589   -7.7489283    231.75767   0.02235317  0.022513394            3 
  865000   0.89370317   -7.7636098    232.25312   0.02237506  0.022497208            1 
  866000   0.89850176   -7.7444204    231.49737  0.022276499  0.022480796            3 
  867000    0.9271732    -7.753186    232.28969   0.02232696  0.022464348            1 
  868000    0.9154808   -7.7754578    231.29385  0.022205631  0.022447704            3 
  869000   0.89442974   -7.7602508    231.59487  0.022208945  0.022430952            2 
  870000   0.90667529   -7.7334857    231.80221  0.022203277  0.022414318            3 
  871000   0.90115493   -7.7574144    231.98922  0.022195677  0.022397704            2 
  872000   0.91554812    -7.751858    231.59964  0.022132993  0.022380991            3 
  873000   0.89549616   -7.7747599    231.96583  0.022142596   0.02236429            3 
  874000    0.9164838   -7.7539489    232.18212  0.022137884  0.022347597            1 
  875000   0.90449226   -7.7148897    232.12243  0.022106899  0.022330937            4 
  876000   0.91066512   -7.7385891    232.51736  0.022119231  0.022314125            3 
  877000   0.87940754   -7.7548434    232.07322  0.022051808  0.022297335            1 
  878000   0.91105636   -7.7412082    231.86256  0.022006697  0.022280527            2 
  879000   0.91621276   -7.7782878    231.81023    0.0219767  0.022263706            2 
  880000   0.89377887   -7.7527739    232.45593  0.022012872  0.022246783            4 
  881000   0.88933924   -7.7447685    232.40476  0.021983046   0.02223016            1 
  882000   0.90821379   -7.7523046    233.40023  0.022052176  0.022213454            1 
  883000   0.90796042   -7.7517287    232.71772   0.02196279  0.022196737            2 
  884000   0.88333502   -7.7893011    233.16228  0.021979853  0.022180011            2 
  885000   0.89405506   -7.7541556    233.17212  0.021955943  0.022163342            2 
  886000   0.89986019   -7.7724389    233.30102  0.021943287  0.022146683            2 
  887000   0.90694333   -7.7898303    233.55633  0.021942534  0.022130093            3 
  888000   0.89183079   -7.7132962    233.79888  0.021940586  0.022113682            2 
  889000   0.90981307   -7.7763564    233.38625  0.021877227  0.022097283            3 
  890000   0.88725259   -7.7478739    233.91733  0.021902371  0.022080757            2 
  891000   0.91456264   -7.7627555    234.15955  0.021900444  0.022064204            1 
  892000   0.89336698   -7.7877799    234.19313  0.021879029  0.022047662            2 
  893000   0.88467868     -7.81623     233.9891  0.021835489  0.022031186            1 
  894000   0.91757557   -7.7884375    234.97316  0.021902793  0.022014643            4 
  895000   0.88153948   -7.7697804    233.90284  0.021778663  0.021998409            1 
  896000   0.91250271   -7.7884343     235.3327  0.021887342   0.02198218            3 
  897000    0.8976914   -7.7784242    235.57698  0.021885635  0.021966109            2 
  898000   0.87802605   -7.7342413    235.29507  0.021835103  0.021950014            2 
  899000   0.89158842   -7.7972267    235.47224  0.021827237  0.021933917            1 
  900000    0.8933621    -7.797415    235.01325  0.021760486  0.021917624            3 
  901000   0.89757313   -7.7474624    235.05413  0.021740116  0.021901265            1 
  902000   0.88778424   -7.7494618    235.21677   0.02173104  0.021884894            1 
  903000   0.89223856   -7.7934595    234.84108  0.021672303  0.021868351            4 
  904000   0.89366227   -7.7661498    235.36618  0.021696734   0.02185196            2 
  905000   0.88423076   -7.7418752    235.19945  0.021657408  0.021835572            1 
  906000   0.90375743   -7.7482438    236.28726  0.021733559  0.021819259            1 
  907000    0.9131094   -7.7947006     235.3802  0.021626259  0.021802914            3 
  908000   0.90687833   -7.7728014     235.7435  0.021635784  0.021786487            1 
  909000   0.87864572   -7.8177381    235.27101  0.021568666  0.021769883            2 
  910000   0.90770336   -7.7882595    235.27313  0.021545159  0.021753325            1 
  911000   0.89922536   -7.7860697    235.35706  0.021529186  0.021736831            2 
  912000   0.88054102    -7.792689    235.72888  0.021539554  0.021720319            3 
  913000   0.89171497   -7.7845609    235.87465  0.021529267  0.021703753            1 
  914000   0.86477771   -7.7979647    236.01683  0.021518675  0.021687193            2 
  915000    0.8969774   -7.8026681    235.87362  0.021482115  0.021670639            1 
  916000   0.88371861   -7.8111984    235.58687  0.021432576  0.021653929            2 
  917000   0.88237844   -7.8014369    235.63594  0.021413662  0.021637334            2 
  918000   0.86870596   -7.7859667    236.03771  0.021426808  0.021620878            6 
  919000   0.88113318   -7.7950046    236.56896  0.021451665  0.021604449            2 
  920000   0.89724788   -7.7880064    236.35682  0.021409132  0.021587977            2 
  921000   0.88900854   -7.7875106    236.44709  0.021394054  0.021571578            3 
  922000   0.86988699   -7.7728876    237.33795   0.02145137  0.021555261            2 
  923000   0.87825866   -7.7466119    237.29765   0.02142449  0.021538827            1 
  924000   0.88673435   -7.7997704    237.12473  0.021385708   0.02152254            1 
  925000    0.9074645   -7.7946386    237.11851  0.021362028  0.021506148            1 
  926000    0.8619373    -7.812329    237.28605  0.021354036  0.021489822            2 
  927000   0.88350687    -7.784609    237.33005  0.021334956  0.021473535            2 
  928000   0.88356962   -7.7643868    237.84246  0.021357979  0.021457361            1 
  929000   0.88009009   -7.8062682    238.05174  0.021353763  0.021441287            4 
  930000   0.87437401   -7.8042968     237.7936   0.02130767  0.021425227            3 
  931000   0.87965412    -7.841081     237.4576  0.021254708  0.021409049            2 
  932000   0.87460355   -7.8073815    237.55931  0.021240997  0.021393004            1 
  933000   0.89750182   -7.8010592    237.69938  0.021230741  0.021376736            2 
  934000    0.8880377   -7.8620204    237.33773  0.021175743  0.021360435            1 
  935000   0.86116542   -7.8093564    237.96187  0.021208723  0.021344192            2 
  936000   0.86754935   -7.8434695    237.71474  0.021164061  0.021327955            1 
  937000   0.86677839   -7.8210458    238.08424  0.021174337  0.021311825            2 
  938000   0.87883186    -7.802941    238.49591  0.021188336  0.021295805            2 
  939000   0.86582946   -7.8036381    238.45032  0.021161725  0.021279878            1 
  940000   0.85311912   -7.8108201    238.92969   0.02118171  0.021263876            2 
  941000   0.87061344   -7.7987888    238.98257  0.021163884  0.021247841            1 
  942000   0.85267639   -7.8125354    238.69367  0.021115859  0.021231711            2 
  943000   0.86607715   -7.8086429    238.93658  0.021114933  0.021215518            2 
  944000   0.87356979   -7.7808918    239.03969  0.021101668  0.021199425            2 
  945000   0.88069242    -7.850532    238.56102  0.021037127  0.021183346            2 
  946000   0.86471494   -7.8292671    239.06603  0.021059375  0.021167097            2 
  947000   0.87411331   -7.8262972    239.17846  0.021047031  0.021150873            3 
  948000   0.86421622   -7.8377759    239.09454  0.021017452  0.021134798            2 
  949000   0.87387174   -7.8589015    239.34822  0.021017581  0.021118835            4 
  950000    0.8652349   -7.8375199    239.73341  0.021029246  0.021102836            2 
  951000   0.89660071   -7.8207722    239.93214  0.021024548  0.021086964            2 
  952000   0.87610797   -7.8195638    239.24716  0.020942503   0.02107097            1 
  953000   0.86377193   -7.8150618     239.8166  0.020970322  0.021054932            3 
  954000   0.86336893   -7.8097587    240.37794  0.020997374  0.021038957            2 
  955000   0.86800093   -7.8531239    239.79386   0.02092442  0.021022826            5 
  956000   0.86288753   -7.8235524    239.70848  0.020895091   0.02100681            2 
  957000   0.88272308   -7.8287385    239.71572  0.020873887  0.020990664            3 
  958000   0.85403658   -7.8322128    239.91637  0.020869552   0.02097452            1 
  959000   0.88382623   -7.8240334     240.0759  0.020861653  0.020958412            2 
  960000    0.8560765   -7.7984838    240.19604   0.02085035  0.020942345            2 
  961000   0.87983926   -7.8350275    240.32081  0.020839474  0.020926307            5 
  962000   0.88337721   -7.8072263    240.60496  0.020842425  0.020910257            2 
  963000   0.86507099   -7.8459599    240.31735  0.020795894  0.020894177            2 
  964000   0.86614568    -7.787119     241.0251  0.020835503  0.020878291            1 
  965000   0.88003438   -7.8280501    241.08273  0.020818889  0.020862544            1 
  966000   0.85518518   -7.8350887    241.11701  0.020800294  0.020846815            3 
  967000    0.8766589   -7.8329104    241.74006  0.020832477  0.020831038            1 
  968000   0.85322113    -7.830632    241.68911  0.020806569  0.020815305            2 
  969000   0.86890015   -7.8445941    240.89673  0.020716953  0.020799547            2 
  970000   0.86963931   -7.8071466      240.966  0.020701546   0.02078365            1 
  971000   0.86276126   -7.8297778    241.39539  0.020717078  0.020767795            4 
  972000   0.85159634   -7.8754483    241.42878  0.020698627  0.020751767            3 
  973000   0.86738924   -7.8471968    241.50836   0.02068417  0.020735765            1 
  974000   0.84679781   -7.8300382     241.9158  0.020697793   0.02071986            3 
  975000   0.87297389   -7.8193351    242.04838  0.020687896  0.020704023            2 
  976000   0.86678606   -7.8576988    241.86082  0.020650684   0.02068819            2 
  977000   0.85735554   -7.8759091     241.3151  0.020583001  0.020672134            2 
  978000   0.87031848    -7.846032    241.25339  0.020556697  0.020656227            2 
  979000   0.85290231   -7.8227928    241.91441  0.020591966    0.0206403            5 
  980000   0.85228711   -7.8729095    242.35735  0.020608619  0.020624641            1 
  981000   0.86715162   -7.8105757    241.95534   0.02055346  0.020608892            2 
  982000    0.8583302   -7.8399527    242.65187  0.020591639  0.020593265            2 
  983000   0.84544801   -7.8426965    242.57144  0.020563872  0.020577588            2 
  984000   0.86659263   -7.8545098    242.26798  0.020517274  0.020561844            1 
  985000   0.86519006   -7.8479409     242.6211   0.02052632  0.020546137            2 
  986000   0.87278257   -7.9044151    242.62016  0.020505423  0.020530376            1 
  987000   0.85366753   -7.9024919    242.32251  0.020459516  0.020514527            2 
  988000   0.84057269   -7.8626123    242.78193  0.020477558  0.020498785            1 
  989000   0.87359078   -7.8574107    242.97281  0.020472937  0.020483092            1 
  990000   0.85256892    -7.838095    243.40112   0.02048831  0.020467539            2 
  991000   0.85140348   -7.8384732     242.8866  0.020424369  0.020451896            2 
  992000   0.86036059   -7.8662152    243.23706  0.020433221  0.020436195            1 
  993000   0.84709247   -7.8953799    243.04189  0.020396265  0.020420615            1 
  994000   0.87613111   -7.8740334    243.31941  0.020399011  0.020405079            1 
  995000   0.86408635   -7.8734432    243.59956  0.020401973  0.020389528            2 
  996000   0.86525723   -7.8609048     243.5686  0.020378899  0.020373973            3 
  997000    0.8657486   -7.8671668    244.32053  0.020421308  0.020358422            2 
  998000   0.86368478   -7.8704314     243.3795   0.02032227  0.020342882            2 
  999000   0.86823021   -7.8448328     244.0595  0.020358651   0.02032735            5 
 1000000   0.86354201   -7.8807606    243.09042  0.020257535  0.020311717            2 
 1001000   0.85949346    -7.841935    243.32608  0.020256916  0.020296122            4 
 1002000    0.8654124   -7.8703194     244.0614  0.020297854   0.02028059            7 
 1003000   0.87243108    -7.912224    243.68255  0.020246141  0.020265034            4 
 1004000   0.84040012    -7.868907    244.46047  0.020290544  0.020249398            2 
 1005000    0.8516841   -7.8789039    243.57571  0.020196991  0.020233781            1 
 1006000   0.84188596   -7.8905565    244.18356  0.020227266  0.020218228            2 
 1007000   0.85576879   -7.8970591    244.06179  0.020197103  0.020202675            2 
 1008000   0.84050163   -7.8734006    244.64791  0.020225521  0.020187179            2 
 1009000   0.84166929    -7.921296    244.27473  0.020174656  0.020171567            1 
 1010000   0.84272699   -7.8690996    244.21203  0.020149508  0.020155931            3 
 1011000   0.85980047   -7.9052372     244.0966  0.020120062  0.020140411            3 
 1012000   0.83767193    -7.894816    244.85223  0.020162404  0.020124898            2 
 1013000   0.85626233    -7.929088    244.15793  0.020085385  0.020109364            1 
 1014000   0.84495302    -7.928684    244.24565  0.020072785  0.020093829            2 
 1015000   0.84174575   -7.9055074    244.91545     0.020108  0.020078312            1 
 1016000   0.85231703    -7.868111    244.92281  0.020088813  0.020062967            2 
 1017000   0.85937177   -7.8794333    244.70763  0.020051428  0.020047627            1 
 1018000   0.85032997    -7.897335    245.12649  0.020066019  0.020032306            3 
 1019000   0.84795021    -7.896775    245.49091   0.02007613  0.020016951            2 
 1020000   0.84240523   -7.8775022    245.32214  0.020042658   0.02000161            3 
 1021000   0.86511509   -7.8794879    245.58236  0.020044267   0.01998622            2 
 1022000   0.85711413   -7.9010219     245.1237  0.019987256  0.019970826            6 
 1023000   0.81940043   -7.8762896    245.22938  0.019976326  0.019955511            1 
 1024000   0.83393177   -7.8816613     245.0003  0.019938176  0.019940197            2 
 1025000    0.8656363   -7.8624981    245.44082  0.019954538  0.019924941            1 
 1026000   0.83584177   -7.9133463    245.53255   0.01994254  0.019909677            2 
 1027000   0.84419041   -7.8740205    245.30314  0.019904506  0.019894291            3 
 1028000   0.85032006    -7.920218    244.68246  0.019834829  0.019878805            1 
 1029000   0.84362392   -7.9257167    245.67978  0.019896322  0.019863397            3 
 1030000   0.85477761   -7.9056769    245.29018  0.019845483  0.019847976            2 
 1031000   0.82635845   -7.9282206    246.05356  0.019887937  0.019832478            1 
 1032000   0.84099491   -7.9143989    245.59225  0.019831416  0.019816923            4 
 1033000   0.86076998   -7.9321204    245.66578   0.01981815  0.019801485            2 
 1034000    0.8281917   -7.9490272      246.259  0.019846793  0.019786013            4 
 1035000     0.823266    -7.880938    246.64217  0.019858468  0.019770693            3 
 1036000    0.8328692    -7.913987    246.05143  0.019791782  0.019755409            2 
 1037000   0.82941228   -7.8970861     246.6758  0.019822871  0.019740019            2 
 1038000   0.85234564    -7.911545    246.33528  0.019776435  0.019724578            2 
 1039000   0.83408222   -7.9295202    245.22074  0.019668009  0.019709136            3 
 1040000   0.82101927   -7.9117687    245.99052  0.019710779  0.019693611            4 
 1041000   0.85406199   -7.9226138    246.03088  0.019695075  0.019678213            1 
 1042000   0.82994721   -7.9029076    246.15385  0.019686008   0.01966288            4 
 1043000   0.82717769   -7.9320956    247.10742  0.019743322   0.01964768            1 
 1044000   0.84966866   -7.8719149    246.89083  0.019707123  0.019632466            2 
 1045000   0.83270125   -7.9044086     246.1728  0.019631005  0.019617259            1 
 1046000   0.82589784   -7.9223477    246.37671  0.019628482  0.019601977            2 
 1047000   0.82737669   -7.9051647    246.96734  0.019656745  0.019586705            2 
 1048000   0.83357784   -7.9276054    246.19549  0.019576613  0.019571305            1 
 1049000   0.82125893   -7.8956527    246.69676  0.019597772  0.019555867            2 
 1050000   0.86092078   -7.9275705     246.8119  0.019588246  0.019540627            1 
 1051000   0.84744428   -7.9217197    247.00543  0.019584954  0.019525316            1 
 1052000    0.8418459   -7.9049617    247.16098  0.019578658  0.019509952            3 
 1053000   0.82983361   -7.9276218    246.95085  0.019543435  0.019494638            1 
 1054000   0.81694968   -7.9257197    246.85027  0.019516941  0.019479288            3 
 1055000    0.8452058   -7.9619983    246.80437  0.019494816  0.019463956            2 
 1056000   0.84215101   -7.9393806    246.75121   0.01947216  0.019448587            1 
 1057000   0.84048279   -7.9568298    246.60587   0.01944228  0.019433144            3 
 1058000   0.83941461   -7.9850492    247.08874  0.019461936  0.019417695            1 
 1059000   0.82786196   -7.9421541    247.27429  0.019458159  0.019402345            2 
 1060000   0.82852947   -7.9385246    247.00339  0.019418505  0.019387057            3 
 1061000   0.82668905   -7.9502369    247.40426  0.019431688  0.019371714            1 
 1062000   0.83843201   -7.9688104    247.60371  0.019429042  0.019356487            2 
 1063000   0.82346919   -7.9549339     247.3999  0.019394786   0.01934131            2 
 1064000   0.83268342   -7.9643253    247.44121  0.019379794  0.019326018            2 
 1065000   0.83207161   -7.9650692    247.65958  0.019378684  0.019310749            1 
 1066000   0.82872178   -7.9795343    247.57973  0.019354263   0.01929544            4 
 1067000   0.81786203   -7.9791598    247.48378   0.01932863  0.019280102            2 
 1068000   0.83179632   -7.9882681    247.72999  0.019329743  0.019264872            3 
 1069000   0.82088796   -7.9589544    247.74918  0.019313157  0.019249641            2 
 1070000   0.82872202   -7.9627012    248.31172  0.019338919  0.019234503            3 
 1071000   0.84418222   -7.9547669    248.86271  0.019363734  0.019219425            3 
 1072000   0.81593718   -7.9365243    247.90271  0.019271044  0.019204441            4 
 1073000   0.82301643   -7.9533075    247.92311  0.019254669  0.019189388            2 
 1074000   0.81588373   -7.9374431    248.57532  0.019287346  0.019174425            1 
 1075000   0.81767178   -7.9477807    248.87002  0.019292249  0.019159487            3 
 1076000   0.84015492   -7.9536239    248.22565  0.019224415  0.019144542            1 
 1077000   0.82821571   -7.9338163    248.28357  0.019211047  0.019129561            3 
 1078000   0.81330809   -7.9621153    249.58966  0.019294192  0.019114526            1 
 1079000   0.82983538   -7.9570723    248.42211  0.019186138  0.019099538            1 
 1080000   0.84866184   -7.9783205    247.59565  0.019104603  0.019084466            1 
 1081000   0.81172012   -7.9594071    248.87718  0.019185722  0.019069391            2 
 1082000   0.82899751   -7.9513202     248.6574  0.019151063  0.019054383            1 
 1083000    0.8266118   -7.9554331    249.07552  0.019165552  0.019039354            1 
 1084000   0.83116311    -8.003604    248.14059  0.019075998  0.019024347            1 
 1085000   0.82541443   -7.9814191    248.81138  0.019109937  0.019009416            2 
 1086000   0.80547472    -7.955879    248.86568  0.019096507  0.018994494            1 
 1087000   0.82369247   -7.9829657    249.22735  0.019106666  0.018979625            1 
 1088000   0.80774909   -7.9582843    249.21824  0.019088406  0.018964832            7 
 1089000   0.81775849   -7.9709336      249.442  0.019088001  0.018949998            1 
 1090000   0.82521944   -7.9323931    249.21895  0.019053436  0.018935223            2 
 1091000   0.82654456   -7.9679065    249.95712  0.019092356  0.018920453            4 
 1092000   0.82433848   -7.9725435     249.2417  0.019020276  0.018905639            1 
 1093000   0.83023641   -7.9741622    250.24332  0.019079241  0.018890935            2 
 1094000   0.80348124    -7.949903    250.24578  0.019061988  0.018876374            4 
 1095000   0.81657241   -7.9740572    250.34391  0.019052048  0.018861844            2 
 1096000   0.80235488   -8.0093503     250.0478   0.01901215  0.018847264            1 
 1097000   0.82085015   -7.9811043    250.60031  0.019036791  0.018832715            3 
 1098000   0.83011786   -7.9563222    250.82129  0.019036224  0.018818182            2 
 1099000   0.82070406   -7.9791394     250.0602  0.018961192  0.018803648            2 
 1100000   0.81537884   -7.9816564     250.3573  0.018966462   0.01878902            3 
 1101000   0.82585454   -8.0246647    249.64641  0.018895429  0.018774398            4 
 1102000    0.8375544    -8.020472    250.45635   0.01893953  0.018759699            2 
 1103000   0.79564585   -7.9990845     250.5982  0.018933076  0.018745015            4 
 1104000   0.81392975   -7.9889779    250.22035  0.018887406  0.018730393            4 
 1105000   0.82601585   -7.9564754     250.9029  0.018921788  0.018715831            1 
 1106000    0.8033894   -8.0123488    251.21404  0.018928122  0.018701392            2 
 1107000   0.80796787   -7.9883447    250.58336  0.018863547  0.018686859            1 
 1108000    0.7998984   -7.9808696    250.66901  0.018852964  0.018672316            2 
 1109000   0.80706126   -7.9958001    251.18418  0.018874675  0.018657842            3 
 1110000   0.80964871   -7.9997645    250.86097  0.018833406  0.018643421            2 
 1111000   0.80184433   -7.9764088    251.51747  0.018865697  0.018629004            1 
 1112000    0.8133282   -8.0083361     251.2338  0.018827473  0.018614568            1 
 1113000   0.79640408   -7.9655028    251.75592  0.018849649  0.018600206            4 
 1114000   0.82175378   -7.9649802    251.12427  0.018785478  0.018585833            2 
 1115000   0.82544439   -7.9862828    250.81604  0.018745594  0.018571318            1 
 1116000   0.82625246   -8.0323664    251.23454  0.018760046  0.018556746            3 
 1117000   0.80291895   -7.9652797    251.44177  0.018758711  0.018542312            2 
 1118000   0.80305183   -8.0071391      251.061  0.018713551  0.018527912            2 
 1119000    0.8139969   -7.9839218    251.37593  0.018720281  0.018513496            2 
 1120000    0.8207372   -7.9999705    251.03524  0.018678217  0.018499074            4 
 1121000   0.80474791   -8.0408635    251.23685  0.018676542  0.018484577            5 
 1122000   0.80534016   -8.0166752    251.34511  0.018667938  0.018470073            2 
 1123000   0.80720795   -8.0187673    251.24676  0.018644016  0.018455488            6 
 1124000   0.79512254   -8.0301949     250.9873  0.018608192  0.018440882            5 
 1125000   0.80475155    -8.015999    251.21941  0.018608845  0.018426293            4 
 1126000   0.79733871   -8.0153086    251.18977  0.018590125  0.018411688            1 
 1127000   0.81131869   -8.0508824    250.85586   0.01854894  0.018397063            1 
 1128000    0.7932462   -8.0503813    251.12779  0.018552585  0.018382506            1 
 1129000   0.80109708   -8.0543988    250.81352  0.018512955   0.01836795            1 
 1130000   0.79302134   -8.0254326    251.64335  0.018557769   0.01835338            2 
 1131000   0.80313569   -8.0286496    251.69531   0.01854519  0.018338917            2 
 1132000   0.78617041    -7.985597    251.94007  0.018546825  0.018324496            1 
 1133000   0.80059132   -8.0332026    252.34736  0.018560412  0.018310094            2 
 1134000   0.77647336   -7.9908363     251.9977  0.018518349   0.01829577            3 
 1135000    0.8016719   -8.0087437    251.88153  0.018493504  0.018281483            5 
 1136000   0.77999728   -8.0162018    252.48986   0.01852185  0.018267235            3 
 1137000   0.79159728   -8.0093311    252.59685  0.018513401  0.018253106            2 
 1138000   0.80010906   -8.0071484    252.59034  0.018496657  0.018238959            4 
 1139000   0.79524838   -8.0316155    252.33901  0.018462029  0.018224687            1 
 1140000   0.79224938   -8.0135923    252.44924  0.018453892   0.01821046            2 
 1141000    0.7925568   -8.0095646    252.51156   0.01844227  0.018196244            2 
 1142000   0.80219866   -8.0341022     252.6289  0.018434683  0.018182116            2 
 1143000   0.80492475   -8.0023707    252.69502  0.018423376  0.018168027            2 
 1144000   0.78648447   -7.9981754    253.40655  0.018459102  0.018153936            1 
 1145000   0.77758885   -8.0272639    252.86932   0.01840388  0.018139706            2 
 1146000   0.79463854   -8.0435791    252.14758  0.018335339  0.018125487            2 
 1147000   0.78869444   -8.0443843     252.5157  0.018346099  0.018111198            2 
 1148000    0.7881182   -8.0456862    252.38338  0.018320512  0.018096914            2 
 1149000    0.8026156   -8.0601006    252.13577   0.01828661  0.018082584            2 
 1150000      0.79405   -8.0435005    252.30923  0.018283278  0.018068218            2 
 1151000   0.77798304   -8.0355064    252.14491  0.018255496  0.018053973            1 
 1152000   0.78475575   -8.0066105    252.89166  0.018293668  0.018039724            2 
 1153000   0.78858616   -8.0384495    252.29657  0.018234791  0.018025486            1 
 1154000   0.78827375   -8.0486948    252.54845  0.018237178   0.01801124            1 
 1155000   0.78917933   -8.0431769    252.96138  0.018251182  0.017996992            1 
 1156000   0.77691983   -8.0678626     252.9297   0.01823311  0.017982777            1 
 1157000   0.79627833   -8.0195365    253.45238  0.018254997  0.017968623            2 
 1158000   0.78291463   -7.9787356    253.80521  0.018264624  0.017954581            2 
 1159000   0.80884296   -8.0482082    253.45491  0.018223678  0.017940579            2 
 1160000   0.78447566   -8.0513734    253.23051  0.018191847  0.017926555            1 
 1161000   0.77163941   -8.0176708    253.22445  0.018175743  0.017912473            2 
 1162000   0.80073379   -8.0073645     254.2379  0.018232781  0.017898447            2 
 1163000   0.77490044   -8.0433605    253.19094  0.018142085  0.017884445            2 
 1164000   0.78640625   -8.0324443    253.63342  0.018158177  0.017870385            4 
 1165000   0.78388936   -8.0437035    253.79116  0.018153874    0.0178564            2 
 1166000   0.78795566    -8.059372    253.32517  0.018105001  0.017842415            2 
 1167000   0.79310031   -8.0367247    253.65067   0.01811273  0.017828451            1 
 1168000   0.77614566   -8.0324926    254.22006  0.018137847  0.017814558            4 
 1169000    0.7721048   -8.0498864    254.02273  0.018108264  0.017800657            2 
 1170000   0.78425328   -8.0847852    254.22652  0.018107302  0.017786698            1 
 1171000   0.79502261   -8.0650977    253.75212  0.018058078  0.017772733            1 
 1172000   0.76801391   -8.0742218    253.97223  0.018058321    0.0177587            4 
 1173000   0.76255599   -8.0851229    253.88876  0.018036997  0.017744675            2 
 1174000   0.78829406   -8.0704051    254.18111  0.018042384  0.017730761            2 
 1175000   0.79444006   -8.0202089    254.17802   0.01802681  0.017716877            1 
 1176000   0.79721694   -8.0528852    254.54531  0.018037507  0.017703046            4 
 1177000   0.78933701   -8.0380779    254.16112  0.017994982  0.017689182            1 
 1178000   0.79562149   -8.0806699    253.52862  0.017934962  0.017675233            2 
 1179000   0.77752637   -8.0865185    253.90157   0.01794611  0.017661336            2 
 1180000   0.78327703   -8.0719133    254.13766  0.017947575  0.017647441            3 
 1181000   0.78708358   -8.0772458    254.04418  0.017925782   0.01763359            1 
 1182000   0.77077928    -8.046871    254.69318  0.017956372  0.017619744            3 
 1183000   0.77914421   -8.0693561     254.0445  0.017895498  0.017605884            3 
 1184000   0.77768215   -8.0477067    254.22467  0.017893065  0.017592107            2 
 1185000   0.78287118   -8.0812978     254.4349   0.01789275  0.017578366            5 
 1186000   0.78041532   -8.0563591    254.48014  0.017880842  0.017564572            2 
 1187000   0.79240999   -8.0762884    254.36601  0.017857765  0.017550858            1 
 1188000   0.78371414   -8.0763271    254.49612  0.017851861  0.017537087            1 
 1189000   0.77498384   -8.0899642    254.79848  0.017858038  0.017523305            1 
 1190000   0.79384211   -8.0723018    254.83082  0.017845296  0.017509532            6 
 1191000   0.77549244   -8.0712085     255.1774  0.017854562  0.017495793            2 
 1192000   0.76072817   -8.0984867    255.16858  0.017838967  0.017482054            2 
 1193000   0.76791944   -8.0647806    255.01669  0.017813404  0.017468353            4 
 1194000   0.78368591   -8.0698425    254.71336  0.017777315  0.017454644            1 
 1195000   0.78314861   -8.0767715    254.44236   0.01774354  0.017440966            2 
 1196000   0.77287831   -8.0964571     254.9281  0.017762549  0.017427236            3 
 1197000   0.76539825   -8.0944605    254.97977  0.017751306  0.017413479            2 
 1198000   0.76315414   -8.1066352    254.91236    0.0177318  0.017399678            3 
 1199000   0.76420697   -8.0655997     254.6919  0.017701689  0.017385922            4 
 1200000   0.76744727   -8.0903319    254.87239  0.017699472  0.017372143            2 
 1201000   0.78240403   -8.0720113    255.05256  0.017697235  0.017358413            1 
 1202000   0.76325134    -8.088768    255.18086  0.017691407  0.017344634            4 
 1203000   0.77694102   -8.0968803    255.08403  0.017669994  0.017330825            9 
 1204000   0.78100146    -8.117069    254.69839  0.017628626  0.017317109            2 
 1205000    0.7834641   -8.1062767    255.07945  0.017640349  0.017303377            2 
 1206000   0.78332459    -8.070039    255.57682   0.01766009  0.017289655            1 
 1207000   0.78219081   -8.0785188    255.17759  0.017617895  0.017275933            2 
 1208000   0.79052006   -8.0929832    254.82476  0.017578971  0.017262207            2 
 1209000    0.7776806   -8.1009743    255.32641  0.017599008  0.017248486            1 
 1210000   0.76974535   -8.0918641    254.41586  0.017521753  0.017234748            2 
 1211000   0.76896255   -8.0863324    254.87284  0.017538731  0.017220978            1 
 1212000   0.76113487   -8.1251077    254.75656  0.017516265  0.017207192            1 
 1213000    0.7644493   -8.0879055    254.90291  0.017511879  0.017193413            1 
 1214000   0.77025728   -8.1066448    255.25785  0.017521818  0.017179625            4 
 1215000   0.78233309   -8.0810991    254.92884  0.017484831  0.017165868            3 
 1216000   0.78319022   -8.0963045    255.19769  0.017488877  0.017152171            4 
 1217000   0.76247186   -8.1113708    255.18245  0.017473463  0.017138471            3 
 1218000   0.77318578   -8.1023879    255.74067  0.017497309  0.017124786            2 
 1219000   0.77016993   -8.1117654    254.94305  0.017428429  0.017111074            6 
 1220000   0.75089654   -8.1197951    255.03559  0.017420464  0.017097375            6 
 1221000   0.75294544   -8.1108419    255.31087  0.017424984  0.017083711            4 
 1222000   0.75181786   -8.1111947    255.46237  0.017421056  0.017070026            5 
 1223000   0.77548445   -8.0971412    255.30915  0.017396371   0.01705636            2 
 1224000   0.76883853   -8.0897043    255.05977   0.01736518  0.017042668            3 
 1225000   0.77327287   -8.1013916    255.50051  0.017380987  0.017028998            1 
 1226000   0.76927572   -8.1135285    255.22608  0.017348156  0.017015348            2 
 1227000   0.76502486   -8.1414684    255.17656  0.017330654  0.017001623            2 
 1228000    0.7510234   -8.0984984    255.21594  0.017319214  0.016987942            3 
 1229000   0.75851662   -8.1292615    255.32612  0.017312593  0.016974292            4 
 1230000   0.77650874   -8.1470592    255.16434  0.017287557  0.016960613            3 
 1231000   0.78393374   -8.1196118    254.98702   0.01726151  0.016946866            3 
 1232000   0.78299542   -8.0975563    255.27562   0.01726702  0.016933154            2 
 1233000    0.7714748   -8.1174273    255.54279  0.017271072   0.01691947            2 
 1234000   0.75040878   -8.0876934    255.22326  0.017235498  0.016905793            1 
 1235000   0.75382834   -8.1258491    255.15485  0.017216927   0.01689211            4 
 1236000   0.74780707   -8.1318962    255.91231  0.017254066  0.016878475            3 
 1237000   0.76215388   -8.1330208    254.85385  0.017168812  0.016864762            2 
 1238000   0.75128546   -8.1387802    255.18408  0.017177173  0.016851028            2 
 1239000   0.73107012    -8.140451    255.63673  0.017193754  0.016837321            3 
 1240000   0.75012126   -8.1369752     255.4324  0.017166156  0.016823625            1 
 1241000   0.75649375   -8.1291135    254.91478  0.017117565  0.016809926            1 
 1242000   0.76421906   -8.1352643    255.03766  0.017112027  0.016796238            2 
 1243000   0.75371046   -8.1107303     255.3762  0.017120957  0.016782578            4 
 1244000   0.77533654   -8.1171465    255.80792  0.017136115  0.016768947            1 
 1245000   0.76274834   -8.1299425    255.62113  0.017109848  0.016755342            2 
 1246000   0.75443525   -8.1372941    255.40265  0.017081504  0.016741715            1 
 1247000   0.75153866   -8.1334531    255.49322  0.017073859  0.016728095            1 
 1248000   0.75429144   -8.1318359    255.49384  0.017060219  0.016714545            2 
 1249000   0.76557089   -8.1109584    255.65365  0.017057223  0.016701017            3 
 1250000   0.75487462   -8.1246201    255.27138  0.017018092   0.01668746            2 
 1251000   0.75000961   -8.1268194    255.60926  0.017026996  0.016673897            3 
 1252000   0.76393444   -8.1287058    256.20456  0.017053019  0.016660403            2 
 1253000   0.73819919   -8.1315794    256.24132  0.017041854  0.016646915            3 
 1254000   0.75730478   -8.1376489     255.8021  0.016999076  0.016633363            3 
 1255000   0.75486588   -8.1503089    255.37268  0.016957017  0.016619816            4 
 1256000   0.74868299    -8.174486    255.67572  0.016963623  0.016606239            4 
 1257000   0.73588777   -8.1201152    255.92261  0.016966495  0.016592686            2 
 1258000    0.7513012   -8.1122391    256.10404  0.016965026  0.016579182            5 
 1259000   0.75399748   -8.1360437    256.42813  0.016973003  0.016565694            2 
 1260000   0.76239138   -8.1786575    255.82713  0.016919784   0.01655217            2 
 1261000    0.7451858   -8.1539144    256.46712   0.01694866  0.016538709            2 
 1262000   0.74822567   -8.1689818    255.47815  0.016869925  0.016525215            1 
 1263000   0.77175681   -8.1664384    255.52998  0.016859988  0.016511744            1 
 1264000   0.74142207   -8.1704451    256.13482  0.016886525  0.016498321            4 
 1265000   0.74682858   -8.1417381    256.11291  0.016871733  0.016484895            1 
 1266000   0.74595591   -8.1661044    256.20689  0.016864592  0.016471452            4 
 1267000   0.74328644   -8.1624882    255.94131  0.016833814  0.016458012            1 
 1268000   0.74179171   -8.1583575    255.70045  0.016804709  0.016444588            1 
 1269000    0.7487918   -8.1813233    255.96305  0.016808711  0.016431181            2 
 1270000   0.73951964   -8.1817695    255.62867  0.016773535  0.016417742            1 
 1271000   0.74844463   -8.1757551      255.805  0.016771899  0.016404266            3 
 1272000   0.73696842   -8.1804742    256.20873  0.016785163   0.01639081            1 
 1273000   0.72833663    -8.139633    256.39581  0.016784225  0.016377416            4 
 1274000   0.75061441   -8.1795717    256.17849  0.016756835  0.016363994            1 
 1275000   0.76139497   -8.1729888    256.26275  0.016749199  0.016350577            1 
 1276000    0.7409497   -8.1536508    255.80315  0.016706057  0.016337193            4 
 1277000   0.74693478   -8.1947755    255.97417  0.016704135  0.016323855            1 
 1278000   0.73122767   -8.1622072    256.03642  0.016695124  0.016310516            1 
 1279000   0.75082105   -8.1914206    256.05205  0.016683089   0.01629714            3 
 1280000   0.73714884   -8.1999014    255.91902  0.016661395  0.016283823            2 
 1281000   0.74525357   -8.1797812    256.60118  0.016692764  0.016270493            3 
 1282000   0.73877483   -8.1667366    256.79503  0.016692345  0.016257183            2 
 1283000    0.7443701   -8.1542065    256.72442  0.016674748  0.016243837            2 
 1284000   0.73664499   -8.1820242    256.05372  0.016618232  0.016230516            2 
 1285000   0.73755256   -8.1530297    256.41434  0.016628686  0.016217179            3 
 1286000   0.72650843   -8.1610589    256.93921  0.016649768  0.016203919            1 
 1287000   0.72945339   -8.1561004    255.91041  0.016570215  0.016190662            2 
 1288000   0.75836523   -8.1622502    256.49818  0.016595379  0.016177365            4 
 1289000   0.73271942   -8.1424924    257.03439   0.01661717  0.016164111            1 
 1290000   0.74542966   -8.1823215    256.46934  0.016567787  0.016150909            2 
 1291000   0.75329394   -8.1873339    256.87794  0.016581328   0.01613775            1 
 1292000   0.74595908   -8.1904223    257.00205  0.016576499  0.016124578            3 
 1293000   0.74403569   -8.1872275    256.59342  0.016537344  0.016111404            2 
 1294000    0.7379267   -8.1566051    256.63308  0.016527117  0.016098266            2 
 1295000   0.72721606   -8.1702079    257.24314  0.016553613  0.016085141            1 
 1296000   0.73958144   -8.1947087    256.47364   0.01649136  0.016072031            1 
 1297000    0.7455027   -8.1731189    256.76427  0.016497319  0.016058892            2 
 1298000   0.73585118   -8.1717973    256.70726  0.016480949  0.016045792            1 
 1299000   0.72771792   -8.1874494    256.99092  0.016486459  0.016032682            1 
 1300000   0.74225642   -8.2015505    256.62714  0.016450457  0.016019527            1 
 1301000   0.73723753   -8.1876707     256.8429  0.016451634  0.016006421            2 
 1302000    0.7454165   -8.1918484    256.57369  0.016421767   0.01599328            1 
 1303000   0.72079171     -8.19134    257.01098  0.016437131  0.015980165            2 
 1304000      0.73329   -8.1974838     256.9604  0.016421293  0.015967036            5 
 1305000   0.73319627   -8.2027259    256.79283  0.016398009  0.015953936            1 
 1306000   0.72801773   -8.1998943    256.45138  0.016363667   0.01594084            2 
 1307000   0.73877469   -8.1981242    257.23705   0.01640124  0.015927727            1 
 1308000    0.7290174   -8.1769262    256.83604  0.016363152  0.015914652            2 
 1309000    0.7284754   -8.1906617    256.60493  0.016335939  0.015901542            2 
 1310000   0.73747601   -8.1845232    256.82169  0.016337257  0.015888419            3 
 1311000   0.73698044   -8.1838066    256.77706  0.016321959  0.015875368            1 
 1312000   0.72637127   -8.1739173    256.92632  0.016318999  0.015862308            3 
 1313000   0.74048448   -8.2048689    256.76048  0.016296045  0.015849212            2 
 1314000   0.73535902    -8.193142    257.31072  0.016318539  0.015836162            3 
 1315000   0.72211013   -8.2128088    256.87929  0.016278789  0.015823164            5 
 1316000    0.7382704   -8.2018124    256.72698  0.016256774  0.015810172            1 
 1317000   0.73781712   -8.2060714    256.88417  0.016254377  0.015797202            1 
 1318000   0.71981501   -8.2112485    257.01743   0.01625047  0.015784171            2 
 1319000   0.72646801   -8.2096461    256.88857  0.016230008  0.015771163            3 
 1320000   0.72502319   -8.1860497    257.05122  0.016227981  0.015758188            2 
 1321000   0.73500321   -8.2118847    257.33579  0.016233648  0.015745262            2 
 1322000   0.71623997   -8.1941988    257.43334  0.016227518  0.015732367            2 
 1323000   0.73768097   -8.1974657    257.08152  0.016193091  0.015719506            4 
 1324000   0.72761415   -8.2013451    257.79032  0.016225474  0.015706632            4 
 1325000   0.71841599   -8.2057122    257.65305  0.016204594  0.015693767            2 
 1326000   0.72333996   -8.2202517    256.91088  0.016145731  0.015680864            2 
 1327000   0.71654252   -8.2276019    257.28233  0.016156891  0.015667985            2 
 1328000   0.72079824   -8.2347182    257.56016  0.016162159  0.015655108            4 
 1329000   0.74721562   -8.2056995    257.34386  0.016136435  0.015642228            2 
 1330000   0.73383051    -8.243007    256.90906  0.016097059  0.015629375            5 
 1331000   0.72670592    -8.210434    257.24747  0.016106153  0.015616498            2 
 1332000   0.72529033   -8.2076323    258.02395  0.016142639  0.015603693            3 
 1333000    0.7224003   -8.2277868    257.23876  0.016081443  0.015590919            2 
 1334000   0.74632341   -8.2133053    257.16085  0.016064521  0.015578142            4 
 1335000   0.70786426   -8.2206243     257.1738  0.016053296  0.015565407            3 
 1336000     0.734084   -8.2287203    257.57121  0.016066068  0.015552669            1 
 1337000   0.74240214   -8.2364925    257.40833    0.0160439   0.01553995            3 
 1338000   0.72842638   -8.2358817    257.41217  0.016032148  0.015527202            2 
 1339000   0.72700056   -8.2326066    257.71093  0.016038768  0.015514474            3 
 1340000   0.70539826   -8.1962668    257.51798    0.0160148  0.015501776            2 
 1341000   0.71407453   -8.2270688    257.72163  0.016015513  0.015489092            2 
 1342000   0.71863161   -8.2059374     258.0347  0.016023019  0.015476396            2 
 1343000   0.72710486   -8.2238341    258.07979  0.016013886  0.015463727            4 
 1344000   0.69807215   -8.2148117    257.83287  0.015986661   0.01545105            1 
 1345000   0.71315762   -8.2275902    257.92659  0.015980582  0.015438395            7 
 1346000   0.71694564     -8.22098    258.30924    0.0159924  0.015425745            2 
 1347000   0.71407464   -8.2570707    257.92478  0.015956742  0.015413096            3 
 1348000   0.71970904   -8.2301394    257.67665  0.015929565  0.015400476            1 
 1349000   0.70901725    -8.238126    257.53773  0.015909176  0.015387814            1 
 1350000   0.70713943   -8.2603766    257.27584  0.015881225  0.015375122            2 
 1351000   0.72012525   -8.2347758    258.07837  0.015918972   0.01536249            1 
 1352000   0.71397603   -8.2347137    258.24305  0.015917348  0.015349909            3 
 1353000    0.7142638   -8.2311467    258.01684  0.015891651  0.015337306            7 
 1354000   0.71851711   -8.2016988    257.57452  0.015852691  0.015324637            3 
 1355000   0.71894079   -8.2567009    257.12562  0.015813384  0.015312011            1 
 1356000   0.71304346   -8.2301906    257.76521  0.015841028  0.015299434            3 
 1357000   0.69263737   -8.2349481    257.06768  0.015786519  0.015286839            6 
 1358000   0.70928197   -8.2410771    258.02183  0.015833446  0.015274247            2 
 1359000   0.70485124   -8.2047073    257.77879  0.015806892  0.015261637            1 
 1360000   0.72224132   -8.2274744    257.61639  0.015785318  0.015249074            1 
 1361000    0.7111906   -8.2627047    257.54032  0.015769062   0.01523649            2 
 1362000   0.70391066   -8.2409399    257.93735  0.015781776  0.015223875            2 
 1363000   0.72049487   -8.2427283    257.97686  0.015772613  0.015211293            1 
 1364000   0.70678769    -8.242979    257.26669  0.015717662  0.015198713            1 
 1365000   0.70367486   -8.2512284    257.68965  0.015731969  0.015186172            3 
 1366000     0.696528    -8.256837    257.72141  0.015722389  0.015173635            1 
 1367000   0.71119914   -8.2741244    257.58963  0.015702855  0.015161123            2 
 1368000   0.70291472   -8.2570978    257.64574  0.015694794  0.015148592            4 
 1369000   0.70851739   -8.2533872    257.71073  0.015687286  0.015136012            3 
 1370000   0.70213883   -8.2433813    258.04182  0.015695975  0.015123494            4 
 1371000   0.70895276   -8.2588477    257.78615  0.015668985  0.015110969            1 
 1372000   0.71633046    -8.255795    258.04867   0.01567351  0.015098443            2 
 1373000   0.69705543   -8.2873851    257.08883  0.015603838  0.015085944            3 
 1374000   0.72230811   -8.2890198    257.34105  0.015607778  0.015073407            3 
 1375000   0.69216874   -8.2732591    257.85471  0.015627558  0.015060871            3 
 1376000   0.66631104   -8.2832132     257.9052  0.015619259  0.015048367            2 
 1377000   0.69662129    -8.269034    257.28826   0.01557058   0.01503584            2 
 1378000   0.69074734   -8.2995747    258.00977  0.015602913  0.015023349            4 
 1379000   0.69606125   -8.2507521    258.20802  0.015603578  0.015010887            2 
 1380000   0.70166512   -8.2823271    257.50457  0.015549793  0.014998406            3 
 1381000   0.70283367   -8.2722577    257.73427  0.015552394  0.014985942            2 
 1382000   0.71611603   -8.2724075    257.72681   0.01554069   0.01497348            3 
 1383000   0.69228343   -8.2682129    257.65712  0.015525254  0.014961019            1 
 1384000   0.69196675   -8.2808215    257.84233  0.015525189  0.014948542            1 
 1385000   0.70756767   -8.2772486    257.77523  0.015509942  0.014936083            2 
 1386000   0.70454391   -8.3071399    257.37099  0.015474446  0.014923616            2 
 1387000   0.69476224   -8.2838087    256.85522  0.015432301  0.014911172            2 
 1388000    0.7016697   -8.2877817    257.53741   0.01546214  0.014898709            2 
 1389000   0.69380092   -8.2977849     257.2446  0.015433441  0.014886264            2 
 1390000   0.71061474   -8.3169799    257.81768  0.015456695  0.014873806            2 
 1391000   0.69481536   -8.2890784    258.28709  0.015473705  0.014861421            3 
 1392000   0.69791023   -8.2945678    257.48505  0.015414574  0.014849054            3 
 1393000    0.7159875   -8.2942963     258.0885  0.015439609  0.014836683            3 
 1394000   0.69138948   -8.2816043    257.76007  0.015408899  0.014824342            2 
 1395000    0.7095049   -8.2993621    257.96377  0.015410022  0.014811951            3 
 1396000   0.69676195   -8.3083994    257.64175  0.015379761  0.014799557            2 
 1397000    0.6965754   -8.3102434    257.01539  0.015331388  0.014787176            1 
 1398000    0.7095467   -8.3340304    257.78137  0.015366081  0.014774801            6 
 1399000   0.69676586   -8.3315448    257.63627  0.015346454   0.01476243            2 
 1400000   0.67625176   -8.2944177    257.70791  0.015339757  0.014750069            2 
 1401000   0.70378128   -8.3051274    257.04373  0.015289301  0.014737705            2 
 1402000   0.67341478   -8.3126418     257.3284  0.015295316  0.014725336            3 
 1403000   0.69596954   -8.3353681    257.58122  0.015299431  0.014713022            2 
 1404000   0.69350359   -8.3355135    257.44678  0.015280554   0.01470074            3 
 1405000   0.68437391   -8.2958735    257.51357   0.01527364  0.014688475            3 
 1406000   0.69667977   -8.3381969    257.54843  0.015264843  0.014676176            3 
 1407000   0.68064651   -8.3221641    258.04436  0.015283366    0.0146639            1 
 1408000    0.6865873   -8.3331557    257.56918  0.015244388  0.014651623            2 
 1409000   0.69465084   -8.3126329    257.57573  0.015233956  0.014639356            3 
 1410000    0.6742647   -8.3180413    257.69065  0.015229944  0.014627076            2 
 1411000   0.67453171   -8.3098646    257.83047  0.015227408   0.01461481            4 
 1412000   0.68144635   -8.3392765    257.65567  0.015206307  0.014602536            2 
 1413000   0.69081945    -8.322934    257.74987  0.015201101  0.014590319            2 
 1414000   0.69116636   -8.3087218    257.83388  0.015195302  0.014578094            4 
 1415000    0.6936901   -8.3157185    257.59752  0.015170643   0.01456591            1 
 1416000   0.70016517   -8.3234095    257.73984  0.015168305  0.014553706            2 
 1417000    0.6906069   -8.2934094    257.92085  0.015168246  0.014541499            1 
 1418000    0.6971514   -8.3369764    257.85168  0.015153484  0.014529314            3 
 1419000   0.67874499   -8.3319526    257.71836  0.015134976  0.014517144            1 
 1420000    0.6898401    -8.326762    257.89183  0.015134497  0.014505009            1 
 1421000   0.67771187   -8.3110836    257.96145  0.015127929   0.01449283            2 
 1422000   0.69415359   -8.3205893    257.99698  0.015119373  0.014480679            1 
 1423000   0.68231219   -8.3227422    258.02459  0.015110365  0.014468571            3 
 1424000   0.66729354   -8.3085811    258.01732  0.015099328  0.014456447            2 
 1425000   0.67925935   -8.3420668    257.44657  0.015055355  0.014444375            4 
 1426000   0.68930813   -8.3202549    257.60226  0.015053895  0.014432275            1 
 1427000   0.67377127   -8.2991412      257.785  0.015054018  0.014420166            1 
 1428000   0.68974133   -8.3437322    258.58309   0.01509005  0.014408088            1 
 1429000    0.6828584   -8.3231676    258.34968  0.015065878  0.014396016            3 
 1430000   0.67306817   -8.3184175    257.97371  0.015033433  0.014383924            1 
 1431000   0.69615333   -8.2988235    257.84158  0.015015233  0.014371882            2 
 1432000   0.68436224   -8.3146406    257.80058  0.015002361   0.01435981            1 
 1433000   0.69076926   -8.3362355    257.82281  0.014993185  0.014347719            2 
 1434000   0.68518514   -8.3185295    257.26209  0.014950145  0.014335593            2 
 1435000   0.67760319   -8.3606199    257.57464  0.014957877  0.014323516            1 
 1436000   0.67087251    -8.326457    257.27433  0.014930033  0.014311439            3 
 1437000   0.66825448    -8.323345    257.55749  0.014936064  0.014299385            1 
 1438000   0.67057048   -8.3131968    258.03732  0.014953484  0.014287352            2 
 1439000    0.6757871   -8.3277378    257.69833  0.014923461  0.014275291            2 
 1440000     0.682477   -8.3702101    257.17087  0.014882574  0.014263234            1 
 1441000   0.66269742   -8.3657448    257.67282  0.014901273  0.014251191            2 
 1442000   0.67280388   -8.3506213    257.70027  0.014892526  0.014239144            2 
 1443000   0.68292332   -8.3348151    257.39709  0.014864697  0.014227107            2 
 1444000   0.69058825   -8.3566737    257.58324  0.014865145  0.014215079            4 
 1445000   0.66198376   -8.3519043    257.08872  0.014826339  0.014203055            2 
 1446000   0.67151328   -8.3726135    257.35716  0.014831556  0.014191031            2 
 1447000   0.66714161   -8.3451584    257.32741  0.014819593  0.014178991            2 
 1448000   0.67511134   -8.3573793    257.83596  0.014838626  0.014166988            3 
 1449000   0.67847659   -8.3358465    257.94193   0.01483448     0.014155            2 
 1450000   0.67161877   -8.3728559    257.24515  0.014784204  0.014143038            2 
 1451000   0.68137817   -8.3598239     257.6407  0.014796732  0.014131061            3 
 1452000   0.67991755   -8.3441584    257.66903  0.014788167  0.014119117            1 
 1453000   0.67692019   -8.3382509    257.39189  0.014762095  0.014107185            2 
 1454000    0.6707101   -8.3321035    257.69019  0.014769039  0.014095296            1 
 1455000   0.66493678    -8.356595    257.81345  0.014765948  0.014083416            1 
 1456000     0.664088   -8.3600426    257.83433  0.014757001  0.014071575            4 
 1457000   0.67820279   -8.3199425    257.33711  0.014718434  0.014059714            2 
 1458000    0.6811942   -8.3799831    257.36882  0.014710152   0.01404785            2 
 1459000   0.66555662   -8.3681481    257.69331  0.014718603  0.014035982            2 
 1460000   0.66541518   -8.3818178    257.55228  0.014700473  0.014024132            2 
 1461000   0.65747266   -8.3702458    257.22798  0.014671913  0.014012266            2 
 1462000   0.67315855   -8.3826448    257.30018  0.014665993  0.014000417            1 
 1463000   0.66611837   -8.3610443    257.34071  0.014658277  0.013988567            2 
 1464000   0.66807365   -8.3636867    257.53123  0.014659109  0.013976741            2 
 1465000   0.66147846   -8.3612794    257.33465  0.014637921  0.013964893            2 
 1466000   0.67099717   -8.3875064    257.53232  0.014639172  0.013953088            1 
 1467000   0.66670381    -8.364454    257.71053  0.014639316  0.013941305            2 
 1468000   0.66392535   -8.3821907    257.45943   0.01461509  0.013929499            5 
 1469000    0.6790798   -8.3643391    257.27797  0.014594847  0.013917703            2 
 1470000    0.6560862   -8.3806211    257.45483  0.014594945  0.013905892            3 
 1471000   0.66854793    -8.408269    257.53376  0.014589494  0.013894109            2 
 1472000   0.67052078   -8.3670894    256.86063  0.014541476  0.013882304            3 
 1473000   0.66977792   -8.3893733    257.47562  0.014566396  0.013870559            2 
 1474000   0.65528438   -8.3961561    257.39024  0.014551687  0.013858774            4 
 1475000    0.6481437   -8.3857471    256.86828  0.014512332  0.013846999            2 
 1476000   0.67288249   -8.3935293    257.51233  0.014538862  0.013835235            3 
 1477000   0.68011452   -8.3855746    257.64138    0.0145363   0.01382348            5 
 1478000   0.66123351    -8.387135    257.38023  0.014511741  0.013811768            4 
 1479000   0.67109558   -8.4052602    257.39751  0.014502902   0.01380004            5 
 1480000   0.66418203   -8.4053417    257.16107   0.01447979  0.013788317            2 
 1481000   0.65974454   -8.3880743    257.04653  0.014463568  0.013776593            1 
 1482000   0.68011936   -8.3937459    257.56029  0.014482697  0.013764868            1 
 1483000   0.65234105   -8.3930279    257.82793  0.014487971  0.013753162            2 
 1484000   0.66235623   -8.3755038    257.75276  0.014473987  0.013741471            2 
 1485000   0.66335921   -8.3920107    257.62777  0.014457226  0.013729783            1 
 1486000   0.64723907   -8.3966455    257.32048  0.014430265   0.01371809            3 
 1487000   0.64987133   -8.3955053     257.3984  0.014424927  0.013706433            3 
 1488000   0.65014045   -8.4021228    257.21043  0.014404706  0.013694779            2 
 1489000   0.65470803   -8.4195064     256.9374  0.014379752  0.013683107            4 
 1490000   0.65550392   -8.4008594    257.18663   0.01438404  0.013671444            4 
 1491000   0.65411036   -8.3984785    257.06867  0.014367799  0.013659785            3 
 1492000    0.6644803    -8.382105    257.23433  0.014367422  0.013648135            1 
 1493000   0.66813759   -8.3929644    256.95473  0.014342193  0.013636483            2 
 1494000    0.6568689   -8.3986756    257.17726  0.014345006  0.013624866            2 
 1495000   0.65549551   -8.4128337    257.45168  0.014350707  0.013613292            3 
 1496000   0.65885441   -8.3952491      257.651  0.014352217  0.013601705            2 
 1497000   0.65878055   -8.3842373    257.59557  0.014339544  0.013590115            2 
 1498000   0.66084406    -8.412294    257.01961  0.014297931  0.013578534            2 
 1499000   0.65560448   -8.4304592    256.51082  0.014260108  0.013566941            2 
 1500000    0.6500722   -8.3877625     257.1652  0.014286955  0.013555337            1 
 1501000   0.65971681   -8.4114321    257.39211  0.014290035  0.013543772            4 
 1502000   0.64775676   -8.4012172    256.61936  0.014237647  0.013532195            2 
 1503000   0.65624594   -8.4222151    256.99269  0.014248874  0.013520625            1 
 1504000   0.65611041   -8.4005552     256.9992   0.01423976   0.01350905            2 
 1505000   0.65653726   -8.3791967      256.816  0.014220155  0.013497462            2 
 1506000   0.64384978    -8.416078    256.94172   0.01421767  0.013485899            4 
 1507000   0.65142889   -8.4034976     256.7801  0.014199298  0.013474331            5 
 1508000   0.65122722    -8.403786    257.15129  0.014210394    0.0134628            1 
 1509000   0.62920457   -8.4280312    256.83615  0.014183574  0.013451253            2 
 1510000   0.63775076   -8.3995626    257.19942  0.014194228   0.01343974            2 
 1511000   0.64223274   -8.4273125    257.65975  0.014210222  0.013428258            2 
 1512000   0.64642829   -8.4076526    257.15513  0.014173012  0.013416758            1 
 1513000   0.65228296   -8.4236485    256.99218   0.01415467  0.013405291            1 
 1514000   0.64299726   -8.4141588    256.86244  0.014138179  0.013393796            5 
 1515000   0.65632548   -8.4446215    256.65606  0.014117495  0.013382318            4 
 1516000   0.65427252   -8.4510396    257.23127  0.014139802  0.013370854            4 
 1517000   0.63704295   -8.4233402    257.05237  0.014120653  0.013359428            4 
 1518000    0.6615905   -8.4382624    257.23381  0.014121311  0.013348003            3 
 1519000   0.65141468   -8.4279245    257.04528  0.014101672  0.013336583            5 
 1520000   0.64674924   -8.4294236    257.06847  0.014093666  0.013325127            2 
 1521000   0.62369281   -8.4544975    257.08828  0.014085485  0.013313684            3 
 1522000    0.6443591   -8.4373844    256.79855  0.014060367  0.013302265            5 
 1523000   0.65454422   -8.4531297     256.9195  0.014057753  0.013290836            2 
 1524000   0.63801684   -8.4502098    257.15586  0.014061453   0.01327942            2 
 1525000    0.6464311    -8.443386    256.71648  0.014028223  0.013268001            4 
 1526000   0.64371946   -8.4723468    256.74464  0.014020568  0.013256581            1 
 1527000   0.64667774   -8.4486227    256.65261  0.014006364  0.013245182            2 
 1528000   0.66396799   -8.4532369    256.86708  0.014008894  0.013233791            2 
 1529000   0.64624185   -8.4578583    256.87679  0.014000261  0.013222409            2 
 1530000   0.63092286   -8.4365981    257.09266  0.014002868  0.013211075            2 
 1531000   0.64074957   -8.4477706    256.77355  0.013976353  0.013199714            1 
 1532000   0.62974844   -8.4677455    257.41297  0.014002011  0.013188376            2 
 1533000   0.63226971   -8.4476445    256.45911  0.013941026   0.01317704            2 
 1534000   0.65276415   -8.4569861    256.78577  0.013949684  0.013165726            2 
 1535000   0.65401217   -8.4391518    256.84565  0.013943847  0.013154423            1 
 1536000   0.64037817   -8.4421246     256.9299  0.013939339  0.013143113            2 
 1537000   0.64609104   -8.4484843    256.58055  0.013911329  0.013131795            3 
 1538000   0.63552347   -8.4697202    256.39367  0.013892158  0.013120466            3 
 1539000   0.63500526   -8.4408032    256.46098  0.013886776  0.013109144            1 
 1540000   0.63831293   -8.4741169    256.93814  0.013903579  0.013097864            4 
 1541000   0.64855862   -8.4436743    256.38329  0.013864552  0.013086599            2 
 1542000    0.6407107    -8.482737    256.54849  0.013864488  0.013075332            3 
 1543000   0.65227253   -8.4726485    256.79095  0.013868597  0.013064081            4 
 1544000    0.6402333   -8.4436878    256.79431  0.013859796  0.013052834            5 
 1545000   0.63839359   -8.4463752    256.69138  0.013845274  0.013041605            2 
 1546000   0.64862165   -8.4681073    256.90188  0.013847665  0.013030374            1 
 1547000   0.64167987   -8.4727828    257.22574  0.013856159  0.013019147            4 
 1548000   0.63533872   -8.4770992    256.06823  0.013784896   0.01300794            3 
 1549000   0.63752879    -8.467668      256.466  0.013797396  0.012996737            3 
 1550000   0.63899375   -8.4700004    256.35931  0.013782759   0.01298556            2 
 1551000   0.63750452   -8.4450111    256.89319  0.013802557  0.012974387            4 
 1552000   0.64386439    -8.467186     256.5156  0.013773389  0.012963214            2 
 1553000   0.63342733   -8.4530917     256.5083  0.013764129  0.012952051            2 
 1554000   0.64029458   -8.4515231    256.95677   0.01377932  0.012940929            2 
 1555000   0.62573928   -8.4663495     256.5582  0.013749099  0.012929822            3 
 1556000   0.64780941   -8.4735111    256.55819  0.013740263  0.012918728            1 
 1557000   0.63639909   -8.4630579    256.28394   0.01371676  0.012907615            3 
 1558000   0.62125698   -8.4799969    256.40378  0.013714365  0.012896517            2 
 1559000   0.62859567   -8.4634153    256.40468  0.013705617  0.012885423            3 
 1560000   0.61781449   -8.4880118    256.30873  0.013691706  0.012874319            2 
 1561000   0.62414273   -8.4554383    256.09668  0.013671614  0.012863235            2 
 1562000   0.64153045   -8.4607078       256.83  0.013701985  0.012852155            2 
 1563000   0.62740657   -8.4641933    257.04392  0.013704623  0.012841098            4 
 1564000   0.63534827   -8.4675101    256.97571  0.013692226   0.01283002            4 
 1565000   0.63028265   -8.4750271    256.24434  0.013644534  0.012818946            2 
 1566000   0.62605622   -8.4754318    256.25293  0.013636278  0.012807894            2 
 1567000   0.62115786   -8.4929386    256.20564  0.013625061  0.012796838            3 
 1568000   0.62566284   -8.4695978    256.43931   0.01362879  0.012785782            2 
 1569000    0.6198423    -8.469159    256.20011  0.013607399  0.012774757            2 
 1570000   0.61176584   -8.4794092    256.83438  0.013632398  0.012763743            1 
 1571000   0.62696606   -8.4441028    255.66718  0.013561807   0.01275274            1 
 1572000   0.63491979   -8.4786828    256.20513  0.013581697   0.01274173            1 
 1573000   0.62187695   -8.5078872    256.23019   0.01357439   0.01273073            3 
 1574000   0.63037225   -8.4823036    256.29833  0.013569374  0.012719753            4 
 1575000   0.62683718   -8.5061126    256.34222   0.01356308  0.012708784            3 
 1576000   0.63210317   -8.4709982    256.42865  0.013559045  0.012697818            1 
 1577000   0.62933797   -8.4606227    256.33546  0.013545522  0.012686879            2 
 1578000   0.61940563   -8.4854979    256.01917  0.013520235   0.01267594            1 
 1579000   0.61744575   -8.4730862    256.26298   0.01352454  0.012665012            2 
 1580000    0.6119975   -8.5092702    256.67879  0.013537911  0.012654098            2 
 1581000   0.63045853   -8.4981929    256.34335  0.013511667  0.012643213            1 
 1582000    0.6184465   -8.4873332    256.60361  0.013516836  0.012632319            1 
 1583000    0.6231204   -8.4838363    255.88202  0.013470311  0.012621435            2 
 1584000   0.62690575   -8.4827434    256.07606  0.013472015  0.012610552            2 
 1585000   0.61822871   -8.4945765    255.95146  0.013456964  0.012599672            2 
 1586000   0.62250161   -8.4709142    256.28299  0.013465899  0.012588807            2 
 1587000   0.62369521   -8.4788399    256.22176  0.013454199  0.012577949            2 
 1588000   0.61266428   -8.4889453    256.40664  0.013455428  0.012567104       -1e+20 
 1589000   0.62307705   -8.5000269    256.34168  0.013443553  0.012556265            2 
 1590000    0.6041582   -8.5034792    255.98945  0.013416638  0.012545412            2 
 1591000   0.61135121   -8.4904604    255.78313  0.013397398  0.012534574            3 
 1592000   0.62789462   -8.5022611    256.16202  0.013408816   0.01252375            2 
 1593000   0.63119375    -8.502377    256.06788  0.013395474  0.012512949            1 
 1594000   0.62059554   -8.4918427    256.04989   0.01338613  0.012502141            2 
 1595000   0.60914895   -8.4961281    256.05104  0.013377797  0.012491334            1 
 1596000   0.62357966   -8.5081088     256.2353  0.013379036  0.012480561            2 
 1597000   0.61242977    -8.500039    255.90645  0.013353499  0.012469796            2 
 1598000   0.62308397   -8.5039756    256.47064  0.013374564  0.012459028            2 
 1599000    0.6038715   -8.4921852    256.07433  0.013345546  0.012448272            2 
 1600000   0.61342422   -8.5005601    256.52348  0.013360598  0.012437543            3 
 1601000   0.63063807    -8.489203    256.56736  0.013354537  0.012426814            2 
 1602000   0.62039873   -8.5142974    256.05111  0.013319346  0.012416108            4 
 1603000     0.603526   -8.5066663    255.90413  0.013303396  0.012405401            3 
 1604000   0.61877104   -8.4946043    256.41872  0.013321837   0.01239469            2 
 1605000   0.61786392   -8.5105712    255.93427  0.013288384  0.012383993            1 
 1606000   0.61047262   -8.4899964    256.42558  0.013305603  0.012373303            3 
 1607000   0.63566257   -8.5033316    255.81158  0.013265483  0.012362607            4 
 1608000   0.60615256   -8.5142873    256.01768  0.013267915  0.012351921            2 
 1609000   0.60980547   -8.5300408    255.43839  0.013229666  0.012341235            4 
 1610000   0.60619854   -8.4824317    255.99574  0.013250297   0.01233059            2 
 1611000   0.61066548   -8.5018273    256.14817  0.013249957   0.01231994            3 
 1612000   0.59447698   -8.5219203    255.71428  0.013219307  0.012309294            4 
 1613000   0.61119049   -8.5075927    256.12859  0.013232516  0.012298643            2 
 1614000   0.60878142   -8.5143199    255.85442  0.013210162  0.012287999            1 
 1615000    0.6090409   -8.5041463    256.12129  0.013215753  0.012277386            3 
 1616000   0.61302031   -8.5112668    256.25951  0.013214702  0.012266784            2 
 1617000   0.61036526   -8.5237566    255.57472  0.013171239  0.012256211            2 
 1618000   0.61415584   -8.4932239    256.55143  0.013213403  0.012245634            1 
 1619000   0.60304411   -8.5169701    255.99988  0.013176852  0.012235065            3 
 1620000   0.61442156   -8.5182493    255.80284  0.013158582  0.012224514            1 
 1621000   0.59880509   -8.5025859    255.98414  0.013159785   0.01221396            4 
 1622000     0.604239   -8.5054578    255.72371  0.013138292  0.012203432            3 
 1623000   0.59761592   -8.5104566    255.53375  0.013120443  0.012192907            2 
 1624000   0.59844493   -8.4962514    256.11625  0.013142254  0.012182389            3 
 1625000   0.59527781    -8.523821    255.95862  0.013126083  0.012171882            2 
 1626000   0.60061789   -8.5477671    255.88115   0.01311404  0.012161363            3 
 1627000   0.60553269   -8.5157293    255.62137  0.013092674  0.012150856            2 
 1628000   0.60021117   -8.5043528    255.54761  0.013080857   0.01214036            2 
 1629000   0.60217894   -8.5212383    255.92118  0.013091937  0.012129877            2 
 1630000   0.59608547   -8.5292306     255.7758  0.013076473  0.012119419            3 
 1631000   0.60751246   -8.5403533    255.83511  0.013071485   0.01210895            4 
 1632000   0.61643912   -8.5028926    255.97677  0.013070709  0.012098509            3 
 1633000   0.61183153   -8.5445003    255.52222  0.013039509  0.012088072            3 
 1634000   0.60393291   -8.4970464    256.07627  0.013059786  0.012077648            2 
 1635000   0.61018599   -8.5160254    255.70572  0.013032911  0.012067252            3 
 1636000   0.59820183   -8.5338543    255.96062  0.013037929  0.012056843            4 
 1637000   0.59868267   -8.5424466    255.64616  0.013013956  0.012046442            2 
 1638000   0.59571264   -8.5260616    255.56504  0.013001885  0.012036069            2 
 1639000   0.59452117   -8.5216254    255.71016   0.01300133   0.01202569            3 
 1640000   0.59836401   -8.5095664    255.90624  0.013003366  0.012015315            2 
 1641000   0.59519746   -8.5372245    255.81471  0.012990794  0.012004947            2 
 1642000   0.59370916   -8.5326545    255.54191  0.012969037  0.011994584            3 
 1643000   0.59065561   -8.5264066    256.14584  0.012991775  0.011984247            2 
 1644000   0.60374841   -8.5199405     256.4159  0.012997562  0.011973923            2 
 1645000   0.59584822   -8.5426011    255.82336  0.012959643  0.011963604            6 
 1646000   0.60830303    -8.533433     255.3872  0.012929688  0.011953287            2 
 1647000   0.59541929   -8.5662965    255.41109  0.012923046  0.011942967            1 
 1648000   0.60070801   -8.5511238    255.78496   0.01293411  0.011932661            1 
 1649000   0.60080755   -8.5280204    255.58583  0.012916203  0.011922363            2 
 1650000   0.59060426   -8.5353672    255.49118  0.012903595  0.011912063            1 
 1651000   0.61232417    -8.527953    255.36058  0.012889187   0.01190178            2 
 1652000   0.58681724   -8.5420567    255.41891  0.012884328  0.011891505            1 
 1653000   0.58739726   -8.5468237    255.12683  0.012861808  0.011881251            3 
 1654000   0.59953106   -8.5479052    255.64667  0.012880223  0.011870999            2 
 1655000   0.60698413   -8.5355808     255.2988  0.012854924  0.011860739            2 
 1656000   0.58844057   -8.5449339    255.89731   0.01287728  0.011850497            1 
 1657000   0.57851093   -8.5215292    255.23035  0.012835966  0.011840254            2 
 1658000    0.5990134   -8.5472111    255.59374  0.012846488  0.011830027            2 
 1659000   0.59688032   -8.5632309    255.13716  0.012815811  0.011819792            2 
 1660000   0.59103441   -8.5685843    255.41027  0.012821801   0.01180956            4 
 1661000   0.59299384   -8.5533554    255.81208   0.01283424  0.011799357            4 
 1662000   0.59217387   -8.5694283    255.65908  0.012818847   0.01178917            3 
 1663000   0.58212888   -8.5444835    255.00269  0.012778246  0.011778995            1 
 1664000    0.5761788   -8.5686286    255.59003  0.012799981  0.011768806            3 
 1665000   0.59541442   -8.5614385    255.22202  0.012773875  0.011758645            2 
 1666000   0.59354911   -8.5660208    255.71132  0.012790682  0.011748492            2 
 1667000    0.5848281   -8.5639923    255.58233  0.012776561  0.011738353            1 
 1668000   0.59276586   -8.5450975    255.08477  0.012744043  0.011728221            2 
 1669000    0.5921017   -8.5781655    255.51115  0.012757697  0.011718095            2 
 1670000    0.5918251   -8.5672718    255.25152  0.012737102  0.011707972            2 
 1671000    0.5927678   -8.5460598    255.26134  0.012729969  0.011697861            3 
 1672000   0.59826984   -8.5915893    255.26736  0.012722655  0.011687757            2 
 1673000   0.58929552   -8.5650513    255.23944   0.01271366  0.011677659            3 
 1674000   0.60393223    -8.565817    255.16943   0.01270258  0.011667584            4 
 1675000   0.57735068    -8.572503    255.43342   0.01270813  0.011657514            3 
 1676000   0.58639331   -8.5795378    255.63148  0.012710396   0.01164744            2 
 1677000   0.58463241   -8.5575986    255.10857  0.012676832   0.01163739            1 
 1678000   0.58922652   -8.5624346    255.14448  0.012671061  0.011627346            2 
 1679000   0.59463591   -8.5939328    255.06377  0.012659508  0.011617307            2 
 1680000   0.58452862   -8.5673032     255.1921  0.012658338  0.011607272            4 
 1681000   0.59531702   -8.5811479    255.08715  0.012645605  0.011597252            2 
 1682000   0.58616289   -8.5731226    255.18756  0.012643062  0.011587248            3 
 1683000   0.58227787     -8.59518    255.46022   0.01264905  0.011577255            4 
 1684000   0.59653277   -8.5696339    255.38111  0.012637624  0.011567274            4 
 1685000   0.58259946    -8.575674    255.37922  0.012630031  0.011557311            3 
 1686000   0.58550717   -8.5884481     255.3432  0.012620759  0.011547352            3 
 1687000   0.58301151   -8.5706449    255.30596  0.012611438  0.011537387            2 
 1688000   0.58780983   -8.5778723    255.03951  0.012590813  0.011527432            1 
 1689000   0.59098141   -8.5712495     255.2127  0.012591904  0.011517505            5 
 1690000   0.57426995   -8.5873548    255.12593  0.012580174  0.011507579            3 
 1691000   0.58069999    -8.584715    254.43019  0.012538448  0.011497644            3 
 1692000   0.58923658   -8.5602566    255.04022  0.012561083  0.011487739            1 
 1693000   0.58112191   -8.5931392    255.08294  0.012555766  0.011477858            3 
 1694000   0.58423915   -8.5685931      255.373  0.012562623  0.011467971            2 
 1695000   0.57702185   -8.5930011    255.06888  0.012540259  0.011458102            2 
 1696000   0.57028684   -8.5807301    255.22573  0.012540573  0.011448228            2 
 1697000    0.5897106   -8.5881006    254.95663  0.012519968  0.011438362            2 
 1698000   0.57149403   -8.5885371    255.25412  0.012527195  0.011428514            4 
 1699000   0.57162796   -8.5914633    255.01491  0.012508088  0.011418678            3 
 1700000   0.57093829   -8.6005251    255.05358  0.012502626   0.01140885            4 
 1701000   0.56326636   -8.5948241    255.31562  0.012508114  0.011399027            2 
 1702000   0.57790374   -8.5871009    254.70918  0.012471072  0.011389223            3 
 1703000   0.59005764   -8.5973221    255.10116   0.01248293  0.011379424            5 
 1704000   0.57142292   -8.5873236    255.28848  0.012484765  0.011369642            3 
 1705000   0.55390233   -8.5733258    255.14573  0.012470466  0.011359868            3 
 1706000   0.58044034   -8.6033736    255.21027  0.012466309    0.0113501            1 
 1707000   0.56883962   -8.5899259    255.53153  0.012474689  0.011340331            3 
 1708000   0.56613749   -8.5927984    255.16359  0.012449433   0.01133059            1 
 1709000   0.57386035   -8.5969832    255.06517   0.01243735  0.011320838            3 
 1710000   0.57078186   -8.5877504    255.08643  0.012431113    0.0113111            2 
 1711000   0.56656449   -8.6090638    255.18288  0.012428545  0.011301382            2 
 1712000   0.57350291   -8.6036209    254.87334  0.012406218  0.011291646            3 
 1713000   0.57757041   -8.5955834     254.5771  0.012384564  0.011281937            4 
 1714000   0.57074805   -8.5881646    254.91114  0.012393579  0.011272233            3 
 1715000   0.57371901   -8.5821831    254.57856  0.012370192  0.011262536            2 
 1716000   0.58537506   -8.6119909    255.01645  0.012384249   0.01125285            3 
 1717000    0.5659396   -8.5975823    255.12085  0.012382103  0.011243167            3 
 1718000   0.55510492    -8.623209    254.94844  0.012366533   0.01123349            2 
 1719000   0.57260891   -8.5982813    254.45086  0.012335217  0.011223818            5 
 1720000   0.56649552   -8.6056845    254.82187  0.012346021  0.011214174            4 
 1721000    0.5707331   -8.5835466    254.96144  0.012345605   0.01120454            6 
 1722000   0.57180437   -8.5915545    255.28089  0.012353895  0.011194921            3 
 1723000   0.57437913   -8.5850351    255.37852  0.012351447  0.011185293            3 
 1724000   0.55299789   -8.6117153    255.24535  0.012337846  0.011175681            3 
 1725000   0.56342924   -8.6204534    254.76051  0.012307271  0.011166069            3 
 1726000   0.55543696   -8.6128792     254.7399  0.012299146  0.011156454            2 
 1727000   0.56601098   -8.6162276    254.82608  0.012296182  0.011146874            3 
 1728000   0.55348392   -8.6093158    254.97889  0.012296436  0.011137296            3 
 1729000   0.56461557   -8.5938326    254.25671  0.012254516  0.011127733            3 
 1730000   0.55342347   -8.5940611    255.08406  0.012287286  0.011118177            2 
 1731000   0.56619018    -8.612891    254.95848  0.012274142  0.011108632            4 
 1732000   0.56236715   -8.6185085      254.576  0.012248653  0.011099079            1 
 1733000   0.55451003   -8.5957902    255.02728  0.012263285  0.011089552            4 
 1734000   0.56392614   -8.6188435    254.60782  0.012236054  0.011080022            2 
 1735000   0.56686692   -8.6275959    254.37558  0.012217847  0.011070505            1 
 1736000   0.55287246   -8.6199839    254.82021  0.012232153  0.011060992            5 
 1737000   0.55113285   -8.6187254     254.7514   0.01222181  0.011051485            2 
 1738000   0.55813961   -8.6219619    254.60847  0.012207925  0.011041992            3 
 1739000   0.55314231   -8.6335259    254.39327  0.012190592  0.011032512            1 
 1740000    0.5445547   -8.6155951     254.8447  0.012205206  0.011023057            4 
 1741000   0.54729973   -8.6323523    254.70078  0.012191307  0.011013606            2 
 1742000   0.55422373   -8.6076982     254.8498  0.012191437  0.011004159            2 
 1743000   0.56478542   -8.6101616    254.50064  0.012167749  0.010994718            4 
 1744000   0.56537035   -8.6152721    254.58324  0.012164719  0.010985301            2 
 1745000   0.55474762    -8.619017    254.48819  0.012153209  0.010975898            4 
 1746000   0.55084654    -8.599155    254.71681  0.012157159  0.010966499            6 
 1747000   0.55478468   -8.6031089    254.68429   0.01214865    0.0109571            3 
 1748000   0.54560871   -8.6166558    254.83619  0.012148941  0.010947707            3 
 1749000   0.55712195     -8.60766    254.90007  0.012145039  0.010938331            2 
 1750000     0.561298   -8.6247375    254.55048  0.012121452  0.010928959            1 
 1751000   0.55757978   -8.6043602    254.33362  0.012104208  0.010919606            3 
 1752000   0.55082949   -8.6239693     254.6616    0.0121129  0.010910263            4 
 1753000   0.54633842   -8.6246211    254.48699  0.012097689  0.010900933            3 
 1754000   0.54482471   -8.6248714    254.46766  0.012089874  0.010891616            5 
 1755000   0.56423317    -8.618213      254.686  0.012093352  0.010882301            2 
 1756000    0.5508791   -8.6197077    254.74474  0.012089253  0.010872998            3 
 1757000   0.56398361   -8.6306424     254.2886  0.012060738  0.010863686            2 
 1758000    0.5541416    -8.623713    255.04604  0.012089782  0.010854398            2 
 1759000   0.55958554   -8.6244463    254.57643  0.012060661  0.010845107            4 
 1760000    0.5502119   -8.6442576    254.43298  0.012047016  0.010835825            3 
 1761000     0.550773   -8.6452513    254.38696  0.012037997  0.010826554            1 
 1762000   0.54865514   -8.6186231    254.97243  0.012058855  0.010817305            4 
 1763000   0.53761964   -8.6409374      254.968  0.012051805  0.010808059            2 
 1764000   0.54476063   -8.6332687    254.39623  0.012017962  0.010798811            4 
 1765000   0.54679231   -8.6326668    255.12646  0.012045631  0.010789583            2 
 1766000   0.54813161   -8.6417076    254.45886  0.012007307  0.010780355            3 
 1767000    0.5476121   -8.6282665    254.32567  0.011994231  0.010771155            3 
 1768000   0.53991109   -8.6180263    254.65122  0.012002791  0.010761955            3 
 1769000   0.54625643   -8.6446715    254.39952  0.011984149  0.010752771            2 
 1770000   0.54554962   -8.6539238    254.80366  0.011996406  0.010743582            1 
 1771000   0.53947683   -8.6248875    254.57861  0.011979043  0.010734404            2 
 1772000   0.53979921   -8.6338986    254.65577  0.011975911  0.010725239            2 
 1773000    0.5430017    -8.634182    254.95019  0.011982994  0.010716083            2 
 1774000   0.54275686   -8.6308834    254.39622  0.011950217  0.010706931            3 
 1775000   0.54307645   -8.6585363    254.19093  0.011933846   0.01069779            1 
 1776000   0.53808749   -8.6433765    254.64583  0.011948472   0.01068866            3 
 1777000   0.55400634    -8.638448    254.33743  0.011927285  0.010679534            6 
 1778000   0.54167829   -8.6448464    254.32712  0.011920094  0.010670424            2 
 1779000   0.53988578   -8.6372774    254.41419  0.011917472  0.010661327            5 
 1780000   0.54404079   -8.6345208    254.30838  0.011905823  0.010652239            2 
 1781000   0.54666791   -8.6421131    254.77064  0.011920767  0.010643168            5 
 1782000   0.54005912   -8.6321705    254.16094  0.011885566    0.0106341            2 
 1783000   0.54332939   -8.6245906    254.32878  0.011886744   0.01062504            2 
 1784000   0.54037572   -8.6420039    254.20736   0.01187441  0.010615985            3 
 1785000   0.52923829   -8.6418643    254.54922  0.011883717  0.010606937            3 
 1786000    0.5430159   -8.6237844    253.96015  0.011849578  0.010597896            2 
 1787000   0.52493858   -8.6575826    254.19067  0.011853697  0.010588859            2 
 1788000   0.54160053   -8.6558064    254.46159  0.011859694  0.010579848            5 
 1789000   0.53309929   -8.6532224    254.35065  0.011847897  0.010570845            2 
 1790000    0.5339053   -8.6395149    254.19938  0.011834236  0.010561838            2 
 1791000   0.53269452   -8.6644092    254.07698  0.011821933  0.010552843            2 
 1792000   0.53979872   -8.6617049     254.4832  0.011834226  0.010543858            2 
 1793000   0.54160251   -8.6656363    254.39329  0.011823447   0.01053489            4 
 1794000   0.52445091   -8.6589027    254.78259   0.01183494  0.010525914            1 
 1795000   0.53466648    -8.637316    254.07381  0.011795442  0.010516961            2 
 1796000   0.54426986   -8.6583637     254.4259  0.011805211  0.010508024            3 
 1797000   0.54090623   -8.6644229    254.44178  0.011799378  0.010499096            2 
 1798000    0.5347677   -8.6533678    254.42998  0.011792268  0.010490173            2 
 1799000    0.5465108   -8.6607448    253.77242  0.011755254  0.010481251            1 
 1800000   0.54067018   -8.6732273    254.23691  0.011770227   0.01047233            2 
 1801000    0.5381296    -8.652745    254.13517  0.011758985  0.010463425            3 
 1802000   0.53781648   -8.6587361    254.17839  0.011754457  0.010454526            2 
 1803000   0.53802887   -8.6439134    253.98295  0.011738905  0.010445633            1 
 1804000   0.53285621   -8.6674591    253.79714  0.011723815  0.010436754            1 
 1805000   0.52765405   -8.6832761     254.1689  0.011734483  0.010427882            1 
 1806000   0.53365899   -8.6356438    254.24117   0.01173132  0.010419023            3 
 1807000   0.52426213   -8.6696717    254.33647  0.011729223  0.010410186            4 
 1808000   0.53731773   -8.6739111     254.4148  0.011726346  0.010401353            1 
 1809000   0.53351555   -8.6563179    254.23915  0.011711772  0.010392527            2 
 1810000    0.5447866   -8.6670673    254.28468  0.011707398  0.010383705            1 
 1811000   0.52992455   -8.6601854     253.8327  0.011680135  0.010374885            1 
 1812000   0.53868148   -8.6507136    254.38324  0.011699008  0.010366083            1 
 1813000   0.53004778   -8.6580477    254.64087  0.011704397  0.010357286            3 
 1814000   0.53181828   -8.6732646    253.86775  0.011662429  0.010348497            2 
 1815000   0.52932857    -8.669087    254.42866  0.011681757  0.010339715            2 
 1816000   0.53032356   -8.6684038    253.70126  0.011641945  0.010330943            1 
 1817000   0.53279141   -8.6689472    254.09787  0.011653727   0.01032217            2 
 1818000   0.53669155   -8.6609792    254.47392  0.011664554  0.010313409            1 
 1819000   0.51484806    -8.673938    254.35182  0.011652548  0.010304663            2 
 1820000   0.51087565    -8.676672    253.80976  0.011621326  0.010295925            2 
 1821000   0.53484897   -8.6663894     253.9933  0.011623344  0.010287197            1 
 1822000   0.51967791   -8.6722529    253.65412  0.011601451  0.010278478            1 
 1823000   0.53531565   -8.6799706    253.99569  0.011610701   0.01026977            2 
 1824000   0.51430978   -8.6502156    254.11712  0.011609883  0.010261072            1 
 1825000   0.53038319   -8.6621591     254.0692  0.011601333  0.010252383            1 
 1826000   0.52428414   -8.6753677    253.94509  0.011589316  0.010243701            1 
 1827000   0.52479831   -8.6732447    254.21868  0.011595452  0.010235042            2 
 1828000   0.52989434   -8.6593554    253.92781  0.011575848  0.010226379            4 
 1829000   0.53110575   -8.6746803    254.25536  0.011584443   0.01021773            3 
 1830000   0.52591755   -8.6795661    254.02098   0.01156744  0.010209092            2 
 1831000    0.5279807   -8.6850864    254.36918   0.01157697  0.010200458            2 
 1832000   0.51537135   -8.6881588    254.29827  0.011567425  0.010191841            3 
 1833000   0.53059871   -8.6825153    254.64554  0.011576902  0.010183231            2 
 1834000   0.52470084   -8.6789911    254.11437  0.011546454  0.010174637            3 
 1835000   0.51722221   -8.6722814    254.02346  0.011536034  0.010166055            1 
 1836000   0.52611384   -8.6774289    254.27564  0.011541196  0.010157465            3 
 1837000   0.51322866   -8.6869024    253.93154  0.011519304  0.010148891            2 
 1838000   0.52742507   -8.6755942    253.79905   0.01150703  0.010140319            1 
 1839000   0.52934289   -8.6855464    253.92851  0.011506639  0.010131753            2 
 1840000    0.5177457    -8.681644    254.17675  0.011511628  0.010123201            2 
 1841000    0.5174239   -8.6697892    254.06873  0.011500486  0.010114658            2 
 1842000   0.51455523   -8.6807597    253.65189  0.011475384  0.010106118            2 
 1843000   0.50759905   -8.6678128    254.37226   0.01150173  0.010097589            2 
 1844000   0.52491478   -8.6884481    253.99584  0.011478482  0.010089074            2 
 1845000   0.52151949   -8.6724084     254.4189  0.011491369  0.010080563            2 
 1846000   0.51019616   -8.6955365    253.98887  0.011465731  0.010072059            2 
 1847000   0.51966903    -8.679777    254.27644  0.011472498  0.010063565            5 
 1848000   0.51305149   -8.6851243     254.0465  0.011455921  0.010055086            4 
 1849000   0.52178706   -8.6896573    254.04572   0.01144969  0.010046614            4 
 1850000   0.51721934   -8.7009667    253.31139  0.011410423   0.01003815            1 
 1851000   0.51677818   -8.7002499    253.99285  0.011434938  0.010029701            3 
 1852000    0.5111881   -8.6845207    253.97829  0.011428109  0.010021256            4 
 1853000   0.51617247   -8.7025945    253.61593  0.011405645  0.010012825            2 
 1854000   0.51647671   -8.6761243     253.7793  0.011406837  0.010004391            2 
 1855000   0.51654305   -8.7081835    253.70642  0.011397413 0.0099959631            2 
 1856000   0.50308678   -8.6889603    254.01614  0.011405179 0.0099875541            1 
 1857000   0.50940749   -8.6909696    253.66775  0.011383403  0.009979153            2 
 1858000   0.50679351   -8.7011305    253.79563  0.011383012 0.0099707551            2 
 1859000   0.51468585   -8.7088403    253.89781  0.011381469 0.0099623699            1 
 1860000   0.51573736   -8.6985651    253.47541  0.011356425 0.0099539817            2 
 1861000   0.51454306   -8.6904118    253.70112   0.01136043 0.0099456165            2 
 1862000   0.51699968   -8.6961902    253.67223  0.011353036 0.0099372486            2 
 1863000   0.51215672   -8.6875173    253.98428    0.0113609  0.009928897            4 
 1864000   0.51015407   -8.7017388    254.09572  0.011359787 0.0099205519            3 
 1865000   0.50195461   -8.6873653    253.64919  0.011333744   0.00991222            2 
 1866000   0.52393764   -8.7011111    253.68518  0.011329278 0.0099038785            5 
 1867000    0.5122647   -8.7066657    254.25428  0.011348611 0.0098955642            2 
 1868000   0.50774639   -8.7054882    253.48205  0.011308086 0.0098872561            2 
 1869000   0.50642864   -8.6893704    254.02174  0.011326099 0.0098789512            6 
 1870000   0.50289451   -8.6996938    253.46066  0.011295039 0.0098706628            2 
 1871000   0.50198133   -8.7075529    254.15963  0.011320133 0.0098623781            3 
 1872000   0.50333792   -8.6931753    253.77997  0.011297185 0.0098541034            2 
 1873000   0.51352133   -8.7042252    253.52194  0.011279673 0.0098458382            2 
 1874000    0.5003841   -8.6967308     254.0647   0.01129779 0.0098375808            4 
 1875000   0.51915282   -8.7119077    254.20687  0.011298083 0.0098293294            2 
 1876000   0.49582687   -8.7107924    254.13931   0.01128906  0.009821092            4 
 1877000   0.50577178   -8.7152152    253.86027  0.011270657 0.0098128574            2 
 1878000    0.5100143   -8.7072805    253.75964   0.01126019 0.0098046337            3 
 1879000   0.50144624    -8.716205    253.43266  0.011239696  0.009796419            1 
 1880000   0.50507442   -8.7157539    253.91249  0.011254986  0.009788211            6 
 1881000   0.51580147   -8.7078576    253.83531  0.011245583 0.0097800084            4 
 1882000   0.50506179   -8.6998369    253.74251  0.011235499 0.0097718089            2 
 1883000    0.4996454   -8.7118915    253.38088  0.011213528 0.0097636172            5 
 1884000   0.50230116   -8.7165437    253.35208  0.011206302 0.0097554345            1 
 1885000   0.49552152   -8.7086329    253.99499   0.01122878  0.009747272            4 
 1886000   0.50013859   -8.7203621    253.59973  0.011205361 0.0097391174            1 
 1887000   0.49834268   -8.7254406    253.59166  0.011199067 0.0097309655            1 
 1888000   0.49199873   -8.7230277    253.69395  0.011197649 0.0097228266            2 
 1889000   0.49955589   -8.7314208    253.51499  0.011183827   0.00971469            3 
 1890000   0.50123726   -8.7099402    253.24095  0.011165827 0.0097065681            2 
 1891000   0.48163634   -8.6941863    253.76208  0.011182887 0.0096984591            1 
 1892000   0.48446741   -8.7035295    253.79272  0.011178326 0.0096903474            2 
 1893000   0.49818935   -8.7103939    253.58612  0.011163326 0.0096822532            1 
 1894000   0.50367737   -8.7171839    253.15045  0.011138263 0.0096741697            1 
 1895000   0.49222823   -8.7145847    253.87289  0.011164155 0.0096660995            2 
 1896000   0.49950697   -8.7211616    253.12646   0.01112546 0.0096580277            4 
 1897000    0.5058861   -8.7137519     253.4178  0.011132393 0.0096499673            2 
 1898000   0.49549529   -8.7136086    253.72517  0.011140023 0.0096419052            1 
 1899000   0.49258541   -8.7152412    253.21308  0.011111685 0.0096338543            2 
 1900000   0.48450269   -8.7436792    253.21555  0.011105945 0.0096258165            2 
 1901000   0.50468621   -8.7202491    253.16216  0.011097763 0.0096177881            2 
 1902000   0.51094003   -8.7225215    253.81612   0.01112058 0.0096097644            2 
 1903000   0.49877447   -8.7433958    253.56726  0.011103839 0.0096017514            4 
 1904000   0.49435011   -8.7315869    253.37607  0.011089639  0.009593746            2 
 1905000    0.4980484    -8.712371    253.49041   0.01108882 0.0095857556            4 
 1906000   0.47937676   -8.7267669    253.46036  0.011081688 0.0095777698            2 
 1907000   0.48121677   -8.7252528    253.45305  0.011075557  0.009569785            4 
 1908000   0.49383602   -8.7140695    253.40943  0.011067847  0.009561814            2 
 1909000   0.48976211   -8.7298069    253.44086  0.011063422 0.0095538566            2 
 1910000   0.48967512   -8.7207532    253.64071  0.011066348 0.0095459016            2 
 1911000    0.4921249   -8.7281184    253.50445  0.011054616 0.0095379567            2 
 1912000   0.49100482   -8.7443853    253.30154  0.011039991 0.0095300116            1 
 1913000   0.47788557   -8.7066553     253.3242  0.011035206 0.0095220743            2 
 1914000   0.49678201   -8.7159303    253.65564  0.011043871 0.0095141527            3 
 1915000   0.48088233     -8.72335    253.41378   0.01102758 0.0095062372            1 
 1916000   0.48287117   -8.7368488    253.85038  0.011040813 0.0094983331            2 
 1917000   0.49631801    -8.715886    253.40848  0.011015844 0.0094904366            2 
 1918000   0.49770819   -8.7198607    253.20844  0.011001409 0.0094825413            1 
 1919000   0.49343814    -8.724104    253.06088  0.010989269 0.0094746495            3 
 1920000   0.49298404   -8.7260089    253.31214  0.010994451 0.0094667748            2 
 1921000   0.48489967   -8.7398601    253.53022  0.010998188  0.009458908            2 
 1922000   0.49755048    -8.738127    253.13168  0.010975186 0.0094510516            2 
 1923000   0.48799717   -8.7280453    253.80132  0.010998497 0.0094432026            1 
 1924000   0.48736996     -8.72882    253.10268  0.010962521 0.0094353662            2 
 1925000   0.47568481   -8.7369952    253.16651  0.010959589 0.0094275403            2 
 1926000   0.49413725   -8.7450611    253.55789  0.010970833 0.0094197267            1 
 1927000   0.48173126   -8.7155581    253.49999  0.010962636 0.0094119209            1 
 1928000   0.49340696   -8.7379062    253.35115  0.010950517  0.009404113            2 
 1929000   0.47908745    -8.737301    253.50917  0.010951666 0.0093963133            1 
 1930000   0.48620966   -8.7385463    253.18889  0.010932163 0.0093885234            2 
 1931000   0.48181856   -8.7385907    253.66649  0.010947112 0.0093807371            3 
 1932000   0.48293934   -8.7395869    253.38262  0.010929202 0.0093729667            1 
 1933000   0.47867099   -8.7084354    252.99383  0.010906787 0.0093652011            5 
 1934000   0.48864673   -8.7375645    253.28457  0.010913675 0.0093574487            1 
 1935000   0.47230771   -8.7352976    253.38019  0.010912153 0.0093497005            2 
 1936000   0.48444294   -8.7366309    253.43775  0.010908994 0.0093419618            1 
 1937000   0.47745633   -8.7434109    253.24707  0.010895159 0.0093342307            2 
 1938000   0.48102378   -8.7412293    253.06313  0.010881627 0.0093265094            2 
 1939000   0.49255822   -8.7536743    253.27337  0.010885051 0.0093187993            1 
 1940000   0.49087975   -8.7281316    253.38305  0.010884152 0.0093110925            1 
 1941000    0.4880293   -8.7489605    253.44738  0.010881306 0.0093033938            2 
 1942000   0.48519495   -8.7586003    253.31771  0.010870139  0.009295701            1 
 1943000   0.47658364   -8.7497471    253.29031  0.010863369 0.0092880194            3 
 1944000    0.4811759   -8.7668384    253.45494  0.010864838 0.0092803408            2 
 1945000   0.46352805   -8.7390241    252.83765  0.010832804 0.0092726746            1 
 1946000   0.48132354   -8.7474179    253.15505   0.01084083 0.0092650116            3 
 1947000   0.47497772   -8.7514021    253.29528  0.010841263 0.0092573666            1 
 1948000   0.47011841   -8.7429353    253.31089  0.010836366 0.0092497232            2 
 1949000   0.46858784   -8.7571563    253.20542  0.010826296 0.0092420803            1 
 1950000   0.48062044   -8.7504131    252.84938  0.010805529 0.0092344451            3 
 1951000   0.47342184   -8.7549971    252.98054  0.010805593 0.0092268231            1 
 1952000   0.46838406   -8.7591435    253.26544   0.01081222 0.0092192016            2 
 1953000   0.46264753   -8.7407386    252.97631  0.010794347 0.0092115892            1 
 1954000   0.47196623   -8.7504747    252.95911  0.010788089 0.0092039848            3 
 1955000   0.46645117   -8.7643424    253.01612  0.010785001 0.0091963841            3 
 1956000   0.47176503   -8.7619624    252.95857  0.010777035 0.0091887939            1 
 1957000   0.48160977   -8.7615967     253.0101  0.010773723 0.0091812138            2 
 1958000   0.47181716   -8.7459743    253.31045  0.010781003 0.0091736467            2 
 1959000   0.46791563   -8.7527237    253.08994   0.01076612  0.009166087            3 
 1960000    0.4753792   -8.7430459    253.07533  0.010760005 0.0091585326            2 
 1961000   0.47036548   -8.7542135    252.93799  0.010748682 0.0091509829            4 
 1962000   0.47882155   -8.7606773    253.28673  0.010758016 0.0091434388            2 
 1963000   0.46538524   -8.7468447    253.02021  0.010741221 0.0091359044            4 
 1964000   0.48439791   -8.7497422    252.99842  0.010734828 0.0091283759            1 
 1965000   0.47232174   -8.7465979    253.28156  0.010741372  0.009120855            2 
 1966000   0.46158939   -8.7419388    253.43273  0.010742316 0.0091133518            2 
 1967000   0.46511149   -8.7721284    252.86684  0.010712881 0.0091058469            4 
 1968000   0.46759584   -8.7525027     253.1019  0.010717391 0.0090983573            2 
 1969000   0.46546201   -8.7594482    253.17075  0.010714862 0.0090908739            2 
 1970000   0.46663214    -8.747295    252.85466  0.010696052 0.0090833941            1 
 1971000   0.46514849   -8.7727327    253.45018  0.010715803 0.0090759237            2 
 1972000   0.46191129   -8.7565728    253.12108  0.010696462 0.0090684571            1 
 1973000   0.47870518   -8.7549285    252.86845   0.01068037 0.0090609889            1 
 1974000   0.45690598   -8.7714376    252.80041  0.010672087 0.0090535385            2 
 1975000   0.47312165   -8.7589759    253.07751  0.010678376 0.0090460918            2 
 1976000   0.47710127   -8.7384949    252.98436  0.010669044 0.0090386614            1 
 1977000   0.45881457   -8.7566689    252.96566  0.010662859 0.0090312285            2 
 1978000   0.46238454   -8.7778627    252.74371  0.010648117 0.0090237976            2 
 1979000   0.44971999   -8.7635743    253.02617  0.010654631 0.0090163836            2 
 1980000    0.4633139   -8.7715196    253.09928  0.010652327 0.0090089723            2 
 1981000   0.46523135   -8.7783793    252.68663  0.010629591 0.0090015623            1 
 1982000   0.46146275   -8.7779694    252.74346  0.010626617 0.0089941685            1 
 1983000    0.4594006   -8.7693576    252.92861  0.010629039 0.0089867791            1 
 1984000   0.46020242   -8.7846009    252.93085  0.010623776 0.0089793961            2 
 1985000   0.46631781   -8.7673338    252.73927  0.010610381  0.008972023            2 
 1986000   0.46628057   -8.7749459    252.58072  0.010598385 0.0089646577            3 
 1987000    0.4607021   -8.7663609    252.74383  0.010599892 0.0089572997            2 
 1988000   0.45797965    -8.767979    253.24075   0.01061539 0.0089499543            3 
 1989000   0.45984576   -8.7646743    252.90043  0.010595795 0.0089426182            2 
 1990000    0.4586905   -8.7780353    252.42207  0.010570439 0.0089352812            2 
 1991000   0.46045065   -8.7675244    252.86174  0.010583532  0.008927957            2 
 1992000   0.44288302   -8.7788577    252.85937   0.01057812 0.0089206429            2 
 1993000   0.45902011   -8.7685907    252.70557  0.010566381 0.0089133378            5 
 1994000   0.45907437   -8.7724794    252.80496  0.010565236 0.0089060419            1 
 1995000   0.46168501   -8.7666913    252.98442  0.010567436 0.0088987512            2 
 1996000   0.46118959   -8.7829316    252.81699  0.010555152 0.0088914693            3 
 1997000   0.45577513   -8.7878629    253.04509  0.010559385 0.0088841905            1 
 1998000   0.45168895   -8.7859724    253.01421  0.010552812 0.0088769236            2 
 1999000   0.44672053   -8.7656664    253.07847  0.010550211 0.0088696645            2 
 2000000   0.45400973   -8.7747237    252.78957  0.010532899   0.00886241            3 
 2001000   0.44238969   -8.7628825    252.88372  0.010531556 0.0088551622            1 
 2002000   0.45540625   -8.7914115    252.59204  0.010514154 0.0088479287            2 
 2003000   0.45097422   -8.7955055    252.84558  0.010519453 0.0088406982            1 
 2004000   0.44988895   -8.7838713    252.66604  0.010506738 0.0088334722            3 
 2005000   0.44704631   -8.7966186    252.76659  0.010505677 0.0088262586            4 
 2006000   0.44970025   -8.7852038     253.2411  0.010520152 0.0088190591            2 
 2007000   0.45284611   -8.7805307    252.82518  0.010497641 0.0088118615            8 
 2008000   0.46156194   -8.7897437    252.57915  0.010482202 0.0088046739            5 
 2009000   0.45409033   -8.7894995    253.05298  0.010496639 0.0087974862            6 
 2010000   0.44507284     -8.79178    252.84324  0.010482721 0.0087903107            6 
 2011000   0.45122449   -8.7950055    252.90379  0.010480018 0.0087831436            2 
 2012000   0.45110656   -8.7915817    252.93517  0.010476109 0.0087759721            9 
Loop time of 4864.87 on 48 procs for 2000000 steps with 4000 atoms

Performance: 71039.932 tau/day, 411.111 timesteps/s
99.4% CPU use with 48 MPI tasks x no OpenMP threads

MPI task timing breakdown:
Section |  min time  |  avg time  |  max time  |%varavg| %total
---------------------------------------------------------------
Pair    | 312.66     | 336.79     | 356.22     |  54.0 |  6.92
Neigh   | 31.725     | 33.082     | 34.844     |  13.2 |  0.68
Comm    | 312.59     | 333.2      | 364.92     |  69.4 |  6.85
Output  | 4.2034     | 4.2054     | 4.2376     |   0.2 |  0.09
Modify  | 4097.3     | 4110.9     | 4123.8     |  10.6 | 84.50
Other   |            | 46.67      |            |       |  0.96

Nlocal:        83.3333 ave          90 max          77 min
Histogram: 2 1 8 9 3 8 12 2 0 3
Nghost:        2100.88 ave        2120 max        2084 min
Histogram: 4 3 5 8 9 4 6 2 3 4
Neighs:        13744.8 ave       14983 max       11983 min
Histogram: 1 1 5 5 4 7 7 7 5 6
FullNghs:      27490.3 ave       29620 max       25388 min
Histogram: 2 2 8 6 5 8 8 6 0 3

Total # of neighbors = 1319534
Ave neighs/atom = 329.88350
Neighbor list builds = 107006
Dangerous builds = 0

#clear
#
#next RN
#
#jump SELF
Total wall time: 1:21:08
