
units lj                  # Use reduced LJ style units
atom_style atomic         # Uncharged point particles
atom_modify map hash      # Needed for indexing of clusters etc
                          # Used to be able to find where atoms are in relation to each other.

lattice fcc 1.0 spacing 1 1 1
Lattice spacing in x,y,z = 1.5874011 1.5874011 1.5874011
region box block 0 10 0 10 0 10 units lattice
create_box 2 box
Created orthogonal box = (0.0000000 0.0000000 0.0000000) to (15.874011 15.874011 15.874011)
  3 by 4 by 4 MPI processor grid
create_atoms 1 box
Created 4000 atoms
  using lattice units in orthogonal box = (0.0000000 0.0000000 0.0000000) to (15.874011 15.874011 15.874011)
  create_atoms CPU = 0.003 seconds
set type 1 type/fraction 2 0.44 78393
Setting atom values ...
  1760 settings made for type/fraction
mass 1 1.0
mass 2 1.0
pair_style lj/cut  3.5
pair_modify tail  yes
pair_coeff 1  1  1.0  1.0   # Intearaction between 1 and 1 set with epsilon = 1 and sigma = 1
pair_coeff 1  2  1.5  0.8
pair_coeff 2  2  0.5  0.88

write_data data.0
System init for write_data ...
Neighbor list info ...
  update every 1 steps, delay 10 steps, check yes
  max neighbors/atom: 2000, page size: 100000
  master list distance cutoff = 3.8
  ghost atom cutoff = 3.8
  binsize = 1.9, bins = 9 9 9
  1 neighbor lists, perpetual/occasional/extra = 1 0 0
  (1) pair lj/cut, perpetual
      attributes: half, newton on
      pair build: half/bin/atomonly/newton
      stencil: half/bin/3d
      bin: standard
WARNING: Not all mixed pair coeffs generated from mixing. Use write_data with 'pair ij' option to store all pair coeffs. (../write_data.cpp:312)


#############################
#   M E L T   S Y S T E M   #
#############################

velocity all create 2.4 3143649 mom yes dist gaussian # Assign velocities
                                                    # Temperature 2.4, random number seed, zero linear momentum
                                                                                # Gaussian distribution

timestep 0.002   # simulation timestep
thermo 1000       # output thermodynamic data every 1000 steps bf 100

# Define a fix  in this case with index 1 applied to all
# particles in the simulation. This fix is for simulations
# in the anisotropic NPT ensemble. Note that we use the MTK
# correction.
fix 1 all npt temp 2.4 2.4 0.1 iso 5.68 5.68 0.5 mtk yes tchain 5 pchain 5 # Use NPT ensemble
                                                                         # Set temperature and pressure and damping
                                                                         # Numbers of thermostats in chain and in barostat
run 10000          # run for 10000 steps
Per MPI rank memory allocation (min/avg/max) = 3.642 | 3.644 | 3.648 Mbytes
Step Temp E_pair E_mol TotEng Press Volume 
       0          2.4   -5.6445478            0   -2.0454478   -4.2010474         4000 
    1000    2.3967844   -4.9702382            0   -1.3759605    5.6495269    3825.9911 
    2000    2.3941593   -4.9934699            0   -1.4031288    5.5625515    3831.1047 
    3000    2.3933125   -5.0278292            0    -1.438758    5.7523317    3782.7473 
    4000    2.4297417   -5.0281999            0   -1.3844985    5.8891819     3778.791 
    5000     2.395386   -4.9821981            0   -1.3900174    5.7047545    3807.8851 
    6000    2.4077495   -5.0211449            0   -1.4104235    5.8258576    3785.2394 
    7000    2.4230897   -5.0445622            0   -1.4108364    5.2137634    3822.3948 
    8000    2.3966435   -5.0306393            0   -1.4365728    5.7427495     3795.843 
    9000    2.4096418   -5.0000442            0   -1.3864852     5.649587    3816.0652 
   10000    2.3911947   -5.0519546            0   -1.4660593    5.3853264    3805.3278 
Loop time of 2.61681 on 48 procs for 10000 steps with 4000 atoms

Performance: 660346.126 tau/day, 3821.447 timesteps/s
99.6% CPU use with 48 MPI tasks x no OpenMP threads

MPI task timing breakdown:
Section |  min time  |  avg time  |  max time  |%varavg| %total
---------------------------------------------------------------
Pair    | 1.1301     | 1.2182     | 1.3457     |   4.1 | 46.55
Neigh   | 0.20658    | 0.22057    | 0.24437    |   1.4 |  8.43
Comm    | 0.74392    | 0.89438    | 0.9993     |   5.7 | 34.18
Output  | 0.0002519  | 0.00025882 | 0.00033345 |   0.0 |  0.01
Modify  | 0.24357    | 0.26757    | 0.30468    |   3.3 | 10.22
Other   |            | 0.01588    |            |       |  0.61

Nlocal:        83.3333 ave          93 max          70 min
Histogram: 1 2 2 6 5 5 13 8 4 2
Nghost:        1695.69 ave        1728 max        1666 min
Histogram: 3 4 4 8 7 6 7 5 2 2
Neighs:        10029.7 ave       11212 max        8120 min
Histogram: 2 2 0 4 6 5 8 10 9 2

Total # of neighbors = 481425
Ave neighs/atom = 120.35625
Neighbor list builds = 905
Dangerous builds = 207

# Equilibrate just above the melting temperature to avoid step fn in T

fix 1 all npt temp 1.25 1.25 0.1 iso 5.68 5.68 0.5 mtk yes tchain 5 pchain 5
run 2000
Per MPI rank memory allocation (min/avg/max) = 3.643 | 3.645 | 3.649 Mbytes
Step Temp E_pair E_mol TotEng Press Volume 
   10000    2.3911947   -5.0519546            0   -1.4660593    5.3853264    3805.3278 
   11000    1.2359925   -7.0427459            0   -5.1892206    5.9156887    2994.9121 
   12000    1.2684445   -7.1351902            0   -5.2329991    5.6039201    2981.5301 
Loop time of 0.623576 on 48 procs for 2000 steps with 4000 atoms

Performance: 554222.973 tau/day, 3207.309 timesteps/s
99.6% CPU use with 48 MPI tasks x no OpenMP threads

MPI task timing breakdown:
Section |  min time  |  avg time  |  max time  |%varavg| %total
---------------------------------------------------------------
Pair    | 0.26814    | 0.30435    | 0.32709    |   2.2 | 48.81
Neigh   | 0.038544   | 0.042361   | 0.045394   |   0.6 |  6.79
Comm    | 0.1989     | 0.22713    | 0.26817    |   3.0 | 36.42
Output  | 5.3567e-05 | 5.489e-05  | 7.2755e-05 |   0.0 |  0.01
Modify  | 0.041189   | 0.044379   | 0.048544   |   0.9 |  7.12
Other   |            | 0.005296   |            |       |  0.85

Nlocal:        83.3333 ave          93 max          76 min
Histogram: 1 6 9 4 8 13 1 4 0 2
Nghost:        2006.90 ave        2033 max        1983 min
Histogram: 4 8 5 2 4 4 6 7 5 3
Neighs:        12817.5 ave       14876 max       10910 min
Histogram: 1 1 3 13 10 9 5 2 3 1

Total # of neighbors = 615242
Ave neighs/atom = 153.81050
Neighbor list builds = 142
Dangerous builds = 12

#############################
# L I N E A R  Q U E N C H  #
#############################

# Define solid atoms. This closely follows ten Wolde  Ruiz-Montero and Frenkel  Faraday Discuss  1996  104  93-110
# Compute components of the per-atom q6 vector
compute q6 all orientorder/atom degrees 1 6 components 6 nnn NULL cutoff 1.3 # compute the Q6 parameter.
                                                                             # Use all neighbours within 1.3 unit cell.

# get number of connections
compute coord_number all coord/atom orientorder q6 0.5

# An atom is solid if it has 8 or more connections (of a possible 14)
variable is_solid atom c_coord_number>=8
group solid dynamic all var is_solid    # Must be dynamic to update
dynamic group solid defined

# do clustering
compute cluster solid cluster/atom 1.3 # Create a cluster where all atoms within are solid and max 1.3 units from another member

# define chunks one chunk per cluster
compute clus_chunks solid chunk/atom c_cluster nchunk every compress yes  # Says which atoms are in which chunk

# count the size of each chunk
compute size_chunks solid property/chunk clus_chunks count


# Find the maximum entry in the vector of chunk sizes
variable max_n equal max(c_size_chunks)


# Thermo style which includes this variable
# thermo_style custom step temp pe vol v_max_n

thermo ${N}  # Print the thermo information every 100 steps
thermo 1000  

# Reset the npt fix at a lower temperature (below freezing)
fix 1  all npt temp  ${temp} ${temp}  0.1  iso  5.68  5.68  0.5  mtk yes tchain  5  pchain  5
fix 1  all npt temp  0.45 ${temp}  0.1  iso  5.68  5.68  0.5  mtk yes tchain  5  pchain  5
fix 1  all npt temp  0.45 0.45  0.1  iso  5.68  5.68  0.5  mtk yes tchain  5  pchain  5

dump dmp2 all dcd ${N} traj.dcd
dump dmp2 all dcd 1000 traj.dcd


compute msd all msd com yes
variable twopoint equal c_msd[4]/6/(step*dt+1.0e-6)
fix 9 all vector 10 c_msd[4]
variable fit equal slope(f_9)/6/(10*dt)
thermo_style custom step temp pe c_msd[4] v_twopoint v_fit v_max_n

fix 1 all npt temp 1.25 ${temp} 0.1 iso 5.68 5.68 0.5 mtk yes tchain 5 pchain 5
fix 1 all npt temp 1.25 0.45 0.1 iso 5.68 5.68 0.5 mtk yes tchain 5 pchain 5
run 500000 # 5000000  # Run for this many steps
Neighbor list info ...
  update every 1 steps, delay 10 steps, check yes
  max neighbors/atom: 2000, page size: 100000
  master list distance cutoff = 3.8
  ghost atom cutoff = 3.8
  binsize = 1.9, bins = 8 8 8
  4 neighbor lists, perpetual/occasional/extra = 1 3 0
  (1) pair lj/cut, perpetual
      attributes: half, newton on
      pair build: half/bin/atomonly/newton
      stencil: half/bin/3d
      bin: standard
  (2) compute orientorder/atom, occasional
      attributes: full, newton on
      pair build: full/bin/atomonly
      stencil: full/bin/3d
      bin: standard
  (3) compute coord/atom, occasional
      attributes: full, newton on
      pair build: full/bin/atomonly
      stencil: full/bin/3d
      bin: standard
  (4) compute cluster/atom, occasional
      attributes: full, newton on
      pair build: full/bin/atomonly
      stencil: full/bin/3d
      bin: standard
Per MPI rank memory allocation (min/avg/max) = 9.830 | 9.837 | 9.842 Mbytes
Step Temp PotEng c_msd[4] v_twopoint v_fit v_max_n 
   12000    1.2684445   -7.1351902            0            0 8.3333333e+20            2 
   13000    1.2504089     -7.13553   0.45828529 0.0029377261  0.037153731            1 
   14000     1.236242    -7.153356   0.94234786 0.0056092132  0.038325383            1 
   15000    1.2327785   -7.1861069    1.4136709  0.007853727  0.039079018            2 
   16000     1.234496   -7.1239489    1.7863159 0.0093037283  0.038200925            2 
   17000    1.2369316   -7.1657545    2.1788282   0.01068053  0.036466142            1 
   18000    1.2493221   -7.1281739    2.5828375  0.011957581  0.035486065            5 
   19000    1.2525469   -7.1776136    2.9939486  0.013131353  0.035058452            2 
   20000    1.2345597   -7.1317755    3.3954688  0.014147786  0.034774883            1 
   21000    1.2290227   -7.2006084    3.7591817  0.014917387  0.034343085            2 
   22000    1.2614036   -7.1621611    4.1627612  0.015768035  0.034035996            2 
   23000    1.2407876   -7.2072835    4.5255354  0.016396867  0.033794064            4 
   24000    1.2351772   -7.1824926    4.9631349  0.017233107  0.033704435            1 
   25000    1.2232493   -7.2435155    5.3750712  0.017916904  0.033624328            1 
   26000    1.2106539   -7.1581112    5.7402023  0.018398084  0.033617302            2 
   27000    1.2218445   -7.1751809    6.0811443  0.018768963  0.033510121            2 
   28000    1.2398073   -7.1904252    6.4413098  0.019170565  0.033286615            2 
   29000    1.2423205   -7.1910899    6.7783373   0.01947798  0.033077385            2 
   30000    1.2063516   -7.1900138    7.1390323  0.019830645  0.032832544            3 
   31000    1.2446279   -7.1832988    7.5474261   0.02028878  0.032658983            2 
   32000    1.2095125   -7.1915762    7.9760173  0.020770878  0.032586522            2 
   33000    1.2387324   -7.2593169    8.4018263  0.021216733  0.032545966            2 
   34000    1.2194752   -7.2301407    8.7003482  0.021324382  0.032484109            1 
   35000     1.221263   -7.1915686    9.1333033   0.02174596  0.032424653            1 
   36000     1.224535   -7.2152912    9.4908119  0.021969472  0.032391974            2 
   37000    1.2101488    -7.257594    9.8449801  0.022173378  0.032346647            1 
   38000    1.2209046   -7.2246174    10.225825  0.022425054  0.032288499            2 
   39000    1.2362699   -7.2714613    10.690368  0.022842666  0.032279406            1 
   40000    1.2074322   -7.2017304    11.049269   0.02301931  0.032283901            2 
   41000    1.2103538   -7.2436329    11.370781  0.023111343   0.03222379            2 
   42000    1.2135839   -7.2636058      11.7341  0.023281944  0.032152622            4 
   43000    1.1944969   -7.2979595    12.189837  0.023623716  0.032129782            3 
   44000    1.1824917   -7.2668074    12.539451   0.02374896   0.03212214            2 
   45000    1.2127345    -7.264696    12.897493  0.023884246  0.032082729            2 
   46000    1.2016592   -7.2334887    13.252636  0.024008398  0.032046577            3 
   47000    1.2003295   -7.2555266    13.594392  0.024103532  0.032016322            2 
   48000    1.1911836   -7.2570811    14.053605  0.024398619  0.031987819            4 
   49000    1.1776559   -7.2533044    14.480359   0.02462646  0.031988438            2 
   50000    1.1871503   -7.2781912    14.814547  0.024690912  0.031991426            1 
   51000    1.2151427   -7.2875464    15.232658  0.024889964  0.032011227            2 
   52000     1.217153    -7.274399    15.522101  0.024875162  0.031997845            5 
   53000    1.1914246   -7.3115882    15.894387  0.024991174  0.031955917            1 
   54000    1.1851191   -7.2905906    16.304985  0.025162013  0.031928138            2 
   55000    1.1930309   -7.3145889    16.632354  0.025200537  0.031909082            1 
   56000    1.1603818   -7.2806215    17.051335   0.02537401  0.031885839            1 
   57000    1.1788944   -7.3281159     17.45581  0.025520191  0.031865209            3 
   58000    1.1656493   -7.3455052     17.66887  0.025386307  0.031840477            5 
   59000    1.1726887   -7.2874895    18.169755  0.025663495  0.031797731            3 
   60000     1.173622   -7.3497693    18.525728  0.025730178  0.031767824            3 
   61000    1.1841665   -7.2564514    18.814989  0.025703536  0.031740742            2 
   62000    1.1840224   -7.3890327    18.990608   0.02552501  0.031680226            1 
   63000    1.1689046   -7.3462133    19.393101  0.025652249  0.031615866            1 
   64000    1.1936945   -7.3523234    19.873709  0.025877225  0.031565494            2 
   65000    1.1715076   -7.3083291    20.228762   0.02593431  0.031532206            3 
   66000    1.1592195   -7.3253229    20.564374  0.025965118  0.031496588            3 
   67000    1.1859489    -7.328513     20.94498   0.02605097  0.031460147            2 
   68000    1.1700655   -7.3303761    21.249496  0.026041049  0.031420908            2 
   69000    1.1581435   -7.3360135    21.619365  0.026110344  0.031389184            1 
   70000    1.1599623   -7.4073004    21.874103  0.026040599  0.031351027            2 
   71000    1.1675728   -7.3453093     22.15044  0.025998168  0.031298858            1 
   72000     1.156944   -7.3485094    22.419076  0.025948004  0.031235341            1 
   73000    1.1448185   -7.3497963    22.732595   0.02595045  0.031172098            2 
   74000    1.1638211   -7.3724605    23.103395  0.026017336  0.031109941            1 
   75000    1.1606417   -7.3809325    23.505543   0.02611727  0.031045951            1 
   76000     1.146007   -7.3943322    23.621317  0.025900567   0.03098449            2 
   77000    1.1331129   -7.3509296    24.051337  0.026029586  0.030921987            2 
   78000    1.1441718   -7.3984062    24.384615  0.026051939  0.030857649            1 
   79000    1.1467943   -7.3800512    24.855999  0.026219408  0.030795297            2 
   80000    1.1396084   -7.3794584    25.090255  0.026135682  0.030741827            1 
   81000    1.1082107   -7.4306693    25.322046  0.026051488  0.030677636            4 
   82000      1.15911   -7.3768921    25.717321  0.026135489  0.030609019            1 
   83000    1.1722358    -7.410088    26.099618  0.026204436  0.030540573            1 
   84000    1.1558073   -7.4532592    26.316017  0.026107159   0.03047852            1 
   85000    1.1229394   -7.4010678    26.745851  0.026221422   0.03042395            1 
   86000    1.1255811   -7.4163382    27.066246  0.026226982  0.030375294            2 
   87000    1.1339678    -7.484753    27.282967   0.02613311  0.030323067            1 
   88000    1.1447252   -7.4288663    27.794116  0.026320186  0.030275168            3 
   89000    1.1318456   -7.4513545    28.034287  0.026249332  0.030228284            2 
   90000    1.1081702    -7.452668    28.282622  0.026187613  0.030179228            1 
   91000    1.1274446   -7.4719495    28.341611  0.025953856  0.030112336            3 
   92000    1.1361223   -7.4289414    28.633607  0.025936238  0.030033103            3 
   93000     1.113227   -7.4645808    28.888545  0.025885793  0.029951886            2 
   94000    1.1027701   -7.4794688     29.14963   0.02584187  0.029873328            3 
   95000    1.1069565   -7.4767752    29.385644   0.02577688  0.029793529            1 
   96000    1.1103318   -7.4729734     29.68181   0.02576546  0.029709359            2 
   97000    1.1020374   -7.4859325    29.877781  0.025668196  0.029622689            2 
   98000    1.0985113   -7.4457114    30.241458  0.025715526  0.029538984            1 
   99000    1.1049797    -7.450683    30.405267  0.025593659  0.029457004            2 
  100000    1.0876298   -7.4602209    30.796834  0.025664028  0.029373104            1 
  101000    1.0955922   -7.4597011    30.900982  0.025495859  0.029285438            2 
  102000    1.1011317   -7.4405936     31.22832  0.025513334  0.029197417            2 
  103000    1.1111013    -7.508247    31.466924  0.025458676  0.029112651            2 
  104000    1.0891391   -7.5299464    31.602736  0.025322705   0.02902583            3 
  105000    1.1067872   -7.5030643    31.896526  0.025314703  0.028935152            1 
  106000    1.0897048   -7.5415562     32.13155  0.025260652      0.02885            2 
  107000    1.0966424   -7.5437869    32.412079  0.025243052  0.028758833            3 
  108000    1.1290776   -7.5175133    32.621292   0.02517075  0.028667193            5 
  109000    1.0878532   -7.5148901    32.980351  0.025214335  0.028580615            2 
  110000    1.0499059   -7.4937858    33.191355  0.025144966    0.0284995            3 
  111000    1.0934448   -7.5170343    33.553222  0.025190107  0.028413581            2 
  112000     1.084725   -7.5483571     33.51914  0.024939836  0.028327514            1 
  113000     1.081586   -7.5415974     33.87636  0.024982566  0.028240985            1 
  114000    1.0893859   -7.5495111    34.055691  0.024894511  0.028152883            3 
  115000    1.0920857   -7.5765464    34.373647   0.02490844  0.028063715            6 
  116000    1.0601352   -7.5832954    34.513237  0.024793992  0.027976416            3 
  117000    1.0847453   -7.5436443    34.739905  0.024743522  0.027887466            1 
  118000    1.0779243   -7.5461295    34.994951  0.024713949  0.027797487            3 
  119000    1.0995558   -7.5774588    35.235312  0.024674588  0.027712513            1 
  120000    1.1069383   -7.5591086    35.656315   0.02476133  0.027632964            1 
  121000    1.0684912   -7.5670111    35.771669  0.024636135  0.027554424            1 
  122000    1.0901261    -7.555059    36.053757  0.024626883  0.027473592            2 
  123000    1.0583262   -7.5531578    36.161898  0.024499931   0.02739221            3 
  124000    1.0570573   -7.5827012    36.475383  0.024513026  0.027307309            3 
  125000    1.0726625   -7.5824715    36.676368  0.024450912  0.027225128            2 
  126000    1.0787652    -7.597712    36.985376  0.024461227  0.027147245            3 
  127000     1.058894   -7.5587134    37.251233  0.024443066  0.027071296            2 
  128000    1.0693102   -7.5733588    37.677814  0.024529827  0.026997651            2 
  129000    1.0700125   -7.5981912    37.732538  0.024375025  0.026923346            1 
  130000    1.0656703   -7.5974194    38.138348  0.024447659  0.026851314            2 
  131000    1.0347742   -7.5754182    38.448836  0.024458547  0.026783519            5 
  132000    1.0668421   -7.6128357    38.542476  0.024332371  0.026717305            3 
  133000    1.0798294   -7.6315868    38.722777  0.024262392  0.026648443            2 
  134000    1.0452766   -7.6373329    39.149728  0.024346846  0.026580726            2 
  135000     1.053518   -7.6493371    39.323111  0.024273525  0.026516436            1 
  136000    1.0514153   -7.5827716    39.582698  0.024254104  0.026450775            1 
  137000    1.0528048   -7.6617236    39.580322  0.024075622  0.026381845            2 
  138000    1.0558813   -7.6214516    39.837651  0.024056552  0.026309089            2 
  139000    1.0320814   -7.6528539    40.205053  0.024103748  0.026236742            3 
  140000     1.066201   -7.6014891    40.241879  0.023953499  0.026167476            2 
  141000    1.0228374    -7.604476    40.498395  0.023935222  0.026096198            3 
  142000    1.0530897   -7.6480666     40.52347  0.023781379  0.026025288            2 
  143000    1.0253359   -7.6494999    40.887115   0.02382699  0.025955591            2 
  144000    1.0284719   -7.6726488    41.039475  0.023749696  0.025886033            3 
  145000     1.031372   -7.6679858    41.266389  0.023716315  0.025813451            1 
  146000    1.0204139   -7.6640408    41.344631  0.023598534  0.025740494            3 
  147000    1.0139137   -7.6809972    41.675314  0.023625461  0.025669775            6 
  148000    1.0324996   -7.6739061    41.742175  0.023503477  0.025599944            2 
  149000     1.049201   -7.6789928    42.039332  0.023511931  0.025528735            2 
  150000    1.0425806   -7.6977436    42.127478  0.023404155  0.025459206            2 
  151000    1.0231942   -7.7205842    42.237187  0.023309706  0.025388648            1 
  152000    1.0336778   -7.7089712    42.416257  0.023254527  0.025314338            4 
  153000    1.0159206    -7.704601    42.797248  0.023310048  0.025243172            3 
  154000    1.0058789   -7.6931495    42.902008  0.023215372  0.025172162            5 
  155000    1.0112416   -7.6933381    43.231782  0.023242894  0.025101723            2 
  156000    1.0373301   -7.6880632    43.354242  0.023159317  0.025032196            3 
  157000    1.0110052   -7.6766813    43.822201  0.023260192  0.024966343            3 
  158000    1.0397181   -7.7310627    43.703173  0.023050196  0.024900375            2 
  159000    1.0060745   -7.7052041    44.241643  0.023187444  0.024835352            2 
  160000    1.0117648   -7.7625592    44.227919  0.023035374  0.024770527            3 
  161000   0.99579266   -7.7494802    44.388934  0.022975639  0.024705077            1 
  162000    1.0071946    -7.738793    44.637167  0.022961506  0.024641289            9 
  163000    1.0331695   -7.7993952    44.541734  0.022771848   0.02457441            3 
  164000   0.99603043   -7.7131725    44.913707  0.022822005  0.024505303            2 
  165000   0.97794962   -7.7620867     44.96268  0.022708424  0.024437852            2 
  166000   0.99714007   -7.7461059    45.176881  0.022679157  0.024368334            1 
  167000   0.98160061   -7.7912251    45.233583  0.022571648  0.024298763            3 
  168000    0.9817209   -7.7448803    45.437937  0.022538659  0.024230054            1 
  169000   0.99714048     -7.72296    45.719161  0.022543965  0.024160975            6 
  170000    1.0053183   -7.7779066    45.874663   0.02248758  0.024095201            2 
  171000    1.0006039   -7.7574493    46.011731  0.022422871  0.024028311            1 
  172000   0.98802839   -7.7685855    46.058828  0.022315323  0.023960423            2 
  173000    1.0015182   -7.7811424    46.181233  0.022245295  0.023889631            3 
  174000    1.0014464   -7.7017014    46.546009   0.02229215  0.023820756            1 
  175000   0.98345466   -7.7868116    46.379539  0.022085495  0.023751402            2 
  176000   0.98384835   -7.7760935    46.642353  0.022084448  0.023681142            1 
  177000     1.017341    -7.811208    46.790155  0.022029263  0.023612123            2 
  178000   0.96405443    -7.809114    46.992366  0.022000171  0.023542949            2 
  179000    1.0024975   -7.8039298    47.203963  0.021975774  0.023474611            2 
  180000   0.97957597   -7.8203264    47.358726  0.021925336  0.023405941            3 
  181000   0.96638649   -7.8152151    47.548702  0.021891668  0.023338763            1 
  182000    0.9650275   -7.7994458    47.620229  0.021804134   0.02327068            3 
  183000   0.98313144   -7.8242733    47.810005  0.021771405  0.023203586            2 
  184000    0.9838043    -7.843417      47.8633  0.021677219  0.023135337            3 
  185000   0.97216108   -7.8340439    48.212219  0.021717216  0.023067711            4 
  186000   0.95348234   -7.8506407    48.110346  0.021554814  0.022999729            3 
  187000   0.93396731   -7.8422101    48.261993  0.021507127  0.022932017            1 
  188000   0.96212836   -7.8502602    48.447536  0.021474972  0.022863958            2 
  189000   0.97196585    -7.840635    48.507924  0.021387974   0.02279655            2 
  190000   0.95382341   -7.8267374    48.803304  0.021404958  0.022730196            2 
  191000   0.98306851   -7.8202349    49.050617  0.021400793  0.022665602            5 
  192000   0.95575293   -7.8585253    49.314847  0.021404013  0.022602017            1 
  193000   0.95005752    -7.864439     49.46542  0.021358126  0.022538912            5 
  194000    0.9628504   -7.8587227    49.613111  0.021311474  0.022476505            4 
  195000   0.96169822   -7.9016879      49.6386  0.021213077   0.02241315            1 
  196000    0.9597644   -7.8750126     49.78544  0.021167279  0.022349135            1 
  197000    0.9532634   -7.9204745    49.714347  0.021029757  0.022283637            1 
  198000   0.96944109   -7.9006657    49.776397  0.020949662  0.022217246            2 
  199000   0.95468667   -7.8801707    50.185959  0.021015896  0.022152498            2 
  200000   0.93702759   -7.9061425    50.193185  0.020913827  0.022087895            1 
  201000   0.95806918   -7.8853854    50.310527  0.020858427  0.022023327            2 
  202000   0.94356565   -7.8758549    50.445454  0.020810831  0.021958935            2 
  203000    0.9485918   -7.9123341    50.661894  0.020797165  0.021894115            3 
  204000   0.95236339   -7.9147161    50.728902  0.020722591  0.021830479            7 
  205000   0.94847675   -7.9279568    50.930694  0.020703534  0.021766358            3 
  206000   0.91818392   -7.9092399    50.928329  0.020602075  0.021702885            2 
  207000    0.9176893   -7.9462545    50.780121  0.020442883  0.021638192            3 
  208000   0.94449188   -7.9621681    51.003936  0.020434269  0.021572979            4 
  209000   0.90962198   -7.9187772    51.251809   0.02043533  0.021507665            2 
  210000   0.93014985   -7.9369415    51.290543   0.02035339  0.021442552            3 
  211000   0.92413159   -7.9658536    51.211668  0.020225777  0.021377714            9 
  212000   0.94163239   -7.9572333    51.359673  0.020188551  0.021311845            3 
  213000   0.94081218   -7.9302532    51.674546  0.020216959  0.021247702            2 
  214000   0.94635903   -7.9276434    51.958566  0.020233086  0.021184951            3 
  215000   0.92303414   -7.9793866    51.937479  0.020130806  0.021121929            2 
  216000   0.91569108   -7.9678508    52.106771  0.020102921  0.021059024            4 
  217000   0.94392471   -8.0047258    52.184251  0.020040035  0.020996402            9 
  218000   0.93207676   -7.9544346    52.341948   0.02000839  0.020934569            4 
  219000   0.90490931   -7.9590399    52.360581  0.019924118   0.02087188            4 
  220000   0.91958086    -8.006628    52.254383  0.019793327  0.020808496            5 
  221000   0.91536013    -7.952853    52.526545  0.019806389  0.020744977            3 
  222000   0.90541954   -7.9933874    52.652946  0.019764619   0.02068228            3 
  223000   0.90768228   -7.9908764    52.788496  0.019726643  0.020621203            2 
  224000   0.91777276   -7.9831633    53.087769  0.019749914  0.020560694            3 
  225000   0.91027411    -8.006268    53.033541  0.019642052  0.020500425            2 
  226000    0.9060651   -8.0184465    53.163705  0.019603136  0.020439275            6 
  227000   0.91487905    -7.990671    53.386686  0.019598637  0.020378378            2 
  228000    0.8925856   -8.0092488    53.504029  0.019555566  0.020318474            2 
  229000    0.8906282   -8.0301535      53.5558   0.01948901  0.020260455            4 
  230000   0.89286615   -7.9927366    53.584399  0.019414637  0.020200992            3 
  231000   0.89319162   -7.9957427    53.679742  0.019364986  0.020141656            4 
  232000   0.89420362   -8.0378699    53.773299  0.019315122  0.020082317            2 
  233000   0.90510309   -8.0402176    53.846182  0.019258291  0.020022978            2 
  234000   0.88211778   -8.0257253    53.793723  0.019157309  0.019961991            3 
  235000    0.8898892    -8.048809     53.84273  0.019093167  0.019900077            2 
  236000   0.91020155   -8.0569546     53.77013  0.018986628   0.01983741            3 
  237000   0.88049405   -8.0550595    53.846626  0.018933413  0.019774073            4 
  238000   0.87784582    -8.066298    53.817304  0.018843594  0.019709905            5 
  239000    0.8857167   -8.0333837    53.995295  0.018826811  0.019646102            3 
  240000   0.87677834   -8.0592521    53.943645  0.018730432    0.0195826            3 
  241000    0.8921869   -8.0790793    54.031346  0.018683038  0.019518061            3 
  242000   0.87983729   -8.0832085     53.98139  0.018588633  0.019453711            3 
  243000   0.88262946   -8.0698717    54.078808  0.018545545  0.019389238            2 
  244000   0.86897768   -8.0934982     54.02073  0.018449703  0.019323617            4 
  245000    0.8704006   -8.0922497     54.04733  0.018383446  0.019258955            2 
  246000   0.86689481   -8.1080071    54.354456  0.018412756  0.019195154            2 
  247000   0.85215125   -8.0951025    54.331252  0.018330382  0.019132412            2 
  248000   0.87571232   -8.0878891    54.570363  0.018336815  0.019069351            2 
  249000    0.8808729   -8.0821097    54.529541  0.018249512  0.019007069            3 
  250000   0.89458992    -8.118581    54.555347  0.018185116  0.018944394            5 
  251000   0.87543847   -8.1008754    54.616592  0.018132999  0.018882212           10 
  252000   0.84457603   -8.1009298    54.784552  0.018116584  0.018819669            2 
  253000   0.86067476   -8.1199509    54.818113  0.018056032   0.01875794            2 
  254000   0.87396229   -8.1196242    54.959144  0.018031215  0.018696763            5 
  255000   0.85147199   -8.1505458    54.918823  0.017947328  0.018634848           10 
  256000   0.85216082   -8.1757907    54.879522  0.017864428  0.018572443            4 
  257000   0.83659784   -8.1038388    55.068972  0.017856346  0.018509687            8 
  258000    0.8579048   -8.1486942    54.820919  0.017707015  0.018447031            4 
  259000   0.86869649   -8.1262234     54.98468  0.017691339  0.018384335            3 
  260000    0.8662834   -8.1538936     55.05754  0.017646647  0.018322287            2 
  261000   0.86430478   -8.1206817     55.12081  0.017599237  0.018260291            3 
  262000   0.83681212   -8.1551073    55.130226  0.017535059  0.018199007            3 
  263000   0.83358664   -8.1197434    55.365259  0.017542858  0.018137782            6 
  264000   0.82392798   -8.1022036    55.359571  0.017474612  0.018076696            1 
  265000    0.8507192   -8.1335588     55.43515  0.017432437  0.018015458            5 
  266000   0.83785205   -8.1723818    55.500074  0.017387241  0.017954584            6 
  267000   0.83833855   -8.1685934    55.492182  0.017319657  0.017893502            4 
  268000   0.84810912   -8.1644344    55.484719  0.017252711  0.017832424            6 
  269000   0.83919182   -8.1939024    55.472899  0.017184913  0.017771677            8 
  270000   0.84704527   -8.2252035    55.610503  0.017163735   0.01771157            2 
  271000   0.84679173   -8.2265421    55.777997  0.017151905  0.017651441            4 
  272000   0.84750012   -8.2035482    55.675471  0.017057436  0.017591041            4 
  273000   0.82288712   -8.2193034    55.707764  0.017004812  0.017530704            4 
  274000   0.81489046   -8.1893413    55.928204  0.017009795  0.017471258            2 
  275000   0.82802289   -8.2021041    56.015634  0.016974434  0.017412105            2 
  276000   0.82382831   -8.2196345     56.00821  0.016910691  0.017353504            3 
  277000   0.83747431   -8.2503182    56.084968  0.016872734   0.01729532            4 
  278000   0.82894648   -8.2784597    56.227925  0.016854894  0.017237155            3 
  279000    0.8316598   -8.2752549    56.005936  0.016728177    0.0171792           18 
  280000   0.82193607   -8.2605997     55.91779  0.016642199  0.017120477            8 
  281000   0.82392523   -8.2539338    56.057325  0.016624355  0.017061565            6 
  282000   0.80148919   -8.2474529    56.189322  0.016604409  0.017003218            7 
  283000   0.80679832    -8.259833    56.187993  0.016545345  0.016944759            5 
  284000   0.82853249   -8.2492629    56.301353   0.01652035  0.016886706            4 
  285000   0.81472564   -8.3032545    56.305666  0.016463645  0.016828755            7 
  286000   0.83199812   -8.2682547    56.359063  0.016421638    0.0167711            4 
  287000   0.81379305   -8.3181181    56.259093  0.016335393  0.016713245            4 
  288000   0.81909306   -8.3146033    56.291883  0.016288161  0.016655409            3 
  289000     0.803581   -8.3126432    56.314356   0.01623828  0.016597425            2 
  290000   0.80857107   -8.3336633    56.357519  0.016194689  0.016540023            5 
  291000   0.78632818   -8.3015779    56.347441  0.016136151  0.016482707            4 
  292000   0.81534245   -8.3245026    56.353224  0.016082541  0.016424909            8 
  293000   0.77596953   -8.3282997    56.338563  0.016023482  0.016366884            5 
  294000   0.79866434   -8.3301644    56.437298  0.015996967  0.016309112            6 
  295000   0.80112508   -8.3187995    56.434141  0.015941848  0.016252023            7 
  296000   0.80006244   -8.3436692    56.567664  0.015925581  0.016195279            4 
  297000   0.79424805   -8.3317025    56.506273  0.015854734  0.016138293            2 
  298000   0.78875657     -8.33208    56.459862  0.015788552  0.016081413            2 
  299000      0.80461   -8.3452759    56.519278  0.015752307  0.016025239            4 
  300000   0.78175919   -8.3441609    56.645758  0.015734933  0.015969183            4 
  301000   0.77544927   -8.3613405    56.485848  0.015638385  0.015912718            3 
  302000   0.77506236   -8.3773934    56.630392  0.015626488  0.015856229            3 
  303000    0.7941056   -8.3392528     56.75369  0.015608826  0.015800225            3 
  304000   0.79556296   -8.3505315    56.699417  0.015542603  0.015744668            5 
  305000   0.78515665   -8.3831354    56.728035  0.015499463  0.015689283           13 
  306000   0.77772552   -8.3632657    56.696743   0.01544029  0.015634004            3 
  307000   0.76771342   -8.3719816    56.662125  0.015380599  0.015578511            7 
  308000   0.77793123   -8.3641183    56.731359  0.015349394  0.015523315            4 
  309000   0.76872524   -8.3755393    56.783219  0.015313705  0.015468514            2 
  310000   0.77653433   -8.3811991    56.810842  0.015271732  0.015414098            4 
  311000   0.76701019   -8.4090138    56.831974  0.015228289  0.015359312            3 
  312000   0.77011295   -8.4101662    56.863552  0.015187915  0.015304871            2 
  313000   0.76594269   -8.4338582    56.698693  0.015095499  0.015250448            4 
  314000   0.76690017   -8.4337426    56.772967  0.015067136  0.015196107            4 
  315000   0.76557219   -8.4259668     56.77659  0.015020262  0.015141987            3 
  316000    0.7622078   -8.4016549    56.862351  0.014995346  0.015088012            3 
  317000   0.76385896   -8.3982998    56.838565  0.014941789  0.015034202            8 
  318000   0.74982735   -8.4318337    57.147614   0.01497579  0.014980891           17 
  319000   0.76926291   -8.4077996    57.185539  0.014938751  0.014927757           13 
  320000   0.76167446   -8.4632888    56.839772  0.014802024  0.014874819            3 
  321000   0.75970707   -8.4515721    56.914067  0.014775199  0.014821484            2 
  322000   0.74570155   -8.4430257    57.029742   0.01475925  0.014768373            5 
  323000   0.74290183   -8.4329084    56.786464   0.01465079  0.014715337            5 
  324000   0.74851815   -8.4436394    56.840438  0.014619454  0.014662052            3 
  325000   0.74413817   -8.4279449    57.093381  0.014639328  0.014609333            5 
  326000   0.74078925   -8.4410823    56.862591  0.014535427  0.014556961            5 
  327000   0.74280254   -8.4323467    57.019681   0.01453101  0.014504843            5 
  328000   0.74665939   -8.4576553    56.963451  0.014472422  0.014452784            2 
  329000   0.75283489   -8.4526378    57.091055  0.014460754  0.014400932            4 
  330000   0.72815747     -8.47288    57.063699  0.014410025  0.014349359            8 
  331000   0.73809377   -8.4852168    56.991294  0.014348261   0.01429823            5 
  332000   0.73448276    -8.466262    57.087328  0.014329149  0.014247035            4 
  333000   0.73172227   -8.4858239    57.027862  0.014271237   0.01419589            7 
  334000   0.74530466   -8.4808536    57.047495  0.014233407  0.014144701           12 
  335000   0.72295766    -8.488739    57.101652  0.014204391  0.014093766            3 
  336000   0.73208341   -8.4913837    57.018323  0.014141449  0.014043117           13 
  337000   0.72701736   -8.4743616     57.20339   0.01414525  0.013992743            5 
  338000   0.72194833   -8.4961593    57.116393  0.014081951  0.013942502            4 
  339000   0.73481668   -8.5011447    57.012743  0.014014932  0.013892412            5 
  340000   0.73136749   -8.5126201    57.214364  0.014023128  0.013842332            4 
  341000   0.72711286   -8.4924956    57.198069  0.013978023  0.013792507            5 
  342000    0.7217597   -8.5355615    56.997562  0.013888295  0.013742735            4 
  343000   0.73358128   -8.5314716    56.993189  0.013846742  0.013692867            3 
  344000   0.72703881   -8.5363252    56.982036  0.013803788  0.013642956            9 
  345000   0.71859268   -8.5451837    56.936571  0.013752795   0.01359326            7 
  346000    0.7032702    -8.535042    57.137023  0.013761325  0.013543725            4 
  347000   0.71394813   -8.5410074    57.123238  0.013718357  0.013494454            2 
  348000   0.71476278   -8.5437668    56.847748  0.013612966  0.013445035            3 
  349000   0.70079265    -8.542457    57.007561  0.013612121  0.013395928           13 
  350000    0.7032145   -8.5827918    56.916917  0.013551647  0.013347073            5 
  351000   0.70017013   -8.5788418    57.024314  0.013538536  0.013298392            2 
  352000   0.71412897   -8.5590358    57.044573   0.01350487   0.01324972            4 
  353000   0.71921954   -8.5691085    57.045103  0.013466738  0.013201303            9 
  354000   0.69084998   -8.5865492    56.917087  0.013398561  0.013153111            4 
  355000   0.70045286   -8.5724967    57.004055  0.013381234  0.013104974            4 
  356000   0.69972793   -8.5984818    57.023515  0.013348201  0.013057234            4 
  357000   0.70591388    -8.578558    57.049364  0.013316845  0.013009557            3 
  358000   0.67805055   -8.5954892    57.038069  0.013277018  0.012962084            4 
  359000    0.6971086   -8.6010282    56.938686  0.013216965  0.012914878            3 
  360000   0.69492114   -8.5910727    56.926179  0.013177356  0.012867721            9 
  361000   0.69002797   -8.5904384    57.048628   0.01316912  0.012820863           18 
  362000    0.7000813   -8.5965147    56.935949  0.013106802  0.012773788            5 
  363000   0.66694508   -8.6199694    56.943029  0.013072321  0.012726981            3 
  364000     0.687457   -8.5962722    56.941117   0.01303597  0.012680331            5 
  365000   0.69454672   -8.6269085    56.783872  0.012964354  0.012633608            4 
  366000   0.67961935   -8.6343645    56.841085  0.012941959  0.012586866            4 
  367000    0.6798205   -8.6495719    56.824412  0.012902909  0.012540493            2 
  368000   0.67869281   -8.6215587    56.787043  0.012859385  0.012494179            4 
  369000   0.67168958   -8.6250203    56.894303  0.012848759  0.012448186            4 
  370000   0.68077481   -8.6529132    56.987249  0.012834966  0.012402575            3 
  371000    0.6745314   -8.6420382    56.926764  0.012786784  0.012357035            3 
  372000   0.67060726   -8.6624747    56.957944  0.012759396  0.012311562            7 
  373000   0.65646757   -8.6372045    56.924127  0.012717633   0.01226627            2 
  374000   0.67033172   -8.6838656    56.944398  0.012688146  0.012221217            3 
  375000   0.66238683   -8.6734726    56.803657  0.012623035    0.0121763            2 
  376000   0.66675914   -8.6560119    56.725729  0.012572192  0.012131573            2 
  377000   0.68420133   -8.6789764    56.877187  0.012572322  0.012086846            5 
  378000   0.65376846   -8.6766343    56.677133  0.012494959  0.012042295            6 
  379000   0.66112491   -8.6856157    56.921437  0.012515707  0.011997922            2 
  380000   0.66193325   -8.6977211    56.742963  0.012443632  0.011953749            6 
  381000   0.65228344   -8.6881451    56.894285  0.012444069  0.011909685            3 
  382000   0.64718617   -8.6869201    56.757117   0.01238157  0.011865956            4 
  383000   0.65562219   -8.7050315    56.690154  0.012334672  0.011822151            8 
  384000   0.63628261   -8.7138026    56.720512  0.012309139  0.011778666            5 
  385000   0.64836991    -8.716119    56.770493  0.012287985   0.01173539            7 
  386000    0.6531985   -8.7113087     56.78723  0.012259765  0.011692442            8 
  387000    0.6516641   -8.7076931    56.884877  0.012249112  0.011649553            7 
  388000   0.65155229   -8.7061725    56.888833  0.012218392  0.011606892            4 
  389000   0.63696068   -8.7142762    56.776283  0.012162871  0.011564182            5 
  390000   0.64350163   -8.7102001    56.702382  0.012115894   0.01152169            6 
  391000   0.65225601   -8.7110987    56.767063  0.012098692  0.011479393            5 
  392000    0.6448531   -8.7261393    56.813047  0.012077603   0.01143722            9 
  393000   0.63236125   -8.7166921      56.7674  0.012037192  0.011395276            6 
  394000   0.62597409   -8.7194675    56.705313  0.011993509  0.011353447            4 
  395000   0.64962782   -8.7265197    56.639585   0.01194928  0.011311734            7 
  396000   0.63209146   -8.7318389    56.722769   0.01193661  0.011270278            6 
  397000   0.65333247   -8.7329073    56.714736  0.011904856  0.011228897            3 
  398000   0.62462585   -8.7242081    56.790216  0.011890749  0.011187791            6 
  399000   0.63512475   -8.7367003    56.743553  0.011851202  0.011146801            7 
  400000   0.64256596    -8.743316    56.641781  0.011800371  0.011106001           11 
  401000   0.63032808   -8.7407364    56.546213  0.011751083  0.011065296            8 
  402000   0.62717124   -8.7445802    56.675618  0.011748677  0.011024781            7 
  403000   0.62987189   -8.7501065    56.743278  0.011733515   0.01098449            5 
  404000    0.6270398   -8.7656194    56.688987  0.011693273  0.010944291            6 
  405000   0.62042604   -8.7513601    56.678332  0.011662208  0.010904214           11 
  406000   0.61650816    -8.737933    56.664641  0.011630674  0.010864275            6 
  407000   0.62675282   -8.7875739    56.646861  0.011598456  0.010824593            6 
  408000   0.61268115   -8.7844923    56.593256   0.01155908  0.010784999            3 
  409000   0.60508585   -8.7404032    56.654589  0.011543315  0.010745683            9 
  410000   0.61971724   -8.7627378    56.596537  0.011503361  0.010706484            5 
  411000   0.60389425   -8.7967954    56.586269  0.011473291  0.010667384            8 
  412000   0.61470129   -8.7765266    56.572253  0.011442608  0.010628439            5 
  413000   0.59788701   -8.7957231    56.478766  0.011396038  0.010589702            8 
  414000   0.61068603   -8.7833117    56.665107   0.01140602  0.010551136            7 
  415000   0.59921855   -8.7954683    56.677721  0.011381068  0.010512764            9 
  416000   0.59655211   -8.8031774    56.561044  0.011330337  0.010474496            7 
  417000   0.60978414   -8.7970893    56.488386  0.011288646    0.0104363            3 
  418000   0.60669718   -8.8088522    56.457716  0.011255526  0.010398331           10 
  419000   0.59330257   -8.7912262    56.641246  0.011265164  0.010360514            6 
  420000   0.58866108   -8.7864365    56.558768  0.011221978  0.010322908           14 
  421000   0.58442307   -8.7929721     56.43309  0.011170445  0.010285438           14 
  422000   0.60501844   -8.8054959    56.435751  0.011144501  0.010248084            7 
  423000   0.60375513   -8.8177013    56.462373  0.011123399  0.010210886            7 
  424000   0.58218288   -8.8112524    56.465865  0.011097851  0.010173809            4 
  425000   0.59734075   -8.8275503    56.331088  0.011045311    0.0101369           14 
  426000   0.58522396   -8.8231109    56.519329  0.011056207  0.010100067           23 
  427000   0.58435028   -8.8270651    56.389087  0.011004896  0.010063545           17 
  428000   0.57516468   -8.8304044     56.47078   0.01099509  0.010027085           15 
  429000   0.57546867    -8.830068    56.415562  0.010958734 0.0099908738           11 
  430000   0.58736074   -8.8311256    56.448309  0.010939595 0.0099547608           21 
  431000   0.58457061   -8.8496072    56.413626  0.010907507 0.0099187952           16 
  432000   0.57756909   -8.8505618    56.442042  0.010887739 0.0098828789            7 
  433000   0.58009121   -8.8635658    56.466276  0.010867259 0.0098472335           16 
  434000   0.57248146   -8.8422214    56.498347  0.010848377 0.0098117146           15 
  435000   0.56893847   -8.8507965    56.316243  0.010788552 0.0097763423           13 
  436000   0.57207361   -8.8639597    56.381115  0.010776207 0.0097410855           14 
  437000   0.56690178   -8.8612045    56.330499  0.010741895 0.0097059233           21 
  438000   0.56706456   -8.8658992    56.383803  0.010727512 0.0096709259           19 
  439000   0.55914173   -8.8606173    56.366057  0.010699707 0.0096360955           11 
  440000   0.56903381   -8.8652939    56.239935  0.010651503 0.0096013388           19 
  441000   0.55858722   -8.8579449    56.298982  0.010638508 0.0095667912           18 
  442000   0.57143716   -8.8682695      56.3245   0.01061925 0.0095324013           12 
  443000   0.56491416    -8.874173    56.283428  0.010587552 0.0094981737            4 
  444000   0.56081857   -8.8838587    56.282339  0.010563502 0.0094640241            7 
  445000   0.55008112   -8.8863029    56.330234  0.010548733 0.0094300136            9 
  446000   0.56792148   -8.8934575    56.342777  0.010527425 0.0093962026            9 
  447000   0.55362255   -8.8621738     56.26436  0.010489254 0.0093625159            7 
  448000   0.54586408   -8.8846499    56.192693   0.01045251  0.009328985           11 
  449000   0.55019405   -8.8897536    56.270104  0.010443598 0.0092956173            8 
  450000    0.5559128   -8.8947236    56.186168  0.010404846 0.0092622947           14 
  451000   0.54897674   -8.8905495    56.159703  0.010376885 0.0092292202            5 
  452000   0.53599621    -8.901561    56.179629  0.010357601  0.009196262           17 
  453000   0.55580532   -8.8869929    56.314033  0.010359461 0.0091635633           15 
  454000   0.54233754   -8.9167283    56.231445  0.010321484 0.0091310052            6 
  455000   0.54220582   -8.9021618    56.259251  0.010303892 0.0090985774           16 
  456000   0.52994228   -8.9248629    56.264637   0.01028228 0.0090663144            9 
  457000    0.5356338   -8.9172986    56.180484  0.010244435 0.0090341943           12 
  458000   0.53949451   -8.9057418    56.173204  0.010220743  0.009002187           15 
  459000   0.53614117   -8.9333285    56.257252  0.010213735 0.0089703328            9 
  460000   0.53287021   -8.8984371    56.152031  0.010172469 0.0089385074           12 
  461000   0.53407895    -8.932319    56.196483  0.010158439 0.0089069514            7 
  462000    0.5397005   -8.9185339    56.256763  0.010147324 0.0088755067           20 
  463000   0.52591663   -8.9206029    56.104889  0.010098072  0.008844162            8 
  464000   0.53393577   -8.9362563    56.056603  0.010067637 0.0088129444           16 
  465000   0.51980589   -8.9395763    56.058441  0.010046316 0.0087817953           10 
  466000   0.51982682   -8.9382116    56.159414  0.010042814 0.0087508677           12 
  467000    0.5178521   -8.9544558    56.168186  0.010022874 0.0087200941           19 
  468000   0.52138316   -8.9471029    56.163207  0.010000571  0.008689423           17 
  469000   0.52289734   -8.9483999    56.090276 0.0099662892 0.0086589096           17 
  470000   0.51465786   -8.9416764    56.137119 0.0099533898  0.008628557           12 
  471000   0.51563397    -8.959446    56.041507 0.0099153408 0.0085983478           13 
  472000   0.52123041   -8.9560658     56.10573 0.0099056727 0.0085682437           12 
  473000   0.50920142   -8.9587075    56.041633 0.0098734377 0.0085383784           12 
  474000    0.5048521   -8.9569654    56.091324 0.0098613438 0.0085086463           19 
  475000   0.51986241   -8.9473889    56.173213 0.0098549496 0.0084790614            8 
  476000   0.49780351   -8.9613385    56.173589 0.0098343117 0.0084496041           28 
  477000   0.51024971   -8.9665902    56.116601 0.0098037388   0.00842026           12 
  478000   0.51121463   -8.9697663    56.031091 0.0097683212 0.0083909868           18 
  479000   0.50622739   -8.9807025    56.092592 0.0097586276 0.0083618344           13 
  480000   0.51550062   -8.9946796    56.080685   0.00973623 0.0083328184           18 
  481000   0.48660386   -8.9825001    56.007802 0.0097033614 0.0083039508           23 
  482000   0.48132343   -8.9795092    56.096005 0.0096984794 0.0082752081            9 
  483000   0.49012306   -8.9915144    56.024294 0.0096660273 0.0082465447            6 
  484000   0.49636637   -8.9794877    56.089549 0.0096572916 0.0082180519           21 
  485000   0.49231558   -8.9861671    56.003256 0.0096225526 0.0081896648           11 
  486000   0.48511891   -9.0043905     55.99208 0.0096008368 0.0081613814            8 
  487000   0.49575182   -8.9977285     56.09564 0.0095988433 0.0081332679           14 
  488000   0.48851927   -8.9838763     55.99956 0.0095627664 0.0081052746           17 
  489000   0.48333655     -8.98721    56.068214 0.0095549104 0.0080774036           11 
  490000   0.48915407   -9.0149083    56.007119 0.0095250203 0.0080496648            8 
  491000   0.48628614   -9.0277882    55.947186  0.009495449 0.0080220182           15 
  492000   0.47463369   -8.9942065    55.981043 0.0094818839 0.0079944574            8 
  493000   0.48249752   -9.0295257    56.006084 0.0094668836 0.0079670456           14 
  494000    0.4655817   -9.0178995    56.032952 0.0094522524 0.0079397905           12 
  495000   0.48706188   -9.0137131     55.92219 0.0094145102 0.0079126017           20 
  496000   0.47661202   -9.0119666     56.02106 0.0094121405 0.0078855381           15 
  497000   0.48593639   -9.0344124    56.025786  0.009393995 0.0078585881           13 
  498000   0.47040205   -9.0270043    56.063048 0.0093813668 0.0078318185           15 
  499000   0.45784455   -9.0171164    56.005596 0.0093529719  0.007805152           13 
  500000    0.4645662   -9.0246419    55.928624 0.0093214374 0.0077785677           17 
  501000   0.46936611   -9.0278666    55.927894 0.0093027102 0.0077521323           19 
  502000   0.46842033   -9.0329137     56.05721 0.0093056457 0.0077258049           29 
  503000   0.46194445   -9.0388303    55.941567 0.0092679866  0.007699582           17 
  504000   0.46607851   -9.0297121    55.905375 0.0092436136 0.0076735035            9 
  505000   0.46507755   -9.0498449    55.911109 0.0092262556 0.0076475196           14 
  506000   0.45374289   -9.0350657    55.903088 0.0092067009 0.0076216053           14 
  507000   0.45442109   -9.0514237    55.844971 0.0091789894 0.0075958774           15 
  508000   0.45219191   -9.0506976    55.985012 0.0091838931 0.0075702776           10 
  509000   0.46785513   -9.0485909    55.932663 0.0091572794  0.007544739            9 
  510000   0.44953616   -9.0515215    55.852972 0.0091263026 0.0075193499           14 
  511000   0.45416132   -9.0648996    55.886902 0.0091139762 0.0074940465           12 
  512000   0.45905233   -9.0724678    55.832756 0.0090873626 0.0074688453           24 
Loop time of 1255.33 on 48 procs for 500000 steps with 4000 atoms

Performance: 68826.767 tau/day, 398.303 timesteps/s
99.4% CPU use with 48 MPI tasks x no OpenMP threads

MPI task timing breakdown:
Section |  min time  |  avg time  |  max time  |%varavg| %total
---------------------------------------------------------------
Pair    | 82.467     | 90.431     | 97.657     |  38.2 |  7.20
Neigh   | 8.2622     | 8.6835     | 9.389      |   7.0 |  0.69
Comm    | 80.931     | 86.955     | 95.836     |  38.2 |  6.93
Output  | 0.83917    | 0.83968    | 0.84895    |   0.1 |  0.07
Modify  | 1050.7     | 1056.2     | 1060.1     |   6.2 | 84.14
Other   |            | 12.23      |            |       |  0.97

Nlocal:        83.3333 ave          91 max          76 min
Histogram: 2 2 2 2 17 8 9 2 2 2
Nghost:        2240.62 ave        2253 max        2227 min
Histogram: 2 3 4 6 3 9 13 4 2 2
Neighs:        15038.0 ave       16435 max       13169 min
Histogram: 3 1 2 4 2 12 10 8 4 2
FullNghs:      30008.0 ave       32873 max       27510 min
Histogram: 2 0 5 9 11 12 4 3 1 1

Total # of neighbors = 1440384
Ave neighs/atom = 360.09600
Neighbor list builds = 26668
Dangerous builds = 0

#clear
#
#next RN
#
#jump SELF
Total wall time: 0:20:58
