
units lj                  # Use reduced LJ style units
atom_style atomic         # Uncharged point particles
atom_modify map hash      # Needed for indexing of clusters etc
                          # Used to be able to find where atoms are in relation to each other.

lattice fcc 1.0 spacing 1 1 1
Lattice spacing in x,y,z = 1.5874011 1.5874011 1.5874011
region box block 0 10 0 10 0 10 units lattice
create_box 2 box
Created orthogonal box = (0.0000000 0.0000000 0.0000000) to (15.874011 15.874011 15.874011)
  3 by 4 by 4 MPI processor grid
create_atoms 1 box
Created 4000 atoms
  using lattice units in orthogonal box = (0.0000000 0.0000000 0.0000000) to (15.874011 15.874011 15.874011)
  create_atoms CPU = 0.002 seconds
set type 1 type/fraction 2 0.8 78393
Setting atom values ...
  3188 settings made for type/fraction
mass 1 1.0
mass 2 1.0
pair_style lj/cut  3.5
pair_modify tail  yes
pair_coeff 1  1  1.0  1.0   # Intearaction between 1 and 1 set with epsilon = 1 and sigma = 1
pair_coeff 1  2  1.5  0.8
pair_coeff 2  2  0.5  0.88

write_data data.0
System init for write_data ...
Neighbor list info ...
  update every 1 steps, delay 10 steps, check yes
  max neighbors/atom: 2000, page size: 100000
  master list distance cutoff = 3.8
  ghost atom cutoff = 3.8
  binsize = 1.9, bins = 9 9 9
  1 neighbor lists, perpetual/occasional/extra = 1 0 0
  (1) pair lj/cut, perpetual
      attributes: half, newton on
      pair build: half/bin/atomonly/newton
      stencil: half/bin/3d
      bin: standard
WARNING: Not all mixed pair coeffs generated from mixing. Use write_data with 'pair ij' option to store all pair coeffs. (../write_data.cpp:312)


#############################
#   M E L T   S Y S T E M   #
#############################

velocity all create 2.4 8172548 mom yes dist gaussian # Assign velocities
                                                    # Temperature 2.4, random number seed, zero linear momentum
                                                                                # Gaussian distribution

timestep 0.002   # simulation timestep
thermo 1000       # output thermodynamic data every 1000 steps bf 100

# Define a fix  in this case with index 1 applied to all
# particles in the simulation. This fix is for simulations
# in the anisotropic NPT ensemble. Note that we use the MTK
# correction.
fix 1 all npt temp 2.4 2.4 0.1 iso 5.68 5.68 0.5 mtk yes tchain 5 pchain 5 # Use NPT ensemble
                                                                         # Set temperature and pressure and damping
                                                                         # Numbers of thermostats in chain and in barostat
run 10000          # run for 10000 steps
Per MPI rank memory allocation (min/avg/max) = 3.642 | 3.644 | 3.648 Mbytes
Step Temp E_pair E_mol TotEng Press Volume 
       0          2.4   -3.6981828            0 -0.099082777   -3.2752093         4000 
    1000    2.4124705   -3.0794429            0   0.53835817     5.880996    3756.5873 
    2000     2.375236   -3.0711574            0   0.49080599    5.5740604    3786.4841 
    3000    2.3862278   -3.0700236            0   0.50842336    5.6141478    3788.8292 
    4000    2.3678809   -3.0619187            0   0.48901469    5.7655755    3779.2987 
    5000    2.3745709   -3.0629962            0   0.49796968    5.6423637    3791.1399 
    6000    2.3439142   -3.0707008            0   0.44429161    5.5157817    3780.4822 
    7000    2.4201968   -3.0892229            0   0.54016468    5.7942715    3762.7323 
    8000    2.4417929   -3.0666081            0   0.59516565    5.8395651      3768.09 
    9000    2.3857851   -3.0356045            0   0.54217845    5.7058955    3801.0444 
   10000     2.393925   -3.0259738            0   0.56401601    5.7966401    3810.7089 
Loop time of 2.64029 on 48 procs for 10000 steps with 4000 atoms

Performance: 654473.041 tau/day, 3787.460 timesteps/s
99.5% CPU use with 48 MPI tasks x no OpenMP threads

MPI task timing breakdown:
Section |  min time  |  avg time  |  max time  |%varavg| %total
---------------------------------------------------------------
Pair    | 1.1524     | 1.2203     | 1.3418     |   3.1 | 46.22
Neigh   | 0.2116     | 0.22022    | 0.23512    |   0.9 |  8.34
Comm    | 0.8026     | 0.89129    | 0.98303    |   4.8 | 33.76
Output  | 0.00026649 | 0.00027087 | 0.00033309 |   0.0 |  0.01
Modify  | 0.24457    | 0.29244    | 0.34815    |   5.8 | 11.08
Other   |            | 0.01573    |            |       |  0.60

Nlocal:        83.3333 ave          92 max          74 min
Histogram: 2 1 7 3 6 11 7 6 3 2
Nghost:        1690.04 ave        1725 max        1668 min
Histogram: 6 3 12 8 5 5 1 6 1 1
Neighs:        10020.2 ave       11700 max        8669 min
Histogram: 4 2 7 6 10 9 6 1 0 3

Total # of neighbors = 480969
Ave neighs/atom = 120.24225
Neighbor list builds = 904
Dangerous builds = 163

# Equilibrate just above the melting temperature to avoid step fn in T

fix 1 all npt temp 1.25 1.25 0.1 iso 5.68 5.68 0.5 mtk yes tchain 5 pchain 5
run 2000
Per MPI rank memory allocation (min/avg/max) = 3.644 | 3.645 | 3.649 Mbytes
Step Temp E_pair E_mol TotEng Press Volume 
   10000     2.393925   -3.0259738            0   0.56401601    5.7966401    3810.7089 
   11000    1.2493163   -4.5385178            0   -2.6650118    5.6669252     2911.219 
   12000    1.2569475   -4.5531073            0   -2.6681575    5.6129467    2897.7112 
Loop time of 0.640031 on 48 procs for 2000 steps with 4000 atoms

Performance: 539974.256 tau/day, 3124.851 timesteps/s
99.6% CPU use with 48 MPI tasks x no OpenMP threads

MPI task timing breakdown:
Section |  min time  |  avg time  |  max time  |%varavg| %total
---------------------------------------------------------------
Pair    | 0.28814    | 0.31301    | 0.34489    |   2.3 | 48.91
Neigh   | 0.040757   | 0.043036   | 0.046049   |   0.6 |  6.72
Comm    | 0.19861    | 0.2337     | 0.2642     |   3.0 | 36.51
Output  | 5.1962e-05 | 5.2915e-05 | 6.5829e-05 |   0.0 |  0.01
Modify  | 0.041527   | 0.045338   | 0.049509   |   1.0 |  7.08
Other   |            | 0.004891   |            |       |  0.76

Nlocal:        83.3333 ave          90 max          74 min
Histogram: 1 1 1 5 5 12 11 4 4 4
Nghost:        2045.85 ave        2060 max        2028 min
Histogram: 1 1 2 4 11 10 10 3 3 3
Neighs:        13185.4 ave       14884 max       11287 min
Histogram: 1 3 4 4 8 10 9 3 5 1

Total # of neighbors = 632897
Ave neighs/atom = 158.22425
Neighbor list builds = 143
Dangerous builds = 19

#############################
# L I N E A R  Q U E N C H  #
#############################

# Define solid atoms. This closely follows ten Wolde  Ruiz-Montero and Frenkel  Faraday Discuss  1996  104  93-110
# Compute components of the per-atom q6 vector
compute q6 all orientorder/atom degrees 1 6 components 6 nnn NULL cutoff 1.3 # compute the Q6 parameter.
                                                                             # Use all neighbours within 1.3 unit cell.

# get number of connections
compute coord_number all coord/atom orientorder q6 0.5

# An atom is solid if it has 8 or more connections (of a possible 14)
variable is_solid atom c_coord_number>=8
group solid dynamic all var is_solid    # Must be dynamic to update
dynamic group solid defined

# do clustering
compute cluster solid cluster/atom 1.3 # Create a cluster where all atoms within are solid and max 1.3 units from another member

# define chunks one chunk per cluster
compute clus_chunks solid chunk/atom c_cluster nchunk every compress yes  # Says which atoms are in which chunk

# count the size of each chunk
compute size_chunks solid property/chunk clus_chunks count


# Find the maximum entry in the vector of chunk sizes
variable max_n equal max(c_size_chunks)


# Thermo style which includes this variable
# thermo_style custom step temp pe vol v_max_n

thermo ${N}  # Print the thermo information every 100 steps
thermo 1000  

# Reset the npt fix at a lower temperature (below freezing)
fix 1  all npt temp  ${temp} ${temp}  0.1  iso  5.68  5.68  0.5  mtk yes tchain  5  pchain  5
fix 1  all npt temp  0.45 ${temp}  0.1  iso  5.68  5.68  0.5  mtk yes tchain  5  pchain  5
fix 1  all npt temp  0.45 0.45  0.1  iso  5.68  5.68  0.5  mtk yes tchain  5  pchain  5

dump dmp2 all dcd ${N} traj.dcd
dump dmp2 all dcd 1000 traj.dcd


compute msd all msd com yes
variable twopoint equal c_msd[4]/6/(step*dt+1.0e-6)
fix 9 all vector 10 c_msd[4]
variable fit equal slope(f_9)/6/(10*dt)
thermo_style custom step temp pe c_msd[4] v_twopoint v_fit v_max_n

fix 1 all npt temp 1.25 ${temp} 0.1 iso 5.68 5.68 0.5 mtk yes tchain 5 pchain 5
fix 1 all npt temp 1.25 0.45 0.1 iso 5.68 5.68 0.5 mtk yes tchain 5 pchain 5
run 2000000 # 5000000  # Run for this many steps
Neighbor list info ...
  update every 1 steps, delay 10 steps, check yes
  max neighbors/atom: 2000, page size: 100000
  master list distance cutoff = 3.8
  ghost atom cutoff = 3.8
  binsize = 1.9, bins = 8 8 8
  4 neighbor lists, perpetual/occasional/extra = 1 3 0
  (1) pair lj/cut, perpetual
      attributes: half, newton on
      pair build: half/bin/atomonly/newton
      stencil: half/bin/3d
      bin: standard
  (2) compute orientorder/atom, occasional
      attributes: full, newton on
      pair build: full/bin/atomonly
      stencil: full/bin/3d
      bin: standard
  (3) compute coord/atom, occasional
      attributes: full, newton on
      pair build: full/bin/atomonly
      stencil: full/bin/3d
      bin: standard
  (4) compute cluster/atom, occasional
      attributes: full, newton on
      pair build: full/bin/atomonly
      stencil: full/bin/3d
      bin: standard
Per MPI rank memory allocation (min/avg/max) = 9.837 | 9.842 | 9.848 Mbytes
Step Temp PotEng c_msd[4] v_twopoint v_fit v_max_n 
   12000    1.2569475   -4.5531073 1.867431e-30 1.296827e-32 8.3333333e+20            1 
   13000    1.2619284   -4.5138398   0.80867615 0.0051838213  0.067918116            2 
   14000    1.2252083    -4.532983    1.6310523 0.0097086441  0.069150955            1 
   15000    1.2566661   -4.5285279     2.459199  0.013662216  0.068182977            1 
   16000    1.2397814   -4.5116087    3.3001609  0.017188338  0.068475501            2 
   17000    1.2281187    -4.519373    4.0851056  0.020025027  0.068548562            4 
   18000    1.2393507    -4.554163    4.8777614  0.022582228  0.068560089            2 
   19000    1.2575933   -4.5448891    5.5576986   0.02437587  0.067638519            1 
   20000    1.2398817   -4.5358958    6.2915798  0.026214915  0.066522492            3 
   21000    1.2279304     -4.51057    7.0657673  0.028038758  0.065644512            2 
   22000    1.2595309   -4.5325319    7.8699129  0.029810276  0.065212741            3 
   23000    1.2434631   -4.5880613    8.7491405  0.031699784  0.065260328            2 
   24000    1.2354577   -4.5660866    9.5467036  0.033148276  0.065437167            2 
   25000    1.2643195    -4.542652    10.310026  0.034366753  0.065547989            3 
   26000    1.2583627   -4.5390361    10.933189  0.035042272  0.065376171            3 
   27000    1.2410273   -4.5340929    11.744058  0.036247093  0.065141354            1 
   28000    1.2386159   -4.5728354    12.692205  0.037774417  0.065116607            2 
   29000    1.2478146   -4.5422937    13.459452  0.038676584   0.06528407            1 
   30000    1.2513576   -4.5584357    14.039931  0.038999808   0.06519073            1 
   31000     1.264586    -4.557959    14.741818  0.039628543   0.06499993            1 
   32000    1.2478549   -4.5493121    15.642121   0.04073469  0.064864185            3 
   33000    1.2247115   -4.5448643    16.490749  0.041643306  0.064855598            2 
   34000    1.2134476   -4.5442371    17.413419  0.042679947  0.064899718            2 
   35000    1.2417316   -4.5534778    18.281108  0.043526446   0.06509712            1 
   36000    1.2378136   -4.5459125    19.238265  0.044533021  0.065391031            2 
   37000    1.2565203   -4.5573882    20.125797   0.04532837  0.065649059            3 
   38000    1.2582491   -4.5411285    20.987722  0.046025706   0.06598483            2 
   39000    1.2445384   -4.5361142    21.836161  0.046658464  0.066265883            5 
   40000    1.2080757   -4.5349678    22.556205  0.046992094   0.06646834            1 
   41000    1.2569295   -4.5393113    23.279801  0.047316668  0.066606888            1 
   42000    1.2453301   -4.5049989    24.124044  0.047865166  0.066676042            2 
   43000    1.2453515    -4.518787    24.790082  0.048042794  0.066693563            1 
   44000    1.2412015   -4.5434871    25.615614   0.04851442  0.066697838            1 
   45000    1.2305519   -4.5708722    26.478505  0.049034268  0.066707197            1 
   46000    1.2415152    -4.536867    27.364148  0.049572731  0.066789253            3 
   47000    1.2377251   -4.5350229    28.159946  0.049928981  0.066881629            2 
   48000    1.2309107   -4.5697672    28.939114  0.050241516  0.066916784            2 
   49000    1.2280887   -4.5638102    30.134673  0.051249444  0.067001618            2 
   50000     1.206072   -4.5270449    31.110571  0.051850951  0.067186458            5 
   51000    1.2194683   -4.5780147    31.633408  0.051688575  0.067334206            3 
   52000    1.2074619   -4.5294353    32.660082  0.052339874  0.067428278            2 
   53000    1.2386593   -4.5586681    33.283394   0.05233238  0.067519924            2 
   54000    1.2480035   -4.5952746    34.241627  0.052842017  0.067640415            2 
   55000    1.2120046   -4.5809228    35.107721  0.053193517  0.067768625            2 
   56000    1.2134303   -4.5590948     36.08937  0.053704418   0.06786259            2 
   57000    1.2195868   -4.5387951    36.724108  0.053690215  0.067957098            2 
   58000    1.2303601   -4.5661124    37.633856  0.054071632  0.068056546            1 
   59000    1.2284117   -4.5852282    38.343174  0.054157025  0.068125168            2 
   60000    1.2312164   -4.5287167    39.260359  0.054528276    0.0681774            1 
   61000    1.2373665   -4.5822559    39.637594  0.054149718  0.068203127            1 
   62000    1.2292661   -4.5629378    40.353593  0.054238699  0.068193411            1 
   63000    1.2272819   -4.5730598    41.224326  0.054529531  0.068169023            2 
   64000    1.2300533    -4.578757    41.971536  0.054650438  0.068150071            2 
   65000    1.2173073   -4.6041186    42.917168   0.05502201  0.068122536            2 
   66000    1.2504008   -4.5951782    43.449028  0.054859884  0.068092535            2 
   67000    1.2396758   -4.5643166    44.017809  0.054748518  0.068010927            2 
   68000    1.2388352   -4.5649858    44.912905  0.055040325  0.067903776            2 
   69000    1.2457353   -4.5532605    45.144355  0.054522167  0.067793346           10 
   70000    1.2089627    -4.580016    46.127002  0.054913097  0.067681192            1 
   71000    1.2151551    -4.597962    47.058968   0.05523353  0.067581065            3 
   72000    1.2399461   -4.5415555    48.239307  0.055832531  0.067521421            1 
   73000     1.228411   -4.5902893    48.745238  0.055645249  0.067468385            1 
   74000    1.2528735   -4.5529502    49.790342  0.056070205  0.067409282            1 
   75000    1.1926632   -4.5695843    50.577947  0.056197718  0.067360179            1 
   76000    1.2165988   -4.5823386     51.27851  0.056226437  0.067335511            4 
   77000    1.1927683   -4.5497843     52.23182  0.056527944  0.067308188            2 
   78000    1.1929737   -4.5619123     52.80713  0.056417874  0.067268514            4 
   79000    1.2231196   -4.5888978    53.863044  0.056817556  0.067226612            2 
   80000     1.232542   -4.5817937    54.654531  0.056931802  0.067195734            1 
   81000    1.2069874   -4.5152973    55.400941  0.056996853  0.067186176            3 
   82000    1.2124927   -4.5970586    56.127637  0.057040281  0.067194928            2 
   83000    1.2342237   -4.5695938    57.286152  0.057516216  0.067202595            1 
   84000    1.2220274   -4.5992409    58.027249  0.057566715  0.067215391            2 
   85000    1.2073808   -4.5500627     59.16667  0.058006539  0.067221602            2 
   86000    1.2402131   -4.5696516    59.968691  0.058109196  0.067243229            4 
   87000    1.2125776   -4.6010738    60.482101  0.057933046  0.067256422            6 
   88000    1.2340375   -4.6081829    61.164231  0.057920673   0.06726431            3 
   89000    1.2424249   -4.5811281     61.76923  0.057836357  0.067254511            1 
   90000    1.2104142   -4.5812413    62.529872  0.057898029  0.067230183            2 
   91000    1.2215071   -4.6088559    63.210595   0.05788516  0.067206428            5 
   92000    1.2253564   -4.5735306    63.899885   0.05788033  0.067172719            3 
   93000    1.2187526   -4.5695277    64.978844  0.058224771  0.067152781            2 
   94000    1.1610658   -4.5906515    65.505226  0.058072009  0.067126742            2 
   95000    1.2080184   -4.6062951    66.177919  0.058050806   0.06708666            3 
   96000     1.215827   -4.6065825    66.981715  0.058143849  0.067045776            4 
   97000    1.2389133   -4.5850923    67.737681  0.058193883  0.067004547            4 
   98000    1.2313706   -4.5947143    68.687055   0.05840736  0.066967164            1 
   99000    1.2154985   -4.6302514    69.330151  0.058358713  0.066917615            2 
  100000    1.1909508   -4.6185218    69.517202  0.057931002  0.066870822            1 
  101000    1.2163825   -4.5931461     70.79344  0.058410429  0.066827141            3 
  102000    1.2370333   -4.6124009    71.605872  0.058501529  0.066783095            1 
  103000     1.227983   -4.5690423    72.301503  0.058496362  0.066740587            1 
  104000    1.2056817   -4.6119062    72.927609  0.058435584  0.066698653            2 
  105000     1.224078   -4.5834068    74.021737   0.05874741  0.066665698            2 
  106000    1.2154486   -4.6157965    74.690207  0.058718716  0.066630846            3 
  107000    1.2197787   -4.6232035    75.345667  0.058680426  0.066602514            1 
  108000    1.1827904   -4.5755707    76.222312  0.058813512  0.066573298            1 
  109000     1.226618   -4.5757623    77.185369  0.059010221  0.066550126            3 
  110000    1.2298148   -4.6364072    78.081984  0.059153018  0.066524696            2 
  111000    1.1904179   -4.6370585    78.544139  0.058967071   0.06649083            5 
  112000     1.201082   -4.6310397    79.596482  0.059223572  0.066456047            4 
  113000     1.192043   -4.6017532    80.071445  0.059049738  0.066429582            2 
  114000    1.1944336   -4.5864355    80.983572  0.059198517  0.066405923            3 
  115000    1.2242689   -4.6467225      81.5634  0.059103913  0.066385222            2 
  116000    1.2287896   -4.6561884    82.152545  0.059017633  0.066351824            1 
  117000    1.2061449   -4.6171703    83.507128  0.059478011  0.066331355            2 
  118000    1.2153461   -4.6066522     84.67973  0.059802069  0.066318362            2 
  119000    1.2062411   -4.6220132    84.448962  0.059137928  0.066305376            3 
  120000    1.2062319    -4.587229     86.00402  0.059725014  0.066282712            5 
  121000    1.2087965   -4.5842898     86.79554  0.059776543  0.066259475            2 
  122000    1.2061177   -4.5982024    87.182609  0.059550962  0.066234949            2 
  123000    1.1989692   -4.6088814    87.461579  0.059255812  0.066208726            2 
  124000    1.2095886   -4.6433675    88.049139  0.059172808  0.066177304            3 
  125000    1.2022905   -4.6203596    89.178924  0.059452616  0.066144004            2 
  126000    1.2093046   -4.6142489    90.290565  0.059715982  0.066116993            3 
  127000    1.2141791   -4.6338677    91.181017  0.059830064   0.06609851            2 
  128000    1.2095113   -4.6087862    92.167463  0.060004859  0.066087048            4 
  129000    1.2142372   -4.5959383    93.053425  0.060112031  0.066082512            2 
  130000    1.1885491   -4.5803819    94.041479  0.060282999   0.06608781            1 
  131000    1.2197865   -4.6599178    94.530233  0.060133736  0.066089124            2 
  132000    1.2022257   -4.5976742    95.566845  0.060332604  0.066090933            2 
  133000    1.2207648   -4.6196792    96.804121  0.060654211  0.066098868            3 
  134000    1.1878937    -4.608086    97.771999  0.060803482  0.066108489            1 
  135000     1.199949    -4.598533    97.753492  0.060341662  0.066110796            1 
  136000    1.1922826   -4.5766253     98.69693   0.06047606  0.066105989            6 
  137000    1.1969193   -4.6379752    98.630026  0.059993933  0.066095027            2 
  138000    1.2051671   -4.6469573    99.333999  0.059984298  0.066074582            4 
  139000    1.1758021   -4.6160782    100.80198  0.060432839  0.066057441            2 
  140000    1.1933792    -4.643071    101.10892  0.060183878  0.066043579            2 
  141000    1.2036289    -4.601325    102.37814  0.060507174  0.066028035            2 
  142000    1.1876821   -4.6098381    103.39221   0.06067618  0.066015553            6 
  143000    1.2219183   -4.6290301    103.86247  0.060525916  0.066008671            1 
  144000    1.1780556   -4.6398062     104.6588  0.060566435  0.066000019            1 
  145000    1.2365727   -4.6332529    105.21667  0.060469352  0.065988178            6 
  146000    1.1995688   -4.6173612    106.23617  0.060637084    0.0659748            5 
  147000    1.2251862    -4.624557    106.96245  0.060636312  0.065964354            1 
  148000    1.2175789   -4.6671564    107.16837  0.060342553  0.065954088            2 
  149000    1.2018063   -4.5783191    108.50908  0.060687402  0.065939876            2 
  150000    1.1669585   -4.6228202    108.79572  0.060442067   0.06592824            2 
  151000    1.1966929   -4.6216703      109.628  0.060501101  0.065912727            2 
  152000    1.2054995   -4.6316025    110.07879  0.060350212  0.065895342            2 
  153000    1.1657992   -4.6434407    111.17881  0.060554905  0.065879616            1 
  154000    1.1774754   -4.6571778    111.60682  0.060393303  0.065862168            1 
  155000    1.1788582   -4.6376588      112.487  0.060476884  0.065834792            4 
  156000    1.1966095   -4.6434364    113.61072  0.060689486  0.065807531            3 
  157000    1.1755403   -4.6162093    113.82883  0.060418699  0.065780186            2 
  158000    1.1951442   -4.6562351    114.24119  0.060253793  0.065753239            1 
  159000    1.2146601   -4.6118028    115.02835  0.060287395  0.065721452            2 
  160000    1.1841447   -4.6433965    115.93458  0.060382593  0.065684901            3 
  161000    1.1861476   -4.6122595    116.65793  0.060381949  0.065652545            3 
  162000    1.1886747   -4.6528722    117.25734  0.060317561  0.065623923            2 
  163000    1.1976604   -4.6408381    117.77407  0.060211691  0.065589817            3 
  164000     1.178496   -4.6197186    118.17924  0.060050426  0.065546251            2 
  165000    1.2214692   -4.6244107    118.86403  0.060032338  0.065499546            2 
  166000    1.2065921   -4.6468652    120.25627  0.060369613   0.06546008            1 
  167000     1.182864   -4.6220969    120.91004   0.06033435  0.065421048            2 
  168000    1.1906041   -4.6539713    120.92065  0.059980483  0.065377621            1 
  169000    1.1824516   -4.6166189    121.92588  0.060121241  0.065341172            4 
  170000    1.1875695   -4.6616015    122.67352   0.06013408  0.065303978            3 
  171000     1.208207   -4.6256672    123.50139  0.060185861  0.065268082            3 
  172000    1.2137709   -4.6615595    123.68675  0.059925749  0.065231613            2 
  173000    1.1894636     -4.63546    125.27256  0.060343236   0.06519397            3 
  174000    1.1974918   -4.6354712    125.61595  0.060160894  0.065159211            2 
  175000     1.206501   -4.6224808    125.69517  0.059854842  0.065123889            2 
  176000    1.1963402   -4.6802522    126.10373  0.059708205  0.065076816            3 
  177000    1.1934888   -4.6441307    128.04912   0.06028678  0.065029782            1 
  178000     1.184056   -4.6478996    128.17076  0.060005036  0.064986989            1 
  179000    1.1763138   -4.6328141    128.48111  0.059814299  0.064941906            1 
  180000    1.1857133   -4.6899788    129.45789  0.059934207  0.064901783            1 
  181000    1.1833958   -4.6282581    130.40074  0.060037173   0.06486139            1 
  182000    1.1835872   -4.6809664    130.82857  0.059903189  0.064823163            3 
  183000    1.1858215   -4.6303379    131.85317  0.060042428  0.064782916            4 
  184000    1.1889958   -4.6017514    132.88342   0.06018271  0.064749618            1 
  185000    1.1740885   -4.6576929    133.38408   0.06008292  0.064714912            1 
  186000    1.1799517    -4.643272     133.8319  0.059960527  0.064680602            3 
  187000    1.1775802   -4.6306115    134.45058  0.059915587  0.064639066            3 
  188000     1.168777   -4.6563769     135.0463  0.059860949  0.064593798            5 
  189000    1.2019744   -4.6596797    135.85877  0.059902454   0.06454828            5 
  190000    1.1610314   -4.6502847    136.76041  0.059982634  0.064507571            2 
  191000    1.1790351   -4.6484569    137.25421  0.059884034  0.064469264            2 
  192000    1.1771208   -4.6932199    137.42725  0.059647243  0.064428552            1 
  193000    1.1711843    -4.602803    139.89346  0.060403048  0.064393517            2 
  194000    1.1613663   -4.6460301    139.59382  0.059962981  0.064356918            3 
  195000    1.1530299   -4.6093469    140.36663  0.059985741  0.064319126            1 
  196000    1.1492043   -4.6465551    140.28815  0.059646324  0.064275833            2 
  197000    1.1725736   -4.6620916    140.48203   0.05942556  0.064229237            1 
  198000    1.1629264   -4.6468228    141.68998  0.059633829  0.064182193            2 
  199000    1.1515533   -4.6521627    142.75434  0.059779873   0.06413863            2 
  200000    1.1879629   -4.6818112    142.78388  0.059493281  0.064090076            2 
  201000    1.1750351   -4.7086402    142.89424   0.05924305  0.064039947            2 
  202000    1.1913943   -4.6740792    143.74509  0.059300779  0.063988398            2 
  203000    1.1897624   -4.6084179    145.49439  0.059726763  0.063940456            2 
  204000    1.1693839   -4.6614527    145.29158  0.059351137  0.063891608            2 
  205000    1.1734874   -4.6445652    146.19376  0.059428356  0.063843805            3 
  206000    1.1501608   -4.7133008    145.66511  0.058926015  0.063793888            1 
  207000     1.160678   -4.6790006    147.30576  0.059301837  0.063741869            4 
  208000    1.1770356   -4.6765868     148.5763  0.059525761  0.063696418            2 
  209000    1.1462019   -4.6698673    149.19547  0.059487827  0.063649168            2 
  210000    1.1861099   -4.6686332    149.16365  0.059191925  0.063602597            3 
  211000    1.1802208   -4.7139945      149.264  0.058951027  0.063552979            2 
  212000    1.2075988   -4.6805774    150.09255  0.058998642  0.063500683            2 
  213000    1.1655399   -4.6852203    151.01479  0.059082468  0.063448484            3 
  214000    1.1830168   -4.7030389    151.66838  0.059060895  0.063397828            1 
  215000    1.1770508   -4.6791462    152.19454  0.058990131  0.063350606            3 
  216000    1.1740822   -4.6628426    152.27144  0.058746699  0.063305433            2 
  217000    1.2000581   -4.7182031    153.87877  0.059093229  0.063255869            1 
  218000    1.1539619   -4.7259522    154.92567  0.059222351  0.063210284            2 
  219000    1.1631453   -4.6846334    155.55394  0.059190995  0.063169161            6 
  220000    1.1787858    -4.698138     156.4742  0.059270529  0.063129085            2 
  221000    1.1417634   -4.6496836    157.54052  0.059404418  0.063090573            1 
  222000    1.1610786   -4.6596704    158.02459   0.05931854  0.063051891            3 
  223000    1.1562676   -4.7046805    157.76191  0.058954375  0.063014345            4 
  224000    1.1803463   -4.6889766    159.85098  0.059468371  0.062972487            2 
  225000     1.156152   -4.6748494    159.54161  0.059089484  0.062933626            1 
  226000    1.1620458   -4.6463656    161.37777  0.059505076  0.062896724            1 
  227000    1.1605754   -4.6692222    161.36017   0.05923648  0.062858906            2 
  228000    1.1771123    -4.697088    161.72601  0.059110383  0.062821933            3 
  229000    1.1615327   -4.6872386    162.44622  0.059114344  0.062784324            3 
  230000    1.1478585   -4.7152634    162.99609  0.059056553  0.062746801            2 
  231000    1.1757278   -4.7056784    164.57022  0.059368766  0.062713179            2 
  232000    1.1529261   -4.6915875    165.51362  0.059451733  0.062680438            2 
  233000    1.1808999   -4.6314568    167.05641  0.059748358  0.062651184            2 
  234000    1.1685688   -4.6720251    166.62995  0.059341151  0.062624069            2 
  235000    1.1531052   -4.6884884    166.88049  0.059177477    0.0625943            2 
  236000     1.148488   -4.6841735    168.15876  0.059378091  0.062565724            2 
  237000    1.1966382   -4.7043471    168.99488  0.059421547  0.062536436            3 
  238000    1.1706798   -4.6937199    169.41418   0.05931869  0.062505063            2 
  239000    1.1449521   -4.7023108    170.25233  0.059362735  0.062476632            3 
  240000    1.1655725   -4.7130673    170.70405  0.059272239  0.062447659            3 
  241000    1.1663417   -4.6858608    171.42613  0.059275979  0.062416387            3 
  242000    1.1465287    -4.682567     172.8633  0.059525928  0.062387692            2 
  243000    1.1411879   -4.7047859     172.7179  0.059231103  0.062359374            5 
  244000    1.1565268   -4.7402466    173.20075  0.059153262   0.06233154            4 
  245000     1.149619   -4.6838276    174.56685  0.059376479  0.062302578            2 
  246000    1.1322549   -4.6721716    175.35006  0.059400425  0.062274638            1 
  247000    1.1416565   -4.7082107    175.78746  0.059307509  0.062245105            3 
  248000    1.1538303   -4.6811824     176.6101  0.059344791  0.062216988            3 
  249000    1.1303079   -4.7071818    176.75624  0.059155368  0.062189252            2 
  250000    1.1656194   -4.7113032    177.34358  0.059114528  0.062160151            2 
  251000    1.1642122   -4.7117628    178.21968  0.059169881   0.06213065            2 
  252000    1.1642482   -4.6812706    179.30333   0.05929343  0.062102829            2 
  253000    1.1538255   -4.6975277     180.2771  0.059379808  0.062078449            2 
  254000    1.1864852   -4.7117556    180.16472  0.059109159  0.062052974            2 
  255000    1.1487974   -4.7187749    181.07074  0.059173445  0.062027024            7 
  256000    1.1482456   -4.7048446    182.70684  0.059474883  0.062003874            5 
  257000    1.1577459   -4.7167614    183.30304  0.059436784  0.061980591            2 
  258000    1.1278081   -4.6980375    184.21993   0.05950256  0.061960888            5 
  259000    1.1543749    -4.692112    185.19795  0.059587499  0.061943934            3 
  260000    1.1488631   -4.7360568    185.17183  0.059349947  0.061925834            6 
  261000    1.1538355   -4.6898335    186.09426   0.05941707   0.06191041            8 
  262000    1.1192442   -4.7359539    186.82959  0.059424168  0.061891786            5 
  263000    1.1495427   -4.7178457    187.00109  0.059252564  0.061869404            1 
  264000    1.1407563   -4.6899559    187.76487  0.059269214  0.061847704            3 
  265000    1.1416683   -4.7215803    188.19487  0.059180776  0.061825728            3 
  266000    1.1490066   -4.6966969    189.16873  0.059263385  0.061801762            3 
  267000    1.1490923   -4.7167154    188.31048  0.058773559  0.061774074            2 
  268000    1.1407489   -4.6835763    190.62033  0.059272489    0.0617481            2 
  269000     1.154617    -4.745898    189.88099  0.058823108  0.061720699            2 
  270000    1.1810806   -4.7328644    190.68189  0.058852437  0.061694035            3 
  271000    1.1650112   -4.6880788    192.42744   0.05917203  0.061668912            2 
  272000    1.1333284   -4.7349611    193.42839  0.059261148  0.061644506            3 
  273000    1.1535069   -4.7304094    193.70385  0.059128159  0.061622036            1 
  274000    1.1543076   -4.7270559    193.81138  0.058945066  0.061598267            3 
  275000    1.1487506   -4.7278476    194.88321  0.059055519  0.061572763            2 
  276000    1.1602064   -4.7519598    194.79727    0.0588156  0.061547335            3 
  277000    1.1442503   -4.7327974    195.22204   0.05873106   0.06152035            2 
  278000    1.1462962   -4.7149203    196.12141  0.058789393  0.061494159            2 
  279000    1.1434775    -4.730975    197.24325  0.058913754  0.061466907            4 
  280000    1.1554489   -4.6859605    198.10872   0.05896093  0.061440938            4 
  281000     1.123178   -4.7288722    198.45711  0.058854423  0.061414107            1 
  282000     1.133912   -4.7147078    198.77398  0.058739356  0.061385549            2 
  283000    1.1290311    -4.735964    199.91525  0.058867858  0.061358413            2 
  284000    1.1522266   -4.7212112    199.78066  0.058621085  0.061331679            4 
  285000    1.1517479    -4.724087    200.94521  0.058755909  0.061306589            1 
  286000    1.1506707   -4.7162118    202.01777  0.058862986  0.061281661            5 
  287000    1.1278562   -4.7144756     202.3983  0.058768379  0.061257099            2 
  288000    1.1667574   -4.7332566    203.98535   0.05902354  0.061234252            4 
  289000    1.1508612   -4.7536193    203.23875  0.058604022  0.061210366            4 
  290000    1.1248293   -4.7464915    205.56437   0.05907022   0.06118739            2 
  291000    1.1640155   -4.7328346    205.68434  0.058901587  0.061166341            2 
  292000    1.1416276   -4.7021007    207.29143  0.059158513  0.061144599            1 
  293000     1.140635   -4.7550543    206.69959   0.05878828  0.061122905            2 
  294000    1.1237173   -4.7285393    206.53452  0.058541531  0.061098636            5 
  295000    1.1442154   -4.7377157    207.39582  0.058586389  0.061075797            5 
  296000    1.1438883   -4.7519957    208.59045  0.058724787  0.061053514            3 
  297000     1.126369   -4.7283534    210.02102  0.058928457  0.061031797            3 
  298000    1.1235791   -4.7288415    210.42819  0.058844572  0.061010697            3 
  299000    1.1332877   -4.7052689    211.56654  0.058965032  0.060991001            2 
  300000    1.1263818   -4.7464136    210.33712  0.058426978  0.060968224            4 
  301000     1.130173    -4.730389    211.74441  0.058622484  0.060947006            3 
  302000    1.1124122   -4.7311012     213.5786  0.058934493  0.060926976            3 
  303000    1.1107266   -4.7326762    213.35823  0.058679382   0.06090638            3 
  304000    1.1483385   -4.7278958    214.68297  0.058849499  0.060884864            3 
  305000    1.1350221   -4.7484815    214.80486  0.058689853  0.060862375            4 
  306000    1.1284906   -4.7085839    214.72367  0.058475944  0.060841521            2 
  307000    1.1406047   -4.7596278    215.20083  0.058414991  0.060817533            4 
  308000     1.121634   -4.7210458    217.53308  0.058856353  0.060793106            2 
  309000    1.1206564   -4.7469207     216.7271  0.058448516  0.060768866            3 
  310000    1.1368986   -4.7467481    217.70835  0.058523749  0.060744377            2 
  311000    1.1288818   -4.7492217    218.94534  0.058667024    0.0607197            2 
  312000     1.140851   -4.7425573    218.48502   0.05835604  0.060694366            3 
  313000    1.1329476   -4.7299827    219.46895  0.058431563  0.060667432            2 
  314000    1.1554203   -4.7409884    220.49677  0.058518251  0.060642445            4 
  315000    1.1219086   -4.7725264     220.4633  0.058323624  0.060617076            3 
  316000    1.1497526   -4.7699782    221.55824  0.058427807   0.06059278            2 
  317000    1.1290162   -4.7757461    221.56096  0.058244206    0.0605668            1 
  318000    1.1217707   -4.7347895    222.58848  0.058330313  0.060541528            2 
  319000    1.1439028   -4.7549002    222.48265  0.058119814  0.060516723            3 
  320000    1.1303872   -4.7548824    223.31511  0.058154975  0.060489243            2 
  321000    1.1179593   -4.7556655    224.48363  0.058277162  0.060462326            3 
  322000    1.1127753   -4.7387696    224.43291  0.058083051  0.060434508            5 
  323000    1.1211513   -4.7768478    224.52809  0.057927785  0.060406935            2 
  324000    1.1197935   -4.7401533    225.93278  0.058110282  0.060380134            2 
  325000    1.1015068    -4.759808     227.8824  0.058431384  0.060355046            3 
  326000    1.1277556   -4.7380831    227.62773  0.058187047  0.060327312            6 
  327000    1.1734858   -4.7716218    227.37783  0.057945419   0.06029988            2 
  328000    1.1103575    -4.741116    228.81595  0.058134133  0.060273706            3 
  329000    1.1012907   -4.7438322    230.20455  0.058309155  0.060246806            2 
  330000    1.0946445    -4.767987    230.27224  0.058149557     0.060221            2 
  331000    1.1409879   -4.7712693    230.74564   0.05809306  0.060197291            2 
  332000    1.1373455   -4.7558872    231.05574  0.057995918  0.060172811            3 
  333000    1.0988322   -4.7207436    232.42568  0.058164583  0.060148315            6 
  334000    1.1344235     -4.77925    233.88285  0.058354005  0.060123762            2 
  335000    1.1200255   -4.7718916    233.62579  0.058115868   0.06010013            6 
  336000    1.1334786   -4.7777948    234.00282  0.058036414  0.060076853            2 
  337000    1.1114733   -4.7768446    234.09289  0.057886471  0.060052646            5 
  338000    1.1140989   -4.7586327    235.10489  0.057964716  0.060029459            5 
  339000    1.1179159   -4.7580351    235.69445  0.057938656  0.060005019            3 
  340000    1.1384655   -4.7795183    236.85176  0.058051902  0.059981642            2 
  341000    1.0908692   -4.7931431     236.3075  0.057748655  0.059957354            2 
  342000    1.1098347   -4.7660823    238.48104  0.058109416  0.059934862            3 
  343000    1.1065854   -4.7769352     238.1275  0.057854107  0.059912308            4 
  344000    1.0988288   -4.7458534    240.02007  0.058144397    0.0598894            3 
  345000    1.0918643   -4.7679129    239.97849  0.057965819  0.059866079            2 
  346000    1.1122311   -4.7331359    241.57773  0.058183462  0.059843315            2 
  347000    1.1087203   -4.7603605    241.50059   0.05799726  0.059821378            2 
  348000     1.146655   -4.7711434    241.98131  0.057945715  0.059799571            2 
  349000    1.1213682   -4.7783687    242.49201  0.057901626  0.059777981            2 
  350000     1.097639   -4.8063582    241.67819  0.057542426  0.059754404            2 
  351000    1.1443057   -4.8010016    243.22687  0.057746171  0.059728651            2 
  352000    1.0874547   -4.7855167    243.32252  0.057604764  0.059704051            4 
  353000    1.1069311   -4.7444851    244.75878  0.057780637  0.059680605            2 
  354000    1.1134172   -4.7825073    245.16532  0.057713116  0.059655625            3 
  355000    1.0943218   -4.7860341    245.96158   0.05773746  0.059630854            6 
  356000    1.0933934   -4.7661842      246.655  0.057737594  0.059607643            3 
  357000    1.0972658   -4.7723028    247.40586  0.057751133  0.059583494            5 
  358000    1.1187272   -4.7716776    248.17087  0.057767892  0.059557424            3 
  359000    1.1131725   -4.7666186    248.73888  0.057738829  0.059531714            4 
  360000    1.1255423   -4.7629419    248.34054  0.057486236  0.059505475            2 
  361000    1.1133831   -4.7851409    248.84903  0.057444373  0.059478792            3 
  362000     1.109403   -4.7693941    249.73889  0.057490537   0.05945402            3 
  363000    1.1126957   -4.7942234    249.96768  0.057384683  0.059427322            4 
  364000     1.114062   -4.7832204    251.08343  0.057482469     0.059401            3 
  365000    1.0981717   -4.7750961    252.40768  0.057627323  0.059373766            3 
  366000    1.1193849   -4.7939073    252.40869  0.057470102  0.059347978            4 
  367000    1.1093857   -4.7864643    252.18979  0.057263804  0.059322095            4 
  368000    1.1013368   -4.8144815    253.53729  0.057413335  0.059297298            3 
  369000    1.1127396   -4.7971599    254.00988  0.057364471  0.059270762            3 
  370000    1.1104763   -4.8120309    254.59319  0.057340809  0.059245673            5 
  371000    1.1218429   -4.7751362    254.60596   0.05718912  0.059219555            2 
  372000    1.1100485   -4.8002217    255.45192  0.057224893  0.059192408            8 
  373000    1.1179361    -4.801515    255.93546  0.057179504  0.059165874            2 
  374000    1.0978457    -4.800527    256.77343  0.057213332  0.059137682            2 
  375000    1.0905093   -4.8034265    258.20453  0.057378784  0.059110047            5 
  376000    1.1135014   -4.7779106    258.21127  0.057227674   0.05908396            4 
  377000    1.1144365   -4.7836812    259.54605  0.057370922  0.059059891            4 
  378000    1.1190227   -4.8129855    259.29949   0.05716479  0.059034457            5 
  379000    1.1212121   -4.7934825    259.95999  0.057159188  0.059008644            2 
  380000    1.0975966   -4.8386237    260.09499  0.057038376  0.058982914            5 
  381000    1.0727194   -4.8157642    260.88666  0.057061823  0.058956149            2 
  382000    1.1089528   -4.7628258     262.2502  0.057209904  0.058930304            3 
  383000    1.1002936   -4.8071186    262.32788  0.057077432  0.058904614            2 
  384000    1.0977081   -4.8350346     262.4917  0.056964345    0.0588769            4 
  385000    1.1132129   -4.7674313    264.50299   0.05725173  0.058851549            3 
  386000    1.1129535   -4.8223153    263.50523  0.056888002   0.05882522            3 
  387000    1.0888511   -4.8294411    264.49043   0.05695315  0.058798636            3 
  388000    1.0882202   -4.8223265    265.75561  0.057078095  0.058773154            3 
  389000    1.1013723   -4.7555674    266.62639  0.057117906  0.058748014            3 
  390000    1.0919842    -4.812002    267.75194  0.057211952  0.058724552            4 
  391000    1.0875642   -4.8124078    266.99072  0.056903393  0.058699346            2 
  392000    1.0965986   -4.7843502     268.8002  0.057142899  0.058674035            2 
  393000    1.0739018    -4.815579    267.05277  0.056626966  0.058647561            3 
  394000    1.1358215   -4.8078651    268.68137  0.056827701    0.0586214            4 
  395000    1.0922181   -4.8140197     269.2215  0.056797785  0.058595404            3 
  396000    1.0709853    -4.777183    270.00397  0.056819017  0.058569318            1 
  397000    1.0892697   -4.8100124    270.16289  0.056709255  0.058543164            2 
  398000    1.1024629   -4.8101129    270.44542  0.056625926  0.058515333            2 
  399000    1.0745848   -4.8315591    271.99777  0.056808222  0.058487942            7 
  400000    1.0927384   -4.8240607    271.34967  0.056531181  0.058459873            8 
  401000    1.1111871   -4.8384472    271.12122  0.056342732  0.058432066            3 
  402000    1.0896337    -4.819947    273.27617  0.056649289   0.05840387            5 
  403000    1.0962302   -4.8071922    274.16724  0.056692978  0.058376881            2 
  404000    1.0998193   -4.8044355    273.37851  0.056389956  0.058350218            2 
  405000    1.1006131   -4.8263979    274.37739  0.056456254  0.058322598            3 
  406000    1.0899125   -4.8027767    276.09595   0.05666994  0.058295706            4 
  407000    1.0988874   -4.8354035    275.86248    0.0564829  0.058269322            2 
  408000    1.0898055   -4.7941298    277.52601  0.056684235  0.058243807            3 
  409000    1.0889408   -4.8416528    277.64053  0.056568976  0.058218813            6 
  410000    1.0679441   -4.8165147    277.09267  0.056319648  0.058193142            3 
  411000    1.0876129   -4.8499136    277.82708  0.056331525  0.058167545            3 
  412000    1.0975432   -4.8636903    278.47723  0.056326301  0.058139975            3 
  413000     1.091084   -4.8173164    279.57398  0.056411214  0.058113057            2 
  414000    1.1017077   -4.8322681    279.89733  0.056340042  0.058087459            1 
  415000    1.0821151    -4.852054    280.67044  0.056359527  0.058060898            5 
  416000    1.0912406   -4.8204978    281.90094   0.05647054  0.058035324            2 
  417000    1.0929297   -4.8350588    281.37167   0.05622935   0.05800932            5 
  418000    1.0992679    -4.841325    282.73037  0.056365703  0.057983232            4 
  419000    1.0519253   -4.8283505    284.39476  0.056562203  0.057957653            4 
  420000    1.0806349   -4.8036752    282.62493  0.056076374  0.057930994            1 
  421000    1.0704494    -4.825209     283.4894  0.056114291  0.057905574            3 
  422000    1.1243053   -4.8558249    283.67361  0.056017695   0.05787956            2 
  423000    1.0619955   -4.8549672    285.24281  0.056194406  0.057852435            1 
  424000    1.0800409   -4.8214985    287.46371  0.056498371  0.057827416            5 
  425000    1.0853568   -4.8480219    286.86589  0.056248214  0.057803475            3 
  426000    1.1071722   -4.8399831    287.51007  0.056242188  0.057780107            3 
  427000    1.0754581   -4.8278896    288.31335  0.056267243   0.05775737            3 
  428000    1.0953945   -4.8093013    289.14757  0.056298202  0.057734754            1 
  429000    1.0895224   -4.8521864     289.5292  0.056241104  0.057711134            1 
  430000    1.0860422   -4.8136064    290.91487   0.05637885  0.057686868            7 
  431000    1.0808382    -4.822043    291.47202  0.056355765  0.057663309            3 
  432000    1.0719848   -4.8463964    290.90887  0.056116681  0.057638885            2 
  433000     1.088267   -4.8399359    291.98599  0.056194378  0.057612622            4 
  434000    1.0707869   -4.8433266    292.11249  0.056089189  0.057587141            1 
  435000    1.0727814   -4.8491341    291.87675  0.055915086  0.057560767            5 
  436000    1.0641737    -4.834087    294.50618  0.056289407  0.057534159            2 
  437000    1.0796636   -4.8201643    293.96929  0.056058218  0.057508971            3 
  438000    1.0857934   -4.8428349    294.59316  0.056048927  0.057483317            2 
  439000    1.0817911    -4.834239    295.02548  0.056003319  0.057458083            3 
  440000    1.0772222   -4.8238464    295.66989  0.055998085  0.057434346            2 
  441000    1.0486435   -4.8545355    295.66693  0.055870547  0.057408598            3 
  442000    1.0819287   -4.8374418     296.0735  0.055820795  0.057384715            1 
  443000    1.0764865   -4.8467364    296.65846  0.055804827  0.057358629            2 
  444000    1.0689505   -4.7926217    298.81229  0.056083387  0.057333603            2 
  445000    1.0857222   -4.8351954    298.58839  0.055915429  0.057308208            4 
  446000    1.0914811   -4.8542876    297.58706  0.055602963  0.057281091            3 
  447000      1.06274   -4.8530892    298.11648  0.055577271  0.057251959            2 
  448000    1.0888327   -4.8201875     298.4725  0.055519438  0.057222582            2 
  449000     1.080318   -4.8805422    298.38504  0.055379555     0.057195            5 
  450000    1.0694426   -4.8797168    298.31138  0.055242848  0.057166218            3 
  451000    1.0551885   -4.8580422    299.55893  0.055350873  0.057137767            3 
  452000    1.0996356   -4.8604103    301.20738  0.055532334  0.057109244            2 
  453000    1.0840062   -4.8229179     301.7557  0.055510615  0.057081866            4 
  454000    1.0575356   -4.8638583    302.08211  0.055448259  0.057053164            2 
  455000    1.0802532   -4.8465633    302.62334  0.055425519  0.057024156            3 
  456000    1.0640518   -4.8435122     303.9771   0.05555137  0.056996506            2 
  457000    1.0925041   -4.8461423    304.43681  0.055513642  0.056969102            3 
  458000    1.0741328   -4.8279075     305.4022  0.055568085  0.056941229            6 
  459000    1.0933934   -4.8152926    306.19748  0.055591408  0.056913656            3 
  460000     1.068241   -4.8392579    305.63619  0.055368875  0.056887377            1 
  461000    1.0771853   -4.8470367    305.86295  0.055289759  0.056859712            3 
  462000    1.0891639   -4.8503058    306.47422  0.055280342   0.05683184            3 
  463000    1.0817321   -4.8174935    307.76156  0.055392649   0.05680466            4 
  464000    1.0520882   -4.8538081    308.19321  0.055350792  0.056777708            5 
  465000    1.0926024   -4.8423298    307.67465  0.055138827  0.056749251            5 
  466000    1.0414814   -4.8787175    307.43468  0.054977589  0.056720069            3 
  467000    1.0638469   -4.8555723    308.82067  0.055107186  0.056690461            3 
  468000     1.087495   -4.8454696    308.69511  0.054967078  0.056660575            3 
  469000    1.0623523   -4.8314051    310.51603  0.055173423  0.056631144            1 
  470000     1.054618   -4.8340476    310.29496  0.055016836  0.056602537            2 
  471000    1.0565761   -4.8734286    310.78243  0.054986275  0.056572922            2 
  472000    1.0730176   -4.8576893    309.44063  0.054632879  0.056542793            2 
  473000    1.0674063   -4.8452023    311.50729  0.054881482  0.056512007            2 
  474000    1.0758788   -4.8385567    311.51432  0.054766934   0.05648047            2 
  475000    1.0583436   -4.8985938    311.42029  0.054635139  0.056448962            2 
  476000    1.0526385   -4.8573564    312.46198  0.054702727  0.056418457            1 
  477000    1.0526274   -4.8349056    313.94966  0.054847949  0.056387909            6 
  478000    1.0674152   -4.8610451    312.47985  0.054476962   0.05635617            2 
  479000    1.0439069   -4.8263147    313.44614  0.054531339  0.056324272            7 
  480000    1.0821203   -4.8709963    312.89164  0.054321466  0.056291464            2 
  481000    1.0485402   -4.8894284    313.21163  0.054263968  0.056259101            5 
  482000    1.0629479   -4.8749225    314.15972  0.054315304  0.056226491            3 
  483000    1.0476918   -4.8641074     315.5098  0.054435783  0.056193722            4 
  484000    1.0610958   -4.8992155    315.37685  0.054300422   0.05616093            3 
  485000     1.049771   -4.8838417    314.74123  0.054079249  0.056128378            3 
  486000    1.0813358   -4.8625807    315.25934  0.054056814   0.05609429            3 
  487000    1.0581861   -4.8914085    316.44544  0.054148775  0.056059783            4 
  488000     1.049763   -4.9040196    315.83061  0.053932823  0.056025464            3 
  489000    1.0745097   -4.8570075    317.95524  0.054184601  0.055991552            2 
  490000    1.0609292    -4.844999    318.59121  0.054182178   0.05595822            3 
  491000    1.0435768   -4.8760369    319.65171  0.054251817  0.055925231            2 
  492000    1.0732643   -4.8797259    320.13734  0.054223804  0.055894041            3 
  493000    1.0517794   -4.8900178      320.648  0.054200135  0.055862816            2 
  494000    1.0705023   -4.8942013    321.01718  0.054152695  0.055830869            2 
  495000    1.0701503   -4.8570475    322.26501  0.054253368  0.055799805            3 
  496000    1.1022414    -4.867531    322.11757  0.054119216  0.055768938            5 
  497000    1.0706677   -4.8979196    322.14401  0.054014756    0.0557375            3 
  498000    1.0500625   -4.8923886    323.41237  0.054118535  0.055705611            4 
  499000    1.0501107   -4.8763383    323.68137  0.054055004  0.055675812            5 
  500000    1.0529255   -4.8816634    322.85501  0.053809168  0.055645061            3 
  501000    1.0361451   -4.8886911    324.82246  0.054029018  0.055613718            6 
  502000    1.0504082   -4.9069199    325.03789  0.053957153  0.055581952            5 
  503000    1.0479187   -4.8994563    325.76894  0.053970998  0.055550373            2 
  504000    1.0718842   -4.9094628    325.24481   0.05377725  0.055518518            5 
  505000     1.048299   -4.8876388    325.06228   0.05364064  0.055487188            3 
  506000    1.0639601   -4.8866741    325.80095  0.053656282  0.055455311            3 
  507000    1.0674608   -4.8860482      326.552  0.053673899  0.055422039            1 
  508000    1.0746683   -4.8558449    327.24872  0.053682533  0.055389806            7 
  509000    1.0479525    -4.861515    326.60805  0.053472176  0.055356476            2 
  510000    1.0616221   -4.8685727    327.81776  0.053564993  0.055323084            2 
  511000    1.0425352   -4.8782086    327.90232   0.05347396  0.055289069            3 
  512000    1.0726218   -4.9175365    327.12031  0.053242238  0.055254525            2 
  513000    1.0403703   -4.9025082    327.68512  0.053230201  0.055220127            3 
  514000    1.0654749   -4.8883055    328.03193  0.053182868  0.055184864            3 
  515000    1.0754695   -4.8835455    329.19688  0.053268104  0.055149985            5 
  516000    1.0680367   -4.8711588    330.56569  0.053385932  0.055115844            5 
  517000    1.0457908   -4.9258223    329.65347  0.053135633  0.055080909            2 
  518000    1.0591399   -4.9083156    330.09399  0.053103924  0.055046033            4 
  519000    1.0763646    -4.891277    331.70221  0.053259829  0.055010914            5 
  520000    1.0943676   -4.9319536    331.24462  0.053084074  0.054976016            4 
  521000    1.0255013   -4.9257014     332.2461   0.05314237  0.054942215            3 
  522000    1.0452097   -4.9140023    333.04909  0.053168757  0.054907274            4 
  523000    1.0676111   -4.8800407    333.24803  0.053098794  0.054874203            4 
  524000     1.040889   -4.9014562    334.30063  0.053164858   0.05484136            2 
  525000    1.0519579   -4.8826923    333.79817  0.052983837  0.054807391            5 
  526000    1.0344637   -4.9089948    334.55052  0.053002301  0.054772976            4 
  527000    1.0146464   -4.9020312    335.68706  0.053081445  0.054738727            2 
  528000     1.035029   -4.9335973    334.71966  0.052828229  0.054704246            5 
  529000    1.0424825   -4.9404863     335.6938  0.052881821  0.054669192            4 
  530000    1.0640172   -4.8981965    336.36923  0.052888243  0.054635376            2 
  531000    1.0475155   -4.9069213    337.45635  0.052959252  0.054602201            1 
  532000    1.0539811   -4.9239156    337.20112  0.052819724  0.054568493            2 
  533000    1.0565127   -4.9030422    338.80868  0.052971964  0.054536232            3 
  534000      1.06319   -4.9084923    338.68906  0.052854098  0.054504419            2 
  535000    1.0555977   -4.9132721    338.42322  0.052713897  0.054472702            3 
  536000    1.0262607   -4.9044595    340.72118   0.05297282  0.054440561            2 
  537000    1.0495674   -4.9564305    340.77827  0.052883034  0.054408245            3 
  538000    1.0514046    -4.892281     340.8149  0.052790413  0.054376527            4 
  539000    1.0210879   -4.9186701    341.14942  0.052744189  0.054345283            2 
  540000    1.0326211   -4.8854442    344.17671  0.053113689  0.054313755            3 
  541000    1.0352218   -4.9409296    340.76589  0.052490124  0.054281773            3 
  542000    1.0146845   -4.9323511    342.54477  0.052666785  0.054249576            3 
  543000    1.0306219   -4.9204333    342.56044  0.052572197  0.054217303            7 
  544000    1.0221637   -4.8912342    343.82118  0.052668686  0.054185951            3 
  545000    1.0277023   -4.9297914    343.13696  0.052467425  0.054154264            7 
  546000    1.0533514   -4.9050884    344.58109  0.052591742  0.054122342            4 
  547000    1.0367618   -4.9007079    345.97184  0.052707471  0.054090148            2 
  548000    1.0377155   -4.8899339    346.32177  0.052664503  0.054058827            6 
  549000    1.0404054   -4.9431752    346.26871  0.052560521   0.05402821            5 
  550000    1.0518869   -4.9328725    347.33642   0.05262673  0.053997193            4 
  551000    1.0393924   -4.9099462    347.36446   0.05253546  0.053966237            6 
  552000    1.0548498   -4.9357276     348.1719  0.052562183  0.053936146            3 
  553000    1.0473489   -4.9190016     350.0469  0.052749684  0.053907724            3 
  554000    1.0433821   -4.9283882     349.0825  0.052509402  0.053878663            3 
  555000    1.0196421   -4.9046603    350.43528  0.052617909  0.053849687            2 
  556000    1.0169886   -4.9042386    350.86118  0.052587108  0.053820456            3 
  557000    1.0401525   -4.9467568    350.47658  0.052435156  0.053791529            2 
  558000    1.0407145   -4.9194763    351.19096  0.052447873   0.05376192            5 
  559000    1.0234242   -4.9075067    352.73501  0.052584229  0.053733165            4 
  560000    1.0396866    -4.966758    350.42432  0.052146476  0.053703186            3 
  561000    1.0485018   -4.9235787    351.84025  0.052263852  0.053673328            3 
  562000    1.0446132   -4.9104005    353.98724  0.052489211  0.053644406            2 
  563000    1.0343685   -4.9332477    353.67342  0.052349529  0.053615515            2 
  564000    1.0369485   -4.9288936     354.2737  0.052345406  0.053585512            2 
  565000     1.000974   -4.9295574    354.11929  0.052229983  0.053556104            3 
  566000    1.0365735   -4.9512667    355.23032  0.052301283  0.053526942            4 
  567000    1.0558612   -4.9269249    355.79665  0.052292276  0.053498297            2 
  568000    1.0057558   -4.9528974     355.7297   0.05219039  0.053468854            3 
  569000    1.0336158   -4.9324446    355.45563  0.052058529  0.053439742            4 
  570000    1.0302818   -4.9255514    356.35826  0.052099161  0.053409794            2 
  571000    1.0395089   -4.9511926    355.70273  0.051912248  0.053379484            3 
  572000    1.0542384   -4.9514773    355.80644  0.051836602  0.053349522            3 
  573000    1.0091646     -4.88996    358.03899  0.052070825  0.053319174            2 
  574000    1.0410246   -4.9470845    357.18734  0.051856467  0.053287852            3 
  575000    1.0430321     -4.91989    359.22395  0.052061441  0.053257065            3 
  576000    1.0421605   -4.9401699    359.66841   0.05203536  0.053227207            2 
  577000    1.0574808   -4.9114875    359.55529  0.051928841  0.053197806            2 
  578000    1.0219277   -4.9526173    357.89041  0.051598963   0.05316771            4 
  579000    1.0155827   -4.9293957    360.15605  0.051835931  0.053137218            4 
  580000    1.0287741   -4.9838072    360.62629  0.051814122  0.053107514            2 
  581000     1.006869   -4.9401907    360.43303  0.051697221  0.053077496            2 
  582000    1.0234653   -4.9449521    361.20644  0.051719135  0.053047841            7 
  583000    1.0187236   -4.9579597    362.26901  0.051782305  0.053016814            5 
  584000    1.0442585   -4.9469191    362.49696  0.051726165  0.052986505            2 
  585000     1.015726   -4.9676255    362.61673  0.051654804  0.052955108            3 
  586000     1.022934   -4.9025186    364.11396  0.051779573  0.052924687            2 
  587000    1.0284915   -4.9347359    363.56131  0.051612906  0.052894487            3 
  588000    1.0197764   -4.9615815    364.07419  0.051597817  0.052864199            2 
  589000   0.99759244   -4.9827032    363.30205   0.05140097  0.052833746            2 
  590000    1.0427031   -4.9451519    364.84238   0.05153141  0.052803354            2 
  591000    1.0065562   -4.8983119    368.53383  0.051964725  0.052774413            3 
  592000     1.036351   -4.9769935    365.98041  0.051517513  0.052744923            3 
  593000   0.99257386   -4.9401456    367.49361  0.051643284  0.052715326            2 
  594000   0.99788158   -4.9265414    367.85017  0.051606365  0.052685899            3 
  595000    1.0001286   -4.9502513    366.88198  0.051384031  0.052656837            4 
  596000    1.0185527   -4.9745526    368.09078  0.051466832  0.052627599            3 
  597000    1.0141265    -4.930978     370.6313  0.051735245  0.052598915            3 
  598000    1.0039266   -4.9838659    369.44495  0.051483409  0.052570502            2 
  599000    1.0018031   -4.9770273    369.86831  0.051456359  0.052540909            3 
  600000    1.0063512   -4.9732071    369.17134  0.051273797  0.052511889            3 
  601000    1.0242875   -4.9492499    371.62746  0.051529044  0.052484106            3 
  602000    1.0005593   -4.9310254    373.04846  0.051640152  0.052455558            5 
  603000    1.0298855    -4.968459    371.80143  0.051382176  0.052427367            5 
  604000    1.0130856    -4.939695     372.9101  0.051450069  0.052399248            4 
  605000    1.0337826   -4.9739756    372.20701  0.051268184   0.05237192            4 
  606000     1.018671   -4.9569664    373.70852   0.05139006  0.052344539            3 
  607000    1.0190072   -4.9623349       373.61  0.051291873  0.052317308            6 
  608000    1.0029955   -4.9664924    374.09575  0.051274089  0.052290144            4 
  609000     1.024376   -4.9975663    375.82118  0.051425996  0.052262449            5 
  610000    1.0016447   -4.9718055     375.4487  0.051290807  0.052235318            3 
  611000    1.0044669   -4.9817214    377.52981    0.0514907  0.052208958            3 
  612000    1.0036754   -4.9446794    375.78438  0.051168897  0.052182503            4 
  613000    1.0108336   -4.9888098    376.78354  0.051221254  0.052155762            3 
  614000    1.0087776    -4.982752    376.59688  0.051112498  0.052128963            4 
  615000   0.98273584   -4.9659887    377.82786  0.051196187  0.052102567            4 
  616000    1.0094796   -4.9635144    378.05932  0.051144388  0.052075598            2 
  617000    1.0137284   -4.9757074    377.89368  0.051039125  0.052048941            3 
  618000   0.99989651   -4.9730264    381.29297   0.05141491  0.052022349            4 
  619000   0.99918819   -4.9895249    378.89758  0.051009368  0.051995345            3 
  620000    1.0250508   -4.9888504    380.21112  0.051103645  0.051967461            4 
  621000    1.0113459   -4.9730128    380.77378  0.051096857  0.051939972            4 
  622000   0.99306522   -4.9998435    380.40672  0.050965531  0.051913362            2 
  623000   0.99116161   -4.9884421    380.04158  0.050834883  0.051885622            2 
  624000    1.0134991   -4.9833831    380.65485  0.050835316  0.051857884            3 
  625000     1.013003   -4.9779497    382.67292  0.051023056  0.051830388            2 
  626000    1.0213461   -4.9783386    381.26745  0.050754453  0.051802564            4 
  627000    1.0105631   -4.9780397    382.01474  0.050772825  0.051774929            4 
  628000    1.0109516    -4.974845    382.69901  0.050782777  0.051747068            3 
  629000    1.0181995   -4.9664904    383.21457  0.050770346  0.051718272           16 
  630000    1.0023844   -4.9574398    383.15893  0.050682398  0.051690497            6 
  631000    1.0217164    -4.989874    383.23621  0.050612283  0.051661287            2 
  632000    1.0135382   -4.9858689    384.03116   0.05063702  0.051632285            4 
  633000   0.98938757   -5.0035638    382.44808  0.050348615  0.051602972            3 
  634000    1.0028579   -4.9749824    385.14506  0.050623694  0.051574029            4 
  635000     1.007661   -4.9624556     385.5054   0.05059126  0.051545212            3 
  636000   0.99720872   -4.9976262    383.57909  0.050259314  0.051516441            3 
  637000   0.99022329   -4.9388602    386.41136  0.050550936  0.051488123            2 
  638000    1.0130788   -4.9825375    385.71444  0.050380673  0.051459767            4 
  639000   0.99155008   -4.9831289    385.44389  0.050266548  0.051430396            2 
  640000     1.008089   -4.9793242    386.57226   0.05033493   0.05140104            4 
  641000   0.98179723   -4.9953173     386.2258  0.050211363  0.051371691            4 
  642000    1.0133421    -4.990311    387.74891  0.050330855  0.051342822            4 
  643000   0.99487515   -5.0057767    387.61478  0.050235197  0.051314528            3 
  644000   0.99298691   -4.9882398    390.23305  0.050495995  0.051286732            7 
  645000    1.0117095   -4.9878899    389.67729  0.050345903  0.051258701            3 
  646000    0.9811389   -4.9723766    390.71077  0.050401286  0.051231495            2 
  647000   0.99716592   -5.0100364    390.33652  0.050275182  0.051203576            3 
  648000   0.99655562     -5.01729    391.07009  0.050291936  0.051175215            2 
  649000    1.0004394   -5.0059781    391.94007  0.050326151  0.051147765            8 
  650000    1.0018972   -5.0006506    391.68843  0.050216466  0.051120036            2 
  651000    1.0006581   -4.9868241    392.83676  0.050286324  0.051093235            2 
  652000   0.98716276   -5.0173128    393.58571  0.050304922  0.051066501            3 
  653000   0.99575262   -4.9994384    393.25582  0.050185786  0.051039456            8 
  654000   0.99235013   -4.9932242    394.74067   0.05029825  0.051013015            5 
  655000   0.99068266   -5.0106648    393.88203  0.050112217  0.050986512            8 
  656000    1.0190201   -5.0109287    393.97749  0.050047953  0.050959636            6 
  657000   0.98842447    -5.031722    395.50858  0.050165979  0.050933566            2 
  658000    1.0158358   -4.9973454    396.29578  0.050189435  0.050906932            2 
  659000   0.99685291   -5.0253211    395.51888  0.050015033  0.050880247            4 
  660000   0.96267897    -4.998773    396.97253  0.050122795  0.050853546            8 
  661000   0.98016012   -5.0054628    395.88259  0.049909555  0.050826387            6 
  662000   0.98593964   -5.0065592    396.14744  0.049867502  0.050798694            3 
  663000     1.020877   -4.9934097    398.43416  0.050079708  0.050770963            2 
  664000   0.98255323    -5.019939    395.81145  0.049675132  0.050742418            6 
  665000   0.97929332   -5.0136368    397.32174  0.049789692  0.050714352            4 
  666000   0.96338037   -4.9899943    397.46563  0.049732937  0.050686313            3 
  667000    1.0021878   -4.9977428    398.62733  0.049803515  0.050657759            4 
  668000   0.99507298   -4.9840223    398.11975  0.049665637  0.050629787            3 
  669000   0.96389908   -4.9880138    399.95358  0.049819827  0.050601567            4 
  670000   0.98580528   -5.0263048    400.62844  0.049829407  0.050573638            3 
  671000    0.9865412   -4.9964909    401.60134  0.049875973  0.050545578            2 
  672000    0.9820083   -5.0260398    400.02663  0.049606477  0.050517212            3 
  673000   0.98744668   -5.0327278    400.99709  0.049652933  0.050489317            3 
  674000   0.98997402   -5.0233216    401.55543  0.049648298  0.050461583            8 
  675000   0.98796482   -5.0167254    402.30201  0.049666915  0.050434574            9 
  676000   0.99549214   -5.0105196    403.84816  0.049784043  0.050407486            6 
  677000   0.96351639   -5.0210413    402.86345  0.049589297  0.050380532            5 
  678000   0.98501432   -5.0206018    403.04999  0.049539084  0.050353307            3 
  679000   0.99183133   -5.0252023    403.88506  0.049568613  0.050325881            3 
  680000   0.98076934   -5.0054376    405.35875  0.049676317  0.050298187            3 
  681000   0.99190778    -5.022858    405.51813  0.049622875   0.05027155            3 
  682000    1.0066097   -5.0341959     404.9482  0.049480474  0.050244779            3 
  683000    1.0005667   -5.0537189    404.56769  0.049361602  0.050217942            6 
  684000   0.95983979     -5.03135    406.53162  0.049528707  0.050190649            2 
  685000   0.97016636   -5.0551273    405.15415  0.049288826   0.05016356            2 
  686000   0.99610773   -5.0269059    405.12826  0.049213832  0.050136101            3 
  687000   0.99669503   -5.0408479    405.95911  0.049242978   0.05010859            3 
  688000   0.95333829   -5.0167268    407.33566  0.049338137  0.050081019            3 
  689000   0.96326923   -5.0419139    406.41492  0.049155167  0.050053208            2 
  690000   0.99275178   -5.0299516    406.42788  0.049085493  0.050025828            8 
  691000   0.97337818   -5.0319812     408.4518  0.049258538  0.049998239            2 
  692000   0.97881387   -5.0145137    408.97591   0.04925047  0.049971151            4 
  693000   0.96833253   -5.0412846    408.78927  0.049156959  0.049943028            2 
  694000    0.9878619   -5.0121371    409.85843  0.049214509  0.049915572            3 
  695000   0.97092668   -5.0533157    408.34991  0.048962819  0.049887806            4 
  696000   0.96450269   -5.0207719    408.97436  0.048967237  0.049860088            3 
  697000   0.97332024   -5.0592528    410.40259  0.049067741  0.049832137            5 
  698000   0.97884664   -5.0611867    408.82136  0.048808663  0.049803647            4 
  699000   0.99288836   -5.0195739    410.54695  0.048944558  0.049776284            4 
  700000   0.97286117   -5.0589693     411.4118  0.048977596  0.049748958            2 
  701000   0.98224207   -5.0198229    411.37238   0.04890304  0.049721919            4 
  702000   0.96582566   -5.0230627    411.83327   0.04888809  0.049694415            2 
  703000    0.9661531   -5.0474615     412.3563  0.048880547  0.049666837            4 
  704000   0.97259007   -5.0276057    412.51016  0.048829328  0.049638748            4 
  705000   0.98492231   -5.0862766    412.94299  0.048811228  0.049610292            6 
  706000   0.96436341   -5.0606111    413.07734  0.048757949  0.049582353            3 
  707000   0.98149093   -5.0301534     414.8321  0.048895815  0.049554842            3 
  708000   0.97191588   -5.0351973    414.40488  0.048776469  0.049527125            8 
  709000   0.99890482    -5.041989     413.0316  0.048546263  0.049499311            3 
  710000   0.97938906   -5.0363486    413.85858   0.04857495  0.049470353            2 
  711000   0.97083585    -5.057988    415.11924  0.048654388  0.049441808            2 
  712000   0.98065553   -5.0289721    414.05745   0.04846178  0.049412973            5 
  713000   0.97391807   -5.0840301    413.12305  0.048284601  0.049383226            5 
  714000   0.97666589   -5.0868933    414.04739  0.048324859  0.049354253            2 
  715000   0.97303341     -5.03293     416.0469  0.048490314  0.049325462            4 
  716000   0.97834223   -5.0543386    415.37562  0.048344462  0.049296757            4 
  717000   0.98621475   -5.0265216    415.83144  0.048330014  0.049267754            5 
  718000   0.97719694   -5.0427941    416.92751  0.048389916  0.049238822            4 
  719000    0.9848035   -5.0340794     416.6238  0.048287413  0.049209552            3 
  720000   0.97899271   -5.0286351    417.42677  0.048313283  0.049180472            1 
  721000   0.98070483   -5.0469371    417.56682  0.048262462  0.049151562            3 
  722000   0.95970288   -5.0763947     418.3737  0.048288747  0.049122185            6 
  723000   0.96901849   -5.0724266      417.375  0.048106846  0.049092912            5 
  724000   0.96456035   -5.0630998    418.42049  0.048160738  0.049063662            7 
  725000   0.96910706   -5.1097621    418.82986  0.048141364  0.049034536            3 
  726000   0.98669971   -5.0688609    419.40952  0.048141589  0.049005353            3 
  727000   0.94286705     -5.03703    421.29515  0.048291512  0.048977059            4 
  728000   0.97528947     -5.07201    419.32771  0.047999966  0.048949079            2 
  729000   0.95994898    -5.089714    421.10837  0.048137674  0.048920827            3 
  730000   0.97642307   -5.1026606    422.55297   0.04823664  0.048892839            5 
  731000   0.95307013   -5.0577708     421.0822  0.048002986  0.048864182            3 
  732000   0.95872068   -5.0323492     420.6365  0.047886669  0.048835434            2 
  733000   0.94603996   -5.0746498    419.92113   0.04774001   0.04880639            4 
  734000   0.96170499   -5.0424474    422.66234  0.047986188  0.048777459            3 
  735000   0.95798651   -5.0611877    422.76544  0.047932589   0.04874882            2 
  736000   0.99007243   -5.0728649    423.11989  0.047907596  0.048720782            2 
  737000   0.95532962   -5.0786184    423.32725   0.04786604  0.048693101            4 
  738000   0.97435782   -5.0948001    423.46591  0.047816838  0.048665156            4 
  739000   0.95235292   -5.0815516    425.24387  0.047952624  0.048637523            5 
  740000   0.95562089   -5.0987755    424.51053   0.04780524  0.048609755           13 
  741000   0.94649083   -5.0557364    425.23051  0.047821695  0.048582089            3 
  742000   0.97735605   -5.0461004    426.32925  0.047880644  0.048555194            3 
  743000   0.93923512   -5.0567899    425.52705  0.047726228  0.048527983            3 
  744000   0.94904973   -5.0671805     427.4752  0.047880287  0.048500591            3 
  745000   0.93044431   -5.0911653    427.98459  0.047872997  0.048473182            2 
  746000   0.96169108   -5.0941726    428.15702  0.047828085  0.048445878            4 
  747000   0.97707718    -5.054694    429.17092  0.047877166  0.048418929            8 
  748000   0.97985633   -5.0876662    429.04259  0.047798863  0.048392321            6 
  749000   0.93890773   -5.0780193    428.03847  0.047623327  0.048365623            5 
  750000   0.95734887   -5.0769857    430.21107   0.04780123  0.048339162            2 
  751000   0.95708817   -5.1050225    430.25286  0.047742217  0.048312753            5 
  752000   0.97061005   -5.0550855    431.88921  0.047860063  0.048286704            4 
  753000    0.9675072   -5.1028967    431.13373  0.047712896  0.048260504            5 
  754000   0.95309661   -5.0940738    432.39063  0.047788532  0.048234397            8 
  755000   0.96345049   -5.0950647    431.96978  0.047678784  0.048208301            4 
  756000   0.94587235   -5.0674654    432.92339  0.047720832  0.048182456            3 
  757000   0.96322575   -5.0989169    433.48593   0.04771972  0.048156811            3 
  758000   0.95894577   -5.1038757    433.08721  0.047612929  0.048131006            2 
  759000   0.94695034   -5.0617796    435.26191  0.047788967  0.048105866            2 
  760000   0.94688231    -5.072837     435.4138  0.047742741   0.04808115            5 
  761000   0.92579147   -5.1119137    435.45799  0.047684843  0.048056089            4 
  762000   0.96341224   -5.0667769    436.12125    0.0476948  0.048030869            4 
  763000   0.96870526   -5.1178133    434.59262  0.047465337  0.048005492            3 
  764000   0.95293298   -5.0606463    437.12183  0.047679083  0.047980144            5 
  765000   0.95838494   -5.0979853    436.14852  0.047510732  0.047955031            2 
  766000    0.9450588   -5.1185308    436.79154  0.047518661  0.047929374            3 
  767000   0.94213572   -5.0860451    437.21071   0.04750225  0.047903818            4 
  768000   0.93660454   -5.0899292    436.30448  0.047342066  0.047878694            5 
  769000   0.94708387   -5.0763392    438.21964  0.047488041  0.047853379            2 
  770000    0.9410227   -5.0956466    438.05166  0.047408188  0.047827708            3 
  771000   0.93665304   -5.0948258    437.09874  0.047243702  0.047801873            5 
  772000   0.96112202   -5.0761738    440.11873  0.047508498  0.047776108            2 
  773000   0.95219745   -5.1109367    438.25204    0.0472458  0.047750316            6 
  774000   0.95388412   -5.1000193    438.84143  0.047248215  0.047724486            9 
  775000   0.95173301   -5.0944789    438.88276  0.047191694  0.047698171            4 
  776000   0.94056502   -5.0894865    439.69953  0.047218592  0.047671474            2 
  777000   0.95523078   -5.1018859    438.97804  0.047080442  0.047645003            3 
  778000   0.95778166   -5.1264299    438.17371  0.046933774   0.04761859            3 
  779000   0.96460754   -5.0892097    439.92994  0.047061397  0.047591885            6 
  780000    0.9449011   -5.0941197    440.19682  0.047029575  0.047565676            3 
  781000   0.95575203   -5.1047071    438.98304  0.046839847   0.04753911            6 
  782000   0.95166183   -5.1265018     441.4185  0.047039482  0.047512467            4 
  783000   0.95078162   -5.1084036    439.20538  0.046743868  0.047485597            4 
  784000   0.93218218   -5.0805096    441.49495  0.046927609  0.047458858            4 
  785000   0.95056838   -5.0899335    442.76391  0.047002538  0.047432126            7 
  786000   0.93463773    -5.085558    442.54027  0.046919028  0.047405457            6 
  787000    0.9419692   -5.1230099    441.84496  0.046785786  0.047378395            9 
  788000   0.95947751   -5.1180778    442.37636   0.04678261  0.047351126            3 
  789000   0.93999186   -5.1115436    443.21602  0.046812001  0.047323749            4 
  790000   0.92898893   -5.1009794    442.74101  0.046702638  0.047296409            8 
  791000   0.92678569   -5.1471101    442.41726  0.046609488  0.047269583            5 
  792000    0.9183316   -5.1033049    442.77576  0.046588359  0.047242653            6 
  793000   0.93905018   -5.1220397    443.97202  0.046655319  0.047215209            4 
  794000   0.93291274    -5.099757    443.42013  0.046538636  0.047187799            7 
  795000   0.92200068   -5.1416929    443.20338  0.046457377  0.047160379            5 
  796000    0.9497251   -5.0878852     444.2542  0.046509024  0.047132771            4 
  797000   0.94678981   -5.1049739    446.12429  0.046646203  0.047105455            5 
  798000   0.94318588    -5.139014     445.1363  0.046484576  0.047078804            2 
  799000   0.93007799   -5.1014092    447.01708  0.046622558  0.047052345            4 
  800000   0.94546371   -5.1293753    446.83551  0.046545366   0.04702538            4 
  801000   0.93017165    -5.124183    446.12951  0.046413806  0.046998561            2 
  802000   0.93514699   -5.1017861    447.38328   0.04648621  0.046972444            2 
  803000   0.93137372   -5.1361876    448.12109  0.046504887  0.046946534            5 
  804000   0.92220288   -5.1036452    448.65126  0.046501996  0.046920265            7 
  805000    0.9174045   -5.0802211    449.13739  0.046494554  0.046894308            2 
  806000    0.9149429   -5.1118617    449.63795  0.046488622  0.046868296            2 
  807000   0.92983385   -5.1334418     448.0792  0.046270053   0.04684236            6 
  808000   0.94929266   -5.1156755    450.25491  0.046437182  0.046816334            4 
  809000   0.93348982   -5.0986211    452.31885  0.046592383  0.046790388            9 
  810000   0.94044057   -5.0912418    451.02139  0.046401377  0.046764457            6 
  811000   0.93181328   -5.1148843    451.36285  0.046379249  0.046738531            7 
  812000   0.92151971    -5.136184    452.04759  0.046392404  0.046713022            5 
  813000   0.92954777   -5.1821459    448.65853  0.045987959  0.046686886            3 
  814000   0.92629842   -5.1408603    449.93004  0.046061634  0.046660321            5 
  815000   0.93806135   -5.1534801    451.35512   0.04615083  0.046634082            5 
  816000   0.90596885   -5.1315116    451.69775  0.046129264  0.046608107            4 
  817000   0.93530765   -5.1222406     451.4624  0.046048796  0.046581615            5 
  818000   0.92505306   -5.1438703    451.63524   0.04601011  0.046555582            3 
  819000   0.93047546   -5.1482333    452.29272   0.04602083  0.046529587            6 
  820000   0.91472922    -5.149079    454.95483  0.046235247  0.046503692            8 
  821000   0.93449073   -5.1423293    453.24233  0.046005109  0.046477704            3 
  822000   0.93919643   -5.1364399    453.35375  0.045960437   0.04645206            4 
  823000   0.91725307   -5.1504899    454.78637  0.046049653  0.046425996            4 
  824000   0.93183773   -5.1220392    454.75678  0.045990775  0.046400453           10 
  825000   0.92580348   -5.1613713    454.84222  0.045943659  0.046374743            4 
  826000   0.92067745   -5.1351319    455.39343  0.045943647  0.046348812            8 
  827000   0.93190747   -5.1566887    455.39947  0.045888702  0.046323051            3 
  828000   0.94494605   -5.1445031    457.27773  0.046022316  0.046297729            4 
  829000    0.9194247   -5.1551966    456.22651  0.045861128  0.046272119            2 
  830000   0.90424904   -5.1603714    455.57012  0.045739972  0.046246577            7 
  831000   0.90871666   -5.1342599    456.84121  0.045812396  0.046221171            5 
  832000   0.91340126   -5.1167202     458.3456  0.045908012  0.046196137            3 
  833000   0.91347083   -5.1555788    459.52653  0.045971041  0.046171503            4 
  834000   0.92294138   -5.1655181    459.04669  0.045867975  0.046146638            6 
  835000   0.92051744   -5.1675728     459.1284  0.045821197  0.046121775            5 
  836000   0.91982383   -5.1557097    460.25341  0.045878529  0.046096753            2 
  837000   0.91557731   -5.1872147    459.89113  0.045787648   0.04607183           11 
  838000   0.91356989    -5.143603    459.81582  0.045725519   0.04604716            3 
  839000   0.93358048   -5.1544322    459.74625   0.04566411  0.046022486            7 
  840000   0.94449095   -5.1641629    461.00849  0.045734969  0.045997669            5 
  841000   0.90886902   -5.1592385    461.47069  0.045726386  0.045972705            6 
  842000   0.90718823   -5.1637616    460.32105  0.045558299  0.045947509            7 
  843000   0.91943024   -5.1402961     460.4876   0.04552072  0.045922055            5 
  844000   0.89820763   -5.1624415    462.68901  0.045684144  0.045896674            2 
  845000   0.93363966   -5.1551165    462.76492  0.045637566  0.045871456            2 
  846000   0.89966472   -5.1436254    463.02855  0.045609589  0.045845645            5 
  847000   0.92213697   -5.1531794    462.44503   0.04549833  0.045819928            5 
  848000   0.92732399   -5.1744413    462.95074  0.045494373  0.045794288            5 
  849000   0.91597618   -5.1376317    462.92968  0.045438721  0.045768791            4 
  850000   0.91872334   -5.1371924    463.40715  0.045432073  0.045742913            3 
  851000   0.90666794   -5.1643493    461.96042  0.045237017  0.045717317            6 
  852000   0.92334486   -5.1317285    463.46138   0.04533073  0.045691309            6 
  853000   0.90055265   -5.1644563    463.47053  0.045278481  0.045665358            3 
  854000   0.92768771   -5.1599989    463.63025  0.045241047  0.045638769            3 
  855000   0.92093747    -5.158259    463.54273  0.045179603  0.045612197            3 
  856000   0.90748722    -5.170642    463.34092  0.045107177  0.045585769            5 
  857000   0.88136028   -5.1711483    463.45811  0.045065938  0.045559366            9 
  858000   0.92860592   -5.1837161    463.89711  0.045056051   0.04553304            1 
  859000   0.93557441   -5.1401946    466.25444  0.045232289  0.045506872            4 
  860000   0.91282032    -5.206206    465.03124  0.045061166  0.045480786            2 
  861000   0.91215913   -5.1818391    466.12569  0.045114759  0.045454882            4 
  862000   0.91898798   -5.1478112     465.8443  0.045035219  0.045428669            8 
  863000   0.92085273   -5.1620865    465.53566  0.044953231  0.045402609            5 
  864000   0.91360974   -5.1529584    468.10837  0.045149341  0.045376584            3 
  865000   0.90823188   -5.2013925    466.06454  0.044900245  0.045350859            7 
  866000   0.92959955    -5.165462    467.61413  0.044997511  0.045325051            3 
  867000   0.90403891   -5.1369057    468.07239  0.044989657  0.045299036            5 
  868000   0.91741571   -5.1908887    467.64327  0.044896627  0.045273026            7 
  869000   0.90692879   -5.1541655     469.1284   0.04498738  0.045247589            3 
  870000   0.90314327   -5.1616448    469.16646  0.044939316   0.04522253            5 
  871000   0.92519298   -5.1971983    468.34252   0.04480889  0.045196997            4 
  872000    0.8936179   -5.1459653    469.87675  0.044904124  0.045171811            7 
  873000   0.89709009   -5.1838523    470.46284  0.044908633  0.045146665            3 
  874000   0.91340297   -5.1844218    469.49719  0.044765178  0.045121362            7 
  875000   0.88695003   -5.1957048    470.86872   0.04484464  0.045096214            5 
  876000     0.890438   -5.1799647    470.51721  0.044760008  0.045070648           10 
  877000   0.93035983   -5.1400193     470.6817  0.044724601  0.045045558            8 
  878000    0.9040562   -5.1701277    470.31696  0.044639043  0.045020623            4 
  879000    0.8925214   -5.1956377     471.9131  0.044739581  0.044995616            3 
  880000   0.89183604   -5.1729495    472.39864   0.04473472  0.044970387            6 
  881000   0.88569951   -5.1776472     472.4074  0.044684771  0.044945167            4 
  882000   0.90632221   -5.1775972    473.08318  0.044697957  0.044920177            5 
  883000   0.93307366   -5.1852948    472.24323  0.044568066  0.044895094            3 
  884000   0.89617836   -5.1939204    472.07093  0.044501407  0.044869486            3 
  885000   0.90960537   -5.1987478    473.88833  0.044622253  0.044844259            3 
  886000   0.90719444   -5.1798299    473.44228  0.044529936  0.044819313            7 
  887000   0.91060546   -5.1836377    471.44838  0.044292407   0.04479416            3 
  888000    0.9017908   -5.2341156    472.35322  0.044327442  0.044768894            3 
  889000   0.89833983   -5.2494091      472.138  0.044257405  0.044742669            3 
  890000   0.90337095   -5.2026358    474.84153  0.044460817  0.044717584            5 
  891000   0.88483474   -5.1644725    477.78417  0.044686137  0.044692796            9 
  892000   0.89750887   -5.1745258    475.66838  0.044438377  0.044667633            9 
  893000   0.89312413   -5.1918789    476.40929  0.044457754  0.044642215            6 
  894000   0.89437648   -5.2167863    474.72292  0.044250832  0.044616891            4 
  895000   0.91029201   -5.2107541    475.76956  0.044298842  0.044591348            3 
  896000   0.89427417   -5.1891495    476.08981  0.044279187  0.044566036            5 
  897000   0.89454177   -5.1918095    476.55272  0.044272828  0.044540612           10 
  898000   0.90473009   -5.2012013    476.51787  0.044220292  0.044515191            7 
  899000   0.88395502   -5.2020105    477.04304  0.044219785  0.044490237            3 
  900000   0.89905245   -5.2294744    479.15791  0.044366473  0.044464915            7 
  901000   0.90217751   -5.1901665    477.25575  0.044141301  0.044439738            3 
  902000   0.89290952   -5.2203734    478.25985   0.04418513  0.044414693            3 
  903000   0.89010553   -5.2233865    477.28783  0.044046496  0.044389754            4 
  904000   0.88246583   -5.2145201    478.93147  0.044149287  0.044364698            4 
  905000   0.90149448   -5.2010707    479.16616  0.044122114   0.04433948            4 
  906000   0.88964872   -5.2309266    477.56499  0.043926139  0.044314079            4 
  907000   0.88835444   -5.2226464    478.40715  0.043955085  0.044288735            2 
  908000   0.86951405   -5.2106387    478.43914  0.043909613  0.044263694            4 
  909000   0.87585328   -5.2190772    479.82803  0.043988635  0.044238162            6 
  910000   0.89372541    -5.235016    478.85213  0.043850927  0.044212703            5 
  911000   0.88027604   -5.1982105    479.44539  0.043857061  0.044187508            3 
  912000   0.86854891    -5.205304    479.46659  0.043810909  0.044162115            6 
  913000   0.89408687   -5.2260348    480.16966  0.043827096  0.044136661            7 
  914000   0.88505366   -5.1991058    481.96345  0.043942692  0.044111326            4 
  915000   0.88560742   -5.2054935    482.18165   0.04391454  0.044086556            6 
  916000   0.87006547   -5.2243525    480.17793   0.04368431  0.044061347           12 
  917000   0.89156186    -5.221948     482.7203  0.043867712  0.044035977            5 
  918000   0.88998862   -5.2188446    481.52927  0.043711807  0.044010264            7 
  919000   0.89000784   -5.2042623    482.15974  0.043721413  0.043984603            3 
  920000   0.88907447   -5.2290248    482.44174  0.043699433  0.043959367            9 
  921000   0.89272947   -5.1988347    482.70099  0.043675442  0.043933735            7 
  922000   0.86983042   -5.2069124    482.46724  0.043606945    0.0439083            7 
  923000   0.88684835    -5.228284    481.87345   0.04350609  0.043882681            2 
  924000   0.87858483   -5.2088016    483.67732  0.043621692  0.043857131            4 
  925000   0.88968663   -5.2352469    484.48503    0.0436473  0.043831726            3 
  926000   0.90437472   -5.2361618    483.56821  0.043517658  0.043806304            4 
  927000   0.87790728   -5.2413317    486.36538  0.043722166  0.043781108            3 
  928000   0.87978298    -5.217601    484.73504  0.043528649  0.043755988            3 
  929000   0.87950281   -5.2471971    484.45164  0.043456372  0.043731172            6 
  930000   0.87716801    -5.228075    485.16381   0.04347346  0.043706187           19 
  931000   0.88835119    -5.224806    486.90924  0.043582997  0.043681448            5 
  932000   0.86935918   -5.2052705    486.47056   0.04349701   0.04365703            6 
  933000   0.88741985   -5.2397396    487.85794  0.043574307  0.043632735            5 
  934000    0.8862607   -5.2314943    486.86178  0.043438774  0.043608257            7 
  935000   0.89847723   -5.2378369    487.15661  0.043418592  0.043583359            3 
  936000   0.86624192   -5.2332949    487.79804  0.043429313  0.043558758            6 
  937000   0.86481033   -5.2399895    487.48727  0.043355325  0.043534162            3 
  938000   0.88031777   -5.2126367    487.46671  0.043307277  0.043509427            6 
  939000   0.86773909   -5.1996304    489.79044   0.04346738  0.043484878            4 
  940000   0.85481931   -5.2538864    487.92491  0.043255754  0.043460705            5 
  941000   0.86102391   -5.2313804    489.52322   0.04335133  0.043436175            3 
  942000   0.89423915   -5.2460162    489.28693  0.043284407   0.04341162            4 
  943000   0.88392272   -5.1967155    490.40767  0.043337546  0.043387227            2 
  944000    0.8971306   -5.2661973    489.23554  0.043188166    0.0433628            5 
  945000    0.8924817   -5.2478876     489.9204  0.043202857  0.043338711            6 
  946000   0.89478841   -5.2268171    489.88422  0.043154001  0.043314511            5 
  947000   0.87735566   -5.2472858    490.91515  0.043199151  0.043290617            4 
  948000   0.86764424   -5.2412182    490.32462  0.043101672  0.043266657            3 
  949000   0.87119619   -5.2757076    491.03157  0.043118333  0.043242643            6 
  950000   0.86607098   -5.2615045    492.07317  0.043164313  0.043218633            7 
  951000   0.88329323   -5.2731108    491.80971  0.043095838  0.043194153            5 
  952000   0.87260376   -5.2343738    491.65766   0.04303726  0.043169955            4 
  953000   0.86250476   -5.2127785    492.92625   0.04310303  0.043145988            7 
  954000   0.87298524    -5.234774    492.15342   0.04299034  0.043121626            3 
  955000   0.86410616     -5.26804    492.72404  0.042995117  0.043097155            3 
  956000    0.8787762   -5.2555921    494.75927  0.043127551  0.043073273            3 
  957000   0.88394008   -5.2674701    493.05244   0.04293386  0.043049081           15 
  958000   0.86729374   -5.2414657    495.00085  0.043058529  0.043024875            5 
  959000   0.85044502   -5.2254583    494.33677  0.042955924  0.043000583            4 
  960000   0.85444949   -5.2623075    492.81915   0.04277944  0.042976326            8 
  961000   0.88030056   -5.2639679     494.0859  0.042844771  0.042951876            5 
  962000   0.87973263   -5.2673851     494.3909  0.042826654  0.042927855            3 
  963000   0.88946594   -5.2491123    495.52314  0.042880161  0.042903228            4 
  964000   0.88080529   -5.2118471    496.27743  0.042900884  0.042879261            6 
  965000   0.86286464   -5.2283625     495.0985   0.04275462  0.042854973            6 
  966000   0.86622182   -5.2589327    495.95117  0.042783918  0.042830868            4 
  967000   0.86349569   -5.2451819    496.64897  0.042799808  0.042806819            4 
  968000   0.88380672   -5.2488834    496.38308  0.042732703  0.042782811            4 
  969000   0.87796416   -5.2284086    497.96512  0.042824657   0.04275885            5 
  970000   0.86519902   -5.2491479    497.06927  0.042703546  0.042735091            6 
  971000   0.85262558   -5.2551282    496.74501  0.042631738  0.042711522            3 
  972000   0.86832969   -5.2279937    497.97668  0.042693474   0.04268792           22 
  973000   0.86228856   -5.2786684    497.50056  0.042608818  0.042663944            6 
  974000   0.85307574   -5.2908086    498.11615   0.04261774  0.042640035            6 
  975000   0.84872164   -5.2902403     498.0303  0.042566692  0.042616197            4 
  976000   0.86119167   -5.2757652    499.73312   0.04266847  0.042592155            3 
  977000    0.8903206   -5.2990312    497.95391  0.042473039  0.042568263            4 
  978000     0.854551   -5.2198339    499.28367  0.042542917  0.042544056            5 
  979000   0.87423281   -5.2676635    498.30187  0.042415889   0.04252026            3 
  980000   0.86575633   -5.2645113    499.86039  0.042505135  0.042496212            6 
  981000   0.84861092   -5.2564045    500.81792  0.042543146  0.042472436            6 
  982000   0.88244467   -5.2745083    499.71717  0.042406413  0.042448616            8 
  983000   0.87815149   -5.2552289    502.13474  0.042568222  0.042424714            7 
  984000   0.85639614   -5.2693754    499.93719  0.042338854  0.042400825            9 
  985000   0.83697431   -5.2791932     498.1953  0.042148502  0.042376781            4 
  986000   0.83852449   -5.2503654    500.62899  0.042311443  0.042352917            9 
  987000   0.86112108   -5.2721403    501.48128  0.042340534  0.042328944            3 
  988000   0.84389126   -5.2672354    501.28209  0.042280878  0.042304904            3 
  989000   0.86675716   -5.3230685    500.75131  0.042193403  0.042280927            4 
  990000    0.8637636   -5.2766733    501.93761  0.042250641  0.042256862            6 
  991000   0.85147546   -5.3102094    500.37437  0.042076553  0.042233049            2 
  992000    0.8431721   -5.2283584    502.19206  0.042186833  0.042208987            8 
  993000   0.84640652   -5.2512427    504.86772  0.042368892  0.042185336            4 
  994000   0.85404537   -5.2745952    503.89299   0.04224455  0.042161594            6 
  995000   0.87295479   -5.3126892    503.09273   0.04213507  0.042137844           15 
  996000   0.86571586   -5.2878728    503.21063   0.04210263  0.042113972            4 
  997000   0.86904928   -5.3006184    503.43255  0.042078949  0.042089981            4 
  998000   0.84840128   -5.2756534    504.06069  0.042089236  0.042066436            7 
  999000   0.84802387    -5.266172    504.60027  0.042092114  0.042043074            4 
 1000000   0.83746999   -5.2866616     503.5792  0.041964934  0.042019558            8 
 1001000   0.85007681   -5.2843735    504.12199  0.041968197  0.041995966            6 
 1002000   0.85608982   -5.2775419     504.9245  0.041993056  0.041972537            7 
 1003000   0.85869966   -5.2904006       505.56  0.042003988  0.041949002            2 
 1004000   0.86921398    -5.275996    505.97646  0.041996718  0.041925596            5 
 1005000    0.8572543   -5.2949314    506.61753  0.042008087  0.041902063            5 
 1006000   0.84747106   -5.3158722    505.62177  0.041883845  0.041878336            5 
 1007000   0.84473626    -5.328757    503.57106  0.041672548  0.041854377           11 
 1008000   0.84149796   -5.2705531    508.66203  0.042052086  0.041830677            6 
 1009000   0.84642465   -5.3152248    506.13835  0.041801978  0.041806967            7 
 1010000   0.86202826   -5.2720381    506.40228  0.041782366  0.041783202            7 
 1011000   0.83992705   -5.2776926    506.54116  0.041752486  0.041759527            9 
 1012000   0.83103493   -5.3100514    507.86565  0.041820294    0.0417362            8 
 1013000   0.85690465   -5.2761655    509.48165  0.041911949  0.041712776            8 
 1014000   0.87692678   -5.3251661    506.91811  0.041659937  0.041689469           11 
 1015000   0.85616232   -5.3478357    505.95818   0.04154008   0.04166562           17 
 1016000   0.87075104   -5.3335543    506.15686  0.041515491   0.04164178            4 
 1017000   0.83288666    -5.324018    508.22676  0.041644277  0.041617849            4 
 1018000   0.82862743   -5.3017064    508.86756  0.041655825  0.041594304            5 
 1019000   0.83895885   -5.2806432    510.44307  0.041743791  0.041571021            7 
 1020000   0.86119051   -5.2942558     509.3468    0.0416133  0.041547786            5 
 1021000   0.83890988   -5.3016218    509.98134  0.041624334  0.041524199            5 
 1022000   0.84598152   -5.2872875     510.1383  0.041596404  0.041500658           14 
 1023000   0.85906723   -5.3200615    508.04368  0.041385115  0.041477211            4 
 1024000   0.85697412   -5.2916241    511.84367  0.041653945  0.041453814            5 
 1025000   0.83954394   -5.3170278    511.10388  0.041553161  0.041430587            5 
 1026000   0.84007787   -5.2644775    511.85008  0.041573268  0.041407151            6 
 1027000   0.82242811   -5.3063136    512.04585  0.041548674  0.041383892            4 
 1028000    0.8441078   -5.2859278    512.06679  0.041509954  0.041360549            3 
 1029000   0.83461659   -5.3001551    510.99876   0.04138312  0.041337129           13 
 1030000   0.83197748   -5.2779882    511.81223  0.041408757  0.041313523            5 
 1031000   0.81907814   -5.3122023    510.13041  0.041232656  0.041289885            9 
 1032000   0.85896916    -5.336019    511.93195  0.041338174  0.041266057            6 
 1033000   0.83363889   -5.3248205    510.82745  0.041209055  0.041242342            3 
 1034000   0.84166553   -5.3108384    510.39649  0.041134469  0.041218636            8 
 1035000    0.8203042    -5.312643    511.42647  0.041177654  0.041195066            4 
 1036000   0.86511768   -5.3117923    511.40651  0.041136303  0.041171296            6 
 1037000   0.84518959   -5.3282101      513.336  0.041251688  0.041147927            9 
 1038000    0.8480828   -5.2860874    512.74603  0.041164582  0.041124363            6 
 1039000   0.85430499   -5.3383081     512.5502  0.041109256  0.041100842            7 
 1040000   0.84789275   -5.3517312    512.71682  0.041083079  0.041077133            7 
 1041000   0.83335333   -5.3172127    512.37067  0.041015903  0.041053565            5 
 1042000    0.8482189   -5.3226618    513.69215  0.041082225  0.041029991            6 
 1043000   0.83205024   -5.3226769      513.662  0.041040428  0.041006066            3 
 1044000   0.84101265   -5.3341159    514.36084  0.041056899  0.040982446            5 
 1045000   0.82294785   -5.3420723    513.56589  0.040954218   0.04095864            6 
 1046000    0.8438793   -5.3689072    512.57455  0.040836086   0.04093458            4 
 1047000   0.82365784   -5.3373462    514.72564  0.040968293  0.040910568            6 
 1048000   0.83136092   -5.3123735    514.26077  0.040892237  0.040886677            5 
 1049000    0.8387326   -5.3340322    514.28848  0.040855456  0.040862754            4 
 1050000   0.81387956   -5.3414294    513.04573  0.040717915  0.040838552            5 
 1051000   0.83007058   -5.3381964    512.58854  0.040642922  0.040814485            3 
 1052000   0.84260594   -5.3353299    513.72244   0.04069411  0.040790443            4 
 1053000     0.812901   -5.3404271    513.61884  0.040647265  0.040766181            8 
 1054000   0.82062358   -5.3181645     517.2896  0.040898925  0.040742027            4 
 1055000   0.82867344   -5.3403551    514.40521  0.040632323  0.040717976            5 
 1056000   0.83416873    -5.316672    515.42656  0.040674444  0.040693951            5 
 1057000   0.82003753   -5.3296578    516.62933  0.040730789  0.040670119            4 
 1058000    0.8216572   -5.3545411    515.41747  0.040596839  0.040646152            5 
 1059000   0.82850433   -5.3452713    515.66346  0.040577861  0.040622355            8 
 1060000   0.84668629   -5.3334408    516.27389   0.04058757  0.040598745            4 
 1061000   0.83188375   -5.3307602    516.45418  0.040563476  0.040574835            5 
 1062000   0.83180888   -5.3117021    517.43786  0.040602468  0.040551459            8 
 1063000   0.83164099   -5.3481211    517.18902  0.040544765  0.040527968            7 
 1064000   0.82300816   -5.3191787    517.46037  0.040527911  0.040504462            5 
 1065000   0.82669897   -5.3208324     519.3527  0.040637927   0.04048068            4 
 1066000   0.84603085   -5.3206521    517.47771  0.040453229  0.040456868            5 
 1067000   0.82909017   -5.3505512     517.3481  0.040405194  0.040433041            7 
 1068000    0.8188508   -5.3763655     516.5643  0.040306203  0.040408931            6 
 1069000   0.83357917   -5.3333159    518.83313  0.040445364  0.040384857            5 
 1070000   0.83849263   -5.3440425    517.97303  0.040340578  0.040360715            5 
 1071000   0.81806917   -5.3389137    517.22715  0.040244877  0.040336501            5 
 1072000    0.8215993   -5.3537373    518.71476  0.040322976   0.04031236            3 
 1073000   0.82782749   -5.3646396    517.65375  0.040202994   0.04028813            5 
 1074000   0.81028472   -5.3464756     518.1016   0.04020031  0.040264195            7 
 1075000   0.83239514   -5.3677926    517.16119  0.040090014  0.040240276            5 
 1076000   0.82694439   -5.3519866    519.67575  0.040247503  0.040216381            7 
 1077000   0.81082125   -5.3478482    518.65603  0.040131231  0.040192222            5 
 1078000   0.80552836   -5.3515275    519.25738   0.04014049  0.040168305            4 
 1079000   0.81730771   -5.3298668    521.43468  0.040271446  0.040144289            6 
 1080000   0.83207394   -5.3416835    521.18737  0.040215075  0.040120573            3 
 1081000   0.81484514   -5.3612892    520.47783  0.040123175   0.04009664            5 
 1082000   0.82417056   -5.3257471    519.42765   0.04000521  0.040072606            6 
 1083000   0.79800371   -5.3463241    521.18695  0.040103643  0.040048588            8 
 1084000   0.81295596   -5.3963405     517.8945  0.039813538  0.040024361            5 
 1085000   0.82838964   -5.3626818    518.40471   0.03981603   0.03999986            5 
 1086000   0.82523253   -5.3335598    519.77511  0.039884523  0.039975843            4 
 1087000   0.82720814   -5.3504061    520.02669  0.039867118  0.039951808            8 
 1088000    0.8215873   -5.3606728    521.15164  0.039916639  0.039927507            8 
 1089000   0.81414609   -5.3490566    520.61127  0.039838634   0.03990306            6 
 1090000   0.80819447   -5.3927939    520.22925  0.039772879  0.039878841            6 
 1091000   0.81035504   -5.3590296     519.7164   0.03969725  0.039854236            5 
 1092000   0.82012028    -5.352875    521.61279  0.039805616  0.039829678            5 
 1093000   0.82227732   -5.3701153    519.47652  0.039606322   0.03980529            6 
 1094000   0.81547676   -5.3739593    522.37433  0.039790854    0.0397808            5 
 1095000   0.80730134   -5.3790072    520.42015  0.039605795  0.039756439            5 
 1096000   0.83845944   -5.3762154    521.40566  0.039644591  0.039732102            6 
 1097000   0.81211659   -5.3749128    520.44405  0.039535403  0.039707733            4 
 1098000   0.83166306   -5.3583981    521.92365  0.039611692  0.039683558            5 
 1099000   0.82562643   -5.3519234    522.64221  0.039630134  0.039659311            5 
 1100000   0.81305837   -5.3694759    522.59395   0.03959045  0.039634968           10 
 1101000   0.82550972   -5.3855316    521.54896  0.039475398  0.039610471            3 
 1102000   0.80415432   -5.3484852    523.88235  0.039616028  0.039586284            4 
 1103000   0.83195648   -5.3615498    522.15479  0.039449591  0.039562079            3 
 1104000   0.80488675   -5.3793133    523.36735  0.039505386  0.039537768            6 
 1105000    0.8260885   -5.3719581    523.23888  0.039459946  0.039513426            7 
 1106000   0.80823537   -5.3769186    523.63596  0.039454186  0.039489097            4 
 1107000   0.82799468   -5.3871439    522.61429  0.039341636  0.039464861            7 
 1108000   0.80367193     -5.40347    522.39122  0.039289352  0.039440707           12 
 1109000   0.78940268   -5.4070122    524.09053  0.039381615   0.03941619            5 
 1110000   0.82323166   -5.3863904    523.66288   0.03931403  0.039391991            5 
 1111000   0.82697964   -5.3743416    525.03712  0.039381722  0.039367794            7 
 1112000   0.80524844   -5.3779051    523.52013  0.039232624  0.039343663            4 
 1113000   0.81520615    -5.415695    523.83809  0.039221181  0.039319242            3 
 1114000   0.80665462   -5.4068355    524.40984  0.039228743  0.039295012            4 
 1115000   0.80736118   -5.3856724    525.13329   0.03924763  0.039270878            9 
 1116000   0.80980847   -5.3731997    525.00732  0.039203055  0.039246978            3 
 1117000    0.8149814   -5.3694488    526.65327  0.039290755  0.039223137            7 
 1118000   0.79495563   -5.4098455    525.81736  0.039193304  0.039199225           17 
 1119000   0.82341707   -5.4145569    526.13182  0.039181697   0.03917535            9 
 1120000   0.80670303   -5.3919025    526.40196  0.039166812  0.039151673            4 
 1121000   0.80761834   -5.3988818    526.65488  0.039150675  0.039127882           10 
 1122000   0.81938637   -5.4022618    527.30533  0.039164092  0.039103874            8 
 1123000    0.8028792   -5.3730225    527.39214  0.039135659  0.039080203            6 
 1124000   0.82276014   -5.3991443    528.06768  0.039150925  0.039056486           15 
 1125000   0.80769488   -5.3835968    528.83008  0.039172599  0.039033035            7 
 1126000   0.82019757   -5.3819715    527.77806  0.039059951  0.039009726            6 
 1127000   0.78203246   -5.4005893    528.14395  0.039052348  0.038986207           10 
 1128000   0.81100344   -5.3743448    529.65958  0.039129697  0.038962799            3 
 1129000   0.79293847   -5.4068832    527.82779  0.038959831   0.03893931            6 
 1130000   0.80586989   -5.4148501    528.55761  0.038979175  0.038915932            4 
 1131000   0.78720185   -5.3976942    528.89928  0.038969885  0.038892309            7 
 1132000   0.80621783    -5.419535    530.23522  0.039033806  0.038868886            5 
 1133000   0.81283228   -5.3850173    530.26129  0.039001272  0.038845566            4 
 1134000    0.8039035   -5.3719182     530.4583  0.038981356  0.038822365            7 
 1135000   0.79143502   -5.3953428    531.09588  0.038993824  0.038799016            7 
 1136000   0.80197877   -5.4079429    528.86315  0.038795712  0.038775531            8 
 1137000   0.81039947   -5.4197605    531.44465  0.038950795  0.038752222            4 
 1138000   0.81134796     -5.41043    530.13172  0.038820425  0.038728936            3 
 1139000   0.80142347   -5.3795594     531.3335  0.038874268  0.038705728            6 
 1140000   0.79397394   -5.4104955    531.82824  0.038876333  0.038682495            8 
 1141000   0.78833132   -5.4299322    530.08294  0.038714793   0.03865922           11 
 1142000   0.79765156   -5.3914381    532.12493  0.038829899  0.038636133            6 
 1143000   0.79210706    -5.385261    531.66703  0.038762542  0.038612737            5 
 1144000   0.79583588   -5.3892531    531.75057  0.038734744  0.038589612            5 
 1145000   0.79395159   -5.4002592    531.55873  0.038686953  0.038566393            4 
 1146000   0.81298612   -5.4102856    531.59548  0.038655867  0.038543179            8 
 1147000   0.79394734   -5.3997886    532.86947  0.038714724  0.038520243            5 
 1148000   0.78417329   -5.4021011    532.12344  0.038626846  0.038497174           13 
 1149000   0.79297166    -5.395683    532.33997  0.038608933   0.03847392           11 
 1150000   0.81012236   -5.4598656    530.06491  0.038410501  0.038450755            5 
 1151000    0.7931509   -5.4247027    532.33357  0.038541382  0.038427312            5 
 1152000   0.79199663   -5.3932246    533.84997   0.03861762  0.038404156            4 
 1153000   0.80139027   -5.4280584      532.203  0.038465091  0.038380941           12 
 1154000   0.80633157   -5.4236943    533.14867  0.038500048   0.03835772           10 
 1155000   0.79667055   -5.4178902    532.65128  0.038430828  0.038334394            6 
 1156000   0.78117705   -5.4078305    533.05185   0.03842646  0.038310835            6 
 1157000    0.7883794   -5.4275862    532.34286  0.038342183  0.038287478            8 
 1158000   0.78954096   -5.4326769    533.98297  0.038427099  0.038264071            5 
 1159000   0.79414263   -5.4220843     532.0542  0.038255263  0.038240623           11 
 1160000   0.79449497   -5.4397757    532.92438  0.038284798  0.038217431            8 
 1161000    0.7954413   -5.4343485    533.40851  0.038286571  0.038193951           10 
 1162000   0.79159937   -5.4237978    534.52284  0.038333537  0.038170518            4 
 1163000   0.78227723   -5.4260024    534.73764  0.038315967  0.038147128            5 
 1164000   0.81196321   -5.4431853    534.90516  0.038295043  0.038123924            3 
 1165000   0.80195235   -5.4119359    534.87645  0.038260118  0.038100806            3 
 1166000    0.8002019   -5.4626975    534.87229  0.038227008  0.038077518            8 
 1167000   0.76993184   -5.4251815    534.95464  0.038200132  0.038054228            7 
 1168000   0.79154243   -5.4313824    533.77849  0.038083511  0.038030917            9 
 1169000   0.78966337   -5.4452153    536.32792  0.038232672  0.038007662            3 
 1170000   0.78703355   -5.4360748     535.0675   0.03811022  0.037984675            9 
 1171000     0.787712    -5.422519    535.79175  0.038129216  0.037961615            9 
 1172000   0.79255455   -5.4186477    536.99548  0.038182273    0.0379387            4 
 1173000   0.77120269   -5.4396685    537.88514  0.038212925  0.037915722            6 
 1174000   0.76100954   -5.4491029    535.81714  0.038033585  0.037892782            4 
 1175000    0.7911549   -5.4279362    536.05543  0.038018116  0.037869787           11 
 1176000   0.77699653   -5.4062189    537.58662   0.03809429  0.037846831            5 
 1177000   0.78710264   -5.4406061    536.21953  0.037965132  0.037823769            4 
 1178000   0.77481651   -5.4321481    536.77924  0.037972499  0.037800798            6 
 1179000   0.79560903   -5.4270493    535.51856  0.037851184  0.037777523           10 
 1180000   0.76530559   -5.4512783    537.50838  0.037959631  0.037754222           10 
 1181000   0.78289787   -5.4491405    535.89033  0.037813317  0.037731187           11 
 1182000   0.77913997   -5.4383803    537.01551  0.037860654  0.037708115            5 
 1183000   0.77634034   -5.4333617    537.07746  0.037833014  0.037685171            8 
 1184000   0.78987575   -5.4302544    538.94951   0.03793282  0.037662329            6 
 1185000   0.78474387   -5.4579554    537.55954  0.037803062  0.037639289           11 
 1186000   0.77239109   -5.4870303    537.22012  0.037747338  0.037616192            9 
 1187000   0.76578162   -5.4240224    537.52195  0.037736728  0.037593164            5 
 1188000   0.77977771    -5.443872    538.38423  0.037765449  0.037569959            4 
 1189000    0.7743876   -5.4357367    538.65081  0.037752369  0.037546986            6 
 1190000   0.78929146   -5.4260194     537.1956  0.037618739  0.037524123           13 
 1191000    0.7906625   -5.4537041    538.27359   0.03766258  0.037500924            4 
 1192000   0.77713834   -5.4555941    538.79569  0.037667484  0.037477741            6 
 1193000   0.78378443   -5.4497085    539.51708  0.037686301  0.037454662            7 
 1194000   0.77878402    -5.469435    538.04423  0.037551942  0.037431492           11 
 1195000   0.76343468   -5.4610867    538.84702  0.037576501  0.037408457            5 
 1196000   0.77046468   -5.4794143    538.19758  0.037499831  0.037385519            5 
 1197000   0.79043012   -5.4525109    539.68625  0.037572142  0.037362623            5 
 1198000     0.795587   -5.4194326    540.31351  0.037584412   0.03733963           10 
 1199000   0.77259668   -5.4290134    540.11322  0.037539145  0.037316734            6 
 1200000   0.76635795   -5.4663133    540.25136  0.037517455  0.037293923            5 
 1201000   0.75594663   -5.4731313     538.7783  0.037384006  0.037271067            4 
 1202000   0.76640947   -5.4728142    542.26169  0.037594405  0.037248205            5 
 1203000    0.7789608   -5.4625602     539.9833  0.037405327  0.037225347            7 
 1204000   0.77274102   -5.4775598    540.87082  0.037435688  0.037202485            6 
 1205000   0.74868408   -5.4689486    539.13386  0.037284499   0.03717953            9 
 1206000   0.78329723   -5.4876443    540.03188  0.037315635  0.037156558            6 
 1207000   0.76871079   -5.4595439    540.97622  0.037349919  0.037133528            8 
 1208000   0.75575057   -5.4643216    541.24635  0.037337635  0.037110645            6 
 1209000   0.76678679   -5.4333103    543.14967  0.037437943   0.03708779            9 
 1210000   0.75940382   -5.4666837    539.78379  0.037175192  0.037064775            5 
 1211000   0.77880441    -5.482868    541.86736  0.037287872  0.037041801            7 
 1212000   0.77534695   -5.4696585    541.11144  0.037205132  0.037018886            7 
 1213000   0.76899209   -5.4705993    541.83601  0.037224238  0.036996011            8 
 1214000    0.8015011   -5.4486015    543.13251  0.037282572  0.036973128            7 
 1215000   0.77762113   -5.4818686    541.32533  0.037127937  0.036950436            7 
 1216000    0.7545273   -5.4462446    542.15079  0.037153974  0.036927486            6 
 1217000   0.77194158   -5.4975179    540.94347  0.037040775  0.036904227           14 
 1218000   0.75033222   -5.4739035    542.55825  0.037120844  0.036881163            6 
 1219000    0.7746399   -5.4768282    540.91647  0.036978156  0.036858139            8 
 1220000   0.77024711   -5.5076743    542.45888  0.037053202  0.036834837            7 
 1221000   0.76320003   -5.4527929    541.76492  0.036975493  0.036811499            4 
 1222000    0.7747437   -5.4776515    542.07341  0.036966272  0.036788345            6 
 1223000   0.76556844    -5.469219    540.69804   0.03684233  0.036765124           10 
 1224000   0.76691438   -5.4872516    541.52016  0.036868202  0.036741788            4 
 1225000   0.76837294   -5.4836159    541.80202   0.03685728   0.03671859            3 
 1226000   0.77127829   -5.4726878    542.63497  0.036883834  0.036695209            4 
 1227000   0.75840026   -5.4744187    544.21741  0.036961247  0.036671861            8 
 1228000   0.75905247   -5.4678543    541.92448  0.036775548  0.036648701           15 
 1229000   0.76642275   -5.4843369    542.86438  0.036809356  0.036625675            8 
 1230000   0.77678134   -5.4575968    543.38068  0.036814409  0.036602741           14 
 1231000   0.75766365   -5.4873417    542.24125  0.036707368  0.036579684           13 
 1232000   0.78551398   -5.5238629    542.40827  0.036688871  0.036556362           10 
 1233000   0.78529341   -5.5015095    544.11929  0.036774756  0.036532978            5 
 1234000   0.75180534   -5.4998077    544.38099  0.036762628  0.036509906            4 
 1235000   0.73662756   -5.4861703    543.11378  0.036647354  0.036486809           10 
 1236000   0.74943313    -5.497992     543.6329  0.036652704  0.036463477            7 
 1237000   0.76824476   -5.4827199    544.34988  0.036671374  0.036440141            5 
 1238000   0.76472272   -5.4889973    544.41796  0.036646336  0.036416921           12 
 1239000   0.75727203   -5.4847959    543.43026  0.036550327  0.036393816            8 
 1240000   0.76629601   -5.4563659    544.78123  0.036611642  0.036370856            6 
 1241000   0.75054051   -5.4956399     543.4412  0.036492157  0.036347816            6 
 1242000   0.75764172   -5.5179624    542.29924  0.036386154   0.03632476           10 
 1243000   0.73619073   -5.5007317    545.17393  0.036549606  0.036301613            7 
 1244000    0.7646822   -5.4717565     542.4315  0.036336515  0.036278478            9 
 1245000   0.77280644   -5.5055678    544.56562  0.036450175  0.036255592            7 
 1246000    0.7588534   -5.5360032    543.93411  0.036378686   0.03623252            6 
 1247000   0.75359457   -5.5039559    545.45862  0.036451391  0.036209411            4 
 1248000   0.76573415   -5.4747196    546.27703  0.036476832  0.036186397            7 
 1249000   0.76110354   -5.5094271    545.48655  0.036394886  0.036163512            5 
 1250000   0.76164734   -5.5097058      545.245  0.036349667  0.036140564           15 
 1251000   0.75144518   -5.5162534    545.35489   0.03632793  0.036117707           18 
 1252000   0.75314639   -5.5086656    544.87838  0.036267198  0.036094673            4 
 1253000   0.74094239   -5.5064629    545.28052  0.036264998  0.036071763           10 
 1254000   0.75736082   -5.5032928    546.19057  0.036296556   0.03604895            9 
 1255000   0.76693763   -5.4805933    546.52697  0.036289972  0.036026067           11 
 1256000   0.75064686   -5.5492116    544.85379  0.036150066  0.036003207            5 
 1257000   0.77205346    -5.507125    545.23581  0.036146633  0.035980259            5 
 1258000   0.76250357    -5.501926     546.8693  0.036226106  0.035957419            9 
 1259000   0.74267874   -5.5068119    547.26062  0.036223234  0.035934537            3 
 1260000   0.74807611   -5.5009996    545.65213  0.036088104  0.035911586            7 
 1261000   0.74355536   -5.4857722    545.38371  0.036041747  0.035888656            5 
 1262000   0.75186299   -5.5211153    545.52559  0.036022556  0.035865756           13 
 1263000   0.74717719     -5.53274     545.7499  0.036008835  0.035842748            7 
 1264000   0.75579258   -5.5123618    546.02801  0.035998682  0.035819852            8 
 1265000   0.75700093   -5.5083668    548.38987  0.036125815  0.035797003           12 
 1266000   0.73375765   -5.5075824    545.51182  0.035907834   0.03577404            5 
 1267000   0.75061131   -5.4961211     547.6408  0.036019521  0.035751084            7 
 1268000   0.75258636   -5.5469315    545.46486  0.035848111  0.035728078            7 
 1269000   0.76400548   -5.5433218    546.45759  0.035885053  0.035704986            5 
 1270000   0.74962847   -5.5303655    547.49299  0.035924737  0.035681864            6 
 1271000   0.74038454   -5.5595248    546.99988  0.035864141  0.035658853           10 
 1272000   0.76128943   -5.5436931     547.0268   0.03583771  0.035635851            9 
 1273000   0.75638061   -5.5291616    548.96034  0.035936131  0.035612956            9 
 1274000   0.73757323    -5.534614    546.93109  0.035775189  0.035590126            9 
 1275000   0.75020006   -5.5201561    547.91901    0.0358117  0.035567273           10 
 1276000    0.7355786   -5.5515187     546.0847  0.035663839   0.03554431            6 
 1277000   0.73829306   -5.5123521    546.46349   0.03566063  0.035521269            8 
 1278000   0.72039796   -5.5302342    546.71978  0.035649438   0.03549842           11 
 1279000   0.74337643   -5.5192074    548.08705  0.035710649  0.035475711            5 
 1280000   0.74857545   -5.5330259     550.0818  0.035812617  0.035453183            7 
 1281000   0.73885548   -5.5453463    548.31323  0.035669609  0.035430747            7 
 1282000   0.73299269    -5.518215    549.44852  0.035715582  0.035408228            6 
 1283000   0.74559762   -5.5102041    550.25807  0.035740327  0.035385646            6 
 1284000   0.74101369   -5.5475186    549.95025  0.035692514  0.035363159            5 
 1285000   0.73806319   -5.5198141    547.97425  0.035536592  0.035340523            5 
 1286000    0.7517736   -5.5536786    548.20234  0.035523739   0.03531774            7 
 1287000    0.7384378   -5.5390143    550.16949   0.03562351  0.035295035            9 
 1288000   0.73183243    -5.519609    549.61887  0.035560227  0.035272126            7 
 1289000    0.7340118   -5.5420807    550.62316  0.035597566  0.035249531            6 
 1290000   0.74546033   -5.5150613    551.32994  0.035615629   0.03522708           10 
 1291000   0.75330538   -5.5411631    549.91074  0.035496433  0.035204716            7 
 1292000   0.74076348   -5.5408861     551.3504  0.035561816   0.03518222           10 
 1293000   0.74703343   -5.5448232    551.67028  0.035554929  0.035159754            8 
 1294000   0.74384103   -5.5343329    550.13516  0.035428591  0.035137238            6 
 1295000   0.75177339   -5.5420107    550.38944  0.035417596   0.03511485           19 
 1296000   0.74486604   -5.5283979    551.35328  0.035452243  0.035092349            7 
 1297000   0.74378684   -5.5424237    549.67552  0.035317111   0.03506991            9 
 1298000   0.73205917   -5.5323791    552.45452  0.035468318  0.035047385            7 
 1299000   0.74500399   -5.5729072    551.43229  0.035375435  0.035024887           15 
 1300000    0.7444346   -5.5524526      551.992  0.035384102  0.035002545            6 
 1301000   0.72070201   -5.5717755     550.7837  0.035279509  0.034980186            8 
 1302000   0.73329796   -5.5500654    551.24758  0.035282103  0.034957652            9 
 1303000    0.7451749   -5.5530708    551.06629  0.035243431  0.034935336           11 
 1304000   0.73269666   -5.5503845    550.94713  0.035208789  0.034913038            6 
 1305000   0.72759318   -5.5487888    551.92721  0.035244394  0.034890578            7 
 1306000   0.73769039   -5.5489858    552.34189  0.035243867  0.034868309            8 
 1307000   0.72907767    -5.553467    551.90949  0.035189333  0.034846108            8 
 1308000   0.75639519   -5.5495486    551.54653  0.035139305  0.034823869           10 
 1309000   0.72667969   -5.5730877    552.79821  0.035192145  0.034801676           11 
 1310000   0.73004156   -5.5744433    552.20434  0.035127502  0.034779331           10 
 1311000   0.75409034   -5.5642653    551.99618  0.035087476  0.034757017           10 
 1312000    0.7373163   -5.5668805    551.66466  0.035039676  0.034734926            6 
 1313000   0.72670444   -5.5717115    552.00898  0.035034843  0.034712638           17 
 1314000   0.73287065   -5.5522075    554.78598  0.035184296  0.034690407            7 
 1315000   0.72225078   -5.5626496    552.14716  0.034990314   0.03466814            2 
 1316000   0.73635465   -5.5298156    553.04545  0.035020608   0.03464587            6 
 1317000   0.72336349   -5.5922644    553.05591  0.034994679  0.034623589            9 
 1318000   0.72073082   -5.5744638    553.10979  0.034971534  0.034601231           10 
 1319000   0.74554089   -5.5872438    551.62587  0.034851268   0.03457878            6 
 1320000   0.72185585   -5.5732912    551.60696  0.034823672  0.034556158           11 
 1321000   0.73172777   -5.5696576    551.28698  0.034777124  0.034533533            4 
 1322000   0.72292473    -5.577482    551.99037  0.034795157  0.034510825            8 
 1323000   0.72580429   -5.5761687    552.05255  0.034772773  0.034488175            7 
 1324000   0.72674503   -5.5741902    552.47695  0.034773222  0.034465683            8 
 1325000   0.72633946   -5.5445214    552.97412  0.034778247  0.034443278           10 
 1326000   0.72255001   -5.5810609    552.44185  0.034718568  0.034420741            9 
 1327000   0.72423158   -5.5787089    552.80261   0.03471506  0.034398211           10 
 1328000   0.71494637   -5.5827767    552.08673  0.034643996  0.034375548            7 
 1329000   0.70911635   -5.5707172     553.3431  0.034696708   0.03435302           13 
 1330000    0.7075477   -5.5865146    552.11432  0.034593629  0.034330569            7 
 1331000   0.72339365   -5.5895527    551.39364  0.034522517  0.034308222           11 
 1332000   0.73020435    -5.582776    553.33147  0.034617835  0.034285602            8 
 1333000   0.72068783   -5.5790342    552.32968  0.034529238  0.034263105           10 
 1334000   0.73925815    -5.597838    552.89159  0.034538455  0.034240701           12 
 1335000    0.7316769   -5.5675965    553.30037  0.034538101   0.03421827            8 
 1336000   0.71642343   -5.6060725    551.82739  0.034420371  0.034195952           10 
 1337000   0.71262463   -5.5837156    554.79375  0.034579516  0.034173579           10 
 1338000   0.70594827   -5.5942661    553.14885  0.034451224  0.034151141            9 
 1339000   0.72784177   -5.5644257    553.37179   0.03443937  0.034128717           12 
 1340000   0.72478495   -5.5729136    553.86385  0.034444269  0.034106206           14 
 1341000   0.71002559   -5.5977671    552.56248  0.034337713  0.034083688            7 
 1342000   0.71371731   -5.6088722     552.0405  0.034279713  0.034061073           28 
 1343000   0.71591306   -5.5875068    552.99768  0.034313581   0.03403836           11 
 1344000   0.73499986   -5.6006455    553.60694  0.034325827  0.034015818            7 
 1345000   0.72508324   -5.5879752    554.97609  0.034385135  0.033993393            9 
 1346000   0.71221409   -5.5953422    553.72729  0.034282274  0.033971021           12 
 1347000   0.71946048   -5.5645181    553.83507  0.034263491  0.033948588            6 
 1348000   0.72714399   -5.5495274    554.94112  0.034306449  0.033926256           10 
 1349000   0.72066844   -5.5973363    553.21789  0.034174567  0.033903873            6 
 1350000   0.72977576   -5.5892461    556.08808  0.034326425  0.033881515            9 
 1351000   0.70939714   -5.5921227    554.14673  0.034181269  0.033859211            8 
 1352000   0.72290906   -5.6081366    552.43358  0.034050393  0.033836647           13 
 1353000   0.70799071   -5.6060026    553.16127  0.034070046  0.033814255            8 
 1354000   0.71265744   -5.6116841    552.74337  0.034019163  0.033791741            7 
 1355000   0.71452446   -5.6148921    555.51495  0.034164511  0.033769378            9 
 1356000   0.71818031   -5.5970206    555.20637  0.034120352  0.033746963           18 
 1357000   0.71609482   -5.6138691    554.16577  0.034031305  0.033724739            9 
 1358000   0.71542758   -5.5888122     555.1627  0.034067422  0.033702382            7 
 1359000   0.70578653   -5.6229785    555.21217  0.034045387  0.033680027            4 
 1360000   0.71485983   -5.6151118    553.32939  0.033904987  0.033657615            8 
 1361000   0.71868074   -5.6019693    556.54933  0.034077231   0.03363538           11 
 1362000   0.69573911   -5.6098757    554.41034  0.033921337    0.0336131           13 
 1363000   0.70410099   -5.5888607    555.62807  0.033970902  0.033590866            9 
 1364000   0.68677653   -5.6005873    555.27025  0.033924135  0.033568635           10 
 1365000   0.71036593   -5.5989875    556.00841  0.033944347  0.033546444            7 
 1366000   0.69984678   -5.6126336    554.56101  0.033831199  0.033524076            8 
 1367000   0.69314955   -5.5899647     556.1523  0.033903456  0.033501653            8 
 1368000   0.71602175   -5.6240373    554.56724  0.033782117  0.033479324            6 
 1369000   0.71658242   -5.6130359    554.77512  0.033770095  0.033457115           12 
 1370000   0.69312375   -5.6309949    555.84626    0.0338106  0.033434919           18 
 1371000   0.68913244   -5.6358684    555.16787  0.033744704  0.033412591           17 
 1372000     0.701621   -5.6224103     554.9632  0.033707678   0.03339035            6 
 1373000   0.70608373   -5.6224598    554.52209  0.033656354  0.033368038           15 
 1374000   0.71333063   -5.6459645    553.82611  0.033589648  0.033345715            7 
 1375000   0.70605028   -5.5928084    555.15866  0.033645979  0.033323374           11 
 1376000   0.67485783   -5.6280121    556.27417  0.033689085  0.033301142           12 
 1377000   0.69881195   -5.6188754    555.67642  0.033628445  0.033279001            7 
 1378000    0.7066924   -5.6633437    556.44635  0.033650602  0.033256838            5 
 1379000   0.69436409   -5.6353584     554.9848  0.033537878  0.033234531            7 
 1380000   0.71385537   -5.6392515    557.10609  0.033641672  0.033212272            9 
 1381000   0.70233532   -5.6119769    556.04629   0.03355336  0.033190093            9 
 1382000   0.70651166   -5.6244381     557.2405  0.033601092  0.033168036           18 
 1383000    0.6852306   -5.6018228    557.51967  0.033593617  0.033145995           12 
 1384000   0.68387053   -5.6269137    555.72335  0.033461184  0.033124068            5 
 1385000   0.69873336   -5.6291311    555.88587  0.033446803  0.033102022            9 
 1386000   0.69188476   -5.6276747    556.59446  0.033465275  0.033079901            5 
 1387000   0.71402573   -5.6140408    556.33355  0.033425471  0.033057966            7 
 1388000   0.69327003    -5.631852    557.28281  0.033458382  0.033036029           18 
 1389000   0.70170207   -5.6434792    557.06634  0.033421307  0.033014013            5 
 1390000   0.68923923   -5.6506092     557.2499  0.033408267  0.032991944            8 
 1391000   0.68949541   -5.6498498    557.57909  0.033403971  0.032969937           12 
 1392000   0.70423453   -5.6374033    558.08401  0.033410202  0.032947901           19 
 1393000   0.69031021   -5.6450763    556.65721  0.033300862  0.032926028            8 
 1394000   0.69898683   -5.6306456    559.15994  0.033426586  0.032904131           10 
 1395000   0.70531545   -5.6529439    556.97963   0.03327238  0.032882296            5 
 1396000   0.71663189   -5.6246349    558.40163  0.033333431  0.032860528           11 
 1397000    0.7016598   -5.6407954    558.89932  0.033339258  0.032838807           13 
 1398000   0.69786992   -5.6482853    558.57131  0.033295858  0.032816978            6 
 1399000   0.70531604   -5.6504448    558.00677   0.03323843  0.032795126           11 
 1400000   0.68054693   -5.6819016    558.30559  0.033232476  0.032773324            8 
 1401000   0.67587053   -5.6425791    559.15758  0.033259433  0.032751563            7 
 1402000   0.69137085   -5.6546975     557.7098  0.033149655  0.032729853            8 
 1403000   0.67961355   -5.6373695    558.97291  0.033201052  0.032708293            9 
 1404000   0.68155974   -5.6345818    559.39625  0.033202532  0.032686571            8 
 1405000   0.71056882   -5.6649162    558.44869  0.033122698  0.032664806            9 
 1406000   0.69881431   -5.6406234    558.32181   0.03309162  0.032642961           15 
 1407000   0.68729366   -5.6688743    559.43442  0.033133998  0.032621358           14 
 1408000   0.68585606    -5.667302    557.84689  0.033016506  0.032599688           10 
 1409000   0.68650319   -5.6575042     558.8515   0.03305249  0.032577973           12 
 1410000   0.68568381   -5.6602575    559.12786  0.033045382  0.032556362           14 
 1411000   0.68538508   -5.6653597    558.55994  0.032988421  0.032534567            7 
 1412000   0.68874415   -5.6546424    558.32129  0.032950973  0.032512909            4 
 1413000   0.68687749   -5.6393959     560.7018  0.033068046  0.032491199            6 
 1414000   0.69971169   -5.6615789    558.33138  0.032904961  0.032469646           17 
 1415000   0.68325101   -5.6608039    558.87967  0.032913997  0.032448032            7 
 1416000   0.70803178   -5.6688985    559.85748  0.032948298  0.032426234           10 
 1417000   0.68826492   -5.6530643    558.10533  0.032822003  0.032404484            8 
 1418000   0.69440669    -5.659246    556.74279  0.032718782  0.032382698           17 
 1419000   0.69586878   -5.6507584     559.0766  0.032832781   0.03236096           10 
 1420000   0.68772529   -5.6767046    559.91574  0.032858905  0.032339212           17 
 1421000   0.69145836   -5.6639879    559.15834  0.032791364  0.032317436           12 
 1422000   0.67429257   -5.6615083    560.29348  0.032834827  0.032295661            6 
 1423000   0.68613574   -5.6630095    559.26194  0.032751343  0.032273988           12 
 1424000   0.69016209   -5.6547383      559.364  0.032734317  0.032252262           18 
 1425000   0.67716785   -5.6686552     559.1944  0.032701427  0.032230545           11 
 1426000   0.68436214   -5.6584842    559.92406  0.032721135    0.0322089            9 
 1427000   0.69590563   -5.6633956    561.13901  0.032769155  0.032187417            7 
 1428000   0.68569605    -5.679824    560.22884  0.032693093  0.032165819           10 
 1429000   0.68191098   -5.6576161    559.70433  0.032639627  0.032144323           10 
 1430000   0.69206601   -5.6429859    562.30965  0.032768627  0.032122879           16 
 1431000   0.69084558   -5.6846199    559.40588   0.03257663  0.032101456            6 
 1432000    0.6761442   -5.6648216    560.19974  0.032600078  0.032079992            8 
 1433000   0.67463662   -5.6329999    561.72502  0.032666028  0.032058607           13 
 1434000   0.69460976   -5.6533854    560.88185   0.03259425  0.032037331           12 
 1435000   0.66232877   -5.6723899    560.99967  0.032578378   0.03201597            9 
 1436000   0.68497595   -5.6894806    558.79982  0.032428031  0.031994516           24 
 1437000    0.6716349   -5.6646029    561.96674  0.032589118  0.031973085           14 
 1438000   0.68811914   -5.6863052    559.15162  0.032403316  0.031951634            8 
 1439000   0.67195831   -5.6766325    560.21814  0.032442561  0.031930164           18 
 1440000   0.67691829   -5.6647914    560.61842  0.032443196  0.031908736           22 
 1441000   0.69726482   -5.6845949    561.28885  0.032459453  0.031887344           20 
 1442000   0.65462324   -5.6646352    561.11953  0.032427157   0.03186608           24 
 1443000    0.6697936   -5.6880891    560.12745  0.032347392  0.031844702            9 
 1444000   0.68581306   -5.6899481    559.77808  0.032304829  0.031823247           13 
 1445000   0.68232975   -5.6763147    561.61528  0.032388425  0.031801772            9 
 1446000   0.67966439   -5.6706243      561.688  0.032370217  0.031780337           12 
 1447000   0.68221833   -5.7137626     559.4496  0.032218936  0.031758948           24 
 1448000   0.65847529   -5.7004874    560.44122  0.032253753  0.031737465           11 
 1449000   0.66275392   -5.6714382    561.08642    0.0322686  0.031715995           13 
 1450000   0.70106199    -5.692923    562.30293  0.032316261  0.031694671           10 
 1451000   0.66849566    -5.693975    560.66642  0.032200001   0.03167332           12 
 1452000   0.68719557   -5.7223719    560.70705  0.032180157  0.031651996            4 
 1453000    0.6830493   -5.6864678    561.61568  0.032210122  0.031630683            9 
 1454000   0.67375395   -5.6910831    562.12696  0.032217272  0.031609411            7 
 1455000    0.6755925   -5.6946635    560.09188  0.032078573  0.031588315           23 
 1456000   0.67006032   -5.6940276    560.41175  0.032074848   0.03156711            8 
 1457000   0.68063616   -5.7002508    561.08919   0.03209158  0.031545887           23 
 1458000   0.66660162   -5.6942179    561.64276  0.032101209  0.031524626            9 
 1459000   0.66733143   -5.6762189    562.36048  0.032120201  0.031503471           12 
 1460000   0.67131153   -5.6981876    563.75256  0.032177658   0.03148247           13 
 1461000   0.65284141   -5.7146644    561.37843  0.032020216  0.031461365           25 
 1462000   0.67403146   -5.7089487    561.18257   0.03198715  0.031440149           10 
 1463000   0.67867708   -5.6957965    562.86539  0.032061141  0.031419041           15 
 1464000   0.67023356   -5.7019522    562.58824  0.032023465  0.031397985           20 
 1465000   0.67748691   -5.7448616     560.5196  0.031883936  0.031376649           12 
 1466000   0.65109988   -5.7039395    562.58945  0.031979846  0.031355374           11 
 1467000    0.6769296    -5.710274    562.82281  0.031971303  0.031334227            8 
 1468000   0.68453236   -5.7060637    563.02362  0.031960923  0.031313099           22 
 1469000   0.66096194   -5.6922845    561.81282   0.03187048  0.031292019           13 
 1470000   0.69132395   -5.6765294    563.47904  0.031943256  0.031271051           13 
 1471000   0.66040265   -5.7103826    561.73972  0.031823007  0.031250092           15 
 1472000   0.67678436   -5.7395822    562.40396  0.031838992     0.031229           11 
 1473000   0.66580078   -5.7074176    561.22538  0.031750701  0.031207831           21 
 1474000   0.67551875   -5.7138601    561.78269  0.031760668  0.031186798           20 
 1475000   0.66236212   -5.7140204    563.52959   0.03183783  0.031165923            8 
 1476000   0.66516595   -5.7309927    561.93961  0.031726491  0.031144934           11 
 1477000   0.68245855    -5.720737     563.2488  0.031778876  0.031123886           18 
 1478000   0.65622761   -5.7202038     562.9078  0.031738149  0.031102842           13 
 1479000   0.66104382   -5.7152033    563.20285  0.031733314  0.031081834            9 
 1480000   0.66932496   -5.6955058    563.10554  0.031706393  0.031060921           23 
 1481000     0.665512   -5.7141666    562.22817  0.031635616  0.031039956           30 
 1482000   0.66725821   -5.7318492    561.53096  0.031575065  0.031018981           20 
 1483000   0.65943691   -5.7356697    563.32621  0.031654653  0.030998079           12 
 1484000   0.66210148   -5.7182204     563.2747   0.03163043  0.030977261           14 
 1485000   0.67834678   -5.7304117    563.65056  0.031630222  0.030956346           27 
 1486000   0.64084861   -5.7348988    562.63056  0.031551736  0.030935395           25 
 1487000   0.66273997   -5.7208622    562.20276  0.031506543  0.030914556           18 
 1488000   0.66106752   -5.7282684    564.01336   0.03158677   0.03089374           15 
 1489000   0.66272413    -5.753434    564.42447  0.031588564   0.03087288            8 
 1490000   0.65349721   -5.7261612    562.29102  0.031448044  0.030852189           14 
 1491000   0.63980982   -5.7223827    564.20903  0.031534151  0.030831584           24 
 1492000   0.65627179   -5.7297635    565.60816  0.031591161  0.030810881            9 
 1493000    0.6595957   -5.7269525    564.28891  0.031496367  0.030790303           10 
 1494000   0.64755871   -5.7142318    566.50552  0.031598925  0.030769783           17 
 1495000   0.66058987   -5.7281976    562.97089  0.031380763  0.030749147            7 
 1496000   0.66585118   -5.7296915    565.79269  0.031516972  0.030728547            8 
 1497000   0.66900121   -5.7332613    564.88826  0.031445572  0.030708038           11 
 1498000   0.65631093   -5.7446009    564.95471  0.031428277  0.030687543            6 
 1499000   0.65229549    -5.730877    564.71744  0.031394121  0.030667058            9 
 1500000   0.66479376   -5.7454675    564.75196  0.031375109  0.030646569            9 
 1501000   0.66599665   -5.7288391    564.62899  0.031347379  0.030625958           10 
 1502000   0.65675732   -5.7316696    564.15384  0.031300146  0.030605311            9 
 1503000   0.62401361   -5.7362772    565.03459  0.031328154  0.030584757           17 
 1504000   0.64104887   -5.7404403    564.06474  0.031253587  0.030564308           10 
 1505000   0.63455346   -5.7315552    565.90426  0.031334676  0.030543876           18 
 1506000   0.64567755   -5.7586183     564.6096  0.031242231  0.030523344           11 
 1507000   0.63105559   -5.7212028     565.1481  0.031251277  0.030502902            7 
 1508000    0.6493851   -5.7259516    565.26235  0.031236867  0.030482557           20 
 1509000   0.63767335   -5.7629017    564.31675  0.031163947   0.03046221           10 
 1510000   0.63518049   -5.7178068       565.96  0.031233996  0.030441852           11 
 1511000    0.6495781   -5.7347552    565.62502   0.03119485  0.030421389           13 
 1512000   0.64667236   -5.7528251    566.48371  0.031221545  0.030400986           20 
 1513000   0.65181765   -5.7400758    564.77429  0.031106757  0.030380635            7 
 1514000    0.6470672   -5.7392641    566.64625  0.031189248  0.030360214            6 
 1515000   0.64972891   -5.7425001    564.32321  0.031040881  0.030339864           14 
 1516000    0.6547101   -5.7472103    565.85468  0.031104589  0.030319559           13 
 1517000   0.65758237   -5.7682242    565.17587  0.031046796  0.030299198           21 
 1518000   0.63962863   -5.7834084    565.23768  0.031029737  0.030278628           12 
 1519000   0.63437914    -5.743094    563.94273  0.030938267  0.030258001           22 
 1520000   0.65490631   -5.7697402    565.56219  0.031006699  0.030237402           20 
 1521000   0.64353322   -5.7869398    563.91323  0.030895969  0.030216874           16 
 1522000   0.63879371   -5.7465714    566.10386  0.030995612  0.030196392           12 
 1523000   0.65306987   -5.7607533     565.9189   0.03096514  0.030176079           15 
 1524000   0.65541423   -5.7533275    564.40082  0.030861812  0.030155779           14 
 1525000   0.64349249   -5.7309814    565.86104  0.030921369  0.030135545            7 
 1526000    0.6661494    -5.741487     565.3735  0.030874481  0.030115195            9 
 1527000   0.63902285   -5.7469636    567.55171  0.030973134   0.03009489            9 
 1528000   0.63658037   -5.7276344    566.92126  0.030918481  0.030074523           12 
 1529000   0.64507589   -5.7687655    565.68176  0.030830704  0.030054063            7 
 1530000   0.62990843   -5.7826453    565.93574  0.030824386   0.03003363            8 
 1531000   0.63020966   -5.7644664    566.33918  0.030826213  0.030013142           15 
 1532000    0.6385948   -5.7614153    565.45478  0.030757984  0.029992698            7 
 1533000   0.63060709   -5.7745936    564.18414  0.030668848  0.029972134           10 
 1534000   0.64195458   -5.7868242    564.02734  0.030640338   0.02995157           19 
 1535000   0.64625208   -5.7778754    564.55124  0.030648819  0.029931034           16 
 1536000   0.63976698   -5.7591544    563.03028  0.030546348  0.029910469           24 
 1537000   0.64338512   -5.7507861    565.40386  0.030655165  0.029890023           14 
 1538000    0.6379962   -5.7690598    564.57574  0.030590363  0.029869547           37 
 1539000   0.62383869   -5.7602353    563.74953  0.030525749  0.029849188           18 
 1540000   0.64491502    -5.790125    564.97099  0.030572023  0.029828769           35 
 1541000   0.64349936   -5.7701889    564.99813  0.030553652  0.029808417           21 
 1542000   0.63495241    -5.789179    565.67065  0.030570182  0.029788158           28 
 1543000   0.62411462   -5.8200694    564.98273  0.030513217  0.029767859           13 
 1544000    0.6346772   -5.7849749    564.51045  0.030467965  0.029747492            7 
 1545000   0.63165745   -5.7744213    566.03532  0.030530492  0.029727128            9 
 1546000   0.64463894   -5.7620935    564.81187  0.030444797  0.029706853            9 
 1547000   0.63983031   -5.7767186    566.75011  0.030529525  0.029686592           20 
 1548000   0.63653821   -5.8047381    564.90949  0.030410718   0.02966635           12 
 1549000   0.62797034    -5.787302    565.79695  0.030438829  0.029646097            5 
 1550000   0.64846749   -5.7775681    565.37655  0.030396589  0.029625827           22 
 1551000   0.63004446   -5.7664858    566.16531   0.03041937  0.029605588           13 
 1552000   0.62871754   -5.7623337    566.14776  0.030398827  0.029585449           10 
 1553000   0.63662902   -5.8189226     565.2649  0.030331879  0.029565122           30 
 1554000   0.62243472    -5.818131    564.58433  0.030275865   0.02954474           20 
 1555000   0.63370454   -5.7973812    565.23102  0.030291051  0.029524468           14 
 1556000   0.63500079   -5.8079197    566.23593  0.030325403  0.029504131           12 
 1557000   0.64475518   -5.8054409    565.11705  0.030246042   0.02948388            4 
 1558000   0.63122385   -5.8010425    565.37586  0.030240472  0.029463576            9 
 1559000    0.6431821   -5.7766537    566.99813  0.030307789  0.029443398           10 
 1560000   0.61163091   -5.7748567    567.75284  0.030328677  0.029423264           11 
 1561000   0.62814736   -5.7814303    565.54432  0.030191347  0.029403049            6 
 1562000   0.62535036   -5.7863603    566.89735  0.030244203  0.029382803           31 
 1563000   0.64470667   -5.8050887    565.39774    0.0301449  0.029362603           14 
 1564000   0.63345869   -5.8003995    563.62608  0.030031228  0.029342405           22 
 1565000   0.63684043   -5.8167765    565.87216  0.030131638  0.029322233           33 
 1566000   0.63946304   -5.7949157    565.82502  0.030109888  0.029302057           29 
 1567000   0.62514237   -5.7906563    565.45734   0.03007112  0.029281862           16 
 1568000   0.62619514   -5.7974332    565.04226  0.030029882  0.029261794           19 
 1569000   0.61446648   -5.8113627    565.87537  0.030054991   0.02924167           26 
 1570000   0.61782333   -5.8013211    566.39966  0.030063676  0.029221577           31 
 1571000   0.63313232   -5.7928733    566.06223   0.03002664  0.029201551           14 
 1572000   0.63523322   -5.7860144    566.04303  0.030006522  0.029181565           10 
 1573000   0.62189061   -5.8042258    566.11768  0.029991401  0.029161532           16 
 1574000   0.63182233   -5.7819737    566.69186  0.030002746  0.029141426           10 
 1575000   0.63268855   -5.7946621    567.28843  0.030015261  0.029121406           16 
 1576000   0.61773665   -5.8012596    566.95458  0.029978563  0.029101451           12 
 1577000   0.62796849   -5.8023819     566.9545  0.029959549  0.029081418           13 
 1578000   0.63530301    -5.812292    564.13585  0.029791712   0.02906143           15 
 1579000   0.61365626   -5.7934176    566.78861  0.029912846  0.029041457           13 
 1580000    0.6298318   -5.8162106    566.00618  0.029852647  0.029021531           13 
 1581000   0.62098466   -5.8155301    566.37641  0.029853279  0.029001701           22 
 1582000   0.63590192   -5.7930379    566.88928  0.029861424  0.028981788           29 
 1583000   0.62096745   -5.8071626    567.59331  0.029879622  0.028961923           15 
 1584000    0.6224624   -5.8141774     566.5071  0.029803614  0.028942072           16 
 1585000   0.62781316   -5.8101494    565.61534  0.029737925  0.028922233           13 
 1586000   0.61777227   -5.8477952    566.77784  0.029780256  0.028902409           27 
 1587000   0.61556939   -5.7999642    567.38192  0.029793211  0.028882557           13 
 1588000   0.62381454   -5.8108516    566.62381  0.029734667  0.028862787           28 
 1589000     0.608511   -5.8350724    568.14789  0.029795883  0.028843015           16 
 1590000   0.61525756   -5.8030571    567.41398  0.029738678  0.028823257           15 
 1591000   0.61876371   -5.8301666    567.24154  0.029710954  0.028803548           15 
 1592000   0.61289715   -5.8191652    567.58481   0.02971026  0.028783837           24 
 1593000   0.62547137   -5.8416792    567.51775  0.029688102   0.02876407           13 
 1594000   0.63330541   -5.8238726    567.05264  0.029645161  0.028744409           31 
 1595000   0.61317788   -5.8021677    568.82545  0.029719198   0.02872483           10 
 1596000   0.62105563     -5.83251     566.9453  0.029602407  0.028705176           12 
 1597000   0.60669196   -5.8295069    566.13145  0.029541403   0.02868554           15 
 1598000   0.61730485   -5.8115823     567.7913  0.029609475   0.02866594           10 
 1599000   0.62248648   -5.7887248     568.2844  0.029616656   0.02864634           13 
 1600000   0.60937676   -5.8346674    567.11913  0.029537455  0.028626732           14 
 1601000   0.63104966   -5.8005585    568.83482  0.029608308  0.028607174           13 
 1602000    0.6109062    -5.834053    568.05562  0.029549293  0.028587648           12 
 1603000   0.62922022   -5.8082064    567.99168  0.029527536  0.028568198           11 
 1604000   0.62372207   -5.8300379    568.45742  0.029533324  0.028548652           11 
 1605000   0.61239466   -5.8371188    567.93755  0.029487931  0.028529077           17 
 1606000   0.61174419   -5.8268268    566.62876  0.029401658  0.028509577           31 
 1607000   0.59607627    -5.852547    567.06999  0.029406243  0.028490007           20 
 1608000   0.62314211   -5.8632577    566.24274  0.029345084  0.028470411           39 
 1609000   0.61477996   -5.8372202    568.57222  0.029447495  0.028450841           22 
 1610000   0.61546265   -5.8375383    568.99718    0.0294512  0.028431419           10 
 1611000   0.61615144   -5.8459035    567.11488  0.029335551  0.028411919           27 
 1612000   0.60414679   -5.8547305    568.91136  0.029410223  0.028392452           24 
 1613000   0.62188018   -5.8443816    567.06545  0.029296624   0.02837297           46 
 1614000   0.60816641   -5.8410585    568.54719  0.029354977  0.028353486           31 
 1615000   0.60353585    -5.842816    566.62866  0.029237805  0.028334081           21 
 1616000   0.60615857   -5.8572104    566.35096  0.029205392   0.02831471           25 
 1617000   0.60902603    -5.857643     567.0059  0.029221083   0.02829525           14 
 1618000   0.61514907   -5.8342346    568.69366   0.02928995  0.028275762           35 
 1619000   0.61264405   -5.8583243    567.74153   0.02922285  0.028256313           27 
 1620000   0.59989499   -5.8596217    566.18127  0.029124551  0.028236811           15 
 1621000   0.59650873   -5.8479652    566.85942  0.029141447   0.02821734           14 
 1622000   0.61546312   -5.8539958    567.23572  0.029142814  0.028197956           20 
 1623000   0.59989646   -5.8790104    568.29981  0.029179493  0.028178486           43 
 1624000   0.59074764   -5.8512284    568.08676  0.029150593  0.028159081           27 
 1625000   0.60764346   -5.8653022    568.20788  0.029138866  0.028139665           12 
 1626000   0.60875337   -5.8345774    568.53357  0.029137637  0.028120309           31 
 1627000   0.60337171    -5.835145    568.88846  0.029137905  0.028100977           10 
 1628000   0.60213004   -5.8538196    567.85762  0.029067241  0.028081637           13 
 1629000   0.59709735   -5.8603342    568.21127  0.029067489  0.028062347           10 
 1630000     0.598235   -5.8525485    568.42836  0.029060754  0.028043046           10 
 1631000   0.59819345   -5.8436281    569.64295  0.029104994  0.028023772           19 
 1632000   0.59348085   -5.8512856    568.47829  0.029027691  0.028004465           24 
 1633000   0.61165513   -5.8779137    568.58444  0.029015332  0.027985062           35 
 1634000   0.59922361   -5.8530945    566.83069  0.028908134  0.027965724            9 
 1635000   0.60402193    -5.854265      567.369   0.02891789  0.027946333           30 
 1636000   0.60038945   -5.8723728    567.65461  0.028914762  0.027926957           13 
 1637000   0.61246039   -5.8596269    568.16867  0.028923268  0.027907634           20 
 1638000   0.61478598   -5.8614424    568.45912  0.028920387  0.027888298           35 
 1639000   0.61232651   -5.8814543    569.24012  0.028942451  0.027868918           61 
 1640000   0.59817149   -5.8634416    568.34046  0.028879089  0.027849662           26 
 1641000   0.59868827    -5.868476    568.41099  0.028865071  0.027830469           20 
 1642000   0.60333892   -5.8707275    566.86106  0.028768832  0.027811224           16 
 1643000   0.59765448   -5.8791705    567.64953  0.028791313  0.027791929           22 
 1644000   0.60199464   -5.8801207     567.5348  0.028767985  0.027772659           28 
 1645000   0.59266234   -5.8804098    568.23333  0.028785883  0.027753453           23 
 1646000   0.59636336   -5.8625746    567.95932  0.028754522  0.027734225           30 
 1647000   0.58862291    -5.891947    568.75833  0.028777491  0.027715001           15 
 1648000   0.60408781   -5.8638121    567.42702   0.02869271  0.027695722           50 
 1649000   0.59955238   -5.8720303    567.64619  0.028686385  0.027676498           30 
 1650000   0.59562076   -5.8887019    567.92158  0.028682908  0.027657232           42 
 1651000   0.58979587   -5.8656535    568.64684  0.028702142  0.027638007           71 
 1652000   0.59320529   -5.8969986    567.75702  0.028639882  0.027618797           42 
 1653000   0.59031965   -5.8842156    567.36455   0.02860277  0.027599684           29 
 1654000   0.58464606   -5.8782187    568.87069  0.028661361  0.027580586           16 
 1655000   0.60250779   -5.8794169     567.8167  0.028590972  0.027561407           34 
 1656000   0.59838376   -5.8967336    569.18737  0.028642682  0.027542261           20 
 1657000   0.59381099   -5.8835398    569.65875  0.028649102  0.027523161           11 
 1658000   0.58249524   -5.8573958    568.39868   0.02856849  0.027504034           20 
 1659000   0.58096293   -5.8795686    567.54576  0.028508427  0.027484972           16 
 1660000   0.59055414   -5.8881923    567.63725  0.028495846  0.027465907           19 
 1661000   0.58157539   -5.8623667    569.10102  0.028552128  0.027446889           14 
 1662000   0.59434593   -5.8682137    567.41191  0.028450256  0.027427768           37 
 1663000   0.58609549   -5.9006988    567.75359   0.02845027  0.027408675           13 
 1664000   0.58951505   -5.8974778    567.40844  0.028415887   0.02738963           24 
 1665000   0.59391649   -5.9109504    567.21984  0.028389381  0.027370561           23 
 1666000    0.5888059   -5.8845171    568.40033  0.028431389  0.027351473           18 
 1667000   0.59160832   -5.8842984    568.07578  0.028398109  0.027332408           21 
 1668000   0.58331195   -5.8991359    568.38622  0.028396594  0.027313339           15 
 1669000   0.58133214   -5.9085819    567.10662  0.028315689  0.027294278           19 
 1670000   0.60096339   -5.9239793    567.61928  0.028324316  0.027275178           27 
 1671000   0.59123405   -5.8686637    567.85696  0.028319218   0.02725616           37 
 1672000   0.58312914   -5.8953074    568.26506  0.028322621  0.027237123           20 
 1673000   0.57905814   -5.8854106    566.94875  0.028240125  0.027218145           10 
 1674000   0.57776516   -5.8760923    567.32283  0.028241877  0.027199241           14 
 1675000   0.58565854   -5.8991231    567.10119   0.02821399  0.027180333           40 
 1676000   0.58196398   -5.8831766    568.43348  0.028263399  0.027161408           14 
 1677000   0.58013033   -5.8882728     567.4222  0.028196293  0.027142585           19 
 1678000   0.58147371   -5.8989877     567.3441  0.028175611  0.027123714           25 
 1679000    0.5915302   -5.9091364    568.76444  0.028229325  0.027104773           21 
 1680000   0.57317124   -5.8992285    568.23324  0.028186172  0.027085791           25 
 1681000   0.57440501   -5.8999635    568.91105  0.028203007  0.027066928           22 
 1682000    0.5919924   -5.9126938    566.89961  0.028086584  0.027047993           15 
 1683000   0.58341233   -5.9259673    568.25975  0.028137242  0.027029136           30 
 1684000   0.57238746   -5.9047027    567.71552  0.028093602  0.027010192           16 
 1685000   0.59457988   -5.9108884    567.13806  0.028048371   0.02699138           14 
 1686000   0.59229152   -5.9190468    567.53409  0.028051309  0.026972628           17 
 1687000   0.57900545   -5.9003446    568.11389  0.028063322  0.026953815           13 
 1688000   0.57345164   -5.9178972    567.92637  0.028037439  0.026934983           14 
 1689000   0.58260401    -5.907643    568.31665  0.028040095  0.026916149           17 
 1690000   0.58713224   -5.8944339    567.55444  0.027985919  0.026897323           16 
 1691000   0.58846434   -5.9187699     566.6234  0.027923487  0.026878546           35 
 1692000   0.58698019    -5.924239    566.64067  0.027907834  0.026859789           19 
 1693000   0.58861403   -5.9100766    567.76861   0.02794687  0.026841035           24 
 1694000   0.57526576   -5.8959877     568.2272  0.027952932  0.026822343           14 
 1695000   0.58978947   -5.9144392    568.36387   0.02794316  0.026803623           13 
 1696000   0.57133569    -5.907294     567.7155  0.027894826   0.02678489           17 
 1697000   0.57334774   -5.8882155    568.44138  0.027914034  0.026766205           58 
 1698000   0.57613452   -5.9153963    568.46275  0.027898643  0.026747537           15 
 1699000   0.57827269   -5.9142237    569.20078  0.027918422  0.026728857           22 
 1700000   0.57585064    -5.939983    568.70089  0.027877495  0.026710223           31 
 1701000   0.57061925   -5.9171033     568.2762    0.0278403  0.026691622           28 
 1702000   0.56490452   -5.9134626    567.70222  0.027795839  0.026672986           36 
 1703000   0.56839307   -5.9181175    569.05765  0.027845843  0.026654354           49 
 1704000   0.57672258   -5.9329253    567.56473  0.027756491  0.026635692           28 
 1705000   0.58448659   -5.9297541    568.33253  0.027777739  0.026617053           19 
 1706000   0.58713465   -5.9482482     568.4954  0.027769412  0.026598384           20 
 1707000   0.56506268   -5.9283193    568.27627  0.027742446  0.026579717           25 
 1708000   0.56841011   -5.9369826     568.3008  0.027727401  0.026561074           17 
 1709000    0.5608265   -5.9085924    568.10114   0.02770144  0.026542404           22 
 1710000   0.57489408   -5.9373055    567.88299   0.02767461  0.026523793           12 
 1711000   0.57166144   -5.9332099    568.80694  0.027703436  0.026505184           50 
 1712000   0.56475532   -5.9523506    566.88445  0.027593675  0.026486516           65 
 1713000   0.56614914   -5.9316372    566.80687  0.027573792  0.026467829           63 
 1714000    0.5797918   -5.9536325    567.16605  0.027575167   0.02644919           50 
 1715000   0.56876459   -5.9112227    568.84625  0.027640731   0.02643054           27 
 1716000   0.57703203   -5.9373708    567.06838  0.027538286  0.026411982           21 
 1717000   0.55909039   -5.9241771    567.61455  0.027548755  0.026393453           49 
 1718000   0.57466342   -5.9237807    568.43112  0.027572329  0.026374982           26 
 1719000   0.57113403   -5.9271316    568.51965   0.02756058  0.026356555           50 
 1720000   0.57029004   -5.9368985    569.14756  0.027574978  0.026338108           55 
 1721000    0.5684693     -5.93924    567.23804  0.027466494  0.026319669           47 
 1722000   0.57374532    -5.945804    566.34223  0.027407193  0.026301212           37 
 1723000   0.56274919   -5.9362542    568.40553  0.027491078  0.026282712           61 
 1724000   0.57175034   -5.9398531     567.4707  0.027429945  0.026264262           45 
 1725000   0.56625053   -5.9519956     568.1473  0.027446729  0.026245829           38 
 1726000   0.57641981   -5.9671359    566.02303  0.027328265  0.026227383           26 
 1727000   0.56783455   -5.9549948    567.85256  0.027400722  0.026208921           24 
 1728000    0.5664959   -5.9433503    566.80819    0.0273345    0.0261905           60 
 1729000   0.55195116   -5.9622152    567.18019   0.02733662  0.026172089           77 
 1730000   0.56976564    -5.971081    567.13703  0.027318739  0.026153621           24 
 1731000   0.56886605   -5.9579055    567.38628  0.027314957    0.0261352           19 
 1732000   0.55127826   -5.9601331    567.34818  0.027297353   0.02611683           48 
 1733000   0.55133069   -5.9619947    569.32459  0.027376639  0.026098498           30 
 1734000   0.55418204   -5.9648451    566.95659  0.027247049  0.026080134           22 
 1735000   0.55671669   -5.9829652    566.31651  0.027200601  0.026061766           27 
 1736000   0.56296248   -5.9871949    566.29862  0.027184073  0.026043365           33 
 1737000   0.56639297   -5.9637205    568.49645  0.027273866  0.026025045           46 
 1738000   0.56125014   -5.9768255    568.20311  0.027244108  0.026006681           22 
 1739000   0.55293848   -5.9824993    567.74329  0.027206406  0.025988342           37 
 1740000   0.56278107   -5.9635945    567.85114  0.027195936  0.025970043           69 
 1741000   0.55072632   -5.9662286    567.08078  0.027143441  0.025951734           56 
 1742000   0.55482565   -5.9715822    567.19956  0.027133542  0.025933412           31 
 1743000    0.5618455   -5.9623298    565.97851  0.027059596  0.025915033           37 
 1744000   0.56230515   -5.9798374     567.3173  0.027108052   0.02589672          118 
 1745000   0.55095635   -5.9734541    566.85557  0.027070466  0.025878408           55 
 1746000   0.55205728   -5.9677425    566.99152  0.027061451  0.025860118           27 
 1747000    0.5533898   -5.9802989     566.9979  0.027046265   0.02584183           30 
 1748000   0.57207898   -5.9807481    568.51403  0.027103071  0.025823502           52 
 1749000   0.54299394   -5.9862646    567.27344  0.027028466    0.0258052           45 
 1750000   0.55599466   -6.0042397    567.01591  0.027000758   0.02578688           27 
 1751000   0.55591051   -5.9934789    566.79309  0.026974733  0.025768552           79 
 1752000   0.55176915   -6.0006872    567.44588  0.026990386  0.025750246           36 
 1753000   0.56690876   -5.9851494    566.68923   0.02693902  0.025731927           47 
 1754000   0.54569032   -5.9923458    566.68418  0.026923422  0.025713691           59 
 1755000   0.54920504   -6.0013698    565.92295  0.026871935  0.025695456          130 
 1756000   0.56866512   -5.9839935    567.32522  0.026923179   0.02567719          108 
 1757000   0.53953254   -5.9931671    566.51548   0.02686945  0.025658914           45 
 1758000   0.55173396   -5.9796864    566.69587  0.026862717  0.025640682           36 
 1759000   0.55521379   -5.9698199    567.52614  0.026886779  0.025622517           57 
 1760000   0.54215636   -5.9939067    566.81064  0.026837625  0.025604395           99 
 1761000   0.55260772   -5.9986937    566.96123  0.026829511  0.025586279           64 
 1762000   0.54470103    -5.981138    567.75524  0.026851837  0.025568181           41 
 1763000   0.56260456   -5.9886593    566.93947  0.026798047   0.02555006           35 
 1764000   0.55537293   -5.9881323    567.20849  0.026795564  0.025531965           81 
 1765000    0.5447387   -5.9832561    567.32526  0.026785895  0.025513898           35 
 1766000   0.54954045   -6.0056746      567.607  0.026784022  0.025495788           63 
 1767000   0.56402675    -6.014811    566.67988  0.026725141  0.025477654           23 
 1768000   0.54726475   -6.0074421    567.27641  0.026738141  0.025459536           63 
 1769000    0.5512731   -6.0089553     566.5484  0.026688732  0.025441435          111 
 1770000   0.55209956    -5.998818     566.1356  0.026654218    0.0254233          113 
 1771000   0.54437523   -5.9993276    566.09934  0.026637462  0.025405148           69 
 1772000   0.54380071   -6.0058396    567.46567  0.026686685  0.025387052           46 
 1773000   0.55024392   -6.0160355    565.97981  0.026601796  0.025368931           32 
 1774000   0.55526641   -6.0260198     566.1946   0.02659689   0.02535085           64 
 1775000   0.55958945   -5.9891097    565.97849   0.02657176  0.025332813           60 
 1776000   0.53962747   -6.0047972    565.24759  0.026522503  0.025314744           55 
 1777000    0.5418824   -6.0074902    566.57256  0.026569713   0.02529666           49 
 1778000   0.53121078   -6.0272008    567.07138  0.026578149  0.025278554           32 
 1779000   0.53901609   -5.9937708    566.18881  0.026521867  0.025260456           24 
 1780000   0.54128091   -6.0047077    566.19776  0.026507386  0.025242446           36 
 1781000    0.5436659   -6.0099563    566.22355  0.026493709  0.025224373           28 
 1782000   0.54094038   -6.0100032    567.22481  0.026525664   0.02520635           21 
 1783000   0.54167049   -5.9995667    567.87473  0.026541163  0.025188375           47 
 1784000   0.54952102   -6.0172762    566.77289  0.026474817  0.025170391           69 
 1785000   0.54667869   -5.9983924    566.89709  0.026465784  0.025152399           50 
 1786000    0.5392131   -6.0158527    566.57165  0.026435781  0.025134396           70 
 1787000   0.53729048   -6.0186893    566.24726   0.02640586  0.025116428           71 
 1788000    0.5326514   -5.9973884    568.02194  0.026473804  0.025098553           89 
 1789000   0.53198455   -6.0011471    566.15762  0.026372164  0.025080615          113 
 1790000   0.53832912    -6.011802    565.37229   0.02632087  0.025062655           36 
 1791000   0.54170443   -6.0034821    565.48687  0.026311505  0.025044695           43 
 1792000   0.53637124   -6.0025112    566.23052  0.026331404  0.025026788           87 
 1793000   0.54018984   -6.0041069    565.68174  0.026291213  0.025008913           86 
 1794000   0.54332733   -6.0034486    567.30196  0.026351819  0.024991059           73 
 1795000   0.53378197   -5.9891976    566.83492  0.026315456  0.024973246           48 
 1796000   0.54329413   -5.9957426     566.8431  0.026301183   0.02495545           20 
 1797000   0.54123994   -5.9886965    566.94769  0.026291397  0.024937644           31 
 1798000   0.53442702    -6.001166    566.90639  0.026274861  0.024919796           83 
 1799000   0.54666872      -6.0153    566.29484  0.026231927  0.024901961           53 
 1800000   0.52436473   -6.0238707    565.96845  0.026202243  0.024884117           49 
 1801000   0.53700266   -6.0455658    565.61477  0.026171329  0.024866271           76 
 1802000    0.5287424    -6.013718    566.40129  0.026193178  0.024848495           69 
 1803000   0.53096197   -6.0266472    566.44809  0.026180814  0.024830717          100 
 1804000   0.53246586   -6.0334203    566.86479   0.02618555  0.024812932           99 
 1805000   0.53131902   -6.0166104    565.98869  0.026130595  0.024795174          100 
 1806000   0.53248621    -6.026272    566.33959  0.026132318  0.024777374          110 
 1807000   0.52739377   -6.0316073    565.64789  0.026085957  0.024759621          101 
 1808000   0.52723675   -6.0406808    565.75118   0.02607629   0.02474187          133 
 1809000   0.52009496   -6.0399634    566.12876  0.026079268  0.024724119           95 
 1810000   0.53075377   -6.0529123    566.64837  0.026088783  0.024706395          171 
 1811000   0.52376242   -6.0272027    567.03219  0.026092039   0.02468864          103 
 1812000   0.52713939   -6.0426697    565.99306   0.02602985  0.024670961          109 
 1813000   0.52422863   -6.0372991    567.17536  0.026069836  0.024653276          174 
 1814000   0.52856875   -6.0276379    565.93329  0.025998406  0.024635591          234 
 1815000   0.54103759   -6.0446476    565.70341  0.025973527  0.024617864          151 
 1816000   0.52692813   -6.0418233    564.17979  0.025889308  0.024600095          162 
 1817000   0.52932147   -6.0314397    565.11618  0.025918005  0.024582355          106 
 1818000   0.52904244   -6.0269337    565.03063  0.025899827  0.024564668          148 
 1819000   0.52456856   -6.0489382    565.47292  0.025905851  0.024546978           98 
 1820000   0.52304728   -6.0319313    564.67974    0.0258553   0.02452934          153 
 1821000   0.52247416   -6.0472774    566.00943  0.025901951    0.0245117          131 
 1822000   0.52900825   -6.0593584    564.38525  0.025813449  0.024494062           97 
 1823000   0.53623674   -6.0572106    564.84672  0.025820384  0.024476402          124 
 1824000   0.53566856   -6.0530602    565.23592  0.025824009  0.024458755          151 
 1825000   0.52023683    -6.049726    565.77791  0.025834608  0.024441165          169 
 1826000   0.51838464   -6.0541987    565.17671  0.025793022  0.024423595          148 
 1827000   0.51366622   -6.0701688    564.79827  0.025761644  0.024406009          174 
 1828000   0.52406418   -6.0479409    565.04874  0.025758969  0.024388433          198 
 1829000   0.52308256   -6.0412891    563.41396  0.025670401  0.024370941          168 
 1830000   0.51995053   -6.0596131    565.40757  0.025747157  0.024353406          153 
 1831000   0.51774563    -6.049422    565.77022  0.025749601   0.02433586          124 
 1832000   0.51952673   -6.0555456     565.3714  0.025717403   0.02431834          154 
 1833000   0.52510055   -6.0521421     566.3655  0.025748568  0.024300844          134 
 1834000   0.51923098   -6.0511963    566.07623  0.025721385  0.024283313          151 
 1835000   0.52492523     -6.04853    566.46635  0.025725084  0.024265839          153 
 1836000   0.51187202   -6.0642794    566.38731  0.025707485  0.024248348          141 
 1837000   0.52252794   -6.0517844    564.84246  0.025623411   0.02423086          246 
 1838000   0.52792888   -6.0783164    565.96443  0.025660339   0.02421338          222 
 1839000   0.51888932   -6.0704956    565.46562  0.025623782  0.024195911          337 
 1840000   0.52425318   -6.0782436    565.21575   0.02559854  0.024178439          228 
 1841000   0.51596683   -6.0413697    565.34793  0.025590618  0.024160955          179 
 1842000   0.51889518   -6.0815049    565.04624  0.025563076  0.024143479          249 
 1843000   0.51441246   -6.0669608    565.03791  0.025548829  0.024125981          295 
 1844000   0.51439498   -6.0685366    564.93998  0.025530549  0.024108516          269 
 1845000   0.52828425   -6.0522344    564.24543   0.02548534  0.024091108          367 
 1846000   0.51301664   -6.0609052    565.16281  0.025512948  0.024073699          363 
 1847000   0.51947975   -6.0604804    565.10385  0.025496474  0.024056318          420 
 1848000   0.51200974   -6.0683853     564.9408  0.025475324  0.024038878          278 
 1849000   0.51568512    -6.071991    564.69456  0.025450449  0.024021489          352 
 1850000   0.50613164   -6.0534261    563.86368  0.025399265  0.024004136          342 
 1851000   0.51761669   -6.0738064    564.85175  0.025430027  0.023986736          268 
 1852000   0.50948303   -6.0949971      563.036  0.025334593  0.023969365          315 
 1853000   0.50792488   -6.0810202    565.34321  0.025424681  0.023951994          301 
 1854000   0.51050011   -6.0888607    563.85094  0.025343894  0.023934668          238 
 1855000   0.51473039   -6.0629364    564.44455  0.025356898  0.023917341          225 
 1856000    0.5071463    -6.080143    564.51868  0.025346564  0.023900042          163 
 1857000   0.50650113   -6.0759003    564.47577   0.02533099  0.023882753          227 
 1858000   0.51838396   -6.0723921    564.60481  0.025323143  0.023865479          248 
 1859000   0.50799695   -6.0706492    564.17608  0.025290303  0.023848207          266 
 1860000   0.51147936   -6.0725332    565.15208  0.025320434  0.023830909          240 
 1861000   0.51987635   -6.0799104    565.19438  0.025308722  0.023813639          268 
 1862000   0.51060682   -6.0836456    563.64574  0.025225821  0.023796347          286 
 1863000   0.50902734   -6.0786064    564.02087   0.02522906  0.023779085          296 
 1864000   0.51285485    -6.077652    563.55042  0.025194493  0.023761811          266 
 1865000   0.51153403   -6.0885548    563.73251   0.02518912  0.023744532          312 
 1866000   0.50823785   -6.0924273    564.17663  0.025195455   0.02372726          284 
 1867000   0.50240287   -6.0690705    564.57993  0.025199961  0.023710016          281 
 1868000   0.51208284   -6.0982322     563.7538  0.025149617  0.023692799          286 
 1869000   0.50016943   -6.0780396     564.1569  0.025154133  0.023675592          365 
 1870000   0.49628434   -6.1196821    565.56196  0.025203296  0.023658432          284 
 1871000   0.50828518   -6.0951341    563.79054  0.025110927  0.023641305          289 
 1872000   0.49785411   -6.0841071    563.39984  0.025080121   0.02362419          366 
 1873000   0.51118035   -6.0857221     563.8075  0.025084868  0.023607108          252 
 1874000   0.49064203   -6.1141105    566.13429  0.025174951  0.023590006          439 
 1875000   0.49270789    -6.096207    562.70537  0.025009128  0.023572879          425 
 1876000   0.50962804   -6.1183431    563.22738  0.025018984  0.023555783          398 
 1877000   0.51327108   -6.0937894    564.35023  0.025055506  0.023538684          427 
 1878000    0.5013945   -6.1074453    564.69027  0.025057254  0.023521619          413 
 1879000   0.49848408   -6.1135208    563.47078  0.024989834  0.023504523          382 
 1880000    0.4918974   -6.1153299    562.42733  0.024930289  0.023487446          403 
 1881000   0.51428023   -6.0991693    564.30301  0.025000133  0.023470365          347 
 1882000   0.50085463   -6.1249019    563.56068   0.02495398  0.023453274          354 
 1883000   0.51025163   -6.1122174    563.74478  0.024948875  0.023436226          400 
 1884000   0.49721345   -6.1226213    562.10434  0.024863072  0.023419159          369 
 1885000   0.50408914   -6.1185078    563.08088  0.024893054  0.023402123          405 
 1886000    0.5109491   -6.1280048    561.93957  0.024829426  0.023385102          450 
 1887000   0.50612007   -6.1217934    563.88526  0.024902193  0.023368027          362 
 1888000   0.49526165   -6.1264325    563.09472   0.02485411  0.023350974          396 
 1889000   0.49993182    -6.119622    564.23451  0.024891235  0.023333966          426 
 1890000   0.49798231   -6.1218068    563.00292  0.024823762  0.023316946          409 
 1891000   0.51083112   -6.1179142    564.01779  0.024855358  0.023299926          384 
 1892000   0.49287615   -6.1088325    564.14996  0.024848043  0.023282952          423 
 1893000   0.50282673    -6.131738    563.77682   0.02481849  0.023265952          334 
 1894000   0.49866189   -6.1326942    563.28597   0.02478379  0.023248997          404 
 1895000   0.49454018   -6.1122162    562.06499  0.024717018  0.023231987          444 
 1896000   0.49738673   -6.1489504    562.07658  0.024704491  0.023214955          320 
 1897000   0.49298695   -6.1460215    562.07641  0.024691461  0.023197969          384 
 1898000   0.49713351   -6.1497354    562.69665  0.024705683  0.023180973          375 
 1899000   0.48331107   -6.1548144    562.67889  0.024691895  0.023163973          381 
 1900000   0.49695605   -6.1558817    561.85174   0.02464262   0.02314698          441 
 1901000    0.4900847   -6.1409652    561.89566  0.024631582  0.023129983          514 
 1902000   0.49463103   -6.1375522    562.95325  0.024664969  0.023113009          470 
 1903000   0.49518992   -6.1466317     561.7057  0.024597377  0.023096039          486 
 1904000     0.503421   -6.1451068    562.49272  0.024618904  0.023079108          498 
 1905000   0.48054889   -6.1526005    562.14938  0.024590962  0.023062198          458 
 1906000   0.49371604   -6.1451326    562.69735  0.024602018   0.02304528          474 
 1907000   0.48870322   -6.1512631    562.47021  0.024579191  0.023028409          431 
 1908000   0.48636439    -6.148179    562.78266  0.024579955  0.023011523          365 
 1909000   0.49117147   -6.1357726    561.57373  0.024514306  0.022994642          409 
 1910000   0.49577546   -6.1534269    563.09169    0.0245677  0.022977799          460 
 1911000   0.48359313   -6.1349805     563.7017  0.024581445  0.022960936          400 
 1912000   0.48569578   -6.1379468    562.29827  0.024507421  0.022944135          424 
 1913000   0.47804857   -6.1408182    562.28546  0.024494052  0.022927326          400 
 1914000   0.49164931   -6.1517229    561.78299  0.024459378  0.022910512          457 
 1915000   0.48637274   -6.1481186    561.82195  0.024448301  0.022893715          469 
 1916000   0.48710047   -6.1541546    561.41868  0.024418001  0.022876909          303 
 1917000    0.4896576   -6.1570932    561.67009  0.024416193  0.022860116          424 
 1918000   0.48346593   -6.1693039    563.48674  0.024482392  0.022843339          415 
 1919000    0.4891501   -6.1407119    562.53072  0.024428119  0.022826579          538 
 1920000   0.49417764   -6.1648412    562.80408   0.02442726  0.022809835          616 
 1921000   0.48888941   -6.1597742    561.42264  0.024354618  0.022793091          544 
 1922000   0.48656788   -6.1733242    561.43559  0.024342507  0.022776374          580 
 1923000   0.48773944     -6.14886    561.38931  0.024327843  0.022759636          655 
 1924000   0.49192823   -6.1669967    560.36267  0.024270733  0.022742921          596 
 1925000   0.49476411     -6.16829    561.64148  0.024313484  0.022726198          543 
 1926000   0.47485004   -6.1615493    560.94117   0.02427056  0.022709511          497 
 1927000    0.4793162   -6.1799452    561.40099   0.02427785  0.022692822          556 
 1928000   0.49203073   -6.1592251    561.85824  0.024285021  0.022676146          575 
 1929000   0.48418685   -6.1602671    560.86781  0.024229645   0.02265949          631 
 1930000   0.49758214   -6.1664625    560.58998  0.024205094  0.022642846          679 
 1931000   0.48420375   -6.1821357    560.96568  0.024208773  0.022626197          744 
 1932000   0.49171386   -6.1759386    561.19566  0.024206162  0.022609572          798 
 1933000   0.48292911   -6.1699466    560.49478  0.024163424  0.022592939          662 
 1934000     0.479242   -6.1721753    561.45561  0.024192331  0.022576327          668 
 1935000   0.47015169   -6.1821529    562.02096  0.024204176  0.022559698          663 
 1936000   0.48379567   -6.1702141    562.12617  0.024196202   0.02254309          712 
 1937000   0.47519843   -6.1417181    561.70111  0.024165424  0.022526522          718 
 1938000   0.46874391    -6.159766    560.87681   0.02411751  0.022509971          740 
 1939000   0.47377706   -6.1521165    561.28128  0.024122455  0.022493436          660 
 1940000   0.47731557   -6.1710296    561.51521  0.024120069  0.022476915          677 
 1941000   0.46773786   -6.1865594    560.66469  0.024071127  0.022460373          589 
 1942000   0.46704729   -6.1777783    562.23345  0.024126049   0.02244388          615 
 1943000   0.47412968   -6.1698225    561.03579  0.024062266  0.022427389          755 
 1944000   0.47254303   -6.1687446     560.9665  0.024046918  0.022410882          722 
 1945000    0.4821577   -6.1650509    560.79609  0.024027253  0.022394423          568 
 1946000   0.47905358   -6.1672402    560.18138  0.023988582   0.02237797          680 
 1947000   0.47704222   -6.1904937     560.5671  0.023992771  0.022361532          784 
 1948000   0.48195836   -6.1815578     559.9866  0.023955621  0.022345106          723 
 1949000   0.47515482   -6.1749405    560.05835  0.023946398  0.022328667          769 
 1950000   0.47008641   -6.1666651    560.49592  0.023952817  0.022312262          865 
 1951000   0.47346377   -6.1864592    560.48305   0.02393999  0.022295865          831 
 1952000     0.476688   -6.1899986    560.68539  0.023936364  0.022279456          673 
 1953000    0.4714259   -6.1738813    560.79366  0.023928728  0.022263075          807 
 1954000   0.48181273   -6.1868831    561.66399  0.023953599  0.022246717          785 
 1955000   0.47906465   -6.1809449    561.50701  0.023934655  0.022230374          891 
 1956000   0.47202979    -6.185078    561.02722  0.023901978  0.022214029          849 
 1957000   0.48144689   -6.1795173     560.4464  0.023865031  0.022197699          808 
 1958000   0.47089483   -6.1844715    560.65061  0.023861534  0.022181385          833 
 1959000   0.46730028   -6.1933095    560.42017  0.023839551  0.022165079          886 
 1960000   0.47875799   -6.1735778    560.56824  0.023833684  0.022148791          839 
 1961000   0.47319646   -6.2000634    561.67892  0.023868729  0.022132503          886 
 1962000   0.48036446   -6.1909573    560.09925  0.023789468  0.022116207          860 
 1963000   0.47495092   -6.1839982    560.30308  0.023786003  0.022099943          892 
 1964000   0.47213467   -6.1948356    560.11439  0.023765885  0.022083665          887 
 1965000   0.46378378    -6.188288    560.47792  0.023769208   0.02206743          889 
 1966000   0.47134933   -6.1882042    560.84594  0.023772717  0.022051211          872 
 1967000   0.46445628   -6.1991099    560.67155  0.023753243  0.022034984          922 
 1968000   0.46951724   -6.1965109    561.39308  0.023771726   0.02201876          919 
 1969000   0.46769317   -6.1967377    560.70779   0.02373065  0.022002559          973 
 1970000   0.46094989   -6.1973391    560.23726    0.0236987  0.021986352          963 
 1971000   0.47272667   -6.1932954    559.79989  0.023668184  0.021970148          960 
 1972000   0.46742688   -6.1906124    559.68718  0.023651419   0.02195394          970 
 1973000    0.4620328   -6.2015184    559.64347  0.023637585  0.021937722         1025 
 1974000   0.46819922   -6.2225629    560.93157  0.023679988  0.021921498          964 
 1975000   0.47552823   -6.2147315    559.92437  0.023625501  0.021905277          997 
 1976000   0.46758514   -6.2192049    559.45411  0.023593713  0.021889095          928 
 1977000   0.46489929   -6.2159336    559.57405  0.023586834  0.021872909          963 
 1978000   0.46133636   -6.2249498    560.15515  0.023599391  0.021856728         1027 
 1979000   0.46155256   -6.2250766    559.28729  0.023550922  0.021840579          975 
 1980000   0.45511409   -6.2358934    560.58903  0.023593814  0.021824443          965 
 1981000   0.46312647   -6.2060987    560.02688  0.023558257  0.021808328         1047 
 1982000   0.46604147   -6.2146838    559.79646  0.023536683  0.021792215          956 
 1983000   0.45763766   -6.2054227    559.85796  0.023527398  0.021776142         1026 
 1984000    0.4649979   -6.2258728    560.57768  0.023545769  0.021760058         1041 
 1985000   0.46038358   -6.2134095    560.51517  0.023531283  0.021743977          994 
 1986000   0.45731647    -6.222922    560.03668  0.023499357  0.021727916          994 
 1987000   0.45940524   -6.2275012     558.8604  0.023438198  0.021711847         1028 
 1988000   0.47107515   -6.2294295    559.80298  0.023465919  0.021695814         1015 
 1989000   0.45090744   -6.2273896    558.43637  0.023396865  0.021679765         1034 
 1990000     0.455494   -6.2258251      559.261   0.02341964  0.021663757         1043 
 1991000   0.45314404   -6.2185934    559.47909  0.023417005  0.021647761         1042 
 1992000    0.4613645   -6.2301267    559.00994  0.023385623  0.021631752         1029 
 1993000   0.46064229   -6.2395864    559.27902   0.02338514  0.021615769         1053 
 1994000     0.448876   -6.2280128     558.6849  0.023348583  0.021599806         1070 
 1995000   0.46346877   -6.2451297    559.45807  0.023369176   0.02158385         1145 
 1996000   0.45241426   -6.2196061    558.91351  0.023334732  0.021567911         1146 
 1997000   0.45726681   -6.2386933    559.50567  0.023347758  0.021552011         1144 
 1998000     0.453483   -6.2274978    559.95667  0.023354883  0.021536136         1099 
 1999000   0.45908873   -6.2339606    559.35478  0.023318108  0.021520271         1150 
 2000000   0.46601975    -6.235827    558.73484  0.023280618  0.021504398         1143 
 2001000    0.4559756   -6.2466986    557.61026   0.02322215  0.021488546         1212 
 2002000   0.45507415    -6.237015     558.7852  0.023259457  0.021472683         1233 
 2003000   0.46281358   -6.2185136    558.65539  0.023242444  0.021456842         1156 
 2004000   0.44950387   -6.2357341     558.3965  0.023220081  0.021440982         1155 
 2005000   0.46210349   -6.2348345     558.9723  0.023232432   0.02142516         1220 
 2006000   0.45095203   -6.2343479    558.73449  0.023210971  0.021409322         1235 
 2007000   0.45697234   -6.2325443    559.48641  0.023230627  0.021393506         1249 
 2008000   0.45479258   -6.2292327    558.40545  0.023174197  0.021377692         1268 
 2009000    0.4578139   -6.2340692     559.6193  0.023213012  0.021361879         1268 
 2010000   0.44705745   -6.2373819    558.63521  0.023160664  0.021346088         1275 
 2011000   0.46237976    -6.237845    558.96604  0.023162856  0.021330317         1224 
 2012000   0.43759266   -6.2454445    558.26313   0.02312223  0.021314551         1227 
Loop time of 5090.79 on 48 procs for 2000000 steps with 4000 atoms

Performance: 67887.367 tau/day, 392.867 timesteps/s
99.4% CPU use with 48 MPI tasks x no OpenMP threads

MPI task timing breakdown:
Section |  min time  |  avg time  |  max time  |%varavg| %total
---------------------------------------------------------------
Pair    | 356.52     | 385.72     | 420.22     |  76.9 |  7.58
Neigh   | 34.613     | 35.944     | 37.533     |  12.7 |  0.71
Comm    | 320.23     | 354.65     | 380.38     |  76.8 |  6.97
Output  | 4.5301     | 4.5327     | 4.5868     |   0.4 |  0.09
Modify  | 4252.5     | 4264.1     | 4274.5     |   7.6 | 83.76
Other   |            | 45.8       |            |       |  0.90

Nlocal:        83.3333 ave          90 max          76 min
Histogram: 2 1 7 4 7 11 2 10 1 3
Nghost:        2366.10 ave        2388 max        2347 min
Histogram: 4 3 6 5 9 9 3 5 0 4
Neighs:        16247.8 ave       18707 max       14096 min
Histogram: 6 3 7 7 4 4 4 7 4 2
FullNghs:      32494.1 ave       35197 max       29409 min
Histogram: 1 3 3 9 6 7 8 4 3 4

Total # of neighbors = 1559718
Ave neighs/atom = 389.92950
Neighbor list builds = 107423
Dangerous builds = 1

#clear
#
#next RN
#
#jump SELF
Total wall time: 1:24:54
