
units lj                  # Use reduced LJ style units
atom_style atomic         # Uncharged point particles
atom_modify map hash      # Needed for indexing of clusters etc
                          # Used to be able to find where atoms are in relation to each other.

lattice fcc 1.0 spacing 1 1 1
Lattice spacing in x,y,z = 1.5874011 1.5874011 1.5874011
region box block 0 10 0 10 0 10 units lattice
create_box 2 box
Created orthogonal box = (0.0000000 0.0000000 0.0000000) to (15.874011 15.874011 15.874011)
  3 by 4 by 4 MPI processor grid
create_atoms 1 box
Created 4000 atoms
  using lattice units in orthogonal box = (0.0000000 0.0000000 0.0000000) to (15.874011 15.874011 15.874011)
  create_atoms CPU = 0.012 seconds
set type 1 type/fraction 2 0.2 78393
Setting atom values ...
  836 settings made for type/fraction
mass 1 1.0
mass 2 1.0
pair_style lj/cut  3.5
pair_modify tail  yes
pair_coeff 1  1  1.0  1.0   # Intearaction between 1 and 1 set with epsilon = 1 and sigma = 1
pair_coeff 1  2  1.5  0.8
pair_coeff 2  2  0.5  0.88

write_data data.0
System init for write_data ...
Neighbor list info ...
  update every 1 steps, delay 10 steps, check yes
  max neighbors/atom: 2000, page size: 100000
  master list distance cutoff = 3.8
  ghost atom cutoff = 3.8
  binsize = 1.9, bins = 9 9 9
  1 neighbor lists, perpetual/occasional/extra = 1 0 0
  (1) pair lj/cut, perpetual
      attributes: half, newton on
      pair build: half/bin/atomonly/newton
      stencil: half/bin/3d
      bin: standard
WARNING: Not all mixed pair coeffs generated from mixing. Use write_data with 'pair ij' option to store all pair coeffs. (../write_data.cpp:312)


#############################
#   M E L T   S Y S T E M   #
#############################

velocity all create 2.4 6583654 mom yes dist gaussian # Assign velocities
                                                    # Temperature 2.4, random number seed, zero linear momentum
                                                                                # Gaussian distribution

timestep 0.002   # simulation timestep
thermo 1000       # output thermodynamic data every 1000 steps bf 100

# Define a fix  in this case with index 1 applied to all
# particles in the simulation. This fix is for simulations
# in the anisotropic NPT ensemble. Note that we use the MTK
# correction.
fix 1 all npt temp 2.4 2.4 0.1 iso 5.68 5.68 0.5 mtk yes tchain 5 pchain 5 # Use NPT ensemble
                                                                         # Set temperature and pressure and damping
                                                                         # Numbers of thermostats in chain and in barostat
run 10000          # run for 10000 steps
Per MPI rank memory allocation (min/avg/max) = 3.642 | 3.644 | 3.648 Mbytes
Step Temp E_pair E_mol TotEng Press Volume 
       0          2.4   -7.0365901            0   -3.4374901   -3.6176696         4000 
    1000    2.4322878   -4.7791971            0   -1.1316775    5.5836837    4510.1678 
    2000    2.4070072   -4.8236474            0   -1.2140393    5.5926681    4487.3239 
    3000    2.4042886    -4.852646            0   -1.2471147    5.4055931    4486.5088 
    4000    2.3623237   -4.7919134            0   -1.2493138    5.5925649    4493.2981 
    5000     2.365742   -4.7535553            0   -1.2058294    5.7518793    4499.7941 
    6000    2.3540905   -4.7821245            0   -1.2518716    5.6643737     4492.399 
    7000    2.3862138   -4.8602908            0   -1.2818649    5.5335052    4470.0111 
    8000    2.4420534   -4.8397524            0   -1.1775881    5.6858573    4472.1768 
    9000     2.433643   -4.8376727            0   -1.1881207    5.9001377    4447.1377 
   10000    2.4021986    -4.860413            0    -1.258016    5.6808316    4463.4644 
Loop time of 2.31861 on 48 procs for 10000 steps with 4000 atoms

Performance: 745275.254 tau/day, 4312.935 timesteps/s
99.5% CPU use with 48 MPI tasks x no OpenMP threads

MPI task timing breakdown:
Section |  min time  |  avg time  |  max time  |%varavg| %total
---------------------------------------------------------------
Pair    | 0.96445    | 1.0414     | 1.2007     |   3.9 | 44.92
Neigh   | 0.19657    | 0.20646    | 0.22944    |   1.2 |  8.90
Comm    | 0.6438     | 0.80213    | 0.90869    |   5.6 | 34.60
Output  | 0.00024386 | 0.0002517  | 0.00031995 |   0.0 |  0.01
Modify  | 0.21399    | 0.25366    | 0.3113     |   5.8 | 10.94
Other   |            | 0.01467    |            |       |  0.63

Nlocal:        83.3333 ave          93 max          70 min
Histogram: 1 0 2 5 9 11 5 11 2 2
Nghost:        1528.73 ave        1562 max        1498 min
Histogram: 1 5 8 4 3 12 8 4 0 3
Neighs:        8540.46 ave        9843 max        7001 min
Histogram: 1 1 4 8 6 11 2 10 3 2

Total # of neighbors = 409942
Ave neighs/atom = 102.48550
Neighbor list builds = 909
Dangerous builds = 216

# Equilibrate just above the melting temperature to avoid step fn in T

fix 1 all npt temp 1.25 1.25 0.1 iso 5.68 5.68 0.5 mtk yes tchain 5 pchain 5
run 2000
Per MPI rank memory allocation (min/avg/max) = 3.642 | 3.645 | 3.649 Mbytes
Step Temp E_pair E_mol TotEng Press Volume 
   10000    2.4021986    -4.860413            0    -1.258016    5.6808316    4463.4644 
   11000    1.2352101   -6.5902954            0   -4.7379435    5.4493492    3645.5229 
   12000    1.2416879   -6.5452076            0   -4.6831414     5.957907    3633.9526 
Loop time of 0.504983 on 48 procs for 2000 steps with 4000 atoms

Performance: 684379.841 tau/day, 3960.531 timesteps/s
99.7% CPU use with 48 MPI tasks x no OpenMP threads

MPI task timing breakdown:
Section |  min time  |  avg time  |  max time  |%varavg| %total
---------------------------------------------------------------
Pair    | 0.21605    | 0.24803    | 0.27018    |   2.2 | 49.12
Neigh   | 0.032456   | 0.034945   | 0.036778   |   0.6 |  6.92
Comm    | 0.14409    | 0.16824    | 0.19706    |   3.2 | 33.32
Output  | 5.1362e-05 | 5.2775e-05 | 6.7229e-05 |   0.0 |  0.01
Modify  | 0.042554   | 0.049163   | 0.05591    |   1.5 |  9.74
Other   |            | 0.004557   |            |       |  0.90

Nlocal:        83.3333 ave          92 max          73 min
Histogram: 1 2 2 9 7 10 4 5 6 2
Nghost:        1755.40 ave        1796 max        1719 min
Histogram: 1 2 8 8 11 6 3 4 4 1
Neighs:        10528.3 ave       11986 max        9137 min
Histogram: 2 3 4 7 11 7 3 7 3 1

Total # of neighbors = 505357
Ave neighs/atom = 126.33925
Neighbor list builds = 143
Dangerous builds = 7

#############################
# L I N E A R  Q U E N C H  #
#############################

# Define solid atoms. This closely follows ten Wolde  Ruiz-Montero and Frenkel  Faraday Discuss  1996  104  93-110
# Compute components of the per-atom q6 vector
compute q6 all orientorder/atom degrees 1 6 components 6 nnn NULL cutoff 1.3 # compute the Q6 parameter.
                                                                             # Use all neighbours within 1.3 unit cell.

# get number of connections
compute coord_number all coord/atom orientorder q6 0.5

# An atom is solid if it has 8 or more connections (of a possible 14)
variable is_solid atom c_coord_number>=8
group solid dynamic all var is_solid    # Must be dynamic to update
dynamic group solid defined

# do clustering
compute cluster solid cluster/atom 1.3 # Create a cluster where all atoms within are solid and max 1.3 units from another member

# define chunks one chunk per cluster
compute clus_chunks solid chunk/atom c_cluster nchunk every compress yes  # Says which atoms are in which chunk

# count the size of each chunk
compute size_chunks solid property/chunk clus_chunks count


# Find the maximum entry in the vector of chunk sizes
variable max_n equal max(c_size_chunks)


# Thermo style which includes this variable
# thermo_style custom step temp pe vol v_max_n

thermo ${N}  # Print the thermo information every 100 steps
thermo 1000  

# Reset the npt fix at a lower temperature (below freezing)
fix 1  all npt temp  ${temp} ${temp}  0.1  iso  5.68  5.68  0.5  mtk yes tchain  5  pchain  5
fix 1  all npt temp  0.45 ${temp}  0.1  iso  5.68  5.68  0.5  mtk yes tchain  5  pchain  5
fix 1  all npt temp  0.45 0.45  0.1  iso  5.68  5.68  0.5  mtk yes tchain  5  pchain  5

dump dmp2 all dcd ${N} traj.dcd
dump dmp2 all dcd 1000 traj.dcd


compute msd all msd com yes
variable twopoint equal c_msd[4]/6/(step*dt+1.0e-6)
fix 9 all vector 10 c_msd[4]
variable fit equal slope(f_9)/6/(10*dt)
thermo_style custom step temp pe c_msd[4] v_twopoint v_fit v_max_n

fix 1 all npt temp 1.25 ${temp} 0.1 iso 5.68 5.68 0.5 mtk yes tchain 5 pchain 5
fix 1 all npt temp 1.25 0.45 0.1 iso 5.68 5.68 0.5 mtk yes tchain 5 pchain 5
run 5000000 # 5000000  # Run for this many steps
Neighbor list info ...
  update every 1 steps, delay 10 steps, check yes
  max neighbors/atom: 2000, page size: 100000
  master list distance cutoff = 3.8
  ghost atom cutoff = 3.8
  binsize = 1.9, bins = 9 9 9
  4 neighbor lists, perpetual/occasional/extra = 1 3 0
  (1) pair lj/cut, perpetual
      attributes: half, newton on
      pair build: half/bin/atomonly/newton
      stencil: half/bin/3d
      bin: standard
  (2) compute orientorder/atom, occasional
      attributes: full, newton on
      pair build: full/bin/atomonly
      stencil: full/bin/3d
      bin: standard
  (3) compute coord/atom, occasional
      attributes: full, newton on
      pair build: full/bin/atomonly
      stencil: full/bin/3d
      bin: standard
  (4) compute cluster/atom, occasional
      attributes: full, newton on
      pair build: full/bin/atomonly
      stencil: full/bin/3d
      bin: standard
Per MPI rank memory allocation (min/avg/max) = 9.775 | 9.781 | 9.785 Mbytes
Step Temp PotEng c_msd[4] v_twopoint v_fit v_max_n 
   12000    1.2416879   -6.5452076 7.3559307e-30 5.108285e-32 8.3333333e+20            3 
   13000    1.2142711   -6.5599006   0.54699336 0.0035063676  0.044842767            1 
   14000    1.2549785   -6.6079838    1.0718529 0.0063800765  0.044229884            1 
   15000    1.2072824   -6.5542164    1.6198036 0.0089989088   0.04382398            2 
   16000    1.2638638   -6.5673848    2.1453496  0.011173696  0.044445073            5 
   17000    1.2475466   -6.5390019    2.6567812  0.013023437  0.044380197            2 
   18000    1.2434482   -6.5475608    3.1865051  0.014752338   0.04397233            2 
   19000    1.2484507   -6.5670567    3.7321349  0.016369012  0.044111939            2 
   20000    1.2495368    -6.535328    4.3621514   0.01817563  0.044468847            2 
   21000    1.2427916   -6.5727861    4.8322535  0.019175609  0.044857647            2 
   22000    1.2505547   -6.5581965     5.359931  0.020302768  0.044711257            3 
   23000    1.2081325   -6.6104233    5.8877992  0.021332605  0.044782784            1 
   24000    1.2404253   -6.5898514    6.5276749  0.022665537  0.044870556            1 
   25000    1.2442516   -6.5585672     7.017377  0.023391256  0.045037106            4 
   26000    1.2598801   -6.5772555    7.6749678  0.024599255  0.045161054            4 
   27000    1.2319233   -6.5507947    8.2415849   0.02543699  0.045415958            2 
   28000    1.2575525   -6.6128081    8.7988174  0.026186956   0.04564769            2 
   29000    1.2496959   -6.6382821    9.3912826  0.026986444   0.04585711            1 
   30000    1.2488065   -6.6001278    9.8770382  0.027436217  0.045988282            1 
   31000    1.2591983   -6.5634765    10.294262  0.027672746  0.045944852            3 
   32000    1.2159181   -6.5871679    10.902871  0.028392892  0.045870879            3 
   33000    1.2307036   -6.5831592    11.441929   0.02889376  0.045787615            1 
   34000    1.2589557   -6.5865905    12.010913  0.029438511  0.045786055            4 
   35000     1.259933    -6.604685     12.40436  0.029534191  0.045730096            3 
   36000    1.2443634   -6.5604534    12.962664  0.030006166  0.045623651            1 
   37000    1.2371316   -6.5791193    13.341981  0.030049506  0.045470221            2 
   38000    1.2520863   -6.5645891    13.717223  0.030081628  0.045217729            2 
   39000    1.2643596    -6.571779    14.263824  0.030478255  0.044972381            2 
   40000    1.2558157   -6.5688707    14.737566  0.030703261  0.044754037            2 
   41000    1.2552449   -6.5815628    15.140369  0.030773108  0.044521918            5 
   42000    1.2335454   -6.5641946    15.687102  0.031125202  0.044287409            1 
   43000    1.2098548   -6.5886631    16.163494  0.031324601  0.044103044            2 
   44000    1.2617502   -6.6319593    16.606787  0.031452247  0.043921174            3 
   45000    1.2432741   -6.5983487    17.051922  0.031577634  0.043745925            1 
   46000    1.2458591   -6.5505155    17.580112  0.031848028  0.043576863            1 
   47000    1.2582036   -6.5794482    18.130422  0.032146139   0.04342792            2 
   48000    1.2562376   -6.6060752    18.655791  0.032388525  0.043310671            2 
   49000    1.2353631   -6.5481066    19.268609  0.032769743  0.043231797            1 
   50000    1.2281353   -6.6390335     19.53392  0.032556533  0.043122003            1 
   51000    1.2378357   -6.5404958    20.155507  0.032933835  0.042989322            2 
   52000    1.2429709   -6.5576251    20.438394  0.032753837  0.042866205            1 
   53000    1.2159817   -6.5954504    20.802278  0.032707984  0.042725921            2 
   54000    1.2328489   -6.5873133     21.27446  0.032830956  0.042573552            2 
   55000    1.2433786   -6.6031174     21.70998  0.032893908   0.04241043            1 
   56000    1.2427216   -6.5961224    22.276197  0.033149103  0.042281033            3 
   57000    1.2469012   -6.6016441    22.724209  0.033222527  0.042183667            1 
   58000    1.2301618   -6.5743638    23.422143  0.033652503  0.042105992            4 
   59000    1.2363494   -6.5932946    23.984026  0.033875743  0.042065255            2 
   60000    1.2231604     -6.56614    24.788644  0.034428672  0.042056217            2 
   61000    1.2343269   -6.5516425    25.365225  0.034651946  0.042065643            2 
   62000    1.2470484    -6.560249    25.649838  0.034475588  0.042071384            1 
   63000    1.2615357   -6.5699953    26.234428  0.034701625  0.042087789       -1e+20 
   64000    1.2557164   -6.5815758    26.634251  0.034680015  0.042081734            3 
   65000    1.2313167   -6.5716618    27.282457  0.034977509  0.042069438            2 
   66000     1.241329   -6.5657213    27.601816  0.034850778  0.042056971            2 
   67000     1.248382   -6.5712716      28.2054  0.035081343  0.042034088            1 
   68000    1.2121106   -6.6372708     28.64711  0.035106752  0.042028283            1 
   69000    1.2431095    -6.575839    29.032292  0.035063154  0.042013472            3 
   70000    1.2393071   -6.6082168    29.390136  0.034988256  0.041983665            2 
   71000    1.2310119   -6.5993093    29.732837  0.034897696  0.041933119            1 
   72000    1.2258939   -6.6207566    30.217917   0.03497444  0.041884578            1 
   73000    1.2708351   -6.5593987     30.76212  0.035116576  0.041841419            2 
   74000    1.2420297   -6.5957271    31.319123  0.035269282  0.041797837            1 
   75000    1.2577658   -6.5993259    31.726487  0.035251652  0.041750381            1 
   76000    1.2228589   -6.5789049    32.313376  0.035431333  0.041709887            2 
   77000    1.2344395   -6.5693047    32.812737   0.03551162  0.041680847            1 
   78000    1.2009092   -6.5804774    33.405244  0.035689363  0.041659977            3 
   79000    1.2202032   -6.5640749    33.840097  0.035696305  0.041643874            3 
   80000    1.2153815   -6.5895937    34.293914  0.035722827   0.04162356            3 
   81000     1.230464   -6.6547384    34.417772  0.035409231  0.041587981            3 
   82000    1.2621004   -6.6054233    35.085481  0.035655976  0.041550728            2 
   83000    1.2388533   -6.5541349    35.685325  0.035828639  0.041517041            1 
   84000    1.2481639    -6.605607    36.169322  0.035882263  0.041491963            2 
   85000    1.2349482    -6.588998    36.696214   0.03597668  0.041465415            2 
   86000    1.2370969    -6.598782    37.107177  0.035956567  0.041443245            1 
   87000    1.2276614   -6.5607281    37.719824  0.036130099   0.04142027            2 
   88000    1.2371522   -6.5692466    38.185747  0.036160745  0.041402221            2 
   89000    1.2382386   -6.6084071    38.824114  0.036352167  0.041391304            3 
   90000    1.2316656   -6.6146182    39.120016  0.036222237  0.041379729            2 
   91000    1.2644852   -6.5779982    39.743291  0.036394955  0.041367784            1 
   92000    1.2241994   -6.5427242    40.424942  0.036616795  0.041365074            2 
   93000    1.2398271   -6.5731801    40.776401  0.036537994  0.041361247            3 
   94000     1.242689   -6.5691368     41.19184  0.036517588  0.041354184            2 
   95000    1.2260723   -6.6135391    41.623963  0.036512248  0.041345088            4 
   96000    1.2543386   -6.5741942    42.114422  0.036557658  0.041341859            1 
   97000    1.2232395     -6.57323    42.902844  0.036858113  0.041335131            4 
   98000    1.2245743   -6.5982521    43.145434  0.036688294  0.041335598            2 
   99000    1.2231543   -6.5940588    43.703904  0.036787798   0.04133423            2 
  100000    1.2466902   -6.6341874    44.227458  0.036856215  0.041323188            1 
  101000    1.2452147   -6.6086011    44.695518   0.03687749   0.04131596            1 
  102000    1.2206943   -6.5579641     45.25185  0.036970466  0.041311579            2 
  103000    1.2138156   -6.5934841    45.767557  0.037028768  0.041310053            1 
  104000    1.2473578   -6.6239466    46.087302  0.036928928  0.041312342            1 
  105000    1.2369846   -6.5623401    46.828278    0.0371653  0.041317007            1 
  106000    1.2565124   -6.6210844    47.000945  0.036950428  0.041315452            2 
  107000    1.2673466   -6.6119349    47.705323  0.037153678  0.041316524            2 
  108000    1.2516847   -6.5812552    48.501543   0.03742403  0.041325506            1 
  109000    1.2234404   -6.5639295    48.835503  0.037336012    0.0413342            1 
  110000     1.215845   -6.5725711    49.122426  0.037213959  0.041337077            1 
  111000    1.2070379    -6.607089     49.32685   0.03703217  0.041323543            2 
  112000    1.2397189   -6.6050561    49.859434  0.037097793  0.041305933            3 
  113000    1.2399158   -6.6053037    50.211163  0.037028881  0.041285578            2 
  114000    1.2216293    -6.628028    50.584525  0.036976992  0.041265049            3 
  115000    1.2396981   -6.6173643    51.175321  0.037083566  0.041239042            2 
  116000    1.2019523   -6.5785778      51.9066  0.037289224  0.041217684            4 
  117000    1.2482744   -6.5599474    52.509017  0.037399585  0.041210317            1 
  118000    1.2403395   -6.6216287    53.034295  0.037453598    0.0412017            2 
  119000    1.2213625   -6.5801841    53.481404  0.037451963  0.041198654            2 
  120000    1.2299597   -6.5701682    53.845666  0.037392823  0.041191512            1 
  121000    1.2288279   -6.6243041    54.463914  0.037509583    0.0411829            3 
  122000    1.2321354   -6.5810157    54.849052    0.0374652  0.041175101            4 
  123000    1.2129504   -6.5864575    55.354849  0.037503285  0.041168624            1 
  124000    1.2444161   -6.6175267    56.036848  0.037659172  0.041164173            6 
  125000    1.2302936   -6.5954117    56.213444  0.037475629  0.041151585            1 
  126000    1.2112175   -6.6092634    56.623066  0.037449118  0.041139323            1 
  127000    1.2417916   -6.6102742    57.257258  0.037570379  0.041132388            2 
  128000    1.1941237   -6.6159777    57.806209   0.03763425  0.041125652            2 
  129000    1.2137348   -6.5873221     58.40684  0.037730517  0.041120136            2 
  130000    1.2469255   -6.6339378    58.758223  0.037665527  0.041114045            1 
  131000    1.2257436   -6.6124981    59.580671   0.03790119  0.041115686            2 
  132000    1.2445861   -6.5859923    60.317164  0.038079018  0.041123687            2 
  133000    1.2255559   -6.5841719    60.634667  0.037991646  0.041129827            2 
  134000    1.2259664   -6.5803152    61.045061  0.037963346  0.041137346            1 
  135000    1.2029465   -6.6133372    61.395912  0.037898711  0.041141671            2 
  136000    1.2050941   -6.6040102    61.968002  0.037970589  0.041142493            1 
  137000    1.2619227   -6.6502843    61.824242  0.037605986  0.041141497            3 
  138000    1.2337322   -6.5739002    62.794991  0.037919681  0.041134954            2 
  139000    1.2231661   -6.5949447    63.306741  0.037953681  0.041133484            2 
  140000    1.2294625   -6.6403165    63.875288  0.038021005   0.04113304            1 
  141000    1.2458789   -6.5868872    64.260227  0.037978857  0.041130749            2 
  142000    1.2363628   -6.6108107    64.299751  0.037734595  0.041119158            1 
  143000    1.2080484   -6.5601039    64.899535  0.037820242  0.041106683            1 
  144000    1.2003439   -6.5681374    65.426868  0.037862771  0.041096717            2 
  145000    1.2330158     -6.61718    66.023793  0.037944709  0.041087928            2 
  146000    1.2031106   -6.5994444    66.315448  0.037851283  0.041078001            2 
  147000    1.2408339   -6.5778827    66.832343  0.037886815  0.041064164            2 
  148000    1.2468156   -6.5944819    67.012239  0.037732117  0.041045879            2 
  149000    1.2110045   -6.5964668    67.741187   0.03788657  0.041027488            2 
  150000    1.2431136     -6.64409    68.151538  0.037861965  0.041010529            1 
  151000    1.2109678   -6.5762056    68.446767  0.037774154  0.040993172            1 
  152000     1.246793    -6.619946    69.153868  0.037913305  0.040980637            4 
  153000    1.2148575   -6.6253057    69.781508  0.038007357  0.040971697            3 
  154000    1.2268607    -6.578232    70.440791  0.038117311  0.040964676            2 
  155000    1.2354609   -6.5938184    71.063447  0.038206154  0.040960887            3 
  156000    1.2517915   -6.6308084    71.221861  0.038045866  0.040954782            1 
  157000    1.2183277   -6.6009655    72.253603  0.038351169  0.040952663            2 
  158000    1.2507619   -6.5984114    72.703488  0.038345721  0.040952122            1 
  159000    1.2307732   -6.6139164    73.004683  0.038262412  0.040948497            1 
  160000    1.2202053   -6.6446241    73.135616  0.038091466  0.040942967            1 
  161000    1.1952514   -6.5997383    73.511948  0.038049662    0.0409341            2 
  162000    1.2350403   -6.6070158    74.188226  0.038162668  0.040923207            2 
  163000    1.1879589   -6.6043771    74.243933  0.037957021   0.04091508            1 
  164000    1.2263554   -6.6190667    74.388969  0.037799273  0.040900343            2 
  165000    1.2122161   -6.5767393    75.470631   0.03811648  0.040882737            1 
  166000    1.2292989   -6.6550104    75.495776  0.037899486  0.040866177            2 
  167000    1.2275192   -6.6258171     76.28962  0.038068672  0.040852009            2 
  168000    1.2323706   -6.6011545     76.55464  0.037973532  0.040841262            3 
  169000    1.1970486   -6.6285843    77.303594  0.038118143  0.040833002            1 
  170000    1.2139102   -6.5922616    78.191556  0.038329194   0.04082544            2 
  171000    1.2219108   -6.6080342    78.697482  0.038351599   0.04082174            2 
  172000     1.251663   -6.6168711    78.864161   0.03820938  0.040819394            1 
  173000    1.1983425   -6.5968623     79.77482  0.038427177  0.040818141            3 
  174000     1.224069   -6.6125737    80.268137  0.038442594  0.040817022            3 
  175000    1.2460279   -6.6650857    80.152974  0.038168083  0.040812898            1 
  176000    1.2091087   -6.5969285    81.285225  0.038487322  0.040809548            2 
  177000    1.2153661   -6.6113452    81.478188  0.038360729   0.04080999            3 
  178000    1.2247757   -6.6126813     82.35874  0.038557462  0.040814978            1 
  179000    1.2110858   -6.6131789    82.924523  0.038605458  0.040818845            1 
  180000      1.24799    -6.614464    83.234183  0.038534344  0.040822213            2 
  181000    1.2267017   -6.6352021    84.041787  0.038693272  0.040824357            2 
  182000    1.2143892   -6.6301882    84.130083    0.0385211  0.040826296            2 
  183000    1.2413129   -6.6284441    84.762684  0.038598672   0.04082955            4 
  184000    1.2129305   -6.6147936    85.267033  0.038617315    0.0408337            2 
  185000    1.2253744   -6.6471603    85.951465  0.038716876  0.040839084            2 
  186000    1.2225977   -6.5746458    86.553577  0.038778484  0.040844282            1 
  187000    1.2302233   -6.6067053    86.867889   0.03871118  0.040845731            1 
  188000    1.2412184   -6.6374853    87.185084   0.03864587  0.040846918            2 
  189000    1.2082979   -6.6108005    87.586976  0.038618596  0.040846569            1 
  190000    1.2127426   -6.5849402    88.567907  0.038845573  0.040849555            2 
  191000    1.2284916   -6.5999629     88.44076  0.038586719   0.04085082            6 
  192000    1.2238728   -6.6050556    89.413141  0.038807787  0.040855855            2 
  193000    1.2039909    -6.652936    89.991092  0.038856257  0.040860178            3 
  194000    1.2173905   -6.6248372    90.443476   0.03885029  0.040862702            1 
  195000    1.2102913   -6.5987844    90.898973  0.038845715  0.040865351            5 
  196000    1.2230289   -6.6292716    91.528789  0.038915301  0.040868789            3 
  197000    1.2265961   -6.6551439    91.878244  0.038865585  0.040874732            2 
  198000    1.2146629   -6.6345576    92.149342  0.038783393  0.040878088            3 
  199000    1.2346261   -6.6255602    92.369581  0.038680729  0.040876374            3 
  200000    1.2212662    -6.641108     92.87147  0.038696446  0.040873526            2 
  201000    1.1917767   -6.6272136    93.295775   0.03867984  0.040873099            2 
  202000    1.1856879   -6.6414742    93.722431  0.038664369   0.04086995            2 
  203000    1.2328326   -6.5824417    93.978662   0.03857909  0.040865318            1 
  204000    1.2175172   -6.6019018    94.746832  0.038703771  0.040862745            2 
  205000    1.2135306   -6.5994477    95.507664  0.038824253   0.04086024            2 
  206000    1.1891541   -6.5792141    95.824764  0.038764063  0.040855824            2 
  207000    1.2179511   -6.6515773    96.323992  0.038777774  0.040852777            2 
  208000    1.2154161   -6.6283514    96.780312  0.038774163  0.040850262            1 
  209000    1.2192149   -6.6659833    97.036539  0.038690805  0.040847491            3 
  210000    1.2118464   -6.6356988    97.712486  0.038774796  0.040845367            4 
  211000    1.2139729   -6.6223162    98.267211  0.038810115  0.040844065            1 
  212000    1.2229619   -6.5855787    98.741299  0.038813404  0.040842066            5 
  213000    1.2188309   -6.6261995    98.405576  0.038499834  0.040838551            3 
  214000    1.2089991   -6.6228003    99.307889  0.038671296  0.040830277            3 
  215000    1.2138162   -6.6070754    99.723695  0.038652595  0.040820825            2 
  216000    1.2097117   -6.6110436    100.23109  0.038669404  0.040811739            1 
  217000    1.2095811   -6.6294371    100.36178  0.038541389  0.040803867            5 
  218000    1.2054898   -6.5675595    100.89501   0.03856843  0.040792436            1 
  219000    1.2275452    -6.637298    101.31338  0.038551515   0.04078001            2 
  220000    1.2211344   -6.6359385    101.49444  0.038444864  0.040767649            2 
  221000    1.2135742   -6.6269013    102.40681  0.038614936  0.040756472            2 
  222000    1.1917877   -6.5869516    103.04333   0.03867993  0.040747452            2 
  223000    1.2218771   -6.6865346    102.91757  0.038459482   0.04073807            2 
  224000    1.2169723   -6.6222172    103.93679  0.038666962  0.040730272            1 
  225000    1.2166525   -6.6138886    104.71628  0.038783808  0.040724337            2 
  226000    1.2459702   -6.6520361    104.98398  0.038710906  0.040719105            2 
  227000    1.2259551   -6.6192686    105.81596  0.038845799  0.040715798            4 
  228000    1.2424316   -6.6372011     105.8313  0.038681029  0.040711388            2 
  229000    1.2073611   -6.6201917     106.2553  0.038666412    0.0407034            2 
  230000    1.2151145   -6.6719143    106.12659  0.038451663  0.040692663            3 
  231000    1.2420262   -6.6476932    107.41572   0.03875026  0.040684217            3 
  232000    1.1946538   -6.6539339    107.46334  0.038600339  0.040675257            4 
  233000    1.2267423    -6.627415    108.06663  0.038650439  0.040667289            2 
  234000    1.1977644    -6.628062    108.47345  0.038630144  0.040659506            3 
  235000    1.2360198   -6.6560931    109.17329  0.038713934  0.040650992            4 
  236000    1.2014286   -6.6174444    110.01256  0.038846244  0.040644441            3 
  237000    1.2108416   -6.6491293    110.08511  0.038707846  0.040637857            2 
  238000    1.2219777   -6.6343271    110.49849  0.038689948    0.0406322            2 
  239000    1.1854501   -6.6578894    111.10244  0.038738646  0.040627284            2 
  240000    1.2238432   -6.6519415    111.72735   0.03879422  0.040622394            2 
  241000    1.2120687   -6.6491956    111.84543  0.038674076  0.040615079            2 
  242000    1.2185427   -6.6240436    112.31782  0.038676935  0.040606372            4 
  243000    1.2275511   -6.6375197     112.7198  0.038655624  0.040596997       -1e+20 
  244000    1.1953101   -6.6168096    112.70513  0.038492189  0.040586174            2 
  245000     1.217926   -6.6452554    113.56551  0.038627723  0.040575024            1 
  246000    1.2197473   -6.6488987     114.4639  0.038775034  0.040566313            2 
  247000    1.2348529   -6.6027845    114.53736  0.038642833  0.040557844            1 
  248000    1.2044225   -6.6327423    115.26602   0.03873186  0.040549088            2 
  249000    1.2110497   -6.6108012    115.82637  0.038763844  0.040542914            1 
  250000    1.2281124    -6.684927    115.97654  0.038658846  0.040535936            1 
  251000    1.2222297   -6.6213278    116.71721  0.038750732   0.04052965            2 
  252000    1.2211652   -6.6255069    116.87696  0.038649788  0.040524706            3 
  253000    1.1989226   -6.6470881    117.94326   0.03884824  0.040519317            1 
  254000    1.2114758   -6.6441077     117.8976  0.038680314  0.040515452            1 
  255000    1.2130765   -6.5959969    118.73858  0.038803457  0.040509233            2 
  256000    1.2157197   -6.6027617    119.28239  0.038828901   0.04050301            2 
  257000    1.2163015   -6.6257886    119.42838  0.038725157  0.040493496            1 
  258000    1.2170234   -6.6160687    119.84237  0.038708777  0.040485286            2 
  259000    1.1938463   -6.6319511    120.16477  0.038663052  0.040477544            3 
  260000    1.1995435   -6.6660385    120.41661  0.038595067  0.040470268            2 
  261000    1.2113214    -6.610635     121.1931  0.038695115  0.040462635            2 
  262000    1.2238424   -6.6136367    121.43578  0.038624613   0.04045365            1 
  263000    1.2031002   -6.6531072    121.75323  0.038578336  0.040445144            2 
  264000    1.2169567   -6.6838121    122.01004  0.038513271  0.040436931            1 
  265000    1.2166142   -6.6299368    123.35957  0.038792317  0.040428514            1 
  266000    1.2153282   -6.6156954    123.92334  0.038823102  0.040420954            2 
  267000    1.1985848   -6.6086829    123.84846  0.038654327  0.040413407            1 
  268000    1.1886945   -6.6088008    124.56047  0.038731491  0.040407157            4 
  269000    1.1989771   -6.6670549    125.02772  0.038732256  0.040400237            2 
  270000    1.1913281   -6.5927296    125.70718  0.038798514  0.040394928            2 
  271000    1.1959026   -6.6543681     126.1668  0.038796679  0.040390396            1 
  272000    1.2182299   -6.6593672    126.04865  0.038617847  0.040383983            3 
  273000    1.2172426   -6.6359409    127.28119  0.038852621  0.040377526            1 
  274000     1.205496   -6.5951952    127.16944  0.038676838  0.040370697            2 
  275000    1.1958015   -6.6651807    127.48466  0.038631714  0.040363851            1 
  276000    1.2088296   -6.6511949    127.99634  0.038646238  0.040356581            1 
  277000    1.2093522   -6.6407291     128.5918   0.03868586  0.040349322            3 
  278000    1.1947777   -6.6355027    129.21632  0.038733909  0.040341638            3 
  279000    1.1994984    -6.645711    128.86472   0.03849006   0.04033322            3 
  280000    1.2298582   -6.6805117    129.55066  0.038556745  0.040323001            1 
  281000    1.1731591   -6.6525165    130.23565  0.038622671  0.040314009            2 
  282000    1.2168945   -6.6336072    130.42603   0.03854197  0.040304845            1 
  283000    1.2107079   -6.6191116    131.26703  0.038653424  0.040295446            3 
  284000    1.2105768    -6.660267    131.32753  0.038535073  0.040286172            1 
  285000    1.2102911   -6.6275534    132.72564  0.038808667  0.040278407            2 
  286000    1.2091661   -6.6248472    132.61431  0.038640534  0.040271447            3 
  287000    1.1852043   -6.6543972    133.38494  0.038729656  0.040264499            2 
  288000    1.2167779   -6.6354961    134.00772  0.038775381  0.040257917            7 
  289000    1.1875646   -6.6440691    134.06753  0.038658459  0.040250884            2 
  290000    1.2396167   -6.6312243    134.88748  0.038760769  0.040243932            2 
  291000    1.1955721   -6.6657473     134.9424  0.038643299  0.040236981            2 
  292000    1.2261254   -6.6474031     135.8922  0.038782019  0.040230925            2 
  293000    1.2239591   -6.6399427    136.52248  0.038828918  0.040225481            1 
  294000    1.1886398   -6.6525742     137.1766  0.038882255  0.040220854            6 
  295000      1.22376   -6.6603641    137.07781  0.038722546  0.040216167            2 
  296000     1.219119   -6.6197069      137.723  0.038773366  0.040211357            2 
  297000    1.1955182   -6.6243619    138.47591  0.038854072  0.040207487            1 
  298000    1.2319773    -6.657621    138.69482  0.038784905  0.040203871            1 
  299000    1.2118655    -6.636258    139.17291  0.038788436  0.040200829            2 
  300000    1.1923538   -6.6439555    139.61051  0.038780698   0.04019763            2 
  301000    1.1835366   -6.6554407    140.44773  0.038883647  0.040193624            2 
  302000    1.1982351   -6.6678612    140.59234  0.038794797  0.040190404            1 
  303000    1.2115774   -6.6384247    141.38888  0.038885831  0.040188488            2 
  304000    1.2025294   -6.6631673    141.71344  0.038846885  0.040184927            1 
  305000    1.2096404   -6.6838791    142.11801  0.038830057  0.040181437            2 
  306000    1.2254477   -6.6560128    142.15559  0.038713395  0.040175733            2 
  307000    1.1901487   -6.6580555    142.91158  0.038792503  0.040169808            2 
  308000    1.2166472   -6.6561157    143.44713  0.038811452  0.040165506            1 
  309000    1.1662423   -6.6167616    143.77338  0.038773836  0.040161584            3 
  310000    1.1904745   -6.6390231     144.7207  0.038903415   0.04015847            1 
  311000    1.2055583   -6.6708807    144.69235  0.038770727  0.040154078            5 
  312000    1.2217784   -6.6527731    144.90489  0.038703229  0.040148381            1 
  313000     1.213563   -6.6956082    145.16596  0.038649084  0.040141899            1 
  314000    1.2064785   -6.6677623    146.12302  0.038779995  0.040135165            1 
  315000      1.20031   -6.6463968    146.83837  0.038846129  0.040129196            4 
  316000    1.2481615   -6.7077294    146.51421  0.038637714  0.040121955            3 
  317000    1.2187527   -6.6578958    146.98275  0.038638999    0.0401144            3 
  318000     1.203494   -6.6958388    147.04929  0.038534928  0.040106555            1 
  319000    1.2110437   -6.6750845    147.77887   0.03860472  0.040098398            1 
  320000    1.1780287   -6.6091611    147.71454  0.038467328  0.040089439            4 
  321000    1.1863099   -6.6611966    148.37359  0.038518586  0.040079783            5 
  322000    1.2120536   -6.6377715    149.00286  0.038561815  0.040069934            1 
  323000    1.1885106   -6.6331466    149.94283  0.038684941  0.040060715            3 
  324000     1.196342   -6.6773769    150.00618  0.038581836  0.040052409            2 
  325000    1.1993571   -6.6385912    150.23438  0.038521636  0.040042948            1 
  326000    1.2068977   -6.6916574    150.74263  0.038533393    0.0400344            2 
  327000    1.1919421   -6.6415505    151.00491  0.038482393  0.040024447            2 
  328000    1.2249692   -6.6756701    151.51158  0.038493796  0.040014147            1 
  329000    1.2119464   -6.6396856    151.80837  0.038451968  0.040003714            3 
  330000    1.1901375   -6.6697268    152.03349  0.038392294  0.039992881            1 
  331000     1.183811   -6.6900138    152.94828  0.038506616  0.039981221            2 
  332000    1.1744129   -6.6449074    152.88324  0.038374308  0.039971424            2 
  333000    1.1858506   -6.6422315    153.72272  0.038469148   0.03996186            1 
  334000     1.190515   -6.6592791    154.17928  0.038467884  0.039951308            2 
  335000    1.1812376   -6.6477619    154.22712  0.038364956  0.039940594            1 
  336000    1.1556281   -6.6472876    153.85339  0.038158084  0.039929269            2 
  337000    1.1990159   -6.6578642    155.12842  0.038360144  0.039917817            3 
  338000    1.2106181   -6.6669851    155.21746  0.038268603  0.039905475            1 
  339000    1.1787486   -6.6887275    155.88712  0.038320334   0.03989213            3 
  340000    1.1895674   -6.6388646    156.86266   0.03844673  0.039879712            1 
  341000    1.1697373   -6.6697531    157.25136  0.038428972   0.03986896            7 
  342000    1.2062767   -6.6473674    157.68793  0.038422985  0.039859513            3 
  343000    1.1834051   -6.6737765    157.03604  0.038152585  0.039848423            2 
  344000    1.2053564    -6.677138    157.69757  0.038201932  0.039837013            2 
  345000    1.1740196   -6.6505375    158.94805   0.03839325  0.039825564            2 
  346000    1.1924876   -6.6739112    158.65164  0.038210895   0.03981453            4 
  347000    1.1918811   -6.6376186    159.37014  0.038273327  0.039803529            1 
  348000    1.1955537   -6.6470674    160.56953  0.038450558  0.039793409            2 
  349000    1.1980248   -6.6395958    160.87092   0.03841235  0.039783657            2 
  350000    1.2110103   -6.6937431    161.09327  0.038355542  0.039774396            2 
  351000     1.214123    -6.693707     161.2691  0.038288011  0.039764837            2 
  352000    1.1759455   -6.6715169    162.16096  0.038390379  0.039756023            1 
  353000    1.1897763   -6.6314823    163.05745   0.03849326  0.039746986            1 
  354000    1.1881074   -6.6252977      163.459  0.038479049  0.039738593            2 
  355000    1.2196591    -6.659776    164.06829  0.038513684  0.039731052            2 
  356000    1.1980566   -6.6180495    164.94512  0.038610749  0.039723917            2 
  357000    1.2062057   -6.6674954    164.66461  0.038437116  0.039716585            1 
  358000    1.2129614    -6.692604    165.54123  0.038533805  0.039708135            1 
  359000    1.2094702   -6.6686834    165.69172  0.038461403   0.03969987            3 
  360000    1.1933744   -6.6657323    166.24809  0.038483355  0.039693422            2 
  361000    1.2147028   -6.6851785    167.00012   0.03855035  0.039686688            1 
  362000    1.2099881   -6.6747134    167.12063    0.0384716  0.039679053            5 
  363000    1.1967474   -6.6690321    166.79401  0.038290635  0.039671675            2 
  364000    1.1976576    -6.681806    167.31128  0.038303865  0.039663541            2 
  365000    1.2052979   -6.6977968    168.35119  0.038436345  0.039655381            1 
  366000    1.1770648   -6.6743329    168.66836  0.038403543  0.039646581            1 
  367000    1.1812591   -6.6220384    169.39646  0.038464229  0.039639353            3 
  368000    1.1895824   -6.6519091    169.34273  0.038347538  0.039633164            2 
  369000    1.2038586    -6.672038    170.49695   0.03850428  0.039625667            1 
  370000    1.1983539   -6.6617757     171.2389   0.03856732  0.039619719            2 
  371000    1.1899607   -6.7152888    171.38031  0.038495129  0.039615182            1 
  372000    1.1711695   -6.6692233    172.16057  0.038566436  0.039610605            1 
  373000    1.1911201   -6.6289307    172.61166  0.038563821  0.039605818            2 
  374000    1.1827887   -6.6687228    173.40437  0.038637337  0.039602066            1 
  375000    1.1949954   -6.6765091    173.51428   0.03855873  0.039598093            3 
  376000    1.2037495   -6.6600717    174.34445  0.038640172  0.039594605            3 
  377000    1.2029259   -6.6623665    174.82378  0.038643629  0.039592655            6 
  378000    1.1945373   -6.6674817    175.67916  0.038729973  0.039590671            1 
  379000    1.2081339   -6.6673775    175.88992  0.038674126  0.039588392            4 
  380000    1.2023025    -6.663999     175.9552  0.038586667  0.039585383            1 
  381000     1.191531   -6.6878148    177.41707  0.038805134  0.039583366            3 
  382000    1.1965358   -6.6726983    177.34803  0.038688487  0.039580499            1 
  383000    1.1944108   -6.6615516    178.14655  0.038761216  0.039578243            1 
  384000     1.187641   -6.6977762    178.45639  0.038727516  0.039576416            3 
  385000    1.1934633   -6.6601163    179.04895  0.038755183   0.03957568            3 
  386000    1.1994507   -6.6396207    179.40238  0.038731084  0.039573645            1 
  387000    1.1850789   -6.7098904    179.09357  0.038564506  0.039571511            2 
  388000    1.1836244   -6.6891004     179.5332  0.038559537  0.039567971            1 
  389000    1.1822975   -6.6710074     179.5441  0.038462747   0.03956449            1 
  390000    1.1892701   -6.6727699     180.7699  0.038626048  0.039560971            1 
  391000    1.2192543   -6.6875957    181.30973  0.038642312   0.03955752            1 
  392000    1.1853002   -6.6423941    182.44089  0.038784204  0.039554648            1 
  393000     1.193885   -6.6861385    181.99658  0.038591301   0.03955101            3 
  394000    1.2089824   -6.7442395    182.42422  0.038583802  0.039547811            1 
  395000    1.1764034   -6.6727602    182.93466   0.03859381  0.039544175            3 
  396000    1.2019099   -6.6797856    183.65461  0.038647856  0.039540591            2 
  397000    1.1741385   -6.6968931    183.70199  0.038560451  0.039537368            1 
  398000    1.1670094   -6.6848662     183.6931  0.038461705  0.039533647            1 
  399000    1.1797937   -6.7268566    183.90026  0.038408576  0.039528621            5 
  400000    1.1748862   -6.7347507    184.63202  0.038465003  0.039523718            1 
  401000    1.1638264   -6.6652243    185.54708  0.038559244  0.039519781            3 
  402000    1.1788095   -6.6790054    185.81829  0.038519546  0.039516176            1 
  403000    1.1930876   -6.6710695    186.14227  0.038490958  0.039511037            3 
  404000    1.1884893    -6.707383    186.84199  0.038540014  0.039505711            2 
  405000    1.1859048   -6.7224607    187.12704  0.038503506  0.039501042            1 
  406000    1.1509184   -6.6719968     187.7132  0.038528982   0.03949639            2 
  407000    1.2009877   -6.7110327    188.11317  0.038516209  0.039491292            2 
  408000    1.2071722   -6.6745905    188.50278  0.038501385  0.039485959            2 
  409000    1.1625869   -6.6604106    190.05043  0.038722581   0.03948294            4 
  410000    1.1878998    -6.727874    189.75826  0.038568753  0.039479437            1 
  411000    1.1951146   -6.6854137    190.16512  0.038557404  0.039475918            1 
  412000    1.1604663   -6.6689432    190.82834  0.038597966  0.039472548            1 
  413000    1.1892136   -6.6922964    191.81853  0.038704303  0.039469372            1 
  414000    1.1874025    -6.645297    192.46195  0.038740329  0.039466442            3 
  415000    1.1775504   -6.6774342    192.54007  0.038662665  0.039464041            2 
  416000    1.1598483   -6.7204522    192.27083  0.038515791  0.039460837            2 
  417000    1.2039718   -6.6950758    192.71533  0.038512256  0.039456699            1 
  418000    1.1895017   -6.6751083    194.29046  0.038734143  0.039454195            2 
  419000    1.1677026   -6.6545177    195.38764  0.038859912   0.03945284            3 
  420000    1.1945321   -6.7297302    194.95793  0.038682129  0.039451591            1 
  421000    1.1679475   -6.6863855     195.3337  0.038664628  0.039450309            1 
  422000    1.2060391   -6.6675492    195.88232  0.038681343  0.039449848            2 
  423000    1.1663735   -6.6972516    196.99637  0.038809372  0.039448933            2 
  424000    1.1582781   -6.7153369    197.76984  0.038869858  0.039448043            2 
  425000    1.1663749   -6.7007327    198.10869   0.03884484  0.039447706            2 
  426000    1.1806558   -6.6965476     198.9718  0.038922496  0.039448785            1 
  427000     1.191434   -6.6906931    199.19175  0.038874268  0.039449656            4 
  428000    1.2006581   -6.6764755    199.76257  0.038894581  0.039450927            2 
  429000    1.1756799   -6.7697106     199.3191  0.038717774  0.039452047            3 
  430000    1.1858435    -6.677155    200.86837  0.038927978   0.03945295            3 
  431000    1.1613645   -6.6990782     201.5413  0.038967769  0.039454822            2 
  432000     1.189535    -6.683265    201.65685  0.038899855  0.039455888            3 
  433000    1.1478949   -6.6921474    201.12119  0.038706926   0.03945679            2 
  434000    1.1822365   -6.6459475    202.99952  0.038978402  0.039457484            2 
  435000    1.1802711   -6.6893825    203.31633  0.038949489  0.039458455            1 
  436000    1.2058426   -6.7122505    203.48255  0.038891924  0.039459382            3 
  437000    1.1717977   -6.6511109    204.52499  0.039001715  0.039460637            3 
  438000    1.1670884   -6.6691334    204.78022  0.038961228  0.039462962            2 
  439000    1.1900051   -6.7154234    205.88246  0.039081711  0.039464431            2 
  440000    1.1926603   -6.7039696    205.28406  0.038879557  0.039466565            2 
  441000    1.1503857   -6.7366761     206.2134  0.038967007  0.039468381            3 
  442000    1.1705524    -6.699037    207.46116  0.039114095  0.039470366            3 
  443000    1.2132408   -6.6721578     207.3032  0.038996088  0.039472176            2 
  444000    1.1770735   -6.6808921     207.7857  0.038998817  0.039474759            1 
  445000    1.1565108   -6.6996769    208.57218   0.03905846  0.039476769            2 
  446000    1.2039799   -6.6944515    209.18256  0.039084933   0.03947876            1 
  447000    1.2155448     -6.69341    209.82133  0.039116578   0.03948142            2 
  448000    1.1798167   -6.6570671    209.41334  0.038953374  0.039483282            2 
  449000    1.1931339   -6.6801714    209.47121  0.038877358  0.039484534            2 
  450000    1.2163838   -6.6712639    210.29942  0.038944338   0.03948588            1 
  451000    1.2139599   -6.6634027     211.1743  0.039019642  0.039487143            3 
  452000     1.192608   -6.7107283    211.47869  0.038989434  0.039488467            2 
  453000    1.1548312   -6.6947386    212.48524  0.039088528   0.03948951            1 
  454000    1.1790796   -6.6932496    211.95351   0.03890483  0.039489923            3 
  455000    1.1769045   -6.7103577    211.82633  0.038796032  0.039489424            4 
  456000    1.2048555   -6.6844511     212.7861  0.038886348  0.039488331            1 
  457000    1.1746775   -6.6948182    213.01018  0.038842119  0.039487316            2 
  458000    1.1746596   -6.7158971    213.61791  0.038867887  0.039486045            2 
  459000    1.1809209   -6.6944573    213.63671  0.038786621  0.039484036            2 
  460000    1.1792176   -6.7101032    213.85606   0.03874204  0.039481191            1 
  461000    1.1835898   -6.6938352    214.27598  0.038733908  0.039478493            2 
  462000    1.1783772   -6.6910394    214.64681  0.038716957  0.039476093            3 
  463000    1.1628514   -6.7151377    215.10054     0.038715  0.039473762            1 
  464000    1.1682811   -6.7271323    215.24319  0.038657182  0.039471239            2 
  465000    1.1780091   -6.6772168    215.90279  0.038692257  0.039468902            3 
  466000    1.2135626   -6.6914907    216.52731  0.038720907  0.039465921            1 
  467000    1.1622515    -6.712966    216.40645  0.038616425   0.03946246            3 
  468000     1.214682   -6.6906499    217.14524  0.038665463  0.039459229            3 
  469000    1.1978373   -6.7016389    217.68372  0.038678699   0.03945608            2 
  470000    1.1571788   -6.6851007    217.74323  0.038606955  0.039451918            2 
  471000    1.1644837   -6.6921629    217.90397  0.038553428  0.039447251            2 
  472000    1.1767306   -6.6847646    218.49896  0.038576794  0.039442116            1 
  473000    1.1936555   -6.6641531    219.32051  0.038639978  0.039437775            3 
  474000    1.1714783   -6.6623013    219.20321  0.038537835  0.039432949            1 
  475000    1.1906979   -6.7293152    219.67062  0.038538705  0.039427853            2 
  476000    1.1735719   -6.6953824    220.04331  0.038522989   0.03942292            2 
  477000    1.2036058   -6.7091862    220.35863  0.038497315  0.039418437            3 
  478000    1.1749511   -6.6949003    220.10006  0.038371698  0.039413368            1 
  479000    1.1609738   -6.7076574    221.27953  0.038496786   0.03940762            2 
  480000    1.1384484   -6.7031498    221.38041    0.0384341  0.039401845            1 
  481000    1.1896713   -6.7402895    221.68292  0.038406603  0.039396516            2 
  482000    1.1746922   -6.7124484    222.43037  0.038456149   0.03939134            2 
  483000     1.154974   -6.6886065    223.14785   0.03850032  0.039386526            3 
  484000    1.1665882   -6.7213355     223.6834  0.038512982  0.039381951            1 
  485000    1.1565555   -6.6827024     223.7066   0.03843756  0.039376922            3 
  486000    1.1643009   -6.7105783    224.08783  0.038423839  0.039371634            1 
  487000    1.1596772   -6.6874405    225.68017  0.038617414  0.039367154            2 
  488000    1.1387613   -6.6719406    225.09223  0.038437881  0.039361816            3 
  489000     1.179414   -6.7106298     225.1732  0.038373074  0.039355885            2 
  490000    1.1896149   -6.7486794    225.66203  0.038377896  0.039349614            2 
  491000    1.1835168   -6.7192198    226.04186  0.038364199  0.039343412            1 
  492000    1.1975554   -6.7245874    226.47188  0.038359059   0.03933727            2 
  493000    1.1695881   -6.7329866    226.91409     0.038356  0.039331675            2 
  494000    1.1778723    -6.693222    227.61633  0.038396816  0.039325956            2 
  495000    1.1723867    -6.679647    229.13923  0.038575627   0.03932031            6 
  496000    1.1471872   -6.7446303    228.60082  0.038407396  0.039314468            4 
  497000    1.1721268   -6.7091411    229.20979  0.038432224  0.039308616            2 
  498000    1.1789085   -6.7041413    229.19755  0.038353004  0.039303029            3 
  499000    1.1696812   -6.7054656     230.6844  0.038524448  0.039298252            3 
  500000    1.1882667   -6.7200097    229.70654  0.038284423  0.039292543            2 
  501000     1.184036   -6.7381588    230.54012  0.038346659  0.039286155            1 
  502000    1.1728227   -6.6788294    230.44209  0.038253998  0.039279175            2 
  503000    1.1832889   -6.7394465    230.48346  0.038184801  0.039272424            6 
  504000    1.1756885   -6.7369298    231.36087  0.038254112  0.039264946            2 
  505000    1.1852137   -6.7104518    232.02409  0.038287804  0.039257597            4 
  506000    1.1722739   -6.7421788    232.06738  0.038219265  0.039250564            3 
  507000    1.1886146   -6.6899679    233.26939  0.038341451  0.039244182            2 
  508000    1.1931692   -6.7321487    232.20024   0.03809059  0.039238032            2 
  509000    1.1747203   -6.7037457    233.78916  0.038275894  0.039230945            2 
  510000    1.1696894   -6.7231959    233.49851  0.038153352  0.039224313            1 
  511000     1.167018   -6.6780609    235.38584  0.038386471  0.039217974            2 
  512000    1.1763299   -6.7286008    234.88836  0.038230527   0.03921175            2 
  513000    1.1773847   -6.7171469    235.27035  0.038218055  0.039204795            2 
  514000    1.1855345   -6.7417755    236.48427   0.03834051  0.039198301            2 
  515000     1.173276   -6.7376659    236.03646  0.038193601  0.039191471            2 
  516000    1.1656636   -6.7053898    236.62002  0.038213827  0.039184926            1 
  517000    1.1699383   -6.7097268    237.66927  0.038309038  0.039178932            4 
  518000    1.1731675   -6.7242022    237.68879  0.038238222  0.039173413            3 
  519000    1.1833935   -6.7147359    238.52001  0.038298011  0.039168288            3 
  520000     1.169721   -6.7274709     238.0765  0.038153286  0.039162622            3 
  521000    1.1975574   -6.7157609    239.27671  0.038272027  0.039156533            2 
  522000    1.1720094   -6.7516964    238.78547  0.038120285  0.039150098            3 
  523000     1.179888   -6.7642107    239.25632  0.038122422  0.039143151            2 
  524000    1.1668999   -6.7144005    240.12831  0.038188344  0.039136805            1 
  525000    1.1811558   -6.7260765    240.71416  0.038208596   0.03913076            2 
  526000     1.164228    -6.704715    241.39151  0.038243268  0.039124222            2 
  527000    1.1709358   -6.7459431    242.19369  0.038297547   0.03911761            1 
  528000    1.1666523   -6.7243727    242.87647  0.038332776  0.039111342            1 
  529000    1.1641473   -6.7159726    243.27748  0.038323485   0.03910555            1 
  530000    1.1620686   -6.7233235    243.39318  0.038269369  0.039099656            2 
  531000    1.1564949   -6.7358574    243.72589  0.038249512  0.039094019            2 
  532000    1.1418711   -6.7224589    244.35941   0.03827685   0.03908844            1 
  533000    1.1594591   -6.7515448    244.94107  0.038295977  0.039084406            1 
  534000    1.1512436   -6.7242822    245.56807  0.038322109  0.039079388            2 
  535000    1.1694903   -6.7281239    246.82972  0.038446997  0.039075521            2 
  536000    1.1613877   -6.7391099    247.38029  0.038460865  0.039072604            2 
  537000    1.1882697   -6.7244325    247.42397  0.038396023  0.039069976            2 
  538000    1.1729313   -6.7251914    248.86521  0.038547894  0.039067915            1 
  539000    1.1713408   -6.7151182    248.83274  0.038471357  0.039066024            2 
  540000    1.1419449   -6.7046701    250.54205  0.038663897  0.039064367            4 
  541000    1.1605516   -6.7091437    249.99032  0.038507443  0.039061863            4 
  542000    1.1769331   -6.7364477    249.68377  0.038389263  0.039058898            3 
  543000    1.1785049   -6.7396356    250.00295   0.03836755  0.039054965            1 
  544000    1.1417481    -6.693075    251.01342  0.038451811    0.0390516            2 
  545000    1.1582668   -6.7082445    251.56146  0.038465055  0.039048363            3 
  546000    1.1583499   -6.6952191    251.46666  0.038380137  0.039044075            1 
  547000    1.1740076   -6.7458639    251.35844  0.038293485  0.039039892            2 
  548000    1.1655522   -6.7186205      252.115  0.038338655   0.03903597            4 
  549000    1.1635452   -6.7164636    253.05547  0.038411576  0.039031969            2 
  550000    1.1803946    -6.718144    252.92304  0.038321673  0.039028446            2 
  551000     1.164536   -6.7585219    252.81733  0.038236136  0.039024289            2 
  552000    1.1665783   -6.7289239    253.54374  0.038276531   0.03901928            2 
  553000     1.158365   -6.7058644    254.36268  0.038330723  0.039015044            3 
  554000    1.1639071   -6.7390028    254.49736  0.038281792   0.03901124            3 
  555000    1.1434842   -6.7312745     254.8282  0.038262493  0.039007299            1 
  556000    1.1416752   -6.7165967    256.29567   0.03841362  0.039003921            1 
  557000    1.1545459    -6.745644    256.93529  0.038440349  0.038999653            4 
  558000     1.157571    -6.721284    256.42318   0.03829498  0.038996005            1 
  559000    1.1476131    -6.757059    256.77329  0.038278666  0.038992075            1 
  560000    1.1424771   -6.7225085    257.67745  0.038344859  0.038988366            1 
  561000    1.1681568   -6.7006787    258.98559  0.038470824  0.038985148            3 
  562000     1.152415   -6.7410679    258.58428  0.038342865  0.038981864            2 
  563000    1.1522489   -6.7206947    259.60134  0.038425302  0.038977907            1 
  564000    1.1571464   -6.7256286    259.01388  0.038270372  0.038974754            1 
  565000    1.1505541   -6.7756655    258.95018  0.038193242  0.038971817            1 
  566000    1.1521852   -6.7405416    259.78439  0.038248585  0.038968037            1 
  567000    1.1507441   -6.7025886     260.8365  0.038335758  0.038964356            3 
  568000    1.1558016   -6.7408502    260.95739  0.038286002  0.038960365            1 
  569000    1.1553376   -6.7204392    260.93506  0.038215446  0.038956329            2 
  570000    1.1736574   -6.7650854    261.81596  0.038277187   0.03895225            1 
  571000    1.1363036   -6.7565976    261.55257  0.038171711  0.038948809            2 
  572000    1.1992982   -6.7262698    262.88405  0.038298958  0.038944826            3 
  573000    1.1352985   -6.7130284    264.16532  0.038418458  0.038942234            1 
  574000    1.1620961   -6.7507041    264.61216    0.0384164  0.038939711            1 
  575000    1.1651417   -6.7090046    265.78949  0.038520216  0.038936812            1 
  576000    1.1654046   -6.7535225    264.61797   0.03828385  0.038933435            3 
  577000    1.1446194   -6.7329186    265.59573  0.038358713  0.038930209            3 
  578000    1.1418343   -6.7466536    265.71522  0.038309576  0.038927321            4 
  579000     1.155675    -6.733836    266.91119  0.038415543  0.038924559            2 
  580000    1.1797443   -6.7674255    267.01375  0.038364045  0.038921865            4 
  581000    1.1616857   -6.7822394    266.72932  0.038257217  0.038918882            2 
  582000    1.1768186   -6.7344142    268.27944  0.038413436  0.038915431            1 
  583000    1.1552175   -6.7055704    268.35352  0.038358136  0.038912516            3 
  584000    1.1591381   -6.7894561    268.30011  0.038284833  0.038909094            5 
  585000    1.1496553   -6.7566154    268.49534  0.038247199  0.038905725            3 
  586000    1.1350665   -6.7221314    269.59034  0.038337647  0.038902899            1 
  587000     1.145455     -6.74981    270.27642  0.038369736  0.038899644            2 
  588000    1.1672881   -6.7220404    270.08661   0.03827758  0.038896105            3 
  589000    1.1518644   -6.7315969    270.87822  0.038324592  0.038892837            1 
  590000    1.1652749   -6.7686052    271.08848  0.038289333  0.038889142            3 
  591000    1.1692126   -6.7944468    271.20966  0.038241633  0.038885893            1 
  592000    1.1709451   -6.7356651    271.58778  0.038230261  0.038882142            2 
  593000    1.1792428   -6.7501063     271.8627  0.038204427  0.038878577            3 
  594000    1.1147768   -6.7171165    272.79776   0.03827129  0.038874998            4 
  595000    1.1657979   -6.7466702    273.06138  0.038243891  0.038871254            3 
  596000    1.1487674   -6.7159161    274.17064   0.03833482  0.038867962            3 
  597000     1.186878   -6.7895333    273.78084  0.038216198  0.038865102            3 
  598000    1.1514382   -6.7342353    274.60686    0.0382674  0.038862116            2 
  599000    1.1364409   -6.7522376    275.38045  0.038311137  0.038858909            2 
  600000    1.1462292   -6.7332431    275.45841  0.038258112  0.038855372            2 
  601000    1.1697932   -6.7516738    275.47485  0.038196735  0.038851706            2 
  602000    1.1374552    -6.707212    275.69409  0.038163634  0.038847599            2 
  603000    1.1326235   -6.7570375    276.20786  0.038171346   0.03884299            6 
  604000    1.1907234   -6.7750031     275.4744  0.038006954  0.038837535            1 
  605000    1.1672042    -6.745339    276.84433  0.038132828  0.038832308            1 
  606000    1.1539343   -6.7349621    277.23997  0.038124308  0.038826962            4 
  607000    1.1438684   -6.7488101    275.84144    0.0378695  0.038821467            2 
  608000    1.1194776   -6.7386863    278.01856  0.038105615  0.038816354            1 
  609000    1.1359439   -6.7695264    277.91358  0.038028678  0.038810496            2 
  610000    1.1821109    -6.733874    278.30245   0.03801946  0.038804566            3 
  611000    1.1514106   -6.7509366    278.97755  0.038049311  0.038798758            3 
  612000    1.1661274   -6.7346882    279.49333   0.03805737  0.038793259            2 
  613000    1.1712631   -6.7309789    278.88989  0.037913254  0.038787584            2 
  614000    1.1732975   -6.7320749    280.03727  0.038007229  0.038781982            2 
  615000    1.1211125   -6.7147127    281.64554  0.038163353   0.03877662            3 
  616000    1.1692382   -6.7891888    280.62571  0.037963435  0.038770649            2 
  617000    1.1499429    -6.790575    280.78753  0.037923761  0.038764504            5 
  618000    1.1775184    -6.769668    281.35477  0.037938885  0.038758464            2 
  619000    1.1793478   -6.7492202     281.0903   0.03784199  0.038752374            1 
  620000    1.1367052   -6.7795294    282.43376  0.037961526  0.038745963            1 
  621000    1.1734169   -6.7890149    281.64306  0.037794292  0.038739346            4 
  622000    1.1468003   -6.7582367    282.82021  0.037891239  0.038732875            2 
  623000    1.1738112   -6.7869997    283.50972  0.037922649  0.038726354            2 
  624000    1.1315992   -6.7505886    283.87205  0.037910263  0.038720108            2 
  625000    1.1498112   -6.7574705    284.43645  0.037924859  0.038713711            2 
  626000    1.1533137   -6.8128788    284.13517  0.037824171  0.038706994            1 
  627000    1.1526516   -6.7659297    284.19167  0.037771354  0.038700464            3 
  628000    1.1441138   -6.7202018    284.37729   0.03773584  0.038693045            2 
  629000    1.1421001   -6.7289223    285.26092  0.037792915  0.038686091            2 
  630000    1.1490136   -6.7354909    285.47275  0.037760946  0.038679142            1 
  631000    1.1318409   -6.7814358    285.97651  0.037767633  0.038672271            2 
  632000    1.1551327   -6.7451015    286.99264  0.037841857  0.038665406            2 
  633000    1.1350525   -6.7579515    288.25385  0.037948111  0.038659161            1 
  634000    1.1547415   -6.7543461    287.98625  0.037853082  0.038652726            2 
  635000    1.1293721   -6.7379052    288.86216   0.03790842  0.038646491            3 
  636000     1.160884   -6.7596014    289.44186  0.037924772  0.038640222            3 
  637000     1.142428   -6.7541776     289.2512  0.037840294  0.038634229            5 
  638000     1.114777   -6.7356169    289.38084  0.037797915  0.038628499            2 
  639000    1.1672544   -6.7217461    290.64918  0.037904171   0.03862203            2 
  640000    1.1502705   -6.8047852    289.69829  0.037721131   0.03861582            3 
  641000    1.1656885   -6.7617431    289.57453  0.037646194  0.038608648            3 
  642000    1.1588654   -6.7376981    290.46391     0.037703  0.038601724            2 
  643000    1.1460156   -6.7382631    290.91931  0.037703384  0.038594591            2 
  644000    1.1313422   -6.7498191     292.0447  0.037790463  0.038587164            1 
  645000    1.1616031   -6.7854747    291.16965  0.037618818  0.038580032            4 
  646000    1.1506605   -6.7778719     291.9701  0.037663842  0.038573188            2 
  647000    1.1397366   -6.7326992    293.09944  0.037751087  0.038566044            2 
  648000    1.1239001   -6.7739679    292.53633  0.037620413  0.038558291            3 
  649000    1.1392096    -6.750855    292.97675  0.037618997  0.038550593            2 
  650000    1.1587272   -6.7929475    293.18256  0.037587508   0.03854349            1 
  651000    1.1489645   -6.7172528    294.30517  0.037673472  0.038536219            2 
  652000    1.1711829   -6.7432949    294.57586  0.037650289    0.0385288            2 
  653000    1.1231329   -6.7155715    294.83186  0.037625301  0.038521605            2 
  654000    1.1617839   -6.7782079    295.46922  0.037648984  0.038515022            1 
  655000    1.1500079   -6.7538874    296.11166   0.03767324  0.038508124            2 
  656000    1.1833867   -6.7686367    295.71403  0.037565298  0.038501268            2 
  657000    1.1471829   -6.7649529    297.14842  0.037690058  0.038493915            1 
  658000    1.1482356   -6.7696598    296.56159  0.037558458  0.038486451            3 
  659000    1.1343568   -6.7691338    297.51782  0.037622385  0.038478588            3 
  660000    1.1567945   -6.7567056    297.48632  0.037561404  0.038470542            1 
  661000    1.1253519   -6.7819154    297.77946  0.037541535  0.038462218            2 
  662000    1.1128777   -6.7690385    297.19036   0.03741067  0.038454062            4 
  663000    1.1249959   -6.7397807     298.4322  0.037510332  0.038445956            2 
  664000    1.1436131   -6.7828234    298.48671  0.037460682   0.03843803            3 
  665000    1.1432904   -6.7710628    298.86478  0.037451727  0.038430241            3 
  666000    1.1322203   -6.7359569     298.4736  0.037346546  0.038422248            3 
  667000    1.1394296    -6.777863    299.66742  0.037439707  0.038414303            2 
  668000    1.1627376   -6.8013568    300.65568  0.037506946  0.038406436            2 
  669000    1.1491784   -6.7789885    299.59414  0.037318652  0.038398726            2 
  670000    1.1101161   -6.8129527    300.23313   0.03734243  0.038390579            2 
  671000    1.1609711   -6.7880222    301.01742  0.037384181  0.038382295            2 
  672000    1.1355979   -6.7753379    302.21758  0.037477378  0.038373902            2 
  673000    1.1586036   -6.7745564    302.66904  0.037477593   0.03836544            2 
  674000    1.1582641   -6.7548331    301.80125  0.037314694  0.038356897            4 
  675000    1.1707415   -6.7953605    301.73495  0.037251228  0.038348168            1 
  676000    1.1463762   -6.7679406    302.88986  0.037338494  0.038339401            1 
  677000    1.1222631   -6.7828935     303.2711  0.037330268  0.038330641            3 
  678000    1.1464929   -6.7759539    303.43686  0.037295583  0.038321549            3 
  679000    1.1627702   -6.7638182    302.93057  0.037178519  0.038312459            1 
  680000    1.1258888   -6.7504176    305.01223   0.03737895  0.038303604            4 
  681000    1.1579284   -6.7687389    304.15919  0.037219676  0.038294694            1 
  682000    1.1316062   -6.7655295    304.53313  0.037210793  0.038285451            3 
  683000    1.1277328   -6.7644833    305.74645  0.037304349  0.038276104            2 
  684000    1.1327566   -6.7206769    305.51833  0.037222019  0.038266424            1 
  685000    1.1681626   -6.7375201    305.52459  0.037168442  0.038256723            3 
  686000    1.0988525   -6.7942671    304.35014  0.036971591  0.038246481            3 
  687000     1.151654   -6.7577538    306.30412  0.037154794  0.038236331            2 
  688000    1.1609867   -6.7809446    306.65077  0.037142777  0.038226382            2 
  689000    1.1393861   -6.7496472    306.45946   0.03706573  0.038216138            3 
  690000    1.1486736   -6.7633524    306.48248  0.037014792    0.0382058            1 
  691000    1.1603775   -6.7431379    306.42694  0.036954527   0.03819552            4 
  692000    1.1370847   -6.7601359    307.61693  0.037044428   0.03818539            1 
  693000    1.1569505   -6.7690134    307.73834  0.037005573  0.038176081            2 
  694000    1.1349578   -6.7824505    308.86622  0.037087682  0.038166126            2 
  695000     1.143024   -6.7907246    309.21234   0.03707582  0.038156154            2 
  696000    1.1622688   -6.7691057    309.27678  0.037030266  0.038146503            2 
  697000    1.1254753   -6.7610581    309.85299  0.037046029  0.038136605            2 
  698000    1.1122652   -6.7749917    310.04674  0.037016086  0.038126834            2 
  699000    1.1406976    -6.777525    310.45727  0.037012074    0.0381172            2 
  700000    1.1191571   -6.7641397    311.13522  0.037039908  0.038107473            3 
  701000     1.179139   -6.7956503    311.18821  0.036993368  0.038097637            1 
  702000    1.1347354   -6.7808432    312.21795  0.037062909  0.038087532            1 
  703000     1.149065   -6.7138817    312.54189  0.037048588  0.038078133            1 
  704000    1.1409711   -6.7935555    312.59653   0.03700243  0.038068471            2 
  705000    1.1276815   -6.7942743    312.96189  0.036993131  0.038058606            1 
  706000    1.1437451   -6.7831092    313.83091  0.037043309  0.038048958            4 
  707000    1.1447466   -6.7532429    313.39634  0.036939691   0.03803968            2 
  708000    1.1593381   -6.7705311    314.57358   0.03702608  0.038030613            2 
  709000    1.1383049   -6.7763023    315.40224  0.037071255  0.038021478            1 
  710000    1.1516368   -6.7771502    314.85707  0.036955055  0.038012431            3 
  711000    1.1512115   -6.7992505    315.63958  0.036994793  0.038003525            2 
  712000     1.142315   -6.7583905    316.52247  0.037046169  0.037994567            2 
  713000    1.1331145   -6.8025872    316.04238  0.036938099  0.037985374            3 
  714000    1.1250146   -6.7980241    316.45306  0.036934297  0.037975983            3 
  715000    1.1344597   -6.7642857     318.8604  0.037163217  0.037966543            3 
  716000    1.1498296   -6.7644839    317.57668  0.036961904  0.037957376            4 
  717000    1.1574501   -6.7702349    317.84039  0.036941003  0.037948064            4 
  718000    1.1209246   -6.7714076    318.57384  0.036974679  0.037938501            1 
  719000    1.1292335   -6.8142812    317.75779  0.036828672  0.037929126            3 
  720000    1.1409247    -6.807732    319.28429    0.0369542  0.037919522            1 
  721000    1.1236115   -6.7958285    318.58641  0.036822285  0.037909827            4 
  722000    1.1385151   -6.7656516    319.33867   0.03685811  0.037900555            3 
  723000    1.1234568   -6.7612345    319.93137  0.036875446  0.037891268            2 
  724000    1.1219043   -6.7611046    320.41578   0.03688027  0.037881964            2 
  725000    1.1561944   -6.8035908    320.76821  0.036869909  0.037872981            2 
  726000    1.1388612   -6.7482262    321.67334  0.036923019  0.037863919            3 
  727000    1.1286202   -6.7870458    321.25077  0.036823793  0.037854861            1 
  728000    1.1513222   -6.7809788    322.23313  0.036885661  0.037845648            1 
  729000    1.1196255   -6.7960473    322.90569  0.036911945  0.037836705            1 
  730000    1.1657404   -6.7413316    322.97158  0.036868901  0.037827684            2 
  731000    1.1426754   -6.8088248    323.02615  0.036824687  0.037818236            2 
  732000    1.1149366   -6.7875438    322.13505  0.036672934  0.037808515            2 
  733000    1.1301449   -6.7979639    322.63039  0.036679217  0.037798719            4 
  734000    1.1475753   -6.7989652    323.32621  0.036708244  0.037788441            2 
  735000    1.1371339   -6.7809812    324.14196  0.036750789  0.037778191            1 
  736000    1.1527238   -6.7751605    324.85455  0.036781539  0.037768175            1 
  737000    1.1167552    -6.822717    324.04369  0.036639946  0.037758553            1 
  738000    1.1220264   -6.7700386    325.53908  0.036759155  0.037748418            2 
  739000     1.142372   -6.8050176    325.25376   0.03667724  0.037738237            2 
  740000    1.1292721   -6.7980167    326.29735  0.036745197   0.03772855            2 
  741000    1.1250415   -6.7755114    325.86599  0.036647098  0.037718798            2 
  742000    1.1151419   -6.7570077    327.79198  0.036814014   0.03770926            3 
  743000    1.1213193   -6.7559737    327.35717  0.036715699  0.037699699            2 
  744000    1.1570354   -6.8323526    326.91393  0.036616704  0.037689777            2 
  745000    1.1083644   -6.7445757    328.95107  0.036795422  0.037679963            3 
  746000     1.165674   -6.8112634    326.69416  0.036493986   0.03767011            5 
  747000    1.1119944   -6.8217579    327.89203  0.036578763  0.037660228            4 
  748000    1.1321939   -6.7949071    328.57962  0.036606464  0.037650349            2 
  749000    1.1175295   -6.7583791    330.37133  0.036756935  0.037640993            3 
  750000     1.174485   -6.7898618    329.77415  0.036641572  0.037631843            7 
  751000    1.1300328   -6.7822687    330.43153  0.036665726   0.03762234            2 
  752000    1.1150744   -6.7774528    332.19022   0.03681186  0.037613182            3 
  753000    1.1279729   -6.8617979    331.36602   0.03667176  0.037603973            2 
  754000     1.140639   -6.7640393    332.18258  0.036713371   0.03759466            1 
  755000    1.1297929   -6.7976642    332.19676  0.036666309  0.037585598            6 
  756000    1.1468103   -6.7967752    331.77884  0.036571742  0.037576423            2 
  757000    1.1162452   -6.7847831    332.28357  0.036578992  0.037567113            2 
  758000    1.1138405   -6.7479747    333.74652   0.03669157  0.037557837            2 
  759000    1.1207598   -6.8120148    333.11582  0.036573981  0.037548708            3 
  760000    1.1416924   -6.7908537    334.14059  0.036638223  0.037538984            3 
  761000    1.1317219   -6.8050243    333.54464  0.036524818   0.03752961            3 
  762000    1.1329194   -6.7577237    335.44454  0.036684661  0.037520434            2 
  763000    1.1562885   -6.8233131    335.08784  0.036597623  0.037511121            2 
  764000    1.1309377   -6.8220111    334.64261  0.036501158  0.037501607            2 
  765000    1.1300706   -6.7778764    335.13132   0.03650668  0.037491681            4 
  766000    1.1403855   -6.8037307    334.09471  0.036346248  0.037481551            2 
  767000    1.1102041   -6.8046395    334.89233  0.036385521  0.037471325            1 
  768000    1.1497882   -6.7840491     336.1285  0.036472276  0.037461033            2 
  769000    1.1036391   -6.8137213    336.07492  0.036419042  0.037450814            2 
  770000    1.1319932   -6.7915706    336.90573  0.036461659  0.037440546            3 
  771000    1.1197249   -6.7582055    336.98625  0.036423071  0.037430349            2 
  772000    1.1117153   -6.7568672    336.42989  0.036315834  0.037420301            2 
  773000    1.1220082   -6.8168199    336.50758  0.036277229  0.037409984            3 
  774000    1.1322196   -6.8017196    337.57319  0.036345089   0.03739988            2 
  775000    1.1282438   -6.8097141    337.88696  0.036331932  0.037389571            2 
  776000    1.1442893   -6.8213698    337.91316  0.036287926  0.037379358            5 
  777000    1.1250046   -6.8122303    338.50243  0.036304422  0.037369223            1 
  778000    1.1194553   -6.7699709    339.40896  0.036354858  0.037358874            2 
  779000     1.127865   -6.7937956    338.98927  0.036263293  0.037348806            4 
  780000    1.1216611   -6.7805531    340.34095  0.036361212  0.037338561            2 
  781000    1.1507903   -6.8178624    340.04921  0.036283527  0.037328269            2 
  782000    1.1205696    -6.782264    341.70612  0.036413695  0.037317946            2 
  783000    1.1095541   -6.8172947    341.20186  0.036313523  0.037307809            1 
  784000    1.1294109   -6.8197616    341.29792  0.036277415  0.037297389            2 
  785000    1.1048169   -6.8156509    342.04998  0.036311038  0.037287082            2 
  786000    1.1123273   -6.8477564     341.1244  0.036166709  0.037276708            2 
  787000    1.1592792   -6.8018586    341.17911  0.036126547  0.037266183            2 
  788000     1.114023   -6.8002692    343.05002  0.036278556  0.037255294            3 
  789000    1.0948571   -6.7871132    343.15631  0.036243801  0.037244901            1 
  790000    1.1214317   -6.8200859    343.27101  0.036210023  0.037234308            2 
  791000    1.1035779   -6.7818907    343.27281  0.036164435  0.037224152            2 
  792000    1.1221009   -6.8093173    344.58097  0.036256415  0.037213545            1 
  793000    1.1082695   -6.8414836    342.30651  0.035971681  0.037202875            2 
  794000    1.1321556   -6.8203339    343.72529  0.036075282  0.037192287            2 
  795000    1.1411226    -6.780153    345.37531  0.036202862  0.037181538            2 
  796000    1.1167774   -6.7661875    344.67508  0.036084075  0.037171094            1 
  797000    1.1101156   -6.8187976    344.69276  0.036040648  0.037160736            2 
  798000    1.1487006   -6.8168379     345.9096  0.036122557  0.037150326            2 
  799000    1.1242659   -6.8380687     346.4127  0.036129818  0.037140064            1 
  800000    1.1117403   -6.8105229    346.95431  0.036141074  0.037130002            1 
  801000    1.1145277   -6.8372446    347.67048  0.036170462  0.037119969            2 
  802000    1.1157813    -6.841281    346.95503  0.036051022  0.037109736            2 
  803000    1.1101969   -6.8136266     348.1121  0.036126204  0.037099684            2 
  804000    1.1076013   -6.8484481    347.28935  0.035995994  0.037089886            2 
  805000    1.1445636   -6.8069752    349.20974  0.036150077  0.037080136            1 
  806000    1.1198873   -6.8114196    348.81019  0.036063916  0.037070666            4 
  807000    1.1350802   -6.8155652    350.84448  0.036229294  0.037061257            3 
  808000    1.1190427   -6.8179572    351.13144  0.036214051  0.037051622            2 
  809000    1.1347487   -6.8188971    351.34533   0.03619132  0.037042697            2 
  810000    1.1427603   -6.8191437    351.82396   0.03619588  0.037033632            2 
  811000    1.1132512   -6.8164389     352.9073  0.036262567  0.037024525            6 
  812000    1.1049592   -6.7894051    352.54631  0.036180861  0.037015249            6 
  813000    1.1160048   -6.8377966    352.86847   0.03616938  0.037006344            1 
  814000    1.1102592   -6.8647774    353.47371  0.036186908  0.036997481            2 
  815000    1.1158777    -6.816186    353.54135  0.036149422  0.036988651            1 
  816000     1.137134   -6.8224533    353.38458  0.036089111  0.036979417            3 
  817000    1.1250523   -6.8028928    353.61915  0.036068865  0.036969757            1 
  818000    1.1171179   -6.7833978     355.8154  0.036248512  0.036960829            3 
  819000    1.1243914   -6.8141044    354.77917  0.036098817  0.036951541            2 
  820000    1.1308993   -6.8307601    355.19179  0.036096726    0.0369421            1 
  821000    1.1161828   -6.8562612    355.07232  0.036040633  0.036932918            3 
  822000    1.1355452   -6.8373972    355.12448  0.036002077  0.036923613            1 
  823000    1.1169259   -6.8069771    355.71843  0.036018472  0.036914143            3 
  824000    1.1087246    -6.820487    356.01804  0.036005061  0.036904603            2 
  825000    1.1440492   -6.8186709    355.99537  0.035959129  0.036894969            2 
  826000    1.1295092   -6.8213075    357.82585  0.036100268   0.03688543            4 
  827000    1.0985117   -6.8034812    357.78295  0.036052292   0.03687605            3 
  828000    1.1461021   -6.8475545     356.8811  0.035917985  0.036866615            3 
  829000    1.1123283   -6.8134294    358.35918  0.036023238  0.036856908            1 
  830000    1.0991046    -6.804146    358.15362  0.035959199  0.036847419            2 
  831000    1.1257828   -6.8264893     357.8384  0.035884316  0.036837352            1 
  832000    1.1327447   -6.8476597    357.86057  0.035843406   0.03682741            4 
  833000    1.1248971   -6.8701563    358.20634  0.035834968  0.036817262            2 
  834000    1.1073454   -6.8429369    357.35984  0.035707418  0.036806757            2 
  835000    1.1306845   -6.8022958    359.20922  0.035849224  0.036796555            2 
  836000    1.1216685    -6.837574    360.55011  0.035940003  0.036786417            7 
  837000    1.1111983   -6.8288524    359.85208  0.035827566  0.036776467            1 
  838000    1.1208375   -6.8279467    360.54366  0.035853586  0.036766564            2 
  839000    1.1274849   -6.8385617    360.36033  0.035792643  0.036756547            2 
  840000    1.1144506   -6.8363951    360.62107    0.0357759  0.036746425            1 
  841000    1.1431873   -6.8491858    361.31224  0.035801847  0.036736364            3 
  842000    1.1304214   -6.8243575    361.30912  0.035759018  0.036726603            1 
  843000    1.1147837   -6.8171019    363.73827  0.035956729  0.036716921            1 
  844000    1.1126282   -6.8037055    363.51862  0.035892438   0.03670717            3 
  845000    1.1327504   -6.7797784    363.95499  0.035892997  0.036697308            2 
  846000    1.1068741   -6.7872517    363.41666  0.035797544  0.036687754            2 
  847000    1.1299847   -6.8264992    362.72702  0.035687428  0.036678186            3 
  848000    1.1412178   -6.8318235    363.66442  0.035737462  0.036668594            2 
  849000    1.1175184   -6.8091499    364.78116  0.035804983   0.03665898            1 
  850000    1.0990246   -6.8218165    365.76583  0.035859395  0.036649475            1 
  851000    1.1319859    -6.876306    365.41691   0.03578309  0.036639842            1 
  852000    1.1033848   -6.8470207     365.7877  0.035777357  0.036630335            2 
  853000     1.087375   -6.8359643    365.53946  0.035711163  0.036620702            5 
  854000    1.0948376   -6.8079422    367.37264  0.035848228  0.036611176            3 
  855000    1.1351629   -6.8218747    366.75627  0.035746225  0.036601598            1 
  856000    1.1137913   -6.8522757    366.67705  0.035696753  0.036592295            2 
  857000    1.1380934   -6.8593401    367.39602  0.035725011  0.036582601            1 
  858000    1.1040579   -6.8248647    368.30403  0.035771564  0.036572686            2 
  859000    1.0800044   -6.8176124    368.38428  0.035737707   0.03656312            2 
  860000    1.1075143    -6.836645    368.43515   0.03570108  0.036553598            3 
  861000    1.1188747   -6.8506845    368.89151  0.035703786  0.036543957            1 
  862000    1.0855231   -6.8445539    368.92287  0.035665398  0.036534591            3 
  863000    1.1059084   -6.8340646    368.50951  0.035584155  0.036524711            4 
  864000    1.1163132   -6.8100266    370.42615  0.035727831  0.036514921            2 
  865000     1.123067    -6.861744    370.21501  0.035666186  0.036505319            2 
  866000    1.1089602   -6.8007764    370.74593   0.03567609  0.036495577            3 
  867000    1.1085774   -6.8652283    369.72228  0.035536551  0.036485874            1 
  868000     1.123411    -6.805494    370.70568  0.035590023  0.036475708            2 
  869000    1.1240072   -6.8421275    371.02349  0.035579544  0.036465582            3 
  870000     1.120607    -6.812608    370.85302   0.03552232  0.036455646            4 
  871000    1.1146676   -6.7968438    372.40135  0.035629674  0.036446001            2 
  872000    1.0984678   -6.8216356    372.40179  0.035588856  0.036436251            2 
  873000    1.1148661   -6.8049015    372.48705  0.035556229  0.036426424            3 
  874000    1.1052678   -6.8424216    372.83652  0.035548867  0.036416669            2 
  875000    1.1433385   -6.8487967     373.3797  0.035559971  0.036406766            3 
  876000    1.1005495   -6.8068991    372.40977  0.035427109  0.036396954            1 
  877000    1.1035022   -6.7970585    374.37244  0.035573208  0.036386908            1 
  878000    1.1221501   -6.8117794    373.89883   0.03548774  0.036376993            2 
  879000    1.1134545   -6.7996347    375.01678  0.035553354  0.036366849            1 
  880000    1.1038864   -6.8563104    373.89905  0.035407107  0.036356698            3 
  881000    1.1191323   -6.8773361    374.19676  0.035395077  0.036346446            3 
  882000    1.1250098   -6.8407481    375.45805  0.035474117  0.036336623            2 
  883000    1.1393416   -6.8366523    376.35869   0.03551894  0.036326439            2 
  884000    1.1218176    -6.819865    376.62775  0.035504124  0.036316659            2 
  885000    1.1238703   -6.8459247    377.04817  0.035503594  0.036307101            6 
  886000    1.0957582   -6.8381127    378.30958  0.035582165  0.036297539            4 
  887000    1.1276661   -6.8241163    377.68694  0.035483553  0.036287727            2 
  888000    1.1018186   -6.8396047     377.3373  0.035410783  0.036277776            2 
  889000     1.088234    -6.838509     377.0997  0.035348679  0.036267628            2 
  890000     1.109169   -6.8161976    378.83455    0.0354714  0.036257482           10 
  891000    1.1199086   -6.8606499    377.56855  0.035313183  0.036246935            2 
  892000    1.1228509   -6.8135597    378.08034  0.035321407  0.036236606            1 
  893000     1.120728   -6.8551749    379.11687  0.035378581  0.036226519            2 
  894000    1.1198812   -6.8590827     378.6968  0.035299851  0.036216188            1 
  895000    1.1159673   -6.8503114    380.20522  0.035400859  0.036206462            2 
  896000    1.1145795    -6.842508    379.72583  0.035316763  0.036196583            1 
  897000    1.0987308     -6.83321    379.64821  0.035270179  0.036186687            2 
  898000    1.0928795   -6.8489713    380.22029  0.035283991  0.036176755            4 
  899000    1.0896603   -6.8210712    381.29777  0.035344621  0.036166872            2 
  900000    1.1232677   -6.8488454    380.51693  0.035233049  0.036156905            2 
  901000    1.1032887   -6.8402636    381.96207  0.035327605  0.036146904            2 
  902000    1.0995552   -6.8222978    382.56367   0.03534402  0.036136862            1 
  903000    1.1224148   -6.8583323    381.55096  0.035211421  0.036126909            6 
  904000     1.111824   -6.8562174    383.81242  0.035380938  0.036116464            2 
  905000    1.0985165   -6.8277487    382.98031  0.035265222  0.036106005            2 
  906000     1.099121   -6.8438097    382.59666  0.035191009  0.036095591            3 
  907000     1.106456   -6.7723366    384.31597  0.035310177  0.036085123            2 
  908000    1.1105893   -6.9202483     381.3946  0.035003175  0.036074753            2 
  909000    1.1065547   -6.8514325    382.44135   0.03506063  0.036063889            3 
  910000    1.1123413   -6.8164552    384.47299  0.035208149  0.036053582            5 
  911000    1.0942945   -6.8382308    384.27116  0.035151039  0.036043108            2 
  912000    1.1115803   -6.8421482     383.9909  0.035086887  0.036032572            2 
  913000    1.0913801   -6.8499124    383.72076    0.0350238   0.03602202            2 
  914000    1.0867546   -6.8490847    385.83458  0.035178208  0.036011549            2 
  915000    1.1097581   -6.8558037    385.53285  0.035112282  0.036001197            4 
  916000    1.1028013    -6.830269    386.38653  0.035151613  0.035990898            2 
  917000    1.1062168    -6.830645    386.25622  0.035101438  0.035980569            4 
  918000    1.0903482   -6.8135968    387.10882  0.035140597  0.035970356            1 
  919000    1.1092041   -6.8431271    387.50357  0.035138155  0.035960114            4 
  920000    1.1052965   -6.8130255    387.75769   0.03512298  0.035949948            3 
  921000    1.1271375   -6.8891251    387.08036  0.035023558   0.03593963            4 
  922000    1.1092769   -6.8451354    387.17603  0.034994218  0.035929369            2 
  923000    1.1230983   -6.8551677    389.13678  0.035133331  0.035919357            1 
  924000    1.1078568   -6.8281389    388.51473  0.035039207  0.035909062            1 
  925000    1.0880259   -6.8771549    388.26005  0.034978383  0.035898679            5 
  926000    1.0799722   -6.8467417    389.37243  0.035040715  0.035888619            3 
  927000    1.0960083   -6.8348665    391.88325  0.035228627  0.035878949            3 
  928000    1.0902016   -6.8348688     389.7272  0.034997054  0.035869218            1 
  929000    1.0890344    -6.864642    389.93402  0.034977935  0.035859177            3 
  930000    1.1198486   -6.8751472    389.50109  0.034901531  0.035849133            3 
  931000    1.1214164   -6.8478758    391.89977  0.035078748  0.035839098            4 
  932000     1.100006   -6.8988132    390.83513  0.034945917  0.035829282            3 
  933000    1.1202232   -6.8500618    391.85235  0.034999316  0.035819062            2 
  934000    1.1387697   -6.8100987    393.46298  0.035105548  0.035808966            2 
  935000    1.0663366   -6.8797741    392.89693  0.035017552  0.035798721            3 
  936000    1.1084881   -6.8518635    392.75144  0.034967187  0.035788591            2 
  937000    1.1021633   -6.8522851    393.39264  0.034986894  0.035778834            2 
  938000    1.1060842   -6.9173511    391.72403  0.034801353  0.035768716            2 
  939000    1.0790643   -6.8756774    393.56921  0.034928045   0.03575846            1 
  940000    1.0916344   -6.8986073    393.06094  0.034845828  0.035748128            4 
  941000     1.077124   -6.8593961    395.98466  0.035067717  0.035738149            2 
  942000    1.0774045   -6.8514207     395.4538  0.034983528  0.035728002            2 
  943000    1.1009926    -6.831242    395.40161  0.034941818  0.035717903            3 
  944000    1.0842068   -6.8349831    395.53806  0.034916849  0.035707639            4 
  945000    1.0927358   -6.8318138    394.51189  0.034789408  0.035697207            5 
  946000    1.0994944   -6.8183157    395.79394  0.034865569  0.035687347            3 
  947000    1.1079309   -6.8505126    396.56935  0.034896986  0.035677168            2 
  948000    1.0878972   -6.8441681    396.19824  0.034827553  0.035666815            1 
  949000    1.0858211   -6.8680071    396.16444  0.034787886  0.035656426            1 
  950000    1.1067281    -6.881896    398.10937  0.034921875  0.035645853            1 
  951000    1.0998375   -6.8148335    397.61242  0.034841607  0.035635801            2 
  952000    1.0751053   -6.8399877    397.39004  0.034785542   0.03562548            2 
  953000    1.0807231   -6.9192113    396.07468  0.034634022  0.035614948            3 
  954000    1.1166215    -6.892131    397.22744  0.034698414  0.035604175            3 
  955000    1.0958515   -6.8538311    397.95812  0.034725839  0.035593357            1 
  956000    1.1057164   -6.8659274    398.06954  0.034699228  0.035582759            3 
  957000    1.0971997   -6.8817883    397.43191  0.034607446  0.035572126            2 
  958000    1.0862798   -6.8341505    398.66083  0.034678222  0.035561427            2 
  959000    1.1064251   -6.8857914    400.29915  0.034784424   0.03555082            2 
  960000     1.105229   -6.8654373    399.14944  0.034648389  0.035540357            2 
  961000    1.0822478    -6.844224    399.93158  0.034680158  0.035530069            6 
  962000    1.1244935   -6.8653754    399.38596  0.034596843  0.035519698            2 
  963000    1.0758049   -6.8327644     401.7754  0.034767688  0.035509267            2 
  964000    1.0972655   -6.8840468    400.11716  0.034588274  0.035498993            2 
  965000    1.0965941    -6.879941    403.53228  0.034847347  0.035488656            2 
  966000    1.0946804    -6.864231    400.57825   0.03455644  0.035478527            3 
  967000    1.0847038   -6.8855721    401.06572  0.034562713  0.035468127            3 
  968000    1.1086304   -6.8692824    402.59223  0.034658422  0.035457855            5 
  969000    1.1113204   -6.8688279    402.30227  0.034597718  0.035447387            3 
  970000    1.1133023   -6.8265337     404.4427  0.034745936  0.035437381            3 
  971000    1.1099751   -6.8502974    403.24566   0.03460742  0.035427244            2 
  972000    1.0927971   -6.8875231    403.22497  0.034570042   0.03541723            2 
  973000    1.0882703   -6.8694992      404.007   0.03460149     0.035407            1 
  974000    1.0936148    -6.871299    405.02087   0.03465271  0.035396921            4 
  975000    1.0633168    -6.828258    406.14909  0.034713598  0.035386794            2 
  976000    1.0696038   -6.8624278    404.94465  0.034575192   0.03537652            2 
  977000    1.0934472   -6.8377002    405.01466  0.034545775  0.035366501            1 
  978000    1.1061577   -6.8760654    405.13795  0.034520957  0.035356427            2 
  979000    1.1006486   -6.8639353    406.48872  0.034600674  0.035346104            4 
  980000    1.1149203   -6.9086903    404.68382   0.03441189   0.03533583            2 
  981000    1.0986767   -6.9183623    404.32345  0.034346198  0.035325235            4 
  982000    1.0900147    -6.870366    404.79336    0.0343511  0.035314628            3 
  983000    1.1178379   -6.9039808    407.08592  0.034510505  0.035304267            4 
  984000    1.0879561   -6.8736353     406.4149  0.034418606  0.035293667            2 
  985000    1.1001701   -6.9142114    406.98007  0.034431478  0.035283082            2 
  986000    1.0803893   -6.9032688     407.1755  0.034413075  0.035272499            3 
  987000     1.097964   -6.8577741    408.39742  0.034481376  0.035262138            2 
  988000    1.0896493   -6.8490969    408.35971  0.034443295  0.035251897            2 
  989000    1.0804816   -6.8664302    409.05458  0.034467019  0.035241759            2 
  990000     1.117864   -6.8618596    407.90373  0.034335331  0.035231407            2 
  991000    1.0830817   -6.8389998     411.2495   0.03458203  0.035221111            4 
  992000    1.1106806   -6.8921796    407.99037  0.034273384  0.035210909            2 
  993000    1.0977608   -6.8140726    410.44149  0.034444569  0.035200942            2 
  994000     1.103239   -6.8586695    411.14408   0.03446882  0.035190644            1 
  995000    1.0773924   -6.8721581    410.39076  0.034371085  0.035180229            1 
  996000    1.0909772   -6.8983838    409.96507  0.034300959  0.035169714            1 
  997000    1.0668892   -6.8602821    409.16968  0.034200073   0.03515865            1 
  998000    1.1201392   -6.8864903    409.97134  0.034232744  0.035147766            3 
  999000    1.0856765    -6.828336    411.58996  0.034333497  0.035137094            2 
 1000000    1.1048486   -6.8825009    411.28478  0.034273731  0.035126694            2 
 1001000    1.1038911   -6.8359287    413.12521  0.034392708  0.035116325            3 
 1002000    1.1057223   -6.8582353    412.62636  0.034316896  0.035106039            1 
 1003000    1.0743977   -6.8745022    413.45454   0.03435149  0.035096008            2 
 1004000    1.0791533   -6.8908633    413.76334  0.034342907  0.035085654            4 
 1005000    1.1172764   -6.8902981    414.10333  0.034336926  0.035075484            1 
 1006000    1.0920937    -6.839599    416.12392  0.034470172  0.035065688            1 
 1007000    1.0753102   -6.8882084    416.03428  0.034428524  0.035055868            1 
 1008000    1.0886625   -6.9097802    414.50974  0.034268332  0.035045855            5 
 1009000    1.1015766   -6.8452918    415.37039   0.03430545  0.035035836            3 
 1010000    1.0809561   -6.8842613    415.38362  0.034272575  0.035025792            2 
 1011000    1.0872908   -6.8801791    416.98768  0.034370894  0.035015745            2 
 1012000     1.090353   -6.8979223    415.46127  0.034211237   0.03500566            2 
 1013000     1.088686    -6.903995    415.74626   0.03420091  0.034995821            2 
 1014000    1.0835495   -6.9115319    416.95835  0.034266794  0.034985855            1 
 1015000      1.07713   -6.8332349    418.17752   0.03433313  0.034976251            5 
 1016000    1.0837741   -6.8557716    419.84355  0.034435987  0.034966838            2 
 1017000    1.0808466   -6.8842482    418.36915  0.034281314  0.034957253            3 
 1018000    1.0982399   -6.8447368    419.90658  0.034373492  0.034947972            1 
 1019000    1.1002801    -6.895198    419.89482  0.034338798  0.034938521            2 
 1020000    1.0783053   -6.9157032    418.91597  0.034225161  0.034929047            3 
 1021000    1.0753399   -6.8841852    420.58813   0.03432812  0.034919613            1 
 1022000    1.0869773   -6.8743053    419.71493  0.034223331  0.034910095            4 
 1023000    1.0547696   -6.8804315    421.18241  0.034309418  0.034900585            2 
 1024000     1.074953   -6.8776734    419.78834  0.034162463  0.034891117            1 
 1025000    1.1172418   -6.8866748    421.25472  0.034248351  0.034881304            2 
 1026000    1.0765732   -6.9011553    420.70458  0.034170287  0.034871647            2 
 1027000    1.0854391   -6.9413808    420.26521  0.034101364   0.03486215            4 
 1028000    1.0466796   -6.8690824    423.26757  0.034311573  0.034852549            2 
 1029000    1.0536961    -6.848062    422.44267  0.034211425   0.03484308            1 
 1030000    1.0873611    -6.875541      423.174  0.034237379  0.034833364            6 
 1031000    1.0884058   -6.8936004    421.52044  0.034070517  0.034823803            3 
 1032000    1.0758966   -6.8900014    422.67325  0.034130592   0.03481411            3 
 1033000    1.0634294   -6.9019853    422.62295  0.034093494  0.034804399            2 
 1034000    1.0959039   -6.9008239    424.34142  0.034199018  0.034794734            2 
 1035000    1.0940365   -6.8934002    424.77431   0.03420083  0.034785452            2 
 1036000    1.0825558   -6.8753063    425.17491  0.034200041  0.034776334            1 
 1037000    1.0885523   -6.9022435    425.94247  0.034228742    0.0347672            2 
 1038000    1.0805943   -6.8919233    427.15468  0.034293086  0.034757995            2 
 1039000    1.0896789   -6.9082805    425.01959  0.034088835  0.034749167            1 
 1040000    1.0792804   -6.8798001    426.78141  0.034197228  0.034740339            2 
 1041000    1.0822445   -6.8997341    427.46265  0.034218912   0.03473134            2 
 1042000    1.0933773   -6.8438767    427.82352  0.034214933  0.034722743            4 
 1043000    1.0864576   -6.8901587    427.02392  0.034118242  0.034714157            2 
 1044000    1.0789182   -6.8723296    427.69436  0.034139077  0.034705134            3 
 1045000    1.0672306   -6.8764365    429.56496  0.034255579  0.034696324            1 
 1046000    1.0823157   -6.8550494    429.03875  0.034180907   0.03468742            3 
 1047000    1.0860988   -6.8329505     429.1603  0.034157935  0.034678339            2 
 1048000    1.0794903    -6.875496    429.26115  0.034133361  0.034669242            1 
 1049000    1.0667922   -6.9211331    428.44343  0.034035862   0.03466006            2 
 1050000    1.1179179   -6.8906825     429.8713   0.03411677  0.034651017            2 
 1051000    1.1087549   -6.8907346    429.30082  0.034039076  0.034641967            2 
 1052000    1.0968942   -6.8837295    430.99708  0.034141087  0.034632844            2 
 1053000    1.1145367   -6.8887976    431.55093  0.034152495  0.034623688            1 
 1054000    1.0569011   -6.8774145    431.76828  0.034137277  0.034614646            2 
 1055000     1.083274   -6.9039148    430.43516  0.033999618  0.034605478            2 
 1056000    1.0799585    -6.866834    431.29758  0.034035478  0.034596248            5 
 1057000    1.0832679   -6.9083456    430.26724  0.033922047  0.034586758            3 
 1058000    1.0843591   -6.8825481    432.14972  0.034038258  0.034577404            3 
 1059000    1.1057249   -6.9069356    432.82175  0.034058998  0.034568214            2 
 1060000    1.0780338    -6.878278    432.25957  0.033982671  0.034559099            1 
 1061000    1.0820412   -6.8913729    433.33285   0.03403494  0.034550209            2 
 1062000    1.0524173    -6.863071    434.98883  0.034132834  0.034541395            1 
 1063000    1.0817342    -6.913682    432.97456  0.033942816   0.03453231            4 
 1064000    1.0732861   -6.9155721     433.6912  0.033967043  0.034523114            4 
 1065000    1.0940278   -6.9262676    432.86849  0.033870774  0.034513885            2 
 1066000    1.0672255   -6.9034992    434.11777  0.033936661   0.03450473            1 
 1067000    1.0873642   -6.9457143    433.89008  0.033887073  0.034495393            3 
 1068000    1.1024717   -6.9028738    434.88713   0.03393314  0.034486039            4 
 1069000    1.0876009   -6.9303871     432.4757  0.033713416  0.034476521            1 
 1070000    1.1065944    -6.898189    434.11225  0.033809365  0.034466886            2 
 1071000    1.0555799   -6.8931738    435.30879  0.033870899  0.034457371            4 
 1072000    1.0985488   -6.8930197    435.32806  0.033840801  0.034447738            3 
 1073000    1.0716435   -6.8758378     435.7601  0.033842816  0.034438017            1 
 1074000    1.0616196   -6.8884031     435.6856  0.033805524  0.034428579            2 
 1075000    1.0816483   -6.8723959      436.219  0.033815426  0.034418999            4 
 1076000    1.0769118   -6.9017099    436.22568  0.033784517  0.034409236            5 
 1077000    1.0692591   -6.9021222    436.50942  0.033775102  0.034399619            3 
 1078000    1.0753387   -6.9237375    436.27496  0.033725647  0.034389881            3 
 1079000    1.0726838    -6.913716    437.99901  0.033827542  0.034379998            2 
 1080000    1.0779001   -6.8796285    438.29599  0.033819135  0.034370291            6 
 1081000    1.0839039   -6.9278749     437.4453  0.033722271   0.03436053            2 
 1082000    1.0711888   -6.9178128     436.9633  0.033653982  0.034350671            1 
 1083000    1.0878704    -6.865802    439.52991  0.033820399  0.034341177            3 
 1084000    1.0903935   -6.8828216    437.79821  0.033656074  0.034331522            2 
 1085000    1.0620062   -6.8764204     439.8841  0.033785261  0.034321919            2 
 1086000    1.0497903    -6.902216    439.99514  0.033762672  0.034312447            2 
 1087000    1.0839226   -6.8881124    438.87476  0.033645719  0.034302822            2 
 1088000    1.0595668   -6.8656084     439.8555  0.033689912   0.03429348            2 
 1089000    1.0492276   -6.8628633    440.22926  0.033687577  0.034284238            2 
 1090000    1.0946672   -6.8760935    440.08813  0.033645881   0.03427472            5 
 1091000    1.0736348   -6.8595926    442.25083  0.033780234  0.034265345            3 
 1092000    1.0908626   -6.8808851    441.14087  0.033664596  0.034255924            2 
 1093000    1.0856464   -6.8966403    440.94658  0.033618983  0.034246442            2 
 1094000    1.0823881   -6.9080231     441.1273  0.033602018  0.034236937            5 
 1095000    1.0767836   -6.9171688    441.34367  0.033587798  0.034227238            1 
 1096000    1.1024237   -6.9243361    442.51136  0.033645937  0.034217521            2 
 1097000    1.0612991   -6.8273818    443.31973  0.033676674   0.03420797            3 
 1098000    1.0658822   -6.9075224    442.67289   0.03359691  0.034198452            2 
 1099000    1.0781591   -6.9512385    441.36671  0.033467297  0.034188879            3 
 1100000    1.0557115    -6.919082    442.53168  0.033525127   0.03417911            5 
 1101000     1.056601   -6.8994675    443.03588   0.03353284  0.034169462            2 
 1102000    1.0459288   -6.9229898    443.12834  0.033509403  0.034159846            3 
 1103000    1.0677592   -6.9294168    443.38622  0.033498506   0.03415042            2 
 1104000    1.0833326   -6.9182785     445.6074  0.033635824  0.034141162            2 
 1105000    1.0433236   -6.9014237    445.82061  0.033621464  0.034131794            3 
 1106000    1.0613524   -6.8947164    445.44019  0.033562401  0.034122468            4 
 1107000    1.0934092    -6.894215    445.91702  0.033567978  0.034113345            2 
 1108000     1.074749   -6.9088929    446.69434  0.033596145  0.034104224            4 
 1109000    1.0739512   -6.8766366    446.63268  0.033561218  0.034095071            3 
 1110000    1.0905419   -6.9172101    447.44569  0.033592019  0.034085849            3 
 1111000    1.0649665   -6.9203565    446.78924  0.033512544   0.03407658            3 
 1112000     1.096852   -6.9355325    446.31788  0.033447083  0.034067304            2 
 1113000    1.0740026   -6.9011734    446.37175  0.033421065  0.034057813            3 
 1114000    1.0422206    -6.926123    447.19301    0.0334525  0.034048632            3 
 1115000     1.068537   -6.8921824    447.77492  0.033465988  0.034039472            2 
 1116000    1.0502541   -6.8870264    448.33786  0.033478036  0.034030246            4 
 1117000    1.0595886   -6.9572197    448.11685  0.033431577  0.034020916            3 
 1118000     1.084561    -6.864168    449.94773  0.033538143  0.034011519            1 
 1119000    1.0631335   -6.9189032    450.13285  0.033521958  0.034002163            1 
 1120000    1.0850996   -6.9116423    449.02493  0.033409593  0.033992799            2 
 1121000    1.0759224   -6.9017091    450.56671  0.033494403  0.033983625            2 
 1122000    1.0866519   -6.9305712    451.17602  0.033509805  0.033974433            1 
 1123000    1.0643879   -6.9146114    450.15959  0.033404541  0.033965088            4 
 1124000    1.0770207   -6.9297922    450.08292  0.033369137  0.033955839            3 
 1125000     1.057707   -6.9286971    451.60603  0.033452298  0.033946755            1 
 1126000    1.0889835   -6.9182453    450.93757  0.033373118    0.0339377            2 
 1127000    1.0609796   -6.9024959    452.28455  0.033443105  0.033928727            1 
 1128000    1.0826069   -6.9444607     451.5448  0.033358806  0.033919688            3 
 1129000    1.0673094   -6.9384458    452.97682  0.033434959  0.033910724            3 
 1130000    1.0680822   -6.9440936    453.57817  0.033449718  0.033901725            3 
 1131000    1.0683335   -6.9371987    453.61728  0.033423024  0.033892832            3 
 1132000    1.0845129   -6.9060544    454.48037  0.033457036  0.033883826            1 
 1133000    1.0701031   -6.8954593       454.07  0.033397323  0.033874798            2 
 1134000       1.0602    -6.951676    452.30052   0.03323784  0.033865645            2 
 1135000    1.0738714   -6.9208937    455.89198  0.033472245  0.033856546            5 
 1136000    1.0635535   -6.8692735    455.76575  0.033433521  0.033847467            2 
 1137000    1.0728858   -6.8752156    456.04957  0.033424917  0.033838393            2 
 1138000      1.10213   -6.9149201    454.76628  0.033301573  0.033829421            1 
 1139000    1.0701418   -6.9088242    455.95187  0.033359078  0.033820455            2 
 1140000    1.0612895   -6.9444507    456.06584  0.033338146  0.033811261            3 
 1141000    1.0954142    -6.959688    455.23526  0.033248266  0.033802055            3 
 1142000    1.0548741   -6.9073346    455.72525  0.033254907   0.03379299            3 
 1143000    1.0780343   -6.9216782    456.64128  0.033292598  0.033783836            2 
 1144000    1.0816607   -6.9123054    457.80032  0.033347926  0.033774792            1 
 1145000    1.0902548   -6.9157913     456.9641  0.033257941  0.033765862            5 
 1146000    1.0646076   -6.9215222    458.37832  0.033331757  0.033756785            3 
 1147000    1.0707418   -6.9414888    456.28946  0.033150934  0.033747732            5 
 1148000    1.0574739   -6.9438615    455.91461  0.033094847  0.033738486            8 
 1149000    1.0730556   -6.8488081    459.21766  0.033305603  0.033729285            2 
 1150000    1.0657382   -6.9364047    457.69466  0.033166279  0.033720235            2 
 1151000    1.0799372   -6.9413755    458.72803  0.033212281  0.033711216            3 
 1152000    1.0454046   -6.9062972    459.45276  0.033235876  0.033702235            2 
 1153000    1.0510559   -6.8892716    459.73473  0.033227431  0.033693314            2 
 1154000    1.0733928   -6.8602955    461.52513  0.033327927  0.033684635            1 
 1155000    1.0695708   -6.9010418    461.99609  0.033333051  0.033675979            2 
 1156000    1.0736868   -6.9737739    461.18821  0.033245979  0.033667252            2 
 1157000     1.064667   -6.9272806    462.79576  0.033333028  0.033658682            3 
 1158000    1.0733975   -6.9333125     463.6906  0.033368638  0.033650234            1 
 1159000    1.1152545    -6.936299    462.36523  0.033244552  0.033641623            3 
 1160000    1.0724478   -6.9084197    463.07374  0.033266792  0.033633075            3 
 1161000    1.0531578   -6.9196766    462.85835  0.033222678  0.033624641            2 
 1162000    1.0659903   -6.9191131    462.29491   0.03315368  0.033616007            3 
 1163000    1.0568391   -6.9419449    462.79085  0.033160709  0.033607193            3 
 1164000    1.0651493    -6.934128    463.04818  0.033150643  0.033598397            2 
 1165000    1.0483831   -6.8909442    465.25659  0.033280156  0.033589623            2 
 1166000     1.037957   -6.9209718    462.99492  0.033089974  0.033580989            2 
 1167000    1.0457878   -6.9459019    465.11342  0.033212898  0.033572053            3 
 1168000    1.0501692   -6.8860609    465.33036   0.03319994  0.033563463            1 
 1169000    1.0840907   -6.8816899     465.3106  0.033170131  0.033554831            3 
 1170000    1.0616606   -6.9024353    465.05405  0.033123508  0.033546151            2 
 1171000    1.0639969   -6.8972688     466.9129  0.033227505   0.03353749            2 
 1172000    1.0620143   -6.9245583     466.2938  0.033155133    0.0335289            1 
 1173000     1.051353   -6.9402976    465.88931  0.033098133  0.033520283            5 
 1174000    1.0805506   -6.9020065    468.46489  0.033252761  0.033511893            2 
 1175000    1.0663861   -6.8956185    467.14736  0.033131018   0.03350345            3 
 1176000    1.0645997   -6.9121634     465.8885  0.033013641  0.033494794            1 
 1177000    1.0640365   -6.8944962    467.82514  0.033122709  0.033486199            3 
 1178000    1.0578084   -6.9270544    468.88295  0.033169422  0.033477703            3 
 1179000    1.0523105   -6.9249985    469.20627  0.033164141  0.033469183            1 
 1180000    1.0560208   -6.8902482    469.62527  0.033165627  0.033460765            2 
 1181000    1.0678261   -6.9069979    469.51277  0.033129606  0.033452497            2 
 1182000    1.0447482   -6.9264228     470.0292  0.033137986  0.033443992            4 
 1183000    1.0573019   -6.9281271    470.37075  0.033134034  0.033435556            2 
 1184000    1.0621477   -6.9447685    470.08551  0.033085973   0.03342746            1 
 1185000    1.0692106   -6.9202128    471.80417  0.033178915  0.033418956            1 
 1186000    1.0525778   -6.9448284    470.80164  0.033080498  0.033410754            2 
 1187000    1.0670483    -6.935479    469.72159  0.032976804  0.033402335            2 
 1188000    1.0598949   -6.9259332      469.855  0.032958403  0.033393892            3 
 1189000    1.0764982   -6.9159405    472.01773  0.033082263   0.03338584            4 
 1190000    1.0699414   -6.9436206    472.17328  0.033065355  0.033377345            1 
 1191000    1.0777612   -6.9309909    471.09105   0.03296187  0.033368993            2 
 1192000    1.0644354    -6.935347    472.31732  0.033019947  0.033360723            2 
 1193000    1.0483978   -6.8934999    473.75625  0.033092781  0.033352495            3 
 1194000    1.0680149   -6.9258689    474.44856  0.033113384  0.033344152            2 
 1195000    1.0449352   -6.9069027     475.1749  0.033136325     0.033336            5 
 1196000    1.0514534   -6.9116809     475.0237  0.033098084  0.033327969            3 
 1197000    1.0619246   -6.9260195    473.01405  0.032930524  0.033319854            1 
 1198000    1.0633843   -6.9147546    474.16372  0.032983007  0.033311593            3 
 1199000    1.0428107   -6.8788628     476.4128  0.033111816  0.033303454            4 
 1200000    1.0490533    -6.957116    475.57254  0.033025871  0.033295382            2 
 1201000    1.0620063    -6.909246    476.35178  0.033052441  0.033287484            2 
 1202000    1.0303191   -6.9689124     477.0706  0.033074778  0.033279618            2 
 1203000     1.045481   -6.9006706    479.08635  0.033186918  0.033271837            2 
 1204000     1.053762   -6.9854386    476.83368  0.033003439  0.033264038            2 
 1205000    1.0534603   -6.9418378    476.79742  0.032973542  0.033256108            2 
 1206000    1.0468991   -6.9420426    477.99974   0.03302928  0.033248257            1 
 1207000    1.0630468     -6.97341    477.95795   0.03299903  0.033240441            2 
 1208000    1.0641113   -6.9322245    478.05414  0.032978349  0.033232532            5 
 1209000    1.0440293   -6.8859584    480.07591  0.033090427  0.033224748            1 
 1210000    1.0452135   -6.9654355    479.07786  0.032994343  0.033217141            1 
 1211000    1.0815841   -6.9517707    480.21807  0.033045559  0.033209314            3 
 1212000     1.056912   -6.9798306    479.35578  0.032959006  0.033201541            1 
 1213000    1.0465203   -6.9538659      480.756   0.03302803  0.033193573            2 
 1214000    1.0666784   -6.9497207     481.0284  0.033019522  0.033185767            2 
 1215000    1.0478151   -6.9249009    482.55708  0.033097193  0.033178158            2 
 1216000    1.0558029   -6.9195939    481.30318  0.032984045  0.033170517            2 
 1217000     1.042859   -6.9623488    482.22684  0.033020189    0.0331626            2 
 1218000    1.0442056    -6.978442    481.40352  0.032936749  0.033154853            3 
 1219000    1.0739305   -6.9326375    481.36966  0.032907414  0.033146895            2 
 1220000    1.0649248   -6.9335963    482.56742  0.032962255   0.03313907            5 
 1221000    1.0836114   -6.9458508    479.63033  0.032734803  0.033131215            2 
 1222000    1.0357381   -6.9524039    481.49673  0.032835293  0.033123068            3 
 1223000    1.0746029   -6.9424902    482.89739  0.032903883  0.033115071            5 
 1224000    1.0446402   -6.9452766    483.30722  0.032904903  0.033107031            1 
 1225000    1.0666361   -6.9500201    482.00385  0.032789378  0.033098906            2 
 1226000    1.0606254   -6.9293594    482.43194  0.032791731  0.033090954            2 
 1227000     1.052159   -6.8819606    484.66469  0.032916646  0.033082958            1 
 1228000    1.0668605   -6.9493814    484.51966  0.032879998  0.033074885            4 
 1229000     1.067223   -6.8980172    485.82343  0.032941648  0.033066849            2 
 1230000    1.0630918   -6.9746136    483.53341  0.032759716  0.033058885            3 
 1231000    1.0606766   -6.9293333     484.3505  0.032788418  0.033051012            3 
 1232000    1.0378904   -6.9234927    484.11028  0.032745555  0.033043169            4 
 1233000    1.0592862   -6.9166396    485.13247  0.032788083  0.033035108            2 
 1234000    1.0404742   -6.9106947    486.24869  0.032836892  0.033026953            6 
 1235000     1.028465    -6.922051    485.48326  0.032758655  0.033019033            4 
 1236000    1.0634191   -6.9387823    486.72809   0.03281608  0.033011169            3 
 1237000     1.067563   -6.9923763    485.14788  0.032683096  0.033003183            1 
 1238000    1.0599497   -6.9501109    485.38475  0.032672641  0.032995074            5 
 1239000    1.0880627   -6.9682913    486.84693  0.032744615  0.032986992            2 
 1240000    1.0963721   -6.9669862    488.68753  0.032841904  0.032979029            1 
 1241000     1.028742    -6.957133    487.03462  0.032704447  0.032971086            1 
 1242000    1.0462576   -6.9324832    487.77184  0.032727579  0.032963261            6 
 1243000    1.0514171   -6.9525483    489.18818  0.032796204  0.032955499            2 
 1244000    1.0426546    -6.964589     488.5653  0.032728115  0.032947801            4 
 1245000    1.0488706   -6.9589825    489.37373  0.032755939  0.032940228            2 
 1246000    1.0323707   -6.9431962    489.70912  0.032752081  0.032932641            5 
 1247000    1.0825296   -6.9714187    489.50401   0.03271211  0.032925147            4 
 1248000    1.0619088   -6.9376554    492.92407  0.032914268  0.032917749            1 
 1249000    1.0361919   -6.9334632    491.53535   0.03279526  0.032910509            3 
 1250000    1.0555047   -6.9573927    492.19962  0.032813308  0.032903109            4 
 1251000    1.0734903   -6.9491378    492.33221   0.03279591  0.032895959            2 
 1252000     1.064685   -6.9438532    490.40404  0.032641376  0.032888501            2 
 1253000    1.0340637   -6.9726277    492.74782  0.032771204  0.032881151            2 
 1254000    1.0543944    -6.939325    494.19826  0.032841458   0.03287378            5 
 1255000    1.0415947   -6.9412821    492.43345  0.032698104  0.032866582            2 
 1256000    1.0567757   -6.9563342    494.42365  0.032804117  0.032859386            3 
 1257000     1.030048   -6.9454247     494.4853  0.032782107  0.032852207            2 
 1258000    1.0345852   -6.9386343    494.34068  0.032746468  0.032845011            2 
 1259000    1.0369595   -6.9769454    492.77709  0.032616964  0.032837795            4 
 1260000    1.0180992   -6.9780391    495.64904  0.032781021   0.03283044            3 
 1261000    1.0492371   -6.9760234    494.60665  0.032686139  0.032822932            2 
 1262000    1.0367733   -6.9618832    496.07775  0.032757379  0.032815397            3 
 1263000    1.0456119   -6.9304053    495.61112  0.032700655  0.032808078            2 
 1264000     1.076051   -6.9787195    495.90991  0.032694482  0.032800697            1 
 1265000    1.0537868   -6.9465932      497.071  0.032745125  0.032793375            2 
 1266000    1.0511471   -6.9919768    495.45028  0.032612578  0.032785978            4 
 1267000    1.0393204   -6.9722041    496.47348  0.032654136   0.03277866            1 
 1268000    1.0430063   -6.9357155    497.48829  0.032695077  0.032771174            3 
 1269000    1.0380638   -6.9294424    497.50402  0.032670346  0.032763617            4 
 1270000    1.0539299   -6.9516566    497.89361  0.032670184  0.032756285            1 
 1271000    1.0307081   -6.9668389    497.18362  0.032597929  0.032748738            3 
 1272000    1.0376615   -7.0050432    497.96671  0.032623605  0.032741018            2 
 1273000    1.0438827   -6.9894334    496.35257  0.032492313  0.032733356            2 
 1274000    1.0534119   -6.9751095    498.37256  0.032598937  0.032725776            4 
 1275000    1.0203807   -6.9255825    497.67969  0.032528084  0.032718104            3 
 1276000    1.0380948   -6.9389289    499.17716  0.032600389  0.032710801            2 
 1277000    1.0646165   -6.9738623    499.48675  0.032595063  0.032703275            3 
 1278000    1.0468927   -6.9419084    501.26876  0.032685756  0.032695951            1 
 1279000    1.0339056   -6.9736699     500.0789  0.032582676   0.03268869            1 
 1280000     1.040441   -6.9178732    501.36739  0.032641106  0.032681341            2 
 1281000     1.073494   -6.9137525    501.54762   0.03262735  0.032674122            3 
 1282000    1.0061225   -6.9551823     500.6607  0.032544247  0.032666971            3 
 1283000    1.0605848   -6.9633861    501.16252  0.032551476  0.032659648            4 
 1284000    1.0488728   -6.9672779    499.39512  0.032411418  0.032652284            3 
 1285000    1.0584135   -6.9886403     501.9977  0.032554974  0.032645049            1 
 1286000    1.0542804   -6.9664553    501.50935  0.032498014  0.032637666            2 
 1287000    1.0495194   -6.9521841    500.74923  0.032423545  0.032630323            4 
 1288000    1.0294459   -6.9816831    501.39617  0.032440229  0.032622956            4 
 1289000     1.046483   -6.9333552    504.15166  0.032593203  0.032615735            2 
 1290000    1.0514007   -6.9642536    502.94041  0.032489691  0.032608615            3 
 1291000    1.0700073   -6.9750783    503.41815  0.032495362   0.03260135            3 
 1292000     1.032443   -6.9485759    503.39435  0.032468676  0.032593959            1 
 1293000    1.0396402   -6.9978289    504.72674  0.032529437   0.03258669            6 
 1294000    1.0395877   -6.9847285    504.67376  0.032500886  0.032579335            3 
 1295000    1.0672143   -6.9730087    505.24352  0.032512453  0.032572011            1 
 1296000    1.0590935   -6.9705174    505.24142  0.032487231   0.03256479            6 
 1297000    1.0472007   -6.9876137    505.48752  0.032477996  0.032557598            1 
 1298000    1.0652059   -6.9177604    506.60891  0.032524969  0.032550339            2 
 1299000    1.0379454   -6.9524043    507.02872  0.032526861  0.032543054            6 
 1300000    1.0593788    -6.969494    506.37148   0.03245971  0.032535827            3 
 1301000    1.0284669   -6.9805793    506.49679  0.032442787  0.032528515            1 
 1302000    1.0441491   -6.9599285    505.70925  0.032367463  0.032521157            5 
 1303000    1.0245973   -6.9585129    507.37737  0.032449308  0.032513741            4 
 1304000    1.0294672   -6.9869676    505.33368  0.032293819  0.032506321            1 
 1305000    1.0469665   -6.9929428     508.5897  0.032476992  0.032498847            5 
 1306000    1.0454412   -6.9717861    505.83367  0.032276268  0.032491346            2 
 1307000    1.0564939    -7.011857    505.99196  0.032261666  0.032483804            3 
 1308000    1.0286718   -6.9836035    506.28911  0.032255932  0.032476241            2 
 1309000    1.0267446   -6.9655141    507.32784  0.032297418   0.03246862            2 
 1310000    1.0348415   -6.9691245    509.00516  0.032379463  0.032461054            3 
 1311000    1.0602481   -6.9613274    508.74591  0.032338285  0.032453601            3 
 1312000     1.032094   -6.9537624    510.58274  0.032430306  0.032446287            3 
 1313000    1.0673843   -6.9641208    508.92969  0.032300691  0.032438982            4 
 1314000    1.0382274   -6.9733312    510.25059   0.03235988  0.032431735            1 
 1315000    1.0155309   -6.9749924    510.76274  0.032367727  0.032424426            3 
 1316000    1.0523236   -6.9806751     509.6896  0.032275177  0.032417035            1 
 1317000    1.0395251   -6.9078766    511.60056  0.032371587  0.032409512            2 
 1318000    1.0275495   -6.9769328    510.03581  0.032248091  0.032402119            3 
 1319000    1.0354547   -6.9845492     509.6936  0.032202022  0.032394568            3 
 1320000    1.0415054   -6.9742767     511.5988  0.032297904  0.032387095            3 
 1321000    1.0543123   -6.9684801    510.53618  0.032206421  0.032379662            3 
 1322000    1.0230078   -6.9750159    511.97725  0.032272898  0.032372204            2 
 1323000    1.0310865   -6.9499066    511.37141  0.032210343  0.032364671            2 
 1324000    1.0592795   -6.9287821    512.57746  0.032261925  0.032357153            3 
 1325000    1.0531746   -6.9723182    512.78969  0.032250924  0.032349601            2 
 1326000     1.021459   -6.9973633    511.97344  0.032175304  0.032341698            3 
 1327000    1.0322788   -6.9295843    512.35012  0.032174712  0.032334024            2 
 1328000    1.0376358   -6.9787004    513.14049  0.032200081  0.032326503            3 
 1329000    1.0255997   -6.9870111    512.87006  0.032158895  0.032319125            6 
 1330000    1.0154577   -6.9791147    512.62413  0.032119307  0.032311483            3 
 1331000    1.0413657   -6.9908153    513.51768   0.03215112   0.03230385            5 
 1332000    1.0373994   -6.9498196    514.53397  0.032190564  0.032296299            2 
 1333000    1.0240458   -6.9598326    513.02979   0.03207238  0.032288604            4 
 1334000    1.0452171   -6.9764592    514.63131  0.032148383  0.032281184            2 
 1335000     1.034903   -6.9962675    514.55927  0.032119805  0.032273875            1 
 1336000    1.0235473   -6.9931457    515.78119  0.032171981  0.032266405            5 
 1337000    1.0417893   -7.0010983    514.97523  0.032097683  0.032258905            2 
 1338000    1.0183966   -6.9898514    515.22043  0.032088965   0.03225135            2 
 1339000     1.034581   -6.9482361    518.61186  0.032276068  0.032243923            2 
 1340000    1.0404637   -7.0197303    516.09277  0.032095321  0.032236507            3 
 1341000     1.030208   -6.9593254     517.5966   0.03216484  0.032228976            3 
 1342000    1.0273499   -6.9515927    515.32539  0.031999838  0.032221547            2 
 1343000    1.0377776   -6.9927531    516.69111  0.032060754  0.032214122            2 
 1344000    1.0323878   -6.8915897    519.20254  0.032192618  0.032206847            1 
 1345000    1.0258688     -7.02175    517.49134  0.032062661  0.032199585            5 
 1346000    1.0031456   -6.9501009    516.37446  0.031969691  0.032192165            6 
 1347000    1.0354642   -6.9581007     517.9125   0.03204111  0.032184814            4 
 1348000    1.0570282   -6.9704059    519.15898  0.032094398  0.032177332            1 
 1349000    1.0507449   -6.9870055    519.23512   0.03207531  0.032169916            2 
 1350000    1.0144812   -7.0134931    519.01657   0.03203806  0.032162565            1 
 1351000    1.0333543   -6.9402492    520.81471   0.03212526  0.032155208            4 
 1352000    1.0419867   -7.0161126    518.76299  0.031975036   0.03214781            2 
 1353000    1.0321821   -6.9982399     519.4255  0.031992209  0.032140385            3 
 1354000    1.0158112   -6.9811247     521.8319  0.032116685  0.032133073            4 
 1355000    1.0341795   -7.0029703    521.07221  0.032046262  0.032125883            2 
 1356000    1.0469439   -6.9529327    521.36528  0.032040639  0.032118679            5 
 1357000    1.0421023   -6.9821031    523.25073  0.032132813  0.032111643            2 
 1358000     1.031824   -7.0106373    520.14909   0.03191882  0.032104517            2 
 1359000    1.0189309   -6.9964888    524.51452  0.032163019  0.032097329            4 
 1360000    1.0355713   -7.0023943    523.05783  0.032050112  0.032090148            2 
 1361000    1.0429048   -6.9799848    524.39168  0.032108234  0.032083177            3 
 1362000    1.0215701   -7.0054038    523.11405  0.032006489  0.032076231            5 
 1363000     1.018969   -7.0129634    523.14641  0.031984985   0.03206901            4 
 1364000    1.0117566   -6.9779467    524.19407  0.032025542  0.032061866            2 
 1365000   0.99765448   -6.9990007     523.6811  0.031970763   0.03205477            2 
 1366000    1.0518425   -6.9558202    524.45536  0.031994592  0.032047843            3 
 1367000    1.0590647   -6.9891564    525.18736  0.032015811  0.032040913            1 
 1368000    1.0210655   -6.9806403    525.96278  0.032039643  0.032033898            3 
 1369000    1.0228712   -6.9968746    525.57227  0.031992468  0.032026864            5 
 1370000    1.0344309   -7.0037668    525.79262   0.03198252  0.032019583            2 
 1371000     1.042192   -6.9844229    525.41791  0.031936415  0.032012399            2 
 1372000    1.0345339   -6.9617197    526.90287  0.032003333  0.032005267            1 
 1373000    1.0271112   -6.9959164    526.12724  0.031932947  0.031998084            2 
 1374000    1.0321434   -6.9687847    528.22015  0.032036642  0.031991024            2 
 1375000    1.0398112   -6.9946956    525.96475  0.031876651  0.031983917            3 
 1376000    1.0403438   -6.9827417    527.02584  0.031917747  0.031976837            3 
 1377000    1.0405458   -6.9700705     528.6699  0.031994063  0.031969749            3 
 1378000     1.030547   -6.9958507    528.23426    0.0319445  0.031962778            3 
 1379000    1.0744308   -6.9667763    530.03415  0.032030103  0.031955908            5 
 1380000    1.0149782   -6.9539015    530.14281  0.032013455  0.031948908            2 
 1381000    1.0316123   -6.9879601     529.2081   0.03193387  0.031941678            2 
 1382000    1.0417416   -6.9694826    529.99875  0.031958439  0.031934483            2 
 1383000    1.0357394    -7.018802    528.63798  0.031853337  0.031927386            3 
 1384000    1.0542872   -6.9831669    529.02326   0.03185352   0.03192025            1 
 1385000    1.0350631   -7.0129864    527.59774   0.03174475  0.031913014            2 
 1386000    1.0284322   -6.9717222    528.50001  0.031776095  0.031905715            2 
 1387000     1.039719   -6.9704487    529.25258  0.031798401  0.031898445            1 
 1388000    1.0295143   -7.0174586     530.1485  0.031829281  0.031891052            2 
 1389000    1.0232265   -7.0134186    529.62285  0.031774829  0.031883612            3 
 1390000    1.0157451   -6.9724945    529.70639  0.031756978  0.031876245            2 
 1391000    1.0195617   -7.0308298    528.76569  0.031677791  0.031868855            4 
 1392000    1.0426651   -6.9862268    530.32854  0.031748595  0.031861351            4 
 1393000    1.0247148   -7.0217651     529.9767  0.031704756  0.031853748            1 
 1394000     1.022692   -6.9769002     532.3981  0.031826764  0.031846197            1 
 1395000    1.0393612   -6.9878512    530.81008  0.031709085  0.031838809            1 
 1396000    1.0270635    -7.072442    528.99157  0.031577816  0.031831216            2 
 1397000    1.0169242   -7.0072096    531.37749  0.031697536  0.031823607            2 
 1398000     1.043948   -7.0318761    531.01741  0.031653398  0.031816071            1 
 1399000    1.0417924   -6.9758328    532.82331  0.031738344   0.03180859            2 
 1400000    1.0210736    -7.001303    532.17337  0.031676986  0.031800966            3 
 1401000    1.0413664   -7.0202666    530.50455  0.031555112  0.031793361            2 
 1402000    1.0232036   -7.0219002    531.31374  0.031580703  0.031785532            2 
 1403000    1.0195058   -7.0010232    533.77281  0.031704254  0.031777919            3 
 1404000    1.0104305   -7.0232135    530.50527  0.031487729  0.031770382            3 
 1405000    1.0281817   -6.9939466    533.30197  0.031631196  0.031762783            7 
 1406000    1.0270259   -7.0046273    534.90829  0.031703905  0.031755251            4 
 1407000    0.9977067   -7.0085378    534.38022  0.031650096  0.031747807            4 
 1408000    1.0690991   -7.0108416    534.49639  0.031634493  0.031740226            5 
 1409000    1.0181246    -6.981338    535.35883  0.031663049  0.031732857            3 
 1410000    1.0035033   -6.9913344    535.19703   0.03163103  0.031725385            2 
 1411000    1.0275221   -7.0035315    535.63031  0.031634202    0.0317179            2 
 1412000    1.0141438   -7.0065644     536.7509  0.031677933  0.031710513            2 
 1413000     1.006042   -7.0154904     536.2986  0.031628839  0.031702978            2 
 1414000    1.0388798   -7.0133917    535.30982  0.031548198  0.031695505            4 
 1415000    1.0268412   -7.0146145    536.09956  0.031572412  0.031688022            2 
 1416000    1.0424353   -7.0352934    536.31516  0.031562804  0.031680545            1 
 1417000    1.0225851   -7.0378467    536.60503  0.031557576  0.031673116            2 
 1418000    1.0281971   -7.0391772     535.4833  0.031469399   0.03166563            1 
 1419000    0.9967662    -7.006948    535.96134  0.031475296  0.031658128            2 
 1420000     1.031125   -7.0188826    537.26379  0.031529565  0.031650665            3 
 1421000   0.99431323   -6.9748692    538.32455  0.031569584  0.031643338            5 
 1422000    1.0082207    -7.007457    538.11077  0.031534856  0.031635984            1 
 1423000    1.0381846   -7.0041051    540.24019  0.031637397  0.031628647            4 
 1424000    1.0435542   -6.9938446    538.10051  0.031489964  0.031621245            2 
 1425000    1.0531693   -6.9671679    539.45233   0.03154692   0.03161387            2 
 1426000     1.017092   -7.0450921    538.56464  0.031472922  0.031606359            1 
 1427000    1.0116348   -7.0420744    536.73107   0.03134379  0.031598769            3 
 1428000    1.0160076    -7.015813    539.69899  0.031495039  0.031591193            1 
 1429000    1.0266525   -7.0012666     538.5659  0.031406922  0.031583625            3 
 1430000    1.0198169   -7.0017592    539.09508  0.031415797  0.031575961            3 
 1431000    1.0162675   -7.0161811    539.87678  0.031439365  0.031568384            2 
 1432000    1.0178509   -7.0082606    540.14149  0.031432815  0.031560709            3 
 1433000    1.0266191   -7.0038044    542.42962  0.031543942  0.031553037            3 
 1434000    1.0264361   -6.9891701    540.77038  0.031425522  0.031545484            2 
 1435000      1.00885   -7.0210327    540.29644    0.0313761  0.031537864            2 
 1436000    1.0180678   -7.0273773       542.76  0.031497214  0.031530344            5 
 1437000    1.0177692   -7.0014144    541.80582  0.031419962  0.031522671            4 
 1438000    1.0370109   -7.0186091    540.12732  0.031300841  0.031515138            2 
 1439000   0.99873061   -7.0155274     540.8092  0.031318578  0.031507413            2 
 1440000    1.0237034   -7.0114306    542.66445  0.031404193  0.031499762            1 
 1441000    1.0351582    -7.048982    540.83276  0.031276472  0.031492017            2 
 1442000    1.0056958   -7.0173553    542.04574  0.031324881  0.031484256            4 
 1443000    1.0172805   -6.9561464    542.77525  0.031345302  0.031476469            3 
 1444000    1.0236593   -7.0164809    542.19856  0.031290314  0.031468947            5 
 1445000    1.0076882   -7.0339296    543.44228  0.031340385  0.031461329            2 
 1446000    1.0128897   -7.0191134    540.59139  0.031154414  0.031453663            2 
 1447000    1.0214287   -7.0034124    542.75903  0.031257719  0.031446054            3 
 1448000    1.0296131   -7.0387798     543.5524  0.031281791  0.031438354            2 
 1449000    1.0104742   -7.0218073    543.67411  0.031267202   0.03143051            3 
 1450000    1.0210542   -6.9941375     544.6321  0.031300695  0.031422739            1 
 1451000    1.0102936   -7.0136894     543.4392  0.031210613  0.031414871            3 
 1452000    1.0280369   -7.0257896    544.30216  0.031238645  0.031407157            1 
 1453000    1.0134986   -7.0271612    543.17949  0.031152758  0.031399558            3 
 1454000    1.0057241   -7.0117529    544.74122   0.03122084  0.031391917            3 
 1455000    1.0144768   -7.0006761    547.05893  0.031332127  0.031384314            1 
 1456000    1.0397043   -7.0132324    546.61863  0.031285407   0.03137679            3 
 1457000   0.99707975    -7.034864    546.47132  0.031255509  0.031369259            3 
 1458000    1.0364039   -7.0183125     546.9605  0.031262032  0.031361764            3 
 1459000   0.99699184   -7.0211955    545.62327  0.031164226  0.031354279            2 
 1460000    1.0078871   -7.0167763    548.32089  0.031296854  0.031346884            2 
 1461000    1.0202627   -7.0410217    544.95621  0.031083516  0.031339361            2 
 1462000    1.0243108    -7.035262    547.13205  0.031186277  0.031331846            2 
 1463000    1.0093795   -7.0425671    547.01042  0.031158032  0.031324316            2 
 1464000    1.0227384   -7.0380845    548.09303  0.031198374  0.031316741            2 
 1465000    1.0318279   -7.0046675    549.98429  0.031284658  0.031309384            2 
 1466000    1.0225317   -7.0715204    549.22445  0.031220126  0.031302051            4 
 1467000    1.0380094   -7.0157979    549.38688  0.031208071  0.031294502            2 
 1468000    1.0099764   -7.0278057    549.21314  0.031176949  0.031287193            3 
 1469000   0.98976905   -6.9880021    549.47676   0.03117068  0.031279858            1 
 1470000    1.0164128   -7.0132766    550.89418  0.031229829  0.031272512            1 
 1471000    1.0441769   -7.0357384    550.30601  0.031175278  0.031265152            1 
 1472000    1.0280945   -7.0575282     549.0278  0.031081737  0.031257665            3 
 1473000     1.008196   -6.9821492    552.84744  0.031276728   0.03125029            1 
 1474000    1.0342518   -7.0398617     549.5549  0.031069364  0.031242958            3 
 1475000    1.0082338   -7.0210079    550.36846  0.031094263  0.031235597            4 
 1476000    1.0388117   -7.0709107    549.75273  0.031038433  0.031228206            4 
 1477000    1.0050945   -6.9964119    551.61403  0.031122434  0.031220944           10 
 1478000    1.0144764   -7.0250006    550.18946  0.031021056  0.031213599            1 
 1479000    1.0111498    -6.992436    552.66412  0.031139516  0.031206145            1 
 1480000    1.0059723   -7.0314231    552.04999  0.031083896  0.031198724            2 
 1481000    1.0131364   -7.0081562    552.86208  0.031108602   0.03119143            3 
 1482000    1.0132164   -7.0160032    553.11707   0.03110195  0.031184147            5 
 1483000    1.0072961   -7.0361723    552.57666   0.03105061  0.031176749            2 
 1484000    1.0222169   -7.0214059    554.15543  0.031118342  0.031169436            2 
 1485000    1.0356003   -7.0046681    554.64095  0.031124632  0.031162155            2 
 1486000    1.0130971   -7.0272345    553.51679  0.031040645  0.031154638            2 
 1487000    1.0049047   -7.0551913    553.61706   0.03102539  0.031147155            3 
 1488000    1.0098935   -6.9857898    555.02471  0.031083373  0.031139784            2 
 1489000    1.0131166   -7.0381361    555.57394  0.031093236  0.031132508            7 
 1490000   0.99354855   -7.0535829    556.16439  0.031105391  0.031125246            3 
 1491000     1.019521   -7.0186636    556.74874  0.031117189   0.03111792            2 
 1492000    1.0233998   -7.0468502      555.182  0.031008825  0.031110789            2 
 1493000    1.0082432   -7.0661683    555.05678  0.030981066  0.031103483            3 
 1494000    1.0016472   -7.0552298      556.576  0.031045069  0.031096148            1 
 1495000    1.0357847   -6.9861569    556.93036  0.031044056  0.031088931            6 
 1496000    1.0283081   -7.0251694    557.92105   0.03107849   0.03108185            2 
 1497000    1.0057623   -7.0512183    556.81529  0.030996175  0.031074823            2 
 1498000    1.0103661   -7.0106727    557.89486  0.031035539  0.031067798            3 
 1499000    1.0120339   -7.0473424    557.67548   0.03100264  0.031060714            5 
 1500000    1.0223544   -7.0426837    560.28826  0.031127125  0.031053724            3 
 1501000    1.0328129   -7.0535318    559.47085  0.031061006  0.031046561            2 
 1502000   0.99735409   -7.0294228    560.30947  0.031086855  0.031039499            2 
 1503000    1.0163422   -7.0064069    560.10662  0.031054925   0.03103248            3 
 1504000    1.0202764   -7.0124755    560.44483  0.031053016  0.031025576            3 
 1505000    1.0089018   -7.0240074    559.63823   0.03098772   0.03101853            3 
 1506000   0.99473898   -7.0173365    559.78548  0.030975292  0.031011507            3 
 1507000   0.99588799   -7.0083805    560.79956  0.031010814   0.03100444            2 
 1508000    1.0181548    -7.022343    560.21883  0.030958158  0.030997492            2 
 1509000    1.0006282   -7.0339365    559.44986  0.030895177  0.030990496            3 
 1510000    1.0185465   -7.0250212    560.43969  0.030929343  0.030983423            4 
 1511000    1.0269087   -7.0256861    561.84888  0.030986592  0.030976294            6 
 1512000    1.0311709   -7.0359916    562.91671  0.031024951  0.030969249            2 
 1513000    1.0016432     -7.01148    562.73995   0.03099471  0.030962186            7 
 1514000   0.98999103   -7.0493941    560.29345  0.030839578  0.030955054            2 
 1515000   0.99496217   -7.0705749     561.9493  0.030910303  0.030947941            2 
 1516000   0.99436292   -7.0554594    564.31289  0.031019838  0.030940947            2 
 1517000    1.0050765   -7.0628617    562.48357  0.030898899  0.030933849            2 
 1518000   0.99749574   -7.0494979    563.63985  0.030942021  0.030926843            2 
 1519000    1.0073896   -7.0405007    563.50344  0.030914167  0.030919928            4 
 1520000     1.035405   -7.0639969    564.09842  0.030926449   0.03091303            3 
 1521000    1.0074132   -7.0437021    562.01155  0.030791779  0.030905938           11 
 1522000    1.0254441   -7.0072501    564.08224  0.030884924  0.030898881            3 
 1523000   0.99436498   -7.0499874    563.76741  0.030847418  0.030891766            3 
 1524000    1.0304312   -7.0245125     565.8271  0.030939802  0.030884623            4 
 1525000   0.99201653   -7.0841376    563.95884  0.030817423  0.030877473            2 
 1526000   0.99988211   -7.0339731    564.80736  0.030843565  0.030870051            2 
 1527000    1.0169698   -6.9970118    566.04476  0.030890895   0.03086282            3 
 1528000    1.0185288   -7.0542427    565.97712  0.030866989  0.030855618            3 
 1529000   0.99765943   -6.9958618    566.96578  0.030900685  0.030848408            6 
 1530000    1.0083513   -7.0621717    565.99499  0.030827614  0.030841315            4 
 1531000    1.0146798   -7.0392579    565.66075  0.030789285  0.030834075            2 
 1532000    1.0104408   -7.0647624     564.9488  0.030730461  0.030826796            3 
 1533000    1.0029188    -7.015259    568.39273  0.030897626   0.03081974            4 
 1534000   0.97943991   -7.0770047    566.19132  0.030757894  0.030812666            2 
 1535000   0.99606018   -7.0589433    567.33669  0.030800037  0.030805616            1 
 1536000    1.0125351   -7.0794099    567.41812  0.030784403  0.030798556            1 
 1537000    1.0091133   -7.0415609    567.58224  0.030773273  0.030791508            4 
 1538000    1.0044159   -7.0577834    567.43226  0.030745137  0.030784464            2 
 1539000   0.98163774   -7.0573448    567.15303   0.03071004  0.030777401            1 
 1540000    1.0022173   -7.0397048    568.38522  0.030756776  0.030770312            2 
 1541000    1.0080052   -7.0451594    566.82705  0.030652555  0.030763204            4 
 1542000   0.99555703   -7.0817209    566.66222  0.030623769  0.030756059            4 
 1543000    1.0082713   -7.0514787    569.43664  0.030753761   0.03074891            2 
 1544000    1.0191003    -7.048636    570.14887  0.030772283  0.030741877            2 
 1545000   0.97436193   -7.0571992    570.19543  0.030754878  0.030734744            2 
 1546000    1.0114086   -7.0728294    568.92375  0.030666438    0.0307276            6 
 1547000    1.0017346    -7.039752    570.42145  0.030727292  0.030720461            4 
 1548000    1.0234142   -7.0173034    569.80025  0.030674001  0.030713345            4 
 1549000   0.99870414   -7.0152825    570.11103  0.030670918  0.030706167            3 
 1550000    1.0100035   -7.0806254    567.93331  0.030534049  0.030698779            3 
 1551000     0.990044   -7.0487256    570.39242  0.030646487  0.030691472            2 
 1552000   0.98340777   -7.0523618    570.16089  0.030614309  0.030684102            2 
 1553000   0.98657674    -7.079134    570.99904  0.030639571  0.030676741            4 
 1554000    1.0218109   -7.0727381    571.71542   0.03065827  0.030669451            5 
 1555000   0.99998328   -7.0623772    570.95015  0.030597543  0.030662248            2 
 1556000    1.0121755   -7.0452876       570.29  0.030542524  0.030655092            3 
 1557000    1.0053335   -7.0543294    571.07442  0.030564891  0.030647876            1 
 1558000   0.98618245   -7.0626475    572.39546  0.030615932  0.030640628            4 
 1559000   0.99738663   -7.0756608    572.50369  0.030602079  0.030633508            2 
 1560000    0.9991668   -7.0246988    574.74285  0.030702075  0.030626483            2 
 1561000   0.99000313   -7.0473984    574.01124   0.03064335   0.03061938            4 
 1562000    1.0011373   -7.1123025    572.06064  0.030519667  0.030612168            2 
 1563000   0.99440785   -7.0465329    573.86602  0.030596397  0.030605057            3 
 1564000    1.0008234    -7.059813    575.42831  0.030660076  0.030598114            2 
 1565000    1.0140127   -7.0745233    575.00181  0.030617775  0.030591142            3 
 1566000    1.0088771   -7.0565325    575.33162  0.030615774   0.03058404            1 
 1567000   0.99333499   -7.0350467    576.06836  0.030635416  0.030577097            3 
 1568000   0.97338084   -7.0927143    576.37224  0.030632028  0.030570013            6 
 1569000    1.0012686   -7.0515095    575.74849  0.030579376  0.030562893            2 
 1570000   0.96821015   -7.0713251    574.64381  0.030501264  0.030555822            5 
 1571000    1.0045262   -7.0208481    577.18249  0.030616512  0.030548671            4 
 1572000   0.98920345   -7.0953387    574.55184  0.030457583  0.030541673            3 
 1573000   0.99499207   -7.0653879    576.97205  0.030566436  0.030534577            4 
 1574000    1.0183274   -7.0099841    577.47248  0.030573511  0.030527692            4 
 1575000    1.0238096   -7.0231721    577.55609  0.030558523  0.030520677            4 
 1576000    1.0014044   -7.0475133    578.29451  0.030578178  0.030513768            2 
 1577000   0.99739925   -7.0941518    576.63036   0.03047085  0.030506822            3 
 1578000    0.9850646   -7.0734426    578.84683   0.03056859  0.030499804            4 
 1579000   0.99629623   -7.0334881    577.38742  0.030472209  0.030492911            3 
 1580000    1.0099266   -7.0842527    578.36128  0.030504287  0.030485877            2 
 1581000    1.0081681   -7.0650239    578.64275  0.030499829  0.030478886            1 
 1582000   0.99145894   -7.0977866    579.56731  0.030529251  0.030471881            5 
 1583000   0.98094275   -7.0705565    578.56343  0.030457119  0.030464846            4 
 1584000   0.98952346   -7.0754955    579.20835   0.03047182  0.030457745            4 
 1585000    1.0027463   -7.0774605    577.64362  0.030370327  0.030450636            8 
 1586000    1.0111402   -7.0186551    580.27061  0.030489208  0.030443635            2 
 1587000   0.99715321   -7.0467085    579.77549  0.030443998  0.030436666            3 
 1588000   0.97768426   -7.0796948    580.38617  0.030456873  0.030429595            3 
 1589000   0.99575855   -7.0970317    579.50532   0.03039151  0.030422684            2 
 1590000   0.99652516   -7.0667755    579.93884  0.030395117  0.030415621            2 
 1591000    1.0154143   -7.0435303    582.31124  0.030500275  0.030408583            2 
 1592000   0.97281372   -7.0672925    579.31396  0.030324223  0.030401542            2 
 1593000   0.97675258   -7.0823599    580.84614  0.030385339   0.03039444            7 
 1594000    0.9990266   -7.0633307     581.6156  0.030406504  0.030387428            3 
 1595000   0.98998096    -7.062512    581.06885  0.030358874   0.03038043            3 
 1596000    1.0137773   -7.0504939     580.4963  0.030309957  0.030373374            1 
 1597000    0.9868712   -7.0679334    582.19022  0.030379369  0.030366313            2 
 1598000    1.0205401   -7.0443703    582.85868  0.030395217  0.030359364            5 
 1599000   0.98359202   -7.0386908    583.94868  0.030433015  0.030352239            1 
 1600000    1.0072079   -7.0626197    583.84003  0.030408335  0.030345127            3 
 1601000   0.99040052   -7.0518484     582.2931  0.030308823  0.030338066            1 
 1602000   0.99182202   -7.0768194    583.26687  0.030340557  0.030331127            4 
 1603000    1.0005926   -7.0787938    584.05067  0.030362376  0.030324143            2 
 1604000    1.0137168    -7.086815     583.8545  0.030333255  0.030317169            5 
 1605000    1.0048463   -7.0775573     584.3202  0.030338536   0.03031027            3 
 1606000   0.99531486   -7.0393808    584.04345  0.030305285  0.030303351            4 
 1607000   0.99147307   -7.1110167    582.95942  0.030230213  0.030296258            3 
 1608000   0.98048678   -7.0940704    583.55097  0.030242069  0.030289269            3 
 1609000   0.99382065   -7.0907002    585.55135  0.030326878   0.03028219            3 
 1610000    1.0022045   -7.0945494    584.68118  0.030263001  0.030275093            4 
 1611000   0.99364856   -7.0363175     586.4377  0.030335076   0.03026805            2 
 1612000   0.96558011   -7.0749184    586.78795  0.030334365  0.030261062            4 
 1613000   0.98402392   -7.0739606    586.85838  0.030319197  0.030254155            3 
 1614000   0.99542248   -7.0483589    585.93485  0.030252729  0.030247171            3 
 1615000    1.0226063   -7.0454077    586.69816  0.030273383  0.030240285            4 
 1616000    1.0075212   -7.0649276    586.53221  0.030246092   0.03023331            2 
 1617000   0.99246421   -7.0808101    587.26692   0.03026525  0.030226406            4 
 1618000    0.9874143   -7.0891154    588.17664  0.030293399  0.030219436            3 
 1619000   0.99860182   -7.0322416    589.42276  0.030338828  0.030212452            3 
 1620000   0.98992602   -7.0772231    589.78342  0.030338653  0.030205596            2 
 1621000    1.0008552   -7.0835036    588.52785   0.03025539  0.030198682            2 
 1622000   0.99668031    -7.075742    587.03371  0.030159973  0.030191711            4 
 1623000   0.98813263   -7.0430555    588.82971  0.030233606  0.030184827            6 
 1624000   0.99546832   -7.0541501     591.3154  0.030342539  0.030178008            4 
 1625000   0.97719493   -7.1277383    588.88366  0.030199162   0.03017118            3 
 1626000   0.99227997   -7.0935148     588.9987  0.030186485  0.030164307            3 
 1627000   0.99127017   -7.0952708    591.31178  0.030286405  0.030157379            3 
 1628000    1.0110113   -7.0837506    589.62425  0.030181422  0.030150446            3 
 1629000   0.96870242    -7.056809    591.38501  0.030252967  0.030143715            3 
 1630000   0.97766225   -7.0333494    593.17778  0.030326062  0.030136961            4 
 1631000   0.99524359   -7.0576943    591.25218  0.030209084  0.030130256            2 
 1632000     0.988299   -7.0870074    592.60531  0.030259667   0.03012366            3 
 1633000   0.97516826   -7.1020319     591.6838  0.030194111   0.03011688            2 
 1634000     0.987245   -7.1023604    591.36652  0.030159451  0.030110096            4 
 1635000   0.98025611   -7.0812719    593.49314  0.030249396  0.030103229            3 
 1636000   0.98043825   -7.0817905    591.97679  0.030153667  0.030096514            4 
 1637000    0.9678355   -7.0859617    592.47376  0.030160546  0.030089825            3 
 1638000    0.9720664   -7.1093997    592.85071   0.03016131  0.030083007            6 
 1639000   0.98787358   -7.1098294    590.92993  0.030045247   0.03007607            1 
 1640000   0.99221543   -7.0615852     593.2546  0.030145051  0.030069189            3 
 1641000   0.98045862   -7.0428209    593.55205  0.030141786  0.030062255            5 
 1642000    0.9954204   -7.0498918    594.45155   0.03016908  0.030055508            3 
 1643000    1.0169552   -7.0742601    592.24935  0.030039022  0.030048773            2 
 1644000    0.9841261   -7.0680928    593.11319  0.030064537  0.030041949            2 
 1645000   0.97574025   -7.1292898    594.36305  0.030109577  0.030034846            3 
 1646000   0.98713995   -7.0618037    596.15322  0.030181917  0.030027968            2 
 1647000   0.98183096   -7.1273805    593.75983  0.030042493   0.03002111            3 
 1648000   0.98127844    -7.077235     595.0712  0.030090574  0.030014088            3 
 1649000     1.005696   -7.0810771    595.07326  0.030072431  0.030007119            2 
 1650000   0.98001115   -7.0770676    594.52155  0.030026341  0.030000042            4 
 1651000   0.99599451    -7.083715    594.36163  0.030000082  0.029992987            3 
 1652000   0.96574991    -7.055615    594.88641  0.030008394  0.029986027            2 
 1653000   0.98127855   -7.1090014    595.39147  0.030015702   0.02997897            4 
 1654000    0.9959016   -7.0427284    597.30988   0.03009421  0.029971984            2 
 1655000   0.97718893   -7.0718395    597.08061  0.030064482  0.029965041            2 
 1656000    1.0052749   -7.1127433    595.06012  0.029944652  0.029957937            3 
 1657000   0.97592487   -7.0670308    596.22043  0.029984934  0.029950907            4 
 1658000   0.99751281   -7.0916071    595.59508  0.029935418   0.02994383            2 
 1659000   0.95542565   -7.1501997    595.03106  0.029889043  0.029936681            2 
 1660000   0.98237481   -7.0571895    597.95014  0.030017577  0.029929622            3 
 1661000   0.98170986   -7.0876476    597.30342  0.029967059   0.02992255            4 
 1662000   0.98313932   -7.0702903    597.32755  0.029950238  0.029915538            1 
 1663000   0.99630213   -7.0533706    596.48629  0.029890073   0.02990853            2 
 1664000   0.97289225   -7.0551969    597.05486  0.029900584  0.029901577            3 
 1665000   0.98272747   -7.0652865     599.3826  0.029999129  0.029894642            3 
 1666000    1.0113461   -7.0870717    597.55374  0.029889643  0.029887623            9 
 1667000   0.99576207   -7.0922405    598.91892  0.029939958  0.029880624            2 
 1668000   0.98832989   -7.0701342    598.75649  0.029913893  0.029873712            3 
 1669000   0.98105254   -7.0880759    598.80502  0.029898393  0.029866795            3 
 1670000   0.96603456    -7.102636    599.92032  0.029936144  0.029859941            3 
 1671000     1.001471   -7.1104666    600.44203  0.029944246  0.029852994            2 
 1672000    1.0010079   -7.0924811    600.29588  0.029919053  0.029846003            3 
 1673000   0.97267061    -7.075489    599.33494  0.029853304  0.029839037            4 
 1674000    0.9759471   -7.0811773     599.7356  0.029855416  0.029832115            2 
 1675000   0.98538878   -7.0937927    599.04804  0.029803385   0.02982518            3 
 1676000   0.98373299   -7.0928262    599.23499  0.029794898  0.029818174            3 
 1677000   0.98806387   -7.0709083    599.61924  0.029796225  0.029811117            3 
 1678000   0.97320072   -7.1106007    600.40636  0.029817558  0.029804089            2 
 1679000   0.98984263   -7.0550793    598.70337  0.029715275  0.029797024            5 
 1680000   0.98544654   -7.0743392    602.32532  0.029877248  0.029789962            1 
 1681000   0.99170266   -7.1206836    600.67581  0.029777702  0.029782953            3 
 1682000   0.99499563   -7.0782524    603.03626  0.029876945   0.02977604            2 
 1683000   0.97331435   -7.0921508    601.63426  0.029789773  0.029769155            3 
 1684000   0.98401714   -7.0979398    602.14977  0.029797594  0.029762209            2 
 1685000   0.98413262   -7.1286818    601.40574  0.029743113   0.02975527            3 
 1686000    1.0000555   -7.1536024    602.56819  0.029782928  0.029748408            3 
 1687000    0.9880513   -7.1036415    605.37474  0.029903909  0.029741592            2 
 1688000   0.98154225   -7.1011765     604.8864  0.029862085  0.029734766            3 
 1689000    1.0048773   -7.0770937    605.53502  0.029876407  0.029728023            7 
 1690000   0.97275588   -7.1032099    605.47141  0.029855592  0.029721298            3 
 1691000    0.9845014   -7.0874083    603.05424  0.029718817  0.029714615            2 
 1692000   0.97633786   -7.0860666    605.71033  0.029832069  0.029708039            4 
 1693000   0.97311582    -7.096726    605.97854   0.02982765  0.029701477            3 
 1694000    0.9837899   -7.0976948    605.45921  0.029784495  0.029694761            2 
 1695000   0.96649864   -7.0906648    605.98812  0.029792926  0.029688186            4 
 1696000   0.95637303   -7.0815489    606.94994  0.029822619  0.029681621            3 
 1697000   0.98919947   -7.0758701    607.62004  0.029837951  0.029674979            4 
 1698000   0.97837382   -7.1062408     606.9691  0.029788433  0.029668341            4 
 1699000    0.9794396   -7.0804332    605.81022  0.029714058   0.02966166            4 
 1700000   0.99532056   -7.1247714    605.67501  0.029689951  0.029654927            2 
 1701000   0.95608988   -7.0792297    606.67704  0.029721587  0.029648168            2 
 1702000   0.98573447   -7.0898503    606.68271  0.029704402  0.029641336            2 
 1703000   0.96060441   -7.1372931     607.0575  0.029705299  0.029634501            3 
 1704000   0.98911955   -7.0785584    608.22715  0.029745068  0.029627704            4 
 1705000   0.97793245   -7.1112452    606.08863    0.0296231  0.029620874            3 
 1706000   0.96773019    -7.096933    608.62513  0.029729637  0.029614027            2 
 1707000   0.97574412   -7.1352708    607.99728   0.02968157  0.029607279            2 
 1708000   0.98432094   -7.1039772    608.66619  0.029696828  0.029600597            3 
 1709000    1.0045321   -7.0882338    610.69358   0.02977831  0.029593903            4 
 1710000   0.97618825   -7.1120271    609.93348  0.029723854   0.02958732            2 
 1711000   0.97074215   -7.1004682    609.54355   0.02968749  0.029580731            2 
 1712000   0.98041165    -7.097648    608.09123  0.029599456  0.029574118            2 
 1713000   0.99069331   -7.1061228    609.65737  0.029658366  0.029567347            2 
 1714000   0.97792875   -7.1125677    609.63204  0.029639831  0.029560573            1 
 1715000   0.96915484   -7.0827556    609.52042  0.029617124  0.029553798            6 
 1716000   0.98703722   -7.1458826    609.31112  0.029589701  0.029547049            3 
 1717000   0.99054759   -7.1044593    610.79777  0.029644621  0.029540339            2 
 1718000   0.96571764   -7.1137235    612.03234   0.02968725   0.02953362            2 
 1719000   0.98152734   -7.1084715     612.4754  0.029691458  0.029526942            3 
 1720000   0.97059283   -7.1011068    612.51748  0.029676235  0.029520452            2 
 1721000   0.97676931   -7.1051533    610.82459  0.029577018  0.029513736            2 
 1722000   0.97350862   -7.1370211    610.65934  0.029551846  0.029506947            2 
 1723000   0.97930707   -7.1066088    612.25253   0.02961175   0.02950024            3 
 1724000   0.98331602   -7.1164966      610.387  0.029504399  0.029493558            2 
 1725000    0.9770382   -7.1552446    611.81605  0.029556331  0.029486819            3 
 1726000   0.96738159   -7.1228959    613.11305  0.029601827  0.029480026            4 
 1727000   0.97738194   -7.1006182    614.04094   0.02962946  0.029473294            2 
 1728000   0.99397432   -7.1023546    614.49198  0.029634065  0.029466809            1 
 1729000    1.0040527   -7.0725511    614.36291  0.029610705  0.029460337            3 
 1730000   0.95339929   -7.1159981    614.77968  0.029613665  0.029453853            1 
 1731000   0.95910294   -7.1414623    613.30323  0.029525478  0.029447198            1 
 1732000    0.9617334   -7.1048624    615.03318  0.029591666  0.029440553            2 
 1733000   0.99310058   -7.1398773    614.68344  0.029557773  0.029434019            2 
 1734000   0.96686892   -7.1070825    613.99523  0.029507653    0.0294274            2 
 1735000   0.97059171   -7.1489953     614.4008  0.029510125  0.029420712            4 
 1736000   0.99047749    -7.096428    614.39852  0.029493017  0.029413983            5 
 1737000    0.9734984    -7.139096    614.52264  0.029481992  0.029407225            8 
 1738000   0.96451503   -7.1219623    615.66348   0.02951973  0.029400536            4 
 1739000   0.97215816   -7.1000677    614.49757  0.029446884  0.029393895            2 
 1740000   0.97853849   -7.1113962    616.13084  0.029508182  0.029387225            4 
 1741000   0.96586269   -7.1295658    615.81812  0.029476265  0.029380677            2 
 1742000   0.98569461   -7.1292998    616.18076  0.029476692  0.029374021            3 
 1743000    1.0088075    -7.087171    617.69415  0.029532135  0.029367334            4 
 1744000   0.96666354   -7.1095991     618.2433  0.029541442  0.029360744            2 
 1745000    0.9899649   -7.1572442     616.8691  0.029458887  0.029354032            2 
 1746000   0.98760247   -7.1560778     615.7943  0.029390717  0.029347329            1 
 1747000   0.98634881   -7.1462066    616.22732  0.029394549  0.029340584            2 
 1748000    1.0006807   -7.1446034     615.9816  0.029366018  0.029333912            5 
 1749000   0.97467037   -7.1376573    617.60099  0.029426386  0.029327203            4 
 1750000   0.95553532   -7.0996239    617.86672  0.029422225  0.029320567            4 
 1751000    1.0006918   -7.1443913    618.15469  0.029419127  0.029313866            3 
 1752000   0.97156036   -7.1248572    620.12206  0.029495912  0.029307204            3 
 1753000   0.97015175   -7.1326028    618.03591  0.029379916  0.029300502            4 
 1754000   0.96728391   -7.1263799    617.73151  0.029348703  0.029293856            2 
 1755000   0.95367486   -7.1473159    617.64234  0.029327746  0.029287152            5 
 1756000   0.94833426    -7.155977    620.77029  0.029459486  0.029280423            4 
 1757000   0.98069549    -7.135692    619.02034   0.02935972  0.029273718            2 
 1758000   0.95005626   -7.1181527    618.79865  0.029332511  0.029266985            2 
 1759000   0.98013219   -7.1374272    617.69052  0.029263337  0.029260299            3 
 1760000   0.97366303   -7.1213799    619.07066  0.029312058  0.029253418            3 
 1761000   0.97591307   -7.1307563    619.24687  0.029303751  0.029246594            2 
 1762000   0.96888506   -7.0891868    621.05312  0.029372546  0.029239878            2 
 1763000   0.95419097   -7.1249817    619.27154  0.029271674  0.029233109            2 
 1764000   0.98113811   -7.1143888    620.89062  0.029331567  0.029226303            3 
 1765000   0.96256613   -7.1263621    620.03083  0.029274355  0.029219461            2 
 1766000   0.96649843   -7.1258328    619.17002  0.029217158  0.029212548            2 
 1767000   0.96762808   -7.1086487    619.87472  0.029233858  0.029205755            2 
 1768000   0.97249936   -7.1558287    620.96216  0.029268578  0.029198867            4 
 1769000   0.97010759   -7.1101048    621.70731  0.029287135   0.02919197            4 
 1770000   0.98039776   -7.1136518     618.9261  0.029139647  0.029184994            3 
 1771000   0.97516355    -7.114686    621.15459  0.029228053  0.029178052            2 
 1772000   0.96198682   -7.1260737    621.71917   0.02923811  0.029171198            2 
 1773000   0.96014109   -7.0890089    622.13354  0.029241095  0.029164333            2 
 1774000   0.97269744    -7.154379    621.28003  0.029184518  0.029157433            4 
 1775000   0.96911143   -7.0977182    621.26736  0.029167482  0.029150474            2 
 1776000   0.96688213   -7.1363622    622.80005  0.029222975  0.029143692            2 
 1777000   0.95577347   -7.1190116    622.79936  0.029206498  0.029136927            8 
 1778000   0.96607291   -7.1363911    622.46984  0.029174627  0.029130236            4 
 1779000   0.91961483   -7.1467975    623.27987  0.029196171  0.029123508            2 
 1780000   0.96240862   -7.1095042    623.67264  0.029198157  0.029116787            4 
 1781000   0.97615304   -7.1396411    624.07877  0.029200766  0.029109972            4 
 1782000   0.95676729   -7.1250909     623.9091  0.029176445  0.029103175            5 
 1783000   0.96237585   -7.0932196    625.45118  0.029232155  0.029096378            2 
 1784000   0.99319796   -7.0863129    626.75152   0.02927651  0.029089698            4 
 1785000    0.9832668   -7.1510603    625.19926   0.02918764  0.029083017            3 
 1786000   0.94917088   -7.1105112    625.71177  0.029195211  0.029076176            3 
 1787000   0.98531414   -7.1403849    622.70172  0.029038506  0.029069357            2 
 1788000    0.9768081   -7.1263726    624.00682  0.029083092  0.029062619            2 
 1789000     0.967727   -7.1387457    625.26386   0.02912539  0.029055876            1 
 1790000   0.94375663   -7.1336053    626.42218  0.029163044  0.029049268            3 
 1791000   0.96545996   -7.1463733    625.77915  0.029116841  0.029042603            3 
 1792000    0.9673196   -7.1416448     629.1094  0.029255459  0.029036043            6 
 1793000   0.95259408   -7.1278513    625.87769  0.029088943  0.029029459            1 
 1794000   0.94325197   -7.1553718    628.94196  0.029215067  0.029022858            4 
 1795000   0.96634304   -7.1403852    627.05307  0.029111099  0.029016273            5 
 1796000   0.96849946   -7.1713538    627.13264  0.029098582  0.029009654            5 
 1797000    0.9600072   -7.1103839    627.23639  0.029087201  0.029002966            5 
 1798000   0.97012099   -7.1237419    627.62212    0.0290889   0.02899632            1 
 1799000    0.9626998   -7.1158411     629.4532  0.029157551  0.028989816            6 
 1800000   0.94176549   -7.1199282    629.76291   0.02915569  0.028983198            3 
 1801000   0.96655913   -7.1459397    628.64517  0.029087783  0.028976597            3 
 1802000   0.97089823   -7.1343205    630.49844  0.029157346  0.028970029            3 
 1803000   0.96338364   -7.1406874    629.70595  0.029104546   0.02896341            4 
 1804000   0.94574881   -7.0811223    631.68202  0.029179694  0.028956796            4 
 1805000   0.96095769    -7.165852    627.47967  0.028969514   0.02895016            2 
 1806000   0.96897678   -7.1516757    628.57785  0.029004146   0.02894337            4 
 1807000   0.96929994   -7.1253916    630.88859  0.029094659  0.028936709            3 
 1808000   0.97441427   -7.1288632    631.39588  0.029101949  0.028930084            1 
 1809000   0.93788567   -7.1629839    630.94257  0.029064979  0.028923448            3 
 1810000   0.99506476   -7.1396877    631.44513  0.029072059   0.02891682            2 
 1811000   0.94501422   -7.1482492    632.55295  0.029106983  0.028910297            2 
 1812000   0.97041668   -7.1664816    629.97149  0.028972199  0.028903708            3 
 1813000   0.95689936   -7.1653772    630.41913  0.028976794   0.02889705            3 
 1814000   0.94376644   -7.1666344    628.80088  0.028886479  0.028890257            2 
 1815000   0.97628608   -7.1504999    629.72604  0.028913041  0.028883458            3 
 1816000   0.94378681   -7.1339678    632.53326  0.029025939  0.028876717            4 
 1817000   0.96388785   -7.1288879    634.28614  0.029090357    0.0288701            3 
 1818000   0.96968953   -7.1600655    631.38982  0.028941594  0.028863511            1 
 1819000   0.97658924    -7.183304    632.97133  0.028998137  0.028856851            3 
 1820000   0.95085195   -7.1421694     633.5825  0.029010188   0.02885016            4 
 1821000   0.95598215   -7.1445248    632.89327  0.028962716  0.028843561            1 
 1822000   0.95563174   -7.1078141    633.85444  0.028990781  0.028836987            3 
 1823000   0.96863214   -7.1360096    633.02567  0.028936994  0.028830407            2 
 1824000   0.97171555   -7.1659813    634.69627  0.028997454   0.02882379            5 
 1825000   0.96238848   -7.1480067    633.75727  0.028938688  0.028817093            2 
 1826000   0.94925132    -7.125798    633.98436  0.028933204  0.028810444            1 
 1827000   0.93003599   -7.1455089    633.72505  0.028905539  0.028803797            5 
 1828000   0.96820101   -7.1471717    633.93903  0.028899482  0.028797069            4 
 1829000   0.94500243   -7.1638986    633.48371  0.028862936  0.028790339            2 
 1830000    0.9522343   -7.1420923    635.71879  0.028948943  0.028783696            2 
 1831000   0.95434904   -7.1331648     635.7817  0.028935996  0.028777165            2 
 1832000   0.96958077   -7.1764609    634.60982  0.028866895  0.028770536            2 
 1833000   0.97032301     -7.18454    636.12444  0.028920005  0.028763868            2 
 1834000   0.95917847   -7.1639869    635.38121  0.028870466  0.028757182            2 
 1835000   0.95834235   -7.1509481    636.05596  0.028885375  0.028750596            2 
 1836000   0.96171194   -7.1322012    636.07698  0.028870596  0.028744106            3 
 1837000   0.95668576   -7.1596317    637.16316  0.028904153   0.02873766            2 
 1838000   0.94055682   -7.1496249    636.61921  0.028863765  0.028731203            4 
 1839000   0.97508057   -7.1372876    637.61231  0.028893072  0.028724776            2 
 1840000    0.9500959   -7.1346168    637.93496  0.028891982  0.028718364            5 
 1841000   0.94773605   -7.1388222    638.27714  0.028891777  0.028711929            5 
 1842000   0.94137021   -7.1802715    636.03533  0.028774671  0.028705428            5 
 1843000   0.96796103   -7.1820284    637.85376   0.02884128  0.028698926            3 
 1844000   0.95149733   -7.1209711    639.82491  0.028914719  0.028692423            4 
 1845000   0.96164079   -7.1369064    638.05466   0.02881909  0.028685915            5 
 1846000    0.9750026    -7.163936    639.79923  0.028882233  0.028679373            2 
 1847000   0.95575662   -7.1576323    640.62464  0.028903837  0.028672906            2 
 1848000   0.94983874   -7.1480665    637.17973  0.028732852  0.028666348            2 
 1849000   0.96608569   -7.1516984    638.69177  0.028785459  0.028659802            2 
 1850000   0.95961546   -7.1950462    638.98149   0.02878295  0.028653298            3 
 1851000     0.936496   -7.1618449    639.46427  0.028789135   0.02864676            2 
 1852000   0.94356443   -7.1541948    639.64368  0.028781663    0.0286403            3 
 1853000   0.96857033   -7.1686014    640.08973   0.02878619   0.02863383            4 
 1854000   0.95874902   -7.1388795    640.95009  0.028809335  0.028627412            3 
 1855000   0.95922175   -7.1399454    642.05263  0.028843335  0.028620989            2 
 1856000    0.9565504   -7.1704082    641.85942  0.028819119  0.028614608            2 
 1857000   0.94794945   -7.1463146    643.92463  0.028896277  0.028608287            3 
 1858000   0.96389349   -7.1267434    640.62752  0.028732845  0.028602008            1 
 1859000   0.93934914    -7.170243    642.41278  0.028797417  0.028595633            2 
 1860000   0.97412178   -7.1689516     639.3057  0.028642728  0.028589169            6 
 1861000   0.95015579   -7.1367058    642.11775  0.028753258  0.028582755            4 
 1862000   0.95547996   -7.1398414    642.80996  0.028768795  0.028576347            3 
 1863000   0.95799391   -7.1106769     643.9158  0.028802818  0.028569921            3 
 1864000    0.9589071   -7.1350625    643.66785  0.028776281  0.028563559            1 
 1865000   0.95290932   -7.1489525    643.29623  0.028744246  0.028557111            2 
 1866000   0.95124426   -7.1668674    643.15472  0.028722522  0.028550591            2 
 1867000   0.94694447   -7.1531563      644.108  0.028749688  0.028544063            3 
 1868000   0.94172977   -7.2150334    641.12722  0.028601321  0.028537479            6 
 1869000   0.94013048   -7.1489176    641.12743  0.028586028  0.028530854            5 
 1870000   0.97236687   -7.1542394    643.50427  0.028676661  0.028524267            3 
 1871000   0.98530129   -7.1970646    642.00099  0.028594379  0.028517663            2 
 1872000   0.95142808   -7.1421471    644.64225  0.028696681  0.028511147            4 
 1873000   0.93981314   -7.1285145    645.33273  0.028712081  0.028504761            2 
 1874000   0.94187825   -7.1912943    645.03405  0.028683478  0.028498228            3 
 1875000   0.96794085   -7.1804205    645.29485  0.028679771  0.028491778            1 
 1876000   0.96412998   -7.1976711    643.70702  0.028593951  0.028485194            1 
 1877000   0.95994647   -7.1473707    645.78987   0.02867119  0.028478613            3 
 1878000   0.95511299   -7.2112332    645.21861  0.028630574  0.028472048            3 
 1879000   0.94082762   -7.1647165    646.17877  0.028657919  0.028465528            3 
 1880000   0.96071757   -7.1629863    645.18821  0.028598768  0.028459039            2 
 1881000   0.94293612   -7.1500884    646.45836  0.028639835  0.028452536            3 
 1882000   0.93603424   -7.1315078    647.28505  0.028661223  0.028446071            3 
 1883000   0.93707418   -7.1481322     645.6331  0.028572893  0.028439712            2 
 1884000   0.97384666   -7.1764683    646.35375  0.028589603  0.028433305            3 
 1885000   0.93611718   -7.1723241    647.02918  0.028604296  0.028426844            3 
 1886000    0.9578314   -7.1735298    647.82073  0.028624105  0.028420419            5 
 1887000   0.93414727    -7.148397    648.42389  0.028635572  0.028414046            2 
 1888000    0.9634593   -7.1470666    649.54922  0.028670075  0.028407637            3 
 1889000    0.9541074   -7.1325423    647.54792   0.02856661  0.028401149            2 
 1890000   0.95150082    -7.174112    648.15949  0.028578461  0.028394613            2 
 1891000   0.93466019   -7.1747168     646.5709  0.028493341  0.028388033            2 
 1892000   0.96699073   -7.1475751    648.98937  0.028584803  0.028381442            4 
 1893000   0.93681846   -7.1701228    647.39872   0.02849968  0.028374913            3 
 1894000   0.95977662   -7.1974313    647.89363  0.028506408  0.028368427            4 
 1895000   0.95074876   -7.2055068    646.29389  0.028421015  0.028361831            8 
 1896000   0.93498127   -7.1887861    648.35573  0.028496648  0.028355213            4 
 1897000   0.95425911   -7.1957362    649.21526  0.028519384  0.028348672            3 
 1898000   0.95865971   -7.1721609    647.75616  0.028440295  0.028342149            3 
 1899000   0.94446783   -7.1798224    649.78787  0.028514476  0.028335619            6 
 1900000   0.94261813   -7.1483176    650.66837  0.028538086  0.028328997            2 
 1901000   0.94764143   -7.1872762    649.13251  0.028455748  0.028322395            3 
 1902000   0.96473617   -7.1592968    650.59069  0.028504675  0.028315836            3 
 1903000   0.95420349   -7.1453624    651.10804   0.02851235  0.028309401            2 
 1904000   0.95070896    -7.167602    651.28681    0.0285052  0.028302957            4 
 1905000   0.94520721    -7.153059     650.9776   0.02847671  0.028296558            1 
 1906000   0.93238019   -7.1808832    650.52997  0.028442199  0.028290159            3 
 1907000   0.95239418   -7.1894814    651.09829  0.028452119  0.028283674            5 
 1908000      0.95241   -7.1640002    651.90077  0.028472256  0.028277166            2 
 1909000   0.94135187   -7.2008376    651.69393  0.028448312  0.028270708            1 
 1910000   0.92372184   -7.2055769    652.76064  0.028479958  0.028264307            2 
 1911000   0.94815812   -7.1875773    652.51277  0.028454246  0.028258013            4 
 1912000   0.95656053    -7.130673    654.33494  0.028518782  0.028251681            3 
 1913000   0.96250703   -7.1771238    653.92204  0.028485888  0.028245393            2 
 1914000   0.94301151   -7.1933045    654.64445  0.028502458   0.02823912            2 
 1915000   0.94478586    -7.191755    653.75545  0.028448888  0.028232854            3 
 1916000   0.94879661   -7.1803782    654.37133  0.028460827  0.028226617            2 
 1917000   0.94622149   -7.1709191    655.73817  0.028505398  0.028220404            5 
 1918000   0.94412946   -7.1745244    655.90681  0.028497863  0.028214166            5 
 1919000   0.93888618   -7.2107406    654.81358  0.028435538  0.028207842            2 
 1920000   0.93966604   -7.1987617    654.01984  0.028386278  0.028201582            2 
 1921000    0.9384269   -7.1453436    656.21553   0.02846675  0.028195291            1 
 1922000   0.92945242   -7.1935891    654.32637   0.02837003  0.028188885            3 
 1923000   0.94513509   -7.1322589    655.85776   0.02842164  0.028182463            2 
 1924000   0.94868025   -7.1813149     657.0796  0.028459789  0.028176125            6 
 1925000   0.93220511   -7.1488202    657.08841  0.028445386  0.028169712            2 
 1926000   0.93774779   -7.1832648    653.58834  0.028279177  0.028163309            4 
 1927000   0.94296874   -7.1760501    653.85936  0.028276222  0.028156837            2 
 1928000   0.94803594   -7.1746216    656.01121  0.028354565  0.028150376            3 
 1929000   0.95229386   -7.1505592    656.76979  0.028372637  0.028143939            2 
 1930000   0.93439305   -7.2019972    656.75982  0.028357505  0.028137541            2 
 1931000   0.91591769   -7.1825021    656.50503  0.028331824  0.028131136            4 
 1932000   0.93262322   -7.1460198    655.54655  0.028275817  0.028124694            2 
 1933000   0.92285912   -7.1938014    654.96373  0.028236063  0.028118201            4 
 1934000   0.94025344   -7.1475422    657.32856  0.028323361  0.028111637            3 
 1935000   0.94252844   -7.1626939    656.95395   0.02829259  0.028105172            6 
 1936000   0.97779886   -7.1984763    656.57735  0.028261766  0.028098635            2 
 1937000   0.93803863   -7.2237792    655.27257  0.028191042  0.028092127            4 
 1938000   0.95676397   -7.1936241    655.03534  0.028166294  0.028085616            4 
 1939000   0.93488168   -7.1581701    657.35616  0.028251511  0.028079103            2 
 1940000   0.92991376   -7.1869199    655.38911  0.028152453  0.028072612           10 
 1941000   0.91683428   -7.1659082    657.88039  0.028244908  0.028066104            3 
 1942000   0.92038294   -7.1968731    656.25661  0.028160685  0.028059605            2 
 1943000   0.93604711   -7.1748043    659.03605  0.028265399  0.028053093            2 
 1944000   0.94529079   -7.1724451    657.74093  0.028195342  0.028046651            3 
 1945000   0.95121743   -7.1865114    658.19904  0.028200473  0.028040088            4 
 1946000   0.93844001   -7.1684227    658.02387   0.02817848  0.028033499            5 
 1947000   0.92047283   -7.1934066    657.12581   0.02812557  0.028026868            2 
 1948000   0.95321623   -7.1698775    659.69224  0.028220921  0.028020244            5 
 1949000     0.941201   -7.2133996    658.24613   0.02814461  0.028013679            3 
 1950000   0.93527206   -7.1931086    658.53495  0.028142519  0.028007098            3 
 1951000   0.92502077   -7.1857478    659.20299  0.028156629  0.028000475            2 
 1952000   0.95758123   -7.1783256     656.6303  0.028032373  0.027993897            2 
 1953000   0.92804004   -7.2152295    657.28606     0.028046  0.027987296            3 
 1954000    0.9445555   -7.1747674    659.26689  0.028116125  0.027980708            3 
 1955000   0.94867024   -7.1641461    658.88717  0.028085557  0.027973999            2 
 1956000   0.95598088   -7.1975733    657.45875  0.028010342  0.027967204            4 
 1957000   0.93268896    -7.159826    658.82215  0.028054086  0.027960435            4 
 1958000   0.91253722   -7.2147064    656.98313  0.027961488    0.0279536            3 
 1959000    0.9444665   -7.2050043    657.02089  0.027948821  0.027946752            4 
 1960000   0.93938011   -7.2329348    655.98401  0.027890476  0.027939748            5 
 1961000    0.9628981   -7.2160042     657.5225  0.027941633  0.027932713            3 
 1962000   0.92688407   -7.2004687    657.01149  0.027905687  0.027925734            1 
 1963000   0.94647845   -7.1771704    659.69445  0.028005368  0.027918818            2 
 1964000   0.93977126   -7.2087746    657.89452  0.027914737  0.027911924            1 
 1965000   0.95106445   -7.1877418     657.5137  0.027884381  0.027904973            1 
 1966000   0.95243982   -7.1902746    659.30846  0.027946272   0.02789798            2 
 1967000    0.9460539   -7.1748117    659.02694  0.027920138  0.027891014            4 
 1968000   0.94353031   -7.1728087    659.41557  0.027922407  0.027884044            3 
 1969000   0.93255362   -7.1907041    658.44503   0.02786715  0.027877085            3 
 1970000   0.94633231   -7.2002487    658.25399  0.027844923  0.027870062            5 
 1971000   0.92936746   -7.2013565    658.07535  0.027823243  0.027863074            2 
 1972000   0.93940512   -7.1827079    660.02349  0.027891459  0.027856039            2 
 1973000   0.95035811   -7.2124815    657.12789  0.027755022   0.02784907            3 
 1974000   0.92361685    -7.206881    658.81615  0.027812232  0.027842088            3 
 1975000   0.94258669   -7.2008222    657.23108  0.027731269  0.027835107            3 
 1976000   0.92531914   -7.1989798    660.36492  0.027849398  0.027828076            8 
 1977000   0.95368329   -7.1987295     660.8826  0.027857132  0.027821035            6 
 1978000   0.94141171   -7.2109746    659.25699  0.027774562  0.027814034            3 
 1979000   0.95334281   -7.2302233     660.4593  0.027811155  0.027807028            3 
 1980000   0.92827042   -7.2078707    661.62483  0.027846163   0.02780009            2 
 1981000    0.9525651   -7.1874913    660.02856  0.027764957   0.02779316            3 
 1982000   0.93951271   -7.2051595    661.37871  0.027807716  0.027786195            3 
 1983000   0.95390522   -7.1843189    662.76793  0.027852073   0.02777918            4 
 1984000   0.93126865   -7.1974576    661.24307  0.027773986  0.027772176            9 
 1985000   0.94764554   -7.2134228    659.46294  0.027685262  0.027765101            6 
 1986000   0.93410051   -7.2387153    660.47269  0.027713691  0.027758039            2 
 1987000   0.93534624   -7.1919213    660.71925  0.027710084  0.027751026            4 
 1988000   0.91235738   -7.2183603    660.99978  0.027707905  0.027744044            2 
 1989000   0.94229478   -7.2247772    661.66358  0.027721786  0.027737013            2 
 1990000   0.92763048   -7.1916157    662.35317  0.027736732  0.027730054            2 
 1991000    0.9357492    -7.200261    663.04599  0.027751799  0.027723111            2 
 1992000   0.92026161   -7.2277088    662.04586  0.027696028  0.027716158            4 
 1993000   0.93367649   -7.2123332    663.14311  0.027728011  0.027709151            2 
 1994000    0.9284917   -7.2106461    662.84198  0.027701521   0.02770221            2 
 1995000   0.92164926   -7.1999492     663.1423   0.02770018  0.027695286            2 
 1996000   0.94224837   -7.2224981    663.55887  0.027703694  0.027688296            4 
 1997000   0.93541471   -7.2172247    661.93531  0.027622071  0.027681325            3 
 1998000   0.94651297   -7.2118826    663.65522  0.027679981  0.027674357            3 
 1999000   0.95311167   -7.1697789    664.10465  0.027684869  0.027667392            7 
 2000000   0.94466704    -7.210736    662.40124  0.027600052  0.027660439            4 
 2001000   0.93704032   -7.2438038    663.39851  0.027627791  0.027653457            1 
 2002000   0.94786714   -7.1934366    664.53321  0.027661223  0.027646546            3 
 2003000   0.90493432   -7.2112497    664.47667   0.02764506  0.027639549            3 
 2004000   0.95945932   -7.2280479    665.29197  0.027665169  0.027632581            3 
 2005000    0.9318331   -7.2118367    663.59179  0.027580706  0.027625569            2 
 2006000   0.96278217   -7.2053323    665.21879  0.027634546  0.027618533            3 
 2007000   0.93795753   -7.2060834      665.439   0.02762992  0.027611568            2 
 2008000   0.93912269   -7.2074227    664.71969  0.027586309  0.027604539            3 
 2009000   0.92498185   -7.2264143    663.68404  0.027529618  0.027597538            5 
 2010000   0.93426351   -7.2143578    666.90896  0.027649625  0.027590531            3 
 2011000   0.92414028   -7.2069127    664.41298  0.027532446  0.027583553            2 
 2012000   0.93180812   -7.2740621    664.90522  0.027539149  0.027576502            3 
 2013000   0.92995167   -7.2133596    667.12096  0.027617195   0.02756954            3 
 2014000   0.93297524   -7.2193848     666.7149  0.027586681  0.027562625            2 
 2015000   0.94416155   -7.1861506    666.26487  0.027554379  0.027555721            5 
 2016000   0.92768026   -7.2175455    667.57645  0.027594926  0.027548849            4 
 2017000   0.94768691   -7.2449983    666.48182  0.027536019  0.027541983            2 
 2018000   0.93083629   -7.2191097    667.70663  0.027572953  0.027535035            2 
 2019000   0.90880192   -7.1996957     668.3874  0.027587395  0.027528112            3 
 2020000   0.93391311   -7.2414704    667.77333  0.027548405  0.027521205            3 
 2021000   0.93913363   -7.2123703    669.15852   0.02759189  0.027514326            5 
 2022000   0.93632174   -7.2006964    667.55363  0.027512102  0.027507507            2 
 2023000   0.93425655   -7.2195921    669.62146  0.027583682  0.027500647            3 
 2024000   0.92307118    -7.199639    668.74726   0.02753406  0.027493784            2 
 2025000   0.93357826   -7.2346528    668.61717   0.02751511  0.027486933            5 
 2026000   0.92687994   -7.2300222    668.23816   0.02748594  0.027479946            3 
 2027000   0.90487734   -7.2076363    670.58337  0.027568795  0.027473093            2 
 2028000   0.92164255   -7.2156414    669.01111  0.027490595  0.027466206            6 
 2029000   0.93933248    -7.233863    669.24346  0.027486589  0.027459301            6 
 2030000   0.94157573   -7.2152159    669.03176  0.027464358  0.027452338            2 
 2031000   0.91918957   -7.2434235    667.74896  0.027398201   0.02744538            5 
 2032000    0.9137791    -7.225692     668.9941  0.027435782  0.027438403            6 
 2033000   0.92428633   -7.2318145    670.14357  0.027469404  0.027431452            3 
 2034000   0.91435383   -7.2131665    669.67337  0.027436634  0.027424411            3 
 2035000   0.91646006    -7.198144    671.61522  0.027502671  0.027417541            2 
 2036000   0.92216032    -7.216732    670.44304  0.027441185  0.027410617            4 
 2037000   0.91247287   -7.2087178     670.4855  0.027429451  0.027403685            6 
 2038000     0.923134   -7.2181121    671.92349  0.027474791  0.027396809            2 
 2039000   0.93821133   -7.2207236    670.99156  0.027423229  0.027389946            3 
 2040000   0.92532274   -7.1771204    672.93741  0.027489273  0.027383102            2 
 2041000   0.91034805   -7.2353756    670.76224  0.027386993  0.027376264            6 
 2042000   0.93301942   -7.2375312     670.7908  0.027374747  0.027369376            5 
 2043000   0.91995324   -7.2009759    670.82988  0.027362942  0.027362566            3 
 2044000    0.9154914   -7.2140525     673.1503  0.027444158  0.027355735            3 
 2045000   0.93389228   -7.2225137    670.26253  0.027313062  0.027348949            1 
 2046000   0.92615613   -7.2483902    672.69991  0.027398986  0.027342084            4 
 2047000   0.91510265   -7.1998461    674.20255  0.027446774  0.027335192            3 
 2048000    0.9403818   -7.2230157      673.767  0.027415649  0.027328439            3 
 2049000    0.9197509   -7.1854168    674.39855  0.027427955   0.02732164            7 
 2050000   0.91824473   -7.2378478    673.23554  0.027367298  0.027314824            4 
 2051000   0.93198834   -7.2494706    676.95424  0.027505048  0.027307985            5 
 2052000   0.93480906   -7.2292776    672.76983  0.027321712  0.027301149            3 
 2053000   0.93370357   -7.2137065    674.63816  0.027384241  0.027294492            4 
 2054000   0.93249481   -7.2125711    674.83556  0.027378917  0.027287752            4 
 2055000    0.9237473   -7.2516493    674.81001  0.027364559  0.027281048            2 
 2056000     0.922896   -7.2141054    675.06597  0.027361623  0.027274308            4 
 2057000   0.91749813   -7.2460393    675.16285  0.027352246   0.02726749            4 
 2058000   0.91996221   -7.1957991    676.86902  0.027408043  0.027260732            2 
 2059000   0.91479747   -7.2164587    675.25409  0.027329371  0.027253976            4 
 2060000   0.92627543   -7.2335504    674.34719  0.027279417  0.027247189            3 
 2061000   0.90709258   -7.2132655    676.67098   0.02736014  0.027240433            4 
 2062000   0.91837051   -7.2180623    674.22265  0.027247925  0.027233691            2 
 2063000   0.92563351   -7.2433374    675.18634  0.027273644  0.027226922            3 
 2064000   0.93167481   -7.1899879    677.53483   0.02735525  0.027220099            6 
 2065000     0.892217   -7.1691642      678.028  0.027361905  0.027213314            4 
 2066000   0.92151639   -7.2190114    675.15852  0.027232919  0.027206461            6 
 2067000   0.92119504   -7.1964065    675.00142   0.02721341  0.027199609            2 
 2068000   0.92379887   -7.2320498    677.45636  0.027299176  0.027192812            4 
 2069000   0.92953723    -7.238988    674.68128   0.02717421  0.027185955            9 
 2070000   0.93437379   -7.2117893    676.57394  0.027237276  0.027179071            2 
 2071000   0.93554656   -7.2388848    675.55693  0.027183202  0.027172191            3 
 2072000   0.91052586   -7.2126457    676.98155  0.027227379  0.027165329            8 
 2073000   0.91048093   -7.2338989    676.76631  0.027205592  0.027158581            2 
 2074000   0.92741686   -7.2296136    674.65363  0.027107587  0.027151697            2 
 2075000   0.90428157   -7.2166206    674.67648  0.027095441  0.027144824            2 
 2076000   0.94134952   -7.2167637    677.02934  0.027176836  0.027137889            3 
 2077000   0.89766627   -7.2331815    677.99215  0.027202381  0.027131031            2 
 2078000   0.90383059   -7.2402555    679.46244  0.027248253  0.027124168            6 
 2079000   0.91515175   -7.2542222    677.85497  0.027170714  0.027117339            3 
 2080000   0.91539641   -7.2400304    675.81016  0.027075728  0.027110485            1 
 2081000    0.9392195   -7.2620752    676.77583  0.027101387  0.027103626            3 
 2082000   0.92556205   -7.2291121    678.58174  0.027160652  0.027096747            3 
 2083000   0.91418842   -7.2402158    677.77983  0.027115532  0.027089848            3 
 2084000   0.91697118   -7.2581668    677.61234  0.027095823  0.027082893            2 
 2085000    0.9127882   -7.2351482    677.15445  0.027064526   0.02707589            1 
 2086000   0.91446645   -7.2595284    677.91663     0.027082  0.027068918            2 
 2087000   0.90721996   -7.2302798    677.82849  0.027065504  0.027061859            3 
 2088000   0.88943564    -7.216452    677.45835  0.027037769  0.027054899            3 
 2089000   0.91037136   -7.2548615    676.68252  0.026993878  0.027047938            4 
 2090000   0.91382902   -7.2273379    676.77161  0.026984514  0.027040924            4 
 2091000   0.91623153   -7.2296868    677.15177  0.026986759  0.027033949            2 
 2092000   0.91168697   -7.2413422     679.1758  0.027054486  0.027026962            4 
 2093000   0.92701271   -7.2221173    676.98307  0.026954255  0.027019988            4 
 2094000    0.8841425   -7.2249786    680.62403  0.027086279  0.027013067            1 
 2095000   0.92994723   -7.2485856    680.06333  0.027051047  0.027006266            3 
 2096000   0.91554593   -7.2187603    679.67461  0.027022686  0.026999366            4 
 2097000    0.9064174   -7.2391514    680.50828   0.02704293  0.026992442            2 
 2098000   0.93282774   -7.1824488    681.09225  0.027053235  0.026985613            2 
 2099000   0.92930789   -7.2177133    680.58781   0.02702032  0.026978796            4 
 2100000   0.91575585   -7.2329979    680.77081  0.027014715  0.026971897            2 
 2101000   0.92828122   -7.2318928    681.91877  0.027047389  0.026965025            2 
 2102000   0.91191441   -7.2476677    681.71446  0.027026422  0.026958188            5 
 2103000   0.93398837   -7.2514185     682.3387  0.027038307  0.026951388            4 
 2104000    0.9169324   -7.2455401    683.31721  0.027064211  0.026944632            3 
 2105000   0.89444002   -7.2333242    683.41612   0.02705527  0.026937872            2 
 2106000   0.93758098   -7.2725523      681.264  0.026957265  0.026931088            3 
 2107000   0.92143178   -7.2434836    682.46995  0.026992167  0.026924225            3 
 2108000   0.93011542   -7.2133091     682.8983  0.026996296  0.026917413            4 
 2109000   0.91706489   -7.2590316    683.24815  0.026997319  0.026910681            3 
 2110000   0.90748623   -7.2537021     681.5949   0.02691923  0.026903905            6 
 2111000    0.9068471    -7.245158    681.91977  0.026919302  0.026897089            2 
 2112000   0.91085847   -7.2447112    683.66264  0.026975325  0.026890279            3 
 2113000   0.91475719    -7.229914    684.04675  0.026977707  0.026883522            4 
 2114000    0.9112085   -7.2300014    682.60941  0.026908286  0.026876707            2 
 2115000   0.92005695   -7.2496096    682.81183  0.026903539  0.026869821            6 
 2116000   0.90583144   -7.2557284    681.94896  0.026856843  0.026862926            5 
 2117000   0.91174857   -7.2403269    682.12633  0.026851139  0.026856034            1 
 2118000   0.91785097   -7.2368526    683.87369  0.026907211  0.026849211            1 
 2119000    0.9129875   -7.2123136     684.1294   0.02690457  0.026842413            3 
 2120000   0.91972338   -7.2397125    682.15668  0.026814335  0.026835564            3 
 2121000   0.92490854   -7.2383233    684.46046  0.026892207  0.026828769            4 
 2122000   0.91267486   -7.2517027    684.31247  0.026873722  0.026821972            2 
 2123000   0.92100864   -7.2377412    685.13541  0.026893367  0.026815139            3 
 2124000   0.91257547   -7.2580574    683.39497  0.026812421  0.026808358            2 
 2125000   0.91503324   -7.2619544    684.81729   0.02685558  0.026801552            6 
 2126000   0.92891942   -7.2608881    684.64014  0.026836004  0.026794738            2 
 2127000   0.91805395   -7.2472268    684.74424  0.026827466   0.02678798            3 
 2128000   0.89082317   -7.2701407    685.15363  0.026830891  0.026781173            5 
 2129000   0.90874884   -7.2820533    685.13666  0.026817624  0.026774275            6 
 2130000   0.89872034   -7.2199686    685.61857  0.026823888  0.026767438            2 
 2131000   0.92427597   -7.2552237    684.55502   0.02676971  0.026760608            4 
 2132000   0.91433478   -7.2284695      685.898  0.026809647  0.026753738            2 
 2133000   0.89712286   -7.2402777    686.27991  0.026811999   0.02674687            4 
 2134000   0.90222668    -7.268953    686.28415    0.0267996  0.026739954            2 
 2135000   0.89919816   -7.2444168    685.86914  0.026770849  0.026733051            4 
 2136000   0.90963504    -7.223374    686.21278  0.026771722  0.026726068            3 
 2137000   0.91565656   -7.2772734    684.75787   0.02670246  0.026719191            2 
 2138000   0.90162636   -7.2818943    685.83514  0.026731959    0.0267123            3 
 2139000   0.90315852   -7.2727361    685.90501  0.026722184  0.026705392            4 
 2140000   0.92340867   -7.2373671    686.22099  0.026722001  0.026698399            2 
 2141000   0.89038368    -7.245791    687.49949  0.026759283  0.026691469            5 
 2142000   0.91147755   -7.2276911    685.65335  0.026674967  0.026684538            4 
 2143000   0.91629543   -7.2394419    684.57122  0.026620439  0.026677609            4 
 2144000   0.91524113   -7.2617007    685.45306  0.026642299  0.026670654            7 
 2145000   0.90391783   -7.2596314    686.87756   0.02668522   0.02666367            2 
 2146000   0.92178087   -7.2558555    686.26362  0.026648945   0.02665665            3 
 2147000   0.92522137   -7.2739677    687.07131  0.026667882  0.026649638            4 
 2148000   0.91807709   -7.2507812    686.84219  0.026646578  0.026642669            3 
 2149000   0.92372207   -7.2560044     686.7374  0.026630115    0.0266357            5 
 2150000    0.9004183   -7.2455916    686.99716  0.026627797  0.026628749            3 
 2151000   0.91000976   -7.2605691    687.78719  0.026646025  0.026621832            2 
 2152000    0.9334442   -7.2922023     688.6333  0.026666407  0.026614943            8 
 2153000   0.92477301   -7.2817355    686.67104  0.026578071  0.026608035            6 
 2154000   0.92109351   -7.2697659    688.68595  0.026643684  0.026601046            4 
 2155000   0.90468045   -7.2627312    687.31186  0.026578185  0.026594072            6 
 2156000   0.91650656   -7.2808815    688.56495  0.026614292  0.026587095            4 
 2157000   0.89540571   -7.2795662    690.01388  0.026657931  0.026580212            6 
 2158000   0.89070326   -7.2608722    689.69352  0.026633206   0.02657334            1 
 2159000   0.90199401   -7.2744482    688.45863  0.026573206  0.026566439            3 
 2160000    0.9078395   -7.2786231    689.42146   0.02659805  0.026559551            5 
 2161000   0.90367287   -7.2699239    689.98571  0.026607501  0.026552667            2 
 2162000   0.90883455   -7.2892413    688.19636  0.026526224  0.026545696            3 
 2163000   0.90238806   -7.2686613    689.39182  0.026560018  0.026538786            2 
 2164000    0.9164032   -7.2580061    689.27063  0.026543077    0.0265319            5 
 2165000   0.92273498   -7.2804524    688.86759  0.026515304  0.026524958            3 
 2166000   0.91149782   -7.2484974     690.4994  0.026565843  0.026518072            2 
 2167000    0.9102113   -7.2936064    688.39793  0.026472771  0.026511155            2 
 2168000   0.88798773   -7.2369155    690.72001  0.026549816  0.026504198            4 
 2169000   0.91772784   -7.2720869    689.57074   0.02649342  0.026497254            3 
 2170000   0.88658655   -7.2601818    689.81799  0.026490706  0.026490331            3 
 2171000   0.90072136   -7.2948288    690.53295  0.026505948  0.026483363            2 
 2172000   0.90275976    -7.292913    688.50605  0.026415978  0.026476437            3 
 2173000   0.89805405   -7.2680148    692.25603  0.026547631  0.026469541            2 
 2174000   0.90919243   -7.2681181    690.82391  0.026480524  0.026462606            2 
 2175000   0.89806387   -7.2622483     691.4736  0.026493241  0.026455627            5 
 2176000   0.90757052   -7.2903696    691.30801  0.026474725  0.026448633            7 
 2177000   0.90025473   -7.2759369    689.98467  0.026411908  0.026441695            2 
 2178000   0.90866748   -7.2882716    691.24128   0.02644786  0.026434802            2 
 2179000   0.88152416   -7.2815247    692.18934   0.02647198   0.02642792            2 
 2180000   0.88562945   -7.2879328    691.63268  0.026438558  0.026420983            2 
 2181000    0.9112914   -7.2573723    692.69315  0.026466955  0.026414171            2 
 2182000   0.89368597   -7.2448003    692.21499  0.026436564  0.026407327            3 
 2183000   0.89072441   -7.2923492    694.07396  0.026495417  0.026400458            5 
 2184000   0.89550241    -7.276087    692.49233  0.026422937  0.026393617            4 
 2185000   0.90903216   -7.2653331    691.41218  0.026369648  0.026386777            4 
 2186000    0.9163701   -7.2476297     694.0772  0.026459179  0.026379959            2 
 2187000   0.90999819        -7.28    694.20538  0.026451965  0.026373224            2 
 2188000    0.8745922   -7.2668775    693.35587  0.026407521  0.026366405            3 
 2189000   0.92058232   -7.2922802    693.53759  0.026402375  0.026359558            3 
 2190000   0.90015538   -7.2462284    694.39639  0.026422998  0.026352764            4 
 2191000   0.90158546   -7.2905855    694.44812  0.026412906  0.026345949            3 
 2192000   0.91410151   -7.2979461    694.48126  0.026402116  0.026339048            2 
 2193000   0.88821377   -7.3033579    693.17776  0.026340544   0.02633213            3 
 2194000   0.90008601   -7.2716048    693.66452  0.026347027  0.026325218            4 
 2195000   0.90707261   -7.2915466    694.22574   0.02635633  0.026318331            4 
 2196000   0.89880754   -7.2921123    692.70266  0.026286531  0.026311386            2 
 2197000   0.88398556   -7.3047217    693.67506   0.02631145  0.026304434            4 
 2198000   0.92104121   -7.3027731    694.00645  0.026312043  0.026297517            5 
 2199000   0.90111163   -7.2694543    694.50647  0.026319027  0.026290633            2 
 2200000   0.91236228   -7.2500525    695.94438   0.02636153  0.026283793            8 
 2201000   0.90119515   -7.2665816     695.2161  0.026321979  0.026276904            3 
 2202000   0.88999397   -7.2361529    696.35959    0.0263533   0.02627007            7 
 2203000   0.87688542   -7.2550158    695.35487  0.026303331  0.026263216            3 
 2204000   0.91021989   -7.2943668    695.33785  0.026290754  0.026256329            3 
 2205000   0.91292758   -7.2618782    693.86289  0.026223087  0.026249382            2 
 2206000   0.87998323    -7.279462    695.21305  0.026262204  0.026242425            4 
 2207000   0.88463833   -7.2947395    696.10016    0.0262838   0.02623547            2 
 2208000   0.91073792   -7.2718431    697.29959  0.026317164  0.026228543            8 
 2209000   0.90480223   -7.2609063    694.94807  0.026216541  0.026221641            4 
 2210000   0.88756282   -7.3067351    696.35797  0.026257842  0.026214694            3 
 2211000   0.89416144   -7.2635476    695.02932  0.026195889  0.026207735            6 
 2212000   0.90688131   -7.2404601    697.47634  0.026276233  0.026200847            3 
 2213000   0.89681323   -7.2661194    697.05784  0.026248601  0.026193964            4 
 2214000   0.91423766   -7.2442757    698.77543  0.026301394  0.026187144            3 
 2215000   0.88778472   -7.2688057    697.77881  0.026252024  0.026180325            5 
 2216000   0.89762134   -7.2848237    696.50082  0.026192119  0.026173488            2 
 2217000   0.90178386   -7.3216438    697.56876  0.026220446   0.02616668            3 
 2218000   0.89815245   -7.2548429    701.35292  0.026350801  0.026159899            1 
 2219000   0.90628814   -7.3006006    696.54364  0.026158316  0.026153059            4 
 2220000   0.88771936   -7.2584844    698.49805  0.026219897  0.026146188            3 
 2221000   0.90054399   -7.2490252    697.86275  0.026184255  0.026139336            5 
 2222000   0.90271316   -7.3048788    697.66217  0.026164948  0.026132473            4 
 2223000   0.90318549   -7.2962861     698.1451  0.026171281  0.026125624            3 
 2224000   0.89222196   -7.2782101    698.35649  0.026167434  0.026118728            5 
 2225000   0.90272912   -7.3065408    698.20024  0.026149822  0.026111926            2 
 2226000   0.88953506   -7.2983384    698.30454  0.026141979  0.026105129            3 
 2227000    0.9017514   -7.2805822    700.31207  0.026205361  0.026098293            2 
 2228000   0.89216479   -7.3206397    698.40503  0.026122271  0.026091446            4 
 2229000   0.90374431   -7.2827452    701.26009  0.026217291  0.026084657            3 
 2230000   0.88036971   -7.2765315    701.42033  0.026211522  0.026077851            2 
 2231000   0.87465872   -7.2806027    701.00894  0.026184407  0.026071083            3 
 2232000   0.90263842   -7.3005299    699.29898  0.026108833  0.026064236            3 
 2233000   0.91413135   -7.2698612    701.08224   0.02616369  0.026057402            3 
 2234000   0.89687119   -7.2876767    700.23648   0.02612043  0.026050581            3 
 2235000   0.88339379   -7.2975201    699.30921  0.026074169  0.026043775            4 
 2236000   0.90100008   -7.2962584    699.50125  0.026069665   0.02603697            3 
 2237000   0.90423455   -7.3108873    700.37546  0.026090577  0.026030196            5 
 2238000   0.89518384   -7.3106979    701.20516  0.026109814  0.026023385            3 
 2239000   0.86999658   -7.3431489    699.56939  0.026037271  0.026016522            5 
 2240000   0.90676937    -7.312875    700.37605  0.026055657  0.026009675            3 
 2241000   0.90232187    -7.294409    699.12099  0.025997359   0.02600279           10 
 2242000   0.89195083   -7.2951011    701.61606  0.026078504  0.025995934            9 
 2243000   0.88884123   -7.3236035    701.00935  0.026044336  0.025989069            4 
 2244000   0.91351951   -7.2892608    700.69796  0.026021166  0.025982302            3 
 2245000   0.89211564    -7.312041    701.52809  0.026040389  0.025975461            2 
 2246000   0.89615239   -7.2940999    702.70857  0.026072595  0.025968601            4 
 2247000   0.88142504   -7.2992974     702.4189  0.026050248   0.02596174            4 
 2248000   0.88430832   -7.3171953    700.71464  0.025975483  0.025954856            3 
 2249000   0.88843408   -7.3132619    703.00421   0.02604877   0.02594801            6 
 2250000   0.89003804    -7.299624    701.24144  0.025971905  0.025941162            3 
 2251000   0.88355483   -7.2491329    703.53759  0.026045372  0.025934282            2 
 2252000   0.87356402   -7.3085198    701.98088  0.025976202  0.025927449            2 
 2253000   0.90221482   -7.3071027    701.47893  0.025946106  0.025920644            8 
 2254000   0.89024291   -7.2642826    704.63654  0.026051336  0.025913828            3 
 2255000   0.88463492   -7.2925096    704.30038  0.026027361  0.025907041            4 
 2256000   0.88378992   -7.2726268    703.34737  0.025980621  0.025900226            2 
 2257000   0.87785846    -7.300199    703.85538  0.025987867  0.025893461            1 
 2258000   0.89117595   -7.3232397    702.25155  0.025917167  0.025886628            4 
 2259000    0.8911224   -7.2948361    703.81425  0.025963341  0.025879756            3 
 2260000   0.90805672   -7.2930183    704.07089  0.025961316  0.025873015            2 
 2261000    0.8826418   -7.3146473    701.62981  0.025859863  0.025866154            6 
 2262000   0.88038041   -7.2977614    702.13743  0.025867132  0.025859274            2 
 2263000   0.87716693    -7.309357    702.15207  0.025856241  0.025852429            3 
 2264000   0.90454551   -7.2973241    703.26909  0.025885935  0.025845523            2 
 2265000   0.89860387   -7.3292949    703.31829  0.025876317  0.025838665            3 
 2266000   0.88546715   -7.2944541     705.4981  0.025945061  0.025831788            2 
 2267000   0.89431532   -7.3068214    702.99355  0.025841551  0.025824912            2 
 2268000   0.89716349   -7.2794785    703.46126  0.025847342  0.025817962            4 
 2269000   0.89664797   -7.2978189    704.06072  0.025857967  0.025811049            2 
 2270000   0.88591993   -7.3160475    704.25439  0.025853685  0.025804084            4 
 2271000   0.87849501   -7.2696829    702.06884  0.025762103   0.02579715            3 
 2272000   0.87973522    -7.279993    703.92582  0.025818875  0.025790309            3 
 2273000   0.89674371   -7.3059662    705.56413  0.025867581  0.025783482            5 
 2274000   0.90596064   -7.3168723    704.70429  0.025824696  0.025776627            4 
 2275000   0.88337895   -7.2838018    705.04825  0.025825943  0.025769788            7 
 2276000   0.88331359   -7.3132124    706.17065  0.025855692   0.02576294            6 
 2277000    0.8950602   -7.3119336    705.29615  0.025812332  0.025756096            3 
 2278000    0.8702501   -7.2936137    706.63705  0.025850053  0.025749273            4 
 2279000   0.90775346   -7.3162311    704.79486  0.025771349  0.025742408            5 
 2280000   0.89054857   -7.3095109    705.32388  0.025779381  0.025735557            2 
 2281000   0.88923071   -7.3027321    707.43454   0.02584519  0.025728712            3 
 2282000   0.89136166   -7.3453879    705.24995  0.025754088   0.02572188            2 
 2283000   0.88210513   -7.2938203      706.537  0.025789787  0.025715019            3 
 2284000   0.86951079   -7.3048666    705.89259  0.025754984   0.02570827            3 
 2285000   0.90290314   -7.3468966    704.97629  0.025710295  0.025701438            4 
 2286000   0.88268309   -7.3258932    704.07857  0.025666323  0.025694559            3 
 2287000   0.88902208   -7.3421886    707.57895  0.025782646  0.025687686            3 
 2288000   0.88958843   -7.2944033    706.17997  0.025720424  0.025680845            3 
 2289000   0.91068426    -7.298193    707.18654  0.025745833  0.025673995            7 
 2290000    0.8658717   -7.3056474    705.99281   0.02569115  0.025667171            4 
 2291000   0.90035423   -7.3080686    707.73843  0.025743432  0.025660375            2 
 2292000   0.89202034   -7.3236452    707.44183  0.025721416  0.025653584            2 
 2293000   0.87738358    -7.327436    708.99436  0.025766622  0.025646811            5 
 2294000   0.88733997   -7.2820159    709.04668   0.02575729  0.025640031            7 
 2295000   0.91032611   -7.2893068    707.08529  0.025674847  0.025633288            4 
 2296000   0.88273216   -7.3124411    706.47172  0.025641395  0.025626502            6 
 2297000   0.91187828   -7.3070478    707.74119  0.025676288  0.025619688            2 
 2298000   0.88883355   -7.3003204    708.16723  0.025680564  0.025612868            6 
 2299000   0.88802322   -7.3105944    707.63798   0.02565021  0.025606068            3 
 2300000   0.88872149   -7.3069201    708.71372  0.025678033  0.025599253            2 
 2301000   0.89855854   -7.3084914    708.46364  0.025657817  0.025592475            4 
 2302000   0.87996043   -7.3239659    709.09871  0.025669661  0.025585693            3 
 2303000   0.89550739      -7.2702    711.24268  0.025736094  0.025578949            3 
 2304000   0.86602208   -7.3003675     710.6569  0.025703736  0.025572213            3 
 2305000    0.8758468    -7.290362    709.31338  0.025644012  0.025565471            5 
 2306000   0.88992423    -7.288465    708.63942  0.025608537  0.025558691            4 
 2307000   0.89106805   -7.3212726    709.13487  0.025615333  0.025551924            2 
 2308000   0.85374292   -7.3200715    708.83284  0.025593329  0.025545155            2 
 2309000   0.87681625   -7.3122066    710.95383  0.025658793  0.025538394            2 
 2310000   0.87795325   -7.3197344    710.16652  0.025619283  0.025531594            2 
 2311000   0.86222076   -7.3048466    711.28238  0.025648434  0.025524793            3 
 2312000   0.87445839   -7.3247545    709.80266  0.025584006  0.025517997            2 
 2313000   0.87436703   -7.3122151    711.41852  0.025631162   0.02551124            6 
 2314000   0.88819484    -7.336669    708.52168  0.025515762  0.025504486            3 
 2315000   0.86701065   -7.3227106    710.66044  0.025581729  0.025497725            4 
 2316000   0.88523976   -7.3413384    710.50425  0.025565064  0.025491006            4 
 2317000   0.87594057   -7.3283216    711.73855  0.025598423  0.025484238            6 
 2318000   0.88596842   -7.3369328    711.04764  0.025562541  0.025477526            4 
 2319000   0.87980924   -7.3194264    711.40545  0.025564376  0.025470798            4 
 2320000   0.87114352   -7.3003297    711.00501  0.025538973  0.025464056            2 
 2321000   0.88254366   -7.3111015     711.8403   0.02555796  0.025457348            3 
 2322000   0.88144497   -7.2990416    712.08739  0.025555821  0.025450622            3 
 2323000   0.88158873   -7.3084049    709.97675  0.025469104  0.025443832            3 
 2324000   0.88177193   -7.3571559    710.85855  0.025489764  0.025437039            4 
 2325000   0.87489357    -7.330237    711.44288  0.025499745  0.025430207            2 
 2326000   0.86875784   -7.3210262    712.59593  0.025530092  0.025423454            3 
 2327000   0.87137214   -7.3101407    713.09293  0.025536919  0.025416714            3 
 2328000   0.87682411    -7.326007    712.00734   0.02548709  0.025409971            2 
 2329000    0.8889813   -7.3303695    712.93501  0.025509339  0.025403256            1 
 2330000   0.87462439   -7.3279804    711.94514  0.025462988   0.02539648            4 
 2331000   0.88945794   -7.3035226     711.2206  0.025426162  0.025389669            4 
 2332000   0.88187248   -7.3308975    712.32935   0.02545488   0.02538285            7 
 2333000   0.87581235    -7.319782    710.21675  0.025368508  0.025376028            5 
 2334000   0.87540685   -7.2940554     712.0069  0.025421555  0.025369311            3 
 2335000   0.88167074    -7.286974    712.76234  0.025437628   0.02536253            6 
 2336000   0.87807874    -7.337725    712.20172  0.025406739  0.025355712            7 
 2337000   0.87972286   -7.3226375    711.99353  0.025388444  0.025348907            4 
 2338000   0.89134906   -7.3159823     711.7388  0.025368506   0.02534208            3 
 2339000   0.87740318   -7.3427677    711.95297   0.02536529  0.025335236            7 
 2340000    0.8864973   -7.3312471    714.06414  0.025429635  0.025328449            4 
 2341000   0.87504559   -7.3328479    712.63027   0.02536773  0.025321606            2 
 2342000   0.89061361   -7.3560121    710.80875  0.025292085  0.025314721            6 
 2343000   0.86370725   -7.3308269    713.11232  0.025363221  0.025307842            2 
 2344000   0.88300161   -7.3128822    714.04732  0.025385641  0.025300989            4 
 2345000   0.88331061    -7.339726    712.04342  0.025303604  0.025294117            3 
 2346000   0.88472556   -7.3292004    712.87525  0.025322366  0.025287293            2 
 2347000   0.88895867   -7.3204967    712.67989   0.02530464  0.025280443            5 
 2348000   0.88293889   -7.3198768    715.43777  0.025391744  0.025273569           11 
 2349000   0.86190926   -7.3335649     712.5422  0.025278211  0.025266692            4 
 2350000   0.87752848   -7.3612819     712.8159   0.02527716  0.025259831            2 
 2351000   0.86986173   -7.3367148    714.77104   0.02533571  0.025253005            2 
 2352000   0.86362022   -7.3141392    712.48079  0.025243792  0.025246206            3 
 2353000   0.87600322   -7.3236949    714.53781  0.025305915  0.025239313            3 
 2354000   0.86933298   -7.3503874    713.66384  0.025264225  0.025232429            4 
 2355000    0.8838868   -7.3481458    714.68535  0.025289644  0.025225596            3 
 2356000   0.87266878   -7.3253304    714.22184  0.025262516  0.025218702            3 
 2357000   0.87946054   -7.3387317    714.13511  0.025248731  0.025211819            2 
 2358000   0.85137833   -7.3284936    714.39668  0.025247267  0.025204975            6 
 2359000   0.87421647   -7.3194082    713.73669   0.02521325  0.025198139            3 
 2360000   0.87182228   -7.3260474    712.99829  0.025176493  0.025191259            3 
 2361000   0.86920134   -7.3339842    715.37062  0.025249563  0.025184434            2 
 2362000   0.86150478   -7.3276799    715.27749  0.025235588  0.025177593            3 
 2363000   0.88565661   -7.3397721    714.85797  0.025210113  0.025170752            3 
 2364000   0.87072288   -7.3367888    714.11573  0.025173285   0.02516384            5 
 2365000   0.86634457   -7.3315954    715.22295  0.025201654  0.025156926            2 
 2366000   0.87692596   -7.3546771    714.30158  0.025158551  0.025149938            3 
 2367000   0.87880568   -7.3267956     716.0275  0.025208685  0.025142995            5 
 2368000   0.86861348   -7.3269172    716.80111  0.025225264    0.0251361            5 
 2369000   0.85463801   -7.3155016    713.49959   0.02509848  0.025129206            3 
 2370000   0.87443415    -7.332559    714.91285  0.025137583  0.025122332            3 
 2371000   0.88528524   -7.3191654    715.84773  0.025159839  0.025115433            2 
 2372000   0.88253433   -7.3137073    716.48516  0.025171626  0.025108494            4 
 2373000   0.87700396    -7.359873    713.35453  0.025051079  0.025101582            4 
 2374000    0.8631319   -7.3620836    716.05224  0.025135223  0.025094647            4 
 2375000   0.87791311   -7.3245026    716.80586  0.025151083  0.025087688            3 
 2376000    0.8585359   -7.3240643    716.03776  0.025113558  0.025080734            3 
 2377000   0.88180584   -7.2972091    714.74329  0.025057611  0.025073783            6 
 2378000   0.88862635   -7.2947625    716.99638   0.02512603  0.025066898            5 
 2379000   0.88896671   -7.3329021    714.24813    0.0250192  0.025059944            3 
 2380000   0.86403325   -7.3430007    716.64437   0.02509259  0.025052967            5 
 2381000   0.86713598   -7.3253364    714.96732  0.025023356  0.025046028            4 
 2382000   0.85682912   -7.3591874    716.00122  0.025049021  0.025038996            4 
 2383000    0.8649629   -7.3503508    716.31273  0.025049403  0.025031952            4 
 2384000   0.86722352   -7.3452057    716.29848  0.025038398  0.025024912            1 
 2385000   0.86449705   -7.3584015    715.86925  0.025012902  0.025017944            3 
 2386000    0.8625183   -7.3435565    715.85226  0.025001825  0.025010958            5 
 2387000   0.87238477   -7.3228123    717.78572  0.025058851  0.025004061            3 
 2388000   0.86810734   -7.3744948    715.13143  0.024955731  0.024997107            7 
 2389000   0.86097338   -7.3287865    716.58134  0.024995861  0.024990127            4 
 2390000   0.87542517   -7.3421141    715.08699  0.024933298  0.024983158            7 
 2391000   0.89849321   -7.3447335    715.39732  0.024933686  0.024976193            3 
 2392000   0.86373109    -7.327326     716.1351  0.024948965  0.024969245            2 
 2393000   0.84252993   -7.3540036    717.57769  0.024988776  0.024962281            2 
 2394000   0.87799179   -7.3153353    716.13697  0.024928187  0.024955261            3 
 2395000   0.88489211   -7.3392421    717.05493  0.024949719  0.024948273            2 
 2396000   0.88182272   -7.3549619    716.67496  0.024926091  0.024941275            3 
 2397000   0.86350508   -7.3118454    717.37103  0.024939891  0.024934307            3 
 2398000   0.87057147   -7.3646552    718.74647  0.024977289  0.024927378            3 
 2399000   0.87889729   -7.3599875    716.05881  0.024873517  0.024920427            6 
 2400000    0.8651956    -7.344837    718.01443  0.024931056  0.024913441           10 
 2401000   0.85353382   -7.3291243    717.27435  0.024894987  0.024906481            6 
 2402000    0.8734678   -7.3355415    719.08646   0.02494749  0.024899535            3 
 2403000    0.8537796   -7.3158207    719.08105  0.024936921  0.024892584            2 
 2404000   0.88156707   -7.3331116    719.44713  0.024939238  0.024885592            3 
 2405000   0.86735215   -7.3680369    719.20066  0.024920328  0.024878611            5 
 2406000   0.86044131   -7.3187436    717.09604  0.024837075  0.024871624            2 
 2407000   0.87493658   -7.3453016    718.05924  0.024860104  0.024864669            5 
 2408000   0.85332799    -7.349024    717.63545  0.024835114  0.024857736            5 
 2409000   0.85583028   -7.3476152    719.99484  0.024906422   0.02485076            3 
 2410000   0.86267916   -7.3097168    720.25851  0.024905204  0.024843861            3 
 2411000   0.85549834   -7.3496635    719.61239  0.024872542  0.024836941            3 
 2412000   0.86504197    -7.376134    719.22305  0.024848779  0.024829995            3 
 2413000   0.87256643   -7.3434855    719.71366  0.024855424  0.024823111            5 
 2414000   0.87854673   -7.3426755    719.44179  0.024835742  0.024816237            7 
 2415000   0.89526642   -7.3309666    720.86144  0.024874446  0.024809377            3 
 2416000   0.87190543   -7.3540755    720.30083  0.024844813  0.024802478            3 
 2417000   0.86807623   -7.3363019    718.34918  0.024767245  0.024795584            3 
 2418000   0.86795483   -7.3819798    719.39335  0.024792988   0.02478867            2 
 2419000   0.87025596   -7.3567307    721.35219   0.02485022  0.024781734            4 
 2420000   0.85676801   -7.3712399    719.54856  0.024777843  0.024774843            3 
 2421000    0.8604567   -7.3583354     719.4743  0.024765052  0.024767965            1 
 2422000   0.85912497   -7.3914932     719.2583  0.024747395  0.024761104            4 
 2423000   0.87267695   -7.3806354    718.34631  0.024705816  0.024754236            3 
 2424000   0.87146104   -7.3827131    721.34963  0.024798873  0.024747408            5 
 2425000   0.86151361   -7.3684432    722.74927  0.024836745  0.024740604            3 
 2426000   0.87455005   -7.3503518     722.4444  0.024816035  0.024733759            2 
 2427000   0.85712438   -7.3793502    723.66351  0.024847669  0.024726937            6 
 2428000   0.87935165   -7.3587066    722.65961  0.024802979  0.024720139            5 
 2429000   0.84898295   -7.3358149    722.28175  0.024779805   0.02471336            5 
 2430000   0.87356492   -7.3496163    723.32123  0.024805255  0.024706625            2 
 2431000   0.84883181   -7.3855423    722.03748  0.024751045  0.024699882            5 
 2432000   0.85067187   -7.3497037    723.44344  0.024789043  0.024693063            3 
 2433000   0.84753922   -7.3906129     722.9938  0.024763454  0.024686289            1 
 2434000   0.85568174    -7.355593    722.84882  0.024748316  0.024679482            6 
 2435000   0.86641999   -7.3488774     723.1645  0.024748956  0.024672701            6 
 2436000   0.86222003   -7.3251194    722.96334  0.024731915  0.024665898            4 
 2437000   0.84133805   -7.3830599    723.36432  0.024735478  0.024659058            2 
 2438000   0.85547761   -7.3625869    722.00122   0.02467874   0.02465225            2 
 2439000   0.85303801   -7.3522347    723.09078  0.024705849  0.024645443            5 
 2440000   0.88268019   -7.4002978     722.9198  0.024689884  0.024638648            9 
 2441000   0.85415963   -7.3632172    724.03402  0.024717808  0.024631862            4 
 2442000   0.86180285   -7.3701256    724.44112  0.024721578  0.024625034            4 
 2443000   0.88039144   -7.3923197      721.807  0.024621606  0.024618198            3 
 2444000   0.85270846   -7.3789588    722.95765  0.024650766  0.024611343            2 
 2445000    0.8646499   -7.3963014    723.60248  0.024662661  0.024604496            6 
 2446000   0.86748951   -7.3756696    722.64988  0.024620124  0.024597627            3 
 2447000   0.85337698   -7.3602783    724.05112  0.024657782  0.024590689            3 
 2448000   0.85072808   -7.3715278    721.48418  0.024560327  0.024583812            2 
 2449000   0.84216124   -7.3931104    722.70495  0.024591838  0.024576879            4 
 2450000   0.84443786   -7.3868548    723.72894  0.024616631  0.024570005            3 
 2451000   0.84903765   -7.3916979    724.19812  0.024622539  0.024563158            3 
 2452000   0.85428326   -7.3548633    724.79692  0.024632848  0.024556333            2 
 2453000   0.85528928   -7.3724624    724.90479  0.024626471  0.024549525            3 
 2454000   0.85556082   -7.3629421    726.01325  0.024654077  0.024542708            4 
 2455000   0.84951405   -7.3793703    724.52698  0.024593584  0.024535906            4 
 2456000   0.85007509   -7.3797074    725.23334  0.024607537  0.024529106            3 
 2457000   0.85443303   -7.3678215    724.51538  0.024573171  0.024522347            6 
 2458000   0.86029726   -7.3795585    725.87906  0.024609407  0.024515626            2 
 2459000   0.87091842   -7.3606859    725.14196  0.024574419  0.024508882            4 
 2460000   0.88016438   -7.3485377    726.86879  0.024622926  0.024502139            6 
 2461000   0.85011761   -7.3846346    726.98803  0.024616959  0.024495404            2 
 2462000   0.86221846   -7.3657811    726.44352   0.02458853  0.024488688            3 
 2463000   0.85775959   -7.3660384    725.32666  0.024540759  0.024481915            7 
 2464000   0.85397953   -7.3842658    726.73541  0.024578443  0.024475127            4 
 2465000   0.84289177   -7.3401704     727.2677  0.024586467  0.024468427            3 
 2466000   0.86207091   -7.3428781    726.98959  0.024567099  0.024461706            6 
 2467000   0.85998932   -7.3931362    727.52169  0.024575114  0.024454954            9 
 2468000   0.85454616    -7.344477    726.21011  0.024520871  0.024448186            4 
 2469000   0.84605592   -7.3800384    726.71372  0.024527937  0.024441411            7 
 2470000   0.85170451   -7.3947549    727.47922  0.024543833  0.024434581            7 
 2471000   0.86168981   -7.3519766    728.11107  0.024555209  0.024427817            3 
 2472000   0.84698413   -7.3194037    728.87498  0.024571028  0.024421133            2 
 2473000   0.86011839   -7.3394174    727.58627  0.024517666  0.024414412           10 
 2474000   0.84854155   -7.3822728    726.45494  0.024469649  0.024407682            5 
 2475000   0.85233728   -7.3730781     729.3574  0.024557488  0.024401026            3 
 2476000   0.86328648   -7.3740824    730.05649  0.024571099   0.02439428            3 
 2477000    0.8673364   -7.3659398    728.04763  0.024493595  0.024387592            3 
 2478000   0.84053099   -7.3737302    727.37244  0.024461005  0.024380831            5 
 2479000   0.85663071   -7.3723655    728.80827  0.024499404  0.024374101            2 
 2480000   0.84467188    -7.376683    728.78314  0.024488681  0.024367379            4 
 2481000   0.86202712   -7.3785163    727.65214  0.024440821  0.024360662            3 
 2482000   0.85120968   -7.3635209    727.79247  0.024435686  0.024353982            4 
 2483000   0.85391173   -7.4092108    727.00652  0.024399467  0.024347256            4 
 2484000   0.86520799   -7.3628528    729.53645  0.024474519  0.024340541            3 
 2485000    0.8376973   -7.3806321    728.00145  0.024413194  0.024333806            3 
 2486000   0.85775822    -7.399546    728.90425  0.024433637  0.024327055            4 
 2487000   0.86127604   -7.3723502    731.07497  0.024496548  0.024320405            3 
 2488000   0.84922768   -7.3695923    730.80105  0.024477527  0.024313772            2 
 2489000   0.84243677   -7.3523058    731.21339  0.024481498  0.024307153            4 
 2490000   0.84414705   -7.3662758    731.94105  0.024496019  0.024300549            4 
 2491000   0.85872953   -7.3765475    728.76863  0.024380056  0.024293961            2 
 2492000   0.85637793   -7.3914128     730.5657  0.024430367  0.024287395            5 
 2493000   0.86014753   -7.3609604    730.22356  0.024409131  0.024280801            1 
 2494000   0.86012898    -7.363423    730.91064  0.024422302  0.024274229            2 
 2495000   0.84636786   -7.3864972    731.53598    0.0244334  0.024267616            2 
 2496000   0.84629189   -7.3882189    731.48792  0.024422006  0.024261005            3 
 2497000   0.85560564   -7.3919491    730.40775  0.024376176  0.024254302            2 
 2498000   0.83020291    -7.398382    731.14197  0.024390912  0.024247607            3 
 2499000   0.84381393   -7.3881384    730.06113  0.024345109    0.0242409            3 
 2500000   0.85161726    -7.383944     730.7284  0.024357613  0.024234196            3 
 2501000   0.85366406   -7.3802882    730.09309  0.024326706  0.024227519            3 
 2502000   0.85219633   -7.4072138    730.47517  0.024329709  0.024220801            3 
 2503000   0.87097385   -7.3802851    731.70844  0.024361048  0.024214073            3 
 2504000   0.84421445   -7.4094883    729.97278  0.024293556  0.024207353            2 
 2505000   0.84358411   -7.4058466    729.87952  0.024280756   0.02420064            3 
 2506000   0.85187565   -7.4052046    729.77769  0.024267681   0.02419393            4 
 2507000   0.85613491   -7.3749467    731.26124  0.024307314  0.024187208            3 
 2508000   0.83556272   -7.4003483    731.05148  0.024290653  0.024180533            2 
 2509000   0.85456437   -7.4046867    731.70413  0.024302648  0.024173849            4 
 2510000   0.83698571   -7.4053335    729.72978  0.024227416  0.024167176            2 
 2511000    0.8367489   -7.4326303    729.21783  0.024200777  0.024160458            3 
 2512000   0.83209814   -7.3925429    733.41408   0.02433035  0.024153814            3 
 2513000    0.8461245   -7.4008802    731.08976  0.024243592  0.024147185            3 
 2514000   0.84687623   -7.3812321    734.33079  0.024341381  0.024140532            2 
 2515000   0.84167344   -7.4035481    733.01537  0.024288117  0.024133849            3 
 2516000   0.84446947   -7.3553276    732.68785  0.024267615  0.024127238            5 
 2517000   0.84749138   -7.3587896    732.35092  0.024246819  0.024120645            6 
 2518000   0.84039421   -7.3647273    733.21461  0.024265773  0.024113981            2 
 2519000   0.86189677   -7.3817376    732.55304  0.024234254  0.024107343            5 
 2520000   0.85121641   -7.3944663    732.31557  0.024216785   0.02410062            5 
 2521000   0.82700891   -7.3897609     731.8691   0.02419242  0.024093865            4 
 2522000   0.82301753   -7.4128982    732.15369  0.024192231  0.024087088            2 
 2523000   0.83652069   -7.4203393    729.84961   0.02410654  0.024080269            5 
 2524000   0.84603544   -7.4302607    731.87872  0.024163983  0.024073479            7 
 2525000   0.84930507    -7.412687    732.47505  0.024174094  0.024066753            4 
 2526000   0.82963772   -7.4128632    729.15582  0.024055022  0.024059972            5 
 2527000   0.84664049   -7.4109019    731.08863  0.024109241  0.024053198            5 
 2528000   0.83595001   -7.3948766    729.71542  0.024054438   0.02404638            2 
 2529000   0.84370534   -7.3906316    733.09627  0.024156329  0.024039571            3 
 2530000   0.83107462   -7.3952707    733.27467  0.024152657  0.024032803            4 
 2531000   0.85227246   -7.3972677    732.20483   0.02410789  0.024026049            8 
 2532000   0.84120679   -7.4169493    731.45225    0.0240736  0.024019271            3 
 2533000   0.85774029   -7.4070981     731.2748  0.024058258  0.024012467            6 
 2534000   0.82273512    -7.401563    731.15017  0.024044665  0.024005662            3 
 2535000   0.84466626   -7.3962526    732.70261  0.024086213  0.023998856            1 
 2536000   0.85657418   -7.3907696    732.58356  0.024072804  0.023992112            5 
 2537000   0.83264975   -7.3846324    732.45189   0.02405899   0.02398534            4 
 2538000   0.85124078   -7.3804951    731.96972  0.024033679  0.023978571            3 
 2539000   0.84570626   -7.3745638    733.27595  0.024067085  0.023971849            2 
 2540000   0.83421972   -7.4015324    733.17266  0.024054221  0.023965131            4 
 2541000   0.84202583   -7.4193918    733.88802  0.024068215  0.023958359            4 
 2542000   0.84316039   -7.3890238     732.9403  0.024027678  0.023951554            2 
 2543000   0.83446775   -7.4261081    734.35108  0.024064461   0.02394475            4 
 2544000   0.84700124   -7.3907719    734.82921  0.024070663  0.023937966            2 
 2545000   0.85016369   -7.3966558    736.00965  0.024099857  0.023931231            3 
 2546000   0.82011209   -7.4076299    732.52993  0.023976497  0.023924478            3 
 2547000   0.83824794   -7.4074173    733.09826  0.023985678   0.02391774           10 
 2548000   0.86316023   -7.4129024    733.14356  0.023977746  0.023911041            2 
 2549000   0.85927495   -7.4120728    733.86454   0.02399191  0.023904354            4 
 2550000   0.84852665   -7.4005074    736.18263  0.024058256  0.023897649            4 
 2551000   0.84066575   -7.3924746    735.48205  0.024025939   0.02389094            3 
 2552000   0.82878542   -7.4212124    733.74298  0.023959737   0.02388422            3 
 2553000   0.83414511   -7.4034132    734.99478  0.023991212  0.023877509            4 
 2554000   0.83966043   -7.4168736    735.48198  0.023997715  0.023870821            3 
 2555000   0.85332145   -7.3860235    735.59525  0.023992017  0.023864116            6 
 2556000    0.8441018   -7.4127948    733.27474  0.023906975  0.023857433            5 
 2557000   0.84786879   -7.4295678    733.67058  0.023910526  0.023850714            3 
 2558000   0.84883725   -7.3903905    736.75681   0.02400172  0.023844066            3 
 2559000   0.84424297    -7.356589    736.91461   0.02399748  0.023837496            1 
 2560000   0.84032792   -7.4110137    735.48241  0.023941485  0.023830861            4 
 2561000   0.83484364   -7.3968322    736.22011  0.023956141  0.023824171            2 
 2562000   0.86110753   -7.4340473    735.42513  0.023920932  0.023817543            3 
 2563000   0.82160055   -7.4249902    736.43554  0.023944451  0.023810882            2 
 2564000   0.82287059   -7.4032552    736.26959  0.023929719  0.023804233            7 
 2565000   0.85149638   -7.4017619    738.15885  0.023981769  0.023797612            7 
 2566000   0.83500036   -7.4063272    736.84506  0.023929756  0.023790995            5 
 2567000   0.85321409   -7.3961127    738.77235  0.023983001   0.02378442            4 
 2568000   0.82889245    -7.418699    737.95832  0.023947246  0.023777806            7 
 2569000   0.84260835   -7.4436551    737.18674  0.023912896   0.02377118            5 
 2570000   0.86233956   -7.4030529    738.66603  0.023951557   0.02376459            7 
 2571000   0.84961673   -7.4216909    738.94033  0.023951132  0.023757983            3 
 2572000   0.82738046   -7.3970339     737.7635   0.02390369  0.023751365            4 
 2573000   0.85629004   -7.4024384    739.25773  0.023942795  0.023744727            3 
 2574000   0.82801821   -7.4166314    736.49522  0.023844057  0.023738075            2 
 2575000   0.83511216   -7.4575338    736.65624  0.023840008  0.023731371            5 
 2576000   0.84264951   -7.3973444    738.26397  0.023882763  0.023724732            5 
 2577000   0.86475743    -7.423931    736.58043  0.023819054  0.023718054            4 
 2578000   0.83842503   -7.4321151    737.24356   0.02383125  0.023711398            2 
 2579000   0.82839879   -7.3856423    737.12104  0.023818051  0.023704763            3 
 2580000   0.84042831   -7.4003935    737.69201  0.023827261   0.02369815            3 
 2581000   0.84210829    -7.400861    738.31787  0.023838237  0.023691548            3 
 2582000   0.83098572   -7.4376364    738.08865  0.023821606  0.023684928            3 
 2583000   0.84760964   -7.4296223    736.19085  0.023751157  0.023678284            5 
 2584000   0.83741322   -7.3885906    739.98905  0.023864456  0.023671669            3 
 2585000   0.85508162   -7.4176903    738.65654  0.023812268  0.023665083            3 
 2586000   0.81820482   -7.4424122    738.89567  0.023810765  0.023658408            9 
 2587000   0.84116132   -7.3858657    739.81114  0.023831051   0.02365177            3 
 2588000   0.84873507   -7.4029078    739.26885  0.023804381  0.023645197            6 
 2589000   0.84710573   -7.4108192    740.73682  0.023842437   0.02363859            2 
 2590000   0.84303151   -7.4002287    739.50578  0.023793622  0.023631972            3 
 2591000   0.86870541   -7.4374355    738.26841  0.023744642  0.023625333            9 
 2592000   0.84155613   -7.4277934    737.94141  0.023724968  0.023618684            7 
 2593000   0.83460007   -7.4053948    740.67386  0.023803634  0.023612045            4 
 2594000   0.83316858   -7.3993644    739.44924  0.023755116  0.023605462            2 
 2595000   0.83387274   -7.4244467    739.44035  0.023745676  0.023598893            5 
 2596000   0.83304488   -7.4286107    740.38257  0.023766775  0.023592323            5 
 2597000   0.83871125   -7.4119163    740.14699  0.023750064  0.023585791            5 
 2598000   0.83271557   -7.3848905    740.51368  0.023752684  0.023579248            4 
 2599000   0.83346482   -7.3793543    741.23381  0.023766635  0.023572709            3 
 2600000   0.83080287   -7.4118695    738.85806  0.023681348  0.023566151            4 
 2601000   0.84695954   -7.4028336    741.67982   0.02376265  0.023559578            3 
 2602000    0.8355448   -7.4209737    739.66313  0.023688929  0.023553014            3 
 2603000   0.83467176   -7.4280369    740.10258  0.023693898  0.023546409            4 
 2604000   0.82214885   -7.4456244    739.67714  0.023671183  0.023539808            7 
 2605000   0.83693111   -7.3837561    741.21661  0.023711344  0.023533195            4 
 2606000   0.84280566   -7.4136883    739.90248  0.023660223  0.023526617            2 
 2607000   0.83382494   -7.4249747    741.79006  0.023711484  0.023520047            5 
 2608000   0.83986266   -7.4333595    739.55688  0.023631035  0.023513455            5 
 2609000   0.84388527   -7.4456116    740.07041   0.02363838  0.023506829            8 
 2610000   0.82987108   -7.4496394    740.39242  0.023639605  0.023500189            8 
 2611000   0.85065101   -7.4202627    741.55684  0.023667715  0.023493552            6 
 2612000    0.8345341   -7.4021628    741.22529  0.023648076  0.023486976           16 
 2613000   0.83156755   -7.4277122     742.4156  0.023676987  0.023480373            5 
 2614000   0.82914095   -7.4059675    742.24299  0.023662426  0.023473748            5 
 2615000   0.83990903   -7.4105489    741.59919  0.023632861  0.023467141            5 
 2616000   0.82725926   -7.4012448    741.43378  0.023618558  0.023460525            7 
 2617000   0.84847715   -7.3899307    739.80933  0.023557806  0.023453897            3 
 2618000   0.83823279   -7.3919172    740.85737  0.023582167    0.0234473            3 
 2619000   0.84773223   -7.4021249    741.23169  0.023585073  0.023440708            3 
 2620000   0.84859849   -7.4123016    741.26701  0.023577195  0.023434086            6 
 2621000   0.81179422   -7.4065391    739.82983  0.023522505  0.023427458            2 
 2622000   0.84115249   -7.4287848    741.43465  0.023564539  0.023420775            5 
 2623000   0.85479464    -7.462075    740.61214  0.023529424   0.02341407            5 
 2624000   0.82691201    -7.425722    740.83653  0.023527583  0.023407414            6 
 2625000   0.81403766   -7.4416072    740.54617  0.023509402  0.023400695            5 
 2626000   0.84126668   -7.4521308    740.74975   0.02350691  0.023393944            4 
 2627000   0.82260934   -7.4316009    741.47898  0.023521094  0.023387264            3 
 2628000   0.83137806   -7.4112392    741.22256  0.023504013  0.023380606            3 
 2629000   0.84623005   -7.4021877    740.98792  0.023487635  0.023373988            3 
 2630000   0.84226508   -7.4433838    740.95623  0.023477701  0.023367297            3 
 2631000   0.83245051   -7.4625674    740.82211  0.023464529  0.023360597            3 
 2632000   0.83112166   -7.4281035    741.33813  0.023471952  0.023353881            3 
 2633000   0.83009879   -7.4385388    741.77963  0.023477011  0.023347177            3 
 2634000   0.83828076   -7.4543194    741.39149  0.023455818  0.023340476            5 
 2635000   0.83712334   -7.4072911    741.41132  0.023447543  0.023333839            5 
 2636000   0.80705059   -7.4087688     743.7313  0.023511991  0.023327236            2 
 2637000   0.81936187   -7.4320874    743.34153  0.023490757  0.023320635           11 
 2638000   0.84497255    -7.423076     744.1092  0.023506103  0.023314032            4 
 2639000   0.82126848    -7.409575    742.40082  0.023443249   0.02330746            5 
 2640000   0.83173488   -7.4493766    743.19712  0.023459505  0.023300885            3 
 2641000   0.81838132   -7.4580507    743.65081  0.023464938   0.02329431            3 
 2642000   0.82760941   -7.4493647    743.72524  0.023458404  0.023287742            2 
 2643000   0.83230161   -7.4253117    743.50527  0.023442593  0.023281196            2 
 2644000   0.80569798   -7.4171574    743.27832  0.023426573  0.023274659            5 
 2645000   0.82815344   -7.4198933    745.92501  0.023501103  0.023268124            2 
 2646000   0.81821503   -7.4359476    745.94004  0.023492695  0.023261642            2 
 2647000   0.83089305   -7.4552163    743.78061  0.023415836   0.02325513            5 
 2648000   0.81528314   -7.4404053     746.5803    0.0234951  0.023248565            4 
 2649000   0.83297933   -7.4349533     744.2691  0.023413524  0.023242068            2 
 2650000     0.839018   -7.4574833    744.38451  0.023408318  0.023235601            6 
 2651000   0.84805001   -7.4546993    743.22847  0.023363148  0.023229095            5 
 2652000   0.82560351      -7.4723    745.29859  0.023419388  0.023222562            2 
 2653000   0.82416218   -7.4288603    746.84145  0.023459023  0.023216049            2 
 2654000   0.82065208   -7.4226378    745.48012  0.023407439  0.023209548            1 
 2655000   0.81849194   -7.4418164    746.40572  0.023427675  0.023203053            4 
 2656000   0.81625259   -7.4338498    747.03082  0.023438467  0.023196546            2 
 2657000   0.82834149   -7.4793398    744.77798  0.023358988   0.02319008            2 
 2658000   0.83266982   -7.4287144    746.19817  0.023394726  0.023183558            7 
 2659000   0.82923548   -7.4434824    746.30059  0.023389137  0.023177051            2 
 2660000   0.81289545   -7.4243347      746.404  0.023383584   0.02317057            5 
 2661000   0.83621315   -7.4514627    748.27627  0.023433429  0.023164108            3 
 2662000   0.82169944   -7.4590369    746.12268  0.023357209  0.023157638            6 
 2663000   0.82596419   -7.4616095     747.0965  0.023378912  0.023151161            4 
 2664000   0.83421469   -7.4488305    745.07399  0.023306869  0.023144671            4 
 2665000   0.83010501   -7.4525446    745.54948  0.023312992  0.023138153            6 
 2666000    0.8466133   -7.4141033    744.25338  0.023263734  0.023131662            4 
 2667000   0.83073349   -7.4535642    746.34411  0.023320338   0.02312517            3 
 2668000   0.82711908   -7.4402311    746.98573  0.023331638  0.023118699           12 
 2669000   0.81671394   -7.4325461    747.16608  0.023328528  0.023112203            5 
 2670000   0.83253378   -7.4341845    746.51295  0.023299405  0.023105778            4 
 2671000   0.83188096    -7.412278    748.66389   0.02335779  0.023099332            3 
 2672000    0.8074481   -7.4402249    746.81328  0.023291332  0.023092925            2 
 2673000    0.8140839   -7.4260359    747.83518  0.023314478  0.023086462            6 
 2674000   0.83403614   -7.4551539    746.15017  0.023253246  0.023079953            3 
 2675000   0.81875116    -7.420544    749.25947  0.023341417  0.023073453            6 
 2676000   0.85451961   -7.4650564    746.75388  0.023254667   0.02306698            1 
 2677000   0.82156847   -7.4887805    747.29077  0.023262694  0.023060461            3 
 2678000   0.81562723   -7.4765575    746.50317  0.023229499  0.023053943            2 
 2679000   0.82580754   -7.4567338    747.99836  0.023267337  0.023047413            5 
 2680000   0.82518558   -7.4832767    747.34599   0.02323837   0.02304092            1 
 2681000   0.82459004   -7.4358535    747.34003  0.023229517  0.023034437            2 
 2682000   0.83283077   -7.4500511    746.32566  0.023189338  0.023027997            2 
 2683000   0.82126213   -7.4739094    747.50867  0.023217439  0.023021557            4 
 2684000   0.81913804   -7.4480196    748.04158  0.023225335  0.023015087            3 
 2685000   0.82320243   -7.4612359    748.19237  0.023221365  0.023008633            4 
 2686000     0.815162   -7.4657427    747.78823  0.023200181  0.023002172            6 
 2687000   0.82354273   -7.4246495    748.47606  0.023212879  0.022995727            2 
 2688000   0.82191551   -7.4469235    749.07925  0.023222943  0.022989296            3 
 2689000   0.81252711   -7.4718184    748.17126  0.023186168  0.022982871            6 
 2690000   0.81073396   -7.4359966    749.56827  0.023220826   0.02297646            3 
 2691000   0.85925917   -7.4547494    750.20648  0.023231961  0.022970048            4 
 2692000   0.82649524     -7.42064    749.52404  0.023202205  0.022963665            4 
 2693000   0.80845709   -7.4258447    750.95827  0.023237971  0.022957267            2 
 2694000   0.82590758   -7.4464222    749.65864  0.023189144  0.022950838            1 
 2695000   0.81393326   -7.4546075    748.97125  0.023159284  0.022944415            2 
 2696000   0.81515165   -7.4657984     750.1522  0.023187197  0.022937974            3 
 2697000   0.83705046   -7.4568675    749.69034  0.023164329  0.022931548            6 
 2698000   0.80791518   -7.4693896    749.46856  0.023148893  0.022925149            5 
 2699000   0.82196261   -7.4822331    751.85936  0.023214134   0.02291874            3 
 2700000   0.82533752    -7.463865    746.75123  0.023047877  0.022912275            5 
 2701000   0.82374413   -7.4675957    748.28037  0.023086522  0.022905798            4 
 2702000   0.82533138   -7.4602641    750.37922   0.02314271  0.022899299            4 
 2703000   0.79868086   -7.4538141      748.011  0.023061136  0.022892796            9 
 2704000   0.81341732   -7.4528544    747.18731  0.023027222  0.022886327            5 
 2705000    0.8205767   -7.4446611    748.68479  0.023064843  0.022879897            2 
 2706000   0.82635484   -7.4413248     749.1795  0.023071554   0.02287343            2 
 2707000   0.82312729   -7.4387233    750.93722  0.023117141   0.02286697            4 
 2708000   0.81864715   -7.4484737    751.28325  0.023119253  0.022860545            5 
 2709000   0.81434777   -7.4789019    749.45594  0.023054508  0.022854096            4 
 2710000   0.81137307   -7.4542443    749.72784  0.023054362  0.022847628            6 
 2711000   0.82956205   -7.4643005    748.17126   0.02299801  0.022841162            4 
 2712000   0.82041985   -7.4895505     749.4595  0.023029115  0.022834698            3 
 2713000   0.81922327    -7.445724    749.47222  0.023021017  0.022828223            2 
 2714000   0.80746677   -7.4613816    749.70312  0.023019624  0.022821749            3 
 2715000   0.80125656   -7.4655095     748.9337  0.022987529  0.022815291            7 
 2716000   0.83157279   -7.4745276    750.21365  0.023018337   0.02280883            6 
 2717000   0.82254738   -7.4635446    749.23654  0.022979896  0.022802386            2 
 2718000   0.81913966   -7.4436422    752.10983  0.023059536  0.022795974            4 
 2719000   0.82789884   -7.4751408    751.38211  0.023028752  0.022789564            2 
 2720000   0.82499627   -7.4389683    751.93512  0.023037228  0.022783178            3 
 2721000    0.8253384   -7.4585912    753.24943  0.023069013  0.022776825            5 
 2722000    0.8046057   -7.4308703    753.04056  0.023054144  0.022770482            5 
 2723000   0.82225214   -7.4851221    750.33977  0.022963024   0.02276414            3 
 2724000   0.83047451   -7.4630879     752.2092  0.023011784  0.022757739            5 
 2725000    0.8288489   -7.4821428    752.46494   0.02301116   0.02275135            7 
 2726000   0.81180013   -7.4503255    752.03119  0.022989459  0.022744949            3 
 2727000   0.81304038   -7.4806614    751.75051  0.022972452  0.022738583            6 
 2728000   0.80123172   -7.4595008    751.16895  0.022946266  0.022732259            6 
 2729000   0.81675081    -7.471015    754.13287  0.023028364  0.022725905            5 
 2730000    0.8332891   -7.4793804    751.49047   0.02293927  0.022719597            8 
 2731000   0.81160373    -7.487437    753.06686  0.022978972  0.022713251            7 
 2732000   0.80199505   -7.4639532    754.20248    0.0230052  0.022706889            1 
 2733000   0.81919654   -7.4628195    755.11722  0.023024674  0.022700554            5 
 2734000   0.82203016   -7.4820478    753.77078  0.022975213  0.022694228            6 
 2735000   0.80689512   -7.4802912    754.76501  0.022997106  0.022687946           10 
 2736000   0.81660643   -7.4479959    755.23091  0.023002891  0.022681683            2 
 2737000   0.82180688   -7.4806497    753.51825  0.022942341  0.022675414            7 
 2738000   0.82560057   -7.4541595    754.62804  0.022967739  0.022669132            5 
 2739000   0.79997778   -7.4694689    754.96213  0.022969518  0.022662863            4 
 2740000   0.81138978   -7.4822186    754.39383  0.022943851  0.022656552            5 
 2741000   0.83420101   -7.4557775    753.68815  0.022914026  0.022650239            3 
 2742000   0.81328411   -7.4526369     755.4658  0.022959695  0.022643954            3 
 2743000   0.81066553   -7.5063199    754.39906  0.022918917  0.022637646            3 
 2744000     0.818958   -7.4614686    756.88126  0.022985947  0.022631323            4 
 2745000   0.80600711   -7.4571603    755.01864  0.022921027  0.022625052            4 
 2746000   0.78926121   -7.4785111    754.37923  0.022893276   0.02261878            2 
 2747000   0.80585416   -7.5059955    753.31011  0.022852509  0.022612466            4 
 2748000   0.81235187   -7.4897862    753.68724   0.02285563  0.022606114            3 
 2749000   0.78956883   -7.4721147    754.19424  0.022862685  0.022599783            3 
 2750000   0.81575861   -7.4825921    753.48999   0.02283303  0.022593447            4 
 2751000   0.81090838   -7.4596982    754.26823  0.022848304  0.022587163            2 
 2752000   0.81535239   -7.4655621    754.10471  0.022835051  0.022580826            2 
 2753000   0.82883858   -7.4794083     753.6419  0.022812747  0.022574477            7 
 2754000   0.80056407   -7.4753529    754.70103  0.022836511  0.022568173            3 
 2755000   0.80871299   -7.4607505    755.39405  0.022849185  0.022561865            4 
 2756000   0.80098364   -7.4594043    753.93528  0.022796785  0.022555536            4 
 2757000   0.81917863   -7.4588022    755.29179  0.022829518  0.022549199            5 
 2758000   0.81430496   -7.5231274    753.25788  0.022759786  0.022542864            8 
 2759000   0.80866914   -7.4956173     756.4322  0.022847415  0.022536501            5 
 2760000   0.80257562   -7.4792295    756.08419  0.022828629  0.022530151            2 
 2761000   0.81370016   -7.4935637    755.68043  0.022808174  0.022523815            6 
 2762000   0.80997308    -7.483836     756.5762  0.022826943  0.022517502            2 
 2763000   0.81036702   -7.4569529    757.33099  0.022841446  0.022511218            4 
 2764000   0.80840881   -7.4671311    756.34352   0.02280341  0.022504961            5 
 2765000   0.80869726   -7.4789446    756.81265  0.022809302  0.022498677            4 
 2766000   0.79047344    -7.486911    755.99309  0.022776364  0.022492374            3 
 2767000   0.82184857   -7.4745767    755.12834   0.02274209  0.022486056            3 
 2768000   0.81987684   -7.4727386    756.56443  0.022777108  0.022479742            6 
 2769000    0.7946411   -7.4692201    755.20485  0.022727966  0.022473459            6 
 2770000   0.81079987   -7.4883598    757.69743  0.022794748   0.02246715            3 
 2771000    0.8112831   -7.4739309    756.24444  0.022742826  0.022460817            3 
 2772000   0.81076776   -7.4923633    755.06105  0.022699045  0.022454489            3 
 2773000   0.81770685   -7.4656004    756.10105  0.022722113  0.022448148            3 
 2774000   0.81817128   -7.4596019     756.4096  0.022723192  0.022441843            6 
 2775000   0.79688065   -7.4667612    757.64696  0.022752161  0.022435528            4 
 2776000   0.80416026   -7.4855804    755.57658  0.022681814  0.022429259            3 
 2777000   0.79624167   -7.4628161    757.79795  0.022740306  0.022423005            4 
 2778000   0.81787305   -7.4884785    757.73939  0.022730363  0.022416719            2 
 2779000    0.8006306    -7.466612    757.08552  0.022702576  0.022410464            9 
 2780000   0.80247619   -7.4639646    758.56982  0.022738903  0.022404207            2 
 2781000    0.8175441   -7.4753428    757.57831  0.022701016  0.022397923            4 
 2782000   0.80062559   -7.4471737    758.10809  0.022708726  0.022391613            5 
 2783000    0.8128656   -7.4731942    756.09831  0.022640385  0.022385289            2 
 2784000   0.81033394   -7.4730208     756.0127   0.02262969  0.022378959            3 
 2785000   0.80714312   -7.5154274    755.52737  0.022607043  0.022372607            5 
 2786000   0.82909806     -7.47264    757.42547  0.022655703  0.022366262            4 
 2787000   0.79555093   -7.5069388    756.66253  0.022624762  0.022359964            3 
 2788000   0.79868818   -7.4794991    756.97759  0.022626064   0.02235364           10 
 2789000   0.78802395   -7.4857147     757.8941  0.022645336  0.022347356            4 
 2790000   0.81566877   -7.4695575    755.96652  0.022579645  0.022341057            2 
 2791000   0.78719592   -7.4831387    756.41371  0.022584907  0.022334711            3 
 2792000   0.81911529   -7.4891412    756.44451  0.022577737  0.022328423            2 
 2793000   0.82559732   -7.4839707    756.84099  0.022581483  0.022322103            3 
 2794000   0.82238667   -7.4794693    757.85674  0.022603697  0.022315797            4 
 2795000   0.80062705   -7.4956959    756.92894  0.022567947  0.022309484            4 
 2796000   0.79321542   -7.5316317    757.66437  0.022581794  0.022303128            4 
 2797000    0.8020305   -7.4953196    756.96301  0.022552825   0.02229675            4 
 2798000   0.80747824   -7.4945992    755.36204  0.022497082  0.022290378            3 
 2799000   0.80907202    -7.460658    755.45192  0.022491721  0.022284005            2 
 2800000   0.81973269    -7.498991    754.71492  0.022461754  0.022277673            2 
 2801000   0.80777833   -7.5097792    756.47093  0.022505978  0.022271289            9 
 2802000   0.79551288   -7.4855431    757.33702  0.022523704  0.022264937           15 
 2803000   0.80973168   -7.4691123    759.31918  0.022574598  0.022258565            6 
 2804000   0.82217669   -7.5244307    757.32039  0.022507144  0.022252236            8 
 2805000   0.79608621   -7.4833181    757.87364  0.022515557  0.022245895            3 
 2806000   0.81330081   -7.4883553    758.07399  0.022513483  0.022239603            4 
 2807000   0.78380928   -7.4874006    758.47245  0.022517292  0.022233299            3 
 2808000   0.80194991   -7.5049101    758.07406  0.022497449  0.022227028            5 
 2809000   0.81389402   -7.5004277    758.03434  0.022488262  0.022220754            7 
 2810000     0.814318   -7.5101668    759.52362  0.022524425  0.022214471            5 
 2811000   0.80050943   -7.5183187    758.00691  0.022471449  0.022208138            3 
 2812000   0.80055174   -7.5183361    756.05224  0.022405531  0.022201803            4 
 2813000   0.78971934   -7.5108478    757.43721  0.022438595  0.022195475            4 
 2814000   0.79567995   -7.5046068    756.86372  0.022413638  0.022189163            6 
 2815000   0.79064874   -7.5159741    758.02973  0.022440193  0.022182828            4 
 2816000   0.81095755   -7.5216343    758.90085  0.022458003  0.022176542            5 
 2817000   0.80593753   -7.5220481    758.52852  0.022439017  0.022170238            8 
 2818000   0.79830999   -7.4776086    760.16163  0.022479348  0.022163962            3 
 2819000   0.78770748   -7.4828403    760.09139  0.022469297  0.022157662            5 
 2820000   0.79751567   -7.5103433    759.83434  0.022453734  0.022151401            4 
 2821000   0.81893566   -7.4935675    758.32317  0.022401133  0.022145138            4 
 2822000   0.80719724   -7.4996298    760.13871  0.022446808  0.022138884            3 
 2823000   0.80607453   -7.4829094    759.80777  0.022429087  0.022132656            4 
 2824000   0.79094514   -7.4715105     762.1998  0.022491732  0.022126435            4 
 2825000   0.81195381   -7.4870464    760.98904  0.022448054  0.022120236            3 
 2826000   0.79572361   -7.4945472    761.43187  0.022453169  0.022114013            2 
 2827000   0.79723862   -7.5152572    759.96818   0.02240208  0.022107825            5 
 2828000   0.79208907   -7.5051821    761.80934  0.022448413  0.022101596            4 
 2829000   0.77889008   -7.4849788    762.95645  0.022474268  0.022095423            6 
 2830000   0.80004766   -7.4883072    760.54947   0.02239545   0.02208924            5 
 2831000   0.81215143   -7.4763768    761.65337  0.022420033  0.022083105            3 
 2832000   0.78606397   -7.5154188    760.69931  0.022384043  0.022076893            5 
 2833000   0.80580734   -7.4934138     762.7432  0.022436263  0.022070683            6 
 2834000   0.78828346   -7.5026212    761.72879  0.022398518  0.022064511            5 
 2835000   0.80722851   -7.5039508    763.44186  0.022440972  0.022058339            2 
 2836000   0.78484159   -7.5067281    762.40376  0.022402555  0.022052137            4 
 2837000   0.79807867    -7.483556    764.31095   0.02245068  0.022045967            2 
 2838000   0.79245969   -7.5118403    762.53336  0.022390573  0.022039774            4 
 2839000   0.78350143   -7.4883911    764.08759  0.022428308  0.022033633            5 
 2840000   0.78438987   -7.4664934    763.63358  0.022407089  0.022027521            4 
 2841000   0.80343725   -7.4793444    762.57254  0.022368079  0.022021405            4 
 2842000   0.79572819   -7.4895871    764.76799  0.022424583  0.022015308            3 
 2843000   0.80993646   -7.4890003    762.12591  0.022339252   0.02200918            3 
 2844000   0.79868718   -7.4988315    762.40401  0.022339546  0.022003043            3 
 2845000   0.81168936   -7.4737121    763.31154  0.022358276   0.02199693            2 
 2846000   0.79208521   -7.4608448    764.21571  0.022376895  0.021990824            6 
 2847000   0.78254344   -7.5035562    763.69378  0.022353758  0.021984738            3 
 2848000    0.8169948   -7.4675315    765.39395  0.022395656  0.021978632            3 
 2849000   0.78207799   -7.4934318    766.37109  0.022416377  0.021972536            3 
 2850000   0.82304893   -7.5196993    763.49871  0.022324524  0.021966405            3 
 2851000   0.78853864   -7.5206146    762.14062  0.022276997  0.021960272            2 
 2852000   0.79837506   -7.5244837    763.80638  0.022317858  0.021954122            9 
 2853000    0.7963696   -7.5044734    764.38465  0.022326926  0.021948011            3 
 2854000   0.79418646   -7.5164444    763.24286  0.022285765  0.021941918            3 
 2855000   0.79976408   -7.5181524    763.86712   0.02229618  0.021935785            7 
 2856000   0.79681054   -7.4862858    763.93318    0.0222903    0.0219297           11 
 2857000   0.79766284   -7.5359904    764.84427  0.022309073  0.021923637            2 
 2858000   0.78157732    -7.544093    764.01699  0.022277146  0.021917556            7 
 2859000   0.79012045   -7.5129673    763.34618  0.022249801  0.021911453            3 
 2860000   0.80401418   -7.5424137    764.18238  0.022266386   0.02190536            4 
 2861000   0.78041742   -7.4951532     765.0701  0.022284461   0.02189926            2 
 2862000   0.78674722   -7.5314949    764.19753  0.022251268  0.021893195            3 
 2863000   0.80317555   -7.5274224    764.61887  0.022255759  0.021887113            3 
 2864000   0.77652267   -7.5086106     766.0314  0.022289089  0.021881043            5 
 2865000   0.79673506   -7.4887685    766.00013  0.022280399  0.021875002            3 
 2866000   0.79259785   -7.5076226    763.93984  0.022212719  0.021868936            4 
 2867000    0.7920628   -7.5504307    763.47203  0.022191374   0.02186283            4 
 2868000   0.78186679   -7.5157356    766.06223  0.022258898  0.021856747            5 
 2869000   0.77474189   -7.4939448     766.2182   0.02225567  0.021850697            4 
 2870000   0.81765033   -7.5181168    767.65253  0.022289562  0.021844652            4 
 2871000    0.7794171   -7.5284783    764.51911  0.022190848  0.021838602            3 
 2872000   0.79254313   -7.5374959     765.8098  0.022220572  0.021832576            4 
 2873000   0.79598345   -7.5118203     765.7931  0.022212353  0.021826512            3 
 2874000   0.77003022   -7.5132608    764.94386  0.022180001  0.021820448            4 
 2875000   0.81523456   -7.5094904    766.60117  0.022220324  0.021814401            4 
 2876000   0.79185804   -7.5297912    768.21396  0.022259329  0.021808381            4 
 2877000   0.78394379   -7.5411207    765.70596  0.022178947   0.02180238            2 
 2878000   0.78252686   -7.5383115     765.5599  0.022167011  0.021796344            7 
 2879000   0.80697282   -7.5116301    766.91317  0.022198482  0.021790295            4 
 2880000   0.77244913   -7.5384058    765.68613   0.02215527  0.021784253            4 
 2881000   0.79463591    -7.513475    767.47694  0.022199379  0.021778196            4 
 2882000   0.80376872   -7.5298439    765.50121  0.022134548  0.021772153            4 
 2883000   0.77794384   -7.5385396    765.72491  0.022133337  0.021766086            3 
 2884000   0.81307701   -7.5379035    767.72301  0.022183397  0.021760041            4 
 2885000   0.81227644   -7.5313428    766.06766  0.022127893  0.021754015            6 
 2886000   0.77838454   -7.5438258    766.13513  0.022122174  0.021747991            3 
 2887000   0.79270739   -7.5207616    765.68595  0.022101546  0.021741974            4 
 2888000   0.79697921   -7.5329204    767.45753  0.022145012  0.021735962            3 
 2889000    0.7792181   -7.5141678    766.52571  0.022110468  0.021729956           10 
 2890000   0.79533113   -7.5393632    766.85884  0.022112423  0.021723904            4 
 2891000   0.77980649   -7.5648495    765.39831  0.022062675  0.021717836            2 
 2892000   0.77833058   -7.5091281     767.4986  0.022115566  0.021711794            4 
 2893000   0.77903804    -7.564201    765.57048  0.022052382   0.02170575            4 
 2894000   0.79121993    -7.524904    767.40553  0.022097602  0.021699695            3 
 2895000   0.79501361   -7.5371331    766.77538   0.02207183   0.02169365            5 
 2896000   0.78907614   -7.5253232    767.68439  0.022090366  0.021687603            5 
 2897000   0.77533422   -7.5581253    766.20033  0.022040051  0.021681561            6 
 2898000   0.77015832   -7.5351679    768.31033   0.02209312  0.021675495            5 
 2899000   0.79023843   -7.5573295    766.09193   0.02202173  0.021669445            2 
 2900000    0.7767452   -7.5359258    768.46266   0.02208226  0.021663384           15 
 2901000   0.77478878   -7.5560683    767.76044  0.022054477  0.021657348            6 
 2902000   0.78101399   -7.5378466     767.0928  0.022027705  0.021651316            3 
 2903000    0.7870329   -7.5311356     768.3084  0.022055012  0.021645302            2 
 2904000   0.78226075   -7.5409013    766.76086  0.022003009    0.0216393            3 
 2905000   0.79282029    -7.532394     768.4542   0.02204401  0.021633262            5 
 2906000   0.78725548   -7.5295049    769.07976  0.022054363  0.021627248            4 
 2907000   0.79149819   -7.4898899    770.14233  0.022077237  0.021621271            3 
 2908000   0.79639975   -7.5264573     770.7865  0.022088105  0.021615303            3 
 2909000   0.79803503   -7.5112756    767.95479  0.021999392  0.021609328            3 
 2910000   0.80116738   -7.5293354    769.57647  0.022038272  0.021603343            5 
 2911000   0.79971436   -7.5271737    768.87997  0.022010763  0.021597388            3 
 2912000    0.7946669   -7.5342104    768.53278  0.021993269  0.021591431            3 
 2913000   0.78613685   -7.5382402    769.15776  0.022003598  0.021585432            6 
 2914000   0.77767184   -7.5251592    768.60754  0.021980312  0.021579458            6 
 2915000   0.79702736   -7.5631658    768.18346  0.021960648  0.021573424            5 
 2916000   0.78166145   -7.5395279    769.42863  0.021988701  0.021567411            5 
 2917000   0.78174567   -7.5494268    767.37038  0.021922362  0.021561413            5 
 2918000   0.79451596   -7.5513025    767.40214  0.021915757  0.021555356            1 
 2919000   0.77872804   -7.5327955    767.10335  0.021899719    0.0215493            4 
 2920000   0.77402947   -7.5598031    767.70633  0.021909427  0.021543255            8 
 2921000   0.78394343    -7.526956    770.99866  0.021995854  0.021537243            3 
 2922000    0.7894724   -7.5245222    769.93015  0.021957853  0.021531273            4 
 2923000   0.79404504   -7.5179423    769.16528  0.021928535  0.021525314            2 
 2924000   0.77779809   -7.5273186    769.80857  0.021939369  0.021519362            8 
 2925000   0.79809218   -7.5320822    770.13522  0.021941174  0.021513376            3 
 2926000   0.77525824   -7.5180128    769.46269  0.021914522  0.021507387            3 
 2927000   0.79318601   -7.5360151     770.1019  0.021925233  0.021501364            4 
 2928000   0.75611271   -7.5190651    770.20768  0.021920756  0.021495352            5 
 2929000   0.78362767   -7.5424703    768.65864    0.0218692   0.02148935            6 
 2930000   0.80392706   -7.5204214    768.60114  0.021860101  0.021483344            2 
 2931000   0.79127996   -7.5353534    770.74886  0.021913706  0.021477377            3 
 2932000   0.78358982   -7.5120657    770.15177  0.021889261  0.021471389            4 
 2933000   0.78117823   -7.5484091    770.40676  0.021889043  0.021465391            4 
 2934000   0.78266208   -7.5301773    770.72955  0.021890751   0.02145939            3 
 2935000   0.77595198   -7.5510488    771.63686  0.021909053  0.021453368            7 
 2936000   0.80206391    -7.585654    770.12356  0.021858639  0.021447321            3 
 2937000   0.79115255   -7.5612224    769.23981  0.021826121  0.021441272            3 
 2938000    0.7911859   -7.5747656      769.266  0.021819435  0.021435239            2 
 2939000   0.77544741   -7.5465969    769.73223  0.021825231  0.021429213            5 
 2940000   0.78560012   -7.5470048    769.37992  0.021807821  0.021423204            2 
 2941000   0.76800108   -7.5552226    769.29684  0.021798052  0.021417177            3 
 2942000   0.77378047   -7.5063685    770.98008  0.021838321  0.021411181            2 
 2943000   0.77823769   -7.5428124    769.69346  0.021794469  0.021405252            2 
 2944000   0.78542906   -7.5266457    770.60506   0.02181287  0.021399303            2 
 2945000   0.78376539   -7.5121156    770.88031  0.021813252  0.021393345            4 
 2946000   0.78569787   -7.5183204    773.02952  0.021866642   0.02138743            2 
 2947000   0.78463972   -7.5482364    771.86698  0.021826348  0.021381488            4 
 2948000     0.773031   -7.5247741    771.94641   0.02182119  0.021375515            3 
 2949000   0.80146399   -7.5174242    771.23099  0.021793574  0.021369561            6 
 2950000   0.79069657   -7.5548165    771.35046  0.021789561  0.021363592            4 
 2951000   0.79361791   -7.5548589    771.80402  0.021794985  0.021357632            3 
 2952000   0.76399733   -7.5498202    769.56117  0.021724288  0.021351664            4 
 2953000   0.77607793   -7.5445777    770.67887  0.021748472  0.021345705            3 
 2954000   0.75629898   -7.5748991    772.36062  0.021788553  0.021339746            4 
 2955000   0.78195772   -7.5471482    771.61018  0.021760016  0.021333785            3 
 2956000   0.76580057   -7.5358594    772.50843  0.021777978  0.021327827            6 
 2957000   0.78421592   -7.5507903    771.75372  0.021749344  0.021321863            4 
 2958000   0.77635631   -7.5474296    773.28355   0.02178509  0.021315923            3 
 2959000   0.77605399   -7.5628181    771.76139   0.02173486  0.021309953            3 
 2960000    0.7782546   -7.5500491    772.16891   0.02173899  0.021304005            7 
 2961000   0.78379048   -7.5600241    772.31472  0.021735751  0.021298064            5 
 2962000   0.75653915   -7.5606829    771.73674  0.021712152   0.02129209            6 
 2963000   0.78254138   -7.5702597    771.43727  0.021696402  0.021286118            4 
 2964000   0.77345389   -7.5706232    770.84276  0.021672367  0.021280172            4 
 2965000   0.77710723   -7.5540869     773.6304  0.021743406  0.021274279            6 
 2966000   0.77801856   -7.5538897    774.13207   0.02175017   0.02126834            4 
 2967000   0.77839166   -7.5504419    772.52115  0.021697594  0.021262436            3 
 2968000   0.76913664   -7.5368684    773.26555  0.021711185  0.021256524            8 
 2969000   0.77215801   -7.5616682    773.72089  0.021716652  0.021250624            2 
 2970000   0.77152848   -7.5624962     773.7769  0.021710912  0.021244712            3 
 2971000   0.78153048   -7.5420162    772.56515  0.021669616  0.021238825            5 
 2972000   0.76952428   -7.5498407     772.5942  0.021663139  0.021232929            5 
 2973000   0.78006948   -7.5722634    772.24087  0.021645949  0.021227048            7 
 2974000   0.80674994   -7.5443941    775.33317  0.021725318   0.02122114            7 
 2975000   0.79200615   -7.5801802    773.28669  0.021660692   0.02121526            7 
 2976000   0.75115328   -7.5538049    775.38783  0.021712249  0.021209391            3 
 2977000    0.7620781   -7.5747419    771.44057  0.021594462  0.021203507            3 
 2978000   0.76488317   -7.5898329    773.79002  0.021652956  0.021197616            5 
 2979000   0.77991948   -7.5431915    774.43179   0.02166364  0.021191717            8 
 2980000   0.77507934   -7.5709863    772.76788   0.02160984  0.021185808            6 
 2981000   0.76400757   -7.5280932    772.71755  0.021601184  0.021179894            6 
 2982000    0.7721738   -7.5553499    774.03511   0.02163076  0.021174019            3 
 2983000   0.77170884   -7.5666672    775.21819  0.021656559  0.021168164            5 
 2984000   0.77098541   -7.5781476    773.65038  0.021605518  0.021162279            9 
 2985000   0.78663146   -7.5611132    773.88355  0.021604789  0.021156408            5 
 2986000   0.75389485   -7.5737443    773.47694  0.021586206  0.021150525            2 
 2987000   0.77443669   -7.5471763    775.13748  0.021625306  0.021144643            3 
 2988000   0.75766428   -7.5664859    773.41499   0.02157003  0.021138755            4 
 2989000   0.77957672   -7.5449418    773.73969  0.021571866  0.021132835            3 
 2990000   0.79633701   -7.5733023    773.21503  0.021550029  0.021126915            4 
 2991000   0.75711577    -7.570863    773.98692   0.02156433  0.021120999            3 
 2992000   0.78482687   -7.5915727     773.5005  0.021543575  0.021115092            8 
 2993000   0.75962111   -7.5434183    773.04591   0.02152372  0.021109205            6 
 2994000   0.77901976   -7.5496684    775.41256  0.021582403  0.021103347            5 
 2995000   0.77666823   -7.5650435    774.20447  0.021541582  0.021097447            5 
 2996000   0.76910225   -7.5604633    773.67367  0.021519628  0.021091567            2 
 2997000   0.75939939   -7.5615241    774.63908  0.021539292  0.021085691            4 
 2998000   0.77040677   -7.5334973    776.39694  0.021580969  0.021079796            6 
 2999000   0.77140847   -7.5507736    776.38845  0.021573537  0.021073948            3 
 3000000   0.78002695    -7.534878    774.49385  0.021513718  0.021068089            4 
 3001000   0.76296777   -7.5608009     774.7086  0.021512512  0.021062225            3 
 3002000    0.7712212   -7.5802618    774.63216  0.021503224  0.021056357            6 
 3003000   0.79109848   -7.5555289    776.39951  0.021545108  0.021050501            4 
 3004000   0.77374147    -7.559373     775.6357  0.021516747  0.021044662            3 
 3005000   0.78369396   -7.5786818    774.58656  0.021480493  0.021038815            5 
 3006000   0.78281984    -7.558336    776.50347  0.021526488   0.02103296            3 
 3007000   0.77205794   -7.5576495    775.22706  0.021483956  0.021027113            2 
 3008000   0.76166438   -7.5858679    775.84429  0.021493913  0.021021287            6 
 3009000   0.76156501   -7.5756087    777.56086   0.02153431  0.021015463            3 
 3010000   0.77517657   -7.5587816    775.39495  0.021467191  0.021009626            4 
 3011000   0.77638831   -7.5623958    776.35131   0.02148653  0.021003777            7 
 3012000   0.76534041   -7.5577991    776.15718  0.021474026  0.020997944            7 
 3013000   0.76884168   -7.5782082    776.25465  0.021469594  0.020992101            4 
 3014000   0.76631944   -7.5839203    776.07777  0.021457581  0.020986277            7 
 3015000   0.77921161   -7.5503267     777.8386  0.021499132  0.020980464            3 
 3016000   0.75910655   -7.5858543    775.55551  0.021428921  0.020974632            6 
 3017000   0.76924213   -7.5929048    776.82545  0.021456896  0.020968816            8 
 3018000   0.76128604   -7.5581328    776.87794  0.021451235  0.020962996            5 
 3019000   0.76480869   -7.6044235    775.20393  0.021397922  0.020957176            7 
 3020000   0.77071425   -7.5633759    777.63726  0.021457982  0.020951356            5 
 3021000   0.76416978   -7.5541991    778.04973  0.021462257  0.020945561            3 
 3022000   0.76050128   -7.5484734    776.73875  0.021419004  0.020939788            2 
 3023000   0.77884661   -7.5948679    778.01296  0.021447044  0.020933973            4 
 3024000   0.76601151   -7.6029148    776.89323  0.021409095  0.020928134            4 
 3025000   0.77471899   -7.5823027    775.50223  0.021363698  0.020922281            2 
 3026000   0.75511297   -7.5549683    776.03495  0.021371308  0.020916433            1 
 3027000   0.76714941   -7.5675792    778.32003  0.021427157  0.020910598            8 
 3028000   0.76768363   -7.5698525    776.70819  0.021375721  0.020904731            3 
 3029000   0.77025139   -7.6082706    777.51818  0.021390948  0.020898867            5 
 3030000   0.76996222   -7.5542557     778.5363  0.021411889  0.020893039            5 
 3031000   0.76540954   -7.5997491    775.37919  0.021318024  0.020887176           10 
 3032000   0.77996631   -7.6112099    776.50573  0.021341956  0.020881305            3 
 3033000   0.76931668   -7.6021759    776.52207  0.021335369  0.020875443            5 
 3034000   0.75380703   -7.5927822    777.12984   0.02134503  0.020869586            6 
 3035000   0.76562517   -7.5958147    776.32098  0.021315788  0.020863746            7 
 3036000   0.76213255   -7.5866766    778.66517  0.021373111  0.020857924            2 
 3037000    0.7613055   -7.5973569    776.38179  0.021303419  0.020852084            2 
 3038000   0.75350184   -7.5725318    777.93272  0.021338949  0.020846249            6 
 3039000   0.76233661   -7.5603554    777.18235  0.021311351  0.020840413            4 
 3040000   0.75905534   -7.5738109    777.19836  0.021304779  0.020834593            5 
 3041000   0.77442131   -7.5869757    777.03681  0.021293347  0.020828765            5 
 3042000   0.76429429   -7.5687623    776.71784  0.021277609  0.020822941            4 
 3043000   0.77757031    -7.558615    777.19604  0.021283712  0.020817149            4 
 3044000   0.76502351   -7.5824226    777.38302  0.021281839  0.020811344           17 
 3045000   0.75694855   -7.5712889    776.66324  0.021255152  0.020805534            3 
 3046000   0.75488629   -7.5703202    776.86195   0.02125361  0.020799708            4 
 3047000   0.75541176   -7.5694898    778.64843  0.021295494  0.020793909            4 
 3048000   0.77745694    -7.577228    778.06062  0.021272436  0.020788093            3 
 3049000   0.77102104   -7.5904513    778.27153  0.021271224  0.020782274            3 
 3050000   0.77297932   -7.5890232    779.25761  0.021291191  0.020776453            4 
 3051000   0.75476894   -7.5499084    778.09564  0.021252476  0.020770634            4 
 3052000   0.76620642   -7.5604602    778.81169  0.021265064  0.020764842            5 
 3053000   0.77611395    -7.572788     777.4027  0.021219639   0.02075909            4 
 3054000   0.76610345    -7.584214    778.58483  0.021244947  0.020753337            4 
 3055000   0.75453392   -7.5912012    778.43793  0.021233986  0.020747558            5 
 3056000   0.75961488    -7.591604    778.16359  0.021219557  0.020741797            8 
 3057000    0.7804827   -7.5597155    777.81735  0.021203177  0.020736037            2 
 3058000   0.75604557   -7.5696445    778.69423  0.021220139  0.020730288            8 
 3059000   0.76956237   -7.5820896     778.8938  0.021218639  0.020724539            5 
 3060000   0.76736594    -7.558513    779.59111  0.021230695  0.020718761            4 
 3061000   0.76657316   -7.5900606    778.28253  0.021188134  0.020712966            5 
 3062000   0.77299015   -7.5600384    779.73471  0.021220736  0.020707183            3 
 3063000   0.76767218   -7.5736658    778.57315  0.021182206  0.020701389            5 
 3064000   0.75691264   -7.5530436    778.30642  0.021168038  0.020695615            6 
 3065000   0.76221969   -7.5454187    780.06079  0.021208831  0.020689837            5 
 3066000   0.77057478    -7.573378     779.1245  0.021176465  0.020684048            8 
 3067000   0.75153252   -7.5272351     779.1178  0.021169378  0.020678292            3 
 3068000   0.75145565   -7.5796269    779.11423  0.021162381  0.020672502            5 
 3069000   0.74719425   -7.6287373    778.12171  0.021128536  0.020666677            3 
 3070000   0.74544681   -7.6110724    778.66258  0.021136335   0.02066082            3 
 3071000   0.76292543   -7.6109791    777.51677   0.02109836  0.020654921            4 
 3072000   0.76106459   -7.6389539    776.95113  0.021076148  0.020649039            4 
 3073000   0.75913635   -7.6053314    777.31829  0.021079246  0.020643139            3 
 3074000   0.77579262   -7.6055111    779.40605  0.021128986   0.02063725            4 
 3075000    0.7462237   -7.6326451    777.55543  0.021071963  0.020631391            3 
 3076000   0.76497406    -7.598469    777.19945  0.021055468  0.020625506            3 
 3077000   0.76475003   -7.6005271      779.798  0.021119001  0.020619635            4 
 3078000   0.75696416   -7.6212934    776.13074  0.021012853  0.020613782            3 
 3079000   0.77060237   -7.5858872    777.48905  0.021042791  0.020607921            2 
 3080000   0.75375847   -7.5933371    779.99724  0.021103821  0.020602087            3 
 3081000   0.76426188    -7.582762    778.60188  0.021059231  0.020596263            5 
 3082000   0.77584204   -7.5955204    776.89134  0.021006147  0.020590438            3 
 3083000   0.75890555   -7.5969093    779.26377   0.02106346  0.020584634            9 
 3084000   0.76800757   -7.5744206    777.96539  0.021021547  0.020578838            6 
 3085000   0.76322015   -7.5775694    780.28807  0.021077474  0.020573031            3 
 3086000   0.74941403   -7.5591947    779.91458  0.021060558  0.020567255            3 
 3087000   0.74915409   -7.5924937    780.13825  0.021059773  0.020561493            4 
 3088000   0.73531418   -7.5634278    779.84412  0.021045016  0.020555685            8 
 3089000   0.76794999   -7.5892389    778.97924  0.021014871  0.020549877            3 
 3090000   0.76612642   -7.6017253    778.13411  0.020985278  0.020544046           13 
 3091000   0.76131284   -7.6052667    778.18634  0.020979897  0.020538173            4 
 3092000   0.76375549   -7.6144064    778.75151  0.020988344  0.020532285           13 
 3093000    0.7481614   -7.6058507    778.49058  0.020974528   0.02052642            5 
 3094000    0.7651591   -7.6052566    780.16712  0.021012905  0.020520571            4 
 3095000   0.77067871     -7.61614    777.72179  0.020940274  0.020514722            8 
 3096000   0.76838618   -7.6173849    780.72868  0.021014445   0.02050887            3 
 3097000   0.76061402     -7.61234    778.88726  0.020958112  0.020503045            4 
 3098000   0.74258936   -7.5933136    779.82643  0.020976609  0.020497218            3 
 3099000   0.76812274   -7.6090876    782.52025  0.021042278  0.020491425            4 
 3100000   0.75784131   -7.6353291    779.04058  0.020941951  0.020485611            5 
 3101000   0.76596558   -7.6169085    778.99221  0.020933898  0.020479801            6 
 3102000   0.76184743   -7.6160848    781.54113  0.020995625  0.020474006            3 
 3103000   0.74176871   -7.5828797    782.48141   0.02101411  0.020468227            8 
 3104000   0.75394923   -7.5920246    780.61792  0.020957311  0.020462461            3 
 3105000   0.74637853   -7.6190489    780.48406  0.020946969  0.020456684            8 
 3106000   0.74857989   -7.6137668    779.75439  0.020920648  0.020450882            4 
 3107000   0.75556071   -7.6176991    779.52511  0.020907765   0.02044509            4 
 3108000   0.75175091   -7.6252408    781.14502  0.020944472  0.020439322            2 
 3109000   0.74252493   -7.6294514    780.79161  0.020928262  0.020433539            4 
 3110000   0.77824002   -7.6275971     780.1571  0.020904531  0.020427749            4 
 3111000   0.75859451   -7.6107242    780.09782  0.020896224  0.020421929            3 
 3112000   0.76284693   -7.6366369    778.94969  0.020858764   0.02041611            2 
 3113000   0.76184133    -7.623704    777.11865  0.020803048   0.02041028           10 
 3114000    0.7590928   -7.6246967    778.30703  0.020828169  0.020404475            8 
 3115000    0.7484471   -7.6138759    779.68175   0.02085826  0.020398633            3 
 3116000   0.76093644   -7.6148877    780.35528  0.020869579  0.020392812            9 
 3117000   0.74953997   -7.5938263    779.81919  0.020848551  0.020386995            6 
 3118000    0.7554451   -7.6132893    781.12039  0.020876641  0.020381205            5 
 3119000   0.76429824   -7.6197674    780.99593  0.020866622  0.020375406            9 
 3120000   0.75627684   -7.5970332    781.67945   0.02087819  0.020369614            8 
 3121000   0.75880262   -7.6197068    781.81685   0.02087517  0.020363815            2 
 3122000   0.75519344   -7.6093694    779.51302  0.020806988  0.020358024            5 
 3123000   0.75137728   -7.5940605    781.66648  0.020857788  0.020352235            5 
 3124000   0.74449386   -7.6085288    780.69684  0.020825246  0.020346433            4 
 3125000   0.72884173   -7.6030505    779.77666  0.020794044  0.020340638            5 
 3126000   0.75582143   -7.6113975    782.55286  0.020861401   0.02033485            9 
 3127000   0.76468767   -7.6080705     779.5641   0.02077508  0.020329054            6 
 3128000   0.75144956   -7.6002135      781.637  0.020823663  0.020323292           10 
 3129000   0.74726046     -7.58837    780.52615  0.020787423  0.020317499            5 
 3130000   0.75050095   -7.5970279    780.39986  0.020777419  0.020311729            5 
 3131000    0.7364047   -7.6111039    781.12117  0.020789981  0.020305951            4 
 3132000   0.72181276   -7.6120134    781.98344  0.020806286  0.020300161           11 
 3133000   0.73730082   -7.6165839    781.12641  0.020776849   0.02029437            6 
 3134000    0.7317827   -7.5944734    781.62337  0.020783433  0.020288593            2 
 3135000   0.74919221   -7.6354199    779.89822  0.020730947  0.020282768            5 
 3136000    0.7456417   -7.6294081    780.99907  0.020753589  0.020276946            4 
 3137000   0.75293874   -7.6199969    781.02259  0.020747598  0.020271113            8 
 3138000     0.739979   -7.6406372    780.87065  0.020736952  0.020265317           12 
 3139000   0.75443949   -7.6365678    782.18508  0.020765241  0.020259515            6 
 3140000   0.75414572   -7.6648324    780.24379  0.020707107   0.02025368            3 
 3141000   0.73738907   -7.6168813    781.65825  0.020738041  0.020247861            4 
 3142000   0.71957806    -7.609746     782.0391  0.020741542  0.020242067            5 
 3143000   0.75437599   -7.6152111    780.93854  0.020705763  0.020236265            5 
 3144000   0.75131639   -7.6081492    781.46036  0.020713008  0.020230472            6 
 3145000   0.74700643     -7.62965    781.82512  0.020716087  0.020224659            7 
 3146000   0.74158181   -7.6153623     780.6815  0.020679209   0.02021883            4 
 3147000   0.76333759   -7.6217304    780.93263  0.020679288  0.020213019            8 
 3148000   0.76816423    -7.604544    781.83272  0.020696546  0.020207218            6 
 3149000   0.74576747   -7.5938865    782.92691   0.02071893  0.020201438            5 
 3150000   0.76263794    -7.645879     780.0025  0.020634987  0.020195663            6 
 3151000   0.74976867   -7.6032898    782.24477  0.020687739  0.020189885            3 
 3152000   0.73933731   -7.6409846    782.31354  0.020682993  0.020184099            6 
 3153000    0.7382608   -7.6276425    780.25512   0.02062203  0.020178281            7 
 3154000   0.73476128   -7.6085016    780.34008  0.020617736  0.020172473            6 
 3155000   0.74485897   -7.6127165    781.52288  0.020642443  0.020166668            6 
 3156000   0.74912504   -7.6262734    782.89554  0.020672147  0.020160856            6 
 3157000   0.75345942   -7.6220547    781.53733  0.020629747  0.020155055            3 
 3158000      0.75464   -7.6361784    782.43488  0.020646899  0.020149276            8 
 3159000   0.73701957   -7.6335937     781.2283  0.020608534  0.020143492            3 
 3160000   0.73685159   -7.6487379    782.76234  0.020642467  0.020137692            5 
 3161000   0.75093093   -7.6262003    781.67581  0.020607292  0.020131915            3 
 3162000   0.72330506     -7.59753     784.8418  0.020684213   0.02012616            3 
 3163000   0.74937068   -7.6192169    782.08009  0.020604913   0.02012039            3 
 3164000   0.73422192   -7.6221516     782.4283  0.020607572    0.0201146            2 
 3165000   0.75212866   -7.6251748    781.52622   0.02057731  0.020108807            5 
 3166000   0.75150348   -7.6550123    782.39425  0.020593658  0.020103007            3 
 3167000   0.74405801   -7.6237734    781.18321  0.020555289  0.020097192            3 
 3168000   0.74970604   -7.6053021    783.40401  0.020607218  0.020091389           13 
 3169000   0.74299428   -7.6123752    782.26341  0.020570722  0.020085607            4 
 3170000   0.74737735   -7.6308487    781.14773  0.020534904  0.020079803            5 
 3171000   0.75819641   -7.6248263    782.75486  0.020570663  0.020074001            5 
 3172000   0.74982629   -7.6476325    780.07951  0.020493892   0.02006819            6 
 3173000   0.73171952   -7.6147248    780.52248  0.020499067  0.020062368            5 
 3174000    0.7416475   -7.6218084    782.13096  0.020534839  0.020056579            9 
 3175000   0.73291582   -7.6303005    780.99549  0.020498569  0.020050795            8 
 3176000   0.74559391   -7.6245087     781.0189  0.020492729  0.020044989            3 
 3177000   0.75535846   -7.6149159    782.37932  0.020521963  0.020039177            3 
 3178000   0.74506483   -7.6102477    784.55823  0.020572641   0.02003338            2 
 3179000   0.76107116   -7.6431924     781.2389  0.020479157  0.020027593            4 
 3180000   0.74664529   -7.6041151    782.40891  0.020503378  0.020021802            1 
 3181000   0.74940614   -7.6291244    781.45172  0.020471857  0.020015977            3 
 3182000    0.7465573   -7.6593657    780.51211  0.020440816  0.020010126            7 
 3183000   0.74920906   -7.6312793    781.11676  0.020450224  0.020004279            5 
 3184000   0.73747747   -7.6063299    781.97973  0.020466387  0.019998454            5 
 3185000    0.7433611   -7.6248822    781.58427  0.020449615  0.019992627            9 
 3186000   0.72733635   -7.6346109    782.28392  0.020461496  0.019986784            6 
 3187000   0.73750898   -7.6475957     781.0098   0.02042176  0.019980905            3 
 3188000   0.75043592   -7.6267898    781.57529  0.020430136  0.019975037            3 
 3189000   0.75128578   -7.6609035    781.97849  0.020434266  0.019969196            5 
 3190000   0.75339565    -7.656683    780.90448  0.020399804  0.019963325            3 
 3191000   0.74327898   -7.6492823    781.74225  0.020415289  0.019957467            6 
 3192000   0.75830072   -7.6080089    782.25669  0.020422324   0.01995164            2 
 3193000   0.72904662     -7.63636    782.38649  0.020419315  0.019945799            3 
 3194000   0.75231816   -7.6354343    782.31087   0.02041095  0.019939952            8 
 3195000   0.75224213    -7.631293    781.75778  0.020390135  0.019934093            4 
 3196000   0.71849562   -7.6367622    782.01196  0.020390383  0.019928242           10 
 3197000   0.73237631   -7.6510654    781.63331  0.020374135  0.019922397           10 
 3198000   0.73887375   -7.6269069    778.71969  0.020291841  0.019916551            5 
 3199000   0.74292336   -7.6378332    782.20281  0.020376232   0.01991067            2 
 3200000   0.73016912   -7.6314872    782.21202  0.020370105   0.01990481            3 
 3201000   0.73062383   -7.6593177    782.09416  0.020360673  0.019898946            3 
 3202000   0.74621175   -7.6512249     781.9999  0.020351861  0.019893077            7 
 3203000   0.74947374   -7.6406934    780.47513  0.020305836  0.019887225            4 
 3204000   0.75187371   -7.6564381    780.20309  0.020292423  0.019881375            4 
 3205000   0.73902366   -7.6548275    780.32625  0.020289294   0.01987551            2 
 3206000   0.74943154   -7.6300711     779.5519  0.020262838  0.019869647            4 
 3207000    0.7405309   -7.6435869    780.43694  0.020279517  0.019863795            7 
 3208000   0.72715327   -7.6409868    782.23684  0.020319951  0.019857937            4 
 3209000   0.74522821   -7.6383258    780.74319  0.020274831  0.019852063            3 
 3210000   0.75661483   -7.6571164    782.20847  0.020306554  0.019846193            4 
 3211000    0.7458295   -7.6672845    780.07008  0.020244734  0.019840314            2 
 3212000   0.73271605   -7.6507317    779.03738  0.020211638  0.019834422            2 
 3213000   0.74063805   -7.6655018    781.73421  0.020275293  0.019828552            4 
 3214000    0.7405467   -7.6534959    782.08139  0.020277987  0.019822659            4 
 3215000   0.73393529    -7.650089    780.44573  0.020229283  0.019816782            3 
 3216000   0.74498846   -7.6693322    780.06789  0.020213202  0.019810911            3 
 3217000   0.75104413    -7.679019    780.86623  0.020227599  0.019805022            6 
 3218000   0.74362922   -7.6464858    780.38052  0.020208735  0.019799143            4 
 3219000   0.74699499   -7.6535476    781.96895  0.020243578  0.019793282            6 
 3220000   0.71219061   -7.6400096    781.93928  0.020236524  0.019787413            5 
 3221000    0.7312786   -7.6472619     781.4692  0.020218079  0.019781535            8 
 3222000   0.73844169   -7.6637766     781.8892  0.020222667  0.019775691            3 
 3223000   0.73859214   -7.6262841    784.36705  0.020280459  0.019769832            4 
 3224000   0.73729415   -7.6540359    781.01766  0.020187595  0.019763999            6 
 3225000   0.75181072    -7.638417     783.9962    0.0202583  0.019758167            4 
 3226000   0.73490205   -7.6452027    781.28238  0.020181917  0.019752341            4 
 3227000   0.72882024   -7.6189818    783.24582  0.020226367  0.019746509            6 
 3228000   0.74399652   -7.6641719    782.53691    0.0202018  0.019740672            4 
 3229000   0.74413507   -7.6528141    780.11987  0.020133165  0.019734813            7 
 3230000   0.74449142   -7.6687323    781.65179  0.020166455  0.019728944            6 
 3231000     0.738534     -7.65598    780.80486   0.02013837  0.019723073            4 
 3232000   0.72804302   -7.6625375    782.09051  0.020165287  0.019717204            4 
 3233000   0.74624922   -7.6754157    782.69041  0.020174513  0.019711329            5 
 3234000    0.7449158   -7.6661978    781.96007  0.020149456  0.019705462            4 
 3235000   0.73470782   -7.6547109    781.69131  0.020136304  0.019699588            5 
 3236000   0.73209854     -7.66171    782.65218  0.020154826  0.019693724            8 
 3237000   0.73068035   -7.6833488    781.31594  0.020114199  0.019687849            5 
 3238000   0.72588712   -7.6576753    783.14102  0.020154957  0.019681978            3 
 3239000   0.73807998   -7.6357995    781.84226   0.02011532  0.019676139            8 
 3240000   0.71930254   -7.6702377    781.97701  0.020112578  0.019670304            5 
 3241000   0.72821692   -7.6547883    781.72638  0.020099927  0.019664457            4 
 3242000   0.72706342   -7.6505941    781.91781  0.020098648  0.019658632            7 
 3243000    0.7094135   -7.6498255    784.02292  0.020146544  0.019652825            5 
 3244000   0.74151672    -7.665224    782.17251    0.0200928  0.019647025            4 
 3245000   0.74055921   -7.6469303    782.99914  0.020107836  0.019641239            3 
 3246000   0.72718897   -7.6561949    782.80039  0.020096539  0.019635447            4 
 3247000   0.72465154   -7.6758545    782.19327  0.020074768   0.01962964            6 
 3248000   0.73669784   -7.6671563    781.88641  0.020060715   0.01962382            3 
 3249000    0.7488172   -7.6508308    783.28993  0.020090539  0.019617996            4 
 3250000   0.72031499   -7.6648751     783.9761  0.020101951  0.019612157            5 
 3251000   0.73806397   -7.6658107    781.97607  0.020044501  0.019606346            7 
 3252000   0.72275606   -7.6479377    781.44159  0.020024641  0.019600533            6 
 3253000   0.73785398   -7.6841429      782.735  0.020051619  0.019594721            5 
 3254000   0.72753584   -7.6694095    782.73942   0.02004557  0.019588906            5 
 3255000   0.73310774   -7.6790162    781.95846  0.020019418  0.019583077            6 
 3256000   0.73103535   -7.6614262    783.76179  0.020059423  0.019577269            3 
 3257000   0.73693297   -7.6726384    781.02187  0.019983161  0.019571465            3 
 3258000   0.73714492   -7.6758152    783.33661  0.020036234  0.019565636            5 
 3259000   0.72110798   -7.6474326    783.82265  0.020042514  0.019559813            5 
 3260000   0.72538156   -7.6806193    781.84668  0.019985856  0.019553991            5 
 3261000   0.73305454   -7.6482537    781.37449   0.01996766  0.019548173            5 
 3262000   0.73086291   -7.6535848    784.10614  0.020031324   0.01954236            8 
 3263000   0.74156151   -7.6619572    782.79638  0.019991735  0.019536573            5 
 3264000   0.72453263   -7.6813962    781.83746  0.019961128  0.019530788            4 
 3265000    0.7372279   -7.6654513    785.26267  0.020042437  0.019524983            3 
 3266000   0.72740967   -7.6617417    783.15256   0.01998246  0.019519161            3 
 3267000   0.71037343    -7.668931    781.17427  0.019925882  0.019513336            4 
 3268000   0.73596719   -7.6763812     782.5102   0.01995385   0.01950751           11 
 3269000   0.73512056   -7.6584354    781.25062  0.019915637  0.019501688            2 
 3270000    0.7161386   -7.6774062    781.82702  0.019924236  0.019495839            4 
 3271000    0.7200312    -7.676658    782.99651  0.019947939  0.019490039            3 
 3272000   0.71653187   -7.6526204    784.10433  0.019970057  0.019484222            3 
 3273000   0.73478356   -7.6698169    782.55952  0.019924624  0.019478396            5 
 3274000   0.72663504    -7.656733    781.98855  0.019904005  0.019472592            2 
 3275000   0.73433895   -7.6573235    781.79774  0.019893072  0.019466788            4 
 3276000   0.73306519   -7.6565361    785.02471  0.019969086  0.019460976            4 
 3277000   0.72582891   -7.6603065    783.24325   0.01991769  0.019455168            4 
 3278000   0.72422434   -7.6482581    783.06571  0.019907101  0.019449372            3 
 3279000   0.74213521   -7.6749984     782.4135  0.019884454   0.01944356            3 
 3280000   0.73589818   -7.6773608    781.62436  0.019858342  0.019437732            6 
 3281000   0.72129118   -7.6604586    781.58795  0.019851365  0.019431884            3 
 3282000   0.72140695   -7.6897263    781.72064  0.019848686  0.019426049            6 
 3283000   0.72182271   -7.6833052    782.27031  0.019856592  0.019420229            7 
 3284000   0.74407321    -7.653284    782.44398  0.019854953  0.019414411            5 
 3285000   0.73138012   -7.6542584    781.80845  0.019832787  0.019408605            8 
 3286000   0.72887635   -7.6569607    782.13543  0.019835043  0.019402775            2 
 3287000   0.72937942   -7.6498358      782.997  0.019850852  0.019396969            4 
 3288000   0.73787737   -7.6900657    781.31991  0.019802309  0.019391157            6 
 3289000   0.71190884   -7.6649415    782.32751  0.019821818  0.019385345            4 
 3290000   0.75836714    -7.660129    782.87798  0.019829736  0.019379542            7 
 3291000   0.73332128    -7.686087    782.30137   0.01980911   0.01937371            6 
 3292000   0.72387866   -7.6858146    783.05193  0.019822092  0.019367855            3 
 3293000   0.71833623   -7.6388068    782.01814  0.019789911  0.019362035            2 
 3294000    0.7411571   -7.6826888    782.29109  0.019790809  0.019356223            5 
 3295000   0.71854916   -7.6758174    782.26829  0.019784226  0.019350422            4 
 3296000   0.72374688    -7.663054     784.8142  0.019842592  0.019344626            6 
 3297000    0.7186873   -7.6692568    782.84095  0.019786699  0.019338816            3 
 3298000   0.73895832   -7.6584717    783.56403   0.01979897     0.019333            2 
 3299000   0.71556059   -7.6642608    781.72918   0.01974662  0.019327173            6 
 3300000   0.74429921   -7.6654862    784.36253  0.019807135  0.019321361            3 
 3301000    0.7350008   -7.6678399    785.60934   0.01983261   0.01931554            3 
 3302000   0.71365664   -7.6591123    782.71894  0.019753658  0.019309736            6 
 3303000   0.72080086   -7.7126516    781.58232  0.019719001  0.019303922            3 
 3304000   0.72543045   -7.6649818    784.32469  0.019782201  0.019298101            2 
 3305000   0.71307291   -7.6503463    780.65489  0.019683683  0.019292302            5 
 3306000   0.72836915   -7.6837555    783.74524  0.019755627  0.019286508            3 
 3307000   0.72021025   -7.6726165    783.83377  0.019751884  0.019280729            7 
 3308000   0.73414952   -7.6696965    783.25651  0.019731371  0.019274943            9 
 3309000   0.73436619   -7.6737777    784.61059  0.019759509  0.019269154            6 
 3310000   0.71592792   -7.6511765    782.40471  0.019698004  0.019263342            3 
 3311000   0.72328208   -7.6697174    783.25893  0.019713554  0.019257548            3 
 3312000     0.715593   -7.6654446    783.89265  0.019723547  0.019251737            4 
 3313000   0.71411979   -7.6596639     783.6464    0.0197114  0.019245937            6 
 3314000   0.72890564   -7.7032555    784.45238  0.019725719  0.019240141            4 
 3315000   0.72389848   -7.6848182    784.78514  0.019728133  0.019234347            6 
 3316000   0.73142794   -7.6688781     783.5486  0.019691109   0.01922857            6 
 3317000   0.71959468   -7.6538597    783.44846  0.019682656  0.019222801            4 
 3318000   0.71643989   -7.7009663    784.69168  0.019707948  0.019217029            4 
 3319000   0.71424787   -7.6586032    782.09894  0.019636912  0.019211238            3 
 3320000   0.74487852   -7.6911992    784.54599   0.01969242  0.019205462            6 
 3321000   0.71260927   -7.6544955    783.69648  0.019665173  0.019199696            3 
 3322000   0.71279957   -7.6577038    783.02644  0.019642445  0.019193947            3 
 3323000   0.72612965   -7.6683295    783.73522  0.019654309   0.01918819            5 
 3324000   0.71251652   -7.6816613    782.61596  0.019620336   0.01918242           10 
 3325000   0.72749938   -7.6856184    784.48588    0.0196613  0.019176637            7 
 3326000   0.72940364   -7.7066506    783.57263  0.019632507  0.019170856            7 
 3327000   0.71679003   -7.6801374    783.41823  0.019622739  0.019165072            4 
 3328000   0.71283033   -7.6934273    783.84916  0.019627633  0.019159272            4 
 3329000   0.71501178   -7.6627185    783.35522  0.019609373  0.019153495            3 
 3330000   0.71400545   -7.7018869    783.66296  0.019611185  0.019147731            4 
 3331000    0.7231359   -7.6928656    782.19872  0.019568666  0.019141955            7 
 3332000   0.70671811   -7.6905993    783.93863  0.019606308  0.019136179            5 
 3333000   0.70598959    -7.682877    783.50041  0.019589469  0.019130421            3 
 3334000   0.70971986   -7.7088139    783.30645  0.019578745  0.019124643            5 
 3335000   0.71688458   -7.6949838    781.92555   0.01953837  0.019118852            4 
 3336000   0.70853169   -7.7162891     782.8129  0.019554679  0.019113041            7 
 3337000   0.70635393   -7.6964234    783.87153  0.019575256  0.019107237            3 
 3338000   0.71602413   -7.6774986    781.77427  0.019517033  0.019101471            3 
 3339000    0.7024492   -7.6624811    781.13006   0.01949511  0.019095686            5 
 3340000   0.70674295    -7.679293    783.96612  0.019560033  0.019089905            3 
 3341000   0.71539708   -7.6762343    783.19732  0.019535003  0.019084127            6 
 3342000   0.72352222   -7.6807461    785.56713  0.019588249  0.019078359            4 
 3343000   0.71456652   -7.6912213    782.26892  0.019500173  0.019072586           10 
 3344000   0.70919999    -7.665946    785.76086  0.019581361  0.019066814            2 
 3345000    0.7224004   -7.6690772    784.48626  0.019543753  0.019061054            4 
 3346000   0.71996327   -7.6799341    785.96334    0.0195747  0.019055306            3 
 3347000    0.7213016   -7.6878801    783.89516  0.019517358  0.019049569            9 
 3348000   0.70260502   -7.6813343    783.72139  0.019507203  0.019043804            5 
 3349000   0.72651755   -7.6982786     783.9778  0.019507758  0.019038033            4 
 3350000   0.70931296   -7.7126362    781.63624  0.019443688  0.019032254            4 
 3351000   0.71481791   -7.7192776    783.25738    0.0194782  0.019026485            4 
 3352000   0.71026039   -7.7097569    784.69601  0.019508155  0.019020721            3 
 3353000   0.70596328    -7.693367    786.86105  0.019556145   0.01901497            6 
 3354000   0.72824953    -7.706967      785.728  0.019522162  0.019009218            4 
 3355000   0.71054778   -7.6877144    784.21168   0.01947868  0.019003477            6 
 3356000   0.72074636   -7.6842032     782.7039  0.019435437  0.018997705            3 
 3357000   0.71876455    -7.688106    784.68769  0.019478892  0.018991936            3 
 3358000   0.70802761   -7.7189912     783.6987  0.019448548  0.018986166            8 
 3359000   0.73217132   -7.6781398    783.99241  0.019450045  0.018980402            6 
 3360000   0.71137802    -7.690811    783.62536  0.019435153  0.018974647            8 
 3361000   0.70849792   -7.6808134    783.20168  0.019418865  0.018968888            9 
 3362000   0.71140332   -7.7068293    784.61761  0.019448186  0.018963112           14 
 3363000   0.71833605   -7.7127081    782.57796  0.019391861  0.018957304            3 
 3364000   0.71337447   -7.6954314    784.14245  0.019424853   0.01895151            4 
 3365000   0.71349092   -7.6899086    783.23057  0.019396497  0.018945752            5 
 3366000   0.71660187   -7.6833418    784.05686  0.019411192  0.018940009            7 
 3367000   0.71674734   -7.6927666    784.46629   0.01941556  0.018934245            4 
 3368000   0.71043809    -7.671891     783.5592  0.019387352  0.018928493            4 
 3369000   0.71028186   -7.6922467    785.35224  0.019425948  0.018922742            5 
 3370000   0.71078327   -7.7086666    785.53092  0.019424602  0.018917006            6 
 3371000    0.6954725   -7.6831986    785.36056  0.019414629  0.018911247            9 
 3372000   0.69720953   -7.6807151    782.60623  0.019340802  0.018905506            6 
 3373000   0.72765442   -7.6882348    782.95609  0.019343712  0.018899764            3 
 3374000   0.71946482   -7.6837239    784.95706    0.0193874  0.018894014            3 
 3375000   0.71036732   -7.6917084    785.83698  0.019403382  0.018888293            8 
 3376000   0.71631427    -7.673532    785.77381  0.019396075  0.018882564            6 
 3377000   0.69929747   -7.6778076    784.51164  0.019359186  0.018876832            4 
 3378000   0.70415855   -7.7031932    786.35897  0.019399027  0.018871114            5 
 3379000   0.71124704   -7.6942048    782.97994  0.019309952  0.018865386            5 
 3380000   0.71282201   -7.6951251    785.01873  0.019354505  0.018859667            3 
 3381000   0.70792914   -7.7146722    783.78302  0.019318324  0.018853931            4 
 3382000   0.71237601   -7.6869591    784.06169  0.019319478  0.018848207            3 
 3383000   0.71265212   -7.7041796    784.79472  0.019331824  0.018842486            2 
 3384000   0.71457016   -7.7052029    784.68097   0.01932331  0.018836754            5 
 3385000   0.70653038    -7.718051    784.57177  0.019314913  0.018831006           11 
 3386000   0.71296193   -7.6908737     784.8474  0.019315992  0.018825288            6 
 3387000   0.70004148   -7.6876148    783.54744  0.019278305  0.018819563           11 
 3388000   0.71534376   -7.7151709    785.39771  0.019318125  0.018813853            6 
 3389000   0.68842881   -7.7329525    784.92502  0.019300802  0.018808126           12 
 3390000   0.70471071   -7.7029233     785.1674  0.019301067  0.018802402           20 
 3391000   0.70110333   -7.7009435    786.70254  0.019333101  0.018796703            4 
 3392000   0.71631493   -7.6927746    786.44053  0.019320964  0.018790989           13 
 3393000   0.72024314   -7.7122377    784.52847  0.019268309  0.018785259            3 
 3394000   0.68578932   -7.7247885    784.20972  0.019254805  0.018779527            4 
 3395000   0.71881791   -7.7074649    785.10871  0.019271201  0.018773809            9 
 3396000   0.69435624   -7.6842711     784.0099  0.019238563  0.018768103            6 
 3397000   0.71215791   -7.7192983    785.55903  0.019270902    0.0187624            5 
 3398000   0.69617555     -7.70643    785.02595  0.019252157  0.018756698            8 
 3399000   0.71573257   -7.7264298    786.47067  0.019281913     0.018751            6 
 3400000   0.71638314   -7.7048978    786.18258  0.019269181  0.018745312            7 
 3401000   0.71235808   -7.7062944    783.79313  0.019204967  0.018739624           14 
 3402000   0.70484614   -7.7322152    784.69518  0.019221418  0.018733921            3 
 3403000    0.6939565   -7.7061071    785.72852  0.019241074  0.018728224            5 
 3404000   0.71851537   -7.7261632    786.14118  0.019245524  0.018722513            6 
 3405000   0.69508656    -7.730908    787.08213  0.019262901  0.018716823            7 
 3406000   0.69586015   -7.7197281    783.98258   0.01918141  0.018711136            6 
 3407000   0.70659416   -7.7314693    785.29916  0.019207983  0.018705435            3 
 3408000    0.7105362   -7.7244343    785.80335  0.019214675  0.018699728            7 
 3409000   0.69861316   -7.6902546    786.94606  0.019236972  0.018694033            4 
 3410000   0.71542834   -7.7060357     785.2565  0.019190041  0.018688356            8 
 3411000   0.71222509   -7.7109159    785.40384  0.019188015  0.018682662            2 
 3412000   0.69939011    -7.727158    783.55599  0.019137261  0.018676958            9 
 3413000   0.71243454   -7.7307932    783.80995  0.019137854  0.018671251            6 
 3414000   0.70019119   -7.7241787    783.65123  0.019128374  0.018665538            4 
 3415000   0.70786024   -7.7047187    784.42907  0.019141754   0.01865984            5 
 3416000    0.6981073   -7.7160503    784.04541  0.019126791  0.018654127            6 
 3417000   0.71850494   -7.7119183    786.41727  0.019179038  0.018648457            3 
 3418000   0.70057059    -7.697188     786.4045  0.019173115  0.018642793            6 
 3419000   0.70887999   -7.7087083    786.87358  0.019178941  0.018637127            7 
 3420000   0.70403306   -7.7144324    786.31596  0.019159746  0.018631475            3 
 3421000   0.70578207   -7.7037015    787.67107  0.019187155   0.01862581            5 
 3422000   0.69241646   -7.7261001    785.43604   0.01912712  0.018620138            5 
 3423000   0.69501598   -7.7077166      785.071  0.019112645  0.018614463            7 
 3424000   0.69214366   -7.7092444    786.07239  0.019131435  0.018608784            6 
 3425000   0.69379649   -7.7521383    785.71028  0.019117038  0.018603099            8 
 3426000   0.69678613   -7.7251854    785.83155  0.019114408  0.018597408            6 
 3427000   0.70617199   -7.7392297    785.91542   0.01911087   0.01859173            6 
 3428000   0.68952653   -7.7289565    786.17176  0.019111527   0.01858606            8 
 3429000   0.70279937   -7.7258665    785.08567  0.019079558  0.018580381            4 
 3430000   0.68655429   -7.7403471    785.33217  0.019079985  0.018574698            3 
 3431000   0.69073222   -7.7351806    786.11931  0.019093542  0.018569023            6 
 3432000   0.70103404     -7.75982    786.22295  0.019090495  0.018563364           16 
 3433000   0.70576258   -7.7234184     787.1794  0.019108151  0.018557713            7 
 3434000   0.69395471   -7.7238277    785.20225  0.019054607  0.018552054            8 
 3435000   0.69771729    -7.694584    786.22701  0.019073921  0.018546402            4 
 3436000   0.70272616   -7.7194448     786.3193  0.019070608  0.018540756            4 
 3437000    0.7109579   -7.7479899    784.83607  0.019029097  0.018535106            9 
 3438000   0.69282938   -7.7612267    784.85316  0.019023976  0.018529445            4 
 3439000   0.69451351   -7.7499325    786.25205  0.019052342  0.018523775            7 
 3440000   0.69421346   -7.7562578    786.13257  0.019043909  0.018518114            4 
 3441000   0.69577115   -7.7500086    784.57225  0.019000587  0.018512431            4 
 3442000   0.71757528   -7.7386646    785.17477  0.019009655  0.018506757            5 
 3443000   0.70697444   -7.7413373    785.97055  0.019023394  0.018501072            4 
 3444000   0.70102025   -7.7357088     785.5499  0.019007692    0.0184954            3 
 3445000   0.70009392   -7.7376621    785.66323  0.019004916  0.018489721           13 
 3446000   0.70947048   -7.7352976    785.52089  0.018995959  0.018484049            7 
 3447000   0.70086713   -7.7441175    784.91237  0.018975737  0.018478365            5 
 3448000    0.6984066   -7.7756814    786.19469  0.019001225   0.01847268            3 
 3449000   0.68989649   -7.7546432    784.71865  0.018960052  0.018467013            6 
 3450000    0.6955617   -7.7467852    784.50701  0.018949445  0.018461344            9 
 3451000   0.69724942   -7.7484088    785.75377   0.01897406  0.018455665            5 
 3452000   0.68382851   -7.7748407    784.27831  0.018932945  0.018449985            7 
 3453000   0.71451367   -7.7457054    785.05055  0.018946099   0.01844431           12 
 3454000   0.70471073    -7.721854    786.65712  0.018979375  0.018438644            3 
 3455000   0.71209346   -7.7525997    784.82284  0.018929639  0.018432985           10 
 3456000   0.69122312   -7.7656696    784.19597  0.018909046  0.018427328            7 
 3457000   0.71094986   -7.7432271    784.16935  0.018902935   0.01842167            6 
 3458000   0.70269939   -7.7506205    787.71222  0.018982847  0.018416032            8 
 3459000   0.68590306   -7.7458083    785.69958  0.018928871  0.018410401            4 
 3460000   0.69192148   -7.7330808    786.91105  0.018952578  0.018404779           12 
 3461000   0.70364544   -7.7498574    785.84711  0.018921485  0.018399163            7 
 3462000   0.70337008   -7.7418672    786.76454  0.018938103  0.018393547           10 
 3463000   0.71251425   -7.7594535    787.30746  0.018945699  0.018387919            6 
 3464000   0.69795329   -7.7403086    785.73863  0.018902488  0.018382298            3 
 3465000    0.6920486   -7.7166348    786.25074  0.018909349  0.018376679            8 
 3466000   0.70883943    -7.718177    786.23882  0.018903607  0.018371071            8 
 3467000    0.6936731   -7.7905411    786.44927  0.018903213  0.018365441            4 
 3468000   0.69503412   -7.7534085    785.73796   0.01888067   0.01835983            6 
 3469000   0.69326216   -7.7550934    784.53333  0.018846289  0.018354226            4 
 3470000   0.70819266   -7.7525521    785.84602  0.018872383  0.018348613            4 
 3471000   0.69197986   -7.7380992     786.3834  0.018879847  0.018343006            5 
 3472000   0.68560897   -7.7409138    788.60339  0.018927693  0.018337399            4 
 3473000   0.71091408   -7.7584875    786.91638  0.018881764  0.018331785            7 
 3474000   0.69681472   -7.7550361    785.26896  0.018836811  0.018326176            5 
 3475000   0.69469885   -7.7564353    784.51807  0.018813383   0.01832056           10 
 3476000   0.69787603    -7.770298     786.3759   0.01885251  0.018314938            3 
 3477000    0.6849631   -7.7349225    787.84656  0.018882335  0.018309329            4 
 3478000    0.6990085   -7.7455513    788.37587  0.018889589  0.018303732            2 
 3479000   0.69538009   -7.7571436    788.24736  0.018881081   0.01829812            2 
 3480000   0.69630027   -7.7514119    786.21473  0.018826981  0.018292516            4 
 3481000   0.69988969    -7.746886    786.54307  0.018829433  0.018286925            8 
 3482000   0.69150737   -7.7376148    786.51395  0.018823328  0.018281336            6 
 3483000   0.69635972    -7.728808    785.68842  0.018798173  0.018275757            4 
 3484000    0.7132103    -7.743075    787.07073   0.01882584  0.018270167            9 
 3485000    0.6870416   -7.7360259    788.00081  0.018842678  0.018264596            6 
 3486000   0.69080399   -7.7261067     786.8637   0.01881009   0.01825903            4 
 3487000   0.68388444   -7.7220056    785.45558  0.018771044  0.018253436            5 
 3488000   0.69936852   -7.7746524    786.65709  0.018794368  0.018247824            5 
 3489000   0.70252615   -7.7636846    786.62151  0.018788132  0.018242221            3 
 3490000   0.70048953   -7.7558581    787.22344  0.018797121  0.018236624            3 
 3491000   0.70241345    -7.762637    786.46673  0.018773674  0.018231011            5 
 3492000   0.70857236   -7.7402432    785.07897   0.01873518  0.018225418            6 
 3493000   0.70716284    -7.740812    786.19352  0.018756406  0.018219833            4 
 3494000   0.70276954   -7.7302059    788.06527   0.01879568  0.018214255            8 
 3495000   0.68921217   -7.7412949    786.96605  0.018764093  0.018208664            4 
 3496000   0.70599596   -7.7520291    786.81521   0.01875513  0.018203076           12 
 3497000   0.70039143   -7.7553366    786.95056  0.018752992  0.018197494            6 
 3498000   0.69160982   -7.7460751    787.42107   0.01875884  0.018191922            9 
 3499000   0.69692348   -7.7454775    785.41251  0.018705642  0.018186342            7 
 3500000   0.69169855   -7.7192635    788.10372  0.018764374  0.018180763            5 
 3501000   0.69354773   -7.7612984    786.58242  0.018722803  0.018175179            8 
 3502000   0.69046942   -7.7479751    786.77409  0.018722018  0.018169597            6 
 3503000   0.67572246   -7.7462886    787.32508  0.018729781  0.018164027            7 
 3504000   0.69942612   -7.7271342    787.57638  0.018730412  0.018158461            6 
 3505000   0.68545108   -7.7300815    786.70422  0.018704332  0.018152888            3 
 3506000   0.69164868   -7.7579817    787.49922  0.018717894  0.018147334            4 
 3507000   0.68194551   -7.7681218    786.86359  0.018697453  0.018141775            4 
 3508000   0.68690779   -7.7234905    788.42338  0.018729176  0.018136223            5 
 3509000   0.69567899   -7.7597277    788.06128  0.018715239  0.018130668            5 
 3510000   0.68328884   -7.7466408    787.64248  0.018699964  0.018125125            3 
 3511000   0.68811989   -7.7627138    788.39443  0.018712485  0.018119575            3 
 3512000   0.68138059   -7.7621227    787.38442  0.018683192  0.018114011            6 
 3513000   0.69158135   -7.7477078     788.9798  0.018715718  0.018108461            5 
 3514000   0.68834879   -7.7548767    788.92223  0.018709027  0.018102916            6 
 3515000   0.68694301   -7.7553405    788.14861  0.018685363  0.018097381            4 
 3516000    0.6853777   -7.7653385    788.89353  0.018697704  0.018091853            5 
 3517000   0.68879211   -7.7641333    787.87899  0.018668349   0.01808632            8 
 3518000   0.70168056   -7.7573374    786.69099  0.018634901  0.018080781            5 
 3519000   0.69465439   -7.7726074    787.86007  0.018657291  0.018075221            2 
 3520000   0.68245709   -7.7498585    787.87722  0.018652396  0.018069675            4 
 3521000   0.67134395   -7.7704107     786.5531   0.01861576  0.018064114            4 
 3522000   0.69194295     -7.74562    787.18301  0.018625379  0.018058553            2 
 3523000   0.68921001   -7.7568451    786.74285   0.01860968  0.018052997            3 
 3524000    0.6841563   -7.7651458     786.5449  0.018599719  0.018047437            5 
 3525000   0.70324535   -7.7721833    787.56356  0.018618524  0.018041867            5 
 3526000   0.68037009   -7.7954476    787.50758   0.01861192  0.018036299            7 
 3527000   0.71011742   -7.7686896    788.46193  0.018629192  0.018030746            6 
 3528000   0.69757109   -7.7476292    787.09196  0.018591552   0.01802519            8 
 3529000   0.70039708   -7.7586742    786.73211  0.018577787  0.018019641            5 
 3530000   0.68335802   -7.7373572    787.61461  0.018593357  0.018014095            3 
 3531000   0.69404752   -7.7748542    787.65543  0.018589055  0.018008548            6 
 3532000    0.6827716   -7.7531761    788.35423  0.018600279   0.01800302            7 
 3533000   0.68450076   -7.7549417    789.31595  0.018617699  0.017997486            2 
 3534000   0.71005227   -7.7558405    787.77607  0.018576119  0.017991945            4 
 3535000   0.69707272   -7.7661885    786.71875  0.018545939  0.017986394            5 
 3536000   0.69198572   -7.7473847    787.40311  0.018556823  0.017980846           11 
 3537000   0.67667752   -7.7670548    786.20766  0.018523411  0.017975315            8 
 3538000   0.68835477   -7.8054764    786.36539  0.018521891  0.017969766            4 
 3539000   0.67815945   -7.7967128    787.27252  0.018538017  0.017964225           11 
 3540000   0.68523894   -7.7616614    788.80533  0.018568864  0.017958671            7 
 3541000   0.68218041   -7.7475412    786.88135  0.018518341  0.017953122            5 
 3542000   0.69029617   -7.7581961    788.54095  0.018552159  0.017947591            5 
 3543000   0.68277271   -7.7638893    787.41551  0.018520451  0.017942055            5 
 3544000    0.6890339   -7.7575134    786.95348  0.018504361  0.017936526            3 
 3545000   0.69766731   -7.7792193     787.8681  0.018520642  0.017930993            9 
 3546000   0.69417491   -7.7804895    786.39813  0.018480874  0.017925448           10 
 3547000   0.69492026   -7.7786047    787.25118  0.018495705  0.017919884            6 
 3548000   0.69865228    -7.788189     786.2302  0.018466512  0.017914341            5 
 3549000   0.67448446   -7.7766135    786.73943  0.018473265  0.017908808            5 
 3550000   0.68683091   -7.7557965    786.72196  0.018467652  0.017903261            3 
 3551000   0.68651106   -7.7886706    786.64215  0.018460578  0.017897724            4 
 3552000   0.67662786   -7.7798449    786.83584  0.018459925  0.017892189            4 
 3553000    0.6854923   -7.7987561    787.05804  0.018459941  0.017886662            5 
 3554000   0.68099901    -7.779918    786.39975  0.018439311  0.017881128            4 
 3555000   0.66566815   -7.7572721     786.8481  0.018444634  0.017875618            5 
 3556000   0.67861226   -7.7789793    786.37377  0.018428332  0.017870099            3 
 3557000   0.69104357   -7.7753722     787.2173  0.018442913  0.017864595            6 
 3558000    0.6955567   -7.7778556      787.663  0.018448168  0.017859079            9 
 3559000    0.6775472   -7.7975476    786.66851  0.018419699  0.017853566            6 
 3560000   0.68680234   -7.7973532    786.00379  0.018398965  0.017848035            7 
 3561000   0.68247396   -7.7895605    786.64222  0.018408739  0.017842506            4 
 3562000   0.68174151   -7.7819314    787.96626  0.018434547   0.01783698            5 
 3563000   0.67580425    -7.780766    788.25766  0.018436188  0.017831468            5 
 3564000   0.68143404   -7.7682942    789.02092  0.018448862  0.017825946            2 
 3565000   0.67141846   -7.7887164    787.37173  0.018405136  0.017820431            4 
 3566000    0.6892181   -7.7776889    788.75893  0.018432392  0.017814918            3 
 3567000   0.69067527   -7.7889742    789.41325  0.018442511  0.017809419            6 
 3568000   0.67692048   -7.7483665    787.17942   0.01838517  0.017803929            7 
 3569000    0.6711648   -7.7698253    787.30536  0.018382959  0.017798428            5 
 3570000   0.68765835   -7.7881063    787.82307  0.018389894  0.017792918            9 
 3571000   0.69869885   -7.7847841    788.11864  0.018391642   0.01778741            4 
 3572000   0.66107404   -7.7844439    788.94799  0.018405842  0.017781906           13 
 3573000   0.69115808   -7.7865277    786.48997  0.018343362  0.017776388           10 
 3574000   0.67016938   -7.7685788    788.48237  0.018384685  0.017770864           10 
 3575000   0.67711828   -7.7966079    787.89588  0.018365871  0.017765351           18 
 3576000   0.68630351   -7.7850776    787.16306  0.018343658  0.017759838           10 
 3577000   0.67443373   -7.7854611     787.5108  0.018346631  0.017754329           13 
 3578000    0.6831619   -7.7847661    786.73887  0.018323525  0.017748818            7 
 3579000   0.68862966   -7.8041192    787.57296  0.018337826  0.017743311            4 
 3580000   0.66814282    -7.800121    787.41575  0.018329044  0.017737807            4 
 3581000   0.67848633   -7.7821579    787.48818  0.018325612  0.017732304            3 
 3582000   0.68295936   -7.7864199    788.01341  0.018332715  0.017726803            4 
 3583000   0.67559554   -7.7849531    787.76827  0.018321897    0.0177213            8 
 3584000   0.66879309   -7.7808767    787.39185  0.018308032  0.017715792            2 
 3585000   0.66507897   -7.8007886    786.84598  0.018290237  0.017710288           14 
 3586000   0.67710557   -7.7840899     788.7354  0.018329044  0.017704781            2 
 3587000   0.67420859   -7.7994259    787.85421  0.018303462  0.017699276            4 
 3588000   0.67578919   -7.7841147    786.68968  0.018271314  0.017693764            7 
 3589000   0.68133344   -7.7942633    787.33733  0.018281261  0.017688242            3 
 3590000   0.68582994   -7.8130004    787.19928  0.018272964  0.017682724            3 
 3591000   0.68271135   -7.7967853    787.79542  0.018281709  0.017677204            5 
 3592000   0.69076348   -7.7950654    787.27696  0.018264592  0.017671692            5 
 3593000   0.67133565   -7.7903706    786.04704  0.018230982  0.017666163            5 
 3594000   0.67622037   -7.8146886    786.28653  0.018231463  0.017660644            3 
 3595000   0.67498296   -7.8218143    785.36856  0.018205113  0.017655123            7 
 3596000   0.67692016   -7.7967324    785.74867  0.018208859  0.017649607            6 
 3597000   0.66382002   -7.7828102    787.00631  0.018232933    0.0176441            8 
 3598000   0.67212827   -7.7979718    784.43624   0.01816834  0.017638585            6 
 3599000   0.68583104    -7.793862    785.87227  0.018196542  0.017633066           12 
 3600000   0.68456042     -7.81082    786.73149  0.018211377  0.017627546           10 
 3601000   0.67567012   -7.8156306    786.65362  0.018204518  0.017622029           10 
 3602000   0.67668051   -7.7967806    785.67547  0.018176834  0.017616515           10 
 3603000   0.66513865   -7.7954343    786.62028  0.018193641  0.017611008            9 
 3604000   0.67414224   -7.7922569    786.94508  0.018196103  0.017605492            4 
 3605000   0.66881092   -7.7985539    787.53603  0.018204716  0.017599985           15 
 3606000    0.6731199   -7.7999131     786.8024  0.018182714  0.017594477           11 
 3607000   0.66590009   -7.8029283    786.20341  0.018163834  0.017588982            6 
 3608000   0.68331328   -7.8010259    787.01973  0.018177655  0.017583474            6 
 3609000   0.68312323   -7.8223309    787.53975  0.018184625  0.017577953            6 
 3610000   0.67886778   -7.7776113    787.05279  0.018168347  0.017572447            9 
 3611000   0.65755764   -7.8081373    785.88699  0.018136412  0.017566936            4 
 3612000   0.66522397   -7.8102218    787.27785  0.018163479  0.017561424            6 
 3613000   0.67895615   -7.8192656    786.87024  0.018149051  0.017555911            5 
 3614000   0.68029206   -7.7998885    785.88626   0.01812134  0.017550397            4 
 3615000   0.68163851   -7.8088854    787.55951  0.018154899  0.017544895            6 
 3616000   0.69731079   -7.7830473    787.31855  0.018144325  0.017539376            9 
 3617000   0.67938349   -7.8052573    785.03748  0.018086754  0.017533859            5 
 3618000   0.67236562   -7.8267025    785.94061  0.018102557  0.017528344            3 
 3619000   0.67138448   -7.8123244     785.9303  0.018097317  0.017522834            5 
 3620000   0.65911022   -7.8058426     786.6791  0.018109556  0.017517315            7 
 3621000   0.67894288   -7.8233209    785.49897  0.018077395  0.017511796            7 
 3622000   0.66964423   -7.8264139    785.95905  0.018082989  0.017506267            3 
 3623000   0.66486872   -7.8248249    785.73196  0.018072775  0.017500745            3 
 3624000   0.68390734   -7.8313138    786.15082   0.01807742  0.017495209            5 
 3625000   0.67427055   -7.7938621    783.89067  0.018020475  0.017489675            6 
 3626000   0.67229832   -7.8084372    786.08544  0.018065946  0.017484141            7 
 3627000   0.67219106   -7.8446285    786.35903  0.018067251  0.017478603            5 
 3628000   0.66766541   -7.8298979    785.75423  0.018048379  0.017473068            7 
 3629000   0.67719615   -7.8139013    785.05625  0.018027378  0.017467532            4 
 3630000   0.67294443   -7.8287316    785.79262  0.018039316  0.017461997            3 
 3631000   0.67294389    -7.813701    787.24655  0.018067717  0.017456478            9 
 3632000   0.67279308   -7.8076664    785.59282  0.018024799  0.017450963            4 
 3633000   0.65895524   -7.8089826    786.10109  0.018031496  0.017445455            8 
 3634000   0.66316612   -7.8454437    784.60781  0.017992291  0.017439932            6 
 3635000   0.66353245   -7.8158449     785.0143   0.01799666  0.017434414            5 
 3636000   0.66574372   -7.8139299    784.10399  0.017970847    0.0174289            3 
 3637000   0.68972599   -7.8363918    785.03959  0.017987343  0.017423368            8 
 3638000   0.67738435   -7.8418575    784.16942  0.017962466  0.017417827            6 
 3639000   0.68208445   -7.8411103    785.55287  0.017989211  0.017412287            7 
 3640000   0.67926801   -7.8218756    785.51991  0.017983515  0.017406762            7 
 3641000   0.67112835   -7.7952864    784.84207  0.017963061  0.017401244            7 
 3642000   0.67677645   -7.8146159    785.23618  0.017967147  0.017395722            7 
 3643000   0.68197706   -7.8264266    786.19803  0.017984217  0.017390187            9 
 3644000   0.66152881   -7.8100138    784.22272  0.017934109  0.017384659            4 
 3645000    0.6674172   -7.8158523     783.5511  0.017913834  0.017379121            3 
 3646000   0.65856754   -7.8012714    784.16102  0.017922861  0.017373592            3 
 3647000   0.69215488   -7.8277032    785.71297  0.017953408  0.017368061            4 
 3648000   0.67034702    -7.852922    784.61027  0.017923297  0.017362523            5 
 3649000   0.66657169   -7.8206158    784.84742  0.017923802  0.017356973            4 
 3650000   0.66605522   -7.8379964    783.68058  0.017892251   0.01735143            7 
 3651000   0.66039399   -7.8316409    784.33547  0.017902298  0.017345886            3 
 3652000   0.65594701   -7.8104488    784.76218  0.017907133  0.017340347            7 
 3653000   0.67711096   -7.8233068    785.12214  0.017910442   0.01733483           14 
 3654000   0.66584681    -7.809956    783.75968  0.017874468  0.017329318            8 
 3655000   0.67633187   -7.8329766    784.17168  0.017878971   0.01732379            6 
 3656000   0.66761003   -7.8042281    785.47027  0.017903681   0.01731827            6 
 3657000   0.66569427   -7.8174871    785.21513  0.017892971  0.017312765            5 
 3658000   0.67406281   -7.8123506    784.74209  0.017877303  0.017307258            5 
 3659000   0.66290151   -7.8046248    785.52268  0.017890195  0.017301747            9 
 3660000    0.6497609   -7.8209145    784.04549  0.017851673  0.017296236            5 
 3661000   0.65505481   -7.8019822    784.75181  0.017862875   0.01729073            6 
 3662000   0.65622307   -7.8435018    783.62153  0.017832276  0.017285231            6 
 3663000   0.67916823   -7.7915578    787.42036  0.017913831  0.017279742            4 
 3664000   0.66085851   -7.8540466    786.40939  0.017885949  0.017274253            4 
 3665000   0.67878962   -7.8055896     787.0278   0.01789513  0.017268776            3 
 3666000   0.67373591   -7.8290227     785.3527  0.017852171  0.017263298            7 
 3667000   0.65791157   -7.8024814    785.69445  0.017855069  0.017257814            3 
 3668000   0.66863466   -7.8386211    784.55087   0.01782422   0.01725232            4 
 3669000   0.66089065   -7.8362001    785.13415   0.01783261  0.017246831            6 
 3670000   0.65744787   -7.7986126    785.73616  0.017841421  0.017241347            4 
 3671000   0.66974633   -7.8405575     785.9696   0.01784186  0.017235865            4 
 3672000   0.67344816   -7.8111169    784.98983  0.017814766  0.017230386            4 
 3673000   0.67274584   -7.8198318    784.48211  0.017798396  0.017224906            4 
 3674000   0.66308153   -7.8271007    783.50125  0.017771304  0.017219424            3 
 3675000   0.66167837   -7.8113483    786.32309  0.017830456   0.01721394            5 
 3676000   0.66499094   -7.7962631    785.37678  0.017804153  0.017208467            4 
 3677000   0.64967485   -7.8332962    785.27867  0.017797087   0.01720299            2 
 3678000   0.66168747   -7.8206737    783.78052  0.017758304  0.017197514            4 
 3679000   0.66916487   -7.8195304    785.18821  0.017785363  0.017192043            3 
 3680000   0.66053286   -7.8204453    785.31319   0.01778336  0.017186579            4 
 3681000   0.66864773   -7.8474489    784.38536  0.017757524  0.017181091            5 
 3682000   0.64723202   -7.8091723    785.45598  0.017776932  0.017175617            5 
 3683000   0.66885201   -7.8107244    784.61125  0.017752992  0.017170145           10 
 3684000   0.66440959   -7.8443233    784.49422  0.017745526  0.017164672            6 
 3685000   0.66041583   -7.8350437    785.13943  0.017755301  0.017159199            4 
 3686000   0.66431771   -7.8226657    785.03997  0.017748236  0.017153728            4 
 3687000   0.66036615   -7.8115177    786.39669  0.017774087  0.017148249            4 
 3688000   0.67016992    -7.831886    784.18469  0.017719285  0.017142767            5 
 3689000   0.66072277   -7.8269795    783.77024   0.01770512  0.017137278            4 
 3690000   0.67882509   -7.8364391    784.15295  0.017708965  0.017131786            5 
 3691000   0.65953223   -7.8312255    784.12101  0.017703446  0.017126296            4 
 3692000    0.6429755   -7.8420446    783.77535  0.017690849  0.017120798            6 
 3693000   0.65074719   -7.8387396     784.5091  0.017702615   0.01711532            7 
 3694000    0.6517569   -7.8226925    783.17345  0.017667692  0.017109831            4 
 3695000   0.65728933   -7.8479949    784.69113  0.017697139  0.017104334            6 
 3696000   0.65701954     -7.83049    784.00232   0.01767682  0.017098854            4 
 3697000   0.64989706   -7.8522021    785.69699  0.017710238   0.01709339            5 
 3698000   0.64955525   -7.8451198    785.54176  0.017701951  0.017087924           10 
 3699000   0.64810862    -7.853981    785.40859  0.017694165  0.017082465            7 
 3700000   0.66101851   -7.8067014    785.56452  0.017692894  0.017077016            6 
 3701000   0.67295799    -7.841305    786.84493  0.017716944  0.017071574            6 
 3702000   0.65794931    -7.827785    785.92414  0.017691431  0.017066131            5 
 3703000   0.66187273   -7.8143999    786.14482   0.01769162  0.017060679            6 
 3704000   0.65937357   -7.8376244    783.91879  0.017636762  0.017055238            9 
 3705000   0.66626898   -7.8279556    784.51601  0.017645434  0.017049793            3 
 3706000   0.67171096   -7.8490939     785.2809  0.017657872  0.017044361            8 
 3707000    0.6491355   -7.8400992    784.97828  0.017646306  0.017038928            6 
 3708000   0.65865543   -7.8370044    784.46574  0.017630028  0.017033494            3 
 3709000   0.64463872   -7.8457295    785.65656   0.01765203  0.017028056            3 
 3710000   0.65995091   -7.8471966    785.95994  0.017654087  0.017022623            6 
 3711000    0.6696731   -7.8391881    786.50958  0.017661672  0.017017199            4 
 3712000   0.65418639   -7.8242159    786.87609  0.017665142  0.017011781            2 
 3713000   0.67211395    -7.843439    786.06583  0.017642199  0.017006355            3 
 3714000   0.65621315   -7.8468844    785.76641  0.017630731  0.017000941            5 
 3715000   0.66116951   -7.8471086    785.74764  0.017625564  0.016995528            2 
 3716000   0.66161469   -7.8082099    785.70342  0.017619829  0.016990108            3 
 3717000   0.64673837   -7.8456712    785.54456  0.017611527  0.016984678            3 
 3718000   0.66793885   -7.8533296    787.01155  0.017639671  0.016979268            7 
 3719000   0.65839352   -7.8503293    785.41863  0.017599234  0.016973861            3 
 3720000     0.651862   -7.8451635    786.33377  0.017615004  0.016968443            4 
 3721000   0.66854642   -7.8639235    786.22178  0.017607762  0.016963029            6 
 3722000   0.64926848   -7.8409829    786.04343  0.017599038  0.016957622            5 
 3723000   0.66967708   -7.8214774    786.46689  0.017603789  0.016952213            6 
 3724000   0.64831573   -7.8241853    786.66597  0.017603517  0.016946822            5 
 3725000   0.65510571   -7.8546052    785.27884  0.017567759  0.016941427            9 
 3726000   0.65483519   -7.8469339     783.1298   0.01751498  0.016936048            7 
 3727000   0.64288262   -7.8418698    784.96051  0.017551214  0.016930662            5 
 3728000   0.65912392   -7.8316009    785.10998  0.017549848  0.016925272            5 
 3729000   0.65757418   -7.8319403    785.32857  0.017550026  0.016919892            4 
 3730000   0.65109655   -7.8637132    785.84806  0.017556927  0.016914521            7 
 3731000   0.65483999   -7.8455807    784.09489  0.017513064   0.01690914            4 
 3732000   0.66414075   -7.8568135    786.12915  0.017553795  0.016903762            5 
 3733000    0.6647827   -7.8332773    786.28872  0.017552655  0.016898383            7 
 3734000   0.65462346   -7.8451892    786.49337  0.017552521  0.016893008            4 
 3735000   0.65170934   -7.8522688    785.48139  0.017525243  0.016887627            5 
 3736000   0.64467718   -7.8564431    784.56542  0.017500121  0.016882247            9 
 3737000   0.67248173   -7.8428736    786.35684  0.017535386  0.016876864            8 
 3738000   0.65199639   -7.8494559    785.89386  0.017520373  0.016871488            6 
 3739000   0.65576275   -7.8546854    787.06502   0.01754179  0.016866114            5 
 3740000   0.65499353   -7.8550483    785.94053  0.017512044  0.016860742            6 
 3741000   0.65374813   -7.8361134    785.16048  0.017489987  0.016855361           17 
 3742000   0.65353006   -7.8460282     786.3842  0.017512565  0.016849983            7 
 3743000   0.65846837   -7.8430559    786.38531  0.017507911  0.016844599            3 
 3744000   0.65186686   -7.8615472     785.1195   0.01747506  0.016839229            3 
 3745000   0.65074357   -7.8273561    785.48172  0.017478454  0.016833845            8 
 3746000   0.64998993   -7.8555443    784.64225  0.017455113  0.016828472            4 
 3747000   0.65055433   -7.8454294    786.18556  0.017484778  0.016823109            4 
 3748000   0.66388822   -7.8176986    786.13017  0.017478881  0.016817745            5 
 3749000   0.64558536   -7.8336298    786.20438  0.017475869  0.016812388            5 
 3750000   0.64095662    -7.828512    786.13029  0.017469562  0.016807044            7 
 3751000   0.65400219    -7.847195    787.57492  0.017496999  0.016801685            4 
 3752000   0.65474112   -7.8463338    787.28764  0.017485955  0.016796339            3 
 3753000   0.64955286   -7.8604214     787.0095   0.01747512  0.016790998            4 
 3754000   0.64525374   -7.8501185    785.33699  0.017433338  0.016785655            6 
 3755000   0.65099135   -7.8447659    786.38358  0.017451921   0.01678031           11 
 3756000   0.64772673   -7.8539712    783.98658  0.017394094   0.01677497            5 
 3757000   0.64075244   -7.8457136    785.82985  0.017430349  0.016769639            5 
 3758000   0.65555061   -7.8446311    787.06958  0.017453202  0.016764305            6 
 3759000   0.64139462   -7.8463209    788.13654  0.017472212  0.016758986            7 
 3760000   0.64661523   -7.8381662    786.52924  0.017431942   0.01675366            5 
 3761000   0.64199837    -7.841377    786.78772  0.017433035  0.016748327            7 
 3762000   0.65157742   -7.8511683    784.71333   0.01738245  0.016742983            4 
 3763000   0.64405135   -7.8414578    786.63242   0.01742033   0.01673764            6 
 3764000   0.66048891   -7.8545921    786.84372   0.01742038  0.016732304            8 
 3765000   0.65411317   -7.8326856    785.37308  0.017383202  0.016726978            7 
 3766000   0.65540715   -7.8655191    786.11672  0.017395042  0.016721641           11 
 3767000   0.64620636   -7.8632727    785.93245  0.017386348  0.016716312            9 
 3768000   0.65208931   -7.8485145    786.47322  0.017393693  0.016710994            5 
 3769000   0.65650558   -7.8480107    785.56814  0.017369067  0.016705676            5 
 3770000   0.64909897   -7.8645856    785.80912  0.017369786  0.016700354            7 
 3771000   0.63997094   -7.8874304    787.12654  0.017394293  0.016695039            5 
 3772000   0.64546872   -7.8513165      785.406   0.01735167  0.016689717            5 
 3773000   0.65521077   -7.8481737     786.0101  0.017360414   0.01668439            5 
 3774000   0.63857644   -7.8710826    786.59894  0.017368816  0.016679066            5 
 3775000    0.6474539   -7.8821342     786.3735  0.017359238  0.016673743            4 
 3776000   0.65661226   -7.8350676    785.09605  0.017326449  0.016668421            4 
 3777000   0.64141772   -7.8412136    786.49667  0.017352764  0.016663093            4 
 3778000    0.6557417    -7.887152    784.63777  0.017307168  0.016657751            6 
 3779000   0.63591832   -7.8330488    785.22008  0.017315429  0.016652407            9 
 3780000   0.66131289   -7.8415971    784.55826  0.017296258  0.016647067            5 
 3781000   0.65142749   -7.8751384    785.20495  0.017305936  0.016641725           11 
 3782000   0.65624494   -7.8785134    786.31668  0.017325857  0.016636389            9 
 3783000   0.64402064   -7.8774263    786.05428  0.017315497  0.016631045           11 
 3784000   0.66491642   -7.8790708    784.95781  0.017286773  0.016625713            8 
 3785000   0.63870229   -7.8822768    785.11005  0.017285558  0.016620384            6 
 3786000   0.64813242   -7.8613457    784.74317  0.017272917  0.016615059            8 
 3787000   0.63953961   -7.8884214    785.80374  0.017291694  0.016609748           10 
 3788000   0.63857399   -7.8812865    784.18541  0.017251527  0.016604422           11 
 3789000   0.63379379   -7.8837814    786.63095   0.01730076  0.016599098            7 
 3790000   0.64499948   -7.8862562    784.86542  0.017257375  0.016593767            6 
 3791000   0.63342714   -7.8879414    786.40456  0.017286656  0.016588433            7 
 3792000   0.63735805   -7.8818256    784.54921  0.017241324  0.016583109            7 
 3793000   0.64665596   -7.8790005     786.1146   0.01727117    0.0165778           22 
 3794000   0.64532364   -7.8705814    785.36377  0.017250127  0.016572492            8 
 3795000   0.63570825   -7.8463555    784.21857  0.017220434  0.016567198           11 
 3796000   0.64409501   -7.8804177    786.52376  0.017266503  0.016561896           12 
 3797000   0.64254472   -7.8745969    785.25869  0.017234191    0.0165566            8 
 3798000   0.65022314   -7.8649642    786.15443  0.017249307  0.016551313            9 
 3799000    0.6373413   -7.8658373    785.19867  0.017223802  0.016546026            4 
 3800000   0.64133763   -7.8496576    783.73343  0.017187137  0.016540739           11 
 3801000   0.65379787   -7.8749788    785.85044  0.017229028  0.016535448            6 
 3802000   0.64966799   -7.8583463    784.46979  0.017194235  0.016530152           10 
 3803000   0.65189545    -7.877198    785.66806  0.017215971  0.016524859           12 
 3804000   0.65338814   -7.8677442    785.74125  0.017213049  0.016519576            6 
 3805000   0.64353896   -7.8807228    785.88728  0.017211723  0.016514302           10 
 3806000   0.62529335   -7.8522389    784.96489  0.017187005  0.016509025            5 
 3807000   0.63767954   -7.8701959    786.10578  0.017207464  0.016503749            7 
 3808000   0.63508241   -7.8846663    785.03139  0.017179433   0.01649847            5 
 3809000   0.64619706   -7.8659794    788.25914   0.01724554  0.016493187            9 
 3810000   0.64909107   -7.8835646    784.66062  0.017162306  0.016487914            6 
 3811000   0.65758263    -7.860276    786.46364  0.017197228  0.016482629            5 
 3812000   0.63833008   -7.8707334    785.06326  0.017162103  0.016477348            5 
 3813000   0.65921507   -7.8694339    785.66228  0.017170694  0.016472074            9 
 3814000   0.65214776   -7.8667375    783.97354  0.017129294  0.016466794            8 
 3815000   0.63971338   -7.9031456    785.51906  0.017158564  0.016461517            7 
 3816000   0.65912484   -7.8672718    785.22981  0.017147751   0.01645624            6 
 3817000   0.64344617   -7.8700954    784.61523  0.017129841  0.016450965            6 
 3818000   0.63966826   -7.8764983    785.11484  0.017136259  0.016445686            4 
 3819000   0.64111131    -7.898387    785.42765  0.017138598  0.016440406            6 
 3820000   0.64899728   -7.8931411    783.66875  0.017095741  0.016435121            5 
 3821000   0.63911786   -7.8895205    784.86744  0.017117409  0.016429836            7 
 3822000   0.65047155   -7.8749263    784.95637  0.017114869  0.016424546            5 
 3823000   0.64791649   -7.8756835    784.89219  0.017108994  0.016419273            4 
 3824000   0.62751085   -7.9120492    785.44901  0.017116654  0.016413996            7 
 3825000   0.62731847   -7.8762194    785.41692   0.01711148  0.016408715            6 
 3826000   0.64275931   -7.8915594    785.70826  0.017113353  0.016403441            6 
 3827000   0.64380328   -7.8970985    785.91049  0.017113285  0.016398167            4 
 3828000   0.63413797   -7.9074201    783.97557  0.017066692  0.016392883            4 
 3829000   0.63463448   -7.8990155    782.69153  0.017034289  0.016387591            3 
 3830000   0.63183687   -7.9059184    784.41563  0.017067355  0.016382307            3 
 3831000   0.62951207   -7.9023598    785.73103  0.017091513  0.016377027            9 
 3832000   0.62881848   -7.8817721    785.08058  0.017072908  0.016371753            6 
 3833000   0.65013924   -7.8879265    784.71359  0.017060475  0.016366482            6 
 3834000   0.62996456    -7.889453    783.90358  0.017038419  0.016361207            4 
 3835000   0.64694539   -7.8967045    784.09517  0.017038139  0.016355947            6 
 3836000   0.64996731   -7.9063123    783.78115  0.017026876   0.01635068            3 
 3837000   0.63425727   -7.8920876    784.29722  0.017033646  0.016345414            6 
 3838000   0.65178942   -7.8802541    784.85859  0.017041397  0.016340159            6 
 3839000    0.6379119   -7.8752857    786.63216  0.017075457  0.016334904            8 
 3840000    0.6360532    -7.884063    785.93093  0.017055793  0.016329658            5 
 3841000   0.62702354   -7.8971931    785.07652  0.017032815  0.016324406            4 
 3842000    0.6458202   -7.8995834    784.35309  0.017012691  0.016319159            2 
 3843000   0.64791398   -7.9017102    786.05776  0.017045228  0.016313912            5 
 3844000       0.6374   -7.9194101     785.0554  0.017019064  0.016308668            5 
 3845000     0.642924    -7.882454    785.71245  0.017028878  0.016303419            7 
 3846000   0.64316888   -7.9154951     785.4485  0.017018732  0.016298177            3 
 3847000   0.63242091   -7.8902801     785.6287  0.017018211  0.016292932            8 
 3848000   0.63141693   -7.9061375    784.52797  0.016989951  0.016287682            4 
 3849000   0.63967831   -7.9073018    785.16669  0.016999365  0.016282424            5 
 3850000   0.63821638   -7.9102452    785.45803  0.017001256  0.016277181            8 
 3851000   0.61834128    -7.903454    785.22646   0.01699183  0.016271936            7 
 3852000   0.62361754   -7.9199431    785.87915  0.017001539  0.016266699            9 
 3853000   0.63494555   -7.8966168    786.32029  0.017006668  0.016261459            8 
 3854000   0.63681654   -7.9120601    785.34236   0.01698111  0.016256217            4 
 3855000   0.63403731   -7.8859406    785.07759  0.016970981  0.016250978            4 
 3856000   0.63976862   -7.9051613    785.41097  0.016973785  0.016245744            7 
 3857000    0.6459618   -7.8867979    785.22084  0.016965276  0.016240518            6 
 3858000   0.63478052   -7.8896479     785.1527  0.016959407   0.01623529            6 
 3859000   0.64080534   -7.8853022    785.08038   0.01695345  0.016230077            6 
 3860000   0.64705344   -7.8885297     785.7659  0.016963858  0.016224866            5 
 3861000   0.62424564   -7.8902698    785.99447  0.016964398  0.016219661            5 
 3862000    0.6449759   -7.8826749    786.34553   0.01696758  0.016214455            6 
 3863000   0.62427065   -7.8822814    785.28391  0.016940286  0.016209243            5 
 3864000   0.64042809   -7.8968036    784.54342  0.016919932  0.016204039            7 
 3865000   0.63493339   -7.9021915     784.5757  0.016916251  0.016198838            4 
 3866000   0.63642397   -7.9073777    784.41816  0.016908479  0.016193632            6 
 3867000   0.62967554   -7.8901493    785.38166   0.01692487  0.016188425            9 
 3868000    0.6278677   -7.8990685    785.63863  0.016926031  0.016183228            3 
 3869000   0.62440777   -7.8998294    784.22207  0.016891145  0.016178019            9 
 3870000   0.63352688   -7.9077964    785.97833  0.016924598  0.016172819            5 
 3871000   0.63047834   -7.9053195    785.87511  0.016918004  0.016167625            5 
 3872000   0.63102542   -7.8823392    785.42827  0.016904018  0.016162427            4 
 3873000   0.62751106   -7.8956865    785.14907  0.016893646  0.016157227           13 
 3874000   0.63558556   -7.8969874    784.49515  0.016875218  0.016152019           11 
 3875000    0.6425679   -7.8990162    785.98929  0.016902996  0.016146832            4 
 3876000   0.65637185   -7.8924667    785.69654  0.016892341  0.016141637            5 
 3877000   0.62790377   -7.8979127    784.31096  0.016858201  0.016136442            6 
 3878000   0.64083642   -7.8955151    785.71207  0.016883962   0.01613125            5 
 3879000   0.62863918   -7.9167484    785.59329  0.016877058  0.016126055            5 
 3880000   0.64302236      -7.9005    784.43204  0.016847767  0.016120859           10 
 3881000    0.6139731   -7.9070488    783.98666  0.016833863  0.016115663            4 
 3882000   0.63015945   -7.9047339     785.4024  0.016859918  0.016110473            5 
 3883000   0.62427543   -7.8882103     785.4146  0.016855837  0.016105292            6 
 3884000   0.63676343   -7.9148713    785.49367  0.016853194  0.016100111            5 
 3885000   0.61961746    -7.880461    785.58519  0.016850819  0.016094932            3 
 3886000   0.62348261   -7.8998879    784.20554  0.016816897  0.016089748            3 
 3887000   0.62696746   -7.9254135    786.40127  0.016859645  0.016084556            5 
 3888000   0.62554429   -7.9244419    785.20459  0.016829659  0.016079378            6 
 3889000   0.63720069   -7.9381075    784.45438  0.016809257    0.0160742            8 
 3890000   0.61857821   -7.9351476    785.07752  0.016818284   0.01606902            3 
 3891000   0.60526072   -7.9034857    785.20663  0.016816727  0.016063838            9 
 3892000   0.63809747   -7.9123926    784.66762  0.016800866  0.016058655            7 
 3893000   0.62647176   -7.8861388     785.8122  0.016821051  0.016053491            8 
 3894000   0.62740716   -7.9093725    783.33874  0.016763798  0.016048326            7 
 3895000    0.6348201   -7.8932636    785.66674  0.016809301  0.016043172           15 
 3896000   0.63885511   -7.9088057    784.94363   0.01678952  0.016038024           16 
 3897000   0.63289213    -7.936594    785.07332  0.016787985  0.016032864            7 
 3898000   0.61524393    -7.926517     784.1216  0.016763332  0.016027702           13 
 3899000   0.63113008   -7.9329402     785.1862  0.016781786  0.016022547           10 
 3900000   0.63762603   -7.9335751    785.89269  0.016792579  0.016017388           11 
 3901000   0.62639039   -7.9048606    784.55828  0.016759769  0.016012222            6 
 3902000    0.6289627    -7.895713    785.59644  0.016777645  0.016007065            6 
 3903000   0.61539595   -7.9272031    783.53368  0.016729304    0.0160019            5 
 3904000   0.62215891   -7.9191105    785.32297  0.016763212  0.015996742           10 
 3905000   0.62528586   -7.9035189     783.3729  0.016717305  0.015991588            5 
 3906000   0.63904144   -7.9114645    784.06901  0.016727876  0.015986436            6 
 3907000   0.63081708   -7.9399477    784.12157  0.016724716  0.015981282            9 
 3908000   0.61504276   -7.9209254    785.42019  0.016748128  0.015976132            7 
 3909000   0.62377256    -7.931326    783.12167  0.016694842  0.015970977            8 
 3910000   0.62180193   -7.8932692    784.71998  0.016724637  0.015965826            4 
 3911000   0.64150772   -7.9049571    784.85972  0.016723338  0.015960682           16 
 3912000   0.61632648   -7.9284366     785.4047  0.016730673  0.015955534            5 
 3913000   0.62045138   -7.9267263    785.51565   0.01672876   0.01595039            7 
 3914000   0.61930629   -7.9067771    785.21335  0.016718049  0.015945237            5 
 3915000   0.62822694   -7.9213513    783.89666  0.016685753  0.015940093           12 
 3916000   0.62942538    -7.925096    784.97979  0.016704541  0.015934939            7 
 3917000   0.62216349   -7.8997007    784.23338  0.016684397  0.015929793           10 
 3918000   0.61841947    -7.926277    785.18298  0.016700336  0.015924643           10 
 3919000   0.61759621    -7.916889    782.92252  0.016648008  0.015919502           13 
 3920000   0.63662411   -7.9262043    783.85268  0.016663535  0.015914359           14 
 3921000   0.61680662   -7.9350006    783.82065  0.016658604  0.015909219           14 
 3922000   0.62756981   -7.9363445    786.50988  0.016711497  0.015904072            8 
 3923000   0.62668111    -7.923027     784.2787  0.016659842  0.015898931           10 
 3924000   0.61467516   -7.9169814    782.88366   0.01662597  0.015893786           14 
 3925000   0.62432967    -7.902384    783.63698  0.016637728  0.015888638           13 
 3926000   0.61869145   -7.9134273    783.46607  0.016629862  0.015883499            8 
 3927000   0.64067503    -7.927895    783.73922  0.016631424  0.015878355            6 
 3928000   0.61372886   -7.9125668    784.76292  0.016648908   0.01587322            9 
 3929000   0.63335366   -7.9201566    785.08866  0.016651579  0.015868085           15 
 3930000   0.62120701    -7.916237    785.24992  0.016650762  0.015862953            7 
 3931000   0.63626954    -7.927214    784.40929  0.016628705  0.015857813            7 
 3932000   0.62187218   -7.9283057    784.36607   0.01662356  0.015852681            6 
 3933000   0.61730208   -7.9325575    784.21447  0.016616121  0.015847551            7 
 3934000   0.62044872   -7.9306247    784.54881   0.01661898  0.015842423            8 
 3935000   0.63586465   -7.9277219    784.86783  0.016621513  0.015837289            9 
 3936000   0.60691938   -7.9165363    784.45397  0.016608528   0.01583216           26 
 3937000   0.62558699   -7.9333458    785.42516  0.016624866  0.015827025            6 
 3938000   0.61881656   -7.9272763    783.57116  0.016581411  0.015821891            5 
 3939000   0.62586981    -7.935399     783.8245  0.016582561  0.015816763           11 
 3940000   0.61567396    -7.919314     784.9857  0.016602912  0.015811639            9 
 3941000   0.62273461   -7.9188912    784.32949  0.016584824  0.015806521           12 
 3942000   0.62316664   -7.9115272    785.23215  0.016599699  0.015801407           13 
 3943000   0.60960313   -7.8959553     784.1218  0.016572022  0.015796293           19 
 3944000   0.62297297   -7.9365459    784.18896  0.016569239  0.015791169           13 
 3945000    0.5987389   -7.9357214    784.72476  0.016576357  0.015786047           11 
 3946000    0.6157522   -7.9317314    783.23709  0.016540739  0.015780931           16 
 3947000   0.61893291   -7.9339772     783.5888  0.016543974  0.015775818           12 
 3948000   0.62096531   -7.9374697    784.23659  0.016553457  0.015770712           18 
 3949000    0.6195603   -7.9513145    784.10104  0.016546405  0.015765609           11 
 3950000   0.64721156   -7.9573542    783.59374  0.016531513  0.015760501           16 
 3951000   0.61460744   -7.9345651    784.75577  0.016551839  0.015755406            8 
 3952000   0.62477183   -7.9224033    783.45041  0.016520125  0.015750308           21 
 3953000    0.6162604   -7.9396639    784.61772  0.016540554  0.015745202           15 
 3954000   0.62838432   -7.9251517    784.19837  0.016527533    0.0157401           16 
 3955000    0.6277351   -7.9253001      784.471  0.016529098  0.015735004           17 
 3956000   0.60112941   -7.9242621    783.94021  0.016513739  0.015729906           11 
 3957000   0.62153116   -7.9282177    784.20284  0.016515096  0.015724809            6 
 3958000   0.62005589     -7.94537    783.03686  0.016486375  0.015719714           12 
 3959000   0.61538328   -7.9404208    783.85058  0.016499339  0.015714615           15 
 3960000   0.62965268   -7.9291052    782.30266  0.016462598  0.015709513           10 
 3961000   0.61876407   -7.9133575    783.41453  0.016481834  0.015704417           12 
 3962000   0.63294938   -7.9264565     784.4028   0.01649846  0.015699315            9 
 3963000   0.62300009   -7.9578045    783.34409  0.016472035  0.015694217           10 
 3964000   0.61632147   -7.9588528    783.23914  0.016465673  0.015689111           19 
 3965000   0.61740574   -7.9354343    782.36595  0.016443168  0.015684007            7 
 3966000   0.61294866    -7.936601    782.88632  0.016449956  0.015678907           10 
 3967000   0.62418515   -7.9359768    783.90706  0.016467252  0.015673803            5 
 3968000   0.60897265   -7.9526306    783.30827  0.016450527  0.015668713            7 
 3969000   0.62494637   -7.9458975    784.22399  0.016465608  0.015663623           15 
 3970000   0.60964337   -7.9499871    782.01023  0.016414992  0.015658531           12 
 3971000   0.61369461   -7.9455526    783.03037  0.016432267  0.015653442           18 
 3972000   0.60974668   -7.9205783    783.89797  0.016446332  0.015648359           20 
 3973000   0.62169321    -7.941105    783.58263  0.016435578  0.015643284           10 
 3974000   0.61282212   -7.9422756     784.1774  0.016443915  0.015638195           14 
 3975000     0.624775   -7.9454661    784.16145  0.016439443  0.015633116            9 
 3976000   0.60154083   -7.9482493    784.09444  0.016433904  0.015628044           18 
 3977000   0.60650104   -7.9294128    784.74073  0.016443314  0.015622977           12 
 3978000     0.616668   -7.9338423    782.84061  0.016399376  0.015617912           17 
 3979000   0.61804648   -7.9278497    782.67701  0.016391828  0.015612843           18 
 3980000   0.62233662   -7.9443018    782.66914  0.016387545  0.015607778           10 
 3981000   0.61599308   -7.9450341    784.63546  0.016424589  0.015602715            4 
 3982000   0.61654505   -7.9388678    784.68261  0.016421451  0.015597647           17 
 3983000   0.60432869   -7.9489242    782.93548  0.016380774  0.015592582           11 
 3984000   0.60197791   -7.9539724    784.03171  0.016399592  0.015587519           15 
 3985000   0.60739142   -7.9223798    782.22439  0.016357683  0.015582464           10 
 3986000   0.63100847   -7.9374786    783.37489  0.016377632  0.015577405            5 
 3987000   0.62108906   -7.9119808    784.45579  0.016396116  0.015572357           17 
 3988000   0.60844874   -7.9303017    782.97104   0.01636098  0.015567309            8 
 3989000   0.60905141   -7.9237059     783.6507  0.016371077  0.015562262           14 
 3990000   0.62661392   -7.9213763    784.08542  0.016376053  0.015557215           12 
 3991000   0.60497954   -7.9286099    784.85008  0.016387916  0.015552176           13 
 3992000   0.61656683   -7.9296722    783.21712  0.016349723  0.015547134            4 
 3993000   0.61277168   -7.9461617    783.27865  0.016346912  0.015542097            5 
 3994000   0.61550271   -7.9413764    784.48415  0.016367972  0.015537066           12 
 3995000   0.60316126   -7.9179569    783.81882  0.016349996  0.015532027            7 
 3996000   0.60946835   -7.9131689    782.46941  0.016317764  0.015526985            4 
 3997000   0.61295744   -7.9227328    784.34991  0.016352888  0.015521951            8 
 3998000   0.62041775   -7.9325732    784.40849  0.016350019  0.015516907           14 
 3999000    0.6098079   -7.9389915    784.13491  0.016340229  0.015511859            5 
 4000000   0.60086818    -7.917908    783.41437  0.016321133  0.015506815            4 
 4001000   0.61782758   -7.9241011    784.34956  0.016336532  0.015501772           11 
 4002000    0.6244795    -7.926793    783.12843  0.016307022  0.015496735            8 
 4003000   0.62121663   -7.9253361    783.21596   0.01630477  0.015491695           14 
 4004000   0.60668485   -7.9290667    783.52952  0.016307224  0.015486652            5 
 4005000   0.61607118   -7.9334168      784.538  0.016324136  0.015481614            5 
 4006000   0.61817397   -7.9212062    783.52265   0.01629894  0.015476582            5 
 4007000   0.60830388    -7.947074    783.17466  0.016287635  0.015471542            7 
 4008000   0.61023183   -7.9560366    782.24428  0.016264227  0.015466504            4 
 4009000   0.61378258   -7.9270356    782.72979  0.016270262  0.015461465            8 
 4010000   0.61600883   -7.9384052    783.07159  0.016273308  0.015456429            8 
 4011000   0.61022306   -7.9397187    782.78528  0.016263303  0.015451399            8 
 4012000   0.63093069   -7.9506285    782.55021  0.016254366  0.015446368           10 
 4013000   0.62179938   -7.9427597    783.22781  0.016264387  0.015441343            5 
 4014000    0.6147699   -7.9412741    783.88999  0.016274082  0.015436323           11 
 4015000   0.63714743   -7.9525665     782.4486  0.016240112  0.015431299           10 
 4016000   0.61340598   -7.9403165    783.36225  0.016255027  0.015426276            6 
 4017000   0.61228113   -7.9615747    781.97315  0.016222163  0.015421254           11 
 4018000   0.60550886   -7.9653861    782.81678  0.016235623  0.015416239           13 
 4019000   0.61047169   -7.9663244    783.48139  0.016245363  0.015411227           10 
 4020000   0.60894984   -7.9578081     782.8951  0.016229169  0.015406214           10 
 4021000    0.5982432   -7.9601537    782.75309  0.016222189  0.015401197           10 
 4022000   0.59313082   -7.9467019    783.90892  0.016242104  0.015396179            9 
 4023000   0.61220039   -7.9474632    782.91182  0.016217413  0.015391161            9 
 4024000   0.61745129    -7.957271    782.87024  0.016212522   0.01538615            5 
 4025000   0.60752762    -7.950719    783.84972  0.016228773  0.015381139            7 
 4026000   0.61561666   -7.9442203    782.11743  0.016188885  0.015376128           10 
 4027000    0.6177907   -7.9674485    783.62123  0.016215984  0.015371122            6 
 4028000   0.62238576   -7.9555142    783.25771  0.016204438  0.015366109            9 
 4029000   0.60988206    -7.941962    783.17143  0.016198631  0.015361102           14 
 4030000   0.61378772   -7.9550549    783.39248  0.016199183  0.015356106            8 
 4031000   0.62062039   -7.9596064    783.73398  0.016202224  0.015351116            7 
 4032000   0.61572885   -7.9587413    783.13409  0.016185807  0.015346121            6 
 4033000   0.60559992   -7.9523298    782.73079   0.01617346  0.015341126           12 
 4034000   0.59896734   -7.9540545    783.56111  0.016186604  0.015336127            8 
 4035000   0.60547071   -7.9704991    784.57015  0.016203431  0.015331135           19 
 4036000   0.60099573   -7.9569013    783.29139  0.016173014  0.015326148           14 
 4037000   0.61946004    -7.945299    782.37218  0.016150033  0.015321158           10 
 4038000   0.60562497   -7.9479768    783.62647  0.016171918  0.015316175           11 
 4039000   0.61011769   -7.9682913    784.02028   0.01617604  0.015311193           10 
 4040000   0.60759088   -7.9639636    782.45632  0.016139776  0.015306209           14 
 4041000   0.61564657   -7.9445553    783.79834  0.016163457  0.015301227            8 
 4042000   0.60510079   -7.9479087    782.82617  0.016139415   0.01529625           12 
 4043000   0.59853129   -7.9520866     784.0894   0.01616146  0.015291281            5 
 4044000   0.62294523   -7.9642331    783.13708   0.01613784  0.015286312            8 
 4045000    0.6156761   -7.9480468    781.64162  0.016103041  0.015281342            4 
 4046000   0.60387257   -7.9332487    783.76432  0.016142781  0.015276367            7 
 4047000   0.60538614    -7.973711    781.42496  0.016090622  0.015271392           11 
 4048000   0.61200625   -7.9667725     782.6552  0.016111973   0.01526642            6 
 4049000   0.61402753   -7.9701116     782.7263  0.016109457  0.015261449            6 
 4050000   0.61092959   -7.9477051    782.32312  0.016097184  0.015256477           12 
 4051000   0.60621299    -7.945974    781.88363  0.016084169  0.015251509            8 
 4052000   0.60095704   -7.9717254    781.80054  0.016078491  0.015246541            9 
 4053000   0.60358439   -7.9701726    784.12108  0.016122236  0.015241576            9 
 4054000   0.59151953   -7.9677069    782.08458  0.016076397  0.015236616           16 
 4055000   0.59533182   -7.9685884    783.74979  0.016106654  0.015231657           15 
 4056000   0.60949855   -7.9593347    783.98275  0.016107469  0.015226705            8 
 4057000    0.6058361   -7.9471445    782.63966  0.016075911  0.015221758            6 
 4058000   0.59050447   -7.9634238    782.25072  0.016063963  0.015216797           11 
 4059000   0.61336463   -7.9523451    783.01081   0.01607561  0.015211844            7 
 4060000    0.6010261   -7.9571195    783.90964  0.016090099  0.015206892           10 
 4061000   0.60518095   -7.9576283    781.31237   0.01603284  0.015201944           11 
 4062000   0.60981205   -7.9595434    782.98845  0.016063279  0.015197002            9 
 4063000   0.59525474   -7.9314625    782.91121  0.016057741  0.015192057            5 
 4064000   0.60244134   -7.9348309    783.11215   0.01605791  0.015187119            5 
 4065000   0.60108682   -7.9529745    782.55351  0.016042507  0.015182177            4 
 4066000    0.6068197   -7.9444711    782.73261  0.016042232  0.015177245            6 
 4067000   0.61073865   -7.9344638    783.42007  0.016052374  0.015172314            5 
 4068000   0.60854135   -7.9624677    782.79456  0.016035615  0.015167388           15 
 4069000   0.59995087   -7.9485243    783.71037   0.01605043  0.015162461           11 
 4070000   0.59509537    -7.948304    783.76849  0.016047676  0.015157523            6 
 4071000   0.60801665    -7.947351    782.00826  0.016007702  0.015152594           15 
 4072000    0.5966636   -7.9587451    783.96976  0.016043913  0.015147664           15 
 4073000   0.60449556   -7.9410751    785.27526  0.016066684  0.015142742           10 
 4074000   0.60543195   -7.9483382    782.06619  0.015997099  0.015137822           10 
 4075000   0.60471672   -7.9760447    783.28785  0.016018156  0.015132895           10 
 4076000   0.61318632   -7.9760282    783.89852  0.016026712  0.015127972            9 
 4077000   0.60293543   -7.9662802    780.83799  0.015960224  0.015123051           10 
 4078000   0.61664648   -7.9707565    782.19921  0.015984126  0.015118126            8 
 4079000   0.59893874   -7.9638023    782.91899  0.015994913  0.015113203            7 
 4080000   0.59597129   -7.9659379     783.5308  0.016003488  0.015108281            8 
 4081000   0.59819759   -7.9729839    785.01121  0.016029797  0.015103357            7 
 4082000   0.60377815   -7.9448893    782.56673  0.015975966  0.015098438            7 
 4083000    0.5987664   -7.9478177    784.68751  0.016015338   0.01509353            5 
 4084000   0.59195109   -7.9517502    783.67491  0.015990755  0.015088629            5 
 4085000   0.60907476   -7.9751021    783.35552  0.015980325  0.015083727            8 
 4086000   0.59251714   -7.9515889    782.65975  0.015962224  0.015078815            6 
 4087000    0.5962557   -7.9676895    781.90259   0.01594288  0.015073909           14 
 4088000   0.62251891   -7.9648936    783.70878  0.015975799  0.015069007            7 
 4089000   0.60191898   -7.9604123    782.59203  0.015949132  0.015064114            5 
 4090000   0.59242034   -7.9754807    783.14957  0.015956593  0.015059225            5 
 4091000   0.58394818    -7.961059    782.69672  0.015943468  0.015054327            6 
 4092000   0.59500478   -7.9567762    783.12575  0.015948309  0.015049438            9 
 4093000    0.6047612   -7.9896805    783.94737   0.01596114  0.015044543            6 
 4094000   0.59388414   -7.9616314    782.53969  0.015928588  0.015039651            6 
 4095000   0.59579718   -7.9378707    782.15672  0.015916905  0.015034759            8 
 4096000   0.61021927    -7.962695    783.78855  0.015946219  0.015029873            6 
 4097000   0.59733118   -7.9706864    783.59565  0.015938403  0.015024985           13 
 4098000    0.5937552   -7.9506576    782.77314  0.015917788  0.015020099            7 
 4099000    0.5945219    -7.953826    782.02224  0.015898639  0.015015219           18 
 4100000   0.59329476   -7.9586235    782.91041  0.015912813  0.015010347            4 
 4101000   0.60130925   -7.9541301    781.96679  0.015889758  0.015005484            6 
 4102000   0.59388554   -7.9545521    782.80832  0.015902981  0.015000611            7 
 4103000   0.60339189   -7.9591798    783.97742   0.01592285  0.014995739            5 
 4104000   0.61438913   -7.9736906    782.98658   0.01589885  0.014990862            8 
 4105000   0.59284883    -7.970829    783.43213  0.015904022  0.014985988           11 
 4106000   0.58855795   -7.9729539    782.54389  0.015882121  0.014981109            4 
 4107000   0.59741385   -7.9605543    782.39347  0.015875202  0.014976233            4 
 4108000   0.58954048   -7.9600629     782.5478  0.015874468  0.014971362            4 
 4109000   0.59519524   -7.9856593    782.45219  0.015868666  0.014966479            4 
 4110000   0.59276029   -7.9698955    782.81337  0.015872128  0.014961613            6 
 4111000   0.60201104    -7.973098    782.00435  0.015851868  0.014956747            5 
 4112000   0.59486035    -8.002534    782.66292  0.015861359  0.014951875            7 
 4113000    0.5902573   -7.9611531    782.68859  0.015858023   0.01494701            6 
 4114000   0.58845492   -7.9916198    782.60407  0.015852456  0.014942145            6 
 4115000   0.60293984   -7.9689484    781.50314  0.015826309  0.014937273            6 
 4116000   0.59607927   -7.9643253    781.67479  0.015825939  0.014932406            8 
 4117000   0.59401565   -7.9645278    782.19434  0.015832611  0.014927528            4 
 4118000   0.59374893   -7.9663627    782.58412  0.015836655  0.014922664            5 
 4119000   0.59997129   -7.9747305    783.38999  0.015849114    0.0149178            5 
 4120000   0.59535534   -7.9660919    783.07707  0.015838937  0.014912943            5 
 4121000   0.59396464    -7.969841    782.72485  0.015827971  0.014908086            9 
 4122000   0.59033418   -7.9843982    782.08746  0.015811246  0.014903229            7 
 4123000   0.60355919   -7.9862475    782.19029  0.015809489  0.014898382            7 
 4124000   0.59444728   -7.9870027    782.66719  0.015815292  0.014893522            7 
 4125000   0.58896492   -7.9830413    782.70627  0.015812248  0.014888667            9 
 4126000   0.59218906   -7.9849941    782.32014  0.015800617  0.014883818            6 
 4127000   0.58977918   -7.9912071    781.84442  0.015787182  0.014878972            7 
 4128000   0.58327252   -7.9778416    782.63143  0.015799246  0.014874132            9 
 4129000   0.58628264   -7.9979087    782.32871   0.01578931  0.014869292            8 
 4130000   0.59035348   -7.9968315    783.23825  0.015803839  0.014864452            7 
 4131000    0.5961577   -7.9940916    782.17356  0.015778536  0.014859608            7 
 4132000   0.61166147    -8.004402    781.34427  0.015757992   0.01485477            9 
 4133000   0.59862568   -7.9856172    782.37183  0.015774898  0.014849935            8 
 4134000   0.59656551   -7.9871318     782.5014  0.015773694  0.014845101            5 
 4135000   0.57884451   -7.9670888    782.72004  0.015774285   0.01484027            6 
 4136000   0.58614316   -7.9917671    782.44423  0.015764914  0.014835437           14 
 4137000   0.59355821   -7.9770618    781.78282   0.01574778  0.014830601            5 
 4138000   0.58174498   -7.9640318     781.1409  0.015731048  0.014825766           13 
 4139000   0.57639007   -7.9824977    782.94138  0.015763497  0.014820926            9 
 4140000   0.59455189   -7.9853791    781.46592   0.01572999  0.014816086            3 
 4141000   0.60357677    -7.980788      782.845  0.015753944  0.014811253            9 
 4142000   0.58903678   -7.9758599    783.14362  0.015756149  0.014806422            7 
 4143000   0.58377946   -7.9808346    781.71564  0.015723623  0.014801602            6 
 4144000    0.5867244   -7.9871168    781.75162  0.015720552   0.01479678           10 
 4145000   0.59040723    -7.981921    782.43307   0.01573046  0.014791963            6 
 4146000   0.60441258   -7.9789823    783.47666  0.015747642  0.014787146            6 
 4147000   0.59748015   -7.9680045    782.87214  0.015731696  0.014782335            3 
 4148000   0.58333616   -7.9685671    782.64218  0.015723284  0.014777521            5 
 4149000   0.57696752   -7.9937586    782.28265  0.015712273  0.014772709            6 
 4150000   0.58081191    -7.991808    782.73935  0.015717658   0.01476789            5 
 4151000   0.59478309   -7.9953031    782.23646  0.015703775  0.014763076            6 
 4152000   0.58881422     -7.98652    781.95724  0.015694389  0.014758264            5 
 4153000   0.57660252   -7.9916653    781.18771  0.015675169  0.014753454           12 
 4154000    0.5932552   -7.9896579    783.15774  0.015710916  0.014748651            3 
 4155000   0.58271632    -7.975139    783.32256   0.01571044  0.014743844            6 
 4156000   0.58479916   -7.9523604    780.99627  0.015660015  0.014739046            6 
 4157000   0.59813188   -7.9866472    782.31825  0.015682749  0.014734253            9 
 4158000   0.58413908   -7.9834019    781.54627  0.015663505  0.014729451            8 
 4159000    0.5910285   -7.9637102    781.99886  0.015668808  0.014724654            5 
 4160000   0.58127725   -7.9693787    782.58513  0.015676785  0.014719862           13 
 4161000   0.58750618     -7.98901    782.08692   0.01566304  0.014715068           10 
 4162000   0.58260353    -7.987712    782.07587  0.015659056  0.014710278           10 
 4163000   0.59274918   -7.9938927    782.03892  0.015654554  0.014705487            9 
 4164000   0.59635954   -7.9900966    782.11833  0.015652384  0.014700693           12 
 4165000   0.58435174   -7.9795101    781.59218  0.015638099  0.014695903            7 
 4166000   0.58368748   -7.9813699    782.70436  0.015656592  0.014691111            5 
 4167000   0.57929066   -7.9881969    783.06322  0.015660012  0.014686321            8 
 4168000   0.56819553   -7.9838043    781.96861  0.015634369  0.014681531           10 
 4169000   0.58552948   -7.9793583    782.65405   0.01564432  0.014676744            6 
 4170000   0.59295292   -7.9970422    782.98724  0.015647227  0.014671967            3 
 4171000   0.57818007   -7.9910591    780.67849  0.015597349  0.014667179            5 
 4172000   0.58642023   -7.9860566     780.9525  0.015599083  0.014662398            6 
 4173000    0.5829679   -7.9578686    781.24817   0.01560125   0.01465762            5 
 4174000   0.57640582   -7.9989869     781.1791  0.015596133  0.014652838            8 
 4175000   0.59258153   -8.0037849    783.72497  0.015643213  0.014648057            7 
 4176000   0.57676596   -7.9994466    782.23036  0.015609642  0.014643275            7 
 4177000   0.57841868   -7.9964884    781.90396  0.015599393  0.014638493            8 
 4178000   0.58764441   -8.0010746    782.27778  0.015603115  0.014633717           10 
 4179000    0.5809847   -8.0053308    781.53283  0.015584526  0.014628939            4 
 4180000    0.5875674    -8.006478    781.39827  0.015578115  0.014624161            6 
 4181000   0.58416115   -7.9815904    781.64541  0.015579315   0.01461939            7 
 4182000   0.57370625   -7.9942875    781.79668  0.015578604  0.014614624            3 
 4183000   0.59014377   -7.9936766    781.54169    0.0155698  0.014609853            4 
 4184000   0.59045555   -7.9847874    781.04818   0.01555625  0.014605087            3 
 4185000   0.57571645   -7.9695948     781.2696  0.015556942  0.014600326            5 
 4186000   0.57215117   -7.9915373     781.3008  0.015553846  0.014595563            4 
 4187000   0.58145757   -7.9815643      781.114  0.015546414  0.014590796            3 
 4188000   0.58524409   -8.0010612    781.44485  0.015549285  0.014586036            5 
 4189000   0.57246019   -7.9903811    781.74575  0.015551559  0.014581265            5 
 4190000   0.58544982   -7.9962831    783.02481  0.015573286    0.0145765            8 
 4191000   0.58722422   -7.9924101    782.02482  0.015549686  0.014571734            9 
 4192000   0.58004528   -8.0046903    781.22517  0.015530081  0.014566973            5 
 4193000   0.59944565   -7.9802123    782.11932  0.015544147  0.014562215            5 
 4194000   0.57821015   -8.0168652    780.26777  0.015503651  0.014557458            6 
 4195000    0.5866164   -8.0090549    781.01665  0.015514832  0.014552695            4 
 4196000   0.56557203   -8.0110386    781.16857  0.015514152  0.014547942            5 
 4197000   0.59578153   -7.9876755    780.44371  0.015496063  0.014543183            4 
 4198000   0.58579081   -8.0072098    781.34776  0.015510318  0.014538429            5 
 4199000   0.57489666   -8.0089057    780.55555  0.015490902  0.014533676           10 
 4200000   0.58200082   -7.9862116    781.79567  0.015511819  0.014528926            7 
 4201000   0.57207107   -8.0095309    781.87577  0.015509715  0.014524181            4 
 4202000     0.578953   -8.0004477    781.58666  0.015500291  0.014519435            4 
 4203000   0.58832604     -8.01284    780.64504  0.015477933  0.014514696            4 
 4204000   0.57092589   -7.9987109    780.89901  0.015479286  0.014509963            9 
 4205000   0.57007803    -8.002815    781.17893  0.015481152  0.014505226            4 
 4206000   0.57991303   -8.0110159    782.41414  0.015501944  0.014500489            7 
 4207000   0.58421338   -7.9981016    782.22429  0.015494499  0.014495757            4 
 4208000   0.58670947   -8.0033733    780.90483  0.015464687  0.014491029            6 
 4209000   0.57955025   -8.0049633     782.0843  0.015484365  0.014486296            4 
 4210000   0.58267356   -8.0283968    780.76924  0.015454656  0.014481561            5 
 4211000   0.58916897   -7.9899957    779.87477  0.015433285  0.014476827            4 
 4212000   0.58049569   -8.0204431    780.32922  0.015438612  0.014472087            5 
 4213000   0.59139584   -8.0163551    781.82379  0.015464511  0.014467349            6 
 4214000   0.57703925   -8.0060994    781.78227   0.01546002   0.01446262            6 
 4215000    0.5793514   -8.0210162    782.15585  0.015463738   0.01445789            5 
 4216000   0.57677275   -8.0089623    780.55555  0.015428438  0.014453161            8 
 4217000   0.58035566   -8.0260146    779.48856  0.015403695  0.014448431            4 
 4218000   0.57742118   -8.0152674    780.07287  0.015411587  0.014443706            4 
 4219000   0.57754248    -8.022474    780.66645  0.015419658  0.014438983            9 
 4220000   0.57850208   -8.0278573    781.07888  0.015424149  0.014434254            7 
 4221000   0.58672532   -7.9966056    782.40192  0.015446614  0.014429533            3 
 4222000   0.57986734   -8.0293378    780.18663  0.015399231  0.014424811            6 
 4223000   0.58136906    -8.016681    781.34489  0.015418441  0.014420095            7 
 4224000    0.5599075   -8.0146594    781.35342  0.015414959  0.014415377            3 
 4225000   0.58146163   -8.0313273    781.59253  0.015416026   0.01441066            4 
 4226000   0.57132296   -8.0260316    779.89357  0.015378876  0.014405941            6 
 4227000   0.57776759   -7.9999418     782.0178  0.015417116  0.014401227            6 
 4228000   0.57111959   -8.0392178     781.4404  0.015402089  0.014396512            4 
 4229000   0.58164679   -8.0171778    781.51838  0.015399984  0.014391802            8 
 4230000   0.57460883    -8.020825    780.80899  0.015382368  0.014387087            8 
 4231000   0.57475285   -8.0292864    780.25382  0.015367798  0.014382378            7 
 4232000   0.57621874    -8.022393     780.4132  0.015367305  0.014377669            6 
 4233000   0.57361522   -8.0278696    780.49257  0.015365237  0.014372964            9 
 4234000   0.58650219   -8.0051935    780.66522  0.015365006   0.01436826            7 
 4235000   0.58103728   -8.0146397    780.57946   0.01535969  0.014363566            8 
 4236000   0.58057152   -8.0192412    781.18915  0.015368058   0.01435887            6 
 4237000   0.56662155   -8.0266125    781.79836  0.015376413  0.014354179            7 
 4238000   0.56772775   -8.0405287    781.27418  0.015362478   0.01434949            6 
 4239000   0.57315463   -8.0311606    781.28961  0.015359157  0.014344801            7 
 4240000   0.57663253   -8.0373484    780.87227  0.015347332  0.014340113            6 
 4241000   0.57857317   -8.0059213    781.35607   0.01535322  0.014335432            5 
 4242000   0.56765751    -8.041894    781.36553  0.015349786  0.014330749            5 
 4243000   0.57171748    -8.001976    781.05734  0.015340116  0.014326069            6 
 4244000   0.58581988   -8.0515701    781.21055   0.01533951  0.014321386            5 
 4245000   0.57807594   -8.0068038    781.36329  0.015338895  0.014316711            4 
 4246000   0.57839864   -8.0065176    780.92576  0.015326695  0.014312033           10 
 4247000   0.57369078     -8.02094     780.3827   0.01531243   0.01430736           12 
 4248000   0.57723514    -8.022442    780.66813  0.015314425   0.01430269           10 
 4249000   0.56536356   -8.0189853    781.21258  0.015321499  0.014298019            3 
 4250000     0.574337   -8.0260806     780.5902   0.01530569  0.014293348            4 
 4251000   0.56739474    -8.007362    780.46479  0.015299631  0.014288675           10 
 4252000   0.57414416   -8.0043997    780.26462   0.01529211  0.014284004            6 
 4253000   0.57272506   -8.0105426    780.46408  0.015292423  0.014279338            6 
 4254000   0.55865172   -8.0149586    779.93952  0.015278552  0.014274668            6 
 4255000   0.56116667   -8.0225048    781.05574  0.015296822  0.014270005            5 
 4256000   0.57668393   -8.0137289    781.14924  0.015295059  0.014265341            5 
 4257000   0.56981142   -8.0065493    779.64477  0.015262015  0.014260682            8 
 4258000   0.57848031   -8.0173591    780.81215  0.015281277  0.014256028            6 
 4259000   0.58508218   -8.0039735    780.61965  0.015273923  0.014251373            7 
 4260000   0.58265766   -8.0349026    780.98497  0.015277484  0.014246721            4 
 4261000   0.56787704    -8.038767    780.91252  0.015272481  0.014242062            7 
 4262000   0.55922595   -8.0205251    781.14055  0.015273357  0.014237404            5 
 4263000   0.57364492   -8.0360083    782.14378  0.015289385  0.014232754            6 
 4264000   0.56613909   -8.0250201    780.38665  0.015251459  0.014228098            6 
 4265000    0.5714648   -8.0216379    781.38228  0.015267336  0.014223441            9 
 4266000   0.56540936   -8.0322916    780.88256  0.015253996  0.014218796            3 
 4267000   0.56017798   -8.0329482    780.14878  0.015236091  0.014214151            9 
 4268000   0.56356681   -8.0294933    780.50078  0.015239393  0.014209504            7 
 4269000   0.56366845   -8.0128113    780.58595  0.015237486   0.01420487            8 
 4270000   0.56869489   -8.0269499    780.51899  0.015232611   0.01420022            8 
 4271000   0.55880385   -8.0480924    779.52449   0.01520964  0.014195571            7 
 4272000   0.57049997   -8.0171846    781.02186  0.015235289  0.014190917           10 
 4273000   0.57864668   -8.0265673    780.49766  0.015221501  0.014186275            4 
 4274000   0.56818396   -8.0337812    780.92662  0.015226303  0.014181631            8 
 4275000   0.57210757   -8.0354663    781.42027  0.015232364  0.014176991           12 
 4276000   0.55916597   -8.0410333    779.51036   0.01519158  0.014172351            9 
 4277000    0.5626991   -8.0561706     780.8246  0.015213635  0.014167718            5 
 4278000   0.56420525   -8.0358118    780.56781  0.015205077  0.014163092           10 
 4279000   0.56419986   -8.0259391    781.20119  0.015213858   0.01415846            6 
 4280000   0.55375585   -8.0142675     781.2078  0.015210432  0.014153825            5 
 4281000   0.56411249   -8.0236382    782.76096  0.015237113  0.014149195            6 
 4282000   0.57293293   -8.0214144    780.43547  0.015188297   0.01414457            9 
 4283000   0.56567453   -8.0363871    780.08252  0.015177884  0.014139952            8 
 4284000   0.57143185   -8.0234268     780.5462  0.015183361  0.014135331            6 
 4285000   0.56771113   -8.0418809    780.35727  0.015176143   0.01413071            7 
 4286000   0.57349149   -8.0304208     778.3642   0.01513385  0.014126085            8 
 4287000   0.56085844   -8.0391449    779.18233  0.015146224  0.014121463            6 
 4288000   0.57468826   -8.0386758    779.76713  0.015154056  0.014116836            9 
 4289000   0.57044205   -8.0291755    779.97757  0.015154612  0.014112218            7 
 4290000   0.56321172   -8.0291835     781.6052  0.015182696  0.014107601            3 
 4291000   0.55873804   -8.0298084    779.75401  0.015143207  0.014102989           10 
 4292000   0.57350867    -8.028351    779.65436  0.015137744  0.014098378            5 
 4293000   0.57681646   -8.0284191    779.40336  0.015129345  0.014093764            7 
 4294000   0.57075937   -8.0321167     780.1296  0.015139916  0.014089155            6 
 4295000   0.55895959   -8.0303974    780.97765  0.015152845  0.014084548            7 
 4296000   0.56999585   -8.0375964    781.48165  0.015159095  0.014079942            9 
 4297000    0.5518473    -8.039811    781.34559  0.015152928  0.014075341            8 
 4298000   0.55471261   -8.0174399    778.45365  0.015093331  0.014070737           10 
 4299000    0.5687819   -8.0573345    778.75434  0.015095649  0.014066131            7 
 4300000   0.56942883   -8.0387333    780.76277  0.015131061  0.014061533            9 
 4301000   0.56025144   -8.0292747    780.03285  0.015113401  0.014056939            9 
 4302000   0.56671194    -8.051703    779.41906  0.015097998  0.014052346            8 
 4303000    0.5625145    -8.048472     781.9528  0.015143559  0.014047747            5 
 4304000     0.576048   -8.0334096    779.65025  0.015095459   0.01404315            9 
 4305000   0.56787118   -8.0305347    778.87708  0.015076986  0.014038556            5 
 4306000   0.55867909   -8.0357488    778.71962  0.015070437  0.014033965            7 
 4307000   0.56024551   -8.0297381    780.10961  0.015093832  0.014029376           13 
 4308000   0.56436102   -8.0399115    779.03107  0.015069465  0.014024792            7 
 4309000   0.56090452   -8.0607406    781.00724  0.015104186  0.014020208            7 
 4310000   0.55160915   -8.0357095    780.58034  0.015092427  0.014015618            8 
 4311000   0.55134549   -8.0350808    780.57857  0.015088892  0.014011028           15 
 4312000   0.55968407   -8.0466163    780.20767  0.015078225  0.014006444            7 
 4313000    0.5546259   -8.0542928    780.31766  0.015076854  0.014001865           10 
 4314000   0.55535962   -8.0345342    778.92212  0.015046402  0.013997286            8 
 4315000   0.56901812   -8.0514688    777.90275  0.015023228  0.013992705            8 
 4316000   0.56236981   -8.0483237    779.67677     0.015054  0.013988125            9 
 4317000   0.55716395   -8.0442826    781.18246  0.015079578  0.013983552            5 
 4318000   0.57565728   -8.0490119    780.72235  0.015067206  0.013978979            7 
 4319000   0.55787697   -8.0558465    781.30114  0.015074885  0.013974413            4 
 4320000   0.56926038   -8.0625256     779.1708  0.015030301  0.013969847           11 
 4321000   0.56320221   -8.0543309    779.52611  0.015033675  0.013965281            8 
 4322000   0.56716499   -8.0513431    778.90004  0.015018125  0.013960713            8 
 4323000   0.54782471   -8.0579441     780.0176  0.015036194  0.013956149            5 
 4324000   0.54855827   -8.0415151    779.67445  0.015026103  0.013951585            7 
 4325000   0.56648847   -8.0467778    780.03936   0.01502966  0.013947023            9 
 4326000   0.57234243   -8.0457022    779.51038  0.015015996  0.013942456           11 
 4327000   0.55960596   -8.0543769    779.07685  0.015004176  0.013937886            8 
 4328000   0.56819548   -8.0545507    778.82591  0.014995878  0.013933326            6 
 4329000   0.56363252   -8.0456738    779.15994  0.014998844  0.013928765            8 
 4330000   0.55076186   -8.0546447    778.31099  0.014979041  0.013924209            8 
 4331000   0.56691435   -8.0514056    779.17279  0.014992165  0.013919648            9 
 4332000   0.55431458   -8.0329094    779.62613  0.014997425  0.013915086            4 
 4333000   0.56422074   -8.0634027    780.82652   0.01501705  0.013910535           10 
 4334000   0.54731284    -8.064183    778.64307  0.014971602  0.013905983            5 
 4335000   0.54564619   -8.0476255    779.92433  0.014992778  0.013901434            6 
 4336000   0.55744912   -8.0426624    780.59048  0.015002123  0.013896892           10 
 4337000   0.55337206    -8.044542    780.02723  0.014987842  0.013892349            5 
 4338000   0.56224308   -8.0707431    778.79128  0.014960644  0.013887805           11 
 4339000   0.56503972   -8.0650832    779.32987   0.01496754  0.013883259            9 
 4340000   0.56696581   -8.0652616    779.45619  0.014966517  0.013878721            4 
 4341000    0.5507195   -8.0425718    778.93519  0.014953068  0.013874177           11 
 4342000   0.56187076   -8.0713238    779.68451  0.014964005  0.013869641            9 
 4343000   0.56199436   -8.0617866    780.79172  0.014981804  0.013865109            5 
 4344000   0.54658977    -8.054063    779.05152  0.014944972  0.013860573            5 
 4345000   0.55251863   -8.0757953    780.07768  0.014961214  0.013856039            3 
 4346000    0.5629382   -8.0478778    779.45853  0.014945899  0.013851512            5 
 4347000   0.55839544   -8.0639848    780.43703  0.014961219  0.013846982            6 
 4348000   0.55788201   -8.0585061     780.7083  0.014962977  0.013842456            5 
 4349000   0.55550687   -8.0631924    778.86137  0.014924147  0.013837934            5 
 4350000   0.55203835   -8.0642777    779.33807  0.014929848  0.013833411            9 
 4351000   0.56514891   -8.0514207    779.78423  0.014934962  0.013828881           10 
 4352000   0.55779203   -8.0511224    778.90819  0.014914755  0.013824353            6 
 4353000   0.54850814   -8.0590296    779.68406  0.014926182  0.013819827            6 
 4354000   0.54863584   -8.0679121     780.0832  0.014930393  0.013815304            5 
 4355000   0.55507253   -8.0609435    778.87784    0.0149039  0.013810787            7 
 4356000   0.56506818   -8.0460341    778.39631  0.014891267  0.013806267            8 
 4357000     0.556141   -8.0485566    779.16074   0.01490247   0.01380175            6 
 4358000   0.55437254   -8.0531142    780.80182  0.014930431  0.013797239           10 
 4359000   0.56257298   -8.0563576    778.23336  0.014877903  0.013792727            7 
 4360000   0.56374994    -8.068003    780.19971  0.014912074  0.013788218            6 
 4361000   0.54386236   -8.0716358    779.77119  0.014900466  0.013783715            7 
 4362000   0.54690492   -8.0658973    778.93315   0.01488104  0.013779207           11 
 4363000   0.55610203   -8.0574164    781.25772  0.014922028  0.013774699            7 
 4364000   0.53615096   -8.0603658    779.36173  0.014882404  0.013770187           11 
 4365000    0.5484326   -8.0547608    779.42935  0.014880285  0.013765681            6 
 4366000   0.55403631   -8.0705548     778.6899  0.014862763  0.013761178           11 
 4367000   0.55381558   -8.0678335    780.07345  0.014885762  0.013756682            7 
 4368000   0.55191869   -8.0622648    778.37611  0.014849971  0.013752177            7 
 4369000   0.55549945   -8.0635445    779.62148  0.014870327  0.013747685            9 
 4370000   0.53818971    -8.069648    779.08076  0.014856613   0.01374319           11 
 4371000   0.55068975   -8.0636694    779.52882  0.014861756  0.013738701            6 
 4372000   0.56464934   -8.0763677    780.06516   0.01486858  0.013734215           14 
 4373000   0.55463326   -8.0621765    778.91956  0.014843348  0.013729727           15 
 4374000   0.54517175   -8.0619972    778.84838  0.014838599  0.013725239            8 
 4375000    0.5543783   -8.0735994    778.48232  0.014828235  0.013720751            8 
 4376000   0.55270456    -8.076045    778.47879  0.014824779   0.01371627            8 
 4377000   0.55190702   -8.0598636    778.95349   0.01483043  0.013711789            8 
 4378000   0.55397934    -8.081111     778.6266   0.01482082  0.013707308            6 
 4379000   0.54216814   -8.0610952     778.6963  0.014818762  0.013702831            6 
 4380000   0.55821742   -8.0665422    778.68147  0.014815097   0.01369835            9 
 4381000   0.55063898   -8.0773847    779.40649  0.014825506  0.013693874           11 
 4382000   0.56098535   -8.0905285    778.82597  0.014811083    0.0136894           12 
 4383000    0.5460964   -8.0482658     778.7567  0.014806386   0.01368493           13 
 4384000   0.56031414   -8.0765578    777.98343   0.01478831  0.013680458           15 
 4385000   0.55891649   -8.0498486    779.71331  0.014817813  0.013676001            8 
 4386000   0.54566113   -8.0700651    778.52891  0.014791931  0.013671539            7 
 4387000   0.55356778   -8.0796175    779.27473  0.014802726  0.013667074            7 
 4388000   0.54929283   -8.0647306    779.24599  0.014798807  0.013662616           13 
 4389000   0.55601666   -8.0576211    778.31408  0.014777741  0.013658157           11 
 4390000   0.55690055   -8.0661882    778.77222  0.014783072  0.013653703           10 
 4391000   0.54679656   -8.0804547    779.06272  0.014785218  0.013649248            5 
 4392000   0.54730952   -8.0753599    778.63146  0.014773669  0.013644794           10 
 4393000   0.54513703   -8.0815687    779.42004  0.014785265  0.013640346            3 
 4394000   0.55374262   -8.0731323    779.02529  0.014774414  0.013635893            6 
 4395000   0.54841524   -8.0541889    778.19742  0.014755355   0.01363144            7 
 4396000   0.54856754   -8.0893944    778.24572  0.014752914  0.013626991            9 
 4397000   0.54355713   -8.0681759    779.54289  0.014774143  0.013622543           11 
 4398000   0.54848556   -8.0830931    779.11356  0.014762649  0.013618107            7 
 4399000   0.55181152   -8.0527071    778.66621  0.014750818  0.013613669            6 
 4400000   0.54182259   -8.0889662    777.83334  0.014731692  0.013609232            3 
 4401000   0.55015055   -8.0882577    780.65386  0.014781751  0.013604792            5 
 4402000   0.55341032   -8.0704582    778.86234  0.014744479  0.013600358            8 
 4403000    0.5389182   -8.0855428    779.11923  0.014745992  0.013595926           11 
 4404000   0.54762004   -8.0628888    779.05586  0.014741445  0.013591491            8 
 4405000   0.54683733   -8.0785097    779.41473  0.014744887  0.013587064            6 
 4406000   0.55204505   -8.0862216    778.26986  0.014719887  0.013582637            7 
 4407000   0.54414298   -8.0896723    778.96326  0.014729659  0.013578207            7 
 4408000   0.54701469   -8.0992657    779.18107  0.014730435  0.013573782            4 
 4409000   0.54931696   -8.0669453     779.0834  0.014725248  0.013569355           13 
 4410000    0.5490711   -8.0605511      778.189  0.014705008  0.013564931           12 
 4411000   0.55108529   -8.0781053    779.02073  0.014717387  0.013560512            9 
 4412000   0.53823432   -8.0748618    779.64072  0.014725762  0.013556095            8 
 4413000   0.53825836   -8.0673752    778.60786   0.01470292  0.013551675            6 
 4414000    0.5376751   -8.0835888    780.04025  0.014726632  0.013547261            8 
 4415000   0.54869445   -8.0691291    779.16827  0.014706838  0.013542848            6 
 4416000   0.55108405   -8.0840327    779.42129  0.014708282  0.013538432           12 
 4417000   0.54891005   -8.0881829     779.6606  0.014709467  0.013534019            4 
 4418000   0.53975353   -8.0851999    779.40548  0.014701326  0.013529603           17 
 4419000   0.54419843   -8.0879601    778.77903  0.014686185  0.013525195           10 
 4420000    0.5342282   -8.0815956    778.44094  0.014676488  0.013520789           12 
 4421000   0.54043193    -8.096727    778.82511   0.01468041  0.013516378           11 
 4422000   0.54518137   -8.0959785     777.9885  0.014661324  0.013511973           13 
 4423000   0.53825489   -8.0842357    779.77308  0.014691632  0.013507564           22 
 4424000   0.53280277   -8.0798726    779.35685  0.014680471  0.013503164            4 
 4425000   0.54170152   -8.0747868     778.5328  0.014661635  0.013498764            8 
 4426000    0.5467795   -8.0874834    778.81214  0.014663582  0.013494365            6 
 4427000    0.5520354   -8.1020019    778.64634  0.014657148  0.013489966            7 
 4428000   0.53815041   -8.1055048    778.72655  0.014655348  0.013485566            9 
 4429000   0.54740599    -8.077412    779.79162  0.014672078  0.013481169            7 
 4430000   0.55147909   -8.0920311    778.29146  0.014640547  0.013476773           14 
 4431000   0.54133643   -8.0708985    778.69204  0.014644776  0.013472372            9 
 4432000    0.5431242    -8.078568    778.76326  0.014642811   0.01346798            5 
 4433000   0.54126822   -8.0772014    779.48768  0.014653126  0.013463585           13 
 4434000   0.53405015   -8.0843732    778.33428  0.014628144  0.013459198            9 
 4435000   0.55311241   -8.0920858    778.06244  0.014619738   0.01345481           12 
 4436000   0.54249307   -8.0767015    778.66632  0.014627786  0.013450423           10 
 4437000   0.55365918   -8.0999374     777.6872    0.0146061  0.013446038           10 
 4438000   0.53847981   -8.1127996    778.97501  0.014626991  0.013441655            8 
 4439000   0.54626294   -8.1031528    777.59422  0.014597774  0.013437272           10 
 4440000   0.53699336   -8.1036949    778.83609  0.014617794  0.013432894           13 
 4441000   0.53498349    -8.098556    778.50445   0.01460828  0.013428511            7 
 4442000   0.53547992   -8.0868897    778.07562  0.014596946  0.013424134            5 
 4443000   0.53205041   -8.0943673    778.09061  0.014593942  0.013419755           18 
 4444000   0.53416374   -8.0852875    778.92309  0.014606269  0.013415381           10 
 4445000   0.54180514   -8.0887417    778.72133    0.0145992  0.013411012            5 
 4446000   0.54107611   -8.0963226    778.27656   0.01458758  0.013406639           10 
 4447000   0.52600855     -8.10514    779.99639  0.014616528  0.013402266            9 
 4448000   0.54270327   -8.1037957    778.88488  0.014592418  0.013397899            9 
 4449000   0.54273062   -8.0931279    778.37034    0.0145795  0.013393525           15 
 4450000   0.52889506   -8.0811785    778.24721  0.014573918   0.01338916           12 
 4451000   0.54577448   -8.1039011    778.41814  0.014573844    0.0133848           10 
 4452000   0.53804878   -8.1003736     778.9655  0.014580816  0.013380438           16 
 4453000   0.53351947   -8.0710611    777.94298  0.014558406  0.013376079           13 
 4454000   0.54368881   -8.0985599    780.40855  0.014601267  0.013371719           12 
 4455000   0.55808288   -8.1044633    778.03258  0.014553546  0.013367363            9 
 4456000   0.53774474   -8.0947632    778.10676  0.014551667  0.013363011            8 
 4457000   0.53817582   -8.1009818    779.74339  0.014579003  0.013358656           13 
 4458000   0.55156014   -8.0788367    778.25282  0.014547869  0.013354304            7 
 4459000   0.54244576   -8.0994188    776.66839  0.014514996  0.013349961           13 
 4460000   0.53844463   -8.0960638    779.21826  0.014559385  0.013345617           17 
 4461000   0.53516726   -8.0965394     777.1553  0.014517584   0.01334127           12 
 4462000   0.54761951   -8.0871718     778.9727  0.014548272  0.013336927           17 
 4463000   0.54059089   -8.0709722    778.61469  0.014538328  0.013332586           16 
 4464000   0.53744163    -8.096181    778.89152  0.014540239  0.013328253            6 
 4465000   0.54280574   -8.1077051    778.99934  0.014538995  0.013323919            6 
 4466000   0.54205911    -8.098053    779.17683  0.014539051  0.013319584           14 
 4467000   0.53868815   -8.1141033    778.56431   0.01452437  0.013315249            6 
 4468000   0.54487161   -8.1185225     778.8346   0.01452616  0.013310916           11 
 4469000   0.53681777   -8.0990488    777.22979  0.014492985  0.013306588            9 
 4470000   0.54872576   -8.1016981    778.73919  0.014517882   0.01330226            3 
 4471000   0.53461393    -8.107405    778.06917  0.014502147  0.013297932            5 
 4472000   0.52459285   -8.1049737    777.62107  0.014490554  0.013293607           21 
 4473000   0.52688642   -8.1044698     778.1724  0.014497586  0.013289282            7 
 4474000   0.53111405   -8.0969279    779.93579   0.01452719  0.013284959            9 
 4475000   0.54324545   -8.1050551    778.10229  0.014489801  0.013280635            6 
 4476000   0.53022613   -8.1103011    776.86957  0.014463613  0.013276307            6 
 4477000   0.52733397   -8.1067773     777.1545  0.014465686  0.013271983            9 
 4478000   0.54170783   -8.0921184    778.72956  0.014491766  0.013267665            5 
 4479000   0.54892499   -8.1037644     779.3209  0.014499533  0.013263349            3 
 4480000   0.53314517   -8.1061204       779.43  0.014498326  0.013259039            7 
 4481000   0.53210286   -8.1141711    778.67155  0.014480985  0.013254732           10 
 4482000   0.52939383   -8.0978993    778.67442  0.014477808  0.013250423            6 
 4483000   0.54036127   -8.1012489    778.71355  0.014475306  0.013246118           10 
 4484000   0.53576831   -8.0861067    778.40614  0.014466365  0.013241814           11 
 4485000   0.53600864    -8.083439     778.4606  0.014464151  0.013237509            7 
 4486000    0.5321198   -8.1087247    778.02226  0.014452784  0.013233202            5 
 4487000   0.52258135   -8.1025358     778.6874  0.014461916  0.013228898            7 
 4488000   0.53436182   -8.0985828    777.87989    0.0144437  0.013224592            8 
 4489000   0.54299351   -8.1070713      777.678  0.014436734  0.013220288            4 
 4490000   0.52924085   -8.0890168    778.32928  0.014445607  0.013215988            8 
 4491000   0.53829789    -8.111436    778.93697  0.014453666  0.013211697            4 
 4492000   0.53126075   -8.1013256    778.83976  0.014448645  0.013207395            3 
 4493000   0.52369338   -8.1051822    778.73289  0.014443447  0.013203101            6 
 4494000   0.53609153   -8.0908414      777.532  0.014417965  0.013198811            6 
 4495000   0.52917704   -8.0957319    778.09552  0.014425204  0.013194521            8 
 4496000   0.51924724   -8.1032019    778.43889   0.01442836   0.01319023            9 
 4497000   0.54216103   -8.1010773    778.73322  0.014430606  0.013185945            8 
 4498000   0.53968694   -8.1016592    778.04314  0.014414613  0.013181662            6 
 4499000   0.53838044   -8.1090716      778.182  0.014413981  0.013177383            9 
 4500000   0.52599662   -8.1013105    777.87306  0.014405057  0.013173106            7 
 4501000   0.52597515   -8.1006758    778.51853  0.014413807  0.013168829            5 
 4502000   0.54219354   -8.0942929    778.50762  0.014410403  0.013164559            5 
 4503000     0.529308   -8.1188022    779.80449  0.014431203  0.013160286            6 
 4504000   0.54246577   -8.1262352    778.37837  0.014401613  0.013156013            7 
 4505000    0.5423531   -8.1025328    778.42834   0.01439934  0.013151738            8 
 4506000   0.53141082   -8.1048103    778.95472   0.01440588  0.013147467           10 
 4507000   0.54160692   -8.1050654    779.39428  0.014410811  0.013143204            9 
 4508000   0.53444066   -8.1211307    777.59181  0.014374294  0.013138937            8 
 4509000   0.52024895   -8.1142806    778.77802  0.014393029   0.01313467           12 
 4510000   0.51979384   -8.1145885    778.32651  0.014381495  0.013130404           10 
 4511000   0.53213907   -8.1066565    778.19722  0.014375918  0.013126139            9 
 4512000   0.52831093    -8.108505    778.23026  0.014373343  0.013121872            7 
 4513000   0.52706089   -8.1217024    779.39692    0.0143917  0.013117606            5 
 4514000   0.52592406   -8.1198515    777.71805  0.014357518  0.013113348            8 
 4515000   0.53887733   -8.1255349    776.88171  0.014338902  0.013109083            9 
 4516000   0.52724982   -8.1206407    778.64941  0.014368346   0.01310482           14 
 4517000   0.53756887    -8.101097    777.95151   0.01435229  0.013100561           12 
 4518000   0.52435564   -8.1091396    778.01218  0.014350232  0.013096303            8 
 4519000   0.53254869   -8.1203527    778.05744  0.014347891  0.013092047           12 
 4520000   0.52459764   -8.1145397    777.17939  0.014328529  0.013087795            4 
 4521000   0.50409356   -8.1064042    778.38986  0.014347671  0.013083543            8 
 4522000   0.52686851    -8.127648    778.34373  0.014343648  0.013079291            6 
 4523000    0.5300259   -8.1112253    776.81975  0.014312399  0.013075044            5 
 4524000   0.51854045   -8.1224197    778.01703  0.014331289  0.013070796            8 
 4525000   0.51128415   -8.1160033    777.45148  0.014317707  0.013066549            5 
 4526000   0.53067088   -8.1151174    777.76354  0.014320289  0.013062304            8 
 4527000    0.5337873   -8.1109146    776.48062   0.01429351  0.013058055            8 
 4528000   0.52680478   -8.1203483    777.83656  0.014315308  0.013053809            8 
 4529000   0.52298911   -8.1141133    777.23127   0.01430101  0.013049566           11 
 4530000   0.53351485   -8.1135266     777.7181  0.014306808  0.013045322            6 
 4531000   0.53059128    -8.108828    778.49676  0.014317972  0.013041081            6 
 4532000   0.52151086   -8.1267305    776.82836  0.014284134  0.013036842            8 
 4533000   0.52365427   -8.1401293    777.87735  0.014300267  0.013032607            6 
 4534000   0.52893711   -8.1313671    777.46405  0.014289517  0.013028371            5 
 4535000   0.52353166   -8.1085873    777.19712  0.014281461  0.013024136           10 
 4536000   0.52589876   -8.1056533    777.29784  0.014280163  0.013019903            7 
 4537000   0.53225716   -8.1170686    778.18305  0.014293275  0.013015672            6 
 4538000   0.52419348   -8.1202146    778.24335  0.014291232  0.013011443            8 
 4539000   0.52532558   -8.1216465    776.89482  0.014263326  0.013007215            5 
 4540000    0.5208476   -8.1060366    779.27823  0.014303932  0.013002992            6 
 4541000   0.53500285   -8.1119331    777.39424  0.014266209  0.012998769           10 
 4542000   0.52780372   -8.1229932    776.82777  0.014252675  0.012994547            6 
 4543000    0.5259179   -8.1295085     778.1172   0.01427319  0.012990327            6 
 4544000   0.53022056   -8.1106712    777.92324  0.014266491  0.012986108            3 
 4545000   0.52877719   -8.1209058    777.65735  0.014258477  0.012981892           10 
 4546000   0.52478194   -8.1075065    777.33387  0.014249411  0.012977678            7 
 4547000   0.51986127   -8.1217084    778.09575   0.01426024  0.012973471            8 
 4548000   0.50974827   -8.1174762    777.13518  0.014239504  0.012969261           12 
 4549000    0.5169293   -8.1039203    777.33626  0.014240058  0.012965048            7 
 4550000   0.52492344    -8.126053     778.0025   0.01424913  0.012960841            6 
 4551000   0.51573848   -8.1234597    777.55073  0.014237727  0.012956634            7 
 4552000   0.51537418   -8.0996085    777.68023   0.01423697  0.012952429            9 
 4553000   0.52371129   -8.1233801     778.6825  0.014252187  0.012948223            5 
 4554000    0.5384772   -8.1276939    777.45125  0.014226527  0.012944022            8 
 4555000   0.53594983   -8.1158633    776.88273  0.014213003  0.012939822            6 
 4556000   0.53462334   -8.1143365    778.25954  0.014235066  0.012935624            5 
 4557000   0.52460353   -8.1141901    778.51243  0.014236567  0.012931424            7 
 4558000   0.53274045   -8.1187267    777.63894  0.014217474  0.012927229            9 
 4559000   0.52744992   -8.1213452    777.81523  0.014217578  0.012923034            6 
 4560000   0.52352985   -8.1324714    778.64614  0.014229644  0.012918844            5 
 4561000   0.52302773   -8.1171408    778.19905  0.014218356   0.01291466            5 
 4562000   0.51647635   -8.1171834    778.22226  0.014215663   0.01291047           10 
 4563000   0.51867396   -8.1092414    778.74875  0.014222163  0.012906282            4 
 4564000    0.5171811   -8.1106275     776.4964  0.014177921  0.012902092            4 
 4565000   0.51936952   -8.1014142      777.353  0.014190453  0.012897908            8 
 4566000   0.52477961   -8.1169296    777.58201  0.014191525  0.012893724            6 
 4567000   0.53010274   -8.1215479    777.11271  0.014179854  0.012889545            8 
 4568000   0.53149089   -8.1114069    779.82029  0.014226144   0.01288537           10 
 4569000   0.52193912   -8.1129172    778.10269  0.014191703  0.012881192            5 
 4570000   0.50859897   -8.1287718    777.33809  0.014174655  0.012877013           10 
 4571000   0.51863671   -8.1236724    778.76713  0.014197607  0.012872836            7 
 4572000   0.51052912   -8.1400868    776.48809  0.014152962  0.012868656            6 
 4573000   0.52534602   -8.1266799     777.5197  0.014168666  0.012864481            7 
 4574000   0.53395007   -8.1292393    776.62067  0.014149189  0.012860312            8 
 4575000   0.52231195   -8.1180216    776.82435  0.014149806  0.012856145            6 
 4576000   0.51776327   -8.1156372    777.64716  0.014161698  0.012851976           10 
 4577000   0.51791329   -8.1189693    777.37463  0.014153642   0.01284781            9 
 4578000   0.52011783   -8.1246163    776.43154  0.014133383   0.01284364            6 
 4579000   0.52270279   -8.1128523    776.92173  0.014139218  0.012839475            6 
 4580000   0.52154523   -8.1047518    778.05473  0.014156745  0.012835315            8 
 4581000   0.52360201   -8.1272487    776.99558  0.014134388  0.012831153            5 
 4582000   0.51958592   -8.1355528    776.33689  0.014119324  0.012826991            9 
 4583000   0.51897045   -8.1194254    775.97471  0.014109657  0.012822832            7 
 4584000   0.52694198   -8.1291205    777.02594   0.01412569  0.012818674           12 
 4585000   0.51959495   -8.1276455    777.26918   0.01412703  0.012814516            6 
 4586000    0.5192876   -8.1242306    776.70583  0.014113712  0.012810359            7 
 4587000   0.51616282   -8.1312577    775.97431  0.014097346  0.012806205           10 
 4588000   0.52126694   -8.1251001    777.21611  0.014116829  0.012802053            5 
 4589000   0.51047896    -8.149346    778.22919  0.014132149  0.012797903            6 
 4590000   0.51066693   -8.1650435    777.64132  0.014118397   0.01279375           12 
 4591000   0.50560066   -8.1422944    776.77038  0.014099513  0.012789599            9 
 4592000   0.51527639   -8.1297208    776.00772  0.014082602  0.012785454            5 
 4593000   0.51907733   -8.1545003     777.0016  0.014097569  0.012781304           12 
 4594000   0.52850275   -8.1426765    777.26131  0.014099211  0.012777158           10 
 4595000   0.52076756   -8.1453844    776.99867   0.01409138  0.012773013            6 
 4596000   0.51345662   -8.1224901    776.69581  0.014082822  0.012768873           10 
 4597000   0.52373358   -8.1294246     778.5388  0.014113168  0.012764737            6 
 4598000   0.52946654    -8.149446    777.31817  0.014087976  0.012760601            6 
 4599000    0.5190994   -8.1486276    777.43464  0.014087023  0.012756461            7 
 4600000   0.51473036   -8.1415069    776.24686  0.014062443  0.012752326            8 
 4601000   0.52006014   -8.1419194    777.17389  0.014076177  0.012748192            5 
 4602000   0.51889412   -8.1457731    775.57558  0.014044176  0.012744057           10 
 4603000   0.51889477   -8.1453428    776.80565  0.014063394  0.012739923            7 
 4604000   0.51629925   -8.1277637    776.02802  0.014046265  0.012735792           10 
 4605000    0.5221102   -8.1375524    776.30792  0.014048279  0.012731662            7 
 4606000   0.51108063   -8.1457749     775.7722  0.014035537  0.012727536            9 
 4607000   0.52540213    -8.154175    777.15651   0.01405753  0.012723408            7 
 4608000   0.50821683   -8.1473102    777.94363  0.014068714  0.012719282            4 
 4609000   0.51764221   -8.1289251    776.64291  0.014042144  0.012715156            6 
 4610000   0.51697803   -8.1392667    775.87165  0.014025156  0.012711031            7 
 4611000   0.51372799   -8.1437501    777.07993  0.014043952  0.012706908           10 
 4612000   0.51543493   -8.1250819    775.44313  0.014011331  0.012702785            9 
 4613000   0.51892116   -8.1416928    777.31377  0.014042087  0.012698668           11 
 4614000   0.52414039   -8.1483413    775.90331  0.014013569  0.012694551            7 
 4615000     0.512706   -8.1604298    777.29594   0.01403568  0.012690436            8 
 4616000   0.51131579    -8.140839    776.70145  0.014021907  0.012686325           10 
 4617000   0.50101289    -8.143908    777.20655  0.014027986  0.012682212            9 
 4618000   0.51641349   -8.1530634    777.36378  0.014027786  0.012678102            4 
 4619000   0.51080549   -8.1207261    776.29094  0.014005393  0.012673996            9 
 4620000   0.51906356   -8.1509637    776.37757  0.014003924  0.012669891            6 
 4621000   0.51491376   -8.1418038    775.04733  0.013976905  0.012665786            7 
 4622000   0.51567692   -8.1476844    776.97302  0.014008601   0.01266168           11 
 4623000   0.51431028   -8.1609552    777.45587  0.014014274  0.012657581            6 
 4624000   0.50594425   -8.1609434    776.29007  0.013990233   0.01265348            7 
 4625000   0.50804493   -8.1432524    776.52386  0.013991421  0.012649386            6 
 4626000   0.52051509   -8.1283773    776.07015  0.013980223  0.012645296            5 
 4627000   0.51607242    -8.151219    776.09333  0.013977619  0.012641205            7 
 4628000   0.50447292   -8.1245921    777.06932  0.013992173  0.012637118            8 
 4629000   0.51708037   -8.1420496    777.66626  0.013999897   0.01263303            5 
 4630000   0.51618839   -8.1476465    776.25128  0.013971405   0.01262894            9 
 4631000     0.507935   -8.1405976    776.01206  0.013964084  0.012624852           10 
 4632000   0.51553305   -8.1506793    777.59169  0.013989488   0.01262077            6 
 4633000   0.51058294    -8.137934    775.71756  0.013952758  0.012616686            7 
 4634000   0.51090316    -8.152628    777.23596  0.013977053  0.012612603            7 
 4635000   0.51391949   -8.1463935     776.8384   0.01396689  0.012608523            7 
 4636000   0.51084462   -8.1397291    776.36072   0.01395529  0.012604449            7 
 4637000   0.51060256   -8.1574443     775.8434  0.013942984  0.012600372            5 
 4638000   0.50039373   -8.1441481    776.84457  0.013957966  0.012596291            8 
 4639000   0.50338528     -8.16548    777.02294  0.013958162  0.012592213            5 
 4640000   0.50261077   -8.1427689    776.09974  0.013938573  0.012588135            6 
 4641000   0.51332151   -8.1517972    777.49763   0.01396067  0.012584067            5 
 4642000   0.51846866   -8.1467195     776.7248  0.013943789  0.012579997            6 
 4643000   0.50756961   -8.1413672    775.94151  0.013926727  0.012575929            9 
 4644000   0.52183432   -8.1475289    777.62225  0.013953888  0.012571862            5 
 4645000   0.50293562    -8.161571    776.60542  0.013932641  0.012567799            8 
 4646000   0.51077756   -8.1585197    776.36619  0.013925351  0.012563732            4 
 4647000   0.50719879   -8.1488528    776.29873  0.013921145   0.01255967           11 
 4648000   0.50409661   -8.1370865    776.76068  0.013926432  0.012555609            8 
 4649000    0.5261519   -8.1594966    777.77703  0.013941655   0.01255155           10 
 4650000   0.51364256   -8.1362302     776.0127  0.013907038  0.012547494            8 
 4651000   0.50640105   -8.1658934    777.13805  0.013924211  0.012543438            5 
 4652000   0.50911906   -8.1604411    776.20227  0.013904455  0.012539384           15 
 4653000   0.50742639   -8.1452701    775.86926  0.013895502  0.012535327            6 
 4654000   0.50200284   -8.1524578    776.21796   0.01389876  0.012531272            8 
 4655000   0.51090362   -8.1346178    776.87109  0.013907467  0.012527224            7 
 4656000   0.50979332   -8.1409203    776.28407  0.013893973  0.012523172            5 
 4657000   0.51796959   -8.1550997    775.62475  0.013879192  0.012519124            7 
 4658000    0.5164207   -8.1556187    776.46538  0.013891251  0.012515071            5 
 4659000   0.51025589   -8.1557199     775.4972  0.013870952  0.012511025            3 
 4660000   0.50670574   -8.1505141    776.02709  0.013877452  0.012506986            6 
 4661000    0.4924808   -8.1518009    778.36623  0.013916295   0.01250294            3 
 4662000    0.5290446   -8.1618013    777.97852   0.01390638  0.012498902            7 
 4663000   0.50920235   -8.1445644    775.42628  0.013857786  0.012494861            6 
 4664000   0.51731114   -8.1530513    776.13202  0.013867425  0.012490827            6 
 4665000   0.50786164   -8.1463894    777.01741  0.013880268  0.012486792           11 
 4666000   0.51045561    -8.151218    776.08049   0.01386056  0.012482756            9 
 4667000   0.51228913   -8.1509417    777.62088  0.013885095  0.012478726            7 
 4668000   0.51782428   -8.1513197    775.70441  0.013847908  0.012474695           10 
 4669000   0.50292273   -8.1564767    776.01764  0.013850533  0.012470668            7 
 4670000   0.48875369   -8.1410348    775.69229  0.013841761  0.012466639            7 
 4671000   0.50800691   -8.1785628    776.24129  0.013848592  0.012462608           18 
 4672000   0.50563344   -8.1562944    777.53627  0.013868726  0.012458586            8 
 4673000   0.50302227   -8.1414547    776.72742  0.013851334  0.012454563           13 
 4674000    0.5080585   -8.1512209    776.18308  0.013838666  0.012450541            8 
 4675000   0.50295464   -8.1541423    775.78719  0.013828649  0.012446523           11 
 4676000    0.4982431   -8.1373162    775.66546  0.013823522  0.012442506            7 
 4677000   0.50280619   -8.1524513    777.53036  0.013853795   0.01243849            6 
 4678000   0.51467527   -8.1443635    776.70955  0.013836211  0.012434474           10 
 4679000   0.50030823   -8.1447576    776.08655  0.013822158  0.012430461            4 
 4680000   0.50652848   -8.1393878    775.59598   0.01381047  0.012426446            6 
 4681000   0.51478699   -8.1540639    777.05985   0.01383358  0.012422438            3 
 4682000   0.50168562    -8.146328    774.95239  0.013793115  0.012418428            5 
 4683000   0.49800892   -8.1505527    774.19972  0.013776776  0.012414417            6 
 4684000   0.50187612   -8.1539355    774.25278  0.013774779  0.012410408            9 
 4685000   0.49567785   -8.1512565    775.40944  0.013792413  0.012406401            5 
 4686000   0.49352842   -8.1620467    774.53697  0.013773954  0.012402394            8 
 4687000   0.49988026   -8.1590341    776.01466  0.013797288  0.012398389            8 
 4688000   0.50229696   -8.1552354    775.98828  0.013793876  0.012394389            5 
 4689000    0.4943726   -8.1535458     775.0939  0.013775039  0.012390389           11 
 4690000   0.50636372   -8.1666489    776.14161  0.013790718  0.012386391            6 
 4691000   0.49668167   -8.1680717    775.82638  0.013782178  0.012382396            6 
 4692000   0.50215166   -8.1541692    775.59301  0.013775096  0.012378401            3 
 4693000   0.49134524   -8.1649697    776.38248  0.013786179  0.012374411            8 
 4694000     0.504134   -8.1493759    776.38595  0.013783304  0.012370421            5 
 4695000   0.49708741   -8.1704615    776.72799  0.013786439  0.012366433            4 
 4696000   0.49323266   -8.1539762    776.12925  0.013772879  0.012362444            7 
 4697000   0.50648177    -8.158048    775.40621  0.013757118  0.012358456            5 
 4698000   0.51010457   -8.1565185    776.28987  0.013769864  0.012354468            7 
 4699000   0.50067539    -8.145192    776.18819  0.013765131  0.012350483            5 
 4700000   0.49607454   -8.1531211    776.07221  0.013760146  0.012346501            7 
 4701000   0.50309047   -8.1644244    776.07064  0.013757191  0.012342522            5 
 4702000   0.50024461   -8.1612515    775.72806  0.013748193   0.01233854            6 
 4703000   0.49934719   -8.1535538    774.94862  0.013731459  0.012334563            5 
 4704000   0.50273855   -8.1535607     776.1446  0.013749727  0.012330585            7 
 4705000   0.48941102   -8.1602552     775.4515  0.013734529   0.01232661            4 
 4706000   0.50193219   -8.1560201    775.36396   0.01373006  0.012322634            6 
 4707000   0.50438055   -8.1681561    775.88942  0.013736446  0.012318663            7 
 4708000    0.4971983   -8.1792783    775.53216  0.013727205  0.012314693            9 
 4709000   0.49271513   -8.1582267    776.15144  0.013735249  0.012310723            6 
 4710000   0.50613564   -8.1636377     774.4222  0.013701737  0.012306754            8 
 4711000   0.49229035    -8.173756    776.11977  0.013728857  0.012302785            5 
 4712000   0.49761236   -8.1751136    776.22538  0.013727812  0.012298821            4 
 4713000   0.49275889   -8.1667396    776.99494  0.013738506  0.012294855            8 
 4714000   0.50603248   -8.1668782    775.78462  0.013714196  0.012290889            8 
 4715000   0.50186312   -8.1541277    774.86859  0.013695097   0.01228693            4 
 4716000   0.51294283   -8.1623925     775.0238  0.013694936  0.012282969            7 
 4717000   0.49294991   -8.1696641     775.4842  0.013700166  0.012279013            5 
 4718000   0.50664965   -8.1772803    775.13711  0.013691132  0.012275055            6 
 4719000   0.49139283    -8.167307    775.77357   0.01369947  0.012271094            9 
 4720000   0.49877961   -8.1773738    776.11591  0.013702611  0.012267139            7 
 4721000   0.49500503   -8.1843372    777.38683  0.013722143  0.012263185            6 
 4722000    0.4981145   -8.1899397    775.75553  0.013690448  0.012259232            6 
 4723000   0.48732521    -8.168925    775.42235   0.01368167  0.012255279            4 
 4724000   0.50957304   -8.1609382     776.3816  0.013695696  0.012251327            6 
 4725000   0.50470823   -8.1592998     775.6022  0.013679051   0.01224738            5 
 4726000   0.50265492   -8.1622759    775.00703  0.013665662  0.012243433            5 
 4727000   0.49428366   -8.1749087    774.55525  0.013654807  0.012239485            5 
 4728000   0.49148425   -8.1633252     774.9974  0.013659712  0.012235544            8 
 4729000   0.50124488   -8.1852415     776.2918  0.013679633  0.012231604            7 
 4730000   0.47906684    -8.152454    774.56221  0.013646269  0.012227666            8 
 4731000   0.49561195   -8.1842085    775.13607  0.013653492  0.012223729            5 
 4732000   0.48955877    -8.167288    775.55369  0.013657962  0.012219794            8 
 4733000   0.48526149   -8.1837043    775.96434  0.013662306  0.012215857            7 
 4734000   0.49498727   -8.1679098    776.71297  0.013672598  0.012211926            7 
 4735000   0.49506545    -8.165568    775.98923  0.013656973  0.012207993            3 
 4736000    0.5014797   -8.1680485    775.35635  0.013642954  0.012204061            8 
 4737000   0.49630465   -8.1636266    773.94743  0.013615288  0.012200134            4 
 4738000   0.49116448   -8.1715558    776.70767  0.013660962  0.012196205            4 
 4739000   0.49789891   -8.1696114    774.95114  0.013627192  0.012192282            5 
 4740000   0.48764332    -8.168124    775.69025  0.013637311  0.012188357           10 
 4741000   0.48916874   -8.1766069    774.20403  0.013608311  0.012184434            6 
 4742000   0.49535406   -8.1753227    775.06061  0.013620494  0.012180513            4 
 4743000   0.50017077   -8.1665831    774.85006  0.013613923  0.012176591            5 
 4744000   0.49956264   -8.1712568     776.6786  0.013643174  0.012172676            8 
 4745000   0.49327247   -8.1812305    775.38508  0.013617581  0.012168759            5 
 4746000   0.49533823   -8.1825428    775.21101  0.013611656  0.012164839           10 
 4747000   0.49258764   -8.1551947    775.95662  0.013621877  0.012160926            4 
 4748000   0.50235923   -8.1695782    775.17899   0.01360536  0.012157014            5 
 4749000   0.49536412   -8.1630391    774.98516  0.013599094  0.012153103            5 
 4750000   0.49132971   -8.1757366    774.32372  0.013584627  0.012149194            6 
 4751000   0.48537362   -8.1790697    775.58502  0.013603891  0.012145285            7 
 4752000   0.48960965   -8.1728374    774.92765    0.0135895  0.012141376            9 
 4753000   0.48751696   -8.1698698    775.54038  0.013597384  0.012137467            4 
 4754000   0.49416742   -8.1779196     774.9494  0.013584164  0.012133563            5 
 4755000   0.49115236    -8.174845    775.52979  0.013591479  0.012129662            7 
 4756000   0.49352897   -8.1799551    774.22405  0.013565742  0.012125759            6 
 4757000   0.49738579   -8.1899479    775.33286  0.013582315  0.012121862            5 
 4758000    0.4943551    -8.185428    775.24878  0.013577988  0.012117967            5 
 4759000   0.48411101   -8.1902991    775.95676  0.013587532  0.012114074            4 
 4760000   0.48776633   -8.1827201    775.50785  0.013576818  0.012110178            7 
 4761000   0.47944458   -8.1769699    776.15181  0.013585238  0.012106288            4 
 4762000   0.49480623   -8.1725417    775.34519  0.013568269  0.012102394            5 
 4763000   0.48824303   -8.1801835    774.91577  0.013557908  0.012098503           10 
 4764000    0.4985467   -8.1862235    776.13506   0.01357639  0.012094614            9 
 4765000   0.49606947   -8.1832484     776.0589  0.013572209  0.012090728           11 
 4766000    0.4863553    -8.173854    776.12091  0.013570445  0.012086841           11 
 4767000   0.48150291   -8.1711267    775.07425  0.013549302   0.01208296            4 
 4768000   0.48366265   -8.1566238    775.35039  0.013551286   0.01207908            7 
 4769000   0.49237631   -8.1775981    774.86262  0.013539921  0.012075199            7 
 4770000   0.48565445   -8.1733694    776.47111  0.013565184   0.01207132            7 
 4771000   0.49326824   -8.1716607    775.27944  0.013541526  0.012067441            8 
 4772000   0.48525832   -8.2025781    775.25218  0.013538212  0.012063559            6 
 4773000   0.49073037   -8.1857907    774.00963  0.013513682   0.01205968            6 
 4774000   0.49921315   -8.1872675    775.38281  0.013534821  0.012055804            5 
 4775000   0.48286523   -8.1865019    775.35055  0.013531423  0.012051928            5 
 4776000   0.49517563   -8.1705861    775.69038  0.013534519  0.012048056            6 
 4777000   0.48811981   -8.1976501     774.7883   0.01351595  0.012044187            7 
 4778000   0.48129333   -8.1792881    773.68192  0.013493824  0.012040319            6 
 4779000   0.47572066   -8.1773472    775.48373   0.01352242  0.012036451           15 
 4780000   0.49756844   -8.1903299    775.64535  0.013522408  0.012032584            7 
 4781000   0.48471212   -8.1818284    774.91388   0.01350683  0.012028715            7 
 4782000    0.4850315   -8.1828411    775.58644  0.013515726  0.012024854            5 
 4783000   0.48278619   -8.2004512    775.63283  0.013513709  0.012020991            4 
 4784000   0.48016531   -8.1757539    773.81414  0.013479204  0.012017133            6 
 4785000   0.48874374   -8.1899039    775.43241   0.01350457  0.012013274            8 
 4786000   0.48311269   -8.2001387    775.17089  0.013497195   0.01200942           11 
 4787000    0.4847076   -8.1800857    775.22252  0.013495274  0.012005565            4 
 4788000   0.48968715   -8.1831466    774.80919  0.013485262   0.01200171            5 
 4789000   0.48812368   -8.1899241    774.76887  0.013481744  0.011997857            6 
 4790000   0.48460019   -8.1664927    773.35127  0.013454267  0.011994005            8 
 4791000   0.48491609   -8.1971911    774.54048  0.013472144  0.011990156            5 
 4792000   0.48909004   -8.2003849    775.35169  0.013483439  0.011986309            4 
 4793000   0.48334983   -8.1876776     773.7161  0.013452189   0.01198246            6 
 4794000   0.49580127   -8.1880764    774.10934  0.013456219  0.011978614            5 
 4795000   0.47732059   -8.1931638    773.65013  0.013445432  0.011974766            5 
 4796000   0.48494051   -8.2001631    774.80313  0.013462662  0.011970921            6 
 4797000   0.47808493   -8.1828026    774.26504  0.013450508  0.011967078            5 
 4798000   0.49176726   -8.1952046    775.02471  0.013460899  0.011963233            4 
 4799000   0.49181072   -8.1740212    774.07112  0.013441535  0.011959389            6 
 4800000   0.47796302   -8.1769256    775.33679  0.013460708  0.011955553            9 
 4801000    0.4908074   -8.1752472    774.96283  0.013451413  0.011951716            8 
 4802000    0.4886365   -8.1837875    774.46878  0.013440038  0.011947881            5 
 4803000   0.48194041   -8.1837239    773.59081  0.013422007  0.011944045            7 
 4804000   0.48675817   -8.1778614     775.4346  0.013451197  0.011940213            4 
 4805000   0.49313321   -8.1901212    774.20589  0.013427088  0.011936383            7 
 4806000   0.48377063   -8.1899375    775.24734  0.013442352  0.011932552            7 
 4807000   0.47705777   -8.1794929    774.98391  0.013434989  0.011928721           10 
 4808000   0.49167642   -8.1778764    776.04248  0.013450542  0.011924896            5 
 4809000   0.47921783   -8.1852881    773.49419  0.013403587  0.011921074            5 
 4810000   0.49175964    -8.178399    775.45134  0.013434708  0.011917253           12 
 4811000   0.47704433   -8.1869781    774.38717  0.013413482  0.011913432            7 
 4812000   0.48279162   -8.1869766    774.21343  0.013407686  0.011909614            8 
 4813000   0.47441096   -8.1885967    774.00742  0.013401333  0.011905794            6 
 4814000    0.4888974   -8.1987096    774.34993  0.013404479  0.011901979            7 
 4815000   0.48402258   -8.1873094    774.33743  0.013401479  0.011898162            9 
 4816000   0.47895478   -8.1732842    774.62851  0.013403732  0.011894349            8 
 4817000   0.48379395   -8.1769256    773.93906  0.013389022  0.011890537            7 
 4818000   0.47474633   -8.1828416    776.12544   0.01342406  0.011886731            4 
 4819000   0.48122909   -8.1931659    775.19334  0.013405156  0.011882921            6 
 4820000   0.47641433   -8.1777436    774.82451  0.013395998  0.011879117            5 
 4821000   0.48422564   -8.1852989    775.37815  0.013402789  0.011875313            7 
 4822000    0.4838512   -8.1824649    775.40493  0.013400472  0.011871511            5 
 4823000   0.47788152   -8.1943727    775.44145  0.013398325  0.011867711            4 
 4824000   0.48280031   -8.1888419    774.45172   0.01337845  0.011863911           15 
 4825000   0.48281787   -8.1867884    775.15395  0.013387806  0.011860109            7 
 4826000   0.47812083   -8.1971039    774.47614  0.013373327   0.01185631            9 
 4827000    0.4875624   -8.1797243    773.51176  0.013353908  0.011852512            6 
 4828000   0.48466132   -8.1868367    774.82275   0.01337377  0.011848716            8 
 4829000   0.48498265    -8.196767    773.04934  0.013340397  0.011844919           11 
 4830000   0.47471285   -8.2057198    774.50328  0.013362721  0.011841125           18 
 4831000   0.48022812   -8.2005685    775.01882  0.013368847  0.011837331           15 
 4832000   0.47274998    -8.184163    774.58697  0.013358633   0.01183354           13 
 4833000   0.47891184   -8.1874808    774.50179    0.0133544  0.011829751            6 
 4834000    0.4760069   -8.1985869    773.95788  0.013342261  0.011825963            4 
 4835000    0.4759274     -8.20434    775.53515  0.013366687  0.011822175            8 
 4836000   0.47557452   -8.1796501     773.5879  0.013330368  0.011818387            5 
 4837000   0.48323188   -8.1914279     774.2219  0.013338535  0.011814605            5 
 4838000   0.47694905   -8.1840287    774.26767  0.013336566  0.011810823            5 
 4839000   0.47680174   -8.1997151    773.74325  0.013324779   0.01180704            5 
 4840000   0.48512508   -8.2008036    774.82543  0.013340658  0.011803254           10 
 4841000   0.48154405   -8.1970952    773.70444  0.013318606  0.011799472            5 
 4842000   0.47145782   -8.2078929     774.1751  0.013323955  0.011795692            7 
 4843000   0.47810158   -8.2093948    775.97537  0.013352181  0.011791915            6 
 4844000    0.4806676   -8.2141863    774.06903  0.013316629  0.011788135            5 
 4845000   0.48423893   -8.2013374    774.71093  0.013324921   0.01178436            5 
 4846000   0.47859498   -8.1979578    773.22333   0.01329659  0.011780585           11 
 4847000   0.47713758   -8.2011695    773.57885   0.01329996  0.011776813            7 
 4848000   0.48218292   -8.1986294    774.43418  0.013311919  0.011773042           10 
 4849000   0.46582056   -8.1981952    774.52719  0.013310772  0.011769266            6 
 4850000   0.48077006   -8.1899077    774.10897  0.013300841  0.011765493           10 
 4851000   0.46624762   -8.2019039    773.37014  0.013285407  0.011761724            7 
 4852000   0.47614283   -8.2105866    774.94439  0.013309707   0.01175796           10 
 4853000   0.48111339    -8.202412    773.46093  0.013281491  0.011754193           10 
 4854000   0.46401506    -8.199126    774.02252  0.013288397  0.011750427           10 
 4855000   0.47884088   -8.2012824    774.53009  0.013294372  0.011746662            6 
 4856000   0.47048779   -8.1978643    774.46858  0.013290578    0.0117429            6 
 4857000   0.47809558   -8.1964589    773.69943  0.013274645  0.011739138           13 
 4858000   0.46338811   -8.2031931    774.43133  0.013284468  0.011735377            7 
 4859000   0.47488628   -8.2091016    773.81007  0.013271079  0.011731622            8 
 4860000   0.47111197   -8.2089184    774.69061  0.013283447  0.011727866            5 
 4861000    0.4702205   -8.1939849    774.75695  0.013281851  0.011724111            5 
 4862000   0.47918955   -8.2004541    773.57789  0.013258911  0.011720358            7 
 4863000   0.46985771   -8.1871745    774.73376  0.013275991  0.011716608            9 
 4864000   0.47922106   -8.2088309    773.29919  0.013248684  0.011712858            9 
 4865000   0.46915601   -8.2121749    773.88882  0.013256061  0.011709111            8 
 4866000   0.47080802   -8.2149809    773.64427  0.013249148  0.011705362            9 
 4867000   0.47438855   -8.2184058    774.78677  0.013265988  0.011701613           23 
 4868000   0.47949594   -8.2239843     773.3032  0.013237866  0.011697868           11 
 4869000   0.47907968   -8.2022404    774.62928  0.013257843  0.011694124            8 
 4870000   0.47068245   -8.2076055    774.98778  0.013261256  0.011690382           13 
 4871000   0.46169283   -8.1875385    772.95435  0.013223745  0.011686641           14 
 4872000   0.47390661   -8.1928609    773.27321  0.013226485  0.011682902           14 
 4873000   0.45923876   -8.1983581    773.98986  0.013236026  0.011679163           10 
 4874000   0.47008439   -8.2010571    775.05031  0.013251441  0.011675427           10 
 4875000    0.4593257    -8.199498    773.97531  0.013230347  0.011671691            3 
 4876000   0.47643053   -8.2102854     773.4969  0.013219457  0.011667955           14 
 4877000   0.48030076   -8.2138926    773.89799    0.0132236  0.011664222            5 
 4878000     0.472763   -8.2029362    772.63389  0.013199294  0.011660494            9 
 4879000   0.46666341   -8.2022621    774.69529  0.013231798  0.011656765           10 
 4880000   0.46989783    -8.214412    774.20859  0.013220775  0.011653037            5 
 4881000    0.4613269   -8.2087472    773.89261  0.013212672  0.011649307            5 
 4882000   0.47072442   -8.2038158    771.86807  0.013175407  0.011645578            7 
 4883000   0.46542107   -8.2206244    773.51381  0.013200795  0.011641854            8 
 4884000   0.47201864   -8.2187923    772.88861  0.013187425  0.011638129            7 
 4885000   0.47535956   -8.2153886    773.20321  0.013190092  0.011634412           11 
 4886000   0.47632351   -8.2291402    774.32761   0.01320657  0.011630688           10 
 4887000   0.46930551   -8.2159871    773.75613  0.013194123   0.01162697            6 
 4888000   0.47705477   -8.2182956    773.44646  0.013186144  0.011623251           10 
 4889000   0.46838329   -8.2263632    773.87157  0.013190693  0.011619533           10 
 4890000     0.473518   -8.2033368    773.20831  0.013176692  0.011615818           10 
 4891000   0.46964467   -8.2094826    773.58253  0.013180374  0.011612105            5 
 4892000   0.46777165    -8.215652    774.82306  0.013198812  0.011608393           11 
 4893000   0.46227343   -8.2125633    773.67013  0.013176479  0.011604683            6 
 4894000   0.46109973   -8.2169707    775.08041    0.0131978  0.011600975            9 
 4895000   0.47296668   -8.2145381    773.97659  0.013176312   0.01159727            7 
 4896000   0.47007205   -8.2131923      772.823  0.013153986  0.011593561            9 
 4897000   0.46433157   -8.2348825    773.27192  0.013158939  0.011589854            6 
 4898000   0.46977847   -8.2202838    772.73648  0.013147143  0.011586146           11 
 4899000   0.46172358   -8.2214341    772.97944  0.013148592  0.011582443           11 
 4900000   0.46265823   -8.2218705    773.05101  0.013147126  0.011578741           10 
 4901000   0.46366173   -8.1977116    773.38884  0.013150188  0.011575038            5 
 4902000   0.46102633   -8.2102572    773.10496  0.013142679  0.011571341            6 
 4903000   0.46772983   -8.2218235    774.21114    0.0131588  0.011567645            9 
 4904000   0.46187241   -8.2155937    772.67743  0.013130054  0.011563949            6 
 4905000   0.47112842   -8.2316268    772.22123  0.013119627  0.011560253            6 
 4906000   0.47275645   -8.2137994    772.58915  0.013123202  0.011556557            6 
 4907000   0.47451641     -8.21327    774.31604  0.013149855  0.011552865            8 
 4908000   0.46915972   -8.2131648    772.84616  0.013122218  0.011549175            8 
 4909000   0.46875809   -8.2356693    773.55993  0.013131662  0.011545485           11 
 4910000   0.46405429   -8.2217455    773.39692  0.013126221  0.011541797            6 
 4911000   0.46475352   -8.2304786    772.71656  0.013112003   0.01153811           10 
 4912000   0.46507183   -8.2244618    773.34081  0.013119924  0.011534422            4 
 4913000   0.46797384   -8.2098617    773.43989  0.013118934  0.011530736           10 
 4914000   0.47112558   -8.2169394    772.93967  0.013107782  0.011527054           13 
 4915000   0.45866031   -8.2283094    773.09967  0.013107828  0.011523373            7 
 4916000   0.46180012   -8.2208054    773.18426  0.013106595  0.011519693            8 
 4917000   0.47612439   -8.2178927    773.34767  0.013106699  0.011516014            8 
 4918000   0.47058108   -8.2205676    772.58002  0.013091027  0.011512338            7 
 4919000   0.46373511   -8.2146068    772.70305  0.013090449  0.011508664           10 
 4920000   0.46511291   -8.2356749    774.00071  0.013109768  0.011504989           13 
 4921000   0.46320613    -8.222723    772.97752  0.013089777  0.011501316           10 
 4922000   0.46827502   -8.2192055    773.59096  0.013097504  0.011497644            9 
 4923000   0.46198652   -8.2363237    773.14766  0.013087339  0.011493973            8 
 4924000   0.46111341   -8.2261922    772.21378  0.013068877  0.011490305            6 
 4925000   0.45863836   -8.2212871    772.62963  0.013073259  0.011486638            9 
 4926000   0.45165319   -8.2271844    773.06917  0.013078041  0.011482972            5 
 4927000    0.4613486   -8.2193871    773.41804  0.013081287  0.011479307           14 
 4928000   0.45132328   -8.2116421    772.88854  0.013069679  0.011475644           11 
 4929000    0.4546238   -8.2346316    772.55866   0.01306145  0.011471982           10 
 4930000   0.45801177   -8.2247693    773.92855  0.013081956   0.01146832           13 
 4931000   0.46923723   -8.2164221     774.3783  0.013086904  0.011464661           11 
 4932000   0.46070938   -8.2184173     772.6257  0.013054638  0.011461003           13 
 4933000   0.46285049   -8.2213574    772.74318  0.013053976  0.011457349            9 
 4934000   0.46035819   -8.2269392    773.60842  0.013065944  0.011453696            5 
 4935000   0.45218712   -8.2121402    773.06552  0.013054129  0.011450045           11 
 4936000    0.4498843   -8.2251142    772.50285  0.013041985  0.011446396            5 
 4937000   0.45431544   -8.2405197    774.24182  0.013068696  0.011442745            6 
 4938000      0.46868   -8.2285877    773.31191  0.013050356  0.011439096            8 
 4939000   0.45657895   -8.2423307    773.69174  0.013054123  0.011435449            6 
 4940000   0.46273885   -8.2187779    771.83833  0.013020215  0.011431802           10 
 4941000   0.46434154   -8.2257798    772.88761  0.013035276  0.011428154            6 
 4942000   0.46673791    -8.207374    773.50323   0.01304302  0.011424511           10 
 4943000   0.45600218    -8.225221    773.16625    0.0130347  0.011420871           14 
 4944000   0.46770675   -8.2195627    773.01128  0.013029451  0.011417229            8 
 4945000   0.46520213   -8.2178486     773.4003  0.013033372  0.011413591           14 
 4946000   0.45361614   -8.2363728    772.61867  0.013017568  0.011409953            5 
 4947000   0.45873622   -8.2296771    772.56537  0.013014038  0.011406318           17 
 4948000    0.4639721   -8.2320815    774.23023  0.013039447  0.011402682            8 
 4949000   0.45125847    -8.211165    773.28745  0.013020938  0.011399051           18 
 4950000   0.46302188   -8.2370297    772.67376  0.013007976   0.01139542           15 
 4951000   0.46528019   -8.2332841    771.33627  0.012982836  0.011391791            7 
 4952000   0.46069664    -8.214818    773.17114  0.013011092  0.011388163            6 
 4953000   0.45092715   -8.2440504    772.88224  0.013003605  0.011384536           14 
 4954000   0.44983468   -8.2339284    773.83733  0.013017046  0.011380909            7 
 4955000   0.45563928   -8.2122519    771.90804  0.012981972  0.011377283           13 
 4956000   0.44894957   -8.2134528    772.22929  0.012984754  0.011373659            5 
 4957000   0.45029384   -8.2330751    773.95045  0.013011069  0.011370038            6 
 4958000   0.46278052   -8.2205408    773.19408  0.012995732  0.011366418           15 
 4959000   0.46261525   -8.2172298    772.55747  0.012982414  0.011362799            9 
 4960000   0.45806964   -8.2340176    773.25335  0.012991488  0.011359183           10 
 4961000   0.45823253   -8.2294752    772.29055  0.012972696  0.011355567            6 
 4962000   0.45847461   -8.2179802    772.00753  0.012965329  0.011351949            8 
 4963000   0.45040094   -8.2328551    773.25941  0.012983737  0.011348337            5 
 4964000   0.45449483   -8.2358894    772.35799  0.012965988  0.011344723            7 
 4965000   0.45529124   -8.2238944    772.28337  0.012962124  0.011341113            7 
 4966000    0.4670565   -8.2268612    772.33617    0.0129604  0.011337505            5 
 4967000    0.4526691   -8.2303923    772.54595   0.01296131  0.011333899            9 
 4968000   0.45602034   -8.2395918    773.73615  0.012978666  0.011330295            7 
 4969000   0.45417252   -8.2091707    773.05849  0.012964689  0.011326691           12 
 4970000   0.45705508   -8.2336646    771.87189  0.012942185  0.011323088           13 
 4971000   0.45871625   -8.2453735    771.81324  0.012938598  0.011319486           17 
 4972000   0.45473711   -8.2213472     772.7763  0.012952137  0.011315888            4 
 4973000   0.46581991    -8.235609    772.60293  0.012946627   0.01131229           21 
 4974000   0.46088392   -8.2324188    773.14113  0.012953041  0.011308696            6 
 4975000   0.46242355   -8.2317483    773.20828  0.012951562    0.0113051           11 
 4976000   0.45259507   -8.2139044    772.18421  0.012931809  0.011301507            8 
 4977000   0.45404341   -8.2178646    772.44059  0.012933504  0.011297913           13 
 4978000   0.46217543   -8.2282809    771.48613  0.012914928  0.011294322           12 
 4979000   0.46333988   -8.2313402     773.8473  0.012951853  0.011290733            6 
 4980000   0.45242527   -8.2251001    772.03262  0.012918886  0.011287143            7 
 4981000   0.45703668   -8.2219262    772.93834  0.012931445  0.011283557           12 
 4982000   0.45509244   -8.2313959     773.9018  0.012944965  0.011279975            9 
 4983000    0.4563717   -8.2530534    771.84731  0.012908009  0.011276388           17 
 4984000   0.44937196   -8.2508443    772.12447  0.012910053  0.011272803           13 
 4985000   0.45428335    -8.246416    773.08545  0.012923528  0.011269221            9 
 4986000   0.46009712   -8.2340613    772.89881  0.012917817  0.011265641           12 
 4987000   0.45166824   -8.2270755    772.61768  0.012910529  0.011262063           11 
 4988000   0.44904306   -8.2380701     772.9565  0.012913601  0.011258488            7 
 4989000   0.45250002   -8.2305323    772.25109   0.01289923  0.011254912           14 
 4990000   0.44956355     -8.23679    773.53204  0.012918037  0.011251336           14 
 4991000   0.45859027   -8.2369921    771.54102  0.012882205  0.011247766            8 
 4992000   0.46216432   -8.2468506    773.01194  0.012904179  0.011244196            8 
 4993000   0.44274212   -8.2309377    772.41728   0.01289167  0.011240625           14 
 4994000   0.44422682   -8.2250511    771.82512  0.012879207  0.011237058            4 
 4995000   0.45185851    -8.227286    772.94535  0.012895318  0.011233493            9 
 4996000   0.46350365   -8.2286044    771.85917  0.012874619  0.011229927            9 
 4997000   0.45276312   -8.2434601    772.46264  0.012882107  0.011226362           16 
 4998000   0.45928244   -8.2332214      772.493  0.012880035  0.011222798           13 
 4999000   0.45844923   -8.2187582    770.50081  0.012844249  0.011219238            9 
 5000000   0.44980427    -8.245586    771.89544  0.012864924  0.011215676            9 
 5001000   0.44821757   -8.2488493    772.95784  0.012880055  0.011212117            9 
 5002000   0.46003216   -8.2342475    771.63213  0.012855393  0.011208559           13 
 5003000   0.44960123   -8.2480409    771.56021  0.012851626  0.011205002            8 
 5004000   0.45230297   -8.2271992     773.1384   0.01287534   0.01120145           12 
 5005000    0.4603514   -8.2436185    772.83463  0.012867709  0.011197896            8 
 5006000   0.45406263   -8.2305328    772.22917   0.01285506  0.011194343            9 
 5007000   0.44798685   -8.2529768    771.66835  0.012843159  0.011190792           12 
 5008000    0.4502269    -8.235348    772.90606   0.01286119  0.011187244            7 
 5009000   0.44454356   -8.2482327    771.54615  0.012835998  0.011183698           10 
 5010000   0.44747286   -8.2409316    772.48782  0.012849099  0.011180151            6 
 5011000   0.45005284   -8.2421401     773.2231  0.012858762  0.011176611           12 
 5012000   0.45396053   -8.2471536    771.92873  0.012834676  0.011173069           14 
Loop time of 11487.7 on 48 procs for 5000000 steps with 4000 atoms

Performance: 75210.917 tau/day, 435.248 timesteps/s
99.4% CPU use with 48 MPI tasks x no OpenMP threads

MPI task timing breakdown:
Section |  min time  |  avg time  |  max time  |%varavg| %total
---------------------------------------------------------------
Pair    | 733.57     | 780.23     | 835.4      |  77.7 |  6.79
Neigh   | 74.353     | 76.498     | 78.654     |  12.9 |  0.67
Comm    | 684.23     | 744.32     | 800.77     |  89.3 |  6.48
Output  | 13.689     | 13.698     | 13.788     |   0.5 |  0.12
Modify  | 9743.7     | 9765.7     | 9787.8     |  10.1 | 85.01
Other   |            | 107.3      |            |       |  0.93

Nlocal:        83.3333 ave          94 max          76 min
Histogram: 5 5 5 10 6 8 4 3 1 1
Nghost:        1933.42 ave        1963 max        1907 min
Histogram: 3 2 4 8 9 8 6 5 1 2
Neighs:        12244.0 ave       14225 max       10781 min
Histogram: 3 5 6 6 12 9 2 2 1 2
FullNghs:      24487.8 ave       27930 max       22034 min
Histogram: 4 6 4 7 8 12 3 2 1 1

Total # of neighbors = 1175413
Ave neighs/atom = 293.85325
Neighbor list builds = 268669
Dangerous builds = 0

#clear
#
#next RN
#
#jump SELF
Total wall time: 3:11:30
