
units lj                  # Use reduced LJ style units
atom_style atomic         # Uncharged point particles
atom_modify map hash      # Needed for indexing of clusters etc
                          # Used to be able to find where atoms are in relation to each other.

lattice fcc 1.0 spacing 1 1 1
Lattice spacing in x,y,z = 1.5874011 1.5874011 1.5874011
region box block 0 10 0 10 0 10 units lattice
create_box 2 box
Created orthogonal box = (0.0000000 0.0000000 0.0000000) to (15.874011 15.874011 15.874011)
  3 by 4 by 4 MPI processor grid
create_atoms 1 box
Created 4000 atoms
  using lattice units in orthogonal box = (0.0000000 0.0000000 0.0000000) to (15.874011 15.874011 15.874011)
  create_atoms CPU = 0.027 seconds
set type 1 type/fraction 2 0.35 78393
Setting atom values ...
  1418 settings made for type/fraction
mass 1 1.0
mass 2 1.0
pair_style lj/cut  3.5
pair_modify tail  yes
pair_coeff 1  1  1.0  1.0   # Intearaction between 1 and 1 set with epsilon = 1 and sigma = 1
pair_coeff 1  2  1.5  0.8
pair_coeff 2  2  0.5  0.88

write_data data.0
System init for write_data ...
Neighbor list info ...
  update every 1 steps, delay 10 steps, check yes
  max neighbors/atom: 2000, page size: 100000
  master list distance cutoff = 3.8
  ghost atom cutoff = 3.8
  binsize = 1.9, bins = 9 9 9
  1 neighbor lists, perpetual/occasional/extra = 1 0 0
  (1) pair lj/cut, perpetual
      attributes: half, newton on
      pair build: half/bin/atomonly/newton
      stencil: half/bin/3d
      bin: standard
WARNING: Not all mixed pair coeffs generated from mixing. Use write_data with 'pair ij' option to store all pair coeffs. (../write_data.cpp:312)


#############################
#   M E L T   S Y S T E M   #
#############################

velocity all create 2.4 2750902 mom yes dist gaussian # Assign velocities
                                                    # Temperature 2.4, random number seed, zero linear momentum
                                                                                # Gaussian distribution

timestep 0.002   # simulation timestep
thermo 1000       # output thermodynamic data every 1000 steps bf 100

# Define a fix  in this case with index 1 applied to all
# particles in the simulation. This fix is for simulations
# in the anisotropic NPT ensemble. Note that we use the MTK
# correction.
fix 1 all npt temp 2.4 2.4 0.1 iso 5.68 5.68 0.5 mtk yes tchain 5 pchain 5 # Use NPT ensemble
                                                                         # Set temperature and pressure and damping
                                                                         # Numbers of thermostats in chain and in barostat
run 10000          # run for 10000 steps
Per MPI rank memory allocation (min/avg/max) = 3.642 | 3.644 | 3.648 Mbytes
Step Temp E_pair E_mol TotEng Press Volume 
       0          2.4   -6.1483103            0   -2.5492103   -4.0910289         4000 
    1000    2.3881369   -4.9694972            0   -1.3881875     5.603083    4039.1731 
    2000     2.380764   -4.9793394            0   -1.4090862    5.7070229    4039.3017 
    3000    2.4324104    -5.037623            0   -1.3899196     5.815064     4001.925 
    4000    2.3716471   -5.0155074            0   -1.4589262    5.7700125    4013.6211 
    5000    2.3490146   -5.0094097            0   -1.4867686    5.2788474    4055.3001 
    6000    2.4052811   -5.0391362            0   -1.4321165    5.8803806    3991.9084 
    7000    2.4059057   -4.9962947            0   -1.3883384    5.4621429    4054.8104 
    8000    2.3974293   -4.9791533            0   -1.3839083    5.7730559    4038.1296 
    9000    2.4083065   -5.0298925            0   -1.4183358     5.797736    4004.2062 
   10000    2.3671429   -5.0308606            0    -1.481034    5.5348296    4015.4159 
Loop time of 2.50391 on 48 procs for 10000 steps with 4000 atoms

Performance: 690119.349 tau/day, 3993.746 timesteps/s
99.6% CPU use with 48 MPI tasks x no OpenMP threads

MPI task timing breakdown:
Section |  min time  |  avg time  |  max time  |%varavg| %total
---------------------------------------------------------------
Pair    | 1.0836     | 1.1579     | 1.2634     |   3.4 | 46.24
Neigh   | 0.20724    | 0.21621    | 0.23218    |   1.1 |  8.64
Comm    | 0.76048    | 0.85821    | 0.93856    |   4.0 | 34.27
Output  | 0.00025502 | 0.00025819 | 0.00032863 |   0.0 |  0.01
Modify  | 0.22279    | 0.25583    | 0.32465    |   5.1 | 10.22
Other   |            | 0.01549    |            |       |  0.62

Nlocal:        83.3333 ave          92 max          76 min
Histogram: 3 7 2 9 3 12 2 5 4 1
Nghost:        1637.71 ave        1660 max        1625 min
Histogram: 2 9 9 8 9 3 4 2 0 2
Neighs:        9502.88 ave       10581 max        8585 min
Histogram: 4 5 6 6 9 8 0 2 3 5

Total # of neighbors = 456138
Ave neighs/atom = 114.03450
Neighbor list builds = 905
Dangerous builds = 203

# Equilibrate just above the melting temperature to avoid step fn in T

fix 1 all npt temp 1.25 1.25 0.1 iso 5.68 5.68 0.5 mtk yes tchain 5 pchain 5
run 2000
Per MPI rank memory allocation (min/avg/max) = 3.643 | 3.645 | 3.649 Mbytes
Step Temp E_pair E_mol TotEng Press Volume 
   10000    2.3671429   -5.0308606            0    -1.481034    5.5348296    4015.4159 
   11000    1.2396947   -6.9624952            0   -5.1034181    5.4630376    3214.8669 
   12000    1.2490634   -7.0465444            0   -5.1734176    5.1819613    3206.9217 
Loop time of 0.590088 on 48 procs for 2000 steps with 4000 atoms

Performance: 585675.041 tau/day, 3389.323 timesteps/s
99.6% CPU use with 48 MPI tasks x no OpenMP threads

MPI task timing breakdown:
Section |  min time  |  avg time  |  max time  |%varavg| %total
---------------------------------------------------------------
Pair    | 0.26314    | 0.28643    | 0.30996    |   2.0 | 48.54
Neigh   | 0.03849    | 0.041369   | 0.043831   |   0.6 |  7.01
Comm    | 0.18704    | 0.21228    | 0.24303    |   2.6 | 35.97
Output  | 5.2626e-05 | 5.394e-05  | 7.1303e-05 |   0.0 |  0.01
Modify  | 0.040572   | 0.045147   | 0.049815   |   1.1 |  7.65
Other   |            | 0.00481    |            |       |  0.82

Nlocal:        83.3333 ave          91 max          77 min
Histogram: 3 3 9 6 8 6 4 3 4 2
Nghost:        1907.73 ave        1927 max        1864 min
Histogram: 1 0 0 3 2 4 17 3 11 7
Neighs:        11920.6 ave       13487 max       10338 min
Histogram: 1 4 1 7 13 7 9 0 4 2

Total # of neighbors = 572188
Ave neighs/atom = 143.04700
Neighbor list builds = 143
Dangerous builds = 10

#############################
# L I N E A R  Q U E N C H  #
#############################

# Define solid atoms. This closely follows ten Wolde  Ruiz-Montero and Frenkel  Faraday Discuss  1996  104  93-110
# Compute components of the per-atom q6 vector
compute q6 all orientorder/atom degrees 1 6 components 6 nnn NULL cutoff 1.3 # compute the Q6 parameter.
                                                                             # Use all neighbours within 1.3 unit cell.

# get number of connections
compute coord_number all coord/atom orientorder q6 0.5

# An atom is solid if it has 8 or more connections (of a possible 14)
variable is_solid atom c_coord_number>=8
group solid dynamic all var is_solid    # Must be dynamic to update
dynamic group solid defined

# do clustering
compute cluster solid cluster/atom 1.3 # Create a cluster where all atoms within are solid and max 1.3 units from another member

# define chunks one chunk per cluster
compute clus_chunks solid chunk/atom c_cluster nchunk every compress yes  # Says which atoms are in which chunk

# count the size of each chunk
compute size_chunks solid property/chunk clus_chunks count


# Find the maximum entry in the vector of chunk sizes
variable max_n equal max(c_size_chunks)


# Thermo style which includes this variable
# thermo_style custom step temp pe vol v_max_n

thermo ${N}  # Print the thermo information every 100 steps
thermo 1000  

# Reset the npt fix at a lower temperature (below freezing)
fix 1  all npt temp  ${temp} ${temp}  0.1  iso  5.68  5.68  0.5  mtk yes tchain  5  pchain  5
fix 1  all npt temp  0.45 ${temp}  0.1  iso  5.68  5.68  0.5  mtk yes tchain  5  pchain  5
fix 1  all npt temp  0.45 0.45  0.1  iso  5.68  5.68  0.5  mtk yes tchain  5  pchain  5

dump dmp2 all dcd ${N} traj.dcd
dump dmp2 all dcd 1000 traj.dcd


compute msd all msd com yes
variable twopoint equal c_msd[4]/6/(step*dt+1.0e-6)
fix 9 all vector 10 c_msd[4]
variable fit equal slope(f_9)/6/(10*dt)
thermo_style custom step temp pe c_msd[4] v_twopoint v_fit v_max_n

fix 1 all npt temp 1.25 ${temp} 0.1 iso 5.68 5.68 0.5 mtk yes tchain 5 pchain 5
fix 1 all npt temp 1.25 0.45 0.1 iso 5.68 5.68 0.5 mtk yes tchain 5 pchain 5
run 500000 # 5000000  # Run for this many steps
Neighbor list info ...
  update every 1 steps, delay 10 steps, check yes
  max neighbors/atom: 2000, page size: 100000
  master list distance cutoff = 3.8
  ghost atom cutoff = 3.8
  binsize = 1.9, bins = 8 8 8
  4 neighbor lists, perpetual/occasional/extra = 1 3 0
  (1) pair lj/cut, perpetual
      attributes: half, newton on
      pair build: half/bin/atomonly/newton
      stencil: half/bin/3d
      bin: standard
  (2) compute orientorder/atom, occasional
      attributes: full, newton on
      pair build: full/bin/atomonly
      stencil: full/bin/3d
      bin: standard
  (3) compute coord/atom, occasional
      attributes: full, newton on
      pair build: full/bin/atomonly
      stencil: full/bin/3d
      bin: standard
  (4) compute cluster/atom, occasional
      attributes: full, newton on
      pair build: full/bin/atomonly
      stencil: full/bin/3d
      bin: standard
Per MPI rank memory allocation (min/avg/max) = 9.816 | 9.822 | 9.826 Mbytes
Step Temp PotEng c_msd[4] v_twopoint v_fit v_max_n 
   12000    1.2490634   -7.0465444            0            0 8.3333333e+20            2 
   13000    1.2581956   -7.0339952   0.48611162    0.0031161  0.039653693            2 
   14000    1.2352247   -6.9695374    0.9712614 0.0057813176  0.039484226            2 
   15000    1.2355485   -6.9725818    1.4337755 0.0079654192  0.039834576            1 
   16000    1.2455103    -7.024068    1.9150656 0.0099742999  0.039527379            1 
   17000    1.2300468   -7.0091888    2.3140233  0.011343251   0.03881945            1 
   18000    1.2361232   -6.9808954    2.7516602  0.012739167  0.038123661            2 
   19000    1.2314823   -7.0331803    3.1889143  0.013986466  0.037765705            1 
   20000    1.2467325   -7.0553996     3.582846  0.014928525  0.037275879            1 
   21000    1.2591119   -7.0274159    4.0065906  0.015899169  0.036933289            1 
   22000    1.2207461   -7.0036411    4.3991461  0.016663432  0.036601296            1 
   23000    1.2469804    -7.056076    4.8568569  0.017597307  0.036340226            1 
   24000    1.2622713   -7.0111127    5.3574127  0.018602127  0.036282204            2 
   25000    1.2422206   -7.0778419     5.802683  0.019342276  0.036336339            1 
   26000    1.2146637   -7.0450658     6.258149  0.020058169  0.036465643            1 
   27000    1.2261594   -7.0414602     6.637491  0.020486083  0.036449082            3 
   28000    1.2152876   -7.0779845    7.0401781  0.020952911  0.036371101            1 
   29000    1.2530175   -7.0805589    7.3749682  0.021192437  0.036251188            3 
   30000    1.2502721   -7.0818618    7.8122684  0.021700745   0.03610994            1 
   31000    1.2114759    -7.069615    8.2880769  0.022279776  0.035990051            1 
   32000    1.2055083   -7.0415269    8.6988486  0.022653251   0.03593936            1 
   33000    1.2128968   -7.0414962    9.1082347  0.023000592  0.035849648            1 
   34000     1.197521   -7.0483208    9.5500605  0.023407011  0.035778995            2 
   35000    1.2011733   -7.1490335     10.01908  0.023854951  0.035756732            3 
   36000    1.2211056     -7.07566    10.459963  0.024212878  0.035736191            1 
   37000    1.2062088   -7.0932979    10.934471  0.024627186  0.035751372            1 
   38000    1.2273064   -7.0945195    11.402137  0.025004685  0.035822468            2 
   39000    1.1828947   -7.1369725    11.862738   0.02534773   0.03590453            1 
   40000    1.1787984   -7.1015296    12.248018  0.025516704   0.03595965            1 
   41000    1.2027381    -7.101282     12.64431  0.025699816  0.035978565            2 
   42000    1.2038002   -7.0960841    13.064927  0.025922474  0.035981761            1 
   43000     1.217347   -7.1055163    13.375831  0.025922153  0.035932175            1 
   44000    1.2005343   -7.1153964    13.854986  0.026240503  0.035890232            2 
   45000    1.2218798   -7.1280109    14.205232  0.026305985  0.035843251            1 
   46000    1.1994622   -7.1128625      14.6598  0.026557608  0.035777924            2 
   47000    1.2068187   -7.1227174    14.890435   0.02640148  0.035694444            1 
   48000    1.1799552   -7.1177733    15.262766  0.026497857  0.035607435            3 
   49000    1.2006778   -7.1612903    15.629565  0.026580893  0.035506364            2 
   50000    1.2161451   -7.1540759    15.981864  0.026636439  0.035395495            1 
   51000    1.1849109   -7.1823747    16.256793  0.026563387   0.03525419            3 
   52000    1.1834259   -7.1546728     16.59746  0.026598493  0.035102897            4 
   53000    1.2108829    -7.126365    17.081412  0.026857567  0.034981583            2 
   54000    1.1689625    -7.152392    17.488608  0.026988593  0.034874352            1 
   55000    1.1795421   -7.1876076    17.868742  0.027073851  0.034770941            2 
   56000    1.1785012   -7.1448582    18.336831  0.027286951  0.034692564            2 
   57000    1.1879278   -7.0879475    18.723319  0.027373273  0.034605534            1 
   58000    1.1470296   -7.1652822    18.858603  0.027095694  0.034497906            1 
   59000    1.1852228   -7.1265053    19.237889   0.02717216  0.034380232            1 
   60000    1.1463949   -7.1609798    19.548114  0.027150158  0.034262001            2 
   61000    1.1732103   -7.2034229    19.804473   0.02705529  0.034124698            2 
   62000    1.1637685   -7.1519307    20.285499  0.027265456  0.034001215            1 
   63000    1.1751892   -7.1865779    20.628274  0.027286077  0.033887047            1 
   64000    1.1793828    -7.175719    20.979552  0.027317125  0.033788992            1 
   65000     1.155091   -7.2103733    21.344251  0.027364425  0.033678725            6 
   66000    1.1678321    -7.217178    21.724501  0.027429925  0.033577103            4 
   67000    1.1818033   -7.1599276    22.152957  0.027553428  0.033481802            3 
   68000    1.1494038   -7.2040832    22.285075  0.027310141  0.033386151            2 
   69000    1.1502911   -7.2401705    22.394899  0.027046979  0.033251827            1 
   70000    1.1854803   -7.1923933    22.737513  0.027068468  0.033096783            2 
   71000    1.1445126   -7.1823196    22.986269  0.026979188  0.032946762            2 
   72000    1.1636242   -7.2630026      23.3793  0.027059375    0.0328057            2 
   73000    1.1651064   -7.2393585    23.671801  0.027022604  0.032662191            2 
   74000    1.1682265   -7.1983915    23.882901  0.026895159   0.03252254            2 
   75000    1.1600796   -7.2277157     24.19738  0.026885978  0.032380499            1 
   76000    1.1189235   -7.2490924    24.409773  0.026765102  0.032234993            2 
   77000    1.1693764   -7.2136834    24.722416  0.026755862   0.03208594            1 
   78000    1.1374192   -7.2628431    24.893416   0.02659553   0.03193955            2 
   79000    1.1628841   -7.2118826    25.446074   0.02684185  0.031798124            4 
   80000    1.1718549   -7.2488351    25.617577  0.026684976  0.031666208            1 
   81000    1.1149123   -7.2236423    25.912899  0.026659361  0.031533783            3 
   82000    1.1625705   -7.2753791    26.164531   0.02658997  0.031402151            1 
   83000    1.1308964   -7.2712003    26.553298  0.026659938  0.031278132            1 
   84000    1.1487739   -7.2678081    26.781043  0.026568495  0.031154931            1 
   85000    1.1467348   -7.2215288    27.250954  0.026716622  0.031036967            1 
   86000    1.1384058   -7.2651656    27.388855  0.026539588   0.03092252            1 
   87000    1.1356912    -7.293122     27.69584  0.026528582  0.030804487            2 
   88000    1.1555946   -7.2629827    28.170448   0.02667656  0.030698766            1 
   89000    1.1216861   -7.2763296    28.617511  0.026795423  0.030603882            2 
   90000    1.1330224   -7.2872904    28.857944  0.026720318  0.030511749            4 
   91000     1.115134   -7.2964626    29.029178  0.026583496  0.030417107            2 
   92000    1.1249972   -7.2999022    29.306458  0.026545705  0.030320044            1 
   93000    1.1068037   -7.2624158    29.621076  0.026542183  0.030221874            2 
   94000    1.1353983   -7.3211364    29.991053  0.026587813  0.030136255            2 
   95000    1.1401907   -7.3185609    30.275248  0.026557235  0.030050406            3 
   96000    1.1256246   -7.3127242    30.586355  0.026550656   0.02996436            1 
   97000    1.1061649   -7.3499315    30.805264  0.026465003   0.02988079            3 
   98000    1.1287583    -7.324592    31.148282  0.026486634  0.029800378            2 
   99000    1.1111205   -7.3132865    31.480139  0.026498434  0.029721883            2 
  100000    1.1146009   -7.3247761    31.695399  0.026412832  0.029643126            1 
  101000    1.1036765   -7.2929826    32.016586  0.026416325  0.029566079            1 
  102000    1.1121306   -7.2738888     32.34142  0.026422729   0.02948676            1 
  103000    1.0913838   -7.3365132    32.486106  0.026283257   0.02940604            2 
  104000    1.1038777   -7.3679202    32.698108  0.026200407  0.029326599            3 
  105000    1.0861853   -7.3158771    32.955298  0.026154998  0.029241041            2 
  106000    1.1064912   -7.3262585    33.165247  0.026073307  0.029153019            2 
  107000    1.0872237   -7.3212879    33.504911  0.026094167  0.029068159            2 
  108000    1.0894304   -7.3785195    33.596865  0.025923507  0.028984495            2 
  109000    1.0897063   -7.3705466    33.876949  0.025899808  0.028897295            1 
  110000    1.1209239   -7.3995662    34.140671  0.025864145  0.028810743            3 
  111000    1.1084763   -7.3664534    34.539028  0.025930201  0.028730211            3 
  112000    1.0809779   -7.3536561    34.776843  0.025875627  0.028649872            1 
  113000    1.1001897   -7.3719527    35.071604  0.025864015  0.028567096            2 
  114000    1.0846593   -7.3475893    35.260358  0.025775115  0.028485882            1 
  115000    1.0818429   -7.3537293    35.638627  0.025825092  0.028407551            3 
  116000    1.1119178   -7.3658336    35.912658  0.025799323  0.028334327            3 
  117000     1.100234   -7.3982785    36.027877  0.025660881  0.028257132            4 
  118000    1.1121377   -7.4042348    36.357137  0.025675944  0.028181479            1 
  119000    1.0846392   -7.3886972    36.497151  0.025558229  0.028105481            3 
  120000    1.0720893   -7.4146063    36.626396  0.025434997  0.028024633            1 
  121000    1.0731807   -7.4068994    36.936712  0.025438506  0.027944792            1 
  122000    1.0552599   -7.4011999    37.243303  0.025439414  0.027866826            3 
  123000    1.0919722   -7.3852296    37.609888  0.025480954  0.027791592            1 
  124000    1.0822513   -7.4332918    37.789715  0.025396314  0.027715131            3 
  125000    1.0554662   -7.4455913    38.197688  0.025465126   0.02764465            3 
  126000    1.0869706   -7.3830296     38.49686  0.025460886  0.027578175            2 
  127000    1.0525505   -7.4151425    38.565924  0.025305724  0.027509335            2 
  128000    1.0529408   -7.4176519    38.732714   0.02521661  0.027437911            3 
  129000    1.0648589   -7.4000526    38.811644  0.025072121  0.027363236            2 
  130000    1.0418689    -7.431808    38.995553  0.024997149  0.027283329            2 
  131000    1.0592521   -7.4294331    39.409509  0.025069662  0.027209235            1 
  132000    1.0244319    -7.390383    39.753082  0.025096642   0.02713749            4 
  133000    1.0607613   -7.4797077    39.835159  0.024959373  0.027064288            2 
  134000    1.0535369   -7.4301774    40.071283  0.024919952  0.026990579            2 
  135000    1.0562625   -7.4249237    40.372338  0.024921196  0.026916504            2 
  136000    1.0784269   -7.4683954    40.485208  0.024807113  0.026842338            1 
  137000    1.0652483   -7.4193465    40.683132   0.02474643  0.026766609            1 
  138000    1.0643022   -7.4676372    40.921944  0.024711319  0.026692126            1 
  139000    1.0607038   -7.4538545    41.102064  0.024641525  0.026615898            1 
  140000    1.0341435   -7.4514809    41.467645  0.024683122  0.026544259            2 
  141000    1.0468202   -7.4685826    41.641783  0.024610983  0.026472842            2 
  142000    1.0484332   -7.4732775    41.895076  0.024586312  0.026404464            2 
  143000    1.0434676   -7.4903189     42.01958  0.024486934  0.026333607            1 
  144000    1.0490521   -7.4885357    42.554745  0.024626588  0.026266413            6 
  145000    1.0281823   -7.4813345    42.840466  0.024620957  0.026205206            2 
  146000    1.0266878   -7.5282448    43.192258  0.024653115   0.02614806            2 
  147000    1.0344792   -7.4268735    43.472676  0.024644374  0.026094443            1 
  148000    1.0587185   -7.5008848    43.698371  0.024604938  0.026041876            2 
  149000    1.0287069   -7.5222623    43.795424  0.024494085  0.025986718            6 
  150000    1.0258066   -7.5583922    44.052045  0.024473359  0.025929335            3 
  151000    1.0156948   -7.5254481     44.14365  0.024361838  0.025871722            2 
  152000    1.0369219   -7.5250328    44.401967  0.024343183  0.025812157            2 
  153000    1.0303128   -7.5097121    44.706353  0.024349865  0.025754146            2 
  154000    1.0074464   -7.5053314    45.051036  0.024378266  0.025697249            1 
  155000     1.036194   -7.5099132    45.184928  0.024292972  0.025642418            5 
  156000    1.0082374   -7.5377013    45.352789  0.024226917  0.025588388            2 
  157000    1.0056898   -7.5780911    45.577034  0.024191632  0.025531912            1 
  158000    1.0183301   -7.5135983    45.642657  0.024073131  0.025474416            1 
  159000    1.0121259   -7.5479099    45.815186  0.024012152  0.025412939            2 
  160000     1.005407   -7.5367278    46.058669   0.02398889  0.025352268            1 
  161000    1.0136251    -7.566031    46.305526  0.023967663   0.02529132            1 
  162000    1.0134046   -7.5496322    46.315229  0.023824706  0.025230634            2 
  163000    1.0055327   -7.5445862    46.613589  0.023831078  0.025171572            2 
  164000    1.0330284   -7.5778754    46.665126  0.023711954  0.025111281            1 
  165000    1.0112302   -7.5436613    46.902849  0.023688308  0.025049114            1 
  166000    1.0002141   -7.5344581    47.053149  0.023621059  0.024986654            2 
  167000    1.0221513   -7.5768395    47.379321  0.023642376  0.024924958            2 
  168000    1.0079127    -7.563982    47.474879  0.023549047  0.024862864            2 
  169000   0.99694662   -7.6226832    47.491181  0.023417742  0.024798719            2 
  170000   0.99275363   -7.5388825    47.767212    0.0234153  0.024735168            4 
  171000    1.0079955   -7.5956502     47.94473  0.023364878  0.024673043            2 
  172000   0.98211515   -7.6056085    48.104547  0.023306466  0.024611244            1 
  173000   0.99295119   -7.6139854    48.225609  0.023230062  0.024548893            1 
  174000    1.0037281   -7.5838178    48.393241   0.02317684  0.024486981            2 
  175000    0.9901214   -7.6311803    48.570583  0.023128849  0.024425313            1 
  176000   0.98030139   -7.6112885    49.034081  0.023216894  0.024364061            3 
  177000   0.99122875    -7.642899     49.07976  0.023107231  0.024302402            1 
  178000    0.9735821   -7.5908614    49.349324  0.023103616  0.024243025            1 
  179000   0.97036374   -7.6044898    49.442214   0.02301779  0.024182226            1 
  180000   0.98323538   -7.5977712    49.662697  0.022991989  0.024122655            2 
  181000   0.98164744    -7.604892    49.627557  0.022848783  0.024062534            2 
  182000    0.9659158   -7.6222728     49.81949  0.022811122   0.02400147            2 
  183000   0.97218071   -7.6565676    50.017925  0.022776833  0.023939786            1 
  184000   0.99690744   -7.6627219     50.09577  0.022688302  0.023876462            2 
  185000   0.97973788   -7.6112225    50.452425  0.022726318   0.02381262            1 
  186000   0.97718934   -7.6146913    50.430947   0.02259451  0.023749017            4 
  187000    0.9659453   -7.6393602    50.727894  0.022606013  0.023687783            1 
  188000   0.97764953   -7.6219582    51.013255  0.022612259  0.023627503            1 
  189000   0.97762308   -7.6129188    51.152349  0.022553946  0.023568095            1 
  190000    0.9523145   -7.6716103    51.355417  0.022524306  0.023508278            1 
  191000   0.95461587   -7.6791872    51.262547  0.022365858   0.02344827            1 
  192000   0.97700719   -7.6839502    51.306334  0.022268374  0.023386079            2 
  193000   0.96161082   -7.6946862    51.455038  0.022217201  0.023323052            2 
  194000   0.96031726   -7.6798074    51.712366  0.022213215   0.02325929            2 
  195000   0.97420782   -7.6463006    51.874794  0.022168715  0.023196953            3 
  196000   0.94689843   -7.6824484    52.000178  0.022108919  0.023134809            3 
  197000   0.97619585   -7.6823262    52.220702  0.022089976  0.023073288            1 
  198000   0.94333638   -7.6839018    52.158889  0.021952394  0.023011957            2 
  199000   0.93941136   -7.6817888    52.509022  0.021988703  0.022950276            2 
  200000   0.94277178   -7.7313373    52.669576  0.021945657  0.022889419            1 
  201000   0.95577569   -7.7071617    52.741556  0.021866317  0.022829325            1 
  202000   0.94520287   -7.7054837    53.215806  0.021953715    0.0227702            2 
  203000   0.95173221   -7.6887044    53.268734  0.021867296  0.022711869            2 
  204000   0.91078784   -7.6981082     53.45004  0.021834167  0.022652682            2 
  205000   0.95059386   -7.7276882    53.442071  0.021724419   0.02259348            3 
  206000    0.9453118   -7.7115094    53.574055  0.021672352  0.022533237            1 
  207000   0.94786974   -7.7301874    53.449265  0.021517417  0.022472569            3 
  208000   0.92822098    -7.707633    53.986716  0.021629293  0.022414512            1 
  209000   0.92749443   -7.7342501    54.014483  0.021536875  0.022355405            2 
  210000   0.93849282   -7.7473112    53.992371  0.021425544   0.02229617            7 
  211000   0.92993124    -7.777321    53.976126  0.021317585  0.022236047            1 
  212000   0.92466249   -7.7486278    54.206975  0.021307773  0.022175678            1 
  213000   0.90984554   -7.7721373    54.160713  0.021189637  0.022114472            2 
  214000   0.91234139   -7.7471154    54.503863  0.021224246  0.022052732            1 
  215000   0.91822868   -7.7788796    54.355933  0.021068191  0.021991134            4 
  216000   0.92407521   -7.7499371    54.454392  0.021008639  0.021927968            2 
  217000    0.9377267   -7.7707025    54.686334  0.021000896  0.021865231            2 
  218000    0.9202171   -7.8184356    54.681942  0.020902883  0.021802978            2 
  219000   0.92696979   -7.7785738     54.86903  0.020878626   0.02174107            5 
  220000   0.92945422   -7.7824352    54.769938  0.020746189  0.021678027            3 
  221000   0.90752535   -7.7748615    55.071783  0.020766132  0.021614838            1 
  222000   0.92787499   -7.7890797    55.195491  0.020719028  0.021552284            1 
  223000   0.92186344   -7.7744496    55.433213  0.020714953  0.021491706            5 
  224000   0.91557446   -7.8201837    55.579028  0.020676722  0.021431833            1 
  225000    0.8948714   -7.7890822    55.570935  0.020581828  0.021371102            2 
  226000   0.90923315    -7.792939    55.860602  0.020597567   0.02131101            1 
  227000   0.87547266   -7.8185049    55.819619  0.020491784  0.021250847            4 
  228000   0.89445199   -7.8331251      55.7935  0.020392361  0.021189998            3 
  229000   0.89348625   -7.8153625    55.885564  0.020336814  0.021128226            2 
  230000    0.8813629    -7.794822    56.043081  0.020305464  0.021067096            3 
  231000   0.90058254   -7.8379399    56.162105  0.020260499  0.021007072            7 
  232000   0.90339235   -7.8087276    56.380685  0.020251683   0.02094714            1 
  233000   0.90766711   -7.8209543    56.560061   0.02022892  0.020887088            2 
  234000   0.88412975   -7.8122973     56.52849  0.020131229  0.020827466            2 
  235000   0.89548782   -7.8120341    56.545868  0.020051726  0.020767458            1 
  236000    0.8983435   -7.8269703    56.567961  0.019974563  0.020707298            2 
  237000   0.90138197   -7.8509029    56.636718  0.019914458  0.020646978            2 
  238000   0.89996307   -7.8664118    56.907717  0.019925671  0.020586422            1 
  239000   0.88948141   -7.8289799    57.123998  0.019917712  0.020527048            3 
  240000   0.90496646   -7.8445886    57.195255  0.019859464  0.020467597            2 
  241000   0.91685763   -7.9196915    57.021908  0.019717119  0.020407199            3 
  242000    0.8922144   -7.8827717    57.257831  0.019716884  0.020346821            1 
  243000   0.88239634   -7.8624033    57.232427  0.019627033   0.02028657            2 
  244000   0.85713683   -7.8941582     57.17004  0.019525287  0.020225883            2 
  245000   0.87636905   -7.9094558    57.345173  0.019505161  0.020164503            3 
  246000   0.87342209   -7.9045689    57.516744  0.019483992  0.020102965            4 
  247000   0.87371113   -7.8869728    57.563909  0.019421022  0.020042991            2 
  248000   0.87364909   -7.8737279    57.841201  0.019435887  0.019983594            1 
  249000   0.86791328   -7.9260287    58.002594  0.019411845  0.019925319            1 
  250000   0.87778021   -7.9072613    57.994607  0.019331536  0.019867341            1 
  251000   0.89574906   -7.8881963    58.093449  0.019287334  0.019809277            2 
  252000   0.86461819    -7.952409    58.259536   0.01926572  0.019751068            2 
  253000   0.86467169    -7.904602    58.365351  0.019224424  0.019693365            2 
  254000    0.8848494   -7.8988328    58.245468  0.019109406  0.019634137            2 
  255000   0.86339951   -7.9486547    58.312237  0.019056287  0.019575753            2 
  256000   0.85747273   -7.9442121    58.232693  0.018955955  0.019516671            2 
  257000   0.86786058   -7.9492465    58.131231  0.018849297  0.019457083            2 
  258000   0.84690148   -7.8807421    58.468005  0.018885014  0.019398249            3 
  259000   0.86211324    -7.970209    58.240877  0.018739021   0.01933949            1 
  260000   0.83668873   -7.9100715    58.658233  0.018800716  0.019280917            1 
  261000   0.83681739   -7.9303554    58.505373  0.018679876  0.019222056            3 
  262000   0.84551812   -7.9248946    58.603804  0.018639887  0.019163282            2 
  263000   0.86359183   -7.9028765    58.911479  0.018666501  0.019104994            3 
  264000   0.84414146   -7.9238068    58.895879  0.018590871  0.019047322            2 
  265000   0.83816493   -7.9587393    58.983192  0.018548173    0.0189898            2 
  266000   0.84309777   -7.9724151    58.969938  0.018474291   0.01893196            3 
  267000   0.83941813   -7.9616209    59.080063   0.01843947  0.018874055            4 
  268000   0.84251797    -7.941541    59.295384  0.018437619  0.018817195            2 
  269000   0.81901876   -7.9516334    59.355046  0.018387561  0.018760293            1 
  270000   0.84023705   -7.9411962    59.491823  0.018361674   0.01870433            1 
  271000   0.83513853   -7.9939989    59.687034  0.018353946  0.018649261            1 
  272000   0.83921546   -7.9786969    59.635158  0.018270575  0.018593591            2 
  273000   0.82821992   -8.0046986    59.623953   0.01820023  0.018537563            2 
  274000   0.82815004   -8.0214281    59.485995  0.018091848  0.018481044            4 
  275000   0.83092964   -8.0033831    59.605614  0.018062307  0.018424332            2 
  276000   0.81782047   -8.0037686    59.798607  0.018055135  0.018367995            2 
  277000   0.82562767   -8.0220927    59.720401  0.017966426   0.01831146            2 
  278000   0.83090529   -7.9973548    59.764381  0.017914982   0.01825448            3 
  279000   0.81771029   -7.9956032    59.917256  0.017896432   0.01819778            3 
  280000   0.79840223   -8.0354383    59.837754  0.017808855   0.01814146            2 
  281000   0.81242106   -8.0120141    59.870491  0.017755187  0.018085305            2 
  282000   0.82754012   -8.0554092    59.848062  0.017685597  0.018028897            5 
  283000   0.80972481   -8.0306342    59.949387  0.017652941  0.017972236            1 
  284000   0.82487686   -8.0427528     60.04267  0.017618154  0.017915842            1 
  285000   0.79105924   -8.0511766    60.136258  0.017583701  0.017859695            2 
  286000   0.81624261   -8.0679459    60.130969  0.017520679  0.017803197            3 
  287000   0.79967156   -8.0549617    60.255844   0.01749589  0.017747385            2 
  288000   0.80813916   -8.0479999    60.179514  0.017413054  0.017691928            2 
  289000   0.80151658    -8.086428     60.32512  0.017394786  0.017636159            2 
  290000   0.81070473   -8.0513187    60.334669  0.017337548  0.017580569            1 
  291000   0.80902476   -8.0578365    60.476756  0.017318659   0.01752487            1 
  292000   0.79805153   -8.0692037    60.390278  0.017234668  0.017469573            2 
  293000    0.7878956   -8.0750385    60.347109  0.017163569  0.017414222            2 
  294000    0.8095195   -8.1014669    60.368299  0.017111196  0.017358825            4 
  295000   0.82586397   -8.1280772    60.193333  0.017003766  0.017303152            2 
  296000   0.77911569   -8.1154389    60.376521  0.016997895  0.017247741            2 
  297000   0.78859302   -8.1210294    60.375258  0.016940308  0.017192637            2 
  298000   0.79448724   -8.0955178    60.586725  0.016942596  0.017137563            2 
  299000   0.79439918   -8.1126167    60.698445  0.016917069  0.017082908            2 
  300000   0.77994902   -8.1303213    60.637665  0.016843796  0.017028617            3 
  301000   0.78952907   -8.1099469    60.597424  0.016776695  0.016974362            3 
  302000   0.78652205   -8.1197212    60.767049   0.01676795  0.016920299            3 
  303000   0.77890315     -8.11089    60.898919  0.016748878  0.016866794            3 
  304000   0.77803752   -8.1555671    60.778119  0.016660669  0.016813231            3 
  305000   0.77326801    -8.101936    61.189227  0.016718368  0.016760323            1 
  306000   0.77742553   -8.1546026    61.142187  0.016650922  0.016707983            5 
  307000   0.77128452   -8.1484186    61.203837  0.016613419  0.016655824            2 
  308000   0.78202282   -8.1355967    61.224447  0.016565056  0.016603798            3 
  309000    0.7717263   -8.1084811    61.164671  0.016495327  0.016551581            3 
  310000   0.76437732   -8.1739111    61.007632  0.016399901   0.01649932            2 
  311000   0.76151317   -8.1650284    61.195936  0.016397625  0.016447239            1 
  312000   0.76733241   -8.1415299    61.317399   0.01637751  0.016395313            5 
  313000   0.78671053   -8.1738304     61.29684  0.016319713  0.016343612            1 
  314000   0.77106384   -8.1825923    61.339478  0.016279055  0.016291697            2 
  315000   0.76707868   -8.1919696    61.197239  0.016189746  0.016240008            4 
  316000   0.76436078   -8.2197185    61.320965  0.016171141    0.0161882            2 
  317000   0.76321922   -8.1654586    61.599818  0.016193433  0.016136724            2 
  318000   0.75497193   -8.1797452    61.335971  0.016073368  0.016085219            4 
  319000    0.7525555   -8.2359181    61.372597  0.016032549  0.016033917            1 
  320000   0.75058848      -8.2211    61.502921  0.016016386  0.015982911            2 
  321000   0.74361127   -8.2043884    61.456167  0.015954353  0.015932169            1 
  322000   0.75871525   -8.2034122    61.594418  0.015940584  0.015881318            2 
  323000   0.74664943   -8.2125598    61.628226  0.015899955  0.015830739            1 
  324000   0.74913904   -8.2078978    61.701612  0.015869756  0.015780274            1 
  325000   0.75440851   -8.2358831    61.636191  0.015804152  0.015730101            1 
  326000   0.73904843   -8.2225199    61.623331  0.015752385  0.015679585            3 
  327000   0.74400124   -8.2376246    61.770657  0.015741758  0.015629628            2 
  328000   0.73089556   -8.2311362    61.595355  0.015649226  0.015579692            5 
  329000   0.74133714   -8.2260583    61.709165  0.015630488  0.015529909            3 
  330000   0.73579867   -8.2068785    61.732706  0.015589067  0.015480402            4 
  331000   0.73830729   -8.2232771    61.770649  0.015551523  0.015430926            3 
  332000   0.73441185   -8.2320746     61.76671  0.015503692   0.01538156            3 
  333000   0.73728316   -8.2591424    61.764592  0.015456605  0.015332324            3 
  334000    0.7415191   -8.2507594    61.882578  0.015439765  0.015283326            2 
  335000   0.72895729   -8.2818375    61.725838  0.015354686  0.015234126            3 
  336000   0.74387202   -8.2921719    61.831138  0.015335104  0.015185222            1 
  337000   0.74188457   -8.3003489    61.863395  0.015297576  0.015136073            1 
  338000   0.70911279   -8.3206666    61.690087  0.015209587  0.015086859            2 
  339000   0.74034975   -8.2887183    61.801838  0.015192192  0.015037671            2 
  340000    0.7214218   -8.2974246    61.767501  0.015139093  0.014988694            3 
  341000   0.73211468   -8.2895236    61.791367   0.01510053  0.014939779            2 
  342000   0.71305334   -8.2705084    61.788553   0.01505569  0.014891075            6 
  343000   0.70940403   -8.2905161    61.894186   0.01503746  0.014842416            5 
  344000   0.72499827   -8.2895311    61.911139  0.014997853  0.014793963            3 
  345000   0.73119732   -8.3040793    61.916466  0.014955668  0.014745665            2 
  346000   0.70511779   -8.2854444    61.952834  0.014921203  0.014697392            5 
  347000   0.69250553   -8.3022084    61.814562  0.014844996  0.014649247            3 
  348000   0.69849631   -8.3079975    61.807032  0.014800534  0.014601147            1 
  349000   0.71420136   -8.3115782    61.765976  0.014748323  0.014553159            3 
  350000   0.70478951   -8.2836209    61.801701  0.014714691  0.014505065            1 
  351000   0.70271309    -8.322031    61.994932  0.014718645    0.0144572            2 
  352000    0.6970929   -8.3487125    61.950927  0.014666413  0.014409352            2 
  353000   0.69855086   -8.3467457    61.861162  0.014603674  0.014361654            1 
  354000    0.6952598   -8.3294728    61.945881  0.014582364  0.014314032            2 
  355000   0.70709928    -8.359462    61.930685   0.01453772  0.014266679            3 
  356000   0.68985997   -8.3325651    61.929183  0.014496532  0.014219438            3 
  357000   0.69295611   -8.3473282    61.988503  0.014469772  0.014172504            7 
  358000   0.68534527   -8.3456425    61.931931  0.014416185   0.01412546            2 
  359000    0.7073474   -8.3672169    61.867004  0.014360957  0.014078437            3 
  360000   0.67642348   -8.3351492    61.976739  0.014346467  0.014031486            2 
  361000   0.69481648   -8.3738247    61.881223  0.014284678  0.013984451            4 
  362000   0.68776918   -8.3489446    61.820386  0.014231212  0.013937586            1 
  363000    0.6828657   -8.3842456    61.776777  0.014181997  0.013890852            2 
  364000   0.67539397   -8.3940468    61.738243  0.014134213  0.013844345            2 
  365000   0.67863771    -8.365014    61.770554  0.014102866  0.013797829            2 
  366000   0.67485121   -8.3906227    61.784676  0.014067549  0.013751383            2 
  367000   0.66037333   -8.3913783    61.766658  0.014025127  0.013705063            1 
  368000   0.67513418   -8.3970122     61.81662  0.013998329  0.013658698            3 
  369000   0.66378635   -8.4292818    61.877068  0.013974044  0.013612607            1 
  370000   0.68515846   -8.3912431    61.797656  0.013918391  0.013566597            1 
  371000   0.67841444   -8.4110713    61.899085  0.013903658  0.013520771            2 
  372000   0.68736129   -8.4006471    61.945696  0.013876724  0.013475067            4 
  373000   0.66330072   -8.4035985    61.794442  0.013805729  0.013429634            4 
  374000   0.66868372   -8.4274253    61.856483  0.013782639  0.013384183            2 
  375000   0.67139873   -8.4460325    61.617391  0.013692753  0.013338639            3 
  376000   0.67600581   -8.4108944    61.834171  0.013704382  0.013293368            5 
  377000   0.66137994   -8.4146704    61.857688  0.013673229  0.013248371            3 
  378000   0.67352695   -8.4057416    61.780521  0.013620044  0.013203481            1 
  379000   0.66153785   -8.4177631    61.905204  0.013611522  0.013158568            2 
  380000   0.66480771   -8.4311789    61.807573  0.013554292  0.013113909            2 
  381000   0.65838907   -8.4232101    61.882797   0.01353517  0.013069483            1 
  382000   0.66913435   -8.4466057    61.784474  0.013478288  0.013025127            2 
  383000   0.64830011   -8.4341421    61.624356  0.013408258  0.012980809            1 
  384000   0.66413998   -8.4639902    61.808632  0.013413332  0.012936625            2 
  385000   0.65614129   -8.4653379    61.665855  0.013347588  0.012892601            3 
  386000   0.64906612   -8.4574028    61.777116  0.013337029  0.012848648            2 
  387000   0.64354195    -8.447722    61.709822  0.013288075  0.012804843            7 
  388000   0.64122503    -8.466056    61.614462  0.013233347  0.012761214            1 
  389000   0.65338697   -8.4767977     61.76913  0.013232461  0.012717849            5 
  390000   0.64778843    -8.481876    61.655949  0.013174348  0.012674493            3 
  391000    0.6492558   -8.4831774    61.768487  0.013164639  0.012631391            2 
  392000   0.62998775   -8.4565258    61.845534  0.013147435  0.012588328            3 
  393000   0.63994311   -8.4800553    61.765968  0.013097109  0.012545362            7 
  394000   0.64251317   -8.4863048    61.816825  0.013074624  0.012502621            2 
  395000    0.6247947   -8.5065159    61.666039  0.013009713  0.012459992            2 
  396000   0.64806645   -8.5202721      61.6836  0.012980556  0.012417434            3 
  397000   0.63166146   -8.4903827    61.748916  0.012961569  0.012375078            1 
  398000   0.63269091   -8.5276274    61.600597  0.012897947  0.012332843            2 
  399000   0.62197682   -8.5056629     61.65965  0.012877955  0.012290664            2 
  400000   0.62418442   -8.5090924    61.613733  0.012836194   0.01224867            2 
  401000   0.63585754   -8.5144802    61.552863  0.012791534  0.012206855            2 
  402000   0.62733397   -8.5147972    61.684213  0.012786943  0.012165112            2 
  403000   0.61117164   -8.5325337    61.620833  0.012742108  0.012123514            2 
  404000   0.62225771   -8.5311006    61.648988  0.012716375  0.012082005            2 
  405000   0.63046661   -8.5316027    61.529707  0.012660434  0.012040656            2 
  406000   0.63676926   -8.5461315    61.760392  0.012676599   0.01199943            3 
  407000   0.61561951   -8.5496675    61.603176  0.012613263  0.011958444            2 
  408000   0.61193692   -8.5349042    61.720008  0.012606211  0.011917646            2 
  409000   0.61379088    -8.562411     61.57129  0.012545088  0.011876943            2 
  410000   0.62080731   -8.5464975    61.534774  0.012507068  0.011836415            2 
  411000   0.60259041   -8.5628848    61.679994  0.012506081  0.011796065            1 
  412000   0.61435746   -8.5460004     61.47157   0.01243357  0.011755677            5 
  413000   0.60321748   -8.5741165    61.586561  0.012426667  0.011715435            1 
  414000    0.6146635   -8.5778254    61.488794  0.012376971  0.011675408            2 
  415000   0.59949499   -8.5710075    61.510282  0.012351462  0.011635581            1 
  416000   0.61793454   -8.5774204    61.587669  0.012337273  0.011595825            1 
  417000   0.62350874   -8.5878278    61.673919  0.012324924  0.011556295            4 
  418000   0.59766892   -8.5782475    61.583683  0.012277449  0.011516788            2 
  419000   0.59292116   -8.5691421    61.560401  0.012243516  0.011477419            3 
  420000   0.60395015   -8.5641419    61.505354  0.012203443  0.011438221            3 
  421000   0.59907782   -8.6067438    61.358496  0.012145387   0.01139919            2 
  422000   0.59705836   -8.5970031    61.494731  0.012143509  0.011360183            2 
  423000   0.59727615    -8.602518    61.458592  0.012107682  0.011321501            2 
  424000   0.57950127    -8.604736    61.389229  0.012065493  0.011282837            2 
  425000   0.58333433   -8.6027425    61.396465  0.012038523  0.011244393            2 
  426000   0.60027899   -8.5859317    61.581631  0.012046485  0.011206092            3 
  427000   0.57229793   -8.5875971    61.455051   0.01199357  0.011167885            3 
  428000   0.58461464   -8.5979406    61.478323  0.011970078  0.011129884            1 
  429000   0.59302349   -8.6135953    61.393159  0.011925633   0.01109198            5 
  430000    0.5789478   -8.6204987    61.415046  0.011902141  0.011054318            2 
  431000   0.57520791   -8.6058693    61.439611  0.011879275   0.01101672            1 
  432000    0.5748913   -8.6392729    61.305513  0.011825909  0.010979171            1 
  433000   0.58509468   -8.6368495    61.306169  0.011798724   0.01094182            2 
  434000   0.57103318   -8.6429995    61.375074  0.011784769  0.010904608            2 
  435000   0.57674917   -8.6500912    61.491102  0.011779905  0.010867542            2 
  436000   0.56489582     -8.63265    61.428212  0.011740866  0.010830715            1 
  437000   0.57070719     -8.63982    61.427857  0.011713931  0.010793914            2 
  438000   0.57886208   -8.6539399    61.406514  0.011683127  0.010757258            2 
  439000   0.57931081   -8.6300819    61.375819  0.011650687  0.010720841            1 
  440000   0.56862661   -8.6490272    61.396103   0.01162805  0.010684579            2 
  441000   0.56905379   -8.6420561    61.341028  0.011591275  0.010648377            2 
  442000   0.56724304    -8.654585    61.347866   0.01156634   0.01061243            5 
  443000   0.56282855   -8.6696257    61.384131  0.011547052  0.010576593            1 
  444000   0.55905531   -8.6566504    61.493554  0.011541583  0.010540909            3 
  445000    0.5583486   -8.6561524    61.490821  0.011515135  0.010505341            1 
  446000    0.5650188   -8.6746726    61.259586  0.011446111  0.010469909            4 
  447000   0.54466574   -8.6686276    61.364895  0.011440137  0.010434607            3 
  448000   0.56227562   -8.6616233    61.465387  0.011433294  0.010399473            1 
  449000    0.5523136   -8.6796266    61.223864  0.011363004  0.010364463            1 
  450000   0.54448492   -8.6639828    61.301758  0.011352177  0.010329555            1 
  451000   0.54255797    -8.667985    61.309097  0.011328362  0.010294772            1 
  452000   0.54795135   -8.6765876    61.230212  0.011288756  0.010260164            2 
  453000   0.54343943   -8.6955854    61.354593  0.011286717  0.010225648            1 
  454000   0.56226609   -8.6772496    61.333391  0.011257964  0.010191274            2 
  455000   0.55252649   -8.6878852    61.335603  0.011233627  0.010156987            1 
  456000   0.54668726   -8.6846947    61.229115  0.011189531  0.010122815            2 
  457000   0.54358064   -8.6876275    61.255479  0.011169854  0.010088789            6 
  458000    0.5392861   -8.6898923    61.169656   0.01112985  0.010054906            4 
  459000   0.54042799   -8.6928904    61.347743  0.011137934  0.010021216            2 
  460000   0.54051249   -8.7066261    61.261496  0.011098097 0.0099876603            2 
  461000   0.53997214   -8.7042378    61.153548   0.01105451 0.0099542392            2 
  462000   0.51842305   -8.6897232     61.34049  0.011064302 0.0099209793            2 
  463000   0.52229038   -8.7120266    61.209386  0.011016808  0.009887789            4 
  464000   0.51893455   -8.7269416    61.202346  0.010991801 0.0098546833            1 
  465000   0.52741794   -8.7070943    61.154501  0.010959588 0.0098216961            3 
  466000   0.53179432   -8.7220452    61.208582  0.010945741  0.009788889            2 
  467000   0.50849185   -8.7249977    61.263439  0.010932091 0.0097562026            2 
  468000   0.50700217   -8.7203536    61.103477  0.010880249 0.0097236506            4 
  469000   0.51566808   -8.7168839    61.180723  0.010870775  0.009691233            2 
  470000   0.51279587   -8.7185795    61.160035  0.010843978 0.0096589259            4 
  471000   0.51817443   -8.7176793    61.232318  0.010833743  0.009626764            2 
  472000   0.50921149   -8.7372141    61.239962   0.01081214 0.0095947602            1 
  473000   0.50755234    -8.729263    61.104759  0.010765461 0.0095628051            2 
  474000   0.51155629   -8.7485811    61.174833  0.010755069 0.0095309982            3 
  475000   0.50206112   -8.7420648    61.119263  0.010722678 0.0094993211            2 
  476000   0.50129989   -8.7274789    61.074653  0.010692341 0.0094677208            3 
  477000   0.51197839   -8.7502894    61.149399  0.010682984 0.0094362549            3 
  478000   0.49298942   -8.7496582    61.104394  0.010652788  0.009404958            2 
  479000   0.51895687   -8.7590886    61.111382  0.010631764 0.0093737339            6 
  480000    0.5013649   -8.7574152    61.044017   0.01059792  0.009342676            1 
  481000   0.49563389    -8.754186    61.113813  0.010587979 0.0093117057            3 
  482000   0.48795272   -8.7575689    61.128122  0.010568486 0.0092808636            4 
  483000   0.48773554   -8.7605269    61.026413  0.010529057 0.0092501251            4 
  484000   0.48868576    -8.753976    61.157843  0.010529932 0.0092195378            3 
  485000   0.48523033   -8.7690208    61.000247  0.010481142  0.009189041            2 
  486000   0.48746396   -8.7577257    61.051222  0.010468317 0.0091586347            3 
  487000   0.48635198   -8.7715649    61.023017  0.010441995 0.0091284107            4 
  488000   0.49837384   -8.7713927    61.104695  0.010434545 0.0090983131            3 
  489000   0.49329869   -8.7922113     60.98365  0.010392578 0.0090683148            2 
  490000   0.48666689   -8.7761596    61.020479  0.010377632  0.009038399            2 
  491000   0.48243698    -8.776152    61.012001  0.010355058 0.0090086977            1 
  492000   0.48547058   -8.7848562    61.019425  0.010335268 0.0089790869            2 
  493000   0.47927714   -8.7867797    60.934007  0.010299866 0.0089495848            3 
  494000   0.47902953    -8.774667    61.009755  0.010291794  0.008920156            2 
  495000   0.47337822   -8.7853565    60.992698  0.010268131 0.0088908617            4 
  496000   0.47399795   -8.7935958    60.953012  0.010240761 0.0088616689            1 
  497000   0.46685637   -8.7876109    60.892033  0.010209932 0.0088325856            2 
  498000   0.47022654   -8.8069827    61.002871  0.010207977 0.0088036749            2 
  499000   0.47987099   -8.7951529    60.934984  0.010176183 0.0087748753            2 
  500000   0.45960422   -8.8131653    60.919427  0.010153238 0.0087461673            4 
  501000   0.47441966   -8.8056746    60.861319  0.010123307 0.0087175612            3 
  502000   0.46966454   -8.8175912    60.904372  0.010110287  0.008689054            3 
  503000   0.47215231   -8.8086307    60.923201  0.010093307 0.0086607093            1 
  504000   0.47303965   -8.8020322    60.977844  0.010082316 0.0086324499            3 
  505000   0.46410813   -8.8125023    60.838405  0.010039341  0.008604335            4 
  506000   0.46228329   -8.8028941    60.796508    0.0100126 0.0085763346            3 
  507000   0.45614999   -8.8184174    60.888886  0.010008035 0.0085484415            3 
  508000   0.45979366   -8.8172348    60.928254 0.0099947924 0.0085206688            3 
  509000    0.4548465   -8.8455364      60.8204 0.0099574984 0.0084929869            2 
  510000   0.44886176   -8.8247496    60.816955 0.0099374109 0.0084654055            4 
  511000   0.45037813   -8.8194431    60.866898 0.0099261086 0.0084379511            3 
  512000   0.46251195    -8.810219    60.795632 0.0098951224  0.008410593            3 
Loop time of 1218.83 on 48 procs for 500000 steps with 4000 atoms

Performance: 70887.739 tau/day, 410.230 timesteps/s
99.4% CPU use with 48 MPI tasks x no OpenMP threads

MPI task timing breakdown:
Section |  min time  |  avg time  |  max time  |%varavg| %total
---------------------------------------------------------------
Pair    | 76.859     | 82.552     | 88.28      |  32.5 |  6.77
Neigh   | 7.9169     | 8.3442     | 8.6591     |   6.9 |  0.68
Comm    | 77.684     | 83.688     | 90.627     |  34.4 |  6.87
Output  | 0.86263    | 0.86316    | 0.87304    |   0.2 |  0.07
Modify  | 1030       | 1032.1     | 1034       |   2.8 | 84.68
Other   |            | 11.28      |            |       |  0.93

Nlocal:        83.3333 ave          93 max          78 min
Histogram: 3 6 14 7 6 5 3 2 1 1
Nghost:        2118.00 ave        2143 max        2099 min
Histogram: 4 1 8 6 8 12 5 3 0 1
Neighs:        13939.3 ave       15292 max       12276 min
Histogram: 1 4 2 6 7 10 4 5 5 4
FullNghs:      27877.7 ave       31057 max       25918 min
Histogram: 1 8 9 13 3 6 2 5 0 1

Total # of neighbors = 1338131
Ave neighs/atom = 334.53275
Neighbor list builds = 26750
Dangerous builds = 0

#clear
#
#next RN
#
#jump SELF
Total wall time: 0:20:22
