
units lj                  # Use reduced LJ style units
atom_style atomic         # Uncharged point particles
atom_modify map hash      # Needed for indexing of clusters etc
                          # Used to be able to find where atoms are in relation to each other.

lattice fcc 1.0 spacing 1 1 1
Lattice spacing in x,y,z = 1.5874011 1.5874011 1.5874011
region box block 0 10 0 10 0 10 units lattice
create_box 2 box
Created orthogonal box = (0.0000000 0.0000000 0.0000000) to (15.874011 15.874011 15.874011)
  3 by 4 by 4 MPI processor grid
create_atoms 1 box
Created 4000 atoms
  using lattice units in orthogonal box = (0.0000000 0.0000000 0.0000000) to (15.874011 15.874011 15.874011)
  create_atoms CPU = 0.002 seconds
set type 1 type/fraction 2 0.64 78393
Setting atom values ...
  2566 settings made for type/fraction
mass 1 1.0
mass 2 1.0
pair_style lj/cut  3.5
pair_modify tail  yes
pair_coeff 1  1  1.0  1.0   # Intearaction between 1 and 1 set with epsilon = 1 and sigma = 1
pair_coeff 1  2  1.5  0.8
pair_coeff 2  2  0.5  0.88

write_data data.0
System init for write_data ...
Neighbor list info ...
  update every 1 steps, delay 10 steps, check yes
  max neighbors/atom: 2000, page size: 100000
  master list distance cutoff = 3.8
  ghost atom cutoff = 3.8
  binsize = 1.9, bins = 9 9 9
  1 neighbor lists, perpetual/occasional/extra = 1 0 0
  (1) pair lj/cut, perpetual
      attributes: half, newton on
      pair build: half/bin/atomonly/newton
      stencil: half/bin/3d
      bin: standard
WARNING: Not all mixed pair coeffs generated from mixing. Use write_data with 'pair ij' option to store all pair coeffs. (../write_data.cpp:312)


#############################
#   M E L T   S Y S T E M   #
#############################

velocity all create 2.4 1741580 mom yes dist gaussian # Assign velocities
                                                    # Temperature 2.4, random number seed, zero linear momentum
                                                                                # Gaussian distribution

timestep 0.002   # simulation timestep
thermo 1000       # output thermodynamic data every 1000 steps bf 100

# Define a fix  in this case with index 1 applied to all
# particles in the simulation. This fix is for simulations
# in the anisotropic NPT ensemble. Note that we use the MTK
# correction.
fix 1 all npt temp 2.4 2.4 0.1 iso 5.68 5.68 0.5 mtk yes tchain 5 pchain 5 # Use NPT ensemble
                                                                         # Set temperature and pressure and damping
                                                                         # Numbers of thermostats in chain and in barostat
run 10000          # run for 10000 steps
Per MPI rank memory allocation (min/avg/max) = 3.642 | 3.644 | 3.648 Mbytes
Step Temp E_pair E_mol TotEng Press Volume 
       0          2.4   -4.5154638            0  -0.91636384   -3.9779215         4000 
    1000    2.4136189   -4.2845258            0  -0.66500261    5.8291302    3588.9262 
    2000    2.3531651   -4.2370331            0  -0.70816797    5.5652401    3606.0094 
    3000    2.4623122   -4.2433314            0  -0.55078641    5.9123344    3614.1363 
    4000     2.389747   -4.2306583            0  -0.64693395    5.1539574    3669.6157 
    5000    2.4317373   -4.2569617            0  -0.61026758    5.7885163    3616.0298 
    6000    2.3141601   -4.2855178            0  -0.81514546      5.39564    3604.4738 
    7000     2.409333   -4.1727944            0  -0.55969851    5.8663424    3634.7327 
    8000    2.3735436    -4.216248            0   -0.6568226    5.8231245    3631.6194 
    9000    2.4145292   -4.1959772            0  -0.57508881    5.6143343    3647.1096 
   10000    2.3793398   -4.2299465            0  -0.66182903    5.6725354    3626.0675 
Loop time of 2.65515 on 48 procs for 10000 steps with 4000 atoms

Performance: 650809.893 tau/day, 3766.261 timesteps/s
99.6% CPU use with 48 MPI tasks x no OpenMP threads

MPI task timing breakdown:
Section |  min time  |  avg time  |  max time  |%varavg| %total
---------------------------------------------------------------
Pair    | 1.2068     | 1.2681     | 1.3301     |   2.7 | 47.76
Neigh   | 0.21645    | 0.22396    | 0.2345     |   0.8 |  8.44
Comm    | 0.8221     | 0.89737    | 0.96849    |   4.1 | 33.80
Output  | 0.00026788 | 0.00027657 | 0.00044304 |   0.0 |  0.01
Modify  | 0.21011    | 0.24987    | 0.29715    |   4.5 |  9.41
Other   |            | 0.01555    |            |       |  0.59

Nlocal:        83.3333 ave          93 max          72 min
Histogram: 3 0 1 8 6 11 8 7 2 2
Nghost:        1756.90 ave        1784 max        1728 min
Histogram: 1 3 2 6 8 13 6 6 1 2
Neighs:        10530.0 ave       12337 max        8881 min
Histogram: 3 1 3 6 15 9 4 5 0 2

Total # of neighbors = 505442
Ave neighs/atom = 126.36050
Neighbor list builds = 907
Dangerous builds = 219

# Equilibrate just above the melting temperature to avoid step fn in T

fix 1 all npt temp 1.25 1.25 0.1 iso 5.68 5.68 0.5 mtk yes tchain 5 pchain 5
run 2000
Per MPI rank memory allocation (min/avg/max) = 3.644 | 3.646 | 3.650 Mbytes
Step Temp E_pair E_mol TotEng Press Volume 
   10000    2.3793398   -4.2299465            0  -0.66182903    5.6725354    3626.0675 
   11000    1.2474827   -6.2045416            0   -4.3337855    5.8618862    2764.2521 
   12000    1.2176437   -6.2498347            0   -4.4238258    5.6045245    2756.5932 
Loop time of 0.667916 on 48 procs for 2000 steps with 4000 atoms

Performance: 517430.357 tau/day, 2994.389 timesteps/s
99.7% CPU use with 48 MPI tasks x no OpenMP threads

MPI task timing breakdown:
Section |  min time  |  avg time  |  max time  |%varavg| %total
---------------------------------------------------------------
Pair    | 0.29364    | 0.32468    | 0.37948    |   2.5 | 48.61
Neigh   | 0.041648   | 0.043984   | 0.051173   |   0.7 |  6.59
Comm    | 0.18967    | 0.24958    | 0.28689    |   3.3 | 37.37
Output  | 5.1606e-05 | 5.3432e-05 | 7.7264e-05 |   0.0 |  0.01
Modify  | 0.038832   | 0.044692   | 0.049807   |   1.6 |  6.69
Other   |            | 0.004927   |            |       |  0.74

Nlocal:        83.3333 ave          91 max          78 min
Histogram: 4 5 0 20 5 3 8 1 0 2
Nghost:        2114.35 ave        2141 max        2090 min
Histogram: 4 2 2 7 12 9 8 2 0 2
Neighs:        13844.5 ave       15621 max       12628 min
Histogram: 5 5 10 4 9 3 5 5 0 2

Total # of neighbors = 664534
Ave neighs/atom = 166.13350
Neighbor list builds = 144
Dangerous builds = 10

#############################
# L I N E A R  Q U E N C H  #
#############################

# Define solid atoms. This closely follows ten Wolde  Ruiz-Montero and Frenkel  Faraday Discuss  1996  104  93-110
# Compute components of the per-atom q6 vector
compute q6 all orientorder/atom degrees 1 6 components 6 nnn NULL cutoff 1.3 # compute the Q6 parameter.
                                                                             # Use all neighbours within 1.3 unit cell.

# get number of connections
compute coord_number all coord/atom orientorder q6 0.5

# An atom is solid if it has 8 or more connections (of a possible 14)
variable is_solid atom c_coord_number>=8
group solid dynamic all var is_solid    # Must be dynamic to update
dynamic group solid defined

# do clustering
compute cluster solid cluster/atom 1.3 # Create a cluster where all atoms within are solid and max 1.3 units from another member

# define chunks one chunk per cluster
compute clus_chunks solid chunk/atom c_cluster nchunk every compress yes  # Says which atoms are in which chunk

# count the size of each chunk
compute size_chunks solid property/chunk clus_chunks count


# Find the maximum entry in the vector of chunk sizes
variable max_n equal max(c_size_chunks)


# Thermo style which includes this variable
# thermo_style custom step temp pe vol v_max_n

thermo ${N}  # Print the thermo information every 100 steps
thermo 1000  

# Reset the npt fix at a lower temperature (below freezing)
fix 1  all npt temp  ${temp} ${temp}  0.1  iso  5.68  5.68  0.5  mtk yes tchain  5  pchain  5
fix 1  all npt temp  0.45 ${temp}  0.1  iso  5.68  5.68  0.5  mtk yes tchain  5  pchain  5
fix 1  all npt temp  0.45 0.45  0.1  iso  5.68  5.68  0.5  mtk yes tchain  5  pchain  5

dump dmp2 all dcd ${N} traj.dcd
dump dmp2 all dcd 1000 traj.dcd


compute msd all msd com yes
variable twopoint equal c_msd[4]/6/(step*dt+1.0e-6)
fix 9 all vector 10 c_msd[4]
variable fit equal slope(f_9)/6/(10*dt)
thermo_style custom step temp pe c_msd[4] v_twopoint v_fit v_max_n

fix 1 all npt temp 1.25 ${temp} 0.1 iso 5.68 5.68 0.5 mtk yes tchain 5 pchain 5
fix 1 all npt temp 1.25 0.45 0.1 iso 5.68 5.68 0.5 mtk yes tchain 5 pchain 5
run 500000 # 5000000  # Run for this many steps
Neighbor list info ...
  update every 1 steps, delay 10 steps, check yes
  max neighbors/atom: 2000, page size: 100000
  master list distance cutoff = 3.8
  ghost atom cutoff = 3.8
  binsize = 1.9, bins = 8 8 8
  4 neighbor lists, perpetual/occasional/extra = 1 3 0
  (1) pair lj/cut, perpetual
      attributes: half, newton on
      pair build: half/bin/atomonly/newton
      stencil: half/bin/3d
      bin: standard
  (2) compute orientorder/atom, occasional
      attributes: full, newton on
      pair build: full/bin/atomonly
      stencil: full/bin/3d
      bin: standard
  (3) compute coord/atom, occasional
      attributes: full, newton on
      pair build: full/bin/atomonly
      stencil: full/bin/3d
      bin: standard
  (4) compute cluster/atom, occasional
      attributes: full, newton on
      pair build: full/bin/atomonly
      stencil: full/bin/3d
      bin: standard
Per MPI rank memory allocation (min/avg/max) = 9.846 | 9.851 | 9.854 Mbytes
Step Temp PotEng c_msd[4] v_twopoint v_fit v_max_n 
   12000    1.2176437   -6.2498347  7.64209e-31 5.3070067e-33 8.3333333e+20            2 
   13000    1.2690938   -6.2888738   0.54884275 0.0035182226  0.045257071            2 
   14000    1.2655269   -6.2803216    1.0763748 0.0064069925  0.045551713            3 
   15000    1.2470271   -6.3457233    1.5919633 0.0088442403  0.043964717            4 
   16000      1.22039    -6.333289     2.085689  0.010862963  0.043368903            6 
   17000    1.2455013   -6.3049161    2.5730814  0.012613144   0.04267014            2 
   18000    1.2785322   -6.2994155    3.0358403  0.014054816  0.041956153            3 
   19000    1.2438942    -6.279847    3.4887737  0.015301638  0.041168323            2 
   20000    1.2329275   -6.3682417    4.0504766  0.016876985  0.041133971            3 
   21000    1.2573551   -6.3824144    4.5284631  0.017970091  0.041227943            1 
   22000    1.2505293    -6.355599     5.046196  0.019114378  0.041281889            4 
   23000    1.2440503   -6.3575794    5.4755228   0.01983885  0.041194286            3 
   24000    1.2463511   -6.3521116    5.9471491  0.020649823  0.041004431            3 
   25000    1.2104124   -6.3602885    6.3859855  0.021286618  0.040771976            1 
   26000    1.2402785   -6.3376746    6.7497906  0.021633944  0.040397173            2 
   27000    1.1920305   -6.3630364    7.1292738  0.022003931  0.039894945            1 
   28000    1.2270037   -6.3689385    7.5478493  0.022463837  0.039463215            3 
   29000    1.2165361   -6.3659551    8.0301966  0.023075277  0.039162177            3 
   30000    1.2169831   -6.4202766    8.4238768  0.023399657  0.038869841            4 
   31000    1.2118258   -6.3567859      8.96813  0.024107876  0.038679217            6 
   32000    1.2192684    -6.394219    9.3757092  0.024415909  0.038552692            3 
   33000    1.2098224   -6.3811506    9.9167982  0.025042419  0.038460206            6 
   34000    1.2184124   -6.4122884    10.367305  0.025410062  0.038419216            4 
   35000    1.2114653   -6.3847144    10.907731  0.025970788  0.038456037            4 
   36000    1.2174618   -6.3926221     11.41242  0.026417638  0.038520003            2 
   37000     1.192316   -6.4311395    11.856644  0.026704152  0.038572269            3 
   38000     1.207696   -6.4353279    12.426488   0.02725107  0.038647403            2 
   39000    1.2245474   -6.4384236    12.858658  0.027475765   0.03876001            3 
   40000     1.200497   -6.4334389    13.358404  0.027830009  0.038852428            1 
   41000    1.1901807   -6.4367942    13.859269  0.028169245  0.038935336            2 
   42000     1.177408    -6.430789    14.192084  0.028158896  0.038959497            3 
   43000    1.1843995   -6.4202664    14.665335  0.028421191  0.038928567            2 
   44000    1.1980474   -6.4155927    15.109718  0.028616891  0.038914625            3 
   45000    1.1827533   -6.4060053     15.65032  0.028982074  0.038902825            5 
   46000    1.1808139   -6.4996717    16.112827  0.029189904  0.038920759            4 
   47000    1.1765652   -6.4355713    16.621309  0.029470405  0.038961824            3 
   48000    1.1795299   -6.4279971    16.959057  0.029442807  0.038964118            2 
   49000     1.181625   -6.4415635    17.380036  0.029557884  0.038931918            2 
   50000    1.1633533   -6.4482734    17.791758   0.02965293  0.038902461            1 
   51000    1.1698127    -6.433577    18.141924  0.029643667  0.038842306            1 
   52000    1.1790642   -6.4250633    18.430548  0.029536134  0.038726753            2 
   53000    1.1856452   -6.4530931    18.767094  0.029508009  0.038590368            5 
   54000    1.1896237   -6.4946115    19.060265  0.029413989  0.038438857            3 
   55000    1.1885444   -6.5165856    19.417296  0.029420145  0.038267134            4 
   56000    1.1724535   -6.4913497    19.898158  0.029610354  0.038109402            4 
   57000    1.1631499   -6.4244748    20.425474  0.029861804  0.037977069            6 
   58000    1.1781982   -6.5522101      20.7961  0.029879454  0.037867221            2 
   59000    1.1830753   -6.4783501    21.209481  0.029956893   0.03775363            2 
   60000    1.1715569   -6.4710403    21.570616  0.029959189  0.037651712            2 
   61000     1.144658   -6.5056779      22.0528  0.030126776  0.037549054            2 
   62000    1.1817347   -6.4815367     22.40081  0.030108615  0.037431064            2 
   63000    1.1808772   -6.5349301    22.669879  0.029986612  0.037303937            3 
   64000    1.1829258   -6.5062816    23.149501  0.030142579  0.037176156            3 
   65000    1.1583589    -6.561419     23.50956  0.030140462  0.037061787            3 
   66000    1.1805498    -6.531469     23.65708   0.02987005  0.036941188            6 
   67000    1.1580161   -6.5083545    24.217892  0.030121757  0.036823862            3 
   68000    1.1440084     -6.54098    24.580078  0.030122645  0.036714226            3 
   69000     1.176419   -6.5231032    24.860686  0.030024983  0.036598006            2 
   70000    1.1656225     -6.53781    25.304927  0.030124913  0.036484998            1 
   71000    1.1424727   -6.5609091    25.725727  0.030194515   0.03637914            5 
   72000     1.143643   -6.5682955     25.89087  0.029966284  0.036260733            4 
   73000    1.1406622   -6.5672629    26.347566   0.03007713  0.036145199            2 
   74000    1.1302681   -6.5575022    26.810865  0.030192415  0.036043394            4 
   75000    1.1427713   -6.5640716    27.297025  0.030330027  0.035947835            2 
   76000    1.1502097   -6.5661884    27.415674  0.030061046  0.035844607            4 
   77000    1.1359718   -6.5780001    27.816689  0.030104641   0.03572186            4 
   78000    1.1571419   -6.5669881    28.212387  0.030141439  0.035619069            3 
   79000    1.1419157   -6.5545231    28.482378  0.030044703  0.035510197            7 
   80000    1.1299571   -6.5755438    28.963737  0.030170559  0.035406276            1 
   81000    1.1497227   -6.5881195    29.324541   0.03016928  0.035317569            2 
   82000     1.116534   -6.5650765    29.571023  0.030051852  0.035223081            3 
   83000    1.1381553    -6.565614    29.864872  0.029984811  0.035122365            2 
   84000     1.151091   -6.5350344    30.309834  0.030069279  0.035017882            2 
   85000    1.1195952    -6.603327    30.389286  0.029793417  0.034905607            2 
   86000    1.1112013   -6.5882327    30.905921  0.029947597  0.034796541            7 
   87000    1.1537072    -6.617962    31.104938  0.029794002  0.034691677            3 
   88000    1.1169309   -6.6021841    31.486442  0.029816706  0.034585143            2 
   89000    1.1145645    -6.599314    31.762932  0.029740573  0.034479107            5 
   90000    1.0981654   -6.6050515    32.253415  0.029864273  0.034376099            1 
   91000    1.1273048   -6.6325319     32.50268  0.029764359  0.034272633            3 
   92000     1.110231   -6.5724155    32.973121  0.029866957  0.034178884            4 
   93000    1.1118741   -6.6175389    33.433939  0.029958727  0.034097678            3 
   94000    1.1078472   -6.6217297    33.669742  0.029849062  0.034013643            3 
   95000    1.1088289   -6.6032185     33.98776  0.029813824  0.033926222            3 
   96000    1.1254188   -6.6394326    34.318186  0.029790092  0.033842849            2 
   97000    1.1147446   -6.6707609    34.515335  0.029652349  0.033758297            3 
   98000    1.1259291   -6.6562888    34.983986  0.029748288  0.033674794            3 
   99000    1.1084434   -6.6305506    35.319233  0.029729994  0.033595429            5 
  100000    1.1006419     -6.63118    35.695275  0.029746062  0.033513841            2 
  101000    1.1219764   -6.6668968    35.838949   0.02957009  0.033428458            8 
  102000    1.1142394   -6.6627348    35.984954  0.029399472  0.033338755            2 
  103000    1.1078368   -6.6701692    36.415489   0.02946237  0.033243503            2 
  104000    1.1168553   -6.6681885    36.527541  0.029268863  0.033145679            2 
  105000    1.1336651   -6.7006291    36.896802  0.029283176  0.033051769            7 
  106000    1.1152662   -6.6513898    37.477867  0.029463732  0.032961907            3 
  107000    1.0855568   -6.6432965    37.574878  0.029263924  0.032873668            3 
  108000    1.0740447   -6.6898581    37.964579  0.029293657  0.032781735            7 
  109000    1.0889202   -6.6989398    38.153646  0.029169454  0.032693695            4 
  110000     1.089875   -6.7167835    38.287233  0.029005479  0.032599422            4 
  111000    1.0927317   -6.7249668    38.797464  0.029127225  0.032506397            2 
  112000    1.0806133   -6.7288516    38.957469  0.028986212  0.032410304            9 
  113000    1.0708283    -6.716338    39.106535  0.028839628  0.032315522            6 
  114000    1.0848706   -6.6771682    39.610084   0.02895474  0.032221016            3 
  115000    1.0780981   -6.7008257    39.929348   0.02893431  0.032134327            1 
  116000    1.0848321   -6.7477523     40.09908   0.02880681  0.032044423            5 
  117000     1.085194   -6.7390121    40.543014   0.02887679  0.031950869            3 
  118000    1.0746439   -6.7214698    40.990233  0.028947905  0.031868179            2 
  119000    1.0906256   -6.7506806    41.051589  0.028747611  0.031787079            4 
  120000    1.0755478   -6.7228357    41.425618   0.02876779  0.031702808            3 
  121000    1.0881374   -6.7224459    41.755486  0.028757222  0.031620245            1 
  122000    1.0756364   -6.7345767    41.799891  0.028551838  0.031535444            1 
  123000    1.0774362   -6.7380098     42.17435  0.028573408  0.031450434            5 
  124000    1.0573746   -6.7824322    42.436579  0.028519206  0.031370049           12 
  125000    1.0932697   -6.7627746     42.97199  0.028647993  0.031290627            3 
  126000    1.0650771   -6.7678652    43.095577  0.028502365  0.031215211            7 
  127000    1.0655693   -6.7552948    43.392015   0.02847245  0.031137317            4 
  128000      1.05902   -6.8059082    43.582608  0.028374094  0.031056954            5 
  129000    1.0645579   -6.7487049    43.756059  0.028266188  0.030971915            2 
  130000    1.0603034   -6.7846514    44.172247  0.028315543  0.030884693            5 
  131000    1.0417678   -6.7455799    44.501852  0.028309066  0.030801358            4 
  132000    1.0542954   -6.7650713     44.68199  0.028208327  0.030717863            3 
  133000    1.0577839   -6.7887103    44.906305  0.028136782  0.030634232            1 
  134000    1.0547281    -6.793703    45.129027  0.028065315  0.030555767            3 
  135000    1.0450948   -6.8261447    45.198186  0.027900114  0.030474247            3 
  136000    1.0737034   -6.8475193    45.440281  0.027843309  0.030390402            4 
  137000    1.0581195   -6.8597429    45.720534  0.027810543  0.030305987           15 
  138000     1.061916   -6.7895415    46.036757  0.027799974  0.030222381            6 
  139000    1.0274374   -6.7653448    46.334495  0.027778474  0.030142336            2 
  140000    1.0647518   -6.7794722    46.501651  0.027679554  0.030061497            3 
  141000    1.0431706   -6.8441606    46.728544  0.027617343  0.029980943            3 
  142000    1.0343785    -6.763693    47.195013  0.027696604  0.029902295            2 
  143000    1.0300257   -6.8151307    47.386462  0.027614488   0.02982632            4 
  144000    1.0135693   -6.8446961    47.515731   0.02749753  0.029748144            8 
  145000    1.0289186   -6.8345205    47.953972  0.027559754  0.029671312            2 
  146000    1.0292244    -6.795298    48.376214  0.027611994  0.029598242            5 
  147000    1.0328106   -6.8289634     48.55686  0.027526564  0.029525228            4 
  148000    1.0471114   -6.8542197    48.851674  0.027506573  0.029455568            4 
  149000    1.0373741    -6.880075    48.974215  0.027390501  0.029385532            7 
  150000     1.019632   -6.9005401    49.196336  0.027331298  0.029312535            3 
  151000    1.0215519     -6.90871    49.534535   0.02733694  0.029240628            2 
  152000    1.0367793   -6.8926295    49.790436  0.027297388  0.029172463            6 
  153000    1.0046156   -6.8570102    49.999873  0.027233046  0.029101522            4 
  154000    1.0315383   -6.8932238    50.008081   0.02706065  0.029027764            5 
  155000    1.0462285   -6.8926469    50.351242   0.02707056  0.028952331            5 
  156000    1.0459234   -6.8905442    50.510909  0.026982323  0.028877788            4 
  157000    1.0149097   -6.8778196     50.81041  0.026969432  0.028805439            5 
  158000    1.0053656   -6.9324591     51.20571  0.027007231  0.028736218            3 
  159000    1.0127548   -6.9507938    51.283094  0.026877932  0.028667318            7 
  160000    1.0297064    -6.917768    51.548353  0.026848101  0.028599606            2 
  161000    1.0212194   -6.9298558    51.824754  0.026824407  0.028529455            7 
  162000   0.99119125   -6.9188974    52.024586  0.026761618  0.028459711            2 
  163000    1.0188855   -6.9452163    52.133493  0.026653115  0.028389706            6 
  164000    1.0098479   -6.9020745    52.428164  0.026640327  0.028316928            4 
  165000   0.98828727   -6.8909439     52.78468  0.026658929  0.028244455            6 
  166000   0.98450633   -6.9413527    52.836217  0.026524205  0.028174433            3 
  167000    1.0103619   -6.9729831    52.864911  0.026379696   0.02810209            3 
  168000   0.99773273    -6.977996    53.049485  0.026314229  0.028028663            3 
  169000    1.0037429   -6.9722306    53.207073  0.026236229  0.027956653            3 
  170000   0.98825766   -6.9360546    53.482409  0.026216867  0.027884773            5 
  171000   0.98475115   -6.9527927    53.730633  0.026184519  0.027810342            8 
  172000   0.97882873   -6.9966997    53.734507   0.02603416  0.027734638           11 
  173000   0.99560383   -7.0171942    53.826921  0.025928189  0.027658982            8 
  174000   0.99337625   -6.9878758    53.961762  0.025843756  0.027583956            3 
  175000   0.96447042   -6.9794187    54.133561  0.025777886  0.027508113            5 
  176000   0.97565966   -6.9811649    54.511556  0.025810396  0.027433935            2 
  177000   0.99901726   -7.0005424    54.588029  0.025700579  0.027358048           10 
  178000   0.97049992   -6.9886173    54.821518  0.025665504  0.027280402            2 
  179000    0.9902586   -6.9987517    55.082565  0.025643652  0.027204584            6 
  180000   0.94374806   -6.9863171    55.229326  0.025569132  0.027128129            3 
  181000    1.0012547   -7.0390333    55.233156   0.02542963  0.027050454           10 
  182000   0.99434415   -6.9880678    55.564205  0.025441486  0.026973267            6 
  183000   0.97456902   -7.0323188    55.337859  0.025199389  0.026893896            4 
  184000   0.96256786   -6.9983563    55.594154  0.025178512   0.02681431            3 
  185000   0.96606487   -7.0358679     55.52311   0.02501041  0.026732911            2 
  186000   0.96782482    -7.029151    55.752255  0.024978609  0.026650927            3 
  187000   0.96052204   -7.0093672    56.023355  0.024965844  0.026571076            6 
  188000   0.98649435   -7.0136653    56.280727  0.024947131  0.026489585            5 
  189000   0.97797003   -7.0385471    56.159587  0.024761722  0.026408473            8 
  190000   0.96346539   -7.0553895    56.166653  0.024634497  0.026324804            7 
  191000   0.95293026    -7.052448    56.247982  0.024541004  0.026239911            8 
  192000   0.95203305   -7.0706348    56.454198   0.02450269  0.026156758            4 
  193000   0.96326488   -7.0061651    56.922956  0.024578133  0.026073713            3 
  194000    0.9418397   -7.0905584    56.822991  0.024408501  0.025991143            4 
  195000   0.96008183     -7.07013    57.218329  0.024452277  0.025909801            7 
  196000   0.97075995   -7.0772562    57.021991  0.024244044  0.025828434            7 
  197000   0.96787943   -7.0772003    57.361282  0.024264502  0.025746079            6 
  198000   0.93872383   -7.0768913    57.413096  0.024163761  0.025664227            8 
  199000   0.94215421   -7.0846536    57.657734   0.02414478  0.025583435            7 
  200000   0.95977402   -7.0550431    57.790777   0.02407949  0.025501954            5 
  201000   0.96055993    -7.087493    57.895914  0.024003281  0.025421748            6 
  202000   0.95300124   -7.0481888    57.907978   0.02388943  0.025340603            2 
  203000   0.93465799   -7.1184914    58.033601  0.023823317    0.0252587            6 
  204000    0.9254172   -7.0828413    58.212528  0.023779627  0.025176054            5 
  205000   0.94257753   -7.0996662    58.535627   0.02379497  0.025095486            4 
  206000   0.96415004   -7.1211441    58.381988  0.023617309  0.025015035            5 
  207000   0.93475004   -7.1326573    58.621046  0.023599455  0.024934889            8 
  208000   0.94053221   -7.1059912    59.070011   0.02366587  0.024855972           11 
  209000   0.93890062   -7.1255656    59.019559  0.023532519  0.024778925            4 
  210000   0.93284955   -7.1449404    58.973538  0.023402198  0.024700013            3 
  211000   0.92453323   -7.1226416    59.294424  0.023418019  0.024622523           10 
  212000   0.93866639   -7.1262036    59.334882   0.02332346  0.024545351            4 
  213000   0.92526786    -7.138042     59.28929  0.023196123   0.02446697            5 
  214000    0.9288363   -7.1748398    59.374365  0.023120859  0.024388536            3 
  215000   0.93828567   -7.1619738    59.445833  0.023041021  0.024310322            6 
  216000   0.91548972   -7.1889421     59.59462  0.022991752  0.024231617            4 
  217000   0.92661673   -7.1409805    59.840041  0.022980047  0.024151902            5 
  218000   0.90876862   -7.2041648    59.783061  0.022852852  0.024073392            7 
  219000   0.92566199   -7.1981087    59.819465  0.022762353  0.023993606            6 
  220000   0.90324791   -7.2406835    59.679405  0.022605835  0.023911991            4 
  221000   0.93274045   -7.2204286    59.809678  0.022552669  0.023829843            8 
  222000   0.89759638   -7.2072425    59.973317  0.022512506   0.02374878            4 
  223000    0.8931065   -7.2242705    60.202547  0.022497215  0.023667575            7 
  224000   0.91228601   -7.2218346    60.336909  0.022446767  0.023587926            5 
  225000   0.90801006   -7.2017116    60.588637  0.022440236  0.023508562            6 
  226000   0.92032373   -7.1887464    60.725061  0.022391246  0.023430181            7 
  227000   0.87638165   -7.2192966    60.854268   0.02234004  0.023352555            6 
  228000   0.91950707   -7.2500175    60.646618  0.022166162  0.023274927           12 
  229000   0.89039417   -7.2669904     60.62511  0.022061539  0.023197018            4 
  230000   0.89470957   -7.2630733    60.915766   0.02207093  0.023118747            6 
  231000   0.90249373   -7.3195658    60.958369  0.021990753  0.023040721            6 
  232000   0.90682451   -7.2927415    60.936969  0.021888279  0.022962269            6 
  233000   0.88376715   -7.2495816    61.023985   0.02182546  0.022884473            4 
  234000   0.90894592   -7.2548683    61.247003  0.021811611   0.02280729           11 
  235000   0.87985294   -7.2574351    61.420524  0.021780328  0.022730815           15 
  236000   0.88140721   -7.2796883    61.395834   0.02167932  0.022654105            7 
  237000   0.89670414   -7.2979169    61.339434  0.021568015  0.022576851            7 
  238000   0.88847924   -7.2910199    61.421986  0.021506298  0.022498843            7 
  239000   0.89307361   -7.2713486    61.588707  0.021474445  0.022420921            7 
  240000   0.89065137   -7.3221922    61.629746  0.021399217  0.022344085            5 
  241000   0.89627037   -7.2723739    61.945885  0.021419739  0.022267323            9 
  242000   0.89467218   -7.3155726    61.716548  0.021252255  0.022191367           13 
  243000   0.86382411   -7.2983952    61.866859  0.021216344   0.02211418            9 
  244000   0.89369461   -7.2922994    61.796887  0.021105494  0.022037086            5 
  245000   0.88390299   -7.2945926    61.897845  0.021053689  0.021959989            7 
  246000   0.90640068   -7.3294734    61.894893  0.020967105  0.021883291           19 
  247000   0.85913617   -7.3147308    61.862393  0.020871253  0.021806319           10 
  248000   0.85581386    -7.322304    61.929124  0.020809517  0.021728814            9 
  249000   0.87053916   -7.3480802    62.006974  0.020751999  0.021650776           12 
  250000   0.86699341   -7.3035003    62.366197  0.020788732  0.021573854            5 
  251000   0.87920194   -7.3164651    62.307716  0.020686493  0.021498327            6 
  252000   0.88893119   -7.3354242    62.300191  0.020601915  0.021422616            8 
  253000   0.84450067   -7.3371852    62.555239  0.020604492  0.021347502            7 
  254000   0.87484981   -7.3922171     62.56743  0.020527372  0.021272781            6 
  255000   0.82669227   -7.3477411    62.579615  0.020450855   0.02119769           15 
  256000   0.84028127   -7.3503926    62.512504  0.020349122  0.021122369           10 
  257000   0.83599614    -7.360167    62.556565   0.02028423  0.021046851            8 
  258000   0.84695291   -7.3763573    62.683106  0.020246481  0.020972061           11 
  259000    0.8514183   -7.3885097    62.942553  0.020251787  0.020897706            5 
  260000   0.84636766   -7.4260606     62.67678  0.020088712  0.020822935            8 
  261000   0.87607847   -7.4065262    62.841549  0.020064352  0.020747846            4 
  262000   0.83835638   -7.3905944    62.807233  0.019976855  0.020673568            6 
  263000   0.85009232   -7.3988015    62.953903  0.019947371   0.02059959            5 
  264000   0.84976045   -7.3979045    63.058353  0.019904783  0.020525936           23 
  265000   0.85710503   -7.3894091    63.167119  0.019863874    0.0204531            4 
  266000   0.84074626   -7.3819991    63.156447  0.019785854  0.020380833            8 
  267000   0.84106983   -7.4506401    63.261278  0.019744469  0.020308454            4 
  268000   0.83586868   -7.4298774    63.180048  0.019645537  0.020235793            8 
  269000   0.83735255   -7.4568956    63.287379  0.019605755  0.020163482           27 
  270000    0.8324111   -7.4337709    63.423389   0.01957512  0.020091426           14 
  271000   0.82679488   -7.4682021    63.409843  0.019498722  0.020020044            5 
  272000   0.83967995   -7.4381813    63.479011  0.019448226  0.019949094           20 
  273000   0.82937306   -7.4559799    63.649381  0.019428993  0.019878414            6 
  274000    0.8461255   -7.4885836     63.45622  0.019299337  0.019807687            9 
  275000   0.84355883   -7.4522828    63.597127  0.019271857  0.019736518           12 
  276000   0.83072654   -7.5055935    63.672011  0.019224641  0.019666222           12 
  277000   0.82746461   -7.4975411    63.767926  0.019184093  0.019596639            8 
  278000   0.81739605    -7.514808    63.774695  0.019117115  0.019527507           10 
  279000   0.83924969   -7.4767571    63.998874  0.019115554  0.019458127            4 
  280000   0.82247259   -7.5414393    63.750152   0.01897326   0.01938891            7 
  281000   0.81100393   -7.5041432    64.010056  0.018982816  0.019320192            5 
  282000   0.83204925   -7.4954602    64.060455  0.018930395  0.019252095            7 
  283000   0.81540548   -7.4896187    63.978801  0.018839458  0.019183541           22 
  284000   0.81583775   -7.5169923    63.950362  0.018764778  0.019115205            5 
  285000   0.82152685   -7.5144544    63.928814  0.018692636  0.019047221           13 
  286000    0.7984404   -7.5330413    63.992467  0.018645824  0.018978288           15 
  287000   0.80632432   -7.5600949    64.087117  0.018608338  0.018909523           14 
  288000   0.77522373    -7.539869    64.056649   0.01853491  0.018841095            6 
  289000   0.81232513   -7.5463166    64.041503  0.018466408  0.018772259            9 
  290000   0.82357577    -7.575549    64.095438  0.018418229  0.018703906           18 
  291000   0.78197994    -7.571108    64.060061  0.018344805  0.018635605            9 
  292000   0.79799993   -7.5536411    64.224181  0.018328819  0.018567735           13 
  293000    0.8139823   -7.5667263    64.318012   0.01829295   0.01850063           15 
  294000    0.8039821   -7.5343051    64.134628  0.018178749  0.018433165           16 
  295000   0.79704724   -7.5747234    64.153358  0.018122417  0.018365567           13 
  296000   0.78859813   -7.5799152    64.147482  0.018059539   0.01829808           21 
  297000   0.79305941   -7.5718868     64.12691   0.01799296  0.018230589           24 
  298000   0.78236122   -7.6209147    64.103581  0.017926057  0.018162994           20 
  299000   0.79673853   -7.5936429    64.290773  0.017918276  0.018095911           17 
  300000   0.78572771   -7.6118119     64.22884  0.017841344  0.018029202           39 
  301000   0.78397727   -7.6142555    64.194228  0.017772488   0.01796256           21 
  302000   0.77046602   -7.6138515    64.114415  0.017691616  0.017895986           26 
  303000   0.77238212   -7.6246681    64.147763  0.017642399  0.017829425           26 
  304000   0.79762129   -7.6133681    64.264834  0.017616457  0.017763168           18 
  305000   0.76673127   -7.6485738    64.296383  0.017567318  0.017697301           20 
  306000   0.77944258   -7.6478476    64.155819  0.017471628  0.017631562           15 
  307000   0.78213394   -7.6336517    64.373688  0.017473857   0.01756575           36 
  308000   0.79411742   -7.6645179    64.257057  0.017385567   0.01750023           31 
  309000   0.76159379   -7.6228085    64.494603  0.017393366  0.017435192           20 
  310000   0.76618268   -7.6182929    64.456265  0.017326953  0.017370591           17 
  311000   0.77567126   -7.6394013    64.495653  0.017281793  0.017306347           21 
  312000   0.76741458   -7.6466702    64.467582  0.017218905  0.017242549           25 
  313000   0.78015739    -7.606215    64.529333  0.017180334  0.017178821           11 
  314000    0.7729141   -7.6263479    64.621598  0.017150106   0.01711562           18 
  315000   0.76694336   -7.6424395    64.596954  0.017089141  0.017052665           34 
  316000   0.76231443   -7.6629924    64.651543  0.017049458  0.016990148           12 
  317000   0.77575726   -7.6688904    64.713114   0.01701186  0.016927398           36 
  318000   0.75862136   -7.6734613    64.510119  0.016905167  0.016864884           31 
  319000   0.78608721   -7.6748389    64.499987  0.016849526    0.0168024           39 
  320000   0.75848094   -7.6920033    64.545986   0.01680885  0.016739773           35 
  321000   0.74586552   -7.6988025    64.393752  0.016716966  0.016677246           46 
  322000   0.74905529    -7.708002    64.433417  0.016675315  0.016614679           23 
  323000   0.73980777   -7.6917882    64.571278  0.016659256  0.016552762           26 
  324000   0.76276086   -7.6851819    64.532626  0.016597898  0.016490781           29 
  325000   0.74960247    -7.734388    64.636812  0.016573542   0.01642924           31 
  326000   0.75053955   -7.7310263    64.474428  0.016481193  0.016367551           20 
  327000   0.75868673   -7.7361342    64.532682  0.016445638  0.016306054           36 
  328000   0.72390421   -7.7436533    64.474381  0.016380686  0.016244591           67 
  329000   0.74351555   -7.7613409    64.384389  0.016308103  0.016183141           45 
  330000   0.74126356   -7.7746325    64.463265  0.016278602   0.01612203           41 
  331000   0.74892469   -7.7417476    64.482833  0.016234349   0.01606119           31 
  332000   0.74831638   -7.7423196    64.301368  0.016139902  0.016000383           20 
  333000   0.72923952   -7.7450981    64.610639  0.016168828  0.015939898           13 
  334000   0.72532003   -7.7707151    64.339255  0.016052708  0.015879621           45 
  335000   0.72474952   -7.7522962    64.429144   0.01602715  0.015819834           23 
  336000   0.73001226   -7.7755404    64.561853  0.016012364  0.015759767           40 
  337000   0.73342845   -7.7789073    64.586277  0.015970889  0.015700288           52 
  338000   0.71972797   -7.7687006     64.51013  0.015904864  0.015641024           38 
  339000    0.7465155    -7.772141    64.482316   0.01585111  0.015581802           56 
  340000   0.71233843    -7.786792    64.713911  0.015861253  0.015523016           49 
  341000   0.74190515   -7.8172456    64.493173  0.015760795  0.015464361           69 
  342000   0.73118416   -7.8225967    64.457578  0.015706037  0.015405989           32 
  343000   0.72611721   -7.7908998    64.601561  0.015695229  0.015347777           39 
  344000   0.71839837   -7.8170204    64.512803  0.015628102  0.015289612           67 
  345000   0.71277599   -7.8046358    64.429353  0.015562646  0.015231484           61 
  346000   0.72137921   -7.8350797    64.514191    0.0155381  0.015173681           36 
  347000   0.72933331   -7.8149502    64.599441  0.015513795  0.015116405           39 
  348000   0.72262098   -7.8325093    64.377038  0.015415957  0.015059383           50 
  349000   0.69873542   -7.8241584    64.482397  0.015396943  0.015002553           58 
  350000   0.71136867   -7.8478847    64.401164   0.01533361   0.01494572           48 
  351000   0.70757894   -7.8304145    64.562292  0.015328179   0.01488897           64 
  352000    0.6949131   -7.8271306    64.444324  0.015256705  0.014832503           61 
  353000   0.70281857   -7.8524315    64.393456  0.015201477  0.014776179           43 
  354000   0.70454029   -7.8543282    64.443786  0.015170383  0.014720502           66 
  355000    0.7145822   -7.8618744    64.515897  0.015144577  0.014665052           78 
  356000   0.69403241   -7.8575894    64.586311  0.015118519   0.01460996           49 
  357000   0.68562672   -7.8770178    64.491636   0.01505407  0.014555013           63 
  358000   0.69169241   -7.8667354    64.562977  0.015028626   0.01450038           71 
  359000    0.7014129   -7.8701353    64.498162  0.014971718  0.014445708           92 
  360000     0.705254   -7.8797849    64.698056  0.014976402  0.014391342           80 
  361000   0.67928816   -7.8709118    64.335254  0.014851167  0.014336968           90 
  362000   0.68834642   -7.8929991    64.624053  0.014876624  0.014282994          118 
  363000   0.69191029   -7.9014655    64.272099  0.014754844  0.014228923          136 
  364000   0.67675303   -7.8898512    64.572176  0.014783007   0.01417525           81 
  365000   0.69366327   -7.9039674    64.409194  0.014705295  0.014121711           96 
  366000   0.66769954   -7.9118175    64.369742  0.014656134  0.014068174          110 
  367000   0.68416797   -7.8916807    64.453081  0.014635123  0.014014761           71 
  368000   0.68742272   -7.9299472    64.371377  0.014576852  0.013961796          101 
  369000   0.68110366   -7.9228175    64.452011  0.014555558  0.013908866          111 
  370000   0.68169374   -7.9235144    64.305479  0.014483216  0.013856064          133 
  371000   0.66583844   -7.9333988    64.317069  0.014446781  0.013803522          100 
  372000   0.67205193   -7.9370164     64.40025  0.014426579   0.01375116           82 
  373000   0.67011449   -7.9055262    64.326057  0.014371326  0.013699085           86 
  374000   0.67119685   -7.9318985    64.347606  0.014337702  0.013647034           87 
  375000   0.65925959   -7.9348535    64.398561  0.014310791  0.013595261           98 
  376000   0.67301654   -7.9266502     64.19626  0.014227895  0.013543784          155 
  377000    0.6668537     -7.96065    64.291038  0.014211105  0.013492397          112 
  378000   0.65319178   -7.9306103    64.315784  0.014178965  0.013441315           76 
  379000   0.67553415   -7.9627871    64.323977  0.014143355  0.013390362          133 
  380000   0.66104347   -7.9556216    64.382312  0.014118928  0.013339614          220 
  381000   0.67021669   -7.9351015    64.299249  0.014063703  0.013289335          159 
  382000   0.65418835    -7.965217    64.213509  0.014008183  0.013239211          100 
  383000   0.65551956   -7.9725091    64.500314  0.014034011  0.013189279          125 
  384000   0.65591483   -7.9541864    64.310743  0.013956324    0.0131396          240 
  385000   0.63788555   -7.9654357    64.221471  0.013900751  0.013090173          100 
  386000   0.65372363   -7.9847234    64.305086  0.013882791   0.01304075          155 
  387000   0.64129413   -7.9851882    64.269865  0.013839334  0.012991631          141 
  388000   0.64919077   -8.0030054    64.320851  0.013814616  0.012942657          146 
  389000    0.6409749   -7.9880683     64.38873  0.013793644  0.012893956          150 
  390000   0.65618562    -7.988675    64.326101  0.013744893  0.012845381          130 
  391000   0.64289862   -7.9995951    64.391741   0.01372373  0.012797272          424 
  392000   0.63817113   -7.9978885    64.287316  0.013666521  0.012749222          207 
  393000   0.63276184   -8.0116198    64.218336   0.01361712  0.012701432          218 
  394000   0.63248087   -7.9954233    64.316176  0.013603252  0.012653866          340 
  395000   0.63831225    -8.009798    64.232117  0.013551079  0.012606545          234 
  396000    0.6428904   -8.0206205    64.181385  0.013506184  0.012559344          160 
  397000   0.63523083   -8.0292522    64.241639  0.013484811  0.012512301          366 
  398000    0.6162287   -8.0375679    64.217153  0.013445802  0.012465411          309 
  399000   0.62222258   -8.0137727    64.316694  0.013432894  0.012418985          182 
  400000   0.62141725   -8.0582035    64.212084  0.013377517   0.01237262          157 
  401000   0.61669572   -8.0407303     64.02402  0.013305075  0.012326251          326 
  402000   0.62260034   -8.0441991    64.218491  0.013312291  0.012280057          216 
  403000   0.63037399   -8.0404291    64.104157  0.013255616  0.012234153          415 
  404000   0.62008691   -8.0459481    64.287858  0.013260697  0.012188591          260 
  405000   0.61597083   -8.0672019    64.248175  0.013219789  0.012143116          171 
  406000   0.61586133   -8.0784634     64.13567  0.013164136  0.012097991          221 
  407000   0.61081396   -8.0536414    64.280297  0.013161404  0.012052935          168 
  408000   0.60862337   -8.0560988    64.207322  0.013114241  0.012008158          215 
  409000   0.62718801   -8.0408509    64.170957  0.013074767  0.011963634          461 
  410000   0.60526537   -8.0769073    64.135637  0.013035699   0.01191924          212 
  411000     0.611328   -8.0750124    64.089766  0.012994681  0.011875038          327 
  412000   0.60069671    -8.081838    64.105644  0.012966352  0.011831019          238 
  413000   0.62891128   -8.0814861    64.223881  0.012958814  0.011787312          234 
  414000   0.60772825   -8.0707216    64.124259   0.01290746  0.011743694          391 
  415000   0.59774642   -8.0721478    64.142925  0.012880105  0.011700325          173 
  416000   0.62112629   -8.0832625     64.10035  0.012840615  0.011657134          184 
  417000   0.59463763   -8.0852557    64.160988   0.01282194  0.011614081          455 
  418000   0.60631066   -8.0893016    64.113321  0.012781762   0.01157108          170 
  419000   0.61714895   -8.1213239    64.057352  0.012740126  0.011528381          260 
  420000   0.59565211   -8.0919832    64.125826  0.012723378  0.011485919          160 
  421000    0.5882216   -8.1043352    64.132055  0.012694389  0.011443681          359 
  422000   0.59137328   -8.1204867    64.107571  0.012659473   0.01140152          493 
  423000   0.58813273   -8.1009945    64.110857  0.012630193  0.011359567          426 
  424000   0.60226965    -8.107303     64.12338  0.012602866  0.011317858          465 
  425000   0.58547991   -8.1311505    64.043013  0.012557453  0.011276242          278 
  426000   0.59303368   -8.1169166    64.039842  0.012527356  0.011234802          183 
  427000    0.5863487   -8.1377677    64.036704  0.012497405  0.011193499          145 
  428000   0.56682998    -8.119546    63.884908   0.01243865  0.011152361          150 
  429000   0.58654222   -8.1417003    63.941298   0.01242061  0.011111429          221 
  430000   0.57693986   -8.1391137    63.899122  0.012383551   0.01107059          464 
  431000   0.57395021    -8.129822    63.945187  0.012363725  0.011029993          330 
  432000   0.57484936   -8.1374675    64.017457  0.012349046  0.010989594          210 
  433000   0.57549364   -8.1131884    64.041114   0.01232508  0.010949434          181 
  434000   0.58596424   -8.1572871    63.971228  0.012283262  0.010909379          150 
  435000    0.5827504   -8.1435474    63.934556  0.012247999  0.010869485          198 
  436000   0.55745184   -8.1573686    63.919245  0.012216981  0.010829728          225 
  437000   0.57567348   -8.1585925    63.933748   0.01219179  0.010790229          386 
  438000   0.57743214   -8.1376535     63.88443  0.012154572  0.010750818          399 
  439000   0.55356133   -8.1528616    63.899984  0.012129838  0.010711658          445 
  440000   0.56175994   -8.1696128    63.853936  0.012093549  0.010672665          437 
  441000   0.55032671    -8.173514    63.841237  0.012063726  0.010633789          412 
  442000   0.56404051   -8.1746172    63.895083  0.012046584  0.010595133          198 
  443000   0.54511106   -8.1610313    63.881178  0.012016775  0.010556665          192 
  444000   0.55987233   -8.1719237    63.830564  0.011980211  0.010518368          251 
  445000   0.55821017   -8.1672196    63.777432  0.011943339  0.010480111          223 
  446000   0.55399688   -8.1685904    63.879216  0.011935578  0.010442013          465 
  447000   0.56010569    -8.178299    63.780171  0.011890412  0.010404083          407 
  448000   0.55810071   -8.2043244    63.812668  0.011869916  0.010366303          217 
  449000   0.54568351   -8.1988576     63.76076  0.011833846  0.010328691          441 
  450000   0.55329098   -8.1889252    63.766336  0.011808581  0.010291338          560 
  451000   0.53955953   -8.1862636     63.69244  0.011768744  0.010254058          532 
  452000   0.53217087    -8.180448    63.689917  0.011742241  0.010217042          434 
  453000   0.54853508   -8.2039997    63.760814  0.011729362  0.010180203          454 
  454000   0.54699709   -8.1966925    63.730538  0.011697969  0.010143484          424 
  455000     0.538259   -8.1958528    63.773782   0.01168018  0.010106944          470 
  456000   0.54114188   -8.2099755     63.65546  0.011632942  0.010070605          354 
  457000   0.53404004   -8.1960129    63.774176  0.011629135  0.010034422          490 
  458000   0.54074306   -8.2176684    63.736747  0.011596934 0.0099983244          503 
  459000   0.53387688    -8.221738     63.71754  0.011568181 0.0099623971          428 
  460000   0.52367136   -8.2134115    63.640704  0.011529113 0.0099266731          331 
  461000   0.53071312   -8.2142243    63.745077  0.011522971 0.0098911192          518 
  462000   0.53764719    -8.230478    63.547151  0.011462329 0.0098556696          273 
  463000   0.54831137   -8.2213384    63.598192  0.011446759  0.009820383          198 
  464000   0.51792526   -8.2361465    63.526559  0.011409224 0.0097852109          454 
  465000   0.53075403   -8.2364069    63.572771   0.01139297  0.009750247          493 
  466000   0.52198788   -8.2526928    63.604781  0.011374246 0.0097153713          481 
  467000   0.53134192   -8.2242841    63.501794  0.011331512 0.0096807529          412 
  468000   0.51197719   -8.2278511    63.626873  0.011329571  0.009646205          559 
  469000   0.51637553   -8.2684597    63.590637  0.011298976  0.009611827          303 
  470000   0.50861096   -8.2448335    63.521165  0.011262618 0.0095775841          464 
  471000   0.51948486   -8.2488741    63.551807  0.011244127 0.0095434958          602 
  472000   0.52187055   -8.2692761    63.610578  0.011230681 0.0095095797          491 
  473000   0.52169087    -8.253342    63.461397  0.011180655 0.0094757769          283 
  474000    0.5132952   -8.2543229     63.48566  0.011161333 0.0094421807          351 
  475000   0.50667326   -8.2593378    63.419428  0.011126215 0.0094086711          570 
  476000   0.50743865   -8.2650219    63.560998  0.011127626 0.0093753079          556 
  477000    0.5096215   -8.2563661     63.62048  0.011114689 0.0093421707          509 
  478000   0.50471575    -8.272688    63.589178  0.011085979 0.0093092023          336 
  479000   0.49502189   -8.2710102    63.546165  0.011055352 0.0092763588          391 
  480000   0.49633588   -8.2701565     63.51314  0.011026587 0.0092437159          567 
  481000   0.49440589   -8.2676882    63.462595  0.010994906 0.0092111397          478 
  482000   0.50266565   -8.2750937    63.528703  0.010983524 0.0091787111          481 
  483000   0.49689103   -8.2836704    63.528468  0.010960743 0.0091464303          563 
  484000    0.4968937   -8.2892159    63.470157  0.010928057  0.009114296          370 
  485000   0.49381905   -8.2885754     63.37457  0.010889101 0.0090822935          436 
  486000   0.48349858   -8.2974247    63.552859  0.010897267 0.0090504395          514 
  487000   0.50108149   -8.3334743    63.459993  0.010858999 0.0090187881          477 
  488000   0.49049345   -8.3021607    63.437115  0.010832841 0.0089872442          551 
  489000   0.48448589   -8.2990031    63.368052  0.010798918 0.0089558913          531 
  490000   0.48504482   -8.3088216    63.345159  0.010772986 0.0089246231          550 
  491000   0.48490721   -8.3062412    63.360023  0.010753568 0.0088934382          512 
  492000    0.4829525   -8.3269003    63.408792  0.010739971 0.0088624118          292 
  493000   0.47859124   -8.3199356    63.402394  0.010717105 0.0088315515          574 
  494000   0.47343169   -8.3154057    63.363771  0.010688895 0.0088008095          629 
  495000   0.48316226    -8.336677    63.326619  0.010661047 0.0087702423          343 
  496000   0.48052856   -8.3263996    63.344617  0.010642577  0.008739771          291 
  497000   0.47966328   -8.3193306    63.428929    0.0106353 0.0087094683          353 
  498000   0.47879921    -8.334486    63.395775  0.010608396 0.0086793067          347 
  499000    0.4813525   -8.3316622    63.339916  0.010577808 0.0086493004          634 
  500000   0.47679633   -8.3409646    63.366001     0.010561 0.0086194074          528 
  501000   0.45992341   -8.3318343    63.346883   0.01053674 0.0085896139          289 
  502000   0.46315984   -8.3396004    63.312219  0.010509997 0.0085599698          366 
  503000   0.47423521   -8.3297987    63.240063  0.010477148 0.0085304756          444 
  504000   0.46198696   -8.3339573    63.295504  0.010465527 0.0085010945          600 
  505000   0.45998468   -8.3539999    63.321199  0.010449043 0.0084718433          607 
  506000    0.4718438   -8.3457491    63.324946   0.01042901 0.0084427611          616 
  507000   0.44736363   -8.3469321    63.245549  0.010395389 0.0084137576          351 
  508000   0.45729398   -8.3376469    63.270451  0.010379011 0.0083848969          289 
  509000   0.45238292   -8.3622473    63.328583  0.010368137 0.0083560895          554 
  510000    0.4476573   -8.3571424    63.277534  0.010339466 0.0083274976          402 
  511000   0.45542263   -8.3651741    63.310908  0.010324675 0.0082990123          653 
  512000   0.45047227   -8.3713232    63.258018  0.010295901 0.0082706607          607 
Loop time of 1325.51 on 48 procs for 500000 steps with 4000 atoms

Performance: 65182.651 tau/day, 377.214 timesteps/s
99.4% CPU use with 48 MPI tasks x no OpenMP threads

MPI task timing breakdown:
Section |  min time  |  avg time  |  max time  |%varavg| %total
---------------------------------------------------------------
Pair    | 91.677     | 100.92     | 107.66     |  36.1 |  7.61
Neigh   | 9.2474     | 9.5796     | 9.921      |   5.5 |  0.72
Comm    | 82.389     | 89.008     | 98.275     |  38.3 |  6.72
Output  | 1.0776     | 1.0784     | 1.1076     |   0.4 |  0.08
Modify  | 1106.8     | 1112.5     | 1117.5     |   6.1 | 83.93
Other   |            | 12.46      |            |       |  0.94

Nlocal:        83.3333 ave          90 max          78 min
Histogram: 1 5 8 7 6 11 5 1 1 3
Nghost:        2418.29 ave        2453 max        2397 min
Histogram: 2 5 8 11 8 10 3 0 0 1
Neighs:        16809.0 ave       19214 max       14504 min
Histogram: 4 1 9 6 6 3 9 3 4 3
FullNghs:      33620.1 ave       36524 max       31474 min
Histogram: 1 5 9 11 7 5 5 2 1 2

Total # of neighbors = 1613765
Ave neighs/atom = 403.44125
Neighbor list builds = 26642
Dangerous builds = 0

#clear
#
#next RN
#
#jump SELF
Total wall time: 0:22:09
