
units lj                  # Use reduced LJ style units
atom_style atomic         # Uncharged point particles
atom_modify map hash      # Needed for indexing of clusters etc
                          # Used to be able to find where atoms are in relation to each other.

lattice fcc 1.0 spacing 1 1 1
Lattice spacing in x,y,z = 1.5874011 1.5874011 1.5874011
region box block 0 10 0 10 0 10 units lattice
create_box 2 box
Created orthogonal box = (0.0000000 0.0000000 0.0000000) to (15.874011 15.874011 15.874011)
  3 by 4 by 4 MPI processor grid
create_atoms 1 box
Created 4000 atoms
  using lattice units in orthogonal box = (0.0000000 0.0000000 0.0000000) to (15.874011 15.874011 15.874011)
  create_atoms CPU = 0.002 seconds
set type 1 type/fraction 2 0.99 78393
Setting atom values ...
  3965 settings made for type/fraction
mass 1 1.0
mass 2 1.0
pair_style lj/cut  3.5
pair_modify tail  yes
pair_coeff 1  1  1.0  1.0   # Intearaction between 1 and 1 set with epsilon = 1 and sigma = 1
pair_coeff 1  2  1.5  0.8
pair_coeff 2  2  0.5  0.88

write_data data.0
System init for write_data ...
Neighbor list info ...
  update every 1 steps, delay 10 steps, check yes
  max neighbors/atom: 2000, page size: 100000
  master list distance cutoff = 3.8
  ghost atom cutoff = 3.8
  binsize = 1.9, bins = 9 9 9
  1 neighbor lists, perpetual/occasional/extra = 1 0 0
  (1) pair lj/cut, perpetual
      attributes: half, newton on
      pair build: half/bin/atomonly/newton
      stencil: half/bin/3d
      bin: standard
WARNING: Not all mixed pair coeffs generated from mixing. Use write_data with 'pair ij' option to store all pair coeffs. (../write_data.cpp:312)


#############################
#   M E L T   S Y S T E M   #
#############################

velocity all create 2.4 9622624 mom yes dist gaussian # Assign velocities
                                                    # Temperature 2.4, random number seed, zero linear momentum
                                                                                # Gaussian distribution

timestep 0.002   # simulation timestep
thermo 1000       # output thermodynamic data every 1000 steps bf 100

# Define a fix  in this case with index 1 applied to all
# particles in the simulation. This fix is for simulations
# in the anisotropic NPT ensemble. Note that we use the MTK
# correction.
fix 1 all npt temp 2.4 2.4 0.1 iso 5.68 5.68 0.5 mtk yes tchain 5 pchain 5 # Use NPT ensemble
                                                                         # Set temperature and pressure and damping
                                                                         # Numbers of thermostats in chain and in barostat
run 10000          # run for 10000 steps
Per MPI rank memory allocation (min/avg/max) = 3.642 | 3.644 | 3.648 Mbytes
Step Temp E_pair E_mol TotEng Press Volume 
       0          2.4   -2.7429598            0   0.85614022   -1.7792645         4000 
    1000    2.3340546   -1.4902747            0    2.0099319    5.6122739    4251.6672 
    2000    2.3867721   -1.4627673            0    2.1164959    5.9882972     4211.742 
    3000    2.4054569   -1.5074244            0    2.0998589    5.6879098    4234.3353 
    4000    2.3890769   -1.4817095            0      2.10101    5.8005877    4230.1661 
    5000    2.3966017    -1.503938            0    2.0900657    5.7435448    4214.4412 
    6000    2.4237492   -1.4906759            0     2.144039    5.7947721     4230.348 
    7000    2.3550107   -1.5009416            0    2.0306913    5.6614904    4232.1213 
    8000    2.3825398   -1.5208693            0     2.052047    5.4345392    4270.3297 
    9000    2.4228378   -1.4850215            0    2.1483267    5.8769876    4217.8592 
   10000    2.3948679   -1.4857103            0    2.1056934    5.8170994    4227.3682 
Loop time of 2.38031 on 48 procs for 10000 steps with 4000 atoms

Performance: 725955.041 tau/day, 4201.129 timesteps/s
99.6% CPU use with 48 MPI tasks x no OpenMP threads

MPI task timing breakdown:
Section |  min time  |  avg time  |  max time  |%varavg| %total
---------------------------------------------------------------
Pair    | 1.0111     | 1.0864     | 1.1481     |   2.8 | 45.64
Neigh   | 0.20438    | 0.20982    | 0.21852    |   0.7 |  8.81
Comm    | 0.74168    | 0.80846    | 0.88461    |   3.4 | 33.96
Output  | 0.00023956 | 0.00024466 | 0.00031198 |   0.0 |  0.01
Modify  | 0.23771    | 0.26083    | 0.27999    |   2.0 | 10.96
Other   |            | 0.01458    |            |       |  0.61

Nlocal:        83.3333 ave          91 max          72 min
Histogram: 3 2 2 2 5 8 9 7 6 4
Nghost:        1580.67 ave        1605 max        1557 min
Histogram: 2 5 3 6 8 8 6 6 1 3
Neighs:        9025.08 ave       10195 max        7231 min
Histogram: 3 1 1 1 4 9 14 5 7 3

Total # of neighbors = 433204
Ave neighs/atom = 108.30100
Neighbor list builds = 912
Dangerous builds = 259

# Equilibrate just above the melting temperature to avoid step fn in T

fix 1 all npt temp 1.25 1.25 0.1 iso 5.68 5.68 0.5 mtk yes tchain 5 pchain 5
run 2000
Per MPI rank memory allocation (min/avg/max) = 3.643 | 3.645 | 3.649 Mbytes
Step Temp E_pair E_mol TotEng Press Volume 
   10000    2.3948679   -1.4857103            0    2.1056934    5.8170994    4227.3682 
   11000    1.2665846   -2.3218813            0  -0.42247938    5.6805672    3318.9181 
   12000    1.2192026    -2.320892            0   -0.4925452    5.4984336    3331.0931 
Loop time of 0.601346 on 48 procs for 2000 steps with 4000 atoms

Performance: 574710.773 tau/day, 3325.873 timesteps/s
99.5% CPU use with 48 MPI tasks x no OpenMP threads

MPI task timing breakdown:
Section |  min time  |  avg time  |  max time  |%varavg| %total
---------------------------------------------------------------
Pair    | 0.24413    | 0.27236    | 0.29302    |   2.2 | 45.29
Neigh   | 0.036675   | 0.039407   | 0.041344   |   0.6 |  6.55
Comm    | 0.18393    | 0.21519    | 0.27136    |   5.1 | 35.78
Output  | 5.1625e-05 | 5.3076e-05 | 6.4803e-05 |   0.0 |  0.01
Modify  | 0.04325    | 0.069685   | 0.081296   |   5.7 | 11.59
Other   |            | 0.004656   |            |       |  0.77

Nlocal:        83.3333 ave          91 max          74 min
Histogram: 1 4 3 2 9 10 5 8 3 3
Nghost:        1859.62 ave        1875 max        1839 min
Histogram: 2 1 4 6 1 11 10 6 3 4
Neighs:        11470.3 ave       12937 max        9552 min
Histogram: 1 3 1 4 8 12 4 9 4 2

Total # of neighbors = 550574
Ave neighs/atom = 137.64350
Neighbor list builds = 142
Dangerous builds = 11

#############################
# L I N E A R  Q U E N C H  #
#############################

# Define solid atoms. This closely follows ten Wolde  Ruiz-Montero and Frenkel  Faraday Discuss  1996  104  93-110
# Compute components of the per-atom q6 vector
compute q6 all orientorder/atom degrees 1 6 components 6 nnn NULL cutoff 1.3 # compute the Q6 parameter.
                                                                             # Use all neighbours within 1.3 unit cell.

# get number of connections
compute coord_number all coord/atom orientorder q6 0.5

# An atom is solid if it has 8 or more connections (of a possible 14)
variable is_solid atom c_coord_number>=8
group solid dynamic all var is_solid    # Must be dynamic to update
dynamic group solid defined

# do clustering
compute cluster solid cluster/atom 1.3 # Create a cluster where all atoms within are solid and max 1.3 units from another member

# define chunks one chunk per cluster
compute clus_chunks solid chunk/atom c_cluster nchunk every compress yes  # Says which atoms are in which chunk

# count the size of each chunk
compute size_chunks solid property/chunk clus_chunks count


# Find the maximum entry in the vector of chunk sizes
variable max_n equal max(c_size_chunks)


# Thermo style which includes this variable
# thermo_style custom step temp pe vol v_max_n

thermo ${N}  # Print the thermo information every 100 steps
thermo 1000  

# Reset the npt fix at a lower temperature (below freezing)
fix 1  all npt temp  ${temp} ${temp}  0.1  iso  5.68  5.68  0.5  mtk yes tchain  5  pchain  5
fix 1  all npt temp  0.45 ${temp}  0.1  iso  5.68  5.68  0.5  mtk yes tchain  5  pchain  5
fix 1  all npt temp  0.45 0.45  0.1  iso  5.68  5.68  0.5  mtk yes tchain  5  pchain  5

dump dmp2 all dcd ${N} traj.dcd
dump dmp2 all dcd 1000 traj.dcd


compute msd all msd com yes
variable twopoint equal c_msd[4]/6/(step*dt+1.0e-6)
fix 9 all vector 10 c_msd[4]
variable fit equal slope(f_9)/6/(10*dt)
thermo_style custom step temp pe c_msd[4] v_twopoint v_fit v_max_n

fix 1 all npt temp 1.25 ${temp} 0.1 iso 5.68 5.68 0.5 mtk yes tchain 5 pchain 5
fix 1 all npt temp 1.25 0.45 0.1 iso 5.68 5.68 0.5 mtk yes tchain 5 pchain 5
run 2000000 # 5000000  # Run for this many steps
Neighbor list info ...
  update every 1 steps, delay 10 steps, check yes
  max neighbors/atom: 2000, page size: 100000
  master list distance cutoff = 3.8
  ghost atom cutoff = 3.8
  binsize = 1.9, bins = 8 8 8
  4 neighbor lists, perpetual/occasional/extra = 1 3 0
  (1) pair lj/cut, perpetual
      attributes: half, newton on
      pair build: half/bin/atomonly/newton
      stencil: half/bin/3d
      bin: standard
  (2) compute orientorder/atom, occasional
      attributes: full, newton on
      pair build: full/bin/atomonly
      stencil: full/bin/3d
      bin: standard
  (3) compute coord/atom, occasional
      attributes: full, newton on
      pair build: full/bin/atomonly
      stencil: full/bin/3d
      bin: standard
  (4) compute cluster/atom, occasional
      attributes: full, newton on
      pair build: full/bin/atomonly
      stencil: full/bin/3d
      bin: standard
Per MPI rank memory allocation (min/avg/max) = 9.811 | 9.817 | 9.823 Mbytes
Step Temp PotEng c_msd[4] v_twopoint v_fit v_max_n 
   12000    1.2192026    -2.320892 3.165896e-30 2.1985388e-32 8.3333333e+20            2 
   13000    1.2627439    -2.350156    1.2021955 0.0077063809   0.10341173            2 
   14000    1.2416818   -2.3067785    2.4872339  0.014804963   0.10564159            2 
   15000     1.258704   -2.3374818    3.8162665   0.02120148   0.10744405            1 
   16000    1.2617087   -2.3227906    5.1291076  0.026714101   0.10763155       -1e+20 
   17000     1.239042   -2.3320151    6.3290039  0.031024528   0.10778191            1 
   18000    1.2344915   -2.3380614    7.5862998  0.035121757   0.10680316            1 
   19000    1.2552835    -2.337515    8.9290267  0.039162397   0.10677589            2 
   20000    1.2402851   -2.3186392    10.115102  0.042146258   0.10647659            1 
   21000    1.2545566   -2.3425424    11.508768  0.045669714   0.10646436            1 
   22000    1.2399205   -2.3349983    12.933786  0.048991611    0.1070351            1 
   23000    1.2446046   -2.2860302    14.500707  0.052538793   0.10821304            2 
   24000    1.2406037   -2.3285953     15.81849  0.054925312    0.1093523            2 
   25000    1.2270327   -2.3366356     17.11321  0.057044032    0.1099928            1 
   26000    1.2492423   -2.3354432     18.69236  0.059911409   0.11070207            1 
   27000    1.2814692   -2.3289721    20.060748  0.061915887   0.11138811            2 
   28000    1.2300428   -2.3381859    21.323376  0.063462428    0.1118821            1 
   29000    1.2814203   -2.2936254    22.464789  0.064553989   0.11196931            3 
   30000     1.256203   -2.3420835    23.891737  0.066365936   0.11197069            3 
   31000    1.2403396   -2.3364444    25.349713  0.068144389   0.11208948            2 
   32000    1.2559345   -2.3404853    26.737102  0.069627869   0.11219058            3 
   33000    1.2392945    -2.334973    28.011293  0.070735587   0.11227622            1 
   34000    1.2519867   -2.3408634    29.146518  0.071437542   0.11219522            2 
   35000    1.2224853   -2.3273459    30.335042  0.072226289   0.11202669            1 
   36000    1.2463592   -2.3062706    31.750719  0.073497034   0.11190963            1 
   37000    1.2391914   -2.3452408     32.88062  0.074055449   0.11170119            3 
   38000    1.2311874   -2.3404913    34.171557  0.074937623   0.11147952            1 
   39000    1.2327943   -2.3609736    35.217045  0.075250095   0.11108101            2 
   40000    1.2297379   -2.3696747    36.647052  0.076348025   0.11074873            2 
   41000    1.2302671   -2.3241563    38.159202  0.077559352   0.11058349            1 
   42000    1.2424814   -2.3213726    39.547533  0.078467326   0.11043207            2 
   43000     1.238941   -2.3005407    40.568061  0.078620272   0.11030861            1 
   44000    1.2421563   -2.2821435    42.334654  0.080179267   0.11021223            1 
   45000    1.2330626   -2.3648311     43.50014  0.080555815   0.11014634            1 
   46000    1.2465477   -2.3326585    44.939241  0.081411668   0.11024061            1 
   47000    1.2500444   -2.3202485    46.291031  0.082076295   0.11032652            2 
   48000    1.2534833   -2.3388878    47.793117  0.082974161   0.11041363            1 
   49000    1.2320208   -2.3183099    49.198585  0.083671062   0.11050089            2 
   50000    1.2377958   -2.3254895    50.544301  0.084240501   0.11065216            1 
   51000    1.2342806   -2.3284613    52.440147  0.085686514   0.11085087            2 
   52000    1.2236892   -2.3421565    53.685071  0.086033766   0.11108147            1 
   53000    1.2248882   -2.3371536    54.609605  0.085864158   0.11119691            4 
   54000    1.2706419   -2.3083274    56.112471  0.086593319   0.11130011            1 
   55000    1.2432117   -2.3267186    57.106135  0.086524446   0.11132958            1 
   56000    1.2501659   -2.3574634    58.424453   0.08694115   0.11132557            1 
   57000    1.2409817   -2.3289074     59.36118   0.08678535    0.1113034            1 
   58000    1.2235761   -2.3384398    60.891613  0.087487949   0.11122919            2 
   59000     1.225653   -2.3460942    62.242152  0.087912643   0.11110476            2 
   60000    1.2231706    -2.355574    62.912135  0.087377965   0.11101379            1 
   61000    1.2312028   -2.3562158    64.311442   0.08785716   0.11091541            1 
   62000    1.2013063   -2.3510775    65.515027  0.088057831   0.11077399            1 
   63000    1.2295947   -2.3312033    66.874496  0.088458328   0.11064271            1 
   64000     1.246564   -2.3582359    68.010294  0.088555069   0.11052287            2 
   65000    1.2124209   -2.3358034    69.585295  0.089211915   0.11039533            2 
   66000    1.2368806   -2.3364824    71.418081  0.090174344   0.11035012            2 
   67000    1.2324119   -2.3418348    72.856516  0.090617557   0.11032108            1 
   68000    1.2103753   -2.3252741    74.060441  0.090760344    0.1103397            2 
   69000    1.2318342   -2.3226413    75.397751  0.091060085   0.11037283            1 
   70000    1.2245516   -2.3308677    77.017212  0.091687156   0.11042796            2 
   71000    1.2117133   -2.3514101    78.126302  0.091697537   0.11045777            1 
   72000    1.2003953   -2.3425491    79.135554  0.091592076   0.11045346            1 
   73000    1.2124011   -2.3669373    80.371158  0.091747897   0.11040254            3 
   74000    1.2023646   -2.3308531    82.134635  0.092493958   0.11036978            1 
   75000    1.2043044   -2.3152729    82.634298  0.091815886   0.11029245            1 
   76000    1.2505904   -2.3534707     84.02094  0.092128223   0.11020706            1 
   77000    1.2142265   -2.3569308    85.390844  0.092414333   0.11014825            3 
   78000    1.2083224   -2.3687309     86.93738  0.092881816   0.11008989            1 
   79000     1.223649   -2.3371117    88.583444   0.09344245   0.11007561            1 
   80000    1.2347815   -2.3515398    89.655976  0.093391641   0.11007518            1 
   81000    1.2416854   -2.3469542     91.14739  0.093773034   0.11009969            1 
   82000    1.2341073   -2.3556284    93.284926  0.094801753   0.11015906            1 
   83000     1.219625   -2.3592481     93.71038  0.094086727   0.11017798            2 
   84000    1.2277682   -2.3781662    95.446402   0.09468889   0.11020529            1 
   85000    1.2149689   -2.3804912    96.646403  0.094751375   0.11022212            2 
   86000    1.2464908   -2.3212301    98.030162  0.094990466   0.11022786            1 
   87000     1.204412   -2.3505284    99.191102  0.095010634   0.11023476       -1e+20 
   88000    1.2106655   -2.3546666    100.22421  0.094909286   0.11021898            3 
   89000    1.2169494   -2.3296375     101.3428  0.094890263   0.11020683            1 
   90000    1.2137215   -2.3555521    102.42462  0.094837608   0.11016964            4 
   91000     1.198435   -2.3282299    103.69479  0.094958594   0.11011169            1 
   92000    1.2367728   -2.3532745    104.71034  0.094846318   0.11004812            1 
   93000    1.2346579   -2.3661102    105.89405  0.094887144   0.10999003            1 
   94000    1.2085995   -2.3301312    107.80459  0.095571448   0.10993893            2 
   95000     1.222695   -2.3451489    108.70346  0.095353913   0.10988546            2 
   96000    1.2371635   -2.3536902    110.03546  0.095516889   0.10981929            1 
   97000    1.2121902    -2.389972    111.00326  0.095363626   0.10975262            1 
   98000    1.2162341   -2.3358711    112.26289  0.095461642   0.10968844            4 
   99000    1.2134898   -2.3724988    113.65646   0.09567042   0.10963054            2 
  100000    1.2400031   -2.3379514    115.05152  0.095876265   0.10957852            1 
  101000    1.1938195   -2.3759917     117.0432    0.0965703   0.10954099            1 
  102000    1.2025261   -2.3453883    117.90532  0.096327873   0.10951793            1 
  103000    1.2386439   -2.3514586    119.43643  0.096631415   0.10949674            1 
  104000    1.2108054   -2.3548499    120.90984  0.096882887    0.1094803            1 
  105000    1.2221684   -2.3512939    122.21992  0.096999935   0.10946362            2 
  106000    1.1960508   -2.3748594     123.2956  0.096930505   0.10945575            1 
  107000    1.1840183   -2.3634061    125.24098  0.097539707   0.10944613            1 
  108000    1.1956564   -2.3459964    126.46248  0.097579076   0.10945415            2 
  109000    1.2225107   -2.3558734    127.72574  0.097649647   0.10944558            2 
  110000    1.2137034   -2.3333676    128.67588  0.097481728   0.10944752            1 
  111000    1.2101428   -2.3649369    129.79707   0.09744525   0.10944611            1 
  112000    1.1869929   -2.3468149    131.43335  0.097792673   0.10943619            1 
  113000    1.2112031   -2.3670089    133.41818  0.098390991   0.10944224            1 
  114000    1.2302628   -2.3703805    133.53045  0.097609978   0.10945094            2 
  115000    1.2019643   -2.3692819    134.77715  0.097664604   0.10944197            1 
  116000    1.2197462    -2.340243    136.34828  0.097951352   0.10942307            2 
  117000    1.2075512   -2.3468524    138.06427  0.098336372   0.10940305            3 
  118000    1.2100441   -2.3463451     139.0236  0.098180506   0.10938726            1 
  119000    1.2055523   -2.3088114    140.06725  0.098086308   0.10935908            1 
  120000      1.21873   -2.3751279     141.3546  0.098162913   0.10931833            1 
  121000    1.1804421   -2.3608155    142.75339  0.098315008   0.10928138            1 
  122000    1.2024203   -2.3596786    142.15751  0.097102125   0.10924195            2 
  123000     1.181152   -2.3766857     143.7658  0.097402301   0.10918301            2 
  124000    1.2320835   -2.3745438    145.15778   0.09755227   0.10911807            2 
  125000    1.2025779   -2.3376673    146.12344  0.097415628   0.10905337            3 
  126000    1.1889169   -2.3916688    147.72853  0.097704053   0.10899243            1 
  127000    1.1894909   -2.3625538    149.64545  0.098192553   0.10893514            1 
  128000    1.2105948   -2.3660931    150.53707  0.098005903   0.10888334            2 
  129000    1.2178223   -2.3823136    152.13879  0.098280874   0.10883133            2 
  130000    1.1810511   -2.3528906    153.61948  0.098474025   0.10879809            1 
  131000    1.1944324   -2.3668947    155.13459  0.098686127   0.10876408            2 
  132000    1.1891975   -2.3863488    156.52734  0.098817767   0.10872556            1 
  133000    1.2110126    -2.384698    157.85313  0.098905471   0.10868952            1 
  134000    1.2080707   -2.3662767    158.16729  0.098362742   0.10864851            2 
  135000    1.1989146   -2.3860049    160.18082  0.098877047   0.10861893            1 
  136000    1.2027677   -2.3415981    162.50555  0.099574478   0.10859264            1 
  137000    1.1813246   -2.3706788    162.44653  0.098811756   0.10856167            2 
  138000    1.2367186   -2.3542212    163.70087  0.098853185   0.10853105            1 
  139000    1.2105375   -2.3445485    166.00476  0.099523236   0.10850276            1 
  140000    1.2210196   -2.4026415    165.81368   0.09869862   0.10846817            4 
  141000    1.1963495   -2.3753829    167.32769  0.098893434   0.10843679            1 
  142000    1.1729408   -2.3671034     169.1213  0.099249586   0.10841321            1 
  143000    1.1980453   -2.3426589    170.03818  0.099089847   0.10838033            1 
  144000    1.1812796   -2.3587975    171.49061  0.099242249    0.1083504            2 
  145000    1.2163037   -2.3709102    172.41798  0.099090795   0.10831634            1 
  146000     1.194489   -2.3592656    173.60703  0.099090771   0.10827886            1 
  147000    1.2265687   -2.3461412    175.01436  0.099214488    0.1082488            1 
  148000     1.187225   -2.3379743    175.25198  0.098677916   0.10820833            2 
  149000    1.1961003     -2.32318     176.8914  0.098932551   0.10816947            2 
  150000    1.1963544   -2.3508897    178.16069  0.098978163   0.10811539            1 
  151000    1.1952096    -2.361447    179.16418  0.098876479    0.1080762            1 
  152000    1.1823525   -2.3720207    181.64759  0.099587497   0.10804222       -1e+20 
  153000    1.2139646   -2.3844055    181.75217  0.098993557   0.10800193            1 
  154000    1.1970727   -2.3823684    183.00123  0.099026642   0.10795176            2 
  155000    1.2001099   -2.3903588    184.12681   0.09899291   0.10790145            2 
  156000    1.1978973   -2.3788082    184.87204  0.098756433   0.10785374            2 
  157000    1.2133555   -2.4018326    186.82553  0.099164293   0.10780994            1 
  158000    1.1851062   -2.3869256    188.34496  0.099338057   0.10777502            2 
  159000     1.200291   -2.3560113    188.62961  0.098862477   0.10773436       -1e+20 
  160000    1.1930831   -2.4016587     190.2364  0.099081459   0.10769304            2 
  161000    1.1787443   -2.3550132    192.84401  0.099815739   0.10765822            1 
  162000    1.1739619   -2.3883664    193.79383  0.099688186   0.10763095            1 
  163000    1.1848428   -2.3826424    194.92016  0.099652433   0.10760238            1 
  164000      1.21643    -2.388103    194.99678  0.099083727   0.10757613            1 
  165000    1.2003205   -2.3664964     197.0102  0.099500102   0.10755071            2 
  166000    1.2126246   -2.4026927    198.20808  0.099502048   0.10752868            3 
  167000    1.1692314   -2.3758406    200.06674  0.099833702   0.10750236            2 
  168000    1.1931067   -2.3671559    200.90915  0.099657318   0.10748139            2 
  169000    1.1802128   -2.3784349    203.71167   0.10044954   0.10746111            1 
  170000    1.1828125   -2.3791613    203.83983  0.099921487   0.10744278            1 
  171000     1.173212   -2.3751522    205.87173   0.10032735   0.10742821            1 
  172000     1.176436   -2.3825946    205.44791  0.099538715   0.10740799            1 
  173000    1.1599352   -2.3732393    207.84566   0.10011833   0.10738188            1 
  174000     1.156855   -2.3973199    208.45956  0.099836956   0.10735848            2 
  175000    1.1752716   -2.3778097    208.60392  0.099335199   0.10732571            2 
  176000     1.197802   -2.4213765    210.99743  0.099904087   0.10728895            2 
  177000    1.1671134   -2.3849628    212.87741   0.10022477   0.10725441            2 
  178000    1.1924559   -2.3620664    213.73383   0.10006265   0.10721953            1 
  179000    1.1720507   -2.3627685    212.92046  0.099124979   0.10718367            2 
  180000     1.195143   -2.4008882    215.33516  0.099692204   0.10714163            1 
  181000    1.1833473   -2.3727899    216.63093  0.099737995   0.10709391            1 
  182000    1.2162922   -2.3949322    217.18398  0.099443215   0.10704851            1 
  183000    1.1926722   -2.4177367    218.81801  0.099643904   0.10701055            1 
  184000    1.1662789    -2.409134    219.15883  0.099256716   0.10696793            1 
  185000    1.1847088   -2.3940749    220.31283  0.099240015   0.10691958            1 
  186000    1.1631385   -2.3855924    222.99291  0.099907217   0.10687467            2 
  187000    1.1745735   -2.3972752    222.83304  0.099301711   0.10682409            1 
  188000    1.1652564    -2.390706    224.92209  0.099699507   0.10677158            1 
  189000    1.1760379   -2.3554587    225.51018  0.099431294   0.10671814            2 
  190000     1.192588   -2.3862994    226.79107  0.099469768   0.10667198            2 
  191000    1.1846913   -2.4061594    227.65644  0.099326544   0.10662477            2 
  192000    1.1688339   -2.3570946    228.73842  0.099278829   0.10658464            3 
  193000    1.2008823   -2.3885167    230.69803  0.099610548   0.10653744            1 
  194000    1.1518523   -2.3982308    230.98992  0.099222475   0.10648431            1 
  195000    1.1699434   -2.3828414    231.45104  0.098910699   0.10642801            1 
  196000    1.1844003   -2.3971108     232.3332  0.098781124   0.10637001            2 
  197000    1.1859016   -2.3854935    233.34668  0.098708409   0.10630622            2 
  198000    1.1755715    -2.383622    234.19827  0.098568295   0.10624642            2 
  199000     1.168794   -2.3587455    235.29214  0.098531047   0.10618067            1 
  200000    1.1827194   -2.3909043     235.7482  0.098228418    0.1061152       -1e+20 
  201000    1.2031676    -2.381883    237.36107  0.098408402   0.10604274            1 
  202000    1.1894861   -2.4203523    239.60159  0.098845542   0.10597007            2 
  203000    1.1844409   -2.4002362    240.01278  0.098527412   0.10589647            1 
  204000    1.1747067   -2.4090996    241.78794  0.098769583   0.10582618            1 
  205000    1.1554235   -2.4082646    243.01569  0.098786865   0.10576498            1 
  206000    1.1957567   -2.4439864    242.28243  0.098010693   0.10570212            2 
  207000    1.1924406   -2.3877178    244.54479  0.098447984   0.10564092            1 
  208000    1.1588781   -2.3843147    246.09513  0.098595805   0.10557639            1 
  209000    1.1730712   -2.3805895    247.20595  0.098566967   0.10550606            1 
  210000    1.1542096   -2.3902666    248.15819  0.098475473   0.10543027            1 
  211000    1.1740892   -2.4026965    248.54388  0.098161089   0.10536187            1 
  212000    1.2148383   -2.3761004    252.11971  0.099103658   0.10529961            2 
  213000    1.1934685   -2.3869494    251.13454  0.098252948   0.10523533            2 
  214000    1.1956093   -2.4065661    251.09043  0.097776645   0.10516641            1 
  215000    1.1708711   -2.4107786     254.3814  0.098597441    0.1050947            1 
  216000    1.1911069   -2.3912791    254.03876  0.098008782   0.10502843            3 
  217000    1.1729977   -2.3945629    257.02222  0.098702851   0.10496803            1 
  218000    1.1726747   -2.4076426    256.68968  0.098122966   0.10490705            2 
  219000    1.1685601    -2.389493    257.43081   0.09795693   0.10484215            1 
  220000    1.1900243   -2.4027998    259.87652  0.098438077   0.10477426            1 
  221000    1.1445444   -2.3866707    258.58083  0.097504084   0.10470445            2 
  222000    1.1601256   -2.3913999     261.4762  0.098151727   0.10463295            3 
  223000    1.1536103   -2.3730823    261.54569  0.097737553   0.10456288            2 
  224000    1.1743714   -2.4105025    264.25826  0.098310365   0.10449267            1 
  225000    1.1971276   -2.4302875    264.16835  0.097840128   0.10442183            1 
  226000    1.1867161   -2.3921066     266.0293  0.098093398   0.10436002            2 
  227000    1.1800131   -2.4240477    266.69313  0.097904965   0.10429873            4 
  228000    1.1514547   -2.4323912    267.46583  0.097757978   0.10423687            1 
  229000    1.1787445   -2.3750163    269.51922  0.098078317   0.10417149            2 
  230000    1.1523511   -2.4028084    270.53124  0.098018565   0.10410857            1 
  231000    1.1526791    -2.411796      272.399  0.098268039   0.10404467            1 
  232000    1.1503109   -2.4173103    271.34114  0.097464489   0.10398475            1 
  233000    1.1866129   -2.3892848    273.86384  0.097948439   0.10392698            1 
  234000     1.163742   -2.4048218    274.46902  0.097745379   0.10387066            1 
  235000    1.1332874   -2.4429641    276.14016  0.097922043   0.10381789            3 
  236000    1.1776478   -2.3989351    278.39305  0.098302632   0.10376814            1 
  237000    1.1367986   -2.4253959    278.29499  0.097853371   0.10371958            1 
  238000    1.1340993   -2.4143157    280.15748  0.098094354   0.10366891            1 
  239000    1.1165005     -2.40633    281.90435   0.09829301   0.10362123            1 
  240000    1.1488569   -2.4109075    282.65262   0.09814327   0.10357861            2 
  241000    1.1496595   -2.4254689    283.67108  0.098088201   0.10352651            2 
  242000    1.1835258   -2.4164738    284.68634  0.098032486   0.10347929            1 
  243000    1.1588758   -2.4151812    285.87412  0.098036393   0.10343236            2 
  244000    1.1235975   -2.4153554     288.5313   0.09854211   0.10338505            2 
  245000    1.1755907   -2.4182886    288.44887   0.09811186   0.10333665            3 
  246000    1.1555465   -2.4246792    290.60669     0.098444   0.10328982            1 
  247000    1.1360783   -2.4264167    290.88004  0.098137665   0.10324489            1 
  248000    1.1378108   -2.4096721    291.35165  0.097900421   0.10320506            3 
  249000    1.1456906   -2.3953166    293.03863  0.098071829   0.10316493            2 
  250000    1.1711374    -2.428997    293.91726  0.097972421   0.10311725            2 
  251000     1.163846    -2.407609    294.16168  0.097663239   0.10307261            2 
  252000    1.1523686   -2.3906377    296.09415  0.097914734   0.10302503            2 
  253000    1.1453569   -2.4131203    297.61785  0.098029595   0.10297782            2 
  254000    1.1224896   -2.3920065    298.04229  0.097782904   0.10292779            4 
  255000    1.1657818   -2.4327838    298.03045  0.097395572   0.10287887            1 
  256000    1.1558614   -2.4250661    300.10362  0.097689981   0.10283416            2 
  257000    1.1323909   -2.3874853    302.69535  0.098150245   0.10279197            3 
  258000    1.1411373   -2.4204297    300.24349  0.096977872   0.10274865            2 
  259000    1.1366704   -2.4087045    303.27644  0.097579292   0.10269939            1 
  260000    1.1780863   -2.4081352    305.37065  0.097875209   0.10265205            2 
  261000    1.1590171   -2.4075242    305.66234   0.09759334   0.10260754            2 
  262000    1.1309515   -2.3877017    308.24698  0.098042932   0.10256095            2 
  263000    1.1339023   -2.4366946    308.98346  0.097903505    0.1025283            5 
  264000    1.1508506   -2.4010218    310.84267  0.098119531   0.10249449            1 
  265000    1.1494736   -2.4335199    313.83057  0.098688858   0.10245945            1 
  266000     1.152147   -2.4320429     313.6716  0.098268046   0.10242752            2 
  267000    1.1714467   -2.4125269    315.80054  0.098564464   0.10239911            1 
  268000    1.1656528   -2.4115431    316.09088  0.098286964    0.1023675            2 
  269000    1.1290086   -2.4309893    316.71607  0.098115263   0.10233298            2 
  270000    1.1659785   -2.4280113    317.54489  0.098007682   0.10229694            1 
  271000    1.1448652   -2.3981468     318.2268   0.09785572   0.10226246            2 
  272000    1.1522237   -2.3927755    320.16459  0.098089643   0.10222239            2 
  273000    1.1306809   -2.4203985    320.93018  0.097964036   0.10218998            1 
  274000    1.1580276   -2.4356332    323.54955  0.098403147   0.10215312            2 
  275000    1.1534405    -2.396842    322.89297  0.097846356    0.1021177            7 
  276000    1.1550346   -2.4004266     325.6104  0.098312318   0.10208231            2 
  277000    1.1678833   -2.4290132    325.56806  0.097944664   0.10204787            2 
  278000    1.1595974   -2.4247924    326.80579  0.097963365   0.10201264            1 
  279000    1.1357757   -2.4453812     328.0372  0.097980048   0.10197754            2 
  280000    1.1498907    -2.401529    329.00172  0.097917178   0.10194248            2 
  281000    1.1473298   -2.4310465    329.44705  0.097700786   0.10190941            1 
  282000    1.1430195   -2.4298067    329.96703  0.097507988   0.10187702            4 
  283000    1.1403291   -2.4411665    332.62296  0.097945512   0.10184406            2 
  284000    1.1347181   -2.4151159    335.85016  0.098547582   0.10180955            1 
  285000    1.1546673   -2.4178786    335.29422  0.098039244   0.10178037            2 
  286000    1.1346009   -2.4045694    337.72211  0.098403877   0.10175514            1 
  287000     1.114803   -2.4155497    338.58991  0.098312982   0.10172429            2 
  288000    1.1256279   -2.4155397    338.08334  0.097825042    0.1016891            2 
  289000    1.1151454   -2.4328321    339.57613  0.097916994   0.10165654            2 
  290000    1.1157937   -2.4418703    338.15752  0.097171702    0.1016227            2 
  291000    1.1366182    -2.444118    341.36763  0.097757052   0.10158914            2 
  292000    1.1439694   -2.4200842    343.02248  0.097894545   0.10155875            3 
  293000    1.1346825   -2.4416991    344.34868  0.097937622   0.10152969            2 
  294000    1.1529573   -2.4123182    347.13767   0.09839503   0.10150121            2 
  295000    1.1294311   -2.4245617     349.4641  0.098718672   0.10147706            2 
  296000    1.1334332   -2.4358494    347.22753  0.097755498   0.10144912            2 
  297000    1.1264275   -2.4492285    347.53814  0.097513507   0.10142253            2 
  298000    1.1375721   -2.4384291     350.3249  0.097965576   0.10139248            2 
  299000    1.1502225   -2.4391878    350.32764  0.097638694    0.1013659            1 
  300000    1.1101341   -2.4390689    351.76484  0.097712456   0.10133222            2 
  301000    1.1259085   -2.4196309    351.69417  0.097368263   0.10129955            1 
  302000    1.1371649   -2.4700575    352.67855  0.097317479   0.10126645            2 
  303000    1.1113607   -2.4458537    355.46328  0.097762179   0.10123519            1 
  304000    1.1331167   -2.4411438    354.92133  0.097292032   0.10120753            1 
  305000      1.13001   -2.4256045    358.81837  0.098037807   0.10117853            3 
  306000    1.1078657   -2.4163096    361.55255  0.098462023   0.10115963            2 
  307000    1.1314938   -2.4349392    362.45911  0.098387381   0.10114355            2 
  308000    1.1368629   -2.4286826    364.30806  0.098568198    0.1011282            1 
  309000    1.1533924   -2.4386457    365.71771  0.098629371   0.10111527            1 
  310000    1.1230724    -2.438936    366.25739  0.098456288   0.10109929            3 
  311000    1.1297516   -2.4311387     367.5099  0.098475321   0.10108174            1 
  312000    1.1431928   -2.4501864    367.59428  0.098182233    0.1010635            1 
  313000    1.1155333   -2.4545885    367.44358  0.097828429   0.10104565            2 
  314000    1.1217285   -2.4479972    370.13941  0.098232328   0.10102825            1 
  315000    1.1300998   -2.4364712    370.96928  0.098140022   0.10101095            2 
  316000    1.1261423   -2.4569171     371.4543  0.097957357   0.10099684            2 
  317000    1.1283794   -2.4554373    372.17679  0.097838273   0.10097686            1 
  318000    1.1222876   -2.4330077     372.4362  0.097598585   0.10095398            3 
  319000    1.1082761   -2.4366506    373.72636  0.097629665   0.10092551            1 
  320000    1.1225645   -2.4440338    374.93481  0.097639273   0.10089976            1 
  321000    1.1097684   -2.4542142    374.80456  0.097301287   0.10087185            3 
  322000    1.1433219   -2.4402771    376.82105  0.097520975   0.10084444            1 
  323000    1.1467512   -2.4438221    376.04117  0.097017845   0.10081769            1 
  324000    1.1106841   -2.4436464    379.85284  0.097698776    0.1007882       -1e+20 
  325000    1.1451437   -2.4233968    380.08673  0.097458136   0.10076226            2 
  326000     1.136678   -2.4527403    381.21359  0.097447237   0.10073542            2 
  327000    1.1224905   -2.4730025    381.62567  0.097254249   0.10070743            2 
  328000     1.124603   -2.4482861    382.66997  0.097223062   0.10068087            1 
  329000    1.1193122   -2.4477398    383.57223  0.097156086   0.10065083            1 
  330000    1.1305818   -2.4363869    383.80011  0.096919219   0.10062081            1 
  331000     1.117843   -2.4383258    386.58863  0.097328457   0.10059391            2 
  332000    1.1225468   -2.4594804    387.17912  0.097183513   0.10056125            2 
  333000    1.1186112   -2.4459556    389.98958   0.09759499   0.10053379            1 
  334000    1.1342133   -2.4682033     389.5396  0.097190518   0.10050608            3 
  335000    1.0922923   -2.4520537    389.76018  0.096955269   0.10047718            2 
  336000    1.1093087   -2.4491078    392.20449  0.097272938   0.10045047            3 
  337000    1.1216757   -2.4789924    393.52393  0.097310567    0.1004236            1 
  338000    1.1249764   -2.4778652    393.59715  0.097040718   0.10039392            1 
  339000    1.1183701   -2.4427266    395.22838  0.097155451   0.10036214            1 
  340000    1.1293175    -2.417098    395.48922  0.096933633   0.10032888            2 
  341000    1.1450945   -2.4481583    398.05875  0.097277309   0.10029945            5 
  342000    1.1275705   -2.4276495    398.54113  0.097110412   0.10027042            1 
  343000    1.1270063   -2.4426968    400.07876  0.097200866   0.10024201            1 
  344000    1.1100889   -2.4722127    401.13584   0.09717438   0.10021483            3 
  345000    1.0964427   -2.4466061    402.27853  0.097168727   0.10018725            1 
  346000    1.1107635    -2.436991    405.10597  0.097568875   0.10016422            2 
  347000    1.1156854   -2.4466068    403.42987  0.096885176    0.1001389            2 
  348000    1.1092278   -2.4668885    406.79134  0.097411719   0.10011143            1 
  349000    1.1099807   -2.4349446    406.61168  0.097089703   0.10008555            1 
  350000     1.100446   -2.4589467    407.36187  0.096990921   0.10005498            1 
  351000    1.0984325   -2.4495505    409.01683  0.097107509   0.10002564            2 
  352000    1.1088986   -2.4597295     410.6209  0.097211386  0.099995025            1 
  353000    1.1377928   -2.4414151    410.14254  0.096823074  0.099965535            3 
  354000    1.0914202    -2.449458    410.54039  0.096643217  0.099932824            2 
  355000    1.1184724   -2.4556689    411.90478  0.096691263  0.099899605            1 
  356000    1.0910841   -2.4484242    411.55261  0.096337221   0.09986791            1 
  357000    1.1308708   -2.4912092    414.36308  0.096723407  0.099834769            2 
  358000    1.0940055   -2.4756607    413.35384  0.096218306  0.099800607            1 
  359000     1.140495   -2.4733094     416.8298   0.09675715  0.099767427            2 
  360000    1.1043067   -2.4685391    417.45216  0.096632445  0.099735032            2 
  361000    1.1360263   -2.4652214    416.63825   0.09617688  0.099702711            2 
  362000     1.107454   -2.4485343    417.76354  0.096170244  0.099668619            1 
  363000    1.0889213    -2.447421      421.849  0.096843205  0.099635355            3 
  364000    1.1023287   -2.4686742    422.47864    0.0967213  0.099603833            2 
  365000    1.1080417   -2.4432828    424.45353  0.096907199  0.099575401            2 
  366000    1.0945248   -2.4630242    424.40822  0.096632109  0.099545936            2 
  367000    1.1045448   -2.4621716    426.09037  0.096750765  0.099519445            2 
  368000    1.1085546   -2.4722891    428.95602   0.09713678   0.09949619            2 
  369000    1.1128323   -2.4472333    428.52369    0.0967759   0.09947179            4 
  370000    1.0945271   -2.4484599    432.27924   0.09736019  0.099448809            1 
  371000    1.1072285   -2.4609535    429.20921  0.096408179   0.09942417            2 
  372000    1.1264226   -2.4655785    433.06195  0.097012084   0.09939874            2 
  373000    1.1018845   -2.4918698    431.49948  0.096402922  0.099374895            1 
  374000    1.1096146   -2.5068214    433.26417  0.096538363  0.099347669            2 
  375000    1.1086065   -2.4869531    434.78802  0.096619561  0.099321148            1 
  376000    1.1191034   -2.4637827    437.20204  0.096897615   0.09929561            2 
  377000    1.0915464   -2.4800768     436.5078  0.096487135  0.099270158            1 
  378000    1.0993282   -2.4984722    436.64767  0.096262714  0.099241068            1 
  379000    1.1159255   -2.4634332    435.27626   0.09570718  0.099208482            2 
  380000    1.0948864   -2.4998893    438.05142  0.096063908  0.099178402            1 
  381000    1.1206284   -2.4574428    440.09503  0.096258756  0.099144809            2 
  382000    1.0992732   -2.5148158    438.34271  0.095624501  0.099110029            1 
  383000    1.1041009   -2.4836453    438.81395  0.095477361  0.099076333            2 
  384000    1.0951619   -2.4788498    442.88483  0.096112159  0.099043409            2 
  385000    1.0801032   -2.4733007    443.47279  0.095989781  0.099011665            2 
  386000    1.1018308   -2.4693601    445.61489   0.09620356  0.098979857            2 
  387000    1.0840252   -2.4688036    445.58752  0.095949077  0.098946516            1 
  388000    1.1232331   -2.4845847    445.90873  0.095770776  0.098914008            3 
  389000    1.0710167   -2.4902493    447.09848  0.095779452  0.098879261            2 
  390000    1.1080577   -2.4646239     448.9397  0.095927287  0.098843397            1 
  391000    1.0856321    -2.485696    450.72769   0.09606302  0.098810303            1 
  392000    1.1221664    -2.456908    450.75875  0.095824563  0.098776259            1 
  393000    1.0888072   -2.4959836    452.68544  0.095989279  0.098742513            3 
  394000    1.0958657   -2.4737716      450.545  0.095292936  0.098706377            2 
  395000    1.0977392   -2.5130916    451.13454  0.095176064  0.098670857            2 
  396000     1.094263   -2.4721447    452.87323  0.095301606  0.098636417            2 
  397000    1.1050517    -2.476326    455.24579  0.095559569  0.098600107            2 
  398000    1.1141482   -2.4874294    457.86116  0.095867077  0.098566449            3 
  399000     1.071127   -2.4848532    457.66154  0.095585117  0.098534003            2 
  400000    1.1027962   -2.4867977    458.37082   0.09549392  0.098500689            1 
  401000    1.1151487   -2.4711881    461.97039  0.096003822  0.098466586            1 
  402000    1.0911426   -2.4759036     462.0214   0.09577558  0.098434762            2 
  403000    1.0909636   -2.4706814    464.08487  0.095964614  0.098406274            2 
  404000    1.1006409   -2.4960485    460.52588  0.094992962  0.098376627            3 
  405000     1.076632   -2.4391886    465.99423  0.095883587  0.098346897            1 
  406000    1.1183611   -2.4897668    468.31807  0.096124398   0.09832137            1 
  407000    1.1071475   -2.4697594      468.828  0.095992629  0.098294457            3 
  408000    1.0827567   -2.5148393    469.64465  0.095924152  0.098269516            2 
  409000    1.0812009    -2.487956    472.13135  0.096196282  0.098244922            2 
  410000    1.1262316   -2.4720513    470.61196  0.095652838  0.098219862            3 
  411000    1.0969951   -2.5062532    472.42352  0.095787412   0.09819612            4 
  412000    1.1017227   -2.4592392    475.47298  0.096171719  0.098172376            1 
  413000    1.0745388   -2.4818798    474.65696  0.095774204  0.098150228            6 
  414000     1.081084   -2.5030565    477.96831  0.096209403   0.09812824            3 
  415000    1.0889744   -2.4778995    478.10231   0.09600448   0.09810693            4 
  416000    1.0960581   -2.4747272    480.75957  0.096306003   0.09808525            4 
  417000    1.0894999   -2.4868044    483.15382  0.096553521  0.098066303            1 
  418000    1.0868661   -2.4688619    484.28827  0.096548698  0.098045998            6 
  419000    1.0917864    -2.503391    483.07273  0.096076518  0.098024949            3 
  420000    1.0842687   -2.4660889    481.15583  0.095467427  0.098002897            1 
  421000    1.0848758   -2.4800462    483.48552  0.095701805  0.097975498            2 
  422000    1.1080993   -2.4962657    487.28109  0.096224544  0.097953186            4 
  423000    1.1170118   -2.4958997    482.91488  0.095136894  0.097929295            1 
  424000    1.0978478   -2.4750659    488.34058  0.095978887  0.097906263            3 
  425000    1.1017809    -2.490734    489.44883  0.095970359  0.097883828            2 
  426000    1.0851434   -2.4777862    490.01565  0.095855957  0.097862996            1 
  427000    1.0762195   -2.4963928     490.4923  0.095724493  0.097839051            1 
  428000    1.0717945   -2.4756757     495.2442  0.096426051  0.097818293            1 
  429000     1.062088    -2.496421    492.62755  0.095692997  0.097797484            1 
  430000    1.0860887   -2.4903648    495.45707  0.096018811  0.097776503            2 
  431000    1.1038853   -2.4933871    494.33583   0.09557924  0.097757339            3 
  432000    1.0869626   -2.5138559    495.37919  0.095559257  0.097738339            3 
  433000    1.0576733   -2.4915101    496.13734  0.095484476  0.097717902            1 
  434000    1.0717392    -2.481807    497.00953  0.095431937   0.09769538            3 
  435000     1.074589   -2.4794771    499.53447  0.095696259  0.097674017            1 
  436000    1.0780736    -2.465674    501.20981  0.095796981  0.097650533            1 
  437000    1.0789759   -2.4879661    501.28459  0.095592027  0.097628719            4 
  438000     1.083848   -2.5007612    501.27282  0.095371542  0.097607121            7 
  439000    1.0716163    -2.489786    505.30183  0.095919103  0.097585349            2 
  440000     1.078362   -2.4790317    503.60806  0.095380315  0.097563459            4 
  441000    1.0966415    -2.496932    504.84313  0.095397417  0.097541935            2 
  442000    1.0725061   -2.5043285    508.49109  0.095869362  0.097520629            1 
  443000    1.0709513   -2.4883169    507.94272  0.095549796  0.097500124            2 
  444000    1.0607137   -2.4872584    509.23237  0.095576647  0.097478517            2 
  445000    1.0844179   -2.4987941    510.44001  0.095588018   0.09745642            5 
  446000    1.0853466   -2.5178601    511.40304  0.095553632  0.097433911            2 
  447000    1.0841899   -2.4963651     512.6014  0.095563273  0.097411479            2 
  448000    1.0805975   -2.5022672    511.40271  0.095126992  0.097387938            1 
  449000    1.0722679   -2.4958075    511.11199  0.094861171  0.097365367            4 
  450000    1.0806202   -2.4868196    516.01521  0.095558372  0.097342024            2 
  451000    1.0887737    -2.494596    516.86183  0.095502924  0.097320915            2 
  452000    1.0961883   -2.5040277     517.3117  0.095374576  0.097298879            2 
  453000    1.0468465   -2.4949993    518.46033  0.095375337  0.097276515            1 
  454000    1.0866023   -2.4959157    517.44187  0.094978316  0.097253542            4 
  455000    1.0557265   -2.4968263    519.84799  0.095210255  0.097231854            1 
  456000    1.0742204   -2.4844306     521.5016  0.095303654  0.097208114            1 
  457000    1.0564671   -2.4749277    522.20573  0.095223511  0.097187027            2 
  458000    1.0835703   -2.4909324    524.14751  0.095368907  0.097162144            3 
  459000    1.0513956   -2.4964947    519.56043  0.094328328  0.097138611            2 
  460000      1.08643   -2.5190351    525.24787    0.0951536  0.097112786            1 
  461000    1.0991806   -2.4938797    524.82602  0.094870936  0.097088064            2 
  462000    1.0670297   -2.4692024    526.57426  0.094980927  0.097061997            1 
  463000    1.0764883   -2.5056054    527.88008  0.095010813  0.097034513            2 
  464000    1.0595678   -2.4873711    527.59523  0.094754891  0.097006449            3 
  465000     1.041161   -2.5199221    530.46272  0.095065004  0.096979714            1 
  466000    1.0759052   -2.5098745    531.30649   0.09501189  0.096954248            2 
  467000    1.0550847   -2.5134176    531.11378  0.094774051  0.096927067            2 
  468000    1.0635213   -2.4947398    531.95894  0.094722034  0.096900037            1 
  469000    1.0717511   -2.5211217    530.19808  0.094207192  0.096872649            3 
  470000    1.0772756   -2.5169747     531.5315  0.094243173  0.096843865            1 
  471000    1.0749816   -2.4793696    536.40837   0.09490594  0.096815413            2 
  472000    1.0735182   -2.4831081    534.28309  0.094329641  0.096786636            2 
  473000    1.0675713   -2.5040912    534.24742  0.094123929  0.096756573            2 
  474000     1.053349   -2.5125432    535.10047  0.094075329  0.096724568            1 
  475000    1.0493616   -2.4961534    536.30154   0.09408799  0.096691684            2 
  476000     1.079692   -2.5319283     537.7529  0.094144416  0.096660849            1 
  477000    1.0845637   -2.4693343     540.0154  0.094342313  0.096629852            1 
  478000    1.0698727   -2.5167778    542.64312  0.094603054  0.096598565            2 
  479000    1.0647606   -2.5202717    542.76853   0.09442737  0.096567956            2 
  480000    1.0726538   -2.4877552    541.51849  0.094013627  0.096536762            2 
  481000    1.0505193   -2.5111495    543.55027  0.094170179  0.096505814            1 
  482000    1.0539276   -2.5297408     543.6199  0.093986843  0.096473897            2 
  483000    1.0773919   -2.5308152    544.66922  0.093973296  0.096441765            3 
  484000    1.0487043   -2.5177535    547.05274  0.094189521  0.096409226            2 
  485000    1.0546186   -2.5010745    546.74665  0.093942723  0.096376942            1 
  486000    1.0641944   -2.5154459    548.00196   0.09396467  0.096344278            1 
  487000    1.0665358   -2.5330082    546.06887  0.093440943  0.096311131            3 
  488000    1.0448301   -2.5177339    548.26654   0.09362475  0.096279106            4 
  489000    1.0654799   -2.5055392    551.92459  0.094056678   0.09624497            4 
  490000    1.0427051   -2.5160684    549.22728  0.093405999  0.096212321            3 
  491000    1.0548552   -2.5259393    551.45803  0.093594371  0.096177395            1 
  492000    1.0543615   -2.4934753    552.57587  0.093593474  0.096142541            1 
  493000    1.0488727   -2.4984512    556.22158  0.094019874   0.09610846            3 
  494000    1.0416498   -2.5357801      553.376  0.093349527  0.096074937            1 
  495000    1.0412475   -2.5070586    554.85574  0.093410058  0.096042429            3 
  496000    1.0595482   -2.5138073    556.92625  0.093569598  0.096008454            1 
  497000    1.0899767   -2.5227628    556.32092  0.093279832  0.095976687            5 
  498000    1.0639219   -2.5032451    556.73696  0.093162142   0.09594328            2 
  499000    1.0346837   -2.5212311    557.97982  0.093183002  0.095907737            1 
  500000    1.0587246   -2.5082895    557.45842  0.092909736  0.095871031            1 
  501000     1.040411   -2.4974244    561.64988  0.093421471  0.095833633            1 
  502000     1.055651   -2.5289643    561.93493   0.09328269  0.095795192            2 
  503000    1.0495443   -2.5233748    562.27331  0.093153298  0.095757016            1 
  504000    1.0668774   -2.5156734    562.85682  0.093064951  0.095719102            2 
  505000    1.0293976   -2.5427878    563.11858  0.092923858  0.095680324            1 
  506000    1.0555202   -2.5284601     563.2518  0.092762154  0.095641926            1 
  507000    1.0388705   -2.5183086    562.84272  0.092511953  0.095602713            1 
  508000    1.0466053   -2.5026964    565.56253  0.092776005   0.09556361            2 
  509000    1.0426777   -2.5441094    565.47204   0.09257892  0.095522119            2 
  510000    1.0325645   -2.5203186    563.37725  0.092055106  0.095480915            2 
  511000    1.0269466   -2.5465929    566.53292  0.092389583  0.095440872            3 
  512000    1.0744363    -2.497121    571.50213  0.093017924  0.095401712            3 
  513000    1.0522364   -2.5347683      567.439  0.092176575  0.095362779            1 
  514000    1.0690804   -2.5273989     570.2156  0.092447407  0.095323473            1 
  515000    1.0499958   -2.5360076    570.22782  0.092269874  0.095285196            2 
  516000    1.0440435   -2.5380911     572.0447   0.09238448  0.095246317            2 
  517000    1.0542946   -2.5504497    572.19522  0.092230048  0.095207285            2 
  518000    1.0519145   -2.5270786     574.4638  0.092416956  0.095165695            1 
  519000    1.0653651   -2.5633368    571.89436  0.091826326  0.095126001            3 
  520000    1.0447372   -2.5171007    574.20683  0.092020325  0.095086808            2 
  521000    1.0374628   -2.5171248    577.42466   0.09235839  0.095048082            3 
  522000    1.0596663   -2.5111735    579.41625  0.092499401  0.095009689            3 
  523000    1.0516871   -2.5318809    576.65577   0.09188269  0.094968789            2 
  524000    1.0578786    -2.558351    578.86652  0.092058926  0.094927848            3 
  525000    1.0415441   -2.5365586    578.51712  0.091828114  0.094888281            4 
  526000    1.0268614   -2.5352926    578.78597   0.09169613  0.094846359            4 
  527000    1.0489061   -2.5113732    582.97007  0.092183756  0.094806348            1 
  528000    1.0212146   -2.5498423    583.48304  0.092090126  0.094763592            2 
  529000    1.0627439   -2.5309301    581.14082  0.091547073  0.094719744            4 
  530000    1.0620268   -2.5570592    582.04452  0.091516433  0.094675667            2 
  531000    1.0425232   -2.5331036     580.5509  0.091109683  0.094630227            2 
  532000    1.0468949   -2.5755498    583.23281  0.091358523  0.094584245            2 
  533000    1.0284953   -2.5380453    581.45784  0.090909606  0.094537963            1 
  534000    1.0116196   -2.5415102     585.6637  0.091395708   0.09449035            2 
  535000     1.041489   -2.5592533    583.88631  0.090948024  0.094443998            2 
  536000    1.0451141   -2.5303643    581.65203  0.090430975  0.094396387            5 
  537000    1.0532678   -2.5528548    585.82944  0.090910838  0.094347345            3 
  538000     1.054781    -2.548319    586.13764  0.090789598  0.094297664            2 
  539000    1.0457358   -2.5116977    588.08722  0.090922575  0.094247466            1 
  540000    1.0323454   -2.5565628    587.44704  0.090655407  0.094199269            3 
  541000    1.0421077   -2.5129877    588.28729  0.090617265  0.094150114            2 
  542000    1.0296524   -2.5547435    589.24949  0.090598016  0.094099714            1 
  543000    1.0218731   -2.5717734     589.2365  0.090429175  0.094049124            3 
  544000    1.0271325   -2.5454612    589.20015  0.090257376  0.093999802            2 
  545000    1.0515888   -2.5315453    592.31201  0.090567586  0.093951073            1 
  546000    1.0481564    -2.532195    592.05553  0.090362566  0.093902303            1 
  547000    1.0286345   -2.5663228    594.73862  0.090606128  0.093853962            1 
  548000    1.0340061   -2.5385462    593.68048  0.090279878  0.093805521            3 
  549000    1.0267168   -2.5502278    596.71647  0.090576271  0.093757119            2 
  550000    1.0465165   -2.5247045    601.03036  0.091065205  0.093709847            2 
  551000    1.0315056   -2.5496432    598.20893   0.09047322  0.093664332            2 
  552000    1.0329963   -2.5545508    600.60823  0.090671532  0.093615932            2 
  553000    1.0154446   -2.5439942     600.2376  0.090451718  0.093567449            2 
  554000    1.0577935   -2.5328095    601.48131  0.090475528  0.093519984            4 
  555000    1.0436911   -2.5473875     601.6872  0.090343423  0.093474545            2 
  556000    1.0237796   -2.5543292     600.2537  0.089966082  0.093426936            5 
  557000      1.03274   -2.5186782    604.29473  0.090409146  0.093380649            2 
  558000    1.0376207   -2.5614687    604.26195  0.090242227  0.093334384            2 
  559000    1.0236068   -2.5536323    605.58564  0.090278121  0.093285898            2 
  560000    1.0472994   -2.5574771    602.62034  0.089675646  0.093238554            3 
  561000    1.0396517   -2.5253826    607.57473  0.090251743  0.093191486            3 
  562000    1.0067858   -2.5411102    606.07135  0.089868231  0.093144497            1 
  563000    1.0255041   -2.5408888    608.60023  0.090082923  0.093097125            3 
  564000    1.0312178   -2.5445872     609.5802  0.090067997  0.093050382            3 
  565000   0.99751838   -2.5443491    610.21713  0.090002527   0.09300266            3 
  566000    1.0464492   -2.5516099     612.9853  0.090251074  0.092956119            1 
  567000     1.021858   -2.5527773    611.48175  0.089870922   0.09291123            3 
  568000     1.034476   -2.5250864    612.51756  0.089864666  0.092865899            2 
  569000    1.0378508   -2.5291444    615.12078  0.090087987   0.09282104            2 
  570000    1.0405043    -2.559057    616.07393  0.090069287  0.092775169            2 
  571000    1.0463662   -2.5373294    616.34139  0.089950582  0.092729905            5 
  572000     1.036972   -2.5510388    617.27865  0.089929873  0.092685449            1 
  573000    1.0538375   -2.5773586    615.50689  0.089515254  0.092640343            3 
  574000    1.0236934   -2.5467468    617.45263  0.089641787  0.092594086            2 
  575000    1.0340091   -2.5494608    617.07377  0.089430982  0.092548258            1 
  576000    1.0201496   -2.5436117    618.92768  0.089543935  0.092502444            2 
  577000    1.0315857   -2.5357021    619.44393  0.089463306  0.092455978            2 
  578000    1.0310043   -2.5358936    623.10406  0.089836226  0.092410517            2 
  579000    1.0337702   -2.5514445    618.24332  0.088981479   0.09236517            2 
  580000    1.0280965   -2.5459744    621.17793  0.089249703  0.092319282            2 
  581000    1.0442672   -2.5345494    624.62945  0.089591143  0.092274158            3 
  582000   0.99777664   -2.5344151     625.3015  0.089533433  0.092229023            2 
  583000     1.016939   -2.5375741    624.88362  0.089320129  0.092183368            2 
  584000    1.0218892     -2.53807    627.22299  0.089500998  0.092139318            1 
  585000    1.0305724   -2.5515789    629.40792  0.089659248  0.092094665            2 
  586000    1.0119767    -2.563715    629.28912  0.089489352  0.092051563            2 
  587000    1.0107852   -2.5752883    628.22323   0.08918558  0.092008836            2 
  588000    1.0325176   -2.5713416    633.04458  0.089717202  0.091966883            1 
  589000    1.0169794   -2.5464151      631.964  0.089411997  0.091925392            1 
  590000    1.0324285   -2.5619749    633.42056  0.089466181  0.091883864            2 
  591000    1.0222108    -2.579114    632.94191  0.089247308  0.091843516            4 
  592000    1.0156143   -2.5761503    636.11552  0.089543288  0.091803568            2 
  593000    1.0231862   -2.5770051    639.27242  0.089835922  0.091762291            1 
  594000    1.0152071   -2.5543964    637.76275  0.089472889  0.091722256            2 
  595000    1.0044734   -2.5824381    639.07994  0.089506994  0.091682407            2 
  596000   0.99513071   -2.5836525    639.31455  0.089389618  0.091641915            3 
  597000    1.0174843   -2.5503624    640.26456  0.089372496   0.09160117            1 
  598000   0.99672218   -2.5663366    641.25533  0.089361111  0.091560023            1 
  599000    1.0002813   -2.5795413    639.71382   0.08899747  0.091517837            2 
  600000    1.0150779   -2.5633728    641.84062   0.08914453  0.091477764            2 
  601000    1.0205156   -2.5703955    642.43271  0.089078302  0.091437574            1 
  602000   0.99303993   -2.5477903    645.25988  0.089321689  0.091399014            2 
  603000    1.0225484   -2.5273795    645.23693  0.089170388  0.091361191            1 
  604000    1.0172644   -2.5585229    650.62925  0.089766728  0.091324132            3 
  605000    1.0286727   -2.5482179    647.95588  0.089250121  0.091287095            1 
  606000    1.0247217   -2.5816035    647.06928  0.088980924  0.091248682            2 
  607000   0.99923203   -2.5576586    648.67688  0.089055036  0.091211647            1 
  608000    1.0170321   -2.5403067    651.24565  0.089260643  0.091174657            2 
  609000    1.0102521   -2.5586343    652.45143  0.089279069  0.091137531            1 
  610000   0.99300566   -2.5833267    653.32956  0.089252672  0.091099711            2 
  611000    1.0246448   -2.5870109    650.68992  0.088746579   0.09106078            1 
  612000     0.990105   -2.5633358    651.75081  0.088746025  0.091022808            1 
  613000    1.0060574   -2.5901132    655.37483  0.089093914  0.090984669            4 
  614000   0.99827927   -2.5804191    653.90155  0.088748852  0.090945942            2 
  615000    1.0170973   -2.5397502     654.7653  0.088721585  0.090906479            1 
  616000    1.0112947   -2.5760791    654.38265  0.088525792  0.090866488            2 
  617000    1.0161951   -2.5478019    657.70428  0.088830939  0.090826803            4 
  618000    1.0305109   -2.5620375    655.47362  0.088386411  0.090787247            2 
  619000   0.98611864   -2.5642034     656.5547  0.088389162  0.090747052            3 
  620000   0.99264791   -2.5828761    657.66758   0.08839618   0.09070733            2 
  621000    0.9993565   -2.5637337    659.15632  0.088453613   0.09066754            3 
  622000    1.0080125   -2.5980483    660.86084  0.088539769  0.090627057            1 
  623000    1.0032053     -2.57347    663.10555  0.088697907  0.090587296            3 
  624000    1.0235953    -2.540336     662.9312  0.088532479  0.090549057            1 
  625000    1.0098175   -2.5536177    662.91939  0.088389252  0.090509412            3 
  626000    1.0178054   -2.5845175    664.74708  0.088491358  0.090468168            2 
  627000    1.0014584   -2.5503597    663.15009  0.088137971  0.090426653            5 
  628000    1.0024077    -2.558587    667.14918  0.088528289  0.090386395            2 
  629000     1.001315   -2.5870866     661.5095  0.087640368  0.090344229            2 
  630000    0.9892476   -2.5704691    667.06845  0.088236568  0.090302139            1 
  631000   0.97608456   -2.6006977    664.44493  0.087750255   0.09026016            3 
  632000    1.0019133   -2.5882616    666.43207  0.087873426  0.090219156            2 
  633000    0.9982517   -2.5790735    668.66834  0.088029008  0.090177037            1 
  634000    1.0092946   -2.5657568    671.93442  0.088319456  0.090136114            3 
  635000    1.0354093    -2.570892    670.46998  0.087988187  0.090095766            2 
  636000    1.0083356   -2.6217235    667.95136  0.087519832  0.090055688            2 
  637000   0.99802777   -2.5476806    673.26754  0.088077909  0.090015189            2 
  638000    1.0181086    -2.587581    671.40452  0.087696515  0.089974574            1 
  639000    1.0055019   -2.5827552    675.61028  0.088107757  0.089934945            2 
  640000   0.97493542   -2.5874934    673.21588  0.087658318  0.089895639            2 
  641000   0.98802603   -2.5702025    678.12338  0.088159566  0.089857613            2 
  642000   0.99217951   -2.5882935    678.19231  0.088031193  0.089820011            2 
  643000   0.98392799   -2.5461441    681.26352  0.088292317  0.089783815            1 
  644000   0.98082147   -2.5674227    680.32343   0.08803357  0.089748303            3 
  645000   0.96953385   -2.5845235    682.42942  0.088169175  0.089712626            3 
  646000   0.98835725   -2.5713065    683.83209  0.088213634  0.089677767            2 
  647000   0.99347669   -2.6008408     680.9722  0.087708939  0.089642996            1 
  648000    0.9981769   -2.5578678    684.01825   0.08796531  0.089606929            2 
  649000    1.0106611   -2.5533942    683.32978  0.087741369  0.089570815            2 
  650000    1.0081786   -2.5838062     685.0666  0.087829051  0.089535786            3 
  651000   0.99933466   -2.5873957    684.04955  0.087563946  0.089499928            5 
  652000   0.98136023   -2.5809474    686.86636  0.087789668  0.089462819            2 
  653000   0.99251118   -2.6107013    687.89783  0.087786859  0.089426797            1 
  654000   0.98595131   -2.5988239      686.413   0.08746343  0.089389187            4 
  655000    1.0026495    -2.607696    691.37789  0.087961563  0.089352609            2 
  656000    1.0143387   -2.5864723     689.3966  0.087575788  0.089315414            1 
  657000   0.99368579   -2.6049348    688.91703  0.087381662  0.089278468            2 
  658000   0.96797812   -2.6081914    690.08633  0.087396951  0.089239231            2 
  659000   0.99982002   -2.5926931    689.36201  0.087172738  0.089201428            5 
  660000   0.97944498   -2.5754173    694.07447  0.087635666  0.089163921            3 
  661000   0.98993686   -2.6060418    690.68484  0.087075749  0.089125061            3 
  662000   0.98877312   -2.5779202    692.12882  0.087125985   0.08908754            3 
  663000   0.97560508   -2.5802034    694.90219  0.087343161  0.089048851            2 
  664000   0.98564079   -2.5977667    695.61981  0.087301683  0.089009664            1 
  665000   0.97359643   -2.6357883    694.72955  0.087058841  0.088972235            4 
  666000   0.97836678   -2.6093955    695.44516  0.087017663  0.088933545            1 
  667000   0.99964472   -2.6070682    696.70039  0.087044027  0.088894947            3 
  668000    1.0010681   -2.6085648    698.50776  0.087139191  0.088858293            3 
  669000    1.0080319   -2.5965713    697.45539  0.086877851  0.088821669            1 
  670000    0.9938372   -2.6014527    699.67551  0.087024317  0.088785118            3 
  671000   0.98038092   -2.5860369    702.74701  0.087276082   0.08874872            2 
  672000   0.99789017   -2.5753702    700.77776  0.086902004  0.088712665            3 
  673000   0.96997662   -2.6172484    704.80248  0.087271234  0.088675707            1 
  674000   0.98965559   -2.5865104    703.78584  0.087016054  0.088638678            2 
  675000   0.98574279   -2.6252392     701.6405  0.086622284  0.088600402            4 
  676000   0.99826658   -2.5700999    703.62744  0.086739083  0.088563306            2 
  677000    1.0003944   -2.6222614    703.93764  0.086649143   0.08852549            1 
  678000   0.98483201   -2.5991249    704.03149  0.086532877  0.088486741            8 
  679000   0.99627829   -2.6262689    707.17338  0.086791039  0.088448959            2 
  680000   0.96322629   -2.5901929     706.8178  0.086619828  0.088410358            2 
  681000   0.98820715   -2.5746477    708.97791  0.086756965  0.088372518            2 
  682000   0.99056335   -2.5865436    706.73807  0.086356069  0.088334196            2 
  683000   0.99097782   -2.6211417    709.90034  0.086615463  0.088295522            1 
  684000   0.97091184   -2.5989479    709.31208  0.086417163  0.088256338            3 
  685000   0.96175602   -2.6066046    709.10639  0.086265984  0.088217281            4 
  686000   0.97940001   -2.6227157    710.40314  0.086297757  0.088178712            4 
  687000   0.96314414   -2.6113624    707.44891  0.085813793  0.088140772            4 
  688000   0.98730335   -2.6001921    713.67669  0.086443397  0.088103408            2 
  689000   0.96849024   -2.6054501    715.91494  0.086588648  0.088065673            3 
  690000   0.98130585    -2.588343    714.43809  0.086284794  0.088027718            3 
  691000   0.99222859   -2.6142144    718.57367  0.086658668  0.087991468            1 
  692000   0.98970327   -2.5590693    720.45812  0.086760371  0.087954645            3 
  693000   0.98652879   -2.5725763    720.10303  0.086592476  0.087917484            2 
  694000   0.97316866    -2.635104    719.65286  0.086413647  0.087880553            2 
  695000   0.97855508   -2.5855681    720.56337  0.086398485   0.08784274            5 
  696000   0.96034696   -2.6338119    719.08833   0.08609774  0.087805075            2 
  697000   0.95966071   -2.6351059    721.37575  0.086247699  0.087766763            3 
  698000   0.98053212   -2.5947402    723.89517  0.086424925  0.087729598            2 
  699000   0.96926402   -2.5995501      719.793  0.085812231  0.087692101            3 
  700000   0.97189127   -2.6222289    721.96314  0.085947993  0.087654302            2 
  701000   0.96916031   -2.6042902    725.59979  0.086257702  0.087617358            2 
  702000   0.97622535   -2.6149732    724.13724   0.08596121  0.087580815            6 
  703000    1.0017522   -2.6228559    725.22444  0.085967809  0.087543825            3 
  704000   0.95433046   -2.6205047    727.28384  0.086089469  0.087508318            2 
  705000   0.95605733   -2.5814149    730.58608  0.086357692  0.087473858            1 
  706000   0.96725555   -2.6158304    727.04241  0.085817093  0.087438861            5 
  707000   0.95896966    -2.641048     729.3102  0.085963013  0.087402856            1 
  708000   0.98697669   -2.6202088    729.97264  0.085919567  0.087367612            1 
  709000    0.9635137   -2.6128418    732.47297  0.086092263  0.087333959            2 
  710000   0.95371107   -2.6367774    732.49216  0.085973258  0.087299965            3 
  711000   0.96838629   -2.6189455    737.54225  0.086444239  0.087266961            1 
  712000   0.98094364   -2.6250883    734.67783  0.085987574  0.087234074            2 
  713000   0.96178297   -2.6416668    735.59015  0.085973603   0.08720012            3 
  714000    0.9802935   -2.6313973    737.52308  0.086078791  0.087167548            2 
  715000   0.96351589   -2.6356139    737.35325  0.085938607  0.087135467            2 
  716000   0.99868459   -2.6536562    740.89109  0.086230341  0.087103158            2 
  717000   0.94844744   -2.6355177    739.43595  0.085940951  0.087069914            1 
  718000   0.96450156   -2.6251031    744.43574  0.086401548  0.087036858            3 
  719000   0.96280405   -2.6144565    741.03102  0.085886766  0.087004682            3 
  720000   0.96277645   -2.6277965    743.65308  0.086070958  0.086972281            2 
  721000   0.98198831   -2.6365624    739.84704  0.085511679   0.08693941            1 
  722000   0.96727956   -2.6064784    744.68229  0.085951326  0.086906022            2 
  723000   0.96578183   -2.6160053    745.63377  0.085942113  0.086873487            1 
  724000   0.99125615   -2.6275349    748.06292  0.086103007  0.086840722            2 
  725000   0.98439873   -2.6573155    746.06759  0.085754895  0.086809225            2 
  726000   0.96255067   -2.6043004    746.40861   0.08567592  0.086776633            2 
  727000   0.95540551   -2.6239369    749.84239  0.085951672  0.086744306            2 
  728000   0.96422599   -2.6262804    750.67077   0.08592843  0.086712486            3 
  729000   0.94891832   -2.6214916    747.59881  0.085459398  0.086680955            2 
  730000   0.97456167    -2.620595    751.35969  0.085771655  0.086648877            3 
  731000   0.95834677   -2.6086334     750.3063  0.085534234  0.086616897            3 
  732000    0.9668425    -2.581334    753.24315  0.085751724    0.0865852            3 
  733000   0.97615852   -2.6062606    756.17082  0.085967578  0.086554266            2 
  734000   0.95299387   -2.6219017     751.7751  0.085351396  0.086521719            2 
  735000   0.96037411   -2.6316135    756.98674   0.08582616  0.086489258            1 
  736000   0.95585244   -2.6600064    754.71128  0.085451911  0.086456768            3 
  737000   0.95608398   -2.6079759    755.08485  0.085378206  0.086424978            3 
  738000    0.9573036   -2.5924356    761.40947  0.085976679  0.086392927            3 
  739000   0.95300564    -2.602868     757.9175  0.085466565   0.08636154            1 
  740000   0.95888865   -2.6305462    758.36654  0.085401637  0.086328886            3 
  741000   0.94738344   -2.6007679    760.19856  0.085492415  0.086296766            3 
  742000   0.96056122   -2.6335664    756.96913  0.085014502  0.086264211            5 
  743000   0.95309355   -2.6398641     757.6289  0.084974081  0.086231661            2 
  744000   0.94365203   -2.6431961    762.13442  0.085364519  0.086199476            2 
  745000   0.95844166   -2.6238175    762.44978   0.08528521  0.086168225            2 
  746000   0.96172996   -2.6172275    765.75307  0.085539887  0.086136415            1 
  747000    0.9625583   -2.6368464    762.59585  0.085073165  0.086105567            4 
  748000   0.95432218   -2.6432146    764.14955  0.085132526  0.086074593            2 
  749000   0.94265459   -2.6331269    762.74052  0.084862096  0.086042126            7 
  750000   0.94268038   -2.6392837    762.01633  0.084668481    0.0860094            3 
  751000   0.94567879   -2.6601299    766.05268  0.085003626  0.085977269            4 
  752000   0.95321016   -2.6411701    764.99024  0.084772855  0.085943777            4 
  753000   0.95112485   -2.6195684     764.7051  0.084628719  0.085911067            3 
  754000    0.9442354   -2.6275627     767.8061  0.084859207  0.085878654            1 
  755000   0.96722091   -2.6466334     767.1582  0.084675298  0.085846799            1 
  756000   0.96170309   -2.6382797    767.13654  0.084560906  0.085813978            2 
  757000   0.92438247   -2.6439584    768.11691  0.084557123  0.085781705            3 
  758000   0.94878301   -2.6343257    769.18713  0.084563229  0.085748836            2 
  759000   0.93731819   -2.6390762    770.84953  0.084634336  0.085716252            2 
  760000   0.95573728    -2.649298    770.58473   0.08449394  0.085682418           12 
  761000   0.95896421   -2.6407124    773.46191  0.084697976  0.085649629            5 
  762000   0.94039375   -2.6695028    772.06079  0.084433595  0.085615662            2 
  763000   0.94966337   -2.6861077    773.70725  0.084502758  0.085581155            1 
  764000   0.96047167   -2.5953432     774.2705  0.084453588  0.085546994            3 
  765000   0.95169553   -2.6571591    772.34926  0.084133907  0.085512567            1 
  766000   0.94625013   -2.6683048    771.47805  0.083929291  0.085477394            3 
  767000   0.95364593   -2.6617769    775.21903  0.084226318  0.085442939            4 
  768000   0.94237207   -2.6597859    777.22865  0.084334706  0.085409059            2 
  769000   0.97054683   -2.6509998    777.22388  0.084224521  0.085376638            4 
  770000   0.92847125   -2.6171197    777.77346  0.084174617  0.085343685            2 
  771000   0.95408325   -2.6302502     780.1297  0.084320114  0.085309803            3 
  772000   0.92023536   -2.6421596    782.34173  0.084449669  0.085276629            2 
  773000   0.94310063   -2.6608715     780.6378  0.084156727  0.085244304            2 
  774000   0.95634526   -2.6576954    779.79101  0.083956827  0.085211872            3 
  775000   0.93573496   -2.6276515    786.14375  0.084531586  0.085179024            3 
  776000   0.94992522   -2.6579794    785.93636  0.084400383  0.085146719            2 
  777000   0.95158419   -2.6594611    784.58174  0.084146476  0.085114324            2 
  778000   0.94501308   -2.6501907    784.99804   0.08408291  0.085082028            2 
  779000   0.94823243   -2.6318239    786.21273  0.084104913  0.085049836            2 
  780000   0.93672827   -2.6542823    787.01565  0.084082869  0.085017518            2 
  781000   0.93719733    -2.639637    789.38454  0.084227971  0.084984973            3 
  782000   0.96126515   -2.6505534    784.38562  0.083587556  0.084951385            2 
  783000   0.90429576   -2.6515625    788.12317  0.083878583  0.084917739            3 
  784000   0.96406311   -2.6290823    788.26117  0.083786264  0.084883243            1 
  785000   0.94602334   -2.6531463    790.44293  0.083911139  0.084849491            1 
  786000   0.94128501   -2.6436919    789.52338  0.083706889   0.08481586            4 
  787000   0.94544964   -2.6716888    788.78488  0.083522329  0.084781904            3 
  788000   0.95454455   -2.6388366     791.9436   0.08375038  0.084747624            4 
  789000   0.93128761    -2.654509    789.92285  0.083430804  0.084713634            2 
  790000    0.9340003   -2.6355441     792.2388  0.083569493  0.084679592            2 
  791000   0.94880992   -2.6413249     792.6236  0.083504382  0.084644779            2 
  792000   0.95944482   -2.6512546    792.42091  0.083377621  0.084609979            2 
  793000   0.95426114   -2.6542011    792.88656  0.083321412  0.084575248            3 
  794000   0.93261365    -2.640085    799.90662  0.083953256  0.084540902            1 
  795000   0.94794907   -2.6555967    796.26058   0.08346547  0.084507563            3 
  796000   0.93843471   -2.6501819    797.41277  0.083481236  0.084473385            1 
  797000   0.92820614   -2.6572728    797.50259  0.083385883  0.084439301            2 
  798000   0.93628743    -2.644959    799.93214  0.083535102   0.08440539            2 
  799000   0.94643288   -2.6755659    795.37099  0.082954838  0.084370471            5 
  800000   0.92940856   -2.6650553    799.72127  0.083304299  0.084336002            2 
  801000   0.93204089   -2.6551905    799.03682  0.083129091  0.084301531            2 
  802000   0.94309876   -2.6536697    800.13722  0.083139777   0.08426786            2 
  803000   0.94778808   -2.6645978    804.23117  0.083461101  0.084234365            1 
  804000   0.95374011   -2.6420579    802.73729  0.083202456  0.084200343            3 
  805000   0.93716704   -2.6565756    802.31796  0.083055689     0.084166            3 
  806000   0.94804162   -2.6504472    804.10383  0.083137285  0.084131623            3 
  807000   0.90954111   -2.6573606    801.21077  0.082735519   0.08409703            2 
  808000     0.917649   -2.6755584    801.26448  0.082638663  0.084061854            3 
  809000   0.92786848   -2.6532599    802.56912  0.082670902  0.084026507            2 
  810000   0.93283958   -2.6756039    800.85081  0.082392058  0.083990419            1 
  811000   0.93669175    -2.658895     804.5132   0.08266679  0.083954732            2 
  812000   0.92857683    -2.692524    805.83084  0.082700209  0.083918626            3 
  813000   0.93588776   -2.6811677    803.70207  0.082380285   0.08388195            2 
  814000   0.94087086   -2.6760197    808.63644  0.082784238  0.083845415            3 
  815000    0.9349763   -2.6723441    805.56598   0.08236871  0.083809514            2 
  816000   0.92919625   -2.6442209    811.89092  0.082913696  0.083773536            1 
  817000   0.92974154   -2.6513482    809.18394  0.082536101  0.083737804            4 
  818000   0.92889049   -2.6543594    807.28707  0.082241959  0.083702227            1 
  819000   0.91127691   -2.6573911    810.26576  0.082444623  0.083666315            2 
  820000   0.91958549   -2.6605779    808.62072  0.082176902  0.083630212            6 
  821000   0.93604182   -2.6726441    808.32547  0.082046841  0.083592884            1 
  822000   0.93710239   -2.6944561    809.35144  0.082051038   0.08355539            4 
  823000    0.9185206   -2.6803553    811.10157  0.082128551  0.083517404            3 
  824000   0.93136541    -2.658285    816.24995   0.08254955   0.08348085            3 
  825000   0.93519573     -2.64858    812.04579  0.082024827  0.083444326            2 
  826000   0.92569313   -2.7122484    811.08703  0.081828796  0.083407551            3 
  827000   0.91798436   -2.6608078    813.10258  0.081932948  0.083371014            1 
  828000   0.95482564   -2.7036904    816.46697  0.082172601  0.083336158            2 
  829000    0.9197149   -2.6867812    816.93085   0.08212011  0.083301468            7 
  830000   0.92854931   -2.6988703    817.48854  0.082077163  0.083266594            3 
  831000   0.91814377   -2.6852745    820.76122   0.08230658   0.08323183            3 
  832000   0.92330587    -2.680348    819.38916  0.082070228  0.083196787            3 
  833000   0.93479665   -2.6770277    821.06976  0.082139832  0.083162461            3 
  834000   0.91098293   -2.6799226    819.06599  0.081841126  0.083127585            3 
  835000   0.91735555   -2.6869693    821.87853  0.082023805  0.083093977            2 
  836000   0.93080017   -2.6819318    822.81114  0.082018654  0.083060585            5 
  837000   0.91309567   -2.6871321    827.08313   0.08234599  0.083026923            2 
  838000   0.92447763   -2.6457747    827.04176  0.082243611  0.082993138            4 
  839000   0.91635441   -2.6810006    825.64465  0.082006819  0.082959073            1 
  840000   0.90363958   -2.6995212    824.84858  0.081830217  0.082924428            2 
  841000   0.92657178   -2.6763054    828.12289  0.082057362  0.082890495            3 
  842000   0.92232283   -2.6837179    826.04173  0.081753932  0.082856589            3 
  843000   0.92373638    -2.694395    827.25171  0.081776563   0.08282274            4 
  844000   0.92272615   -2.6844201      827.887  0.081742398  0.082788887            2 
  845000   0.88613811   -2.6639161    829.25841  0.081780908  0.082754486            2 
  846000    0.9282442   -2.6688167    826.88109  0.081450068  0.082720335            1 
  847000   0.90870696   -2.7064322    829.01948  0.081564293  0.082685844            3 
  848000   0.91905234   -2.6689437    830.52632  0.081616187  0.082650848            1 
  849000    0.9386138   -2.6914688    828.99613  0.081369859  0.082616265            5 
  850000   0.92721385   -2.6706488    831.08308  0.081478733   0.08258104            3 
  851000    0.9440185    -2.687735    827.99259  0.081080355  0.082545767            4 
  852000   0.91870779   -2.6840494    833.50813   0.08152466  0.082509928            5 
  853000    0.9188518   -2.6616097    832.69636  0.081349781  0.082473434            8 
  854000   0.91815634   -2.6722272    832.04474  0.081190939  0.082437576            2 
  855000   0.91134464   -2.6745554    832.96544  0.081185715  0.082400691            3 
  856000   0.89364621   -2.6999514    834.77544  0.081267079  0.082364746            3 
  857000   0.89980996   -2.7062832    833.05852  0.081005301  0.082328399            2 
  858000   0.91223003   -2.7104431    833.54115  0.080957765  0.082292092            6 
  859000   0.91383487   -2.6612885    840.88485  0.081575945  0.082256904            4 
  860000   0.89215735   -2.7046572    838.12822  0.081213975  0.082222196            2 
  861000   0.90193178   -2.7129532    834.98032  0.080814975  0.082187104            1 
  862000   0.90892445   -2.7036976    837.59436  0.080973933   0.08215262            2 
  863000   0.92132212   -2.6943101    837.80195   0.08090015  0.082117622            3 
  864000   0.90531516   -2.6808311    840.67906  0.081084014  0.082082409            4 
  865000   0.91231178   -2.7002376     841.0613    0.0810271  0.082047304            4 
  866000   0.90141466   -2.6845701    840.68464  0.080897291   0.08201169            4 
  867000    0.8804751   -2.6949506     842.0826  0.080938351  0.081976085            3 
  868000   0.90219422   -2.6968254    837.86495  0.080440184  0.081940387            2 
  869000   0.90143463   -2.6803122     842.6602  0.080807461  0.081904535            4 
  870000   0.90835234   -2.7009428    843.99203  0.080842148  0.081869237            3 
  871000   0.91266454   -2.6950888    844.66435  0.080813658  0.081834455            3 
  872000   0.90983399    -2.701789    844.45669  0.080701136   0.08179992            3 
  873000   0.90362599   -2.7121261    847.69105  0.080917435  0.081765062            2 
  874000   0.91847878   -2.7032437    845.04234  0.080572305  0.081729788            4 
  875000   0.90280913   -2.6769885    844.49747   0.08042833  0.081694553            3 
  876000   0.90237263   -2.6938404    849.02146  0.080766882  0.081658931            2 
  877000   0.90291035   -2.6840675    848.67017  0.080641407  0.081623866            6 
  878000   0.89867606   -2.6946288    844.92229  0.080193839  0.081588605           12 
  879000   0.89337885    -2.671753    849.38525  0.080525716  0.081553616            3 
  880000   0.89457288   -2.6738186    851.39656  0.080624674  0.081518211            3 
  881000   0.93180809   -2.7213473    849.08504  0.080314514  0.081482901            2 
  882000   0.88420657   -2.6810916    848.74234  0.080191075  0.081446762            4 
  883000   0.90909766    -2.711678    848.61708  0.080088437   0.08141051            4 
  884000   0.91470048    -2.701034    848.89267  0.080023819  0.081373753            3 
  885000   0.89637315   -2.7026693    851.32004  0.080161962  0.081336921            4 
  886000   0.90935615   -2.6807296    847.84092  0.079744255  0.081299572            3 
  887000    0.9051005   -2.7116082    849.69777  0.079828802  0.081262461            9 
  888000   0.89898882    -2.680884    852.13044  0.079967196  0.081224705            2 
  889000    0.8951891   -2.6984931    853.16493  0.079974215  0.081187384            4 
  890000   0.87827277   -2.6889349    853.38022  0.079904515   0.08114944            2 
  891000   0.91514816   -2.6875185     851.9907  0.079684877  0.081112275            2 
  892000   0.89702488    -2.701776    852.45053  0.079638502  0.081074365            3 
  893000   0.88979965    -2.716613    850.26328  0.079345211  0.081036543            2 
  894000    0.8878386   -2.6897528    854.56776  0.079657696  0.080998383            2 
  895000   0.88709297   -2.6984829    852.63386  0.079388628  0.080960548            3 
  896000   0.88278359   -2.7208287    853.02758  0.079336642  0.080922235            2 
  897000     0.884511    -2.698351    854.07972  0.079345942  0.080884526            4 
  898000    0.8957706   -2.7372108    855.48291  0.079387798  0.080846612            3 
  899000   0.91634466   -2.6848602    857.66012  0.079501309  0.080808877            4 
  900000   0.90648869   -2.7253278    859.53458  0.079586535  0.080771104            4 
  901000     0.888945   -2.7095885     856.7175  0.079237653  0.080732962            6 
  902000   0.88993151   -2.7121088    857.62594  0.079233734   0.08069502            1 
  903000   0.89356538   -2.7163802    856.10738  0.079005849  0.080657139            3 
  904000   0.90074683   -2.6949165    863.81473  0.079628939  0.080619819            2 
  905000   0.89389491   -2.6965422    860.57426  0.079242565  0.080582282            1 
  906000   0.89522896   -2.7232055    861.16909  0.079209813  0.080545046            5 
  907000   0.89777039   -2.7256582    865.75842   0.07954414  0.080507973            4 
  908000   0.90480201   -2.7521145    859.21421   0.07885593  0.080469968            3 
  909000   0.87902031   -2.7208606    859.99125  0.078840415   0.08043103            2 
  910000   0.89997694   -2.7330492    859.54035  0.078712486  0.080392941            2 
  911000   0.88882706   -2.7234676    860.03322  0.078671169  0.080354562            3 
  912000   0.88628145   -2.7048838    865.24732  0.079061342  0.080315766            1 
  913000   0.89074381   -2.7089585    859.95472  0.078491668  0.080277418            4 
  914000   0.90551359   -2.6848327    863.25677  0.078706854   0.08023918            3 
  915000   0.90576334   -2.7179173    866.25719  0.078894098  0.080200356            1 
  916000   0.87686109   -2.7288947    865.02549  0.078695914  0.080162159            4 
  917000   0.86777749   -2.7298579    865.72221   0.07867341  0.080123398            2 
  918000    0.8803964   -2.7207174    864.44251  0.078471542  0.080084609            2 
  919000    0.8997625   -2.7203643     867.9319  0.078702566  0.080046301            4 
  920000   0.88330698   -2.7186148    866.63725  0.078499751  0.080007867            2 
  921000   0.87280759   -2.7435144    868.54943  0.078587535  0.079970199            3 
  922000   0.87098152   -2.7132797    868.54459  0.078501861  0.079932373            3 
  923000   0.88790268   -2.7231624    869.61065   0.07851306  0.079894669            1 
  924000   0.89472385   -2.6959771    869.01296  0.078374184  0.079857187            1 
  925000   0.89763461    -2.739936    868.66815  0.078258392  0.079819768            2 
  926000   0.87584901   -2.7378332    869.39753  0.078239519  0.079782101            2 
  927000   0.87405644   -2.7052951    874.65994  0.078628186  0.079744695            2 
  928000   0.88780024   -2.7360562    873.22266  0.078414392  0.079706549            3 
  929000   0.88082406     -2.72088    871.74335  0.078197286  0.079668863            3 
  930000   0.88566265   -2.6971211    875.62981  0.078461453  0.079631213            4 
  931000     0.892965   -2.7437527    874.01043  0.078232226  0.079593049            7 
  932000   0.87644536   -2.7000178    872.51965   0.07801499  0.079555308            2 
  933000   0.86579587   -2.7077451    876.68074  0.078303031  0.079517989            3 
  934000   0.89291917   -2.7106901    878.12377  0.078347946   0.07948027            2 
  935000     0.904628   -2.7274914    874.73184  0.077961839  0.079442932            4 
  936000    0.8874209   -2.7150098    874.97375  0.077900084  0.079404946            3 
  937000   0.88785096   -2.7293299    877.42367  0.078034834  0.079366814            2 
  938000   0.86407218   -2.7601708    877.35503  0.077945542  0.079328852            3 
  939000   0.88359976   -2.7120801    877.57614  0.077882157  0.079290988            3 
  940000   0.86761952   -2.7225441    879.76589   0.07799343  0.079253096            4 
  941000   0.87665701   -2.7280785    878.56171  0.077803906   0.07921554            3 
  942000    0.8637485   -2.7263259    879.71909  0.077823698  0.079177274            2 
  943000   0.88253603   -2.7291072    879.62755  0.077733081  0.079138751            3 
  944000   0.87704554   -2.7128243    881.22344  0.077791617  0.079100465            2 
  945000    0.8763776   -2.7204153    883.02398  0.077868076  0.079062622            3 
  946000   0.88387299   -2.7350557    882.26979  0.077719326     0.079025            3 
  947000   0.88000911   -2.7196394    882.23102  0.077633846  0.078986962            2 
  948000   0.86251898   -2.7503448    882.62397  0.077586496  0.078949262            3 
  949000    0.8628295    -2.715514    885.21014  0.077731835  0.078911599            3 
  950000   0.87320723   -2.7337075    881.80767   0.07735155  0.078874377            4 
  951000    0.8706329   -2.7264829    884.20597  0.077480369  0.078836689            7 
  952000   0.85088399   -2.7202844     886.2753  0.077580121  0.078798857            2 
  953000   0.86746649   -2.7413208    886.59687  0.077526834    0.0787611            4 
  954000   0.86787269    -2.726054    889.23535  0.077676044  0.078723355            3 
  955000   0.87055103   -2.7272368    887.05773  0.077404688  0.078685993            4 
  956000   0.86466069   -2.7344867    886.33073  0.077260349  0.078648774            3 
  957000    0.8721603   -2.7486837    885.70778  0.077125373  0.078611034            3 
  958000   0.85269847   -2.7544241    886.11753  0.077080509  0.078572593            4 
  959000   0.87546171   -2.7335697    889.88844   0.07732781  0.078534524            3 
  960000   0.87878169   -2.7258621    887.65394  0.077053293  0.078497103            3 
  961000    0.8712739   -2.7372452    887.16987  0.076931137  0.078459755            2 
  962000   0.86504049   -2.7061858    895.88996  0.077606546  0.078422662            2 
  963000   0.87093181   -2.7409169    893.38344  0.077309055  0.078386153            2 
  964000   0.86414144   -2.7280868    893.14556  0.077208295  0.078348709            4 
  965000   0.87469436   -2.7436988    893.38728   0.07714916  0.078311525            4 
  966000   0.86697108   -2.7455659    890.84755  0.076850202  0.078274601           12 
  967000    0.8664519    -2.737798    893.73542  0.077019599  0.078237556            1 
  968000     0.885351   -2.7525745    895.07545  0.077055394  0.078200253            3 
  969000   0.86262903   -2.7593545    896.32053  0.077082949  0.078163266            3 
  970000   0.87007208   -2.7461549    896.96869  0.077059166  0.078126384            2 
  971000   0.86703139   -2.7499727    897.13958  0.076994472   0.07808965            4 
  972000     0.886064   -2.7553257    898.30642  0.077015296  0.078052824            1 
  973000   0.85951207   -2.7564537    895.17384  0.076667852  0.078016079            3 
  974000   0.87206848   -2.7253804    900.37719  0.077034325  0.077978694            2 
  975000   0.86169001   -2.7442492    895.86426  0.076569595  0.077941681            3 
  976000    0.8696956   -2.7526576    900.22265  0.076863272  0.077904339            2 
  977000   0.85677086   -2.7667523    896.06371  0.076429862  0.077866609            5 
  978000   0.87479261   -2.7560987    899.18658  0.076617806  0.077829301            5 
  979000    0.8519209   -2.7150359    899.83387  0.076594643  0.077792636            5 
  980000    0.8609929   -2.7152995    902.96721  0.076782926  0.077756192            4 
  981000    0.8582753   -2.7602004     904.7932  0.076859769   0.07771968            2 
  982000   0.85174243   -2.7292795    902.73229   0.07660661   0.07768308            3 
  983000    0.8732262   -2.7455459     906.3838  0.076838233  0.077646789            3 
  984000   0.86519081   -2.7638569    900.52794  0.076264223  0.077609834            2 
  985000   0.85629813   -2.7635795    902.37448  0.076343019  0.077572526            1 
  986000   0.85782944   -2.7717906    902.88786   0.07630898  0.077535434            3 
  987000   0.84654864   -2.7464974    904.22868  0.076344874  0.077498217            7 
  988000   0.88577562   -2.7852263    903.25044  0.076185091  0.077460801            6 
  989000   0.86744233    -2.747786    906.02667  0.076341984  0.077423689            2 
  990000   0.85664351   -2.7589372    904.06459  0.076099713  0.077386858            4 
  991000   0.86091605   -2.7503101    906.42913  0.076221757  0.077350267            2 
  992000   0.85640869   -2.7945037    904.35211   0.07597044  0.077313276            5 
  993000   0.84822467   -2.7569921    908.99877  0.076283885  0.077276119            4 
  994000   0.84845124   -2.7817644    910.13875  0.076302712  0.077239267            3 
  995000   0.84779609   -2.7788735    911.11347  0.076307661  0.077202346            2 
  996000   0.86322289   -2.7428802    909.90986  0.076130343  0.077165664            3 
  997000   0.86319072   -2.7567754    909.53526  0.076022673  0.077129858            3 
  998000    0.8412193   -2.7720725    912.68883  0.076209822  0.077093598            2 
  999000   0.86570969    -2.757373     910.9404  0.075987688  0.077057051            4 
 1000000    0.8551551   -2.7758727    910.30382  0.075858652  0.077020344            4 
 1001000   0.84571973    -2.760351    912.88975  0.075998148  0.076983753            3 
 1002000   0.86924719    -2.774033    908.40686  0.075549473  0.076947168            6 
 1003000   0.84740521   -2.7463429    915.74517  0.076083846  0.076911202            1 
 1004000   0.85561908   -2.7575883    914.77027  0.075927148  0.076875053            2 
 1005000   0.84058173   -2.7679862    914.13904  0.075799257  0.076838848            3 
 1006000   0.87779667   -2.7828587    912.36365  0.075576843  0.076802288            3 
 1007000   0.84579925   -2.7690071    917.82043  0.075953363  0.076766154            7 
 1008000   0.84175193   -2.7626551    916.44048  0.075763928  0.076730242            2 
 1009000   0.86957131   -2.7575638    919.80881   0.07596703  0.076694872            3 
 1010000   0.84493603     -2.77555    918.83842  0.075811751  0.076659464            1 
 1011000   0.86550973   -2.7442487    917.22703  0.075603942  0.076623649            3 
 1012000   0.86290482   -2.7528278    918.19181   0.07560868  0.076587615            2 
 1013000   0.84959927   -2.7335924    920.54084  0.075727282  0.076551444            3 
 1014000    0.8553532   -2.7573503    919.64287  0.075578802  0.076515368            5 
 1015000   0.83522612   -2.7505702    920.98445  0.075614487  0.076478136            2 
 1016000   0.85726882   -2.7441394    918.75366  0.075357091  0.076442025            1 
 1017000   0.86332961   -2.7663895     921.6831  0.075523033  0.076405664            6 
 1018000   0.83937073    -2.756517    925.05922  0.075725214   0.07636909            4 
 1019000   0.87176606   -2.7840215    921.29704  0.075343232  0.076332743            5 
 1020000   0.84634479   -2.7736945    923.75627  0.075470283  0.076295916            5 
 1021000   0.86698704    -2.782907    920.50817  0.075131258  0.076259017            3 
 1022000   0.83268092   -2.7423924    922.94474   0.07525642  0.076222235            2 
 1023000   0.85457332   -2.7825624    922.73951  0.075166138  0.076185266            1 
 1024000   0.84443603    -2.770362    921.41527  0.074984967  0.076148597            3 
 1025000   0.83759167    -2.791367    922.77023   0.07502197  0.076111666            6 
 1026000   0.84593571   -2.7952739    920.09045  0.074731193  0.076075051            3 
 1027000   0.84402828   -2.7610444     923.6183  0.074944685  0.076037984            2 
 1028000   0.83869086   -2.7836159    923.95415  0.074899007  0.076000507            3 
 1029000   0.84577218   -2.7791149    923.86858  0.074819289   0.07596335            5 
 1030000   0.83435985   -2.7765078     925.9518  0.074915194  0.075926521            3 
 1031000   0.84866471   -2.7675099    926.40383  0.074879068  0.075889975            2 
 1032000   0.84292965   -2.7667385     929.2293  0.075034666  0.075853479            3 
 1033000   0.84527104   -2.7600993    930.78545  0.075087564  0.075817294            3 
 1034000   0.84570313   -2.7969823    926.63018   0.07468006  0.075781218            5 
 1035000   0.83271273   -2.7727969    929.55294  0.074843232  0.075744925            3 
 1036000    0.8366535   -2.7749452    930.41541  0.074840364  0.075708078            2 
 1037000   0.84601524   -2.7758687    930.41417  0.074768094  0.075671865            2 
 1038000   0.84952624   -2.7735247    927.37716  0.074452245  0.075636182            4 
 1039000   0.84884731    -2.760896    933.58517  0.074878503  0.075600049            5 
 1040000   0.84038734   -2.7606088    928.48391  0.074397749  0.075563755            2 
 1041000   0.84068642   -2.8042764    930.98456  0.074526462  0.075527719            2 
 1042000   0.85899991   -2.7435293    931.18642  0.074471083  0.075491247            2 
 1043000   0.84308737   -2.7983345    931.52552  0.074426775  0.075454609            3 
 1044000   0.84719289   -2.8123683    930.68091  0.074288068  0.075417782            5 
 1045000   0.83895304   -2.7849745    936.21278  0.074658116  0.075381498            2 
 1046000   0.84362492   -2.7835807    932.19172   0.07426639  0.075345817            4 
 1047000   0.83156029   -2.7969596    935.17657  0.074433028  0.075309419            5 
 1048000    0.8272502   -2.7966972    932.55088  0.074153218   0.07527328            4 
 1049000    0.8394693   -2.7536275      935.008  0.074277725  0.075236972            3 
 1050000   0.83788991   -2.8096081    934.39349  0.074158214  0.075200428            2 
 1051000   0.83033376   -2.7873614    939.70526  0.074508821  0.075163845            5 
 1052000   0.84333054   -2.7972127    938.78219  0.074364876  0.075127559            4 
 1053000   0.83348432   -2.7909762    940.61275  0.074439122  0.075091815            9 
 1054000    0.8437821   -2.7688092    937.54466  0.074125922  0.075055651            3 
 1055000   0.83794156    -2.808246    938.67017  0.074144563  0.075019469            2 
 1056000    0.8430143   -2.7992923     941.1196  0.074267645  0.074983702            2 
 1057000   0.81963899   -2.7886152    940.49539   0.07414817  0.074947655            2 
 1058000   0.83178989   -2.7779609    938.57248  0.073926629  0.074911784            3 
 1059000   0.82574386   -2.8161716    940.97889  0.074046183  0.074875196            4 
 1060000   0.81860268   -2.7809315    940.64606  0.073950162   0.07483863            3 
 1061000   0.85338032   -2.8071464     939.4836  0.073789161  0.074802191            4 
 1062000   0.81967018     -2.78803    939.55159  0.073725015  0.074765812            2 
 1063000   0.86060298   -2.7726239    941.58757  0.073815269  0.074729468            3 
 1064000   0.81663904   -2.8000322    944.36693  0.073963575  0.074693344            3 
 1065000    0.8371061   -2.7800893    945.65585   0.07399498  0.074657716            2 
 1066000   0.81059266   -2.8064504       940.84  0.073549093  0.074621112            3 
 1067000   0.84089224    -2.789741    945.91379  0.073876428  0.074585071            7 
 1068000   0.82331777    -2.793125    944.11414  0.073666834   0.07454891            4 
 1069000    0.8224919   -2.8047486    942.74659  0.073491315  0.074512629            8 
 1070000   0.83711634   -2.8087227    945.03514  0.073600867  0.074475696            5 
 1071000   0.80808506   -2.8047682    944.11022  0.073460179  0.074439131            2 
 1072000    0.8154468    -2.790808    944.29726  0.073406193  0.074402641            4 
 1073000   0.83440161   -2.7977253    945.26421  0.073412877  0.074366659            3 
 1074000   0.83431294   -2.7947975     944.5459  0.073288788  0.074330043            2 
 1075000   0.82335148   -2.8019616    948.79993  0.073550382  0.074293779            4 
 1076000   0.81273778   -2.8129864    946.89624  0.073334591  0.074257135            3 
 1077000   0.81552399   -2.7965464    948.35089  0.073379054  0.074220488            3 
 1078000   0.83506329   -2.7855192    946.54258  0.073171195  0.074184507            5 
 1079000   0.83977362   -2.8011001    948.06242  0.073220762  0.074148325            3 
 1080000   0.83165246   -2.8048432    948.04078  0.073151295   0.07411168            3 
 1081000   0.80967438     -2.82339     949.9087  0.073227621   0.07407559            4 
 1082000   0.83452039   -2.8015194    951.88574   0.07331221  0.074038868            3 
 1083000   0.81697836   -2.8026274    948.79177  0.073006446  0.074002345            2 
 1084000   0.83361243   -2.8074859    950.32707  0.073057124  0.073966018            7 
 1085000    0.7875249   -2.7964796    957.24597  0.073521196  0.073929951            4 
 1086000   0.81635274    -2.809212    952.35322  0.073078055   0.07389377            3 
 1087000   0.82328307   -2.7963674    951.26108  0.072927099  0.073857496            3 
 1088000    0.8012296   -2.8030122     953.8994  0.073062148  0.073820577            1 
 1089000    0.8182086   -2.8028827    951.99069  0.072848997  0.073784325            2 
 1090000   0.81870796   -2.8243107    953.63748  0.072908064    0.0737478            3 
 1091000   0.82513506   -2.8117915    951.34704  0.072666288  0.073711138            1 
 1092000   0.79224177   -2.7970808     952.6436  0.072698688  0.073675523            4 
 1093000   0.82144534   -2.7868778    953.74281  0.072715981  0.073639263            2 
 1094000   0.81379692   -2.7816986    953.71971  0.072647753  0.073603193            2 
 1095000   0.81534004   -2.7913068    957.38262  0.072860169  0.073567665            3 
 1096000   0.81497496   -2.7980929    956.77401  0.072747415  0.073532206            1 
 1097000   0.80032995   -2.7855572    958.98182  0.072848817  0.073497032            3 
 1098000   0.82539376   -2.8312452    954.92527  0.072474595  0.073461097            2 
 1099000   0.80505797   -2.8335931    956.82783  0.072552914  0.073425328            5 
 1100000   0.80557314   -2.8051327    960.30811  0.072750615  0.073390314            5 
 1101000   0.81141266   -2.8172187    959.16348  0.072597901  0.073355102            6 
 1102000   0.82116645   -2.8194618    959.04095  0.072522758  0.073319306            6 
 1103000   0.80388278   -2.8028107    958.07664  0.072384152  0.073283659            3 
 1104000   0.83623345   -2.8082436    957.25299  0.072256415  0.073248114            3 
 1105000   0.81501843   -2.8067103    961.06279   0.07247834  0.073212742            5 
 1106000   0.78816305   -2.8294285    962.69812  0.072536024  0.073177072            5 
 1107000   0.82920705   -2.8152446    962.18124   0.07243159  0.073141762            3 
 1108000   0.81198438   -2.8101983     965.6391  0.072626286  0.073106419            3 
 1109000   0.82513374   -2.8206428    963.51057  0.072400854  0.073071122            2 
 1110000   0.81819449   -2.8337328    965.52683  0.072486999  0.073035764            4 
 1111000   0.81752249   -2.8251036    965.98019   0.07245576  0.073000801            9 
 1112000   0.80338475   -2.8118227    966.83493  0.072454656  0.072965829            5 
 1113000   0.81643105   -2.8014041    963.64338  0.072150597  0.072930578            4 
 1114000   0.80938295   -2.8025643    966.98861  0.072336072  0.072894705            3 
 1115000   0.80071971   -2.8311551    963.52066  0.072012008  0.072859295            4 
 1116000   0.80260946   -2.7994122     966.8023  0.072192525  0.072823805            3 
 1117000   0.79865391   -2.8366587    966.05817  0.072072379  0.072788739            3 
 1118000   0.79983388   -2.8218625    965.83907  0.071991583  0.072753289            2 
 1119000   0.81493714   -2.8099373    963.22918  0.071732885  0.072718302            7 
 1120000    0.7867574   -2.8174938    966.81677  0.071935772  0.072682928            5 
 1121000   0.81667222    -2.828905    968.07306  0.071964991  0.072647113            4 
 1122000   0.81684106   -2.8367678    966.69004  0.071798132   0.07261125            3 
 1123000   0.78892888   -2.8004468    964.50227  0.071571852  0.072575504            3 
 1124000   0.80899555   -2.8330233    966.47903  0.071654732  0.072539754            6 
 1125000   0.80839948   -2.8472849    967.46692  0.071664217  0.072503941            4 
 1126000   0.80851413   -2.8081163     971.7365  0.071916556  0.072468519            3 
 1127000   0.79799077   -2.8150869    971.20374  0.071813349  0.072433554            3 
 1128000   0.80837762   -2.8406936    971.60848  0.071779586  0.072398281            3 
 1129000   0.79679955   -2.8409506    973.24853  0.071837063  0.072362925            3 
 1130000   0.82148195   -2.8425025    971.31995  0.071631265  0.072327721            5 
 1131000   0.78741459   -2.8370604    970.57839  0.071513291  0.072292147            8 
 1132000   0.78558191   -2.8045168    972.18811  0.071568619  0.072257051            5 
 1133000   0.79607132   -2.8116078    973.10985  0.071573246  0.072222775            8 
 1134000   0.79945532   -2.8381603    973.97971  0.071574053  0.072187944            3 
 1135000   0.77440063    -2.834496    971.94268   0.07136143   0.07215321            2 
 1136000   0.81214291   -2.8397475    975.67677  0.071572533  0.072118049            3 
 1137000   0.76656016   -2.8297879      971.778  0.071223835  0.072083141            6 
 1138000   0.80565982   -2.8292064    975.84384  0.071458981  0.072047919            4 
 1139000   0.79560278   -2.8183434    978.84765  0.071616012   0.07201305            3 
 1140000   0.79126626    -2.845489    976.04126  0.071348045  0.071978421            3 
 1141000    0.7867373   -2.8383578    975.64611  0.071256655  0.071943747           10 
 1142000   0.79214508   -2.8682095    977.19119  0.071307004  0.071908963            3 
 1143000   0.80190659   -2.8316481    980.30808  0.071471863  0.071873982            4 
 1144000    0.8065375   -2.8427447    980.19751  0.071401334   0.07183949            2 
 1145000   0.79217965   -2.8398921    981.99528  0.071469816  0.071805023            3 
 1146000   0.77495933   -2.8152085    981.51833  0.071372769  0.071770885            4 
 1147000   0.80440098   -2.8645761    980.16932  0.071212534  0.071736577            4 
 1148000   0.79299892   -2.8352658    981.35826  0.071236807  0.071702325            4 
 1149000   0.80580914   -2.8346065    983.40886  0.071323532  0.071668193            3 
 1150000    0.7895515    -2.842519    979.79234  0.070999445  0.071633552            5 
 1151000   0.78047726   -2.8499651    984.23756  0.071259598  0.071598236            2 
 1152000   0.79415626   -2.8294995     980.6404  0.070937529  0.071563515            3 
 1153000   0.78888081   -2.8443045     987.5529  0.071375607  0.071529093            3 
 1154000   0.79077448   -2.8263068    983.49021  0.071020379  0.071494652            3 
 1155000   0.80363797   -2.8352529    986.51518  0.071177141  0.071460221            3 
 1156000   0.79744013   -2.8352533    985.28939  0.071027205  0.071425754            3 
 1157000    0.8003742   -2.8465564    984.93842  0.070940537  0.071391373            4 
 1158000    0.7969204   -2.8508651    983.94424  0.070807731  0.071356755            6 
 1159000    0.8006334   -2.8499506    988.04977   0.07104183   0.07132234            5 
 1160000   0.80110701   -2.8201543    987.54632  0.070944419  0.071287877            4 
 1161000   0.78387111    -2.844132     984.7375  0.070681704  0.071253419            2 
 1162000   0.79728838    -2.823963    987.58781  0.070825288  0.071218596            5 
 1163000   0.79329709    -2.822022    985.63698  0.070624604  0.071184266            8 
 1164000    0.7904047   -2.8656179    983.34562  0.070399887  0.071149739            5 
 1165000   0.79720389   -2.8546172    985.71464  0.070508916  0.071115168            4 
 1166000   0.78290172   -2.8362256    986.37922  0.070495942  0.071080043            6 
 1167000    0.7857773   -2.8571255    987.52716  0.070517506  0.071045153            9 
 1168000    0.7867662   -2.8355459    985.96646   0.07034578  0.071010716            7 
 1169000    0.7778312   -2.8505591    990.87479    0.0706355    0.0709759            3 
 1170000   0.78379292   -2.8382643    989.72517  0.070493246  0.070941724            5 
 1171000   0.78455377   -2.8479032     988.6449   0.07035617  0.070907047            7 
 1172000   0.78149279   -2.8298495    991.18598  0.070476819  0.070872808            2 
 1173000   0.79448791   -2.8620721    989.54575  0.070300209  0.070838162            7 
 1174000   0.77657755   -2.8366674    985.90776  0.069982095  0.070803404            3 
 1175000   0.76660458   -2.8322829    992.28413  0.070374761  0.070768529            4 
 1176000   0.78072448   -2.8567957    993.54894  0.070404545  0.070733405            2 
 1177000   0.79018102   -2.8363981    990.45732  0.070125837   0.07069861            3 
 1178000    0.7752026   -2.8810948    992.16713  0.070187262  0.070663423            2 
 1179000   0.78236223   -2.8576528    989.32032  0.069926514  0.070628477            3 
 1180000   0.79729318   -2.8765483    989.35511  0.069869711   0.07059271            6 
 1181000   0.78739597   -2.8514723    990.33863  0.069879949  0.070557248            6 
 1182000   0.78703947   -2.8594649    990.02005  0.069798368  0.070521858            5 
 1183000   0.77934346   -2.8631632    990.50473  0.069773509  0.070486559            3 
 1184000   0.78612955   -2.8702152    992.18615  0.069832922  0.070451198            8 
 1185000   0.77791566   -2.8617845    995.87029  0.070033073   0.07041603            3 
 1186000   0.78747341   -2.8467462    994.35019  0.069867214  0.070380449            5 
 1187000   0.79777986   -2.8701364    996.22672  0.069940095  0.070345249            4 
 1188000   0.78801572   -2.8482804    994.27695  0.069744455  0.070310242            4 
 1189000   0.78615872    -2.863428    993.43383  0.069626705  0.070275379            4 
 1190000   0.78926008   -2.8760599    994.19897  0.069621776  0.070240378            4 
 1191000   0.77226421   -2.8454566    993.60682  0.069521888   0.07020562            4 
 1192000   0.77733968   -2.8688623    998.07882  0.069776204  0.070170952            2 
 1193000   0.77175714   -2.8636181    996.54472  0.069610556  0.070136207            5 
 1194000   0.78303971   -2.8624856    995.96022  0.069511461  0.070101458            7 
 1195000   0.76095731   -2.8656076    997.35621  0.069550642  0.070066215            3 
 1196000   0.80180482   -2.8707528    997.12822  0.069476604  0.070031127            3 
 1197000   0.76747867   -2.8663478    999.24005  0.069565584  0.069995533            3 
 1198000   0.77457603   -2.8445929    997.05257  0.069355354  0.069960246            4 
 1199000   0.76979902   -2.8566198    999.38528  0.069459639  0.069924919            4 
 1200000   0.76697742   -2.8600566    999.97055  0.069442399  0.069889971            9 
 1201000   0.77453363   -2.8692366    997.31828  0.069200547  0.069855217            2 
 1202000   0.78654362   -2.8901039    997.35905  0.069145802  0.069820181            4 
 1203000   0.78003434   -2.8615052    1001.1611  0.069351696  0.069785189            2 
 1204000   0.76131571   -2.8586011    999.19076  0.069157721  0.069750358            3 
 1205000   0.75562657   -2.8726722    999.06331  0.069091515  0.069715248            4 
 1206000   0.76877356   -2.8898219    1000.6608   0.06914461  0.069680451            4 
 1207000   0.76778512   -2.8664754    1001.1367  0.069120183   0.06964576            3 
 1208000   0.78953186   -2.8752994    1002.0848  0.069128364  0.069610947            2 
 1209000   0.76739627   -2.8480875    1006.6016  0.069382522  0.069576597            6 
 1210000   0.77299636   -2.8480846    1002.0696  0.069013056   0.06954239            3 
 1211000   0.77625331   -2.8673644    1006.0744  0.069231654  0.069508505            7 
 1212000   0.77021462   -2.8663371    1003.6068  0.069004869  0.069474076            3 
 1213000   0.76590084   -2.8995464    1003.0876  0.068912314   0.06943936            7 
 1214000   0.78148063   -2.8745497    1004.2242  0.068933563  0.069404575            5 
 1215000   0.76864867   -2.8938186    1000.6887  0.068634345  0.069369748            2 
 1216000   0.75344872   -2.8695394    1003.9509  0.068801458  0.069334953            2 
 1217000   0.76848178   -2.8776335    1005.5451  0.068854089  0.069300233            3 
 1218000   0.77045044   -2.8779248    1007.9898   0.06896482  0.069265527            5 
 1219000   0.77166105   -2.8795808    1004.4804  0.068668331  0.069231163            5 
 1220000   0.77116331   -2.8766402    1010.8633  0.069048042  0.069196331            6 
 1221000   0.78084511   -2.8679127    1005.8831  0.068651592  0.069161749            5 
 1222000   0.75612113   -2.8731158    1006.9666    0.0686693  0.069127133            4 
 1223000   0.76923786   -2.8867322    1008.2762  0.068702383  0.069092681            7 
 1224000   0.76477378   -2.8703061    1004.5944  0.068395588  0.069058012            2 
 1225000   0.76073304   -2.8745854    1011.7784  0.068828463  0.069023304            6 
 1226000   0.76382362   -2.8709303    1007.2932  0.068467455  0.068988758            8 
 1227000    0.7564587   -2.8624385    1008.5169  0.068494764  0.068953869            1 
 1228000   0.77548696   -2.8616363    1013.1918  0.068756227   0.06891934            4 
 1229000   0.76057502   -2.9011179     1008.826  0.068404257  0.068884995            4 
 1230000   0.75889194     -2.89292    1009.5411  0.068397095  0.068850333            5 
 1231000   0.77237122   -2.8831891    1007.8471  0.068226851  0.068815884            4 
 1232000   0.76309839   -2.8749052    1012.0685  0.068457012   0.06878106            7 
 1233000   0.75349964    -2.883877    1007.8646  0.068117371  0.068746592            5 
 1234000    0.7687307   -2.8996688    1011.6897  0.068320482  0.068711635            5 
 1235000    0.7544018   -2.8698557    1010.7641  0.068202707  0.068677111            3 
 1236000   0.74836645   -2.8905385    1010.9249  0.068158366  0.068641912            3 
 1237000   0.74798441   -2.9180682    1011.7529   0.06815905  0.068606818            3 
 1238000   0.76937513   -2.8773027    1012.2433  0.068137004  0.068571811            7 
 1239000   0.75655242   -2.8781993    1011.2326  0.068014029  0.068536744            3 
 1240000   0.75581675   -2.9069208    1011.0032  0.067943764  0.068501577            3 
 1241000   0.76472037   -2.9058406    1011.4148  0.067916652  0.068466336            3 
 1242000   0.76079973   -2.8947734    1014.1081  0.068042679  0.068431201            2 
 1243000   0.75619276   -2.8751871      1011.73  0.067828506  0.068395877            2 
 1244000   0.77112214   -2.9008653    1011.2646  0.067742802  0.068360493            4 
 1245000   0.76924166   -2.8871276     1013.026  0.067806295  0.068324909            5 
 1246000   0.77081947   -2.8700066    1012.1097  0.067690591  0.068289042            3 
 1247000   0.76804886    -2.895635    1010.8337  0.067551036  0.068253767            3 
 1248000   0.76835407   -2.8809117    1015.7748   0.06782684  0.068218299            3 
 1249000     0.753183   -2.8680911    1012.9306  0.067582772  0.068182889            2 
 1250000   0.75472325    -2.880092    1013.1535  0.067543565  0.068147259            5 
 1251000   0.75495226   -2.8812638    1016.7423  0.067728635  0.068111872            4 
 1252000   0.76948056   -2.8864973    1014.0212  0.067493421  0.068076662            7 
 1253000   0.77642181   -2.8646672    1014.9888   0.06750391  0.068041698            3 
 1254000   0.74841771   -2.9012398    1016.0797  0.067522578  0.068006789            9 
 1255000   0.74793415   -2.8989762    1019.5612  0.067699949  0.067971958            4 
 1256000   0.75949281   -2.9029376      1015.58  0.067381903  0.067937037            5 
 1257000   0.76979473   -2.9136963    1013.4482  0.067186969  0.067902084            3 
 1258000   0.76012156   -2.8967701    1017.3477  0.067391875  0.067867303            4 
 1259000   0.73511075   -2.9184819    1013.8784  0.067108713  0.067832103            6 
 1260000   0.75193761   -2.9042154    1018.6712  0.067372436  0.067796948            3 
 1261000   0.74905532   -2.9036501     1019.681  0.067385737   0.06776222            4 
 1262000   0.75186376   -2.9079958    1016.0668  0.067093685  0.067727268            8 
 1263000   0.75075601   -2.9127832    1017.6125  0.067142548  0.067691657            5 
 1264000   0.74554244    -2.907263    1016.4055  0.067009857  0.067656338            3 
 1265000   0.74844295   -2.9043826    1016.3484   0.06695312  0.067621221            2 
 1266000   0.73400349   -2.9102332    1017.5274  0.066977845  0.067585749            6 
 1267000   0.75292223   -2.9011251     1020.775  0.067138584  0.067550842            5 
 1268000   0.76028235   -2.9274742    1018.5819  0.066941504  0.067515643            3 
 1269000   0.73723418   -2.9097531     1020.288  0.067000785  0.067480139            4 
 1270000   0.76127824   -2.9142323    1019.5876  0.066902072  0.067444845            8 
 1271000   0.75313815   -2.9023415    1019.4216  0.066838551  0.067409475            3 
 1272000   0.72935211   -2.8989127    1020.4559  0.066853768  0.067374334            4 
 1273000   0.74552264   -2.9195584    1018.8652  0.066697119   0.06733896            3 
 1274000   0.73557309   -2.9268556    1017.7788  0.066573705  0.067303137            6 
 1275000     0.761231   -2.9154752    1022.4965  0.066829838  0.067267368            3 
 1276000   0.76527267   -2.9054043    1019.9253   0.06660954  0.067231794           10 
 1277000   0.73755493   -2.8847111    1021.8024  0.066679877  0.067196305            7 
 1278000   0.74222515   -2.8988277    1018.9224  0.066439909  0.067160635            6 
 1279000   0.73963116   -2.9030587     1025.354  0.066807009  0.067125447            3 
 1280000   0.73740821   -2.9077229    1019.8589  0.066397067  0.067090165            3 
 1281000    0.7525593   -2.9064176    1025.5103  0.066712874  0.067054675            2 
 1282000   0.77044867   -2.9259095    1022.4915  0.066464606  0.067019292            8 
 1283000   0.75292954   -2.9223158    1023.4782  0.066476893  0.066983884            4 
 1284000    0.7386218   -2.9295043    1022.2584  0.066345949  0.066948967            7 
 1285000    0.7377145     -2.92189    1018.8495  0.066073246  0.066913853            4 
 1286000   0.73769487   -2.9034318    1025.1609  0.066430854  0.066878497            2 
 1287000   0.76109457   -2.9035901     1024.134  0.066312745  0.066843266            5 
 1288000   0.73103983   -2.8965625    1022.6627  0.066166067  0.066808241            4 
 1289000    0.7439803   -2.9202348    1021.9574  0.066069133  0.066772787            3 
 1290000   0.73036551    -2.927064    1022.6848   0.06606491  0.066737173            6 
 1291000   0.72573539   -2.9025529    1026.7451  0.066275828  0.066701928            6 
 1292000   0.74091278   -2.9049272    1022.3873  0.065943452   0.06666676            4 
 1293000   0.74614725   -2.9118847    1027.7278  0.066236649  0.066631702            3 
 1294000   0.74826157   -2.9124892    1025.0494  0.066012972   0.06659616            6 
 1295000   0.74596515   -2.9506261    1028.5892  0.066189783   0.06656061            5 
 1296000   0.74031443   -2.9367051    1027.2889  0.066055096  0.066525088            9 
 1297000   0.74035127    -2.909444    1026.2092  0.065934796  0.066489651            3 
 1298000   0.73565737   -2.8923988     1027.614  0.065974189  0.066454411            5 
 1299000    0.7507052   -2.9247689    1026.5471   0.06585496  0.066419309            6 
 1300000   0.73963952   -2.9268297    1031.8213  0.066142389  0.066384025            4 
 1301000   0.73839325   -2.9313777    1029.2041  0.065923911  0.066348757            4 
 1302000   0.73566629   -2.9207644    1029.1894  0.065872336  0.066313701            4 
 1303000   0.73957516   -2.9231814     1027.794  0.065732541  0.066278591            4 
 1304000   0.73255817   -2.8965498    1031.5226  0.065920412  0.066243551            3 
 1305000   0.72071035   -2.9377566    1031.6564  0.065878441  0.066208555            7 
 1306000   0.74135322   -2.9304019    1031.4778  0.065816602   0.06617338            5 
 1307000   0.73700917   -2.9263497    1029.2499  0.065624198  0.066138352            3 
 1308000   0.73115276   -2.9305186    1028.0336  0.065496533  0.066103558            3 
 1309000   0.72895124   -2.9333465    1032.4401  0.065727028  0.066068509            2 
 1310000   0.72430061   -2.9213622    1033.1112  0.065719545  0.066033371            3 
 1311000   0.72903611   -2.9386583    1029.9886  0.065470926  0.065998272            5 
 1312000   0.72486129   -2.9228201    1030.1703  0.065432567  0.065963346            4 
 1313000   0.72875907   -2.9328766    1032.6706  0.065541421   0.06592832            8 
 1314000   0.75295302   -2.9237586     1031.909  0.065443241  0.065893579            3 
 1315000   0.73717708   -2.9419329    1032.1533  0.065408954  0.065859176            5 
 1316000   0.73491827   -2.9524096    1033.5002  0.065444542  0.065824106            5 
 1317000   0.73186987   -2.9193679    1032.2369  0.065314911  0.065789186            5 
 1318000    0.7321532    -2.936232    1029.7105  0.065105619  0.065753849            4 
 1319000   0.72702838   -2.9052897    1035.3178  0.065410526  0.065718964            2 
 1320000   0.73023597   -2.9260138    1032.0669  0.065155738  0.065683859            7 
 1321000   0.72335644   -2.9249676    1033.0956  0.065171311  0.065648922            5 
 1322000   0.72109683   -2.9485017    1035.6014  0.065279968  0.065614068            5 
 1323000   0.72648851   -2.9364068    1030.6674  0.064919842  0.065579063            7 
 1324000   0.72855479     -2.94334    1035.6871  0.065186751   0.06554432            6 
 1325000   0.72411791   -2.9142004    1036.7022  0.065201397  0.065509651            4 
 1326000   0.73576348   -2.9250221    1038.6471  0.065274451  0.065475042            7 
 1327000   0.71059558    -2.950299    1032.2986  0.064826587   0.06544014            3 
 1328000   0.70536259   -2.9260473    1037.7901  0.065122371  0.065405335            8 
 1329000   0.71679403   -2.9109036    1039.5738  0.065185212  0.065371015            4 
 1330000    0.7173459   -2.9527515    1038.9647  0.065098038  0.065336604            4 
 1331000   0.71640765   -2.9464781    1037.3773  0.064949743  0.065301741            8 
 1332000    0.7185814     -2.91812    1040.6128  0.065103404  0.065267185            8 
 1333000   0.72156585   -2.9515876    1035.9811  0.064765011  0.065232694            5 
 1334000   0.72191151    -2.922811    1040.4826  0.064997662  0.065198339            4 
 1335000     0.733122   -2.9483771    1039.8144  0.064907268  0.065163854            6 
 1336000    0.7218728   -2.9433959    1039.3861  0.064831969  0.065129344            3 
 1337000   0.72160378   -2.9290355    1039.3485  0.064781132  0.065094914            7 
 1338000    0.7020363   -2.9578309      1041.61  0.064873568  0.065060451            4 
 1339000   0.71333248   -2.9436662    1038.2342  0.064615027  0.065026167            3 
 1340000   0.72638316   -2.9578104    1039.6011  0.064651808  0.064991688            3 
 1341000   0.69103513   -2.9499104    1039.3008  0.064584938  0.064957261            4 
 1342000   0.71663534   -2.9445458    1038.4898  0.064486449  0.064923117            5 
 1343000   0.72564179   -2.9602326    1044.5309  0.064813286  0.064888975            3 
 1344000   0.72013573   -2.9438943    1041.8768  0.064600493  0.064855175            2 
 1345000   0.70463502   -2.9339921    1043.4067  0.064647254  0.064821369            6 
 1346000   0.71634501   -2.9365279    1047.6825  0.064863946  0.064787599            7 
 1347000   0.72541005   -2.9476525    1039.6741  0.064320346  0.064753631            7 
 1348000   0.71541685   -2.9344207    1045.8673  0.064655497  0.064720138            3 
 1349000   0.71304825   -2.9524978    1046.9417   0.06467394  0.064686916            3 
 1350000   0.72023549   -2.9580409    1048.3804  0.064714842  0.064653644            8 
 1351000   0.71336986   -2.9433205    1046.2777  0.064537239  0.064620428            4 
 1352000   0.71947189   -2.9478398    1047.1668  0.064544305  0.064587155            7 
 1353000   0.70222656   -2.9568276    1049.7317  0.064654575   0.06455356            3 
 1354000   0.70891443   -2.9796923    1045.6726  0.064357005  0.064520077            7 
 1355000   0.70918584   -2.9492051    1047.1694  0.064401565  0.064486614            4 
 1356000   0.73793335   -2.9513188     1049.633  0.064505468  0.064453421            6 
 1357000   0.70314973   -2.9554904    1048.6057  0.064394847  0.064420467            5 
 1358000   0.70965974   -2.9573257    1052.5974   0.06459238  0.064387625            4 
 1359000   0.71946979   -2.9568581     1047.039  0.064204008  0.064354864            5 
 1360000   0.71607307   -2.9558245    1051.2859   0.06441703  0.064322071            5 
 1361000   0.72227518   -2.9469792    1053.0567  0.064478124  0.064289646            4 
 1362000    0.6978533   -2.9655326    1053.1689  0.064437645  0.064257149            2 
 1363000   0.70756787   -2.9485634    1052.8247  0.064369329   0.06422451            9 
 1364000   0.70509929   -2.9540606    1052.0661  0.064275785  0.064191982            5 
 1365000   0.71410372   -2.9484011    1052.4419   0.06425164  0.064159681            6 
 1366000   0.70949726   -2.9720921    1054.8898   0.06435394  0.064127738            4 
 1367000   0.70486998   -2.9528849    1052.9932  0.064191246  0.064095423            3 
 1368000   0.70352607   -2.9640065    1054.5388  0.064238473  0.064063008           14 
 1369000   0.72243433   -2.9640532    1053.7608  0.064144194  0.064030767            3 
 1370000   0.70079594     -2.97373    1053.7785  0.064098449  0.063998626            6 
 1371000   0.69974892    -2.962436    1055.0059  0.064126301  0.063966278            7 
 1372000   0.71829349   -2.9491372    1054.3314  0.064038596  0.063934251            6 
 1373000   0.70700949   -2.9758152    1055.3482  0.064053667  0.063902099            4 
 1374000    0.7031758   -2.9567757    1053.8776  0.063917853  0.063869936            9 
 1375000   0.70916144   -2.9565907     1055.825  0.063989395  0.063837651            7 
 1376000   0.71402446   -2.9561433    1055.9978  0.063953353  0.063805625            6 
 1377000   0.70087934   -2.9740556    1056.7113   0.06395009  0.063773831            6 
 1378000   0.69679511    -2.945133    1056.0275  0.063862329  0.063741658            7 
 1379000   0.69943052   -2.9633768    1060.2634  0.064071994  0.063710074            4 
 1380000   0.69865881   -2.9868371    1060.4625  0.064037589  0.063677928            5 
 1381000   0.69578107   -2.9660188    1057.6306  0.063820338  0.063645798            6 
 1382000    0.6918924   -2.9777334     1063.479  0.064126809  0.063613947            5 
 1383000   0.71835985   -2.9913836    1059.7872   0.06385799  0.063581518            7 
 1384000   0.71342297   -2.9697142    1059.1022  0.063770604  0.063549601            5 
 1385000   0.69219672   -2.9663004    1060.0966  0.063784393  0.063517677            2 
 1386000   0.69710121   -2.9755464    1057.1092  0.063558756  0.063485307            4 
 1387000   0.70669665   -2.9547046     1057.111   0.06351304  0.063453241            5 
 1388000   0.69963672   -2.9569222    1062.1574  0.063770257  0.063421225            4 
 1389000   0.69368662   -2.9626313     1057.541  0.063447385  0.063389098            9 
 1390000   0.70819199   -2.9821008    1061.9214  0.063664352  0.063357031            5 
 1391000   0.69147684   -2.9578894    1058.4954  0.063413338  0.063324938            7 
 1392000   0.69469218    -2.979196    1060.0824   0.06346279  0.063292926            6 
 1393000    0.6930906   -2.9840586    1062.4681  0.063559949  0.063260611            7 
 1394000   0.69923489   -2.9798165    1059.6948  0.063348563  0.063228093            6 
 1395000   0.69221203   -2.9793167    1058.8048  0.063249987  0.063195727            3 
 1396000   0.69836116   -2.9936447    1056.8935  0.063090588  0.063163577            8 
 1397000   0.69481836   -2.9683363    1061.4694  0.063318385  0.063131248            7 
 1398000   0.69454964   -2.9731171    1062.6515  0.063343559  0.063099085            4 
 1399000   0.69095674    -2.952685    1061.4915   0.06322918  0.063066972            4 
 1400000    0.6984273   -2.9809089    1061.9963  0.063214065  0.063034994            4 
 1401000   0.69628248   -2.9801503    1064.8788    0.0633404  0.063003077            8 
 1402000   0.69763705   -2.9791775    1060.3095  0.063023628  0.062971132            8 
 1403000   0.69459281   -2.9568607    1064.1954  0.063209513  0.062939213            5 
 1404000   0.69159097   -2.9778274    1062.9012  0.063087675  0.062907441            4 
 1405000   0.69479765   -2.9997062    1065.4739  0.063195367  0.062875568            4 
 1406000   0.68432194   -2.9963586     1066.962  0.063238618  0.062843607           11 
 1407000   0.70962613   -2.9803679    1064.2926  0.063035569   0.06281165            6 
 1408000   0.69502511   -2.9962936    1063.5329   0.06294584  0.062779669            7 
 1409000   0.69473581   -2.9733239    1064.9927  0.062987501  0.062747904            3 
 1410000   0.68912974   -3.0041848    1065.3718  0.062965237  0.062715869            2 
 1411000   0.67036533   -3.0263658     1061.115  0.062669207  0.062683959            3 
 1412000   0.68206929   -2.9924852    1067.0374  0.062974352  0.062652019           11 
 1413000   0.68633541   -3.0180517    1066.1881  0.062879696  0.062620109            8 
 1414000   0.70529723   -3.0069571     1066.885  0.062876297  0.062587947            8 
 1415000   0.68138412   -2.9954879    1068.2163  0.062910266  0.062556449            2 
 1416000   0.69270519   -2.9843857    1065.6097  0.062712437  0.062524465            6 
 1417000   0.69792648    -2.988235    1070.8814  0.062978207  0.062492979            7 
 1418000   0.69411373    -2.987096    1067.7391  0.062749124   0.06246131            8 
 1419000   0.67382793   -2.9586247    1069.5777  0.062812879  0.062429936            6 
 1420000   0.67505733   -2.9845533    1069.1059  0.062740959  0.062398429            5 
 1421000   0.67629633    -2.982661     1068.244  0.062646261  0.062366907            5 
 1422000    0.6883442   -2.9997718    1068.2151  0.062600512  0.062335133            5 
 1423000   0.68405711    -2.977664    1069.8488  0.062652189   0.06230341            5 
 1424000   0.68310727   -2.9876733    1068.3983  0.062523309  0.062272028            3 
 1425000   0.68813885   -3.0112479    1068.2969  0.062473501  0.062240474            6 
 1426000   0.67781474   -2.9830997    1071.7579  0.062631945  0.062209011            5 
 1427000   0.68864769   -2.9898039    1069.5116   0.06245688   0.06217743            4 
 1428000   0.68763486   -3.0018835    1069.7498  0.062427041  0.062145836           11 
 1429000    0.6854196   -2.9969701    1073.0402  0.062575236   0.06211468            5 
 1430000   0.68837851   -2.9893123    1073.3336  0.062548578  0.062083711            4 
 1431000   0.68734211   -2.9825265    1071.9638  0.062425101  0.062052407            4 
 1432000   0.67601799    -3.009773     1073.463  0.062468749  0.062021278            7 
 1433000   0.67977419   -3.0257503    1070.5309  0.062254644  0.061989918            5 
 1434000   0.67969669   -3.0039385    1072.6972  0.062337125  0.061958694            4 
 1435000   0.67821372   -2.9997317    1077.8238  0.062591393  0.061927475            4 
 1436000   0.68894225   -2.9990379    1074.7958  0.062372086  0.061896285            6 
 1437000   0.67780774   -3.0086998    1073.0794  0.062229144  0.061865216            6 
 1438000   0.67062199    -2.993211    1073.9304  0.062235186  0.061833831            7 
 1439000   0.67534819   -3.0034492    1072.0477   0.06208291  0.061802391            5 
 1440000   0.67922745   -3.0002943    1073.6541  0.062132758  0.061770804            5 
 1441000   0.67760049   -3.0139987    1076.9577  0.062280691   0.06173944            3 
 1442000   0.66985199   -2.9877611    1074.2459  0.062080785  0.061708039            8 
 1443000   0.68248577   -3.0003092    1074.3567  0.062044163  0.061676699            6 
 1444000   0.67521702   -3.0132006    1072.1522  0.061873975  0.061645443            2 
 1445000   0.67380128   -2.9972479    1074.0837  0.061942542  0.061614089            4 
 1446000    0.6773126   -2.9910943    1076.6778  0.062049205  0.061582949            5 
 1447000    0.6632108   -2.9986957    1074.0215  0.061853347  0.061551766            9 
 1448000   0.66916662   -2.9740199    1080.7151  0.062195851  0.061520622            3 
 1449000   0.67823289   -3.0096746    1078.2135  0.062009057  0.061489285            5 
 1450000   0.67909279   -2.9975248    1075.4623  0.061808179  0.061458089           13 
 1451000   0.68569342   -3.0077452    1079.7473  0.062011676  0.061426944            9 
 1452000   0.66932172   -3.0121631    1077.1638  0.061820696  0.061395796            4 
 1453000   0.66474603   -3.0055707    1076.4804  0.061738954  0.061364675            7 
 1454000   0.68180689   -2.9923301    1080.1152  0.061904816   0.06133366            6 
 1455000   0.68429043   -3.0129685    1078.7099   0.06178178  0.061302842            5 
 1456000   0.66976336   -3.0138377    1074.7615  0.061513364  0.061271452           10 
 1457000    0.6702279   -3.0105545     1077.568  0.061631665   0.06124005            6 
 1458000   0.66062149   -3.0192007    1079.7664  0.061715042  0.061208709            2 
 1459000    0.6719138   -2.9998347    1080.2196  0.061698627  0.061177269            6 
 1460000   0.67908821   -2.9958796    1075.1023  0.061364286  0.061145869            5 
 1461000   0.65709875   -3.0205867    1078.4085  0.061510863  0.061114297            6 
 1462000   0.66983814   -3.0103383    1078.9547  0.061499926  0.061083239            8 
 1463000   0.67206551   -3.0168009    1078.6251  0.061439116  0.061051773            3 
 1464000   0.67076653    -3.024235    1074.9597   0.06118851   0.06102042            7 
 1465000   0.66043623   -3.0364855    1074.9803   0.06114791  0.060988738            6 
 1466000   0.65768895    -3.034148    1076.6303  0.061199997  0.060957023            4 
 1467000   0.66729185   -2.9900083    1078.2187  0.061248507  0.060925365            5 
 1468000   0.66223053   -3.0173237    1078.9742  0.061249672  0.060893798            5 
 1469000   0.67362312   -3.0155124    1079.5286  0.061239425  0.060862088            4 
 1470000   0.66552911   -3.0020727     1079.049  0.061170578  0.060830606           13 
 1471000   0.66781118   -3.0404692    1080.6613  0.061220329   0.06079909            8 
 1472000   0.67173779   -3.0150616    1076.4928  0.060942751  0.060767502            5 
 1473000   0.67455706   -3.0247063    1078.7918  0.061031444   0.06073588            8 
 1474000   0.65941221   -3.0042615    1077.1643  0.060898029  0.060704365            8 
 1475000   0.65246262    -3.031584    1078.9477  0.060957497  0.060672607            5 
 1476000   0.65896304   -3.0254298    1081.6986   0.06107151  0.060641033            6 
 1477000   0.65516543   -3.0129954     1081.656   0.06102776  0.060609593            6 
 1478000   0.65043073   -3.0341109    1082.6997  0.061045316  0.060577846            5 
 1479000   0.64735853   -3.0279574    1078.6728  0.060777146  0.060546212            4 
 1480000   0.64844593   -3.0428976    1080.7879  0.060855176  0.060514581            5 
 1481000   0.66542615   -3.0315933    1077.4977  0.060628949  0.060483042            9 
 1482000   0.64551941   -3.0310705    1082.9322  0.060893625  0.060451646            7 
 1483000   0.66070938   -3.0386409    1079.8114  0.060677196  0.060420114            3 
 1484000   0.63739364   -3.0307016    1083.2237  0.060827926  0.060388772            5 
 1485000   0.65902502   -3.0482164    1080.2049  0.060617559  0.060357407            6 
 1486000     0.655039    -3.019152    1079.4404  0.060533897  0.060325778            5 
 1487000    0.6576222   -3.0414054    1078.7594   0.06045502  0.060294347            7 
 1488000   0.66374801   -3.0143271    1083.3102  0.060669253  0.060262896            6 
 1489000   0.67321887   -3.0156978    1084.1573  0.060675916  0.060231447            7 
 1490000    0.6625791   -3.0415861    1085.2443  0.060695988  0.060200027            5 
 1491000   0.64584214    -3.042193    1080.6432  0.060398119  0.060168442            5 
 1492000   0.64677661   -3.0123379    1083.4041  0.060511845  0.060136978            8 
 1493000   0.65330161   -3.0382528    1083.3343  0.060467421  0.060105487           12 
 1494000   0.66210112   -3.0255192    1087.1067  0.060637364  0.060074189            5 
 1495000   0.65836889   -3.0255476    1082.7302  0.060352852  0.060042752            6 
 1496000   0.65509359   -3.0531853    1085.0572  0.060442134  0.060011296            4 
 1497000   0.65226921   -3.0299389    1086.9385  0.060506488  0.059979959            5 
 1498000   0.66013393   -3.0240628    1085.5816   0.06039061  0.059948782            7 
 1499000   0.64467977   -3.0481352    1085.6295  0.060352984  0.059917578            5 
 1500000   0.63869765   -3.0283377    1084.2113  0.060233958  0.059886313           11 
 1501000   0.65138883   -3.0348984    1084.1172  0.060188605  0.059855166           10 
 1502000   0.65511924   -3.0606773     1084.076  0.060146249  0.059824022           18 
 1503000   0.65479517   -3.0151312    1088.7781  0.060366936  0.059793196            6 
 1504000   0.65481718   -3.0340579     1089.419  0.060362309   0.05976217            3 
 1505000   0.66031034   -3.0403902     1085.788   0.06012115  0.059731186            4 
 1506000   0.64719995   -3.0248265    1090.1279  0.060321375  0.059700482            9 
 1507000   0.64693372   -3.0557223    1089.0082  0.060219432  0.059669668            4 
 1508000   0.65336337    -3.044571    1089.9227  0.060230032  0.059639047            5 
 1509000   0.65987001   -3.0410371     1086.988  0.060028051  0.059608174            8 
 1510000   0.66253821   -3.0529777    1091.6149  0.060243649  0.059577588            7 
 1511000    0.6463744    -3.033843    1091.1593  0.060178649  0.059546681            6 
 1512000   0.64658825   -3.0655649    1092.2857  0.060200929  0.059515892            4 
 1513000   0.64900309   -3.0519435    1088.4588  0.059950361  0.059484833            5 
 1514000   0.65770049   -3.0210769    1089.7967  0.059984404  0.059454042            8 
 1515000   0.65282876   -3.0338343     1086.591  0.059768481  0.059423203            4 
 1516000   0.63429133   -3.0501481    1089.0637  0.059864976  0.059392219            7 
 1517000   0.66737939    -3.050643    1089.8251   0.05986734  0.059361104            5 
 1518000   0.64302465   -3.0470225    1094.2006  0.060068107  0.059330203           14 
 1519000   0.65628306   -3.0493555    1089.8247  0.059788495  0.059299696            4 
 1520000   0.64578172   -3.0646458    1089.2975  0.059720256  0.059268634            4 
 1521000   0.63865134   -3.0548557    1091.2509  0.059788017  0.059237569            4 
 1522000   0.64217644   -3.0719209    1090.4432  0.059704511  0.059206363            8 
 1523000   0.65130416   -3.0487742     1087.463  0.059502241  0.059175359            8 
 1524000   0.65275246   -3.0486085    1091.6791  0.059693737  0.059144094            8 
 1525000   0.65555147   -3.0372299    1092.0881  0.059676947   0.05911307            4 
 1526000     0.636601   -3.0511409     1087.532  0.059389036  0.059082053            6 
 1527000    0.6324843   -3.0695018    1090.7039  0.059523243  0.059050872           15 
 1528000   0.64618319   -3.0573106    1091.2662  0.059514954  0.059019711           15 
 1529000   0.62107257   -3.0643835    1089.4567  0.059377408  0.058988719            6 
 1530000   0.63719368   -3.0509963    1090.5832  0.059399956  0.058957818            8 
 1531000   0.63658911   -3.0549142    1089.5198  0.059303276  0.058926828            6 
 1532000   0.64109326   -3.0435103    1091.7568  0.059386249  0.058895865            7 
 1533000   0.66558653   -3.0599125    1088.9995  0.059197623  0.058865081            6 
 1534000   0.63974629     -3.05362    1092.0653  0.059325583  0.058834217            4 
 1535000   0.64204147   -3.0565488    1091.1533   0.05923742  0.058803153            6 
 1536000   0.64090117   -3.0610243    1089.8371  0.059127448  0.058772133            6 
 1537000   0.63155621   -3.0814637    1091.5468  0.059181676  0.058741101            8 
 1538000   0.64279893   -3.0786453     1091.688  0.059150847  0.058710097            2 
 1539000   0.64173468   -3.0921016    1089.8105   0.05901075  0.058678918            4 
 1540000   0.63695887   -3.0649098    1091.4201  0.059059529  0.058647911            6 
 1541000   0.65059318   -3.0605359    1094.7576  0.059201687  0.058616999            6 
 1542000   0.64303315   -3.0466873    1096.4346  0.059253924  0.058586395            8 
 1543000   0.63657068   -3.0590002    1093.9803  0.059082973  0.058555327            5 
 1544000   0.63308291    -3.080007    1094.5273  0.059074227  0.058524337            7 
 1545000   0.64539407   -3.0848572    1094.0856  0.059012167  0.058493394            4 
 1546000   0.64332064   -3.0597827    1091.9272  0.058857655  0.058462444            4 
 1547000     0.627202   -3.0564941    1093.9228  0.058927107  0.058431556            6 
 1548000    0.6426289   -3.0664178    1095.6869  0.058984006  0.058400893           16 
 1549000   0.62208078   -3.0857925    1093.6307  0.058835309  0.058370173            5 
 1550000    0.6146136   -3.0952823    1094.4769  0.058842845  0.058339261            5 
 1551000   0.64202557   -3.0912423    1093.7419  0.058765412  0.058308499            5 
 1552000   0.64870009    -3.060944    1096.3538  0.058867796  0.058277785            5 
 1553000   0.64258453    -3.077812    1098.1934  0.058928601  0.058247061            5 
 1554000   0.62675499   -3.0702257    1097.3485   0.05884537  0.058216433            6 
 1555000   0.63136477   -3.0844062    1096.9617  0.058786803  0.058185477           18 
 1556000   0.64156838   -3.0710532    1097.5238  0.058779124  0.058154699           10 
 1557000   0.63666772   -3.0769705    1097.0175  0.058714276    0.0581238            4 
 1558000   0.64035758   -3.0713656    1096.1383  0.058629563  0.058093247           16 
 1559000   0.63920409   -3.0613968    1094.8985  0.058525684  0.058062496            8 
 1560000   0.64350318   -3.0848303    1095.1683  0.058502578  0.058031565            9 
 1561000   0.63609217   -3.0687932    1096.8722  0.058556063  0.058000719            6 
 1562000   0.62370609   -3.0735413    1099.2917  0.058647659  0.057969853            4 
 1563000   0.63861106    -3.067247    1094.5988   0.05835993  0.057939065            6 
 1564000   0.63568066   -3.0638276    1098.6935  0.058540786  0.057908325            7 
 1565000   0.61534365   -3.0693206    1099.8432    0.0585646  0.057877791            3 
 1566000   0.62424794   -3.0573357    1097.7278  0.058414634  0.057847106            3 
 1567000   0.62977616   -3.0825497    1095.8159  0.058275679  0.057816564            5 
 1568000   0.63323749   -3.0794016    1098.7131  0.058392491  0.057786019            5 
 1569000   0.62617594   -3.0800373     1096.334  0.058228913  0.057755451            8 
 1570000   0.61188668   -3.0918324    1098.2876  0.058295521  0.057724764            6 
 1571000   0.62920201   -3.0938254    1099.0978   0.05830139  0.057694247            8 
 1572000   0.62200474   -3.0742699    1099.9031  0.058306992  0.057663593            6 
 1573000   0.64050236    -3.099693     1099.437  0.058245232  0.057632908            6 
 1574000   0.63564981    -3.090596    1098.2567  0.058145737  0.057602472            5 
 1575000   0.60446371   -3.0984257     1097.692  0.058078943  0.057572098            6 
 1576000   0.62242997   -3.0972823    1100.3561  0.058182956  0.057541616            4 
 1577000   0.62453608   -3.0807772     1098.494  0.058047663  0.057511115            7 
 1578000   0.62033872   -3.0789091    1100.4134  0.058112243  0.057480657            7 
 1579000    0.6238906    -3.087591    1103.3691  0.058231429  0.057450287            6 
 1580000   0.61318095   -3.0859976    1099.6066  0.057996131  0.057419785            6 
 1581000   0.62229816   -3.1024858    1096.6827  0.057805329  0.057389273           10 
 1582000   0.61128813   -3.0881997    1097.7133  0.057823076  0.057358668            3 
 1583000   0.62163422   -3.0980509    1104.7887  0.058159019  0.057327996            4 
 1584000   0.62005822   -3.0808347    1101.3612   0.05794198  0.057297608            7 
 1585000   0.62113241   -3.0986987    1100.8855  0.057880413  0.057267158            5 
 1586000   0.62878613   -3.0935826    1100.7699  0.057837846  0.057236822            9 
 1587000   0.62461371   -3.0722181    1103.8398  0.057962603  0.057206541            7 
 1588000    0.6196864   -3.1012386    1101.9646  0.057827698  0.057176333            5 
 1589000   0.62009506   -3.0966526    1102.3611  0.057812097  0.057146211            5 
 1590000   0.62065749   -3.0821831    1102.3076  0.057772934  0.057116191            7 
 1591000   0.61326879     -3.10769    1102.8652  0.057765828  0.057086048            7 
 1592000   0.62071851   -3.1050533    1103.1277  0.057743284  0.057055751            6 
 1593000   0.61316114   -3.1030117     1100.168  0.057552208  0.057025582           22 
 1594000   0.62349675   -3.0846541    1107.8297   0.05791665   0.05699554            7 
 1595000   0.61071904   -3.0912497    1104.0823  0.057684551  0.056965548           10 
 1596000   0.63151936   -3.1059479    1103.4705  0.057616464  0.056935504            5 
 1597000   0.60318352   -3.0963924    1105.6457   0.05769389  0.056905473           12 
 1598000   0.60825977   -3.1134532    1103.1797  0.057529186  0.056875358            7 
 1599000   0.62162676   -3.0909059     1102.704   0.05746842  0.056845079            8 
 1600000   0.59791307    -3.088334     1102.559  0.057424946  0.056814861            7 
 1601000   0.61586732   -3.0883746    1102.9841  0.057411208  0.056784724            7 
 1602000   0.60572628   -3.0911965     1105.856  0.057524762  0.056754609            6 
 1603000   0.61845941   -3.0977017    1103.9445  0.057389505  0.056724543            7 
 1604000   0.60288261   -3.1065113     1104.806  0.057398484  0.056694594            6 
 1605000   0.61195184   -3.1167373    1107.6018   0.05750788  0.056664462            7 
 1606000   0.60618736   -3.1049355    1106.2246  0.057400613  0.056634479            7 
 1607000   0.62351433   -3.1002356    1105.5819  0.057331563  0.056604419           11 
 1608000    0.6092592   -3.0997459    1105.5676  0.057295169  0.056574115           12 
 1609000   0.60356847   -3.1163305      1106.15  0.057289726  0.056544178           15 
 1610000   0.60462101   -3.1189938    1105.5877  0.057225038  0.056514031            6 
 1611000   0.60360568   -3.1134789    1100.6293  0.056933026  0.056483882            5 
 1612000   0.60432672   -3.0907897    1104.8275  0.057114738  0.056453632           14 
 1613000   0.61908183    -3.094667    1102.6051  0.056964511  0.056423205            4 
 1614000   0.60582725   -3.1153966    1103.7536  0.056988517  0.056393012            5 
 1615000   0.60168141   -3.0916257    1103.7029  0.056950612  0.056362667           15 
 1616000   0.61901463   -3.1187782    1103.4136  0.056900454  0.056332314           22 
 1617000   0.60930709   -3.1117496    1101.1425   0.05674822  0.056301767            6 
 1618000   0.61637787   -3.1131737     1101.485   0.05673079  0.056271184            7 
 1619000   0.60667032   -3.1201395    1106.6007  0.056959066  0.056240545            7 
 1620000    0.5955554   -3.0799234    1102.9274   0.05673495  0.056210136            9 
 1621000   0.60892856   -3.1065704    1104.5605  0.056783906  0.056179439           10 
 1622000   0.61000892   -3.1173823    1105.4369  0.056793923  0.056148892           10 
 1623000   0.60884667   -3.1229575    1103.5594  0.056662528  0.056118341           10 
 1624000   0.59520902   -3.1021586     1105.578  0.056731217  0.056087852            8 
 1625000   0.61128537   -3.1181722    1105.6895  0.056702026  0.056057522            5 
 1626000   0.59749602   -3.1118872    1105.3932  0.056651967  0.056026816           13 
 1627000   0.60784053   -3.1125395    1102.0599   0.05644642  0.055996294            5 
 1628000   0.61703825   -3.0990971    1105.2704  0.056576085  0.055965803            4 
 1629000   0.60867465   -3.1204773    1103.7968  0.056465973  0.055935069            4 
 1630000   0.59846375    -3.124154    1103.2324  0.056402475  0.055904211            5 
 1631000   0.59956154   -3.1371234    1106.7383  0.056547021  0.055873522            9 
 1632000   0.59657734    -3.116282    1104.9589  0.056421511  0.055842947            3 
 1633000   0.60690637   -3.1221695    1105.4103  0.056409999  0.055812303            7 
 1634000   0.60343027   -3.1157963    1106.6531  0.056438856  0.055782139            5 
 1635000   0.59504188   -3.0976094    1107.0422   0.05642417  0.055751598           21 
 1636000   0.60602396   -3.1071427    1102.4728  0.056156929  0.055721093           12 
 1637000    0.5809466   -3.1150578    1104.5414  0.056227927  0.055690385            7 
 1638000   0.59027499   -3.1066536    1107.0012  0.056318741  0.055659991           11 
 1639000   0.60219265   -3.1274425    1103.2556  0.056093939  0.055629436            8 
 1640000   0.60295902   -3.1322687    1101.9831  0.055995078  0.055598594           13 
 1641000   0.60913371   -3.1227852    1104.2375  0.056075437  0.055567891           22 
 1642000    0.5965001   -3.1391775    1105.1703  0.056088625  0.055537142            9 
 1643000    0.5946682   -3.1329718    1104.4655  0.056018742  0.055506652            5 
 1644000   0.60971737   -3.1173315    1104.8659   0.05600496  0.055475948           10 
 1645000   0.60803531   -3.1335685    1105.1497  0.055985293  0.055445267            7 
 1646000   0.59657071   -3.1301423     1105.766  0.055982484  0.055414545            3 
 1647000   0.59730048   -3.1250833    1104.7993  0.055899582  0.055383988            9 
 1648000   0.59750605   -3.1248278    1106.6323  0.055958346  0.055353498           15 
 1649000   0.57849294   -3.1335481    1106.5451  0.055920009  0.055322948            6 
 1650000   0.60913829   -3.1348726    1106.4718  0.055882415  0.055292463            9 
 1651000   0.60115847   -3.1183985    1106.5784  0.055853948   0.05526192            4 
 1652000   0.59676771   -3.1386342    1104.6321  0.055721957  0.055231477            4 
 1653000   0.59859192   -3.1341068    1104.8425  0.055698856  0.055200898           13 
 1654000   0.60134129   -3.1344268    1107.8205  0.055815219  0.055170383           10 
 1655000   0.59124537   -3.1513468    1108.6313  0.055822321  0.055139876            7 
 1656000   0.58969327   -3.1161128    1105.9596  0.055654167  0.055109385            5 
 1657000   0.58430001   -3.1507179    1108.7619  0.055761512  0.055078895           14 
 1658000   0.59571661   -3.1491013    1106.9278  0.055635696  0.055048244           16 
 1659000   0.58792719   -3.1525999    1103.7973  0.055444911  0.055017528           18 
 1660000   0.58777227   -3.1424528    1106.7882  0.055561655  0.054986987            5 
 1661000   0.58633308   -3.1491302    1107.5068  0.055564256  0.054956421            8 
 1662000   0.59951937   -3.1398351    1106.9153  0.055501169  0.054925828           11 
 1663000   0.58753925   -3.1216842    1106.9129  0.055467674  0.054895629            6 
 1664000   0.58527843     -3.14951    1107.0538  0.055441395    0.0548653            9 
 1665000   0.58486511   -3.1441448    1109.0051   0.05550576  0.054834883            6 
 1666000   0.60835467   -3.1399274    1108.3633   0.05544034  0.054804356           12 
 1667000   0.58651893   -3.1429675    1107.2642  0.055352142  0.054774118            6 
 1668000   0.58613624   -3.1284171    1109.6955  0.055440425  0.054743799           11 
 1669000   0.58532924   -3.1698378    1107.1257  0.055278893  0.054713475           16 
 1670000   0.58655428   -3.1397339    1109.0317  0.055340903  0.054683027            6 
 1671000   0.58896638   -3.1489871    1109.2735  0.055319845  0.054652738           13 
 1672000   0.58673692   -3.1287154    1108.1273  0.055229632  0.054622394           14 
 1673000    0.5792331   -3.1530186      1105.72   0.05507671  0.054591742           10 
 1674000   0.58135175   -3.1365024    1106.4718  0.055081231  0.054561147            5 
 1675000   0.58696051    -3.142291    1109.4717  0.055197597  0.054530722            7 
 1676000   0.58384805   -3.1180369    1109.8766  0.055184793  0.054500434            8 
 1677000   0.59315064   -3.1443482    1106.8335  0.055000672  0.054470318            5 
 1678000   0.57351322   -3.1379903    1107.5956  0.055005739  0.054440081           12 
 1679000   0.57781227   -3.1438482    1110.0248  0.055093547  0.054409948            9 
 1680000     0.572358   -3.1559879    1108.1288  0.054966705  0.054379847            5 
 1681000   0.57636536   -3.1535911    1106.2164  0.054839205  0.054349701           12 
 1682000   0.56955844   -3.1591241    1107.6031  0.054875303  0.054319398            8 
 1683000   0.58440468    -3.148384    1106.7216  0.054799048  0.054289126           21 
 1684000   0.57564698   -3.1396056    1108.3448  0.054846835  0.054258797            6 
 1685000   0.58540791   -3.1584019    1109.2695  0.054860015  0.054228748           19 
 1686000   0.58704009   -3.1625544    1112.0273  0.054963784  0.054198569            9 
 1687000   0.57348871   -3.1708171    1112.1617  0.054937843  0.054168414            8 
 1688000   0.56673983   -3.1538821    1110.3554  0.054816123   0.05413837            5 
 1689000   0.57322216   -3.1615236    1107.5416  0.054644837  0.054108311            7 
 1690000   0.57309998   -3.1346925    1112.2354  0.054843953  0.054078316            7 
 1691000    0.5770691   -3.1645665    1111.8024  0.054790185   0.05404846           12 
 1692000   0.58201639    -3.176561    1110.1064  0.054674269  0.054018377           24 
 1693000   0.58636858   -3.1693021    1109.7862  0.054626217  0.053988218            9 
 1694000   0.58155664   -3.1544029     1111.832  0.054694607  0.053958262           13 
 1695000    0.5761777   -3.1718898    1112.9212  0.054715888  0.053928376           14 
 1696000   0.57644234   -3.1597705    1112.1371  0.054645102  0.053898331           11 
 1697000   0.58503143   -3.1320242    1111.2528  0.054569476  0.053868472            7 
 1698000   0.56634733   -3.1612012     1109.062  0.054429821  0.053838563           11 
 1699000   0.57430097   -3.1626059    1114.4154   0.05466036  0.053808667            7 
 1700000   0.57433581   -3.1606807    1112.1327  0.054516309   0.05377885            8 
 1701000   0.56708008    -3.155118    1114.0892  0.054580109  0.053748911           11 
 1702000   0.57160261    -3.164921    1112.4091  0.054465782  0.053719038           10 
 1703000   0.57586983   -3.1780644    1111.1627  0.054372807  0.053689248           10 
 1704000   0.56602052   -3.1622041    1113.1058  0.054435923   0.05365958            7 
 1705000   0.56389806   -3.1874956    1111.2021  0.054310955  0.053629939           13 
 1706000   0.57281586   -3.1700235    1113.6455  0.054398469  0.053600267           18 
 1707000   0.57145947   -3.1450775    1113.2149  0.054345581  0.053570522            7 
 1708000   0.57770847   -3.1700971    1113.7463  0.054339692  0.053540747            9 
 1709000   0.56722894   -3.1634725     1110.833  0.054165839  0.053510983            5 
 1710000   0.57525041    -3.181185    1113.6271  0.054270329  0.053481048            4 
 1711000   0.56743884    -3.176101    1115.9738  0.054352901  0.053451229            8 
 1712000    0.5654178   -3.1545267    1116.9995  0.054371081  0.053421571           14 
 1713000   0.57157867   -3.1652122    1112.0604  0.054099065  0.053391895           12 
 1714000   0.57280492   -3.1693508    1114.7979  0.054200597  0.053362352           17 
 1715000   0.56778975   -3.1727483    1112.2828  0.054046785  0.053332466           10 
 1716000   0.56656895   -3.1774498    1114.4514  0.054120602  0.053302727            7 
 1717000   0.57410275   -3.1570461    1111.9511   0.05396773  0.053273039           11 
 1718000    0.5627547   -3.1573467    1115.4009  0.054103654  0.053243431            5 
 1719000   0.55542852   -3.1832756    1113.9207  0.054000424   0.05321364           24 
 1720000    0.5794173   -3.1800994    1113.9587  0.053970869  0.053183828           26 
 1721000   0.56755922   -3.1596586    1113.6506  0.053924589  0.053154093           14 
 1722000   0.54419345   -3.1820268    1113.6514  0.053893313  0.053124223            7 
 1723000   0.57226488   -3.1747182    1112.9549  0.053828348  0.053094413           14 
 1724000   0.55706924   -3.1618196    1112.5616  0.053778113  0.053064863            6 
 1725000   0.56083967    -3.182527    1114.2732  0.053829623  0.053035025           21 
 1726000   0.55822091   -3.1787209    1115.9076  0.053877348  0.053005192           10 
 1727000   0.57367998    -3.180793    1114.8603  0.053795615  0.052975306           10 
 1728000   0.56918349   -3.1734284    1114.4816   0.05374622  0.052945364            3 
 1729000   0.55572332   -3.1961039    1112.9863  0.053643065  0.052915614            7 
 1730000    0.5592796    -3.184385    1114.0054  0.053661144  0.052886048            6 
 1731000   0.56792386   -3.1814678    1111.7632  0.053522205  0.052856373           14 
 1732000   0.57781619   -3.2000582    1114.0661  0.053602102  0.052826807           24 
 1733000   0.56505904   -3.1840306    1113.8512  0.053560839  0.052797094            8 
 1734000   0.56167203   -3.1925085    1114.7016  0.053570817  0.052767276            5 
 1735000   0.56780326   -3.2058803    1112.9725  0.053456891  0.052737658           14 
 1736000   0.55701225   -3.1897803    1115.0658  0.053526586  0.052707798            5 
 1737000   0.54727837   -3.1890226    1112.8729  0.053390565  0.052678017           19 
 1738000   0.55712002   -3.2092599    1116.7288  0.053544728  0.052648294            5 
 1739000   0.54641795   -3.1949245    1111.4463  0.053260798  0.052618556            6 
 1740000   0.56076088   -3.1959355    1116.3875  0.053466833   0.05258885           20 
 1741000    0.5730382   -3.1829143    1110.9442  0.053175578  0.052559191           10 
 1742000   0.55261987   -3.1897011     1115.446  0.053360408  0.052529518           17 
 1743000   0.56398891   -3.2158762    1112.3724  0.053182847  0.052499791           13 
 1744000   0.55852979   -3.1784811     1116.581   0.05335345  0.052470161           22 
 1745000   0.55198546   -3.1856843    1114.4376  0.053220517  0.052440503            7 
 1746000   0.56382584   -3.2040602    1114.6464  0.053200001  0.052410764           10 
 1747000   0.55232547   -3.2041216    1112.1892  0.053052336  0.052381006            6 
 1748000   0.55946196   -3.2092738    1117.3668  0.053268824  0.052351335           11 
 1749000   0.55553847   -3.1897659    1111.1241  0.052940921  0.052321528            7 
 1750000   0.56332353   -3.2135175    1112.2541   0.05296448  0.052291639           11 
 1751000   0.54238035   -3.1919587    1115.5901  0.053092997  0.052261896            9 
 1752000   0.54753946   -3.2111934    1111.1035  0.052849289  0.052232393           18 
 1753000   0.56537549   -3.2156675    1117.5963  0.053127796  0.052202729           13 
 1754000   0.55121928   -3.1940267    1113.7118  0.052912954  0.052173122           16 
 1755000   0.56427262   -3.1918883    1114.9003  0.052939233  0.052143512            8 
 1756000   0.54285487   -3.2030372    1114.1758  0.052874707  0.052113875            7 
 1757000    0.5523116   -3.2130064    1113.1353  0.052795263  0.052084056            5 
 1758000   0.55267663   -3.1952167    1112.9221  0.052755122   0.05205435           10 
 1759000   0.55087274   -3.2156431    1114.9248   0.05282001  0.052024555            7 
 1760000   0.55696448     -3.20082    1113.4854  0.052721846   0.05199481            9 
 1761000   0.54748118   -3.1889841    1115.6359  0.052793672  0.051965069            8 
 1762000   0.55135854   -3.2092179    1113.4174  0.052658788  0.051935424           11 
 1763000   0.53946742   -3.1937486    1113.5112  0.052633353  0.051905672           19 
 1764000   0.54869694   -3.1980789    1114.2551  0.052638659  0.051876112           10 
 1765000   0.55582816   -3.2180793    1115.7985  0.052681703  0.051846397           16 
 1766000    0.5572493   -3.2087207    1113.4591  0.052541485  0.051816904            9 
 1767000   0.55685102   -3.2010303    1116.5744  0.052658669  0.051787381            8 
 1768000   0.54782032   -3.2155605    1115.6247  0.052584121  0.051757974           15 
 1769000   0.55131393   -3.2077475    1116.2787  0.052585202  0.051728422           10 
 1770000   0.54494954   -3.2211986     1113.411  0.052420482  0.051698929            7 
 1771000   0.54576292   -3.1910883    1116.2846  0.052526098  0.051669283           10 
 1772000   0.55047991   -3.2084383    1114.2127  0.052399016  0.051639788           11 
 1773000   0.54075824   -3.2094669    1116.5039  0.052477152  0.051610255            9 
 1774000   0.53905644   -3.2171079    1117.1158  0.052476315    0.0515808           26 
 1775000    0.5523162   -3.2032743    1118.6966  0.052520968  0.051551494           10 
 1776000   0.54942548   -3.2146917    1114.7296  0.052305256  0.051522121            9 
 1777000   0.52612943   -3.2030393    1118.4087  0.052448353  0.051492638           10 
 1778000   0.54593112   -3.2322652    1117.8432  0.052392353  0.051463349           14 
 1779000   0.55069093   -3.2080744     1117.529  0.052348183  0.051434011           13 
 1780000    0.5517108    -3.202257    1118.8347    0.0523799  0.051404773           10 
 1781000    0.5437775    -3.199411    1116.9465  0.052262143  0.051375452           17 
 1782000   0.55151191   -3.2107792    1118.2722  0.052294808  0.051346227           22 
 1783000   0.53535647   -3.2048069    1116.1539  0.052166476  0.051317088            9 
 1784000   0.52847584   -3.2264864    1115.9864  0.052129411  0.051287881            9 
 1785000   0.54696135   -3.2159586    1117.1306  0.052153622  0.051258538            4 
 1786000   0.52993542   -3.2276415    1119.2237  0.052222084  0.051229317            9 
 1787000   0.53336774   -3.2310021    1121.1992  0.052284985   0.05120017            7 
 1788000   0.54646604   -3.2363823    1118.3635   0.05212358  0.051170987            8 
 1789000   0.54183539   -3.2038475    1117.5451   0.05205632  0.051141958            8 
 1790000   0.53685495   -3.2224907    1117.0969  0.052006371  0.051112842            7 
 1791000   0.53979944   -3.2276574    1118.3867  0.052037349  0.051083679            7 
 1792000   0.54789507   -3.2168836    1118.6671  0.052021348  0.051054509           20 
 1793000   0.53288174   -3.2281186    1119.2167   0.05201788  0.051025394            7 
 1794000   0.53647554   -3.2189696    1119.9441  0.052022673  0.050996377           10 
 1795000   0.53543397   -3.2264131    1115.4435  0.051784749  0.050967289           11 
 1796000   0.52843565    -3.224872    1117.3129  0.051842653  0.050938125            7 
 1797000    0.5244843   -3.2484966    1114.7013  0.051692696  0.050908879            7 
 1798000   0.52911568   -3.2291329    1117.1144   0.05177579    0.0508796           11 
 1799000   0.54156686   -3.2333213    1117.8187  0.051779631  0.050850289           49 
 1800000   0.53584293   -3.2269498    1117.9531  0.051757089  0.050821166            5 
 1801000    0.5324746   -3.2186764    1121.1776  0.051877551   0.05079213           13 
 1802000   0.52842491   -3.2308159    1115.7353  0.051597082  0.050762984           14 
 1803000   0.53195618   -3.2343404    1115.3689  0.051551528  0.050733899           16 
 1804000   0.53216537   -3.2343746    1117.2753  0.051611018  0.050704645           14 
 1805000   0.52591792   -3.2338472    1117.5063   0.05159309  0.050675512            9 
 1806000   0.53130044   -3.2409762    1119.5478  0.051658723  0.050646306            9 
 1807000    0.5261918   -3.2393484     1119.139  0.051611282  0.050617035           10 
 1808000   0.53811203   -3.2345227    1120.2119  0.051632187  0.050587909            9 
 1809000   0.53644067   -3.2488719    1116.3085  0.051423831  0.050558826            7 
 1810000   0.53201781     -3.23696    1119.8249  0.051557317  0.050529766            9 
 1811000   0.52670291   -3.2284071    1118.8211  0.051482657  0.050500646            9 
 1812000   0.53308361   -3.2225705    1121.0063  0.051554743  0.050471594           13 
 1813000   0.52935812   -3.2224098    1118.9105  0.051429975  0.050442849           35 
 1814000   0.53339351   -3.2388049    1118.3798  0.051377244  0.050413917           13 
 1815000   0.53221294   -3.2460432    1117.4978  0.051308439  0.050385061           17 
 1816000   0.52049979   -3.2281569    1120.5922  0.051422184  0.050356078            9 
 1817000   0.52698975   -3.2507481     1122.104  0.051463219  0.050327233           13 
 1818000   0.52091854   -3.2577292    1118.8391  0.051285254  0.050298336            8 
 1819000   0.52695127   -3.2583248    1117.2879  0.051185995  0.050269308           12 
 1820000   0.52206845   -3.2283542     1118.684  0.051221795  0.050240365           28 
 1821000   0.53009804   -3.2245482    1117.7134  0.051149252  0.050211668            6 
 1822000   0.51503181   -3.2558744    1120.3745  0.051242888  0.050182945           13 
 1823000   0.52009577    -3.251567    1119.7687  0.051187086  0.050154187           20 
 1824000   0.52418332   -3.2475707    1119.1322  0.051129942   0.05012558            8 
 1825000    0.5274232   -3.2449593    1122.4185  0.051251987  0.050096922           15 
 1826000   0.52075795   -3.2360989    1120.6831  0.051144719  0.050068325            7 
 1827000   0.52655609   -3.2495092    1119.8528  0.051078855   0.05003964            5 
 1828000   0.50944273   -3.2514487    1118.7633  0.051001244  0.050010854           15 
 1829000   0.52181801   -3.2237615    1122.0818  0.051124557   0.04998216           14 
 1830000   0.53642626   -3.2500862    1122.5277  0.051116926  0.049953477           12 
 1831000   0.52635748   -3.2388765    1123.4385  0.051130462  0.049924882           13 
 1832000   0.52296284   -3.2555599    1121.0617  0.050994438  0.049896378           15 
 1833000   0.51340717   -3.2656619    1122.1353  0.051015427  0.049867804           16 
 1834000   0.52346128   -3.2445892    1122.4639  0.051002542  0.049839222            8 
 1835000   0.52260336   -3.2502736    1122.6219  0.050981922  0.049810757            9 
 1836000    0.5283663   -3.2534718    1117.1155  0.050704225  0.049782269            3 
 1837000   0.51764002   -3.2427985    1118.9775   0.05076109  0.049753708           20 
 1838000   0.51597811   -3.2601498    1119.9653   0.05077826  0.049725054           17 
 1839000   0.50356737   -3.2531709    1120.4046  0.050770555  0.049696347            9 
 1840000   0.52190373   -3.2527404    1119.4724  0.050700741  0.049667751            9 
 1841000   0.51364134   -3.2542582     1122.223   0.05079771  0.049639331           15 
 1842000   0.52468949   -3.2414856    1119.9343  0.050666589  0.049610928           10 
 1843000   0.51919508   -3.2419809    1122.4534  0.050753001  0.049582536            7 
 1844000   0.52433719   -3.2711634    1120.6955  0.050646036   0.04955421           20 
 1845000   0.52693849   -3.2491805    1124.4649   0.05078884  0.049525852           12 
 1846000   0.51258008   -3.2639155    1123.8536  0.050733729   0.04949748           12 
 1847000   0.51988583   -3.2585016    1122.2808    0.0506353  0.049469217           12 
 1848000    0.5100491   -3.2763414      1123.17  0.050647998  0.049441023           14 
 1849000   0.51665237   -3.2540769    1124.2964  0.050671372  0.049412817            9 
 1850000   0.51155418    -3.275724    1119.5781  0.050431444  0.049384526           14 
 1851000   0.51184665   -3.2721517    1121.1233  0.050473767  0.049356178           27 
 1852000   0.51420664   -3.2812868    1124.2721  0.050588199  0.049327855           20 
 1853000   0.51572436   -3.2825024    1125.2666  0.050605622   0.04929975           12 
 1854000   0.51331013   -3.2648248    1122.4009  0.050449517  0.049271524            7 
 1855000   0.50924936   -3.2487721    1124.0105  0.050494631  0.049243328           12 
 1856000   0.50745156   -3.2576167    1126.7229  0.050589209  0.049215131           13 
 1857000   0.50348239    -3.263204    1119.8454  0.050253341  0.049187043           23 
 1858000   0.50271712   -3.2596763    1122.7107  0.050354805  0.049158884           32 
 1859000   0.50190587   -3.2652658    1123.8178  0.050377343  0.049130745           12 
 1860000   0.50658516   -3.2790079     1124.169  0.050365993  0.049102528           30 
 1861000   0.50596325   -3.2975562    1122.0665  0.050244785  0.049074297           30 
 1862000   0.50343037   -3.2764393    1123.1605   0.05026676  0.049046094           13 
 1863000   0.50140138   -3.2670993    1120.5339  0.050122288    0.0490179            9 
 1864000    0.5175224   -3.2891331    1119.1512  0.050033584  0.048989752           21 
 1865000   0.50396093   -3.2643848    1121.9795  0.050133133  0.048961654           20 
 1866000   0.50659404   -3.2898521     1123.648  0.050180778   0.04893341            8 
 1867000   0.51724189   -3.2641559    1120.0403  0.049992872  0.048905277           21 
 1868000   0.50469066   -3.2749317    1124.9452  0.050184923  0.048877315           14 
 1869000   0.50336745   -3.2639397    1124.5691    0.0501413  0.048849395            8 
 1870000   0.50940629   -3.2947366    1121.7109  0.049987118  0.048821583            6 
 1871000   0.51092442   -3.2747034    1125.4627  0.050127502  0.048793507            8 
 1872000    0.4988073   -3.2695633    1124.6017  0.050062397  0.048765591           14 
 1873000   0.51575591   -3.2733553    1123.3457  0.049979789  0.048737537           11 
 1874000   0.50023344   -3.2830165    1123.0174  0.049938519  0.048709616           10 
 1875000   0.50734722   -3.2784414    1122.9077  0.049907007  0.048681702           20 
 1876000   0.50288041   -3.2755637    1121.9669  0.049838617  0.048653796           15 
 1877000   0.50072312   -3.2715626    1125.4496  0.049966685  0.048625879           15 
 1878000   0.49948709   -3.2882112    1123.6109  0.049858489  0.048597979            8 
 1879000   0.50925585   -3.2970046    1126.4527  0.049957987  0.048570011           18 
 1880000   0.50638039   -3.2820719    1123.0702  0.049781482  0.048541988           12 
 1881000   0.50174528   -3.2938791    1124.7337  0.049828712  0.048514157           19 
 1882000   0.49702019   -3.2985166    1123.1895  0.049733862  0.048486162           13 
 1883000   0.50198837   -3.2770138    1122.8406  0.049692008  0.048458178           50 
 1884000   0.48646362   -3.2944107    1123.6525  0.049701545  0.048430152           43 
 1885000   0.49092725   -3.2897809    1123.7134  0.049677871  0.048402235           12 
 1886000   0.49309292   -3.2922842    1122.1755  0.049583578  0.048374305           13 
 1887000   0.50430134   -3.2714869    1122.3381  0.049564481  0.048346486           14 
 1888000   0.49722296   -3.2758387    1121.3496  0.049494599  0.048318759           10 
 1889000   0.49804107   -3.2857304    1125.2348  0.049639792  0.048291103            7 
 1890000   0.50302308   -3.2817922    1122.9659  0.049513489  0.048263393           10 
 1891000   0.49291519   -3.2796734    1122.6913  0.049475204  0.048235718            8 
 1892000   0.49388919   -3.2906862    1129.2434  0.049737639   0.04820797            7 
 1893000   0.49469297   -3.2839939    1127.1285  0.049618263  0.048180327            8 
 1894000   0.49215497   -3.2826914    1125.9697   0.04954108  0.048152744            6 
 1895000    0.4948917    -3.311112     1124.653  0.049457037    0.0481251           12 
 1896000   0.49386502   -3.2880819    1126.7272  0.049522118  0.048097566           10 
 1897000   0.49673196    -3.298384    1127.5558  0.049532411  0.048070108           10 
 1898000   0.49209881   -3.2958013    1126.3994  0.049455542  0.048042521           12 
 1899000    0.4862024   -3.3141962    1125.6171  0.049395166  0.048014935           16 
 1900000   0.50275862   -3.2829225    1128.0435  0.049475594  0.047987472           16 
 1901000     0.502735   -3.3031373    1125.9316  0.049356987  0.047960024           12 
 1902000   0.49201267   -3.3066523    1125.0109  0.049290696  0.047932524           12 
 1903000   0.48742383   -3.3069759     1125.499  0.049286171  0.047905004           28 
 1904000     0.485718    -3.307801    1125.6986   0.04926902  0.047877484           21 
 1905000   0.49507067   -3.2813972    1127.0711  0.049303197  0.047850124           22 
 1906000   0.48397708   -3.3037642    1124.7033  0.049173804  0.047822642           11 
 1907000   0.49631028   -3.2999104    1123.6112  0.049100296   0.04779506           18 
 1908000   0.48264276   -3.3098167    1124.5032  0.049113521  0.047767622           19 
 1909000   0.49940179   -3.3133127    1123.4654   0.04904249  0.047740206            8 
 1910000   0.48578025   -3.3111952    1126.3555  0.049142912  0.047712706           20 
 1911000    0.4948191   -3.3217296    1125.3536  0.049073504  0.047685261           16 
 1912000   0.47594136   -3.3004666    1126.9242  0.049116292  0.047657738            9 
 1913000   0.49451348   -3.2966884      1128.65  0.049165796   0.04763031           11 
 1914000    0.4978161   -3.2976706    1126.1096  0.049029502  0.047603027           22 
 1915000   0.48909164   -3.3068082    1128.0655  0.049089012  0.047575672           20 
 1916000   0.48639397   -3.2980378    1126.3101  0.048987042  0.047548356           14 
 1917000   0.48180172   -3.3200153    1124.6913  0.048891119  0.047520974           16 
 1918000   0.47852624   -3.3026322    1127.2514  0.048976859  0.047493578           22 
 1919000   0.48300494    -3.326813    1125.8084  0.048888674  0.047466094           29 
 1920000    0.4808391   -3.3080907    1126.2056  0.048880452  0.047438639           15 
 1921000   0.48087044   -3.3105201    1123.3638  0.048731728  0.047411487           10 
 1922000   0.48268575   -3.2915299    1128.6164  0.048934115  0.047384325           40 
 1923000   0.48679462   -3.3134977    1125.9736  0.048794141  0.047357009           18 
 1924000   0.47699108   -3.3154551    1127.0523    0.0488155  0.047329659           25 
 1925000   0.47127271   -3.3060975    1125.4374  0.048720236  0.047302275           11 
 1926000   0.47757496   -3.3213033    1126.9067   0.04875851  0.047274899           19 
 1927000   0.49299024   -3.2945796    1128.1714    0.0487879  0.047247585           14 
 1928000   0.47900003   -3.3166763    1126.3981  0.048685948  0.047220384            7 
 1929000   0.48351487   -3.3244652    1127.1981  0.048695268  0.047193146           22 
 1930000   0.48393489   -3.3118961    1127.1911  0.048669737  0.047165788           19 
 1931000   0.48022453   -3.2942626    1128.0025   0.04867955  0.047138564           13 
 1932000    0.4802808   -3.3272726    1126.8222  0.048603443  0.047111398           13 
 1933000   0.48577812   -3.3269235    1129.1729  0.048679639  0.047084226           19 
 1934000   0.48562988   -3.3136853    1126.1609  0.048524686  0.047057034           12 
 1935000   0.47537511   -3.2996008    1127.1917     0.048544  0.047030012           16 
 1936000    0.4724872   -3.3076589    1127.3694  0.048526575  0.047002944           33 
 1937000    0.4793243   -3.3226336    1125.5133  0.048421671  0.046975928           12 
 1938000   0.47420523   -3.3128209    1128.7706  0.048536746   0.04694892           13 
 1939000   0.47730581   -3.3259015    1125.5484  0.048373232  0.046921943           23 
 1940000    0.4772621   -3.3242664    1126.9501  0.048408508  0.046894976           21 
 1941000   0.48085473   -3.3280794    1128.3142  0.048442136  0.046867925           21 
 1942000   0.47511879   -3.3169013    1128.5899  0.048429021  0.046840874            7 
 1943000   0.48098389   -3.3200925    1127.0033  0.048336049  0.046813961           29 
 1944000   0.47696537   -3.3303411    1127.7576  0.048343519  0.046787123           16 
 1945000   0.47545541   -3.3372054    1126.9917  0.048285849  0.046760199           35 
 1946000   0.47408338   -3.3234881    1128.9819  0.048346263  0.046733291           21 
 1947000    0.4724837     -3.33806    1125.5535   0.04817469   0.04670637           26 
 1948000   0.47700736    -3.360353    1126.0919  0.048172992  0.046679452           50 
 1949000   0.48817639   -3.3365111    1129.3881  0.048289215  0.046652535           50 
 1950000   0.48071572   -3.3413594    1125.1068  0.048081486  0.046625511           50 
 1951000   0.47845151   -3.3383625     1128.108  0.048185035   0.04659859           43 
 1952000   0.46913594   -3.3349292      1126.47  0.048090419  0.046571614           22 
 1953000   0.48130368   -3.3229145    1129.5743  0.048198256  0.046544641           21 
 1954000   0.47458373    -3.344883    1126.7395  0.048052692  0.046517717           40 
 1955000   0.47047853   -3.3158117    1128.5068  0.048103443  0.046490876           19 
 1956000   0.46712668   -3.3408315    1126.2906  0.047984434  0.046464012           21 
 1957000   0.48418864   -3.3199202    1127.2012  0.047998688  0.046437204           11 
 1958000   0.47546221   -3.3128811    1128.5982  0.048033633  0.046410484           21 
 1959000   0.46835996   -3.3369877    1127.8084  0.047975514  0.046383785           23 
 1960000   0.47364132   -3.3481834    1128.2572  0.047970119  0.046356965           18 
 1961000   0.47681918   -3.3398346    1128.6809   0.04796366   0.04633013           18 
 1962000   0.47226879   -3.3387664    1124.0159  0.047741074  0.046303228           31 
 1963000   0.46433489   -3.3350982    1127.2148  0.047852557  0.046276442           30 
 1964000   0.47101137   -3.3337716    1126.4668  0.047796454   0.04624962           34 
 1965000   0.47433276   -3.3292774     1124.221  0.047676885   0.04622282           16 
 1966000   0.46277989   -3.3480297    1124.5299  0.047665729   0.04619604           24 
 1967000   0.45901088   -3.3351207    1126.8144  0.047738283  0.046169279           23 
 1968000   0.46869922   -3.3536507    1127.4676  0.047741683  0.046142382           26 
 1969000   0.45747677   -3.3451921    1128.5176  0.047761874  0.046115602           19 
 1970000   0.46382421   -3.3540709    1125.2101  0.047597719  0.046088875           23 
 1971000   0.46222954   -3.3449047    1126.2681  0.047618303  0.046062057           16 
 1972000   0.45895283    -3.360239    1127.8091  0.047659276  0.046035327           49 
 1973000   0.45851748    -3.354634    1125.7258  0.047547128  0.046008583           42 
 1974000   0.46806259   -3.3488078    1127.5162  0.047598625  0.045981883           22 
 1975000   0.46745857   -3.3461638     1125.897  0.047506202  0.045955132           24 
 1976000     0.467601   -3.3492164    1124.7002  0.047431689  0.045928475           19 
 1977000   0.46621635   -3.3541148     1125.986  0.047461894  0.045901754           10 
 1978000   0.46406513   -3.3539035    1126.8153  0.047472838  0.045875065           31 
 1979000   0.46243952   -3.3466296    1125.9273  0.047411457  0.045848407           18 
 1980000   0.46575439   -3.3572839     1125.908  0.047386702  0.045821625           26 
 1981000   0.46873792   -3.3701023    1126.7939  0.047400047  0.045794904           52 
 1982000   0.45291176   -3.3570663    1126.9895  0.047384356  0.045768167           35 
 1983000   0.44734602   -3.3651316    1128.8879  0.047440239  0.045741524           23 
 1984000   0.46470996   -3.3459873    1129.7102  0.047450864  0.045714957           29 
 1985000   0.46205308   -3.3345535     1125.167  0.047236232  0.045688374           26 
 1986000   0.46627072   -3.3520282    1128.3094  0.047344303   0.04566184           35 
 1987000    0.4626529   -3.3704354     1127.219  0.047274742  0.045635263           62 
 1988000   0.46350368   -3.3655094    1129.6305  0.047352048  0.045608697           22 
 1989000   0.45064676   -3.3639242    1126.6567  0.047203649  0.045582107           53 
 1990000   0.45531415   -3.3615682    1125.6556  0.047138006   0.04555544           14 
 1991000   0.45051371   -3.3721176    1129.0007  0.047254338  0.045528747           21 
 1992000   0.45069591   -3.3655792    1126.7157  0.047135027  0.045502129           20 
 1993000   0.45953714   -3.3481837    1126.4841  0.047101694  0.045475604           17 
 1994000   0.45489028   -3.3605234    1127.4057  0.047116588  0.045448998           23 
 1995000   0.47190708    -3.354933    1123.4641  0.046928323  0.045422516           28 
 1996000   0.45399656   -3.3540276    1126.4004  0.047027405  0.045395909           24 
 1997000   0.45612235   -3.3486301    1125.5405  0.046967974  0.045369385           56 
 1998000   0.44663708   -3.3618817    1126.4666  0.046983091  0.045342807           26 
 1999000   0.46125385   -3.3707699    1126.5053  0.046961201  0.045316194           18 
 2000000   0.44896018   -3.3631064    1127.8089  0.046992037  0.045289528           39 
 2001000   0.44404592   -3.3743485    1123.5962  0.046793111  0.045262859           17 
 2002000   0.44981428   -3.3829638    1120.0982  0.046624135  0.045236094           58 
 2003000   0.45372597   -3.3559938    1125.7877  0.046837564  0.045209417           71 
 2004000   0.45399485    -3.380791    1125.4637   0.04680072  0.045182785           73 
 2005000   0.44914366   -3.3857153    1127.3147  0.046854309  0.045156144           78 
 2006000   0.44931635   -3.3639729    1122.7124  0.046639763  0.045129493           43 
 2007000   0.45288748   -3.3869253    1125.8438  0.046746546  0.045102953          129 
 2008000   0.45628886   -3.3789151    1127.4013  0.046787904  0.045076302          106 
 2009000   0.45281561   -3.3765012    1127.0081  0.046748305   0.04504974           36 
 2010000   0.45174324   -3.3818818    1123.8031  0.046592169  0.045023303           25 
 2011000   0.44603318   -3.3825183    1127.8123  0.046735136  0.044996811           32 
 2012000   0.45063924   -3.3660241    1125.6904  0.046624024  0.044970348           40 
Loop time of 4800.66 on 48 procs for 2000000 steps with 4000 atoms

Performance: 71990.032 tau/day, 416.609 timesteps/s
99.4% CPU use with 48 MPI tasks x no OpenMP threads

MPI task timing breakdown:
Section |  min time  |  avg time  |  max time  |%varavg| %total
---------------------------------------------------------------
Pair    | 310.58     | 327.22     | 345.67     |  48.6 |  6.82
Neigh   | 32.237     | 33.702     | 35.284     |  12.6 |  0.70
Comm    | 305.53     | 326.77     | 346.62     |  48.4 |  6.81
Output  | 4.1208     | 4.1253     | 4.1599     |   0.3 |  0.09
Modify  | 4057.4     | 4066.5     | 4074.8     |   6.8 | 84.71
Other   |            | 42.3       |            |       |  0.88

Nlocal:        83.3333 ave          92 max          76 min
Histogram: 1 3 2 12 6 14 7 1 0 2
Nghost:        2170.15 ave        2183 max        2153 min
Histogram: 2 0 2 9 5 8 6 3 7 6
Neighs:        14299.5 ave       15725 max       12944 min
Histogram: 2 3 8 4 4 13 7 2 3 2
FullNghs:      28598.0 ave       31718 max       25966 min
Histogram: 1 3 3 10 14 7 7 1 0 2

Total # of neighbors = 1372703
Ave neighs/atom = 343.17575
Neighbor list builds = 108648
Dangerous builds = 0

#clear
#
#next RN
#
#jump SELF
Total wall time: 1:20:03
