
units lj                  # Use reduced LJ style units
atom_style atomic         # Uncharged point particles
atom_modify map hash      # Needed for indexing of clusters etc
                          # Used to be able to find where atoms are in relation to each other.

lattice fcc 1.0 spacing 1 1 1
Lattice spacing in x,y,z = 1.5874011 1.5874011 1.5874011
region box block 0 10 0 10 0 10 units lattice
create_box 2 box
Created orthogonal box = (0.0000000 0.0000000 0.0000000) to (15.874011 15.874011 15.874011)
  3 by 4 by 4 MPI processor grid
create_atoms 1 box
Created 4000 atoms
  using lattice units in orthogonal box = (0.0000000 0.0000000 0.0000000) to (15.874011 15.874011 15.874011)
  create_atoms CPU = 0.002 seconds
set type 1 type/fraction 2 0.05 78393
Setting atom values ...
  207 settings made for type/fraction
mass 1 1.0
mass 2 1.0
pair_style lj/cut  3.5
pair_modify tail  yes
pair_coeff 1  1  1.0  1.0   # Intearaction between 1 and 1 set with epsilon = 1 and sigma = 1
pair_coeff 1  2  1.5  0.8
pair_coeff 2  2  0.5  0.88

write_data data.0
System init for write_data ...
Neighbor list info ...
  update every 1 steps, delay 10 steps, check yes
  max neighbors/atom: 2000, page size: 100000
  master list distance cutoff = 3.8
  ghost atom cutoff = 3.8
  binsize = 1.9, bins = 9 9 9
  1 neighbor lists, perpetual/occasional/extra = 1 0 0
  (1) pair lj/cut, perpetual
      attributes: half, newton on
      pair build: half/bin/atomonly/newton
      stencil: half/bin/3d
      bin: standard
WARNING: Not all mixed pair coeffs generated from mixing. Use write_data with 'pair ij' option to store all pair coeffs. (../write_data.cpp:312)


#############################
#   M E L T   S Y S T E M   #
#############################

velocity all create 2.4 2750902 mom yes dist gaussian # Assign velocities
                                                    # Temperature 2.4, random number seed, zero linear momentum
                                                                                # Gaussian distribution

timestep 0.002   # simulation timestep
thermo 1000       # output thermodynamic data every 1000 steps bf 100

# Define a fix  in this case with index 1 applied to all
# particles in the simulation. This fix is for simulations
# in the anisotropic NPT ensemble. Note that we use the MTK
# correction.
fix 1 all npt temp 2.4 2.4 0.1 iso 5.68 5.68 0.5 mtk yes tchain 5 pchain 5 # Use NPT ensemble
                                                                         # Set temperature and pressure and damping
                                                                         # Numbers of thermostats in chain and in barostat
run 10000          # run for 10000 steps
Per MPI rank memory allocation (min/avg/max) = 3.642 | 3.644 | 3.648 Mbytes
Step Temp E_pair E_mol TotEng Press Volume 
       0          2.4   -8.0440018            0   -4.4449018    -2.648783         4000 
    1000    2.3996768   -4.5529568            0  -0.95434147    5.4364043    5027.2409 
    2000    2.3774335   -4.4916824            0  -0.92642375    5.7273021    5022.2758 
    3000    2.3810148   -4.5308599            0  -0.96023059    5.4964877    5035.5385 
    4000    2.3763521   -4.4604445            0  -0.89680745    5.8717507    5018.2571 
    5000    2.3883367   -4.5402038            0  -0.95859434    5.4948043    5036.8741 
    6000    2.3822759   -4.4875046            0  -0.91498401    5.7507161    5026.7809 
    7000    2.3631174   -4.4963561            0  -0.95256617    5.5905828    5031.8525 
    8000    2.3930824   -4.5216074            0  -0.93288121     5.282626    5061.2188 
    9000    2.4445778   -4.4584775            0  -0.79252756    5.7253703     5048.429 
   10000    2.4079992   -4.5082832            0  -0.89718739    5.3144358    5069.6107 
Loop time of 2.05854 on 48 procs for 10000 steps with 4000 atoms

Performance: 839431.440 tau/day, 4857.821 timesteps/s
99.6% CPU use with 48 MPI tasks x no OpenMP threads

MPI task timing breakdown:
Section |  min time  |  avg time  |  max time  |%varavg| %total
---------------------------------------------------------------
Pair    | 0.83962    | 0.92499    | 0.98047    |   3.0 | 44.93
Neigh   | 0.16891    | 0.17547    | 0.18404    |   0.8 |  8.52
Comm    | 0.64809    | 0.71354    | 0.81315    |   4.5 | 34.66
Output  | 0.00023771 | 0.00024265 | 0.00030466 |   0.0 |  0.01
Modify  | 0.19334    | 0.23019    | 0.25913    |   4.1 | 11.18
Other   |            | 0.0141     |            |       |  0.68

Nlocal:        83.3333 ave          97 max          74 min
Histogram: 4 3 4 19 6 3 4 4 0 1
Nghost:        1405.75 ave        1427 max        1386 min
Histogram: 2 5 4 8 9 2 9 4 3 2
Neighs:        7502.85 ave        8709 max        6621 min
Histogram: 6 3 7 5 10 6 5 3 1 2

Total # of neighbors = 360137
Ave neighs/atom = 90.034250
Neighbor list builds = 904
Dangerous builds = 207

# Equilibrate just above the melting temperature to avoid step fn in T

fix 1 all npt temp 1.25 1.25 0.1 iso 5.68 5.68 0.5 mtk yes tchain 5 pchain 5
run 2000
Per MPI rank memory allocation (min/avg/max) = 3.643 | 3.645 | 3.648 Mbytes
Step Temp E_pair E_mol TotEng Press Volume 
   10000    2.4079992   -4.5082832            0  -0.89718739    5.3144358    5069.6107 
   11000    1.2470663   -6.0236088            0   -4.1534769    5.6551091    4165.0099 
   12000    1.2738969     -6.02341            0   -4.1130425    5.5001459    4178.7993 
Loop time of 0.449158 on 48 procs for 2000 steps with 4000 atoms

Performance: 769439.534 tau/day, 4452.775 timesteps/s
99.6% CPU use with 48 MPI tasks x no OpenMP threads

MPI task timing breakdown:
Section |  min time  |  avg time  |  max time  |%varavg| %total
---------------------------------------------------------------
Pair    | 0.19433    | 0.21225    | 0.2323     |   1.6 | 47.26
Neigh   | 0.030032   | 0.031918   | 0.034195   |   0.4 |  7.11
Comm    | 0.13763    | 0.15484    | 0.17276    |   2.0 | 34.47
Output  | 4.9323e-05 | 5.0485e-05 | 6.2526e-05 |   0.0 |  0.01
Modify  | 0.040665   | 0.045773   | 0.05416    |   1.4 | 10.19
Other   |            | 0.004326   |            |       |  0.96

Nlocal:        83.3333 ave          90 max          77 min
Histogram: 3 3 1 12 5 4 14 3 2 1
Nghost:        1593.73 ave        1614 max        1571 min
Histogram: 3 2 4 6 4 12 6 2 5 4
Neighs:        9117.08 ave        9859 max        8341 min
Histogram: 4 3 5 5 4 7 7 7 3 3

Total # of neighbors = 437620
Ave neighs/atom = 109.40500
Neighbor list builds = 142
Dangerous builds = 7

#############################
# L I N E A R  Q U E N C H  #
#############################

# Define solid atoms. This closely follows ten Wolde  Ruiz-Montero and Frenkel  Faraday Discuss  1996  104  93-110
# Compute components of the per-atom q6 vector
compute q6 all orientorder/atom degrees 1 6 components 6 nnn NULL cutoff 1.3 # compute the Q6 parameter.
                                                                             # Use all neighbours within 1.3 unit cell.

# get number of connections
compute coord_number all coord/atom orientorder q6 0.5

# An atom is solid if it has 8 or more connections (of a possible 14)
variable is_solid atom c_coord_number>=8
group solid dynamic all var is_solid    # Must be dynamic to update
dynamic group solid defined

# do clustering
compute cluster solid cluster/atom 1.3 # Create a cluster where all atoms within are solid and max 1.3 units from another member

# define chunks one chunk per cluster
compute clus_chunks solid chunk/atom c_cluster nchunk every compress yes  # Says which atoms are in which chunk

# count the size of each chunk
compute size_chunks solid property/chunk clus_chunks count


# Find the maximum entry in the vector of chunk sizes
variable max_n equal max(c_size_chunks)


# Thermo style which includes this variable
# thermo_style custom step temp pe vol v_max_n

thermo ${N}  # Print the thermo information every 100 steps
thermo 1000  

# Reset the npt fix at a lower temperature (below freezing)
fix 1  all npt temp  ${temp} ${temp}  0.1  iso  5.68  5.68  0.5  mtk yes tchain  5  pchain  5
fix 1  all npt temp  0.45 ${temp}  0.1  iso  5.68  5.68  0.5  mtk yes tchain  5  pchain  5
fix 1  all npt temp  0.45 0.45  0.1  iso  5.68  5.68  0.5  mtk yes tchain  5  pchain  5

dump dmp2 all dcd ${N} traj.dcd
dump dmp2 all dcd 1000 traj.dcd


compute msd all msd com yes
variable twopoint equal c_msd[4]/6/(step*dt+1.0e-6)
fix 9 all vector 10 c_msd[4]
variable fit equal slope(f_9)/6/(10*dt)
thermo_style custom step temp pe c_msd[4] v_twopoint v_fit v_max_n

fix 1 all npt temp 1.25 ${temp} 0.1 iso 5.68 5.68 0.5 mtk yes tchain 5 pchain 5
fix 1 all npt temp 1.25 0.45 0.1 iso 5.68 5.68 0.5 mtk yes tchain 5 pchain 5
run 500000 # 5000000  # Run for this many steps
Neighbor list info ...
  update every 1 steps, delay 10 steps, check yes
  max neighbors/atom: 2000, page size: 100000
  master list distance cutoff = 3.8
  ghost atom cutoff = 3.8
  binsize = 1.9, bins = 9 9 9
  4 neighbor lists, perpetual/occasional/extra = 1 3 0
  (1) pair lj/cut, perpetual
      attributes: half, newton on
      pair build: half/bin/atomonly/newton
      stencil: half/bin/3d
      bin: standard
  (2) compute orientorder/atom, occasional
      attributes: full, newton on
      pair build: full/bin/atomonly
      stencil: full/bin/3d
      bin: standard
  (3) compute coord/atom, occasional
      attributes: full, newton on
      pair build: full/bin/atomonly
      stencil: full/bin/3d
      bin: standard
  (4) compute cluster/atom, occasional
      attributes: full, newton on
      pair build: full/bin/atomonly
      stencil: full/bin/3d
      bin: standard
Per MPI rank memory allocation (min/avg/max) = 9.738 | 9.742 | 9.749 Mbytes
Step Temp PotEng c_msd[4] v_twopoint v_fit v_max_n 
   12000    1.2738969     -6.02341 8.5690016e-31 5.9506953e-33 8.3333333e+20            6 
   13000     1.214241   -6.0263847   0.56914065 0.0036483373  0.047003041            3 
   14000    1.2459989   -6.0325972    1.1075407 0.0065925041  0.045666006            7 
   15000    1.2405398    -6.043454    1.6819455 0.0093441415  0.046404161            2 
   16000    1.2488325   -6.0089324    2.2158502  0.011540886  0.045949983            1 
   17000     1.257498    -5.984471     2.778779  0.013621465  0.046121045            3 
   18000    1.2406031   -6.0235552     3.323366  0.015385953  0.046100353            1 
   19000    1.2474476    -6.074964     3.896715  0.017090855  0.046149227            2 
   20000    1.2547536    -6.048023    4.4575959  0.018573316  0.046208831            8 
   21000    1.2289218   -6.0727032    5.0167056  0.019907561  0.046360466            4 
   22000    1.2220522   -5.9946588    5.5503628  0.021024101   0.04641461            2 
   23000    1.2576643   -6.0433827     6.126569  0.022197713  0.046347611            3 
   24000    1.2353652   -6.0786022    6.6787602  0.023190139  0.046369596            3 
   25000    1.2388285   -6.0890734    7.2222486  0.024074162  0.046371385            2 
   26000    1.2411932   -6.0759639     7.757765  0.024864631  0.046376306            3 
   27000    1.2168318   -6.0905719    8.2311078  0.025404653   0.04623612            3 
   28000    1.2257366   -6.0660863    8.7526351  0.026049509  0.046080577            2 
   29000    1.2162456   -6.0491087    9.2455943  0.026567799  0.045771974            1 
   30000    1.2286936    -6.066923    9.7909013  0.027196947  0.045523789            3 
   31000    1.2289885   -6.0794011    10.289092  0.027658848  0.045368371            4 
   32000    1.1764412   -6.0977861    10.581055  0.027554831  0.045047551            3 
   33000    1.2121216   -6.0581291    11.139603  0.028130311  0.044707348            5 
   34000    1.2150078   -6.0665664    11.575307   0.02837085  0.044422806            1 
   35000    1.2317748   -6.0723546    12.137537  0.028898897  0.044188878            4 
   36000    1.2078398   -6.0942389    12.654129  0.029291965  0.043989618            5 
   37000    1.2283097   -6.0587827    13.405064  0.030191585  0.043914731            4 
   38000     1.213921   -6.1223993    13.963974  0.030622749  0.043942309            2 
   39000    1.2105605   -6.1252652    14.405241   0.03078043  0.043969693            2 
   40000     1.195851   -6.0727327    14.874564  0.030988674  0.043939139            3 
   41000    1.2014453   -6.1278748    15.217655  0.030930192  0.043852561            5 
   42000    1.2014257   -6.1064484    15.762702  0.031275202  0.043742101            2 
   43000    1.2045354   -6.0512172    16.245172   0.03148289  0.043628493            3 
   44000    1.1918609   -6.1043034    16.548898   0.03134261  0.043465618            4 
   45000    1.1953045   -6.1072705    17.049692  0.031573504   0.04328473            4 
   46000    1.1767856   -6.1554275    17.409023  0.031538085  0.043111927            4 
   47000    1.2047533   -6.1162927    17.936665  0.031802596  0.042943541            3 
   48000    1.1986041   -6.1177674    18.296449  0.031764668  0.042762614            6 
   49000    1.1986323   -6.1246148    18.769767  0.031921372  0.042588736            7 
   50000    1.1967541   -6.1386157     19.22299  0.032038316   0.04240093            2 
   51000    1.1742537   -6.1552398    19.665992  0.032133974  0.042227526            2 
   52000    1.1841311   -6.1272718    20.250578  0.032452849  0.042077772            3 
   53000    1.1808506    -6.108032    20.591703  0.032376891  0.041945423            4 
   54000    1.1496194   -6.1081991    21.173422  0.032675034  0.041816054            2 
   55000    1.1962099   -6.1405878    21.548888   0.03264983  0.041695605            3 
   56000    1.1779075   -6.1459568     22.08571   0.03286564  0.041583399            5 
   57000    1.1799254   -6.1784589    22.589474  0.033025546  0.041489819            4 
   58000    1.1765234   -6.1465895    23.142765  0.033251099  0.041408781            4 
   59000    1.1894844   -6.1399193    23.483539   0.03316884  0.041319109            2 
   60000    1.1838956   -6.1689946    23.914939  0.033215193  0.041231054            2 
   61000     1.197083   -6.1535385    24.344355  0.033257315  0.041138604            4 
   62000    1.1465615   -6.1150709    24.876167  0.033435707  0.041051406            6 
   63000    1.1664382   -6.1952397    25.344543  0.033524527  0.040973693            3 
   64000    1.1606972   -6.1732456     26.01147  0.033869101  0.040909593            3 
   65000    1.1732986   -6.1729975    26.390308  0.033833728  0.040872156            2 
   66000    1.1687725   -6.1159896    26.976483  0.034061215  0.040827262            2 
   67000    1.1376927   -6.1614311    27.267697  0.033915046  0.040781222            5 
   68000    1.1523603    -6.175933    27.638787  0.033871062  0.040713945            8 
   69000    1.1689788    -6.175236    28.103204  0.033941068  0.040655963            3 
   70000     1.149211   -6.1832602    28.444477  0.033862473  0.040583507            2 
   71000    1.1569745   -6.1828748    28.855228  0.033867638  0.040509036            3 
   72000    1.1316395   -6.1763721    29.304833  0.033917631   0.04043342            5 
   73000    1.1429911   -6.1780069    29.712676  0.033918579  0.040354959            4 
   74000     1.177423   -6.1663384    30.093684  0.033889284  0.040281964            3 
   75000    1.1639736   -6.1831551    30.636412  0.034040458  0.040203117            2 
   76000    1.1383736   -6.1633485    31.128957  0.034132628  0.040128572            3 
   77000    1.1337291   -6.1834951    31.460536  0.034048199  0.040053803            8 
   78000    1.1294007   -6.2075792    31.853819  0.034031858  0.039977599            3 
   79000    1.1540067   -6.1850037    32.464455  0.034245205  0.039913657            6 
   80000    1.1453858   -6.2119489    33.007132  0.034382429   0.03985857            4 
   81000    1.1289574   -6.1843456    33.378712  0.034340238  0.039810176            4 
   82000    1.1355705    -6.186191     33.86513  0.034415782  0.039763532            4 
   83000    1.1436173   -6.2043728    34.268924   0.03440655   0.03971117            3 
   84000    1.1231428   -6.2143168    34.554183  0.034279943  0.039651065            2 
   85000    1.1578892   -6.2292297    34.907991   0.03422352  0.039590075            4 
   86000    1.1383031   -6.2316216    35.414998  0.034316858  0.039533254            5 
   87000     1.124442   -6.2128332    35.549374  0.034051125  0.039461831            4 
   88000    1.1282623   -6.2128687    35.988923  0.034080419   0.03937678            6 
   89000    1.1310048   -6.2465887    36.568916  0.034240558  0.039301793            3 
   90000    1.1062104   -6.2447787    36.908576  0.034174608    0.0392331            3 
   91000    1.1312735   -6.2670882    37.048677   0.03392736  0.039155095            8 
   92000    1.1212962   -6.2235541    37.537968  0.034001783  0.039069117            5 
   93000    1.1150594   -6.2283062     37.94228  0.033998459  0.038975325            3 
   94000    1.1132856   -6.2432717    38.097628  0.033774493  0.038880727            4 
   95000    1.1218709   -6.2831558    38.516156  0.033786102  0.038777049            4 
   96000    1.1005507   -6.2915603     38.69577  0.033590078  0.038671125            3 
   97000    1.1223718    -6.266053    39.007763  0.033511823  0.038561985            2 
   98000    1.1249795   -6.2793387    39.327691  0.033441914  0.038447729            6 
   99000    1.1141262   -6.2408994    39.764752  0.033472013   0.03833714            4 
  100000    1.1129713   -6.2352374    40.147275  0.033456063  0.038226487            4 
  101000    1.0929459   -6.2427344    40.339829  0.033283687   0.03811009            3 
  102000    1.1010098    -6.267131    40.707982  0.033258155  0.037995515            2 
  103000    1.1147739   -6.2843016    41.087082  0.033241975  0.037883834            5 
  104000    1.1025101   -6.2686151    41.529758  0.033277049  0.037776942            8 
  105000    1.1290252   -6.2796017    42.074961  0.033392826  0.037675081            4 
  106000    1.1067302   -6.2574451    42.257144  0.033221025  0.037576962            2 
  107000    1.0716295   -6.3197923    42.756135  0.033299171  0.037482516            5 
  108000    1.1036296    -6.252147    43.032088  0.033203772  0.037388489            3 
  109000    1.0781363   -6.2695167    43.615783    0.0333454  0.037294209            2 
  110000    1.1099418   -6.3050463    43.731897  0.033130225  0.037205436            8 
  111000    1.0564606    -6.299593     44.04469  0.033066584  0.037111031            7 
  112000    1.0739285    -6.301423    44.460887  0.033081017   0.03701393            7 
  113000    1.0891457   -6.3464415    44.783937  0.033026502  0.036921879            3 
  114000    1.1118423   -6.3056724    45.335803  0.033140207  0.036833606            5 
  115000    1.1129785   -6.3043112    45.713991  0.033126081  0.036751196            2 
  116000    1.0741193   -6.3327178    46.147288  0.033151787  0.036675407            5 
  117000    1.0922647   -6.2951796    46.360556  0.033020339   0.03659505            5 
  118000    1.0852149   -6.3489407    46.476882  0.032822657  0.036505202            3 
  119000    1.0733501   -6.2905222    46.757028  0.032743016  0.036411931            3 
  120000    1.0857295   -6.3010415    46.784526  0.032489254  0.036312785            3 
  121000       1.0721   -6.2902698    47.515516  0.032724185  0.036214619            5 
  122000    1.0886931   -6.3182218    47.662129  0.032556099  0.036119908            2 
  123000    1.0862061   -6.3626054    48.076032  0.032571837  0.036028472            4 
  124000    1.0873724   -6.3528965    48.327308  0.032478029  0.035937005            3 
  125000    1.0757267   -6.3316813    48.638837  0.032425891  0.035847242            4 
  126000    1.0747333   -6.3301031    49.047136  0.032438582  0.035758945            3 
  127000    1.0566653   -6.3409273    49.361266  0.032389282  0.035669866            5 
  128000    1.0781893   -6.3526917    49.804545  0.032424834  0.035580214            6 
  129000    1.0981095   -6.3677532    49.854633  0.032205835  0.035490798            3 
  130000    1.0511272   -6.3394512    50.259925    0.0322179  0.035399525            4 
  131000    1.0744269   -6.3564575    50.679045  0.032238578  0.035310764            3 
  132000    1.0639022   -6.3528919     50.93322   0.03215481  0.035225814            5 
  133000    1.0813497   -6.3518713    51.269214  0.032123568   0.03514084            4 
  134000    1.0631657   -6.4011778    51.482998   0.03201679  0.035055809            8 
  135000    1.0602299   -6.3810887    51.807199  0.031979752  0.034967539            3 
  136000    1.0601913   -6.4069264    51.936024  0.031823544  0.034876465            3 
  137000    1.0168477   -6.3946774    52.298808  0.031811927    0.0347826            3 
  138000    1.0494139     -6.36943    52.584653  0.031754017  0.034692013            2 
  139000    1.0529862    -6.375742    52.616772  0.031544827  0.034602869            5 
  140000    1.0571419   -6.3833438    53.016215  0.031557271   0.03451125            4 
  141000    1.0480317   -6.3681773    53.205249  0.031445183  0.034420877            3 
  142000    1.0412009   -6.3666562     53.77971  0.031560863  0.034330123            4 
  143000    1.0560623   -6.3791398    54.052626  0.031499199  0.034241766            4 
  144000    1.0030282   -6.3955654    54.334901  0.031443808  0.034153731            3 
  145000    1.0247976   -6.4359594     54.64167  0.031403259  0.034070128            4 
  146000    1.0357603   -6.4254977    55.115223  0.031458461  0.033985353            4 
  147000    1.0275831   -6.4165545    55.424836  0.031419975  0.033902791            4 
  148000    1.0607564   -6.4153433     55.54599  0.031275895   0.03382277            8 
  149000    1.0311029   -6.4215417    55.812973  0.031215309  0.033742622            6 
  150000    1.0222249   -6.3881404     56.23499  0.031241661  0.033662124            4 
  151000    1.0125635   -6.4200577    56.577091   0.03122356  0.033582166            4 
  152000   0.99948515   -6.4323369    56.793976  0.031137048  0.033501551            4 
  153000    1.0434074   -6.4180974    56.935589  0.031010669  0.033421745            6 
  154000    1.0292508   -6.4290329    57.086733  0.030891089  0.033338381            3 
  155000    1.0216346    -6.372966    57.489224  0.030908185  0.033257549            3 
  156000    1.0167488   -6.3909621    57.499718  0.030715661  0.033175481            5 
  157000    1.0229873   -6.4130816    57.917963  0.030742018  0.033091266            5 
  158000    1.0432513   -6.4284297    58.392218  0.030797583  0.033010412            8 
  159000    1.0178713   -6.4161186    58.377955  0.030596412  0.032929183            6 
  160000    1.0384575   -6.4562556    58.565069   0.03050264  0.032847004            5 
  161000    1.0220311   -6.4333833    59.017536  0.030547379   0.03276653            6 
  162000    1.0005669    -6.438568     59.08902  0.030395586  0.032685607            4 
  163000    1.0085311   -6.4700165    59.327561  0.030331064  0.032604459            2 
  164000    1.0235488   -6.4318208    59.598165   0.03028362   0.03252137           10 
  165000    1.0209803   -6.4522558      59.9418  0.030273636   0.03243823            5 
  166000    1.0096726   -6.4773319    60.207352  0.030224574  0.032357501            6 
  167000    1.0065097   -6.4536799    60.410867  0.030145143  0.032274949            3 
  168000    1.0078748   -6.4539333    60.823164   0.03017022  0.032194235            9 
  169000    1.0007572    -6.474311    60.849861  0.030004862  0.032114946            6 
  170000   0.99954491    -6.478292    61.401301  0.030098677  0.032037685            4 
  171000   0.99626682   -6.4935384    61.545109  0.029992743  0.031960195            4 
  172000    0.9827165   -6.4793187    61.979461  0.030028809  0.031884335            4 
  173000    1.0153549   -6.4620077    61.893757  0.029813948  0.031807885            9 
  174000   0.99950623   -6.4594486    62.421105  0.029895165    0.0317324            7 
  175000   0.99445889   -6.4543257    62.634025  0.029825726  0.031657583            3 
  176000   0.98494899   -6.4587343    62.838491  0.029753073  0.031582601            5 
  177000   0.99171638    -6.488914    62.941736  0.029633585  0.031507873            3 
  178000   0.99690405   -6.4802688    63.403227  0.029683159  0.031432312            3 
  179000   0.98891596   -6.4841887    63.631849  0.029623766  0.031357441            9 
  180000   0.98700724   -6.4967206    63.881954  0.029574979  0.031283161            6 
  181000   0.96785392   -6.5230723    64.108981  0.029516105  0.031208011           14 
  182000   0.98382547   -6.5462894    64.215512  0.029402707  0.031131784            6 
  183000   0.97612134   -6.4832211    64.589044  0.029412133  0.031056715            6 
  184000    0.9604458   -6.4720946    64.843533  0.029367542  0.030984952            9 
  185000   0.99119099   -6.5113198    65.074202  0.029312704  0.030913377            7 
  186000   0.97706877    -6.537626    65.533093  0.029360705  0.030844262            4 
  187000   0.97059075   -6.5185232    65.685896  0.029271789  0.030775884            3 
  188000   0.96267245     -6.53737    65.801488  0.029167326  0.030706943            6 
  189000    0.9705727   -6.5330049    66.037969   0.02911727  0.030637395            7 
  190000   0.96106715   -6.5299647    65.905372  0.028905865  0.030564413            5 
  191000   0.95806862   -6.5437596    66.083454  0.028832222  0.030490817            3 
  192000   0.97287276   -6.5704336    66.349532   0.02879754  0.030416995            6 
  193000   0.95752228   -6.5253456     66.75642  0.028824016  0.030343475           10 
  194000   0.96508944   -6.5706059    66.589121  0.028603574   0.03026898            5 
  195000   0.95327979   -6.5608509     67.04228  0.028650547  0.030194212            4 
  196000   0.95518582   -6.5419334    67.527408  0.028710633  0.030122227            3 
  197000   0.94296687   -6.5308925     67.61113  0.028600309  0.030050604            6 
  198000    0.9626677   -6.5845994    67.697448  0.028492192  0.029979014            5 
  199000   0.95997796   -6.5491617    68.088217  0.028512654  0.029907005            5 
  200000   0.95924911   -6.5522959    68.222989  0.028426245  0.029835648            6 
  201000   0.93502476   -6.5548577    68.658389  0.028465335   0.02976403            5 
  202000   0.94171324   -6.5887546    68.597075  0.028299123  0.029692938            5 
  203000   0.93354809   -6.5452904    68.851447  0.028264141  0.029621289            5 
  204000   0.92870393   -6.5766504    69.083977  0.028220579  0.029551087            6 
  205000   0.95166249   -6.5980658     69.28451  0.028164435  0.029481191            5 
  206000   0.93081283    -6.609595    69.539547  0.028130885  0.029411815           10 
  207000   0.95957308   -6.5667925    69.715775  0.028065932  0.029342026            5 
  208000   0.91156928   -6.6099126    69.704135  0.027926336  0.029271884            7 
  209000   0.92312324   -6.5886317    70.082988  0.027943775   0.02920216           14 
  210000   0.92996045   -6.5583965    70.421954   0.02794522  0.029133411            7 
  211000   0.94449107   -6.5930601    70.489274  0.027839366  0.029066235           14 
  212000   0.92503343   -6.6108759    70.780787  0.027822636  0.028998348            5 
  213000   0.94491413   -6.5951163    71.028733  0.027789019  0.028931172            8 
  214000   0.91159974   -6.6059869    71.169173  0.027713853  0.028864183            5 
  215000   0.94153266   -6.6381758    71.360395  0.027659068  0.028797591            8 
  216000   0.91819479   -6.5869927    71.796637   0.02769932  0.028732256            5 
  217000   0.92325762   -6.6324063    71.959147  0.027634081  0.028666969            5 
  218000    0.9124313   -6.6301364    72.240144  0.027614734  0.028604322            5 
  219000   0.89953005   -6.6431167    72.198946  0.027472963  0.028540086            6 
  220000   0.93548675   -6.6358331    72.639588  0.027514995  0.028476095            4 
  221000   0.89131602    -6.607981    72.938269  0.027503118  0.028414192            4 
  222000   0.90546835   -6.6175417    73.141111  0.027455372   0.02835242            5 
  223000   0.93458427   -6.6277972    73.100488  0.027317073  0.028289909            7 
  224000      0.89238   -6.6094457     73.40427  0.027308136  0.028226145            7 
  225000   0.89662192   -6.6268269    73.405189  0.027187107  0.028161886            8 
  226000   0.90868056   -6.6317969    73.646507  0.027155791  0.028096902            7 
  227000    0.8949133   -6.6444093    73.585876  0.027013905  0.028030979           13 
  228000   0.89319255   -6.6621712    73.874287  0.027000836  0.027964126            6 
  229000   0.90787074   -6.6710811    73.890873  0.026888964  0.027897967           14 
  230000   0.89263578   -6.6492962    74.416213  0.026962396  0.027832352            8 
  231000   0.89173463   -6.6555715    74.578537  0.026904234  0.027768651            6 
  232000   0.91326322    -6.680559    74.400438  0.026724295  0.027704367            8 
  233000   0.90315518    -6.666326    74.599325  0.026680731  0.027640086            7 
  234000   0.90356526   -6.6660441    74.751602  0.026620941  0.027575064            8 
  235000    0.8952913    -6.670988    74.868955  0.026549275   0.02751085           11 
  236000    0.8678583   -6.6636712    75.248807  0.026570907  0.027446663            9 
  237000    0.8784448   -6.6499185    75.473607  0.026537837  0.027382619            4 
  238000    0.8909688   -6.6930866    75.569646   0.02645996   0.02731934           11 
  239000   0.90404048   -6.6633287    76.209194  0.026572243  0.027256588            8 
  240000   0.91162982    -6.722897    75.992373  0.026386241  0.027193878           13 
  241000   0.85393688   -6.6624861    76.492394  0.026449652  0.027132227           21 
  242000   0.89878444   -6.6666138    76.800796  0.026446555  0.027071727           10 
  243000   0.88725066   -6.7228166    76.657214  0.026288482  0.027010289            5 
  244000   0.87063988   -6.7017549    76.701337  0.026195812  0.026949759            8 
  245000   0.85956575   -6.6672231     76.94363  0.026171303   0.02688877            6 
  246000   0.89071528   -6.7039816    77.247729   0.02616793  0.026828217           21 
  247000   0.86078819   -6.7056056    77.341785   0.02609372  0.026767675            3 
  248000   0.88502309   -6.7216308     77.67715  0.026101193  0.026706826            5 
  249000   0.87601929   -6.6900417    77.667302  0.025993073  0.026646175            9 
  250000   0.87698384   -6.7167579    78.008873  0.026002958  0.026585378           17 
  251000   0.84411444   -6.7101908    78.053753  0.025914261  0.026526147           12 
  252000    0.8788229   -6.7050343     78.16115  0.025846941  0.026467918            8 
  253000   0.86013437   -6.7244006    78.433407  0.025834455   0.02641019           10 
  254000   0.87132323   -6.6991177    78.667875   0.02580967  0.026351363            9 
  255000   0.84360047   -6.7116546    78.844327   0.02576612  0.026293023           16 
  256000   0.85760568   -6.7306816       78.785  0.025646159  0.026234365            6 
  257000   0.86759624   -6.7518585    78.931056  0.025593728  0.026175935           15 
  258000     0.858214   -6.7308235    79.398016  0.025645354  0.026117627            7 
  259000   0.85855184   -6.7357833    79.570432  0.025601812  0.026059709            4 
  260000   0.83800364   -6.7516285    79.621537  0.025519723  0.026003161            7 
  261000   0.85014937    -6.735418     79.92237  0.025517998   0.02594645            9 
  262000   0.85122356   -6.7528973    79.862516  0.025401564  0.025889726           12 
  263000   0.83114534   -6.7596534    79.952499  0.025333491  0.025832439           10 
  264000   0.86684507   -6.7789722    80.258685  0.025334181   0.02577491            7 
  265000   0.84357933   -6.7570694    80.262973  0.025239929  0.025717051            8 
  266000   0.83327104   -6.7780163    80.540642  0.025232031  0.025660598            7 
  267000    0.8535122   -6.7865245    80.455039  0.025110811  0.025603571           13 
  268000   0.84237442   -6.7830738    80.620416  0.025068537   0.02554618           13 
  269000   0.85068748   -6.7813137    80.860565  0.025049741   0.02548875           14 
  270000   0.84584127    -6.760894     80.98482  0.024995315  0.025432138           14 
  271000   0.80700239   -6.7843252    80.857149  0.024863822  0.025374862            4 
  272000   0.84290745   -6.7562498    81.163103  0.024866147   0.02531708           15 
  273000   0.81952808   -6.7956948    81.565312  0.024897836  0.025260488           18 
  274000   0.85024964   -6.7896788     81.73386   0.02485823  0.025204881            5 
  275000   0.83177714   -6.7791929    81.588663  0.024723837  0.025149025           12 
  276000   0.81999199   -6.8074451    81.839119  0.024709879  0.025093155            9 
  277000   0.84292529    -6.794605    82.062077  0.024687749  0.025038001           25 
  278000   0.81821646   -6.7638262    82.191136  0.024637631   0.02498282           14 
  279000   0.83997995   -6.8153505    82.395087  0.024610241  0.024926908           10 
  280000    0.8219713   -6.7812655     82.21726  0.024469423  0.024870185            5 
  281000   0.82075826   -6.8058313    82.362801  0.024425504  0.024813547            8 
  282000   0.82561385   -6.8246097    82.469186  0.024370327  0.024756868           17 
  283000   0.81044849   -6.8299365    82.855753  0.024398043  0.024700428           10 
  284000   0.81518758   -6.8195061    82.903293  0.024326084   0.02464483           19 
  285000   0.79209536   -6.8133606    82.837512  0.024221495  0.024588859            9 
  286000   0.80751612   -6.8661196    82.876321  0.024148112  0.024532147           10 
  287000   0.82894841   -6.8330168    83.216886  0.024162859  0.024476151            5 
  288000   0.81632577   -6.8349084    83.243469  0.024086652  0.024419513            7 
  289000   0.81309701   -6.8537904    83.371761    0.0240403  0.024363554           14 
  290000    0.8094574   -6.8385302    83.592991  0.024020974  0.024306842           14 
  291000   0.81145227   -6.8458024    83.387462  0.023879571  0.024249688            7 
  292000   0.81784808   -6.8383669    83.492834  0.023827864  0.024192187            7 
  293000   0.78141339   -6.8567659    83.602352  0.023777688  0.024134524           17 
  294000   0.78689956   -6.8391309    83.557912  0.023684215  0.024076738            6 
  295000   0.79467522   -6.8606574    83.692144  0.023641849  0.024019192           13 
  296000   0.78491536   -6.8619589    83.887139  0.023616875  0.023961197           16 
  297000   0.78150637   -6.8770862    84.095132  0.023595716  0.023903216            7 
  298000   0.79265848   -6.8627336     83.90585  0.023463605  0.023845487           15 
  299000   0.78634067   -6.8783721    83.786911  0.023351982  0.023788006           14 
  300000   0.78072598   -6.8886843    84.041827  0.023344952  0.023729596           19 
  301000   0.77860234   -6.8725673    84.550102  0.023408112  0.023672261           15 
  302000   0.78183455   -6.8598983    84.548472  0.023330152  0.023615326           11 
  303000   0.79694317   -6.8435031    84.647639  0.023280429  0.023558876            8 
  304000   0.79510524   -6.8472663     84.67715  0.023211938  0.023502739            9 
  305000   0.77430357   -6.9043567    84.766182  0.023160159  0.023446523           13 
  306000   0.77455583   -6.9008492    85.056303  0.023163481  0.023390423           19 
  307000   0.78238914   -6.8781255    85.090019  0.023097182  0.023334088           10 
  308000   0.76545596   -6.9127146    85.138556  0.023035324  0.023278262           27 
  309000   0.75645697    -6.882941    85.348104  0.023017288  0.023222097           14 
  310000   0.77713514   -6.8986462    85.106746  0.022878157  0.023166062           11 
  311000   0.76346296   -6.8901648    85.321536  0.022862148  0.023108929           11 
  312000   0.76398338   -6.9262407    85.304755   0.02278439  0.023052491           16 
  313000   0.76125701   -6.8918391    85.427085  0.022744165  0.022995851           16 
  314000   0.76472498   -6.9280847    85.483835  0.022686793  0.022939342           31 
  315000   0.75990552   -6.9048512    85.305646  0.022567631  0.022883077           13 
  316000   0.76609203   -6.9232599    85.687204  0.022596836  0.022826642           10 
  317000   0.76555416   -6.9204029    85.762067  0.022545233  0.022770452           23 
  318000   0.74561084   -6.9347692    85.899703  0.022510404  0.022714704           17 
  319000   0.75435096   -6.9241571     86.17974  0.022512994  0.022658772           17 
  320000   0.75033239   -6.9318979    85.955101  0.022384141  0.022603104           10 
  321000   0.75135304   -6.9449462    86.124292  0.022358331  0.022547511           16 
  322000   0.74786654   -6.9406555    86.130087  0.022290395   0.02249171           19 
  323000   0.75931852   -6.9219435    86.252493  0.022252965  0.022436069           18 
  324000    0.7448075   -6.9398483    86.161135  0.022160786  0.022380188           18 
  325000   0.75544456   -6.9561251    86.249852  0.022115347  0.022323998           16 
  326000   0.73369471   -6.9426193    86.376935  0.022079993  0.022267895            8 
  327000   0.73763941   -6.9543832    86.571212  0.022061981  0.022212067           18 
  328000    0.7490469   -6.9513975    86.723476  0.022033403  0.022156596           32 
  329000   0.72967317   -6.9658048    86.591491  0.021933002   0.02210113           33 
  330000   0.75503555   -6.9425061    86.679126  0.021888668  0.022045641           20 
  331000   0.75002585   -6.9722539    86.706793  0.021829505  0.021990288           18 
  332000   0.74990034    -6.996751    86.645923  0.021748475  0.021934626           31 
  333000   0.73075156   -6.9808815    86.713248  0.021700012  0.021878403           38 
  334000   0.73128413   -6.9732947    86.753585  0.021645106  0.021822415           14 
  335000   0.74347326   -6.9542872    86.713223  0.021570453  0.021766717           30 
  336000   0.72215494   -6.9636853    86.730345  0.021510502  0.021710553           24 
  337000   0.73888858   -6.9918332    86.929925  0.021496025  0.021654641           25 
  338000   0.72074493   -6.9769071    86.955808  0.021438809  0.021599018           45 
  339000   0.72944188   -6.9995407    87.195445  0.021434475  0.021544056           31 
  340000   0.71467832   -7.0296044     87.13196  0.021355873  0.021488639           32 
  341000   0.72541306   -7.0187616     87.33363  0.021342529  0.021433472           37 
  342000   0.70762466   -7.0499628    87.215228  0.021251274  0.021377905           37 
  343000   0.70855797    -7.031537    87.129489  0.021168486  0.021322213           42 
  344000   0.72661246   -7.0115573    87.076129  0.021094023  0.021266242           26 
  345000   0.71167984   -7.0121495    87.262137  0.021077811  0.021210454           24 
  346000   0.71352153   -7.0374226    87.364277  0.021041493  0.021154559           30 
  347000   0.72224121   -7.0481337    87.088042  0.020914515  0.021098639           20 
  348000   0.72431378   -7.0413308     87.28768  0.020902222  0.021042624           18 
  349000    0.7151477   -7.0152054    87.269475  0.020837983  0.020986845           23 
  350000   0.69130568   -7.0352082    87.120628  0.020743007  0.020930865           15 
  351000   0.71505278   -7.0174494    87.260579  0.020717136  0.020874797           14 
  352000   0.70517608   -7.0368605    87.378384  0.020686171  0.020818492           17 
  353000   0.72350186   -7.0645267    87.399507  0.020632556  0.020762727           32 
  354000   0.70187411   -7.0365261    87.609493  0.020623704  0.020706691           20 
  355000   0.70618818    -7.065939     87.49439  0.020538589  0.020650458           91 
  356000   0.69429293   -7.0415405     87.25033  0.020423766  0.020594047           77 
  357000   0.70068143   -7.0435662    87.278817  0.020373207  0.020537475           27 
  358000   0.68841577    -7.062862    87.389539  0.020342071  0.020481202           57 
  359000   0.68103462   -7.0574624    87.306005  0.020266018  0.020425031          129 
  360000   0.68433504   -7.0821437     87.50247  0.020255201  0.020368547          112 
  361000   0.70168654   -7.0835049    87.405366  0.020176677  0.020311679           78 
  362000    0.6992955   -7.0825382    87.436309  0.020128064  0.020254887           39 
  363000   0.69311722    -7.092797    87.467021  0.020079665  0.020198143           69 
  364000   0.68840024   -7.0973244    87.286824  0.019983247  0.020141572           62 
  365000   0.69280646   -7.0970196    87.295356  0.019930447  0.020084516          240 
  366000   0.68779509   -7.1164529    87.349353  0.019888286  0.020027595          203 
  367000   0.66930162   -7.1037203    87.397779  0.019845091  0.019970722          118 
  368000   0.67760012    -7.091708    87.195238  0.019745299  0.019913665           63 
  369000   0.67726639   -7.1003146    87.145037  0.019680451  0.019856536           60 
  370000   0.67497781   -7.1448301    87.057933  0.019607643  0.019799146          112 
  371000   0.68524058   -7.1315517    87.042526  0.019551331  0.019741661           83 
  372000    0.6723491   -7.1186852    87.321545  0.019561278  0.019684473           59 
  373000   0.67717338   -7.1251836    87.387505  0.019523571  0.019627652           79 
  374000   0.67678965    -7.122092    87.401733  0.019474539  0.019571185          107 
  375000     0.667071   -7.1393027    87.309004  0.019402001  0.019514534          122 
  376000   0.66769284   -7.1345051     87.34908  0.019359282  0.019457888          114 
  377000   0.65617817   -7.1408611    87.223983  0.019280279  0.019401358          143 
  378000   0.67733148   -7.1261107    87.327397  0.019252072  0.019345158          260 
  379000   0.66690966   -7.1473253    87.563375  0.019253161  0.019288877          130 
  380000   0.64876354   -7.1357172    87.333954  0.019152183  0.019232618          335 
  381000   0.66257932   -7.1583633    87.196356  0.019071819  0.019176616          261 
  382000   0.64768384   -7.1695258    87.483445  0.019084521   0.01912059          265 
  383000    0.6544378   -7.1903307    87.538934  0.019046765  0.019064926          247 
  384000   0.66143931   -7.1801973    87.577564  0.019005548  0.019009507          283 
  385000   0.65282114   -7.1745439    87.350863  0.018907113  0.018954079          290 
  386000   0.64945242   -7.1635957    87.498453  0.018889994  0.018898621          496 
  387000   0.63146031   -7.1657638    87.367806   0.01881305  0.018843567          448 
  388000   0.64649248   -7.2027511    87.421481  0.018776091   0.01878836          384 
  389000   0.64251095   -7.1806216    87.486426  0.018741736  0.018733154          377 
  390000   0.64782868   -7.2068274    87.301653  0.018654199  0.018678123          445 
  391000    0.6477664   -7.1993462    87.239549  0.018593254   0.01862302          419 
  392000   0.63128533    -7.196463     87.46366  0.018593465  0.018567973          353 
  393000   0.64594111   -7.1877757    87.563806  0.018567389  0.018513252          448 
  394000    0.6282653   -7.1997014    87.426602  0.018491244  0.018458967          520 
  395000   0.64544454   -7.2135011    87.478056  0.018455286  0.018404637          505 
  396000   0.64729664    -7.216691    87.530776  0.018419776  0.018350521          414 
  397000   0.62596436   -7.2039166    87.463667  0.018359292  0.018296366          375 
  398000   0.64392463   -7.2079751    87.499752  0.018320719  0.018242119          424 
  399000    0.6256017   -7.2236785    87.490978  0.018272969  0.018187889          567 
  400000     0.633507   -7.2134493    87.479547  0.018224906  0.018133735          596 
  401000   0.62015184   -7.2330928    87.358744  0.018154352  0.018079878          463 
  402000   0.62021213   -7.2547749    87.620881  0.018163533  0.018026292          546 
  403000   0.62785702   -7.2498725    87.520746  0.018097755  0.017972881          495 
  404000   0.62763888   -7.2399038    87.551315  0.018059265  0.017919546          566 
  405000    0.6207218   -7.2525931    87.584408  0.018021483   0.01786663          636 
  406000   0.61010607   -7.2474903    87.524245  0.017964747  0.017813773          754 
  407000   0.62416937   -7.2543379    87.693612  0.017955285  0.017760979          738 
  408000   0.62815007   -7.2435698    87.564207  0.017884846  0.017708427          655 
  409000   0.62908187   -7.2703363     87.67245  0.017863172  0.017655928          812 
  410000   0.60132646   -7.2720627    87.765135  0.017838442  0.017603466          832 
  411000   0.61510488   -7.2824018    87.663121  0.017774355  0.017551135          928 
  412000   0.61102673   -7.2797966    87.518702  0.017702003  0.017498856          872 
  413000   0.61056604   -7.2951953    87.536943  0.017662821  0.017446737          963 
  414000   0.59754418   -7.2952427    87.669857  0.017646912  0.017394666          999 
  415000   0.60699993   -7.2946874    87.664439  0.017603301  0.017342822         1030 
  416000   0.61079339   -7.3010892    87.649755  0.017558044  0.017291241          992 
  417000   0.58802955   -7.2758472    87.489885   0.01748399  0.017239708          988 
  418000   0.59780541   -7.3145885    87.681626  0.017480388  0.017188398         1012 
  419000   0.60672883   -7.3093136    87.633087  0.017429015  0.017137429          987 
  420000   0.59376343   -7.2997259    87.606219  0.017382186  0.017086436          990 
  421000   0.59090252    -7.314704    87.433501   0.01730671  0.017035492         1033 
  422000   0.59289463   -7.3142896    87.627914   0.01730409  0.016984619         1062 
  423000   0.59408622   -7.3175417    87.741041  0.017285469  0.016933999         1066 
  424000   0.59418587   -7.3186572    87.552304  0.017207607  0.016883643          974 
  425000   0.59450023   -7.3205191    87.758299   0.01720751  0.016833374         1036 
  426000   0.58221724   -7.3351277    87.719762  0.017159578  0.016783375         1123 
  427000     0.587726   -7.3281022     87.61323  0.017098601  0.016733498         1078 
  428000   0.58196305   -7.3417221    87.734782  0.017082317  0.016683729         1046 
  429000   0.58220358   -7.3363793    87.853926  0.017065642   0.01663417         1160 
  430000   0.58525461   -7.3497291    87.769559  0.017009604  0.016584869         1209 
  431000   0.56820794   -7.3510852    87.658275  0.016948622  0.016535598         1110 
  432000   0.57065616   -7.3665304    87.798464  0.016936432  0.016486494         1169 
  433000   0.56536043   -7.3641091     87.77742  0.016893268  0.016437379         1128 
  434000   0.57931143   -7.3523593    87.579086  0.016816261  0.016388354         1186 
  435000   0.57726751   -7.3747174    87.638045  0.016788898  0.016339565         1114 
  436000   0.57510966    -7.367896    87.645412  0.016751799  0.016290962         1148 
  437000   0.57858174   -7.3507058     87.76033  0.016735379  0.016242532         1185 
  438000   0.55798102   -7.3768723    87.653603  0.016676865  0.016194149         1156 
  439000   0.56864619   -7.3777394    87.614354  0.016631426  0.016145837         1200 
  440000   0.55495544    -7.370345    87.652856   0.01660092  0.016097585         1218 
  441000   0.57173827    -7.385728     87.84499  0.016599582  0.016049352         1252 
  442000   0.56007265   -7.3844758    87.545216  0.016505508  0.016001326         1332 
  443000   0.55937874   -7.3958211     87.63852  0.016485801  0.015953306         1320 
  444000   0.55895258    -7.386209    87.453102   0.01641387  0.015905399         1332 
  445000   0.54066799   -7.3953637    87.594973  0.016403553  0.015857772         1342 
  446000   0.54737467   -7.4000593    87.520536  0.016352865  0.015810219         1369 
  447000    0.5500973   -7.4049185    87.581685  0.016327682  0.015762781         1361 
  448000   0.55595746   -7.4133633    87.549058  0.016285167  0.015715566         1352 
  449000   0.55663814   -7.4271392    87.507214  0.016241131    0.0156684         1339 
  450000   0.54836917   -7.4300757    87.594278  0.016221163  0.015621391         1334 
  451000   0.54084742   -7.4061855    87.544361  0.016175972  0.015574578         1332 
  452000   0.53508596   -7.4228984    87.502601  0.016132485   0.01552779         1360 
  453000   0.54967836   -7.4252507    87.413483  0.016080479  0.015481136         1344 
  454000   0.54115031   -7.4209374    87.327566  0.016029289  0.015434597         1425 
  455000   0.54157205   -7.4223124    87.475089  0.016021079  0.015388246         1400 
  456000   0.53098657   -7.4354042    87.354573  0.015963921  0.015341991         1327 
  457000   0.53858806   -7.4285525    87.387996  0.015935083  0.015295741         1374 
  458000   0.53314892   -7.4474172    87.403051   0.01590303  0.015249676         1443 
  459000   0.53188793   -7.4389746    87.332158  0.015855512  0.015203694         1421 
  460000   0.53696714   -7.4298979    87.335382  0.015821627  0.015157975         1380 
  461000    0.5353068    -7.450287    87.451304  0.015808262  0.015112333         1415 
  462000   0.52853583   -7.4191671    87.437879  0.015771623  0.015066814         1388 
  463000   0.52433649    -7.464961    87.401396  0.015730993   0.01502149         1425 
  464000    0.5275079   -7.4415088    87.422567  0.015700892  0.014976262         1521 
  465000   0.52270029   -7.4435904    87.433328  0.015669055  0.014931179         1508 
  466000   0.53066024     -7.43773    87.323614  0.015615811  0.014886173         1388 
  467000    0.5254841   -7.4526183    87.306849  0.015579381  0.014841253         1468 
  468000   0.52559344   -7.4791301    87.417844  0.015565855  0.014796552         1448 
  469000   0.51837798    -7.464577    87.163403  0.015487456  0.014751963         1495 
  470000   0.51934582   -7.4678617     87.34229  0.015486222  0.014707581         1473 
  471000   0.51698439   -7.4614324    87.096952  0.015409935  0.014663289         1534 
  472000   0.50908919      -7.4669    87.323735  0.015417326  0.014619043         1498 
  473000   0.51720243   -7.4786857     87.27574  0.015376275  0.014575058         1425 
  474000   0.51381821   -7.4875487     87.40358  0.015366311  0.014531068         1531 
  475000   0.50756519    -7.476994     87.36916  0.015327923  0.014487355         1476 
  476000   0.50148007    -7.473678    87.297855  0.015283238  0.014443729         1544 
  477000   0.50110504   -7.4753403    87.181471  0.015230865  0.014400297         1553 
  478000   0.49786346   -7.4900862    87.111395  0.015186784  0.014356922         1604 
  479000   0.51161714   -7.4822403    87.252146  0.015179566  0.014313661         1558 
  480000   0.49381864   -7.5052583    87.258903  0.015149115  0.014270604         1551 
  481000   0.50314907     -7.49696    87.274016  0.015120238  0.014227614         1504 
  482000   0.50039501   -7.5017533    87.171458  0.015071137  0.014184696         1558 
  483000   0.49434846   -7.4897077    87.035882  0.015016543  0.014141984         1551 
  484000   0.50024179   -7.5142408     87.08079  0.014993249  0.014099399         1577 
  485000   0.48516502   -7.4930067    87.118961  0.014968894  0.014057019         1547 
  486000   0.49980012   -7.5081556    87.082358  0.014931817  0.014014764         1539 
  487000   0.49660139   -7.4919053     87.15008  0.014912745   0.01397264         1639 
  488000    0.4987728   -7.5045485    87.024693  0.014860774  0.013930635         1551 
  489000   0.48659975   -7.5162915    86.949526  0.014817574   0.01388876         1580 
  490000   0.47437266   -7.5301157    87.098841  0.014812728  0.013847082         1538 
  491000    0.4827922   -7.5232153    87.085395  0.014780277  0.013805578         1560 
  492000     0.486373   -7.5312629    87.089713  0.014750968  0.013764118         1584 
  493000   0.47519556   -7.5317321    87.155834  0.014732223    0.0137229         1600 
  494000   0.46733216   -7.5240154    87.055604  0.014685493  0.013681788         1561 
  495000   0.46334108   -7.5486099    87.162732  0.014673861  0.013640836         1609 
  496000   0.47870329   -7.5435882    87.024512  0.014621054  0.013600015         1551 
  497000   0.47632905   -7.5352873    87.016738  0.014590332  0.013559298         1615 
  498000   0.46502598   -7.5069983    86.935335  0.014547412  0.013518742         1601 
  499000   0.47588066   -7.5322132    86.949159  0.014520568  0.013478309         1603 
  500000   0.46281484   -7.5461752    86.981934  0.014496989  0.013438001         1558 
  501000   0.47679111   -7.5405414    86.956316  0.014463792  0.013397821         1626 
  502000   0.47607574   -7.5321346    86.943489   0.01443285   0.01335783         1546 
  503000   0.45981011   -7.5524569    87.023041  0.014417336  0.013317936         1611 
  504000   0.47283487   -7.5638639    87.034826  0.014390679  0.013278201         1706 
  505000   0.45562368   -7.5762444     87.00954   0.01435801   0.01323858         1625 
  506000   0.46702856   -7.5541949    86.846142  0.014302724  0.013199121         1632 
  507000   0.45761404   -7.5479032    87.007177  0.014300982  0.013159722         1625 
  508000   0.45367059   -7.5537487    87.025209  0.014275789  0.013120543         1580 
  509000   0.46466633   -7.5695512    86.877132  0.014223499  0.013081465         1620 
  510000   0.45680173   -7.5617205    86.907251  0.014200531  0.013042516         1628 
  511000   0.45791192   -7.5593993      87.0054  0.014188748   0.01300368         1599 
  512000   0.45391709   -7.5601109    86.860704  0.014137484  0.012965022         1584 
Loop time of 1060.66 on 48 procs for 500000 steps with 4000 atoms

Performance: 81458.348 tau/day, 471.402 timesteps/s
99.4% CPU use with 48 MPI tasks x no OpenMP threads

MPI task timing breakdown:
Section |  min time  |  avg time  |  max time  |%varavg| %total
---------------------------------------------------------------
Pair    | 65.9       | 70.072     | 76.942     |  30.0 |  6.61
Neigh   | 6.6629     | 6.804      | 6.9502     |   2.4 |  0.64
Comm    | 56.069     | 61.884     | 67.292     |  33.5 |  5.83
Output  | 0.89803    | 0.8986     | 0.9081     |   0.1 |  0.08
Modify  | 904.88     | 909.01     | 913.35     |   7.1 | 85.70
Other   |            | 11.99      |            |       |  1.13

Nlocal:        83.3333 ave          89 max          76 min
Histogram: 1 1 3 6 9 4 13 5 2 4
Nghost:        1766.54 ave        1788 max        1751 min
Histogram: 1 6 10 5 9 9 4 2 1 1
Neighs:        10706.9 ave       11469 max        9815 min
Histogram: 2 2 3 9 4 7 10 4 4 3
FullNghs:      21414.5 ave       23102 max       19616 min
Histogram: 2 1 5 8 5 10 8 4 1 4

Total # of neighbors = 1027895
Ave neighs/atom = 256.97375
Neighbor list builds = 26987
Dangerous builds = 0

#clear
#
#next RN
#
#jump SELF
Total wall time: 0:17:43
