
units lj                  # Use reduced LJ style units
atom_style atomic         # Uncharged point particles
atom_modify map hash      # Needed for indexing of clusters etc
                          # Used to be able to find where atoms are in relation to each other.

lattice fcc 1.0 spacing 1 1 1
Lattice spacing in x,y,z = 1.5874011 1.5874011 1.5874011
region box block 0 10 0 10 0 10 units lattice
create_box 2 box
Created orthogonal box = (0.0000000 0.0000000 0.0000000) to (15.874011 15.874011 15.874011)
  3 by 4 by 4 MPI processor grid
create_atoms 1 box
Created 4000 atoms
  using lattice units in orthogonal box = (0.0000000 0.0000000 0.0000000) to (15.874011 15.874011 15.874011)
  create_atoms CPU = 0.002 seconds
set type 1 type/fraction 2 0.84 78393
Setting atom values ...
  3354 settings made for type/fraction
mass 1 1.0
mass 2 1.0
pair_style lj/cut  3.5
pair_modify tail  yes
pair_coeff 1  1  1.0  1.0   # Intearaction between 1 and 1 set with epsilon = 1 and sigma = 1
pair_coeff 1  2  1.5  0.8
pair_coeff 2  2  0.5  0.88

write_data data.0
System init for write_data ...
Neighbor list info ...
  update every 1 steps, delay 10 steps, check yes
  max neighbors/atom: 2000, page size: 100000
  master list distance cutoff = 3.8
  ghost atom cutoff = 3.8
  binsize = 1.9, bins = 9 9 9
  1 neighbor lists, perpetual/occasional/extra = 1 0 0
  (1) pair lj/cut, perpetual
      attributes: half, newton on
      pair build: half/bin/atomonly/newton
      stencil: half/bin/3d
      bin: standard
WARNING: Not all mixed pair coeffs generated from mixing. Use write_data with 'pair ij' option to store all pair coeffs. (../write_data.cpp:312)


#############################
#   M E L T   S Y S T E M   #
#############################

velocity all create 2.4 8172548 mom yes dist gaussian # Assign velocities
                                                    # Temperature 2.4, random number seed, zero linear momentum
                                                                                # Gaussian distribution

timestep 0.002   # simulation timestep
thermo 1000       # output thermodynamic data every 1000 steps bf 100

# Define a fix  in this case with index 1 applied to all
# particles in the simulation. This fix is for simulations
# in the anisotropic NPT ensemble. Note that we use the MTK
# correction.
fix 1 all npt temp 2.4 2.4 0.1 iso 5.68 5.68 0.5 mtk yes tchain 5 pchain 5 # Use NPT ensemble
                                                                         # Set temperature and pressure and damping
                                                                         # Numbers of thermostats in chain and in barostat
run 10000          # run for 10000 steps
Per MPI rank memory allocation (min/avg/max) = 3.642 | 3.644 | 3.648 Mbytes
Step Temp E_pair E_mol TotEng Press Volume 
       0          2.4   -3.4880302            0   0.11106983   -3.0192302         4000 
    1000    2.4017966   -2.7198625            0   0.88193165    5.6680397      3869.92 
    2000    2.4117055   -2.6922549            0   0.92439907    5.5963619    3917.8813 
    3000    2.4271845   -2.7516772            0   0.88818935    6.0166749     3809.182 
    4000    2.3813638    -2.700747            0   0.87040577    5.5896588     3903.966 
    5000    2.4121978   -2.7073253            0   0.91006682    5.4492271    3901.9298 
    6000    2.4159397   -2.7510861            0   0.87191756    5.7012571    3843.6256 
    7000    2.3800714   -2.7172199            0   0.85199475    5.6108909    3880.4158 
    8000    2.3966059   -2.7380403            0   0.85596976    5.7013978    3836.1579 
    9000    2.3917889   -2.7152681            0   0.87151842    5.6032288     3893.444 
   10000      2.40141   -2.7308739            0    0.8703405    5.6677638    3858.4825 
Loop time of 2.53424 on 48 procs for 10000 steps with 4000 atoms

Performance: 681861.184 tau/day, 3945.956 timesteps/s
99.6% CPU use with 48 MPI tasks x no OpenMP threads

MPI task timing breakdown:
Section |  min time  |  avg time  |  max time  |%varavg| %total
---------------------------------------------------------------
Pair    | 1.1325     | 1.187      | 1.321      |   3.0 | 46.84
Neigh   | 0.21059    | 0.21763    | 0.23617    |   0.9 |  8.59
Comm    | 0.76174    | 0.8652     | 0.96498    |   4.6 | 34.14
Output  | 0.00024631 | 0.00025057 | 0.00031962 |   0.0 |  0.01
Modify  | 0.19993    | 0.24908    | 0.29177    |   5.2 |  9.83
Other   |            | 0.01504    |            |       |  0.59

Nlocal:        83.3333 ave          92 max          75 min
Histogram: 2 3 5 5 9 12 4 3 4 1
Nghost:        1682.21 ave        1718 max        1651 min
Histogram: 1 3 6 4 11 16 5 0 1 1
Neighs:        9885.00 ave       10994 max        8707 min
Histogram: 3 3 5 3 9 7 4 8 3 3

Total # of neighbors = 474480
Ave neighs/atom = 118.62000
Neighbor list builds = 909
Dangerous builds = 232

# Equilibrate just above the melting temperature to avoid step fn in T

fix 1 all npt temp 1.25 1.25 0.1 iso 5.68 5.68 0.5 mtk yes tchain 5 pchain 5
run 2000
Per MPI rank memory allocation (min/avg/max) = 3.643 | 3.645 | 3.649 Mbytes
Step Temp E_pair E_mol TotEng Press Volume 
   10000      2.40141   -2.7308739            0    0.8703405    5.6677638    3858.4825 
   11000    1.2415279   -4.0319214            0    -2.170095    5.5634818    2991.7375 
   12000    1.2655954   -4.0316413            0   -2.1337228    5.7324119    2984.1473 
Loop time of 0.617074 on 48 procs for 2000 steps with 4000 atoms

Performance: 560062.455 tau/day, 3241.102 timesteps/s
99.6% CPU use with 48 MPI tasks x no OpenMP threads

MPI task timing breakdown:
Section |  min time  |  avg time  |  max time  |%varavg| %total
---------------------------------------------------------------
Pair    | 0.26864    | 0.30107    | 0.32051    |   2.3 | 48.79
Neigh   | 0.038702   | 0.042001   | 0.044407   |   0.6 |  6.81
Comm    | 0.19942    | 0.22428    | 0.25953    |   2.9 | 36.35
Output  | 5.0773e-05 | 5.2158e-05 | 6.9643e-05 |   0.0 |  0.01
Modify  | 0.039791   | 0.044699   | 0.049509   |   1.4 |  7.24
Other   |            | 0.004975   |            |       |  0.81

Nlocal:        83.3333 ave          93 max          77 min
Histogram: 2 6 9 9 9 7 2 0 2 2
Nghost:        2000.98 ave        2021 max        1977 min
Histogram: 2 2 4 6 4 9 6 8 4 3
Neighs:        12778.5 ave       15029 max       11373 min
Histogram: 4 2 10 11 10 5 5 0 0 1

Total # of neighbors = 613366
Ave neighs/atom = 153.34150
Neighbor list builds = 143
Dangerous builds = 12

#############################
# L I N E A R  Q U E N C H  #
#############################

# Define solid atoms. This closely follows ten Wolde  Ruiz-Montero and Frenkel  Faraday Discuss  1996  104  93-110
# Compute components of the per-atom q6 vector
compute q6 all orientorder/atom degrees 1 6 components 6 nnn NULL cutoff 1.3 # compute the Q6 parameter.
                                                                             # Use all neighbours within 1.3 unit cell.

# get number of connections
compute coord_number all coord/atom orientorder q6 0.5

# An atom is solid if it has 8 or more connections (of a possible 14)
variable is_solid atom c_coord_number>=8
group solid dynamic all var is_solid    # Must be dynamic to update
dynamic group solid defined

# do clustering
compute cluster solid cluster/atom 1.3 # Create a cluster where all atoms within are solid and max 1.3 units from another member

# define chunks one chunk per cluster
compute clus_chunks solid chunk/atom c_cluster nchunk every compress yes  # Says which atoms are in which chunk

# count the size of each chunk
compute size_chunks solid property/chunk clus_chunks count


# Find the maximum entry in the vector of chunk sizes
variable max_n equal max(c_size_chunks)


# Thermo style which includes this variable
# thermo_style custom step temp pe vol v_max_n

thermo ${N}  # Print the thermo information every 100 steps
thermo 1000  

# Reset the npt fix at a lower temperature (below freezing)
fix 1  all npt temp  ${temp} ${temp}  0.1  iso  5.68  5.68  0.5  mtk yes tchain  5  pchain  5
fix 1  all npt temp  0.45 ${temp}  0.1  iso  5.68  5.68  0.5  mtk yes tchain  5  pchain  5
fix 1  all npt temp  0.45 0.45  0.1  iso  5.68  5.68  0.5  mtk yes tchain  5  pchain  5

dump dmp2 all dcd ${N} traj.dcd
dump dmp2 all dcd 1000 traj.dcd


compute msd all msd com yes
variable twopoint equal c_msd[4]/6/(step*dt+1.0e-6)
fix 9 all vector 10 c_msd[4]
variable fit equal slope(f_9)/6/(10*dt)
thermo_style custom step temp pe c_msd[4] v_twopoint v_fit v_max_n

fix 1 all npt temp 1.25 ${temp} 0.1 iso 5.68 5.68 0.5 mtk yes tchain 5 pchain 5
fix 1 all npt temp 1.25 0.45 0.1 iso 5.68 5.68 0.5 mtk yes tchain 5 pchain 5
run 500000 # 5000000  # Run for this many steps
Neighbor list info ...
  update every 1 steps, delay 10 steps, check yes
  max neighbors/atom: 2000, page size: 100000
  master list distance cutoff = 3.8
  ghost atom cutoff = 3.8
  binsize = 1.9, bins = 8 8 8
  4 neighbor lists, perpetual/occasional/extra = 1 3 0
  (1) pair lj/cut, perpetual
      attributes: half, newton on
      pair build: half/bin/atomonly/newton
      stencil: half/bin/3d
      bin: standard
  (2) compute orientorder/atom, occasional
      attributes: full, newton on
      pair build: full/bin/atomonly
      stencil: full/bin/3d
      bin: standard
  (3) compute coord/atom, occasional
      attributes: full, newton on
      pair build: full/bin/atomonly
      stencil: full/bin/3d
      bin: standard
  (4) compute cluster/atom, occasional
      attributes: full, newton on
      pair build: full/bin/atomonly
      stencil: full/bin/3d
      bin: standard
Per MPI rank memory allocation (min/avg/max) = 9.829 | 9.837 | 9.843 Mbytes
Step Temp PotEng c_msd[4] v_twopoint v_fit v_max_n 
   12000    1.2655954   -4.0316413 7.369933e-31 5.1180088e-33 8.3333333e+20            1 
   13000    1.2622004   -4.0573257   0.86993218 0.0055764881  0.073451419            4 
   14000    1.2405119   -4.0270722    1.7310504  0.010303871  0.072529976            1 
   15000    1.2335582   -4.0335018    2.5775315  0.014319619   0.07179969            2 
   16000    1.2211623   -4.0370774    3.5592848  0.018537941  0.073406302            2 
   17000    1.2860874    -3.999793    4.5044157  0.022080469  0.074882424            2 
   18000    1.2594156   -4.0672808    5.4373531   0.02517293  0.075635869            4 
   19000    1.2302974    -4.054281    6.3571721  0.027882333  0.076156109            1 
   20000    1.2337529   -4.0741077    7.1876313  0.029948463  0.076050141            2 
   21000    1.2283539   -4.0697231    7.9805297  0.031668768  0.075445689            1 
   22000    1.1947607   -4.0491222     8.885183  0.033655996  0.074992384            3 
   23000    1.2470652   -4.0470867    9.9481136  0.036043889  0.074986963            2 
   24000    1.2114174   -4.0999539    10.770236  0.037396653  0.075088265            3 
   25000    1.2479616   -4.0606052    11.774633  0.039248777  0.075250662            1 
   26000    1.2345923   -4.0513124    12.696881  0.040695132  0.075477308            1 
   27000    1.2385333   -4.0632312    13.637033  0.042089607   0.07560034            1 
   28000    1.2325615   -4.0746193    14.457181  0.043027325  0.075709524            4 
   29000    1.2276254   -4.0628543    15.315604  0.044010355   0.07564959            3 
   30000    1.2424899   -4.0911694    16.201164  0.045003232  0.075535856            3 
   31000    1.2087345   -4.0448206    17.061798  0.045865047  0.075457844            2 
   32000    1.2349442   -4.0667964    17.831695  0.046436704  0.075302427            2 
   33000    1.2107017   -4.1152261    18.785106  0.047437136  0.075204966            2 
   34000    1.2255019   -4.0907207    19.523522  0.047851769   0.07495966            1 
   35000    1.2328597   -4.0742946    20.598276  0.049043513  0.074780414            4 
   36000    1.2159221   -4.1376046    21.524892  0.049826138  0.074802207            2 
   37000    1.2157131   -4.0980938    22.502755  0.050681879  0.074906592            3 
   38000    1.2109712   -4.1162027    23.076557  0.050606484  0.074832829            2 
   39000    1.2141221   -4.0771543    23.811934  0.050880201  0.074611702            2 
   40000    1.2241844   -4.1121183    24.705782  0.051470379  0.074398249            2 
   41000    1.1872921   -4.1220345    25.472363  0.051773094   0.07416075            3 
   42000     1.221727    -4.114481     26.33653  0.052255019  0.073921876            2 
   43000    1.2022117   -4.0826825    27.070611  0.052462424  0.073695563            3 
   44000    1.1928782   -4.1195115    27.910678  0.052861132  0.073455441            1 
   45000    1.1883766   -4.1600637     28.69588  0.053140518  0.073234225            1 
   46000    1.2143804   -4.1173437    29.766179  0.053924236  0.073087294            3 
   47000    1.2077323   -4.1245455    30.469501  0.054023937  0.072948151            4 
   48000    1.1624266   -4.1255024    31.257485  0.054266466   0.07281372            3 
   49000    1.2031208   -4.1132313    32.068187  0.054537732  0.072650026            3 
   50000    1.2041565   -4.1135873    32.842908  0.054738179  0.072452353            2 
   51000    1.2100185   -4.0921366    33.583761  0.054875426  0.072273954            3 
   52000    1.1947604    -4.104647    34.462586  0.055228503  0.072134928            1 
   53000    1.1980803    -4.145092    35.135421  0.055244372  0.071974024            3 
   54000    1.1498567   -4.1384506    36.118056  0.055737741  0.071822325            1 
   55000    1.1803923   -4.1012967    37.133727  0.056263222   0.07170481            2 
   56000    1.1740774   -4.1373559    37.893286  0.056388818  0.071580419            2 
   57000    1.1761166   -4.1419383    38.642373  0.056494697  0.071441986            3 
   58000     1.164052   -4.1711181    39.295721  0.056459369  0.071317826            2 
   59000    1.1914332   -4.1485754    39.933911  0.056403829  0.071181244            2 
   60000    1.1829928   -4.1336362     40.58124  0.056362833  0.070991973            2 
   61000     1.164434   -4.1349502    41.547464  0.056758831  0.070816178            2 
   62000    1.1793568   -4.1666832    42.275189   0.05682149  0.070671195            2 
   63000    1.1720766   -4.1721558    43.142945  0.057067388  0.070514106            1 
   64000    1.1386936   -4.1516959    43.822549   0.05706061  0.070385984            3 
   65000    1.1456387   -4.1767704    44.713081  0.057324462  0.070260346            2 
   66000    1.1538274   -4.1512933    45.415237   0.05734247  0.070100257            3 
   67000    1.1596375   -4.1390259    46.125071   0.05736949  0.069934847            3 
   68000    1.1696472   -4.1909121    46.710033  0.057242687  0.069782253            3 
   69000    1.1416929   -4.1802522    47.511973  0.057381609  0.069645369            2 
   70000    1.1454011   -4.1779167    47.998643  0.057141242  0.069473441            2 
   71000    1.1457224   -4.2085663    48.661729  0.057114705  0.069290807            1 
   72000    1.1230196   -4.1569465    49.479126  0.057267507  0.069118614            2 
   73000     1.152547   -4.2108206    50.349111  0.057476154  0.068959068            2 
   74000    1.1585961   -4.2169692    51.020261  0.057455249  0.068812569            1 
   75000    1.1567044   -4.1897459    51.609571  0.057343967  0.068661961            5 
   76000    1.1207915   -4.1863416    52.558725  0.057630181  0.068512797            3 
   77000    1.1430736   -4.2082836    53.413743  0.057807081   0.06839479            6 
   78000    1.1260417   -4.1979971    54.595491  0.058328516  0.068287934            4 
   79000    1.1253487   -4.2350522    55.117349  0.058140663    0.0681885            1 
   80000    1.1640599     -4.19294    55.689002  0.058009376   0.06809043            2 
   81000    1.1429697   -4.1770762    56.776387  0.058411921  0.067997699            2 
   82000    1.1256178   -4.2196483    57.437183   0.05837112  0.067913383            2 
   83000    1.1411359   -4.1858704    58.232566  0.058466431  0.067827381            4 
   84000    1.1213568   -4.2203613    59.307793  0.058837095  0.067747825            2 
   85000    1.1604147   -4.2461547    59.786726  0.058614437  0.067670696            4 
   86000    1.1362064   -4.2124599    60.543809  0.058666481  0.067599047            2 
   87000    1.1087084     -4.20118    61.237161  0.058656284  0.067520475            1 
   88000    1.1279088   -4.2182307    61.483826   0.05822332  0.067415745            1 
   89000    1.1270261   -4.2236814    62.454285  0.058477795  0.067311728            1 
   90000    1.1312391   -4.2087573    62.977459  0.058312462  0.067207399            2 
   91000    1.1119906   -4.2224524    63.598405  0.058240297  0.067090704            2 
   92000    1.1439256   -4.2009715    64.049167   0.05801555  0.066959389            2 
   93000    1.1232406   -4.2491959    64.679775  0.057956788  0.066821087            2 
   94000    1.1494673   -4.2174786    65.247362  0.057843406  0.066679689            4 
   95000    1.1398061   -4.2635269    65.713017  0.057642997  0.066527061            2 
   96000    1.1136478   -4.2362497    66.946518  0.058113296  0.066374179            3 
   97000    1.0926455   -4.2305904     67.44953  0.057946331  0.066241545            3 
   98000    1.1215095   -4.2263925    68.265164  0.058048608  0.066111646            2 
   99000    1.0962112   -4.2488242    68.859179  0.057962272  0.065981496            3 
  100000    1.1046973   -4.2854494    69.461217  0.057884347  0.065857917            6 
  101000    1.0899594   -4.2754132    70.235097  0.057949749  0.065730224            2 
  102000     1.103348   -4.2698886    70.847967  0.057882326  0.065609352            2 
  103000    1.0764552   -4.2440753     71.60691  0.057934393  0.065493797            5 
  104000    1.1050976     -4.29728    72.434254  0.058040267  0.065375019            2 
  105000    1.1122861   -4.2760497    73.029846  0.057960195  0.065263311            3 
  106000    1.0870464   -4.2558906    73.676954  0.057922134  0.065152362            3 
  107000    1.0951099   -4.2761934    74.595455  0.058096148  0.065047497            2 
  108000    1.1066604   -4.2843011    74.790257  0.057708532  0.064942868            3 
  109000    1.1179862   -4.2783236    75.776778  0.057933316    0.0648307            1 
  110000    1.1093239   -4.2947155     76.52561  0.057973946  0.064718231            4 
  111000    1.0774575   -4.2614369    76.957263  0.057775722  0.064605925            3 
  112000     1.084182   -4.2979803    77.730951  0.057835529  0.064502718            4 
  113000    1.0775721   -4.3134884    78.027938  0.057542727  0.064397701            2 
  114000    1.0952953   -4.2713304    79.164408  0.057868719  0.064297859            2 
  115000    1.0838638   -4.2941172    79.258254  0.057433517  0.064183896            5 
  116000     1.078928   -4.3099654    79.759823  0.057298723  0.064064628            3 
  117000    1.0573005   -4.3024154    80.578872  0.057392359  0.063941818            3 
  118000    1.0646083   -4.3259455    81.244308  0.057375923  0.063817782            2 
  119000    1.0547963   -4.3175732    81.670903  0.057192509  0.063695933            2 
  120000    1.0505173    -4.268891    82.709637  0.057437248   0.06358417            2 
  121000    1.0458818   -4.3353403    82.900197  0.057093799  0.063470344            4 
  122000    1.0802042   -4.3391721    83.208192  0.056836196  0.063347286            3 
  123000     1.063202   -4.2943139    84.067249  0.056956131  0.063213145            1 
  124000    1.0680802   -4.3264948    84.723765  0.056938014  0.063089053            3 
  125000    1.0813973   -4.3436932    85.398061   0.05693204  0.062969814            3 
  126000    1.0522859   -4.3001892    86.000781  0.056878824  0.062850224            2 
  127000    1.0773545    -4.337149    86.471676  0.056739945   0.06272969            2 
  128000    1.0542613   -4.3136816    87.223029  0.056785826  0.062603768            2 
  129000    1.0784175   -4.3230454     87.74705  0.056684141  0.062480954            3 
  130000      1.04332   -4.3229245    88.266983  0.056581399  0.062353223            3 
  131000    1.0517272   -4.3315501    88.551955   0.05633076  0.062226697            3 
  132000    1.0566099   -4.3315829    89.027528  0.056204247  0.062096013            1 
  133000    1.0587175   -4.3260628    89.357037  0.055988118  0.061958999            4 
  134000    1.0537124    -4.369538    90.008177  0.055975234  0.061825013            3 
  135000    1.0673184    -4.370196    90.429202  0.055820495  0.061686783            3 
  136000    1.0455902   -4.3528023    91.106533  0.055825081    0.0615438            2 
  137000    1.0485519   -4.3554947    91.717575  0.055789279  0.061402698            3 
  138000    1.0434769    -4.373668    91.435325  0.055214568  0.061258892            2 
  139000    1.0367173   -4.3613564    92.649946  0.055545531  0.061115227            2 
  140000     1.046215   -4.3777419     93.63283  0.055733827   0.06098253            2 
  141000    1.0607439   -4.3362762    94.050236  0.055585246  0.060852432            2 
  142000    1.0537526    -4.372821    94.977728  0.055738103  0.060729447            3 
  143000    1.0184903   -4.3839907    95.426609  0.055609912  0.060605054            2 
  144000    1.0471491    -4.383556    95.598956   0.05532347  0.060482495            2 
  145000    1.0442647   -4.3682145    96.716067  0.055583947  0.060362151            3 
  146000    1.0425894   -4.3824083    96.936837  0.055329245  0.060242332            4 
  147000    1.0380454   -4.3688136    97.455849   0.05524708  0.060122887            4 
  148000    1.0268927    -4.408879    98.409629  0.055410827  0.060006892            5 
  149000    1.0349236   -4.3876385    98.327391  0.054992948   0.05989139            2 
  150000      1.02492   -4.3840243    98.774188  0.054874549  0.059771922            4 
  151000    1.0197043   -4.3832433    99.727653  0.055037336  0.059649058            2 
  152000    1.0107821   -4.3837123    100.59249  0.055149392  0.059532569            5 
  153000    1.0289409   -4.3927266    101.15848  0.055097211   0.05941908            2 
  154000    1.0456701   -4.3876038    101.76121   0.05506559  0.059308736            3 
  155000    1.0110123   -4.3962799    102.19337  0.054942672  0.059198278            2 
  156000    1.0164096   -4.3956877    102.40197  0.054701906  0.059081718            3 
  157000    1.0188263    -4.403658    102.56412  0.054439553  0.058959463            4 
  158000     1.012297    -4.400282    103.46689  0.054571142  0.058839957            2 
  159000   0.99446867   -4.4304277    103.77835   0.05439117   0.05872537            3 
  160000    1.0069186   -4.4327448    104.34057  0.054344045  0.058606507            2 
  161000    1.0087597   -4.3917225    105.05183  0.054374652  0.058493118            5 
  162000     1.008272   -4.4354666    106.24986  0.054655275  0.058384139            2 
  163000    1.0115836   -4.4410442    106.12805  0.054257694  0.058279703            2 
  164000    1.0036504    -4.401244    107.14807   0.05444516  0.058173426            5 
  165000    1.0046381   -4.4276034    106.98086  0.054030739  0.058063353            2 
  166000   0.99759347   -4.4259315    107.66416  0.054048274  0.057960631            5 
  167000    1.0005551   -4.4457758    108.93279  0.054357677  0.057859232            2 
  168000    1.0050554   -4.4367842    108.85679  0.053996424    0.0577549            5 
  169000   0.99965346   -4.4478734    109.95757  0.054219708  0.057654272            3 
  170000   0.98008632   -4.4490104    110.05693  0.053949475  0.057552376            5 
  171000   0.99645835   -4.4642531    110.89371   0.05404177  0.057451658            5 
  172000    1.0179731   -4.4260641    111.23328  0.053892092  0.057349781            3 
  173000   0.99680113   -4.4688187     111.4388  0.053679577  0.057247687            2 
  174000   0.98486663   -4.4704734    112.00808  0.053643715   0.05714535            5 
  175000   0.98916125   -4.4480999    112.62636    0.0536316  0.057040927            3 
  176000   0.97568062   -4.4413023    112.81799  0.053417608   0.05693717            2 
  177000   0.99853036   -4.5011531    113.01815  0.053210054  0.056831233            4 
  178000   0.99721312   -4.4952244    113.56502  0.053167144  0.056723907            3 
  179000    0.9736425   -4.4441467     114.1753  0.053154236  0.056615861            3 
  180000   0.98957472   -4.4627792    114.57322  0.053043155  0.056507083            3 
  181000     1.005462   -4.4841241    115.06188  0.052975082  0.056401817            3 
  182000   0.96638879   -4.5035116     115.4598  0.052866208  0.056297809            4 
  183000   0.96578504   -4.4685326    116.21215  0.052919921  0.056192349            4 
  184000    0.9735708   -4.4688555    116.99922  0.052988779  0.056091866            3 
  185000   0.94660168   -4.5245774    116.89744  0.052656505  0.055993534            5 
  186000   0.97818775   -4.4784497    117.67133  0.052720128  0.055891703            2 
  187000   0.96544683   -4.4940646    117.86629  0.052525086  0.055788811            7 
  188000   0.95763189    -4.533482    118.48238  0.052518785  0.055682995            5 
  189000   0.98733466   -4.5102422    118.83899  0.052398145  0.055578483            3 
  190000   0.96585162   -4.4841978    119.63307  0.052470643  0.055475689            4 
  191000   0.95403736   -4.4970874    120.35763  0.052512057  0.055377092            6 
  192000   0.97477982   -4.5074981    120.52099  0.052309459   0.05527856            5 
  193000   0.95590933   -4.5183761      120.879  0.052193006  0.055180027            3 
  194000   0.94933303   -4.5466586    121.45655  0.052172056  0.055079274            2 
  195000   0.94319667   -4.5204072    122.58898  0.052388455  0.054985101            2 
  196000    0.9850483    -4.462886    123.22549  0.052391792  0.054895764            3 
  197000   0.95843727   -4.5213708    123.42229   0.05220909  0.054806499            3 
  198000   0.95446581   -4.5513194    123.74313  0.052080441  0.054716284            2 
  199000   0.94097081   -4.5696503    123.78818  0.051837596  0.054626094            6 
  200000   0.95479813   -4.5349665    124.91556  0.052048148  0.054536336            1 
  201000   0.94982017   -4.5296717     125.2749  0.051938183  0.054444874            6 
  202000   0.93593872   -4.5562677    125.73579  0.051871202  0.054353226            6 
  203000   0.95197961   -4.5544751      125.827  0.051653119  0.054260246            1 
  204000   0.95374501   -4.5051575    125.62711  0.051318265  0.054164676            3 
  205000   0.94016641   -4.5426294    126.85491  0.051567036  0.054064952            2 
  206000   0.93214807   -4.5278265    127.11333  0.051421251  0.053968982            4 
  207000   0.93814077   -4.5354775    127.50422    0.0513302  0.053873059            4 
  208000     0.932577   -4.5669245    127.40658  0.051044303  0.053775258            1 
  209000   0.95129192   -4.5364108    128.29422  0.051153996  0.053676008           12 
  210000   0.93099182   -4.5813449    128.29754  0.050911721  0.053578829            4 
  211000   0.92859368   -4.5327634    129.34499  0.051084121  0.053483788            2 
  212000   0.91612049   -4.5740009    128.95624  0.050690345  0.053387108            2 
  213000   0.93572653   -4.5812134    129.28965  0.050582804  0.053291502            4 
  214000   0.93005524   -4.5842568     129.6687  0.050494043  0.053191089            4 
  215000   0.92151701   -4.5537284     130.2667   0.05049097  0.053093455            3 
  216000   0.92862756   -4.5881387    130.51168   0.05035173  0.052992857            4 
  217000   0.92544625   -4.6259086    130.99115   0.05030382  0.052893142            4 
  218000   0.93014189   -4.5959778    131.25315  0.050173223  0.052793644            3 
  219000   0.93213841    -4.558835    132.21655  0.050310713  0.052696968            1 
  220000   0.92750964   -4.6067968    132.09697  0.050036731  0.052599843           11 
  221000   0.90388525   -4.5697125    133.16663   0.05021366  0.052504259            3 
  222000   0.90685688   -4.5631839    133.43962  0.050089949    0.0524085            4 
  223000   0.91345612   -4.6028606    132.84828   0.04964435  0.052308801            4 
  224000   0.90628212   -4.5788248    133.90443  0.049815635   0.05220986            4 
  225000   0.91228576    -4.607139    134.40491  0.049779596   0.05211253            3 
  226000   0.91888661    -4.604005    134.94964  0.049760193  0.052015604            3 
  227000   0.89148579   -4.6150878    135.59686  0.049778581  0.051922237            4 
  228000   0.91136281   -4.5963238    135.98258  0.049701237  0.051826777            4 
  229000   0.90330625   -4.6183943    135.81314  0.049422542  0.051729581            1 
  230000   0.93092793    -4.606869    136.29463  0.049382111  0.051630443            5 
  231000   0.92227978    -4.614877    136.49475  0.049240529   0.05153336            3 
  232000   0.89665697   -4.6214858    136.99015  0.049206231  0.051435011            5 
  233000   0.88189908   -4.6079645    137.56304  0.049199942  0.051335992            3 
  234000   0.88149463   -4.6107083    137.87626  0.049101234  0.051234554            3 
  235000   0.90907646   -4.6212578     137.8055  0.048867198   0.05113513            2 
  236000   0.88778467   -4.6332637    138.05621  0.048748663  0.051035419            4 
  237000   0.89830424   -4.6242007    138.34457  0.048644362  0.050935667            2 
  238000   0.87624189   -4.6130478    138.84477  0.048615116   0.05083562            5 
  239000   0.88390291   -4.6125036    139.41162  0.048609353  0.050735526            2 
  240000    0.8985207   -4.6464616    139.52143  0.048444941  0.050635343            3 
  241000   0.88628717   -4.6527258    140.12154  0.048451432  0.050536131            7 
  242000   0.89610053   -4.6418804    140.58488  0.048410772   0.05043805            6 
  243000   0.88817221   -4.6619679    140.61728  0.048222662  0.050341279            3 
  244000   0.88391393   -4.6355193    141.02841   0.04816544  0.050245495            6 
  245000     0.883343   -4.6858157    141.71426   0.04820213  0.050151512            8 
  246000    0.8966906   -4.6429111    141.69449  0.047999488  0.050055544            3 
  247000   0.86372425   -4.6761017    141.67122  0.047797308  0.049958377            5 
  248000   0.87499976    -4.658105    142.84491  0.047998961  0.049860067            5 
  249000   0.86363967   -4.6459424    142.59865  0.047723778  0.049763616            6 
  250000   0.87459135   -4.7140792    143.11322  0.047704408  0.049667836            8 
  251000   0.86223511   -4.6831526    143.52161  0.047649936  0.049571879            5 
  252000   0.86854905   -4.6516043    143.81045  0.047556367  0.049476103            4 
  253000   0.86197919   -4.6662086    144.51126  0.047599228  0.049379022            2 
  254000   0.84915804    -4.691247    144.24159  0.047323358  0.049283445            6 
  255000    0.8470252   -4.6781277    144.75737   0.04730633  0.049186269            5 
  256000   0.85215011   -4.7070623    144.91125  0.047171632  0.049089986            2 
  257000   0.85537452   -4.7045705    146.07427  0.047365198  0.048996473            3 
  258000   0.86650255    -4.697846    146.29622    0.0472533  0.048904663            7 
  259000    0.8518769   -4.6965403    146.23192  0.047050168  0.048812305            3 
  260000   0.86629337   -4.7232033    146.46898  0.046945184  0.048721375            6 
  261000   0.85066977   -4.7290008    146.66638  0.046828345   0.04862949            2 
  262000   0.85214125    -4.714998    146.95739  0.046742173  0.048535803           11 
  263000   0.85737113   -4.7182499    147.62535  0.046776092  0.048440459            5 
  264000   0.84691454   -4.7291161    148.04926   0.04673272  0.048346154            2 
  265000   0.84766597   -4.7302827    148.01774  0.046546458  0.048253281           11 
  266000    0.8400883   -4.7339255    148.47484  0.046514675  0.048160313            6 
  267000   0.83013801   -4.7089663    148.71149  0.046414324  0.048066668            7 
  268000   0.84335868   -4.7412439    148.25627  0.046099587  0.047970662            5 
  269000   0.83678335   -4.7497219    148.76645   0.04608626  0.047873898            7 
  270000    0.8323705   -4.7462438    149.12621  0.046026609  0.047777919            7 
  271000   0.84987128   -4.7460603    149.54528  0.045985632  0.047681627           10 
  272000   0.82271243   -4.7593263    149.33918  0.045753425  0.047584247           13 
  273000   0.84082773   -4.7398596    149.79214  0.045724096  0.047487524            7 
  274000    0.8277277   -4.7523115    149.79459  0.045557965  0.047390733            9 
  275000   0.82672494   -4.7788291    150.31646  0.045550441  0.047291392            2 
  276000    0.8325644   -4.7616866    150.33957  0.045392381  0.047192791            5 
  277000   0.83002142   -4.7706291    150.47756  0.045270024  0.047095067            8 
  278000   0.83730242   -4.7689535    150.83433  0.045214128  0.046996458            7 
  279000   0.82935839   -4.7829306    151.54408  0.045264063   0.04689856            7 
  280000   0.81954697   -4.7739132    151.36558  0.045049279  0.046798766            4 
  281000   0.83190598   -4.7823568    151.57544  0.044951197  0.046700514            4 
  282000    0.8191077   -4.7664083    152.48055  0.045059264   0.04660187            4 
  283000   0.82231078    -4.820179    151.95625  0.044745658  0.046503918            6 
  284000   0.82627457   -4.7974634    151.50885  0.044456821  0.046402963            4 
  285000   0.81376695   -4.7792649    152.40054  0.044561561  0.046302948           10 
  286000   0.82103303   -4.8110632    152.41402   0.04440968  0.046202738            3 
  287000   0.80018743   -4.8039602     153.4076  0.044543438  0.046102409            6 
  288000    0.8211922   -4.8028148    153.01726  0.044275826   0.04600372            6 
  289000   0.81434313   -4.7549452    153.69299  0.044317472  0.045904857            7 
  290000   0.83001204   -4.8019049    154.23362  0.044320006  0.045807767            3 
  291000   0.80587375   -4.7889395    154.31327  0.044190513  0.045710579            9 
  292000   0.79841481   -4.8053033    153.84094  0.043904378    0.0456139            8 
  293000   0.78812868   -4.8189252    154.31965  0.043890685   0.04551554            6 
  294000   0.80080739   -4.8315519     154.2223  0.043713804  0.045416379            2 
  295000   0.78308516   -4.8379295    154.26793  0.043578512  0.045314274            3 
  296000   0.77718115    -4.829715    154.41836  0.043473636  0.045213121            6 
  297000   0.81037892   -4.8310766    154.98925  0.043487443  0.045113452            7 
  298000    0.7893037   -4.8265418    154.91806  0.043321604   0.04501272            7 
  299000   0.79995584   -4.8376882    155.34234  0.043294967  0.044910773            5 
  300000    0.7918952   -4.8537201    155.67301  0.043242502  0.044809838            7 
  301000   0.80221576   -4.8541009    154.90277  0.042885594  0.044708326            3 
  302000   0.79023495   -4.8345451    156.05745   0.04306221  0.044607181            9 
  303000   0.78480291   -4.8491972    156.46139  0.043031186  0.044507688            5 
  304000   0.77191262   -4.8344546    156.89466  0.043008403   0.04440862            5 
  305000   0.80724156   -4.8363616    156.79775  0.042840914  0.044309751            7 
  306000   0.79629146   -4.8580868    157.13558  0.042792913  0.044212014            6 
  307000   0.77822799   -4.8525653     157.8392  0.042844517  0.044115458            9 
  308000   0.77361884   -4.8478455    158.16966   0.04279482  0.044018568            3 
  309000   0.77504168    -4.836311     157.5167  0.042480232   0.04392136            7 
  310000   0.76830723   -4.8552673    158.18978  0.042524134  0.043823933            3 
  311000   0.76384703   -4.8611272    157.94914   0.04232292  0.043725285            9 
  312000   0.76764191   -4.8752625    157.91703  0.042178694  0.043627195            3 
  313000   0.77518192   -4.8559965    158.43014  0.042180548  0.043528677            5 
  314000   0.77694061   -4.8768529     158.2494  0.041998248  0.043430973            7 
  315000   0.75592625   -4.8891304    158.73872  0.041994371  0.043332542            5 
  316000   0.74690089   -4.8804582     158.6158  0.041829062  0.043233331           12 
  317000   0.75851363   -4.8924105    158.29306  0.041612267  0.043132559            8 
  318000   0.77350403   -4.8835689    158.65698  0.041576776  0.043032149            5 
  319000   0.74474021   -4.8852499    159.02277  0.041541998  0.042932738            5 
  320000   0.76278404   -4.9059425    159.01821  0.041410992  0.042832727           10 
  321000   0.74372835   -4.8876294    159.05666  0.041291966  0.042733047           10 
  322000   0.74703199   -4.9086439    159.66913   0.04132224  0.042634138            7 
  323000   0.76761288   -4.8869218    159.88671   0.04125044  0.042536202           15 
  324000   0.75837503   -4.9021123    160.02636  0.041159043  0.042437672            8 
  325000   0.72007883   -4.9016931    159.55675  0.040911988  0.042338824           10 
  326000   0.73091432    -4.936303    159.74042  0.040833441  0.042239361            3 
  327000   0.75538389   -4.9393922    159.92948  0.040756749  0.042139837           10 
  328000   0.73390362   -4.9011928    159.91877   0.04062977   0.04203964            5 
  329000   0.75244831    -4.936471    160.29624  0.040601885  0.041939937            6 
  330000   0.72713991   -4.9570776    160.46535  0.040521554   0.04184042            7 
  331000   0.73285274   -4.9330517    161.48648  0.040656214  0.041741821            4 
  332000   0.73242713   -4.9553444    160.53635  0.040295268  0.041643939            5 
  333000   0.72772824    -4.940466    161.24647   0.04035197  0.041546355           15 
  334000    0.7345626   -4.9367489    161.53465  0.040303055  0.041449359            6 
  335000   0.71262046    -4.972121    161.09175  0.040072576  0.041351721           13 
  336000   0.73038055   -4.9649915    161.98202  0.040174112  0.041254392            6 
  337000   0.73354448   -4.9599007    161.88096   0.04002991  0.041158415            5 
  338000   0.72993401   -4.9535262    162.36546  0.040030931   0.04106306            7 
  339000   0.73182841   -4.9429527    162.09854  0.039847233  0.040967859            7 
  340000   0.72585357   -4.9528609    162.86242   0.03991726  0.040873257            4 
  341000   0.71174481   -4.9436712    162.93178  0.039817151   0.04077888            6 
  342000   0.72410164   -4.9705981    163.07528  0.039735692  0.040684746            7 
  343000   0.71961324   -4.9592908    162.88231   0.03957296  0.040590083           15 
  344000   0.71188654   -4.9613224    163.33851  0.039568439  0.040495992            8 
  345000   0.72511989   -4.9615825    163.95316  0.039602213  0.040402063            6 
  346000   0.70121997   -4.9942871    164.09353  0.039521563  0.040308606           14 
  347000   0.72817349   -4.9802445    163.15352   0.03918192  0.040214216            8 
  348000   0.72704383   -5.0007316    163.02516  0.039038593  0.040119099            4 
  349000   0.71835053   -4.9637114     164.4447  0.039265688  0.040024839            6 
  350000   0.70860335   -4.9832499    163.95438  0.039036757  0.039931138            8 
  351000    0.7214916   -5.0049184    163.92426  0.038918391  0.039837427            5 
  352000    0.7234485   -4.9915771    164.03345  0.038833676  0.039744507            4 
  353000   0.69522456   -4.9925597    164.44674  0.038821233  0.039650582            5 
  354000   0.69799634   -5.0131178    164.17596  0.038647824  0.039555639           12 
  355000   0.68820586   -5.0195814    163.90221  0.038474696   0.03945967           14 
  356000   0.69958387   -5.0276809    164.21878  0.038440724  0.039363822           13 
  357000   0.69137315   -5.0164684    164.16965  0.038321579  0.039268557            7 
  358000   0.69963117   -5.0085716    164.28287  0.038240892  0.039173004            7 
  359000   0.69649033   -5.0056081    164.87958  0.038272882  0.039078176            4 
  360000   0.67582909   -5.0469772    164.77873  0.038143225  0.038984134            9 
  361000   0.70130492   -5.0414208     164.4407  0.037959533  0.038889734           22 
  362000   0.68419057    -5.031611    165.26758  0.038045022  0.038796296           13 
  363000   0.68734854   -5.0235109    165.63319  0.038024148  0.038703245            6 
  364000   0.67955157   -5.0392616    165.62368   0.03791751  0.038610465            6 
  365000   0.70058929   -5.0714408    165.70862  0.037833019  0.038518948           10 
  366000    0.6826273    -5.055411    165.18083  0.037609478  0.038426719            7 
  367000   0.67137787   -5.0713181    165.90168  0.037670682  0.038333906            7 
  368000   0.67434621   -5.0551183    165.80082  0.037545475  0.038241031           12 
  369000   0.67297544   -5.0440888    166.10721   0.03751292  0.038147957           15 
  370000   0.68864697   -5.0733052    165.88035  0.037360439  0.038055939           10 
  371000    0.6838415   -5.0500312    166.29266  0.037352349  0.037964556            5 
  372000   0.67026755   -5.0809067    166.15077  0.037220154  0.037873269            7 
  373000   0.65243754   -5.0835429    166.49395   0.03719704  0.037781985           16 
  374000   0.66241462   -5.0851219    165.92313  0.036970395  0.037690604           12 
  375000   0.67187744   -5.1250476     166.2107   0.03693571  0.037598575           11 
  376000   0.66259838   -5.0964119    166.65742  0.036936485  0.037507493            8 
  377000   0.68028294   -5.1139898    166.49366  0.036802312  0.037416223            4 
  378000   0.65639109   -5.0969786    166.77322  0.036766582  0.037324663            5 
  379000   0.67540967    -5.084758    166.38252  0.036583668  0.037234078            4 
  380000   0.66584894   -5.0911236    166.85751  0.036591558  0.037143536            7 
  381000   0.66584462   -5.0914145     166.8759   0.03649954    0.0370532           15 
  382000   0.66770111   -5.0963668    167.11352   0.03645583  0.036962272            9 
  383000   0.65200761   -5.0833776    167.21122  0.036381901   0.03687214            8 
  384000   0.65778772    -5.106442    167.39427  0.036326882  0.036782194            8 
  385000    0.6563674   -5.1031811    167.11782  0.036172689  0.036691812            6 
  386000   0.65370136   -5.1225531    167.23444  0.036104155   0.03660178            7 
  387000   0.65419154   -5.1301455    167.21053  0.036005714  0.036511402            7 
  388000   0.64096708   -5.0929375    167.79486  0.036038416  0.036421867           18 
  389000   0.65076973   -5.1077028    167.90837  0.035970087  0.036332762           11 
  390000   0.64301767   -5.1141686    167.37902  0.035764748  0.036243508           10 
  391000   0.64706658   -5.1374896    167.49684  0.035698388  0.036154085            9 
  392000    0.6446932   -5.1683419    167.56395  0.035621587  0.036065039           12 
  393000   0.63639801   -5.1344941    167.71363  0.035562686  0.035975094           11 
  394000   0.64028504   -5.1558215    167.55659   0.03543921  0.035885571           13 
  395000   0.63298086   -5.1612237     167.7008  0.035379915  0.035796072           11 
  396000   0.65432965   -5.1286897    168.07108  0.035368493   0.03570697           35 
  397000   0.63627812   -5.1358603    168.40899  0.035350335  0.035618875            8 
  398000   0.63266143   -5.1565784    168.10181  0.035197196  0.035530578            5 
  399000   0.62875901   -5.1588905    167.96397  0.035080194  0.035442125            9 
  400000   0.62949928   -5.1814645    167.97575  0.034994948  0.035353724           14 
  401000    0.6229616   -5.1483079    168.77937  0.035074683  0.035266568           16 
  402000   0.63077395   -5.1541462    168.73713  0.034978676  0.035179608           15 
  403000   0.63194199   -5.1937833    168.13993  0.034768389   0.03509227           17 
  404000    0.6257013   -5.1675172    168.42723   0.03474159  0.035005324            7 
  405000   0.59828868   -5.1880077    168.57719  0.034686666  0.034918626           14 
  406000   0.61312522   -5.1894274    169.10839  0.034710262  0.034832385            8 
  407000   0.61939866   -5.2028605    169.02627  0.034608163  0.034746323           27 
  408000   0.62571311   -5.1977013    169.01507  0.034521053  0.034660209           10 
  409000   0.63194229   -5.2048631    169.15812  0.034465794  0.034574695           20 
  410000   0.61934004   -5.2022752    168.82037  0.034313082  0.034488792           11 
  411000    0.6201791   -5.2007247    168.90655  0.034247069  0.034403656           16 
  412000   0.60651439   -5.2042693    169.16091  0.034215395  0.034318608            9 
  413000   0.61346181   -5.2211015    169.20117  0.034140672   0.03423324           15 
  414000   0.60216832   -5.2228452    169.00041  0.034017796  0.034147708           13 
  415000     0.605016   -5.2083132    168.86048  0.033907728  0.034061906            8 
  416000   0.60360373   -5.2195631    168.76173  0.033806437  0.033976273           27 
  417000   0.59807672   -5.2161631    169.15786  0.033804528  0.033890546           23 
  418000   0.60012984   -5.2329421    168.57791  0.033608037  0.033804619           10 
  419000   0.60374239    -5.240579    169.10001  0.033631664  0.033719053            6 
  420000   0.60100053   -5.2581925    169.19053   0.03356955  0.033633593            7 
  421000   0.59190327   -5.2470348    169.21224   0.03349411  0.033548551           13 
  422000   0.59358532    -5.226119    169.06148  0.033384968  0.033463587           25 
  423000   0.59103531   -5.2490515    169.02107  0.033298082   0.03337879           51 
  424000     0.595121   -5.2307405    169.30685  0.033275718  0.033293972           19 
  425000   0.59582416    -5.260221      169.075  0.033151961  0.033209353           49 
  426000   0.59012537   -5.2769849    169.15815  0.033090405  0.033124749           18 
  427000    0.5859695   -5.2643233    169.53198  0.033085866  0.033040316           10 
  428000   0.58177757   -5.2437989    169.47875    0.0329982  0.032955947           18 
  429000    0.5849255   -5.2558232    169.58052  0.032941048  0.032872114           12 
  430000   0.58233607   -5.2551758    169.78145  0.032903383  0.032788477            9 
  431000    0.5758476   -5.2585013    169.78768  0.032828244  0.032704991           11 
  432000   0.56711021   -5.2673084    169.40907  0.032679219  0.032621653            9 
  433000   0.57123399   -5.2835292    169.16967  0.032557672  0.032538113           10 
  434000   0.55669454   -5.2719887    169.38665  0.032524319  0.032454457           13 
  435000   0.56734137   -5.2871631    169.47409  0.032466301   0.03237115           18 
  436000   0.57602695   -5.3188236    169.11802   0.03232378   0.03228755           15 
  437000   0.57119118    -5.323126     169.3715  0.032298151  0.032204326           12 
  438000   0.56413911   -5.3012502     169.7429  0.032295072  0.032121561           17 
  439000   0.57760083   -5.3253607    169.56996  0.032188679  0.032038629           11 
  440000   0.56855207   -5.3317314    169.28456  0.032061469  0.031955702           15 
  441000   0.55459728   -5.3307547    169.06068  0.031946462  0.031872618           18 
  442000   0.56373891   -5.3343249    169.49329  0.031955749  0.031789665           18 
  443000   0.57252774   -5.3494222    169.43012  0.031871731  0.031706828           16 
  444000   0.56500784   -5.3188593      169.182  0.031753379   0.03162437           14 
  445000   0.56367107   -5.3237469    170.10022  0.031853975  0.031542089           25 
  446000   0.56308021    -5.339027    168.94508  0.031566719  0.031459717           21 
  447000    0.5618383   -5.3138776    169.59672  0.031617583  0.031377624           16 
  448000    0.5504424   -5.3277132    169.57507  0.031542981   0.03129614           11 
  449000     0.557746   -5.3342328    169.46522  0.031452343  0.031214971           29 
  450000   0.56143646   -5.3388797    169.08125  0.031311343  0.031133951           23 
  451000   0.53797084   -5.3377092    169.38946  0.031298865  0.031052757           21 
  452000   0.55196324   -5.3393646    169.58125   0.03126498  0.030971612           10 
  453000   0.54226011   -5.3680995    169.40474  0.031163492  0.030890953           21 
  454000   0.55040806   -5.3739744    169.15645  0.031049275   0.03081001           18 
  455000   0.54476228   -5.3564775    169.68617  0.031078052  0.030729336           19 
  456000      0.52637   -5.3656252    169.72255  0.031016549  0.030649016           11 
  457000    0.5247906   -5.3654658    169.95052  0.030990248  0.030569348           24 
  458000   0.52132629   -5.3796722    170.09332  0.030948565  0.030490065            9 
  459000   0.53225209   -5.3823235    169.96117  0.030857147  0.030410919            8 
  460000   0.53826411   -5.3723124     169.8908  0.030777319  0.030331774           50 
  461000   0.52555921   -5.3846325    169.84998  0.030703179  0.030252774           31 
  462000   0.54066335   -5.3736382    170.04234  0.030671418  0.030174068           34 
  463000   0.52483499   -5.4023816    169.91509  0.030582269  0.030095337           38 
  464000   0.51969279   -5.4050218    169.21549  0.030390714  0.030016285           22 
  465000   0.52717291   -5.4179256    169.70004  0.030412194   0.02993724           13 
  466000   0.51630208   -5.4085596    169.43465  0.030299473  0.029858233           26 
  467000   0.52246409   -5.4237847    169.70407  0.030282668   0.02977957           12 
  468000    0.5286243   -5.4101031    170.08108  0.030285092  0.029701209           37 
  469000   0.51885417   -5.4310875    169.67832  0.030148954  0.029623301           11 
  470000   0.51863665   -5.4261946    169.54746  0.030061607  0.029545361           26 
  471000   0.50636464   -5.4156883    169.60724  0.030008358   0.02946737           30 
  472000   0.51279575   -5.4488592    169.39618  0.029907518  0.029389643           39 
  473000   0.50392407   -5.4361744    169.85621  0.029925336  0.029312292           38 
  474000   0.50782456   -5.4376283    169.66891  0.029829274   0.02923499          108 
  475000   0.51122054   -5.4449866      169.732  0.029777544  0.029158161           26 
  476000   0.50641385   -5.4404522    169.75303  0.029718667  0.029081464           62 
  477000    0.5011636    -5.444792    169.77197  0.029659673  0.029004899           99 
  478000   0.50197224   -5.4330387    169.70346  0.029585681  0.028928563           59 
  479000   0.50079303   -5.4423156    169.30634  0.029454827  0.028852326           15 
  480000   0.48769114   -5.4448639    169.64492  0.029452243  0.028775987           24 
  481000    0.4907597   -5.4572494    169.04672  0.029287373  0.028699328           12 
  482000   0.50521675   -5.4660136    169.21211  0.029255206  0.028622812           15 
  483000   0.49110634   -5.4670084    169.42691  0.029231696  0.028546519           13 
  484000    0.5017834   -5.4559743     169.0001  0.029097813  0.028470128           22 
  485000   0.49181852   -5.4741061    169.23575  0.029078307  0.028393963           15 
  486000   0.50360093   -5.4712957    168.98822  0.028976032  0.028317824           63 
  487000   0.50307999   -5.4687059    169.27368   0.02896538   0.02824191           65 
  488000   0.49167798   -5.4972524    169.04189  0.028866443  0.028166242           24 
  489000    0.4840312   -5.4929226    169.19073  0.028832777  0.028090837           49 
  490000   0.48358995   -5.4685682    168.94693  0.028732471  0.028015476           27 
  491000   0.47956372   -5.4882164    168.89615  0.028665335  0.027940302           29 
  492000   0.48567918   -5.4816575    169.38386  0.028689677  0.027865383           38 
  493000     0.479122   -5.5000334    169.31384  0.028619649  0.027790643           37 
  494000   0.47591852   -5.4793994    169.25749  0.028552207  0.027716287           38 
  495000   0.47505875   -5.5034445    169.20504  0.028485697  0.027642066           36 
  496000   0.47538588   -5.5143628    169.19202  0.028426078  0.027568178           37 
  497000   0.46873137   -5.5092242    169.08346  0.028350681  0.027494213           23 
  498000   0.47894099   -5.5169905    169.20238  0.028313652  0.027420499           32 
  499000   0.48118941   -5.5237697    168.88036  0.028203132   0.02734678           23 
  500000   0.47106013   -5.5489582    168.53655  0.028089425  0.027273146           42 
  501000   0.46541536   -5.5287189    168.68045  0.028057293  0.027199632           21 
  502000   0.47095444   -5.5323506    169.02543  0.028058671  0.027126278           23 
  503000   0.46673179   -5.5402759    168.75426  0.027957962  0.027053151           41 
  504000   0.45846201    -5.533583    168.73209  0.027898824  0.026980132           44 
  505000   0.46470721   -5.5358626    169.01699  0.027890593  0.026907223           38 
  506000   0.46493057   -5.5243482    169.15601  0.027858368  0.026834887           45 
  507000    0.4558678   -5.5384349    168.74324  0.027735576   0.02676252           57 
  508000   0.45661888   -5.5553622    168.36241  0.027618505  0.026690149           40 
  509000   0.44896892   -5.5630968    168.61845  0.027606164  0.026617938           55 
  510000    0.4591325   -5.5549632    168.62691  0.027553417  0.026545998           40 
  511000   0.44854605   -5.5633704    168.47782  0.027475183  0.026474169           50 
  512000   0.44306876   -5.5565368    168.54579  0.027432583  0.026402738           31 
Loop time of 1266.85 on 48 procs for 500000 steps with 4000 atoms

Performance: 68200.854 tau/day, 394.681 timesteps/s
99.4% CPU use with 48 MPI tasks x no OpenMP threads

MPI task timing breakdown:
Section |  min time  |  avg time  |  max time  |%varavg| %total
---------------------------------------------------------------
Pair    | 84.096     | 91.566     | 98.146     |  35.3 |  7.23
Neigh   | 8.4593     | 8.8821     | 9.4047     |   7.8 |  0.70
Comm    | 81.394     | 88.303     | 97.732     |  38.6 |  6.97
Output  | 0.95213    | 0.95297    | 0.97583    |   0.3 |  0.08
Modify  | 1060.5     | 1065       | 1068.4     |   4.9 | 84.06
Other   |            | 12.18      |            |       |  0.96

Nlocal:        83.3333 ave          91 max          76 min
Histogram: 3 2 5 8 8 2 9 6 3 2
Nghost:        2317.62 ave        2340 max        2300 min
Histogram: 2 4 8 9 5 9 6 1 1 3
Neighs:        15745.6 ave       17865 max       14000 min
Histogram: 1 7 3 11 8 6 5 5 0 2
FullNghs:      31491.5 ave       34455 max       28523 min
Histogram: 2 4 4 8 8 2 10 5 3 2

Total # of neighbors = 1511593
Ave neighs/atom = 377.89825
Neighbor list builds = 26957
Dangerous builds = 0

#clear
#
#next RN
#
#jump SELF
Total wall time: 0:21:10
