
units lj                  # Use reduced LJ style units
atom_style atomic         # Uncharged point particles
atom_modify map hash      # Needed for indexing of clusters etc
                          # Used to be able to find where atoms are in relation to each other.

lattice fcc 1.0 spacing 1 1 1
Lattice spacing in x,y,z = 1.5874011 1.5874011 1.5874011
region box block 0 10 0 10 0 10 units lattice
create_box 2 box
Created orthogonal box = (0.0000000 0.0000000 0.0000000) to (15.874011 15.874011 15.874011)
  3 by 4 by 4 MPI processor grid
create_atoms 1 box
Created 4000 atoms
  using lattice units in orthogonal box = (0.0000000 0.0000000 0.0000000) to (15.874011 15.874011 15.874011)
  create_atoms CPU = 0.004 seconds
set type 1 type/fraction 2 0.28 78393
Setting atom values ...
  1153 settings made for type/fraction
mass 1 1.0
mass 2 1.0
pair_style lj/cut  3.5
pair_modify tail  yes
pair_coeff 1  1  1.0  1.0   # Intearaction between 1 and 1 set with epsilon = 1 and sigma = 1
pair_coeff 1  2  1.5  0.8
pair_coeff 2  2  0.5  0.88

write_data data.0
System init for write_data ...
Neighbor list info ...
  update every 1 steps, delay 10 steps, check yes
  max neighbors/atom: 2000, page size: 100000
  master list distance cutoff = 3.8
  ghost atom cutoff = 3.8
  binsize = 1.9, bins = 9 9 9
  1 neighbor lists, perpetual/occasional/extra = 1 0 0
  (1) pair lj/cut, perpetual
      attributes: half, newton on
      pair build: half/bin/atomonly/newton
      stencil: half/bin/3d
      bin: standard
WARNING: Not all mixed pair coeffs generated from mixing. Use write_data with 'pair ij' option to store all pair coeffs. (../write_data.cpp:312)


#############################
#   M E L T   S Y S T E M   #
#############################

velocity all create 2.4 9622624 mom yes dist gaussian # Assign velocities
                                                    # Temperature 2.4, random number seed, zero linear momentum
                                                                                # Gaussian distribution

timestep 0.002   # simulation timestep
thermo 1000       # output thermodynamic data every 1000 steps bf 100

# Define a fix  in this case with index 1 applied to all
# particles in the simulation. This fix is for simulations
# in the anisotropic NPT ensemble. Note that we use the MTK
# correction.
fix 1 all npt temp 2.4 2.4 0.1 iso 5.68 5.68 0.5 mtk yes tchain 5 pchain 5 # Use NPT ensemble
                                                                         # Set temperature and pressure and damping
                                                                         # Numbers of thermostats in chain and in barostat
run 10000          # run for 10000 steps
Per MPI rank memory allocation (min/avg/max) = 3.642 | 3.644 | 3.648 Mbytes
Step Temp E_pair E_mol TotEng Press Volume 
       0          2.4   -6.5468678            0   -2.9477678   -3.9245899         4000 
    1000    2.3637256   -4.9858179            0   -1.4411159    5.5882025    4211.1026 
    2000    2.3447046   -4.9933817            0   -1.4772041    5.4751505    4214.4933 
    3000    2.3936325   -4.9877715            0   -1.3982204    5.8174951     4193.976 
    4000     2.357765   -4.9613106            0   -1.4255472    5.5884766    4222.0855 
    5000    2.3879705   -4.9557576            0   -1.3746973    5.6614683    4207.6166 
    6000    2.3566581   -4.9889729            0   -1.4548694    6.0139194    4172.5846 
    7000    2.3979126   -4.9517589            0   -1.3557892    5.6633298     4222.539 
    8000    2.3809268   -4.9805349            0   -1.4100376    5.9089993    4183.7766 
    9000    2.3869804    -4.944144            0   -1.3645685    5.9152456     4204.814 
   10000     2.413684   -4.9343835            0   -1.3147626    5.8152432    4214.4467 
Loop time of 2.46923 on 48 procs for 10000 steps with 4000 atoms

Performance: 699814.688 tau/day, 4049.854 timesteps/s
99.5% CPU use with 48 MPI tasks x no OpenMP threads

MPI task timing breakdown:
Section |  min time  |  avg time  |  max time  |%varavg| %total
---------------------------------------------------------------
Pair    | 1.0409     | 1.102      | 1.1672     |   3.4 | 44.63
Neigh   | 0.20431    | 0.21228    | 0.22281    |   1.1 |  8.60
Comm    | 0.76991    | 0.84551    | 0.91183    |   4.4 | 34.24
Output  | 0.00024599 | 0.00025161 | 0.00031964 |   0.0 |  0.01
Modify  | 0.2517     | 0.29436    | 0.32752    |   2.9 | 11.92
Other   |            | 0.01486    |            |       |  0.60

Nlocal:        83.3333 ave          91 max          76 min
Histogram: 5 4 9 2 5 2 9 1 5 6
Nghost:        1595.25 ave        1639 max        1565 min
Histogram: 4 6 8 6 7 8 4 2 2 1
Neighs:        9056.27 ave       10195 max        7827 min
Histogram: 4 3 6 6 1 6 7 5 6 4

Total # of neighbors = 434701
Ave neighs/atom = 108.67525
Neighbor list builds = 914
Dangerous builds = 259

# Equilibrate just above the melting temperature to avoid step fn in T

fix 1 all npt temp 1.25 1.25 0.1 iso 5.68 5.68 0.5 mtk yes tchain 5 pchain 5
run 2000
Per MPI rank memory allocation (min/avg/max) = 3.643 | 3.645 | 3.649 Mbytes
Step Temp E_pair E_mol TotEng Press Volume 
   10000     2.413684   -4.9343835            0   -1.3147626    5.8152432    4214.4467 
   11000     1.266965   -6.7986636            0   -4.8986912    5.6767733    3399.7307 
   12000    1.2479002   -6.8263183            0    -4.954936    5.8098033    3384.6794 
Loop time of 0.556594 on 48 procs for 2000 steps with 4000 atoms

Performance: 620919.608 tau/day, 3593.285 timesteps/s
99.6% CPU use with 48 MPI tasks x no OpenMP threads

MPI task timing breakdown:
Section |  min time  |  avg time  |  max time  |%varavg| %total
---------------------------------------------------------------
Pair    | 0.24257    | 0.26853    | 0.29073    |   2.3 | 48.24
Neigh   | 0.036158   | 0.03905    | 0.041466   |   0.7 |  7.02
Comm    | 0.17452    | 0.19934    | 0.22851    |   2.9 | 35.81
Output  | 5.3155e-05 | 5.4896e-05 | 6.9212e-05 |   0.0 |  0.01
Modify  | 0.041065   | 0.044845   | 0.048892   |   1.1 |  8.06
Other   |            | 0.00478    |            |       |  0.86

Nlocal:        83.3333 ave          93 max          76 min
Histogram: 4 4 7 4 9 13 2 2 2 1
Nghost:        1839.17 ave        1864 max        1813 min
Histogram: 2 3 5 7 6 5 8 4 6 2
Neighs:        11293.9 ave       12674 max        9973 min
Histogram: 4 4 4 4 6 11 8 2 2 3

Total # of neighbors = 542106
Ave neighs/atom = 135.52650
Neighbor list builds = 142
Dangerous builds = 7

#############################
# L I N E A R  Q U E N C H  #
#############################

# Define solid atoms. This closely follows ten Wolde  Ruiz-Montero and Frenkel  Faraday Discuss  1996  104  93-110
# Compute components of the per-atom q6 vector
compute q6 all orientorder/atom degrees 1 6 components 6 nnn NULL cutoff 1.3 # compute the Q6 parameter.
                                                                             # Use all neighbours within 1.3 unit cell.

# get number of connections
compute coord_number all coord/atom orientorder q6 0.5

# An atom is solid if it has 8 or more connections (of a possible 14)
variable is_solid atom c_coord_number>=8
group solid dynamic all var is_solid    # Must be dynamic to update
dynamic group solid defined

# do clustering
compute cluster solid cluster/atom 1.3 # Create a cluster where all atoms within are solid and max 1.3 units from another member

# define chunks one chunk per cluster
compute clus_chunks solid chunk/atom c_cluster nchunk every compress yes  # Says which atoms are in which chunk

# count the size of each chunk
compute size_chunks solid property/chunk clus_chunks count


# Find the maximum entry in the vector of chunk sizes
variable max_n equal max(c_size_chunks)


# Thermo style which includes this variable
# thermo_style custom step temp pe vol v_max_n

thermo ${N}  # Print the thermo information every 100 steps
thermo 1000  

# Reset the npt fix at a lower temperature (below freezing)
fix 1  all npt temp  ${temp} ${temp}  0.1  iso  5.68  5.68  0.5  mtk yes tchain  5  pchain  5
fix 1  all npt temp  0.45 ${temp}  0.1  iso  5.68  5.68  0.5  mtk yes tchain  5  pchain  5
fix 1  all npt temp  0.45 0.45  0.1  iso  5.68  5.68  0.5  mtk yes tchain  5  pchain  5

dump dmp2 all dcd ${N} traj.dcd
dump dmp2 all dcd 1000 traj.dcd


compute msd all msd com yes
variable twopoint equal c_msd[4]/6/(step*dt+1.0e-6)
fix 9 all vector 10 c_msd[4]
variable fit equal slope(f_9)/6/(10*dt)
thermo_style custom step temp pe c_msd[4] v_twopoint v_fit v_max_n

fix 1 all npt temp 1.25 ${temp} 0.1 iso 5.68 5.68 0.5 mtk yes tchain 5 pchain 5
fix 1 all npt temp 1.25 0.45 0.1 iso 5.68 5.68 0.5 mtk yes tchain 5 pchain 5
run 500000 # 5000000  # Run for this many steps
Neighbor list info ...
  update every 1 steps, delay 10 steps, check yes
  max neighbors/atom: 2000, page size: 100000
  master list distance cutoff = 3.8
  ghost atom cutoff = 3.8
  binsize = 1.9, bins = 8 8 8
  4 neighbor lists, perpetual/occasional/extra = 1 3 0
  (1) pair lj/cut, perpetual
      attributes: half, newton on
      pair build: half/bin/atomonly/newton
      stencil: half/bin/3d
      bin: standard
  (2) compute orientorder/atom, occasional
      attributes: full, newton on
      pair build: full/bin/atomonly
      stencil: full/bin/3d
      bin: standard
  (3) compute coord/atom, occasional
      attributes: full, newton on
      pair build: full/bin/atomonly
      stencil: full/bin/3d
      bin: standard
  (4) compute cluster/atom, occasional
      attributes: full, newton on
      pair build: full/bin/atomonly
      stencil: full/bin/3d
      bin: standard
Per MPI rank memory allocation (min/avg/max) = 9.808 | 9.813 | 9.819 Mbytes
Step Temp PotEng c_msd[4] v_twopoint v_fit v_max_n 
   12000    1.2479002   -6.8263183 9.8923158e-31 6.8696634e-33 8.3333333e+20            2 
   13000    1.2446075   -6.8419442   0.51178894 0.0032806982  0.042462864            1 
   14000      1.25285   -6.8024755    1.0238729 0.0060944812  0.041470255            2 
   15000     1.219427   -6.8417593    1.5050948 0.0083616376  0.041689474            2 
   16000    1.2515798   -6.8524796     2.007166  0.010453989  0.041550085            3 
   17000    1.2257621   -6.8476481    2.5038285  0.012273669  0.041334982            2 
   18000    1.2097146   -6.8133587    2.9967421  0.013873806  0.041437398            1 
   19000    1.2451573    -6.801404    3.4040464  0.014930028  0.040961318            1 
   20000     1.234884   -6.8374339    3.8286893  0.015952872  0.040201936            2 
   21000    1.2318484   -6.8605564    4.3344726  0.017200288  0.039893132            2 
   22000    1.2702729    -6.852996    4.8432761  0.018345742  0.039862144            1 
   23000    1.2503922    -6.879281    5.2342046  0.018964509  0.039646579            3 
   24000    1.2227149   -6.8389784    5.6352994  0.019567012  0.039287426            1 
   25000    1.2314956   -6.8924586    6.0279387  0.020093129  0.038872104            1 
   26000    1.2129179   -6.8945074    6.4828239  0.020778281   0.03852671            1 
   27000    1.2310523   -6.8785903    6.8799982  0.021234562  0.038145433            2 
   28000    1.2206468   -6.8657441    7.2996886  0.021725263  0.037876855            1 
   29000    1.2183939   -6.8705341    7.6808658  0.022071453  0.037553244            2 
   30000    1.2376278   -6.8909874     8.079606   0.02244335  0.037272349            1 
   31000    1.2359151   -6.8832477    8.5750971  0.023051336  0.037024885            2 
   32000    1.2192786   -6.8741455    8.9991713  0.023435341  0.036934016            1 
   33000    1.1985517   -6.9261509     9.418527  0.023784159  0.036820458            2 
   34000    1.2212903   -6.8893715    9.9528956  0.024394352  0.036764443            2 
   35000     1.194003   -6.8840381    10.348338    0.0246389  0.036717967            1 
   36000    1.1962341   -6.9246703    10.653964  0.024661954  0.036612076            1 
   37000     1.216144   -6.8574491     11.12827   0.02506367  0.036511605            1 
   38000    1.2392696   -6.8990988    11.568485  0.025369485  0.036432739            3 
   39000    1.2044385    -6.912134    12.005894  0.025653618   0.03636581            1 
   40000    1.2435345   -6.8671951    12.326225  0.025679636  0.036289514            3 
   41000    1.1844499   -6.9251261    12.838294  0.026094094  0.036224634            2 
   42000    1.2047663   -6.9171364    13.310382  0.026409487  0.036188438            2 
   43000    1.2017881   -6.9675621     13.72263  0.026594244  0.036165512            3 
   44000    1.2158789   -6.9527499    14.104992  0.026713999  0.036138264            4 
   45000    1.1862765   -6.8777791    14.610511  0.027056502  0.036099847            3 
   46000    1.1922749   -6.9268851    14.958557  0.027098835  0.036086578            3 
   47000    1.1944488   -6.9781595    15.363934  0.027241017  0.036049771            1 
   48000    1.1896267   -6.9139281    15.785169  0.027404807  0.036009726            1 
   49000    1.2066626   -6.9232688    16.252507  0.027640318  0.035963584            3 
   50000    1.1940297   -6.9516901    16.683923  0.027806537  0.035944061            2 
   51000     1.184511    -6.977305    17.063819  0.027882057  0.035928699            2 
   52000    1.1807563   -6.9509159    17.488528  0.028026487  0.035907515            1 
   53000    1.2105364   -6.9782788    18.004162   0.02830843  0.035883202            1 
   54000    1.2017736   -6.9552197    18.445182  0.028464786  0.035885184            1 
   55000    1.1650701   -6.9583412    18.700093  0.028333475  0.035860842            2 
   56000    1.1720311   -6.9904143      19.0526  0.028352084  0.035821782            2 
   57000    1.1654461   -6.9900336     19.40712  0.028372982  0.035767132            2 
   58000    1.1560213   -6.9349602    19.937331   0.02864559  0.035714351            2 
   59000    1.1831385   -6.9939756    20.243828  0.028592978  0.035668784            2 
   60000    1.1588212   -6.9779342    20.665254  0.028701742  0.035621127            2 
   61000    1.1724354   -6.9916983    21.068189  0.028781678  0.035565842            1 
   62000    1.1537654    -6.973555    21.459601   0.02884355  0.035506412            2 
   63000    1.1523858   -7.0312027    21.897952  0.028965545  0.035456188            1 
   64000    1.1380874   -7.0244285    22.416817  0.029188564   0.03541869            1 
   65000    1.1532512    -6.982225    22.783872  0.029210092  0.035382719            1 
   66000    1.1344802   -7.0086536    23.240916   0.02934459  0.035359459            1 
   67000     1.161321   -6.9535222    23.522405  0.029256723  0.035330673            1 
   68000    1.1480047   -6.9978538    23.884322  0.029270003  0.035282432            1 
   69000    1.1483893   -7.0104186    24.087801  0.029091547  0.035224867       -1e+20 
   70000    1.1641106   -7.0171047    24.307759  0.028937809  0.035145131            1 
   71000     1.138057   -7.0088717    24.734805  0.029031461  0.035050803            1 
   72000    1.1499961   -7.0169154    25.025014  0.028964137  0.034960746            1 
   73000    1.1751798   -6.9981609    25.659384  0.029291534  0.034887737            1 
   74000    1.1554344    -7.009307    25.963415  0.029238079  0.034829542            3 
   75000    1.1385332   -7.0052373    26.306359  0.029229288  0.034762549            1 
   76000    1.1347372   -7.0405304    26.738283  0.029318292  0.034696577            1 
   77000    1.1461567   -7.0297945    27.082218  0.029309759  0.034624953            5 
   78000    1.1296527   -7.0372596    27.242289   0.02910501  0.034541289            1 
   79000    1.1414483   -7.0103416    27.698068  0.029217372  0.034458544            2 
   80000    1.1309593   -7.0901897    27.839376   0.02899935  0.034370624            3 
   81000    1.1482193   -7.0555521    28.230325  0.029043544  0.034278276            2 
   82000    1.1423329   -7.0749376    28.617795  0.029083125  0.034192659            1 
   83000    1.1431066   -7.0441009    28.918008  0.029034145  0.034109325            2 
   84000    1.1502507   -7.0454512    29.463486  0.029229649  0.034032695            2 
   85000    1.1498488   -7.1132349     29.75846  0.029174961   0.03396231            2 
   86000    1.1512188   -7.0148103    30.225803  0.029288569  0.033894394            4 
   87000    1.1332723   -7.0712627    30.678471  0.029385508  0.033836213            2 
   88000    1.1100757   -7.0531564     31.22662  0.029570663   0.03378836            1 
   89000    1.1222369   -7.0719905    31.446796  0.029444565  0.033745048            2 
   90000    1.1313047   -7.0717015    31.629696  0.029286755  0.033694435            1 
   91000     1.109198   -7.0671134    32.084893   0.02938177  0.033635591            2 
   92000    1.1185784   -7.0768769    32.404676  0.029352061  0.033580282            2 
   93000    1.0962418   -7.0745149    32.917503   0.02949597  0.033528326            2 
   94000    1.1449375    -7.121668     33.12818  0.029368954  0.033475521            2 
   95000    1.1216279   -7.1208072    33.453222  0.029344931  0.033419086            1 
   96000    1.1189505   -7.1225064      33.8076  0.029346875  0.033358791            5 
   97000    1.1283596   -7.1197839    34.245775  0.029420769  0.033304382            3 
   98000    1.1260644   -7.1742156    34.567061  0.029393759  0.033251875            1 
   99000    1.1144933   -7.0887569     35.05715  0.029509385  0.033204159            1 
  100000    1.1041333   -7.1174967    35.254309  0.029378591  0.033157991            2 
  101000    1.0954604   -7.0622263     35.66049  0.029422846  0.033104906            1 
  102000    1.0899855     -7.15393    36.050078  0.029452678  0.033058862            2 
  103000    1.0803682   -7.1446366    36.472006  0.029508095  0.033009602            2 
  104000    1.1003648   -7.1513387    36.568084  0.029301349  0.032962953            2 
  105000    1.1372435   -7.1397467     36.82846  0.029228937  0.032901854            2 
  106000    1.0900078   -7.1638956    36.947977  0.029047151  0.032833649            1 
  107000    1.1111274   -7.1371785    37.191241  0.028965141  0.032760437            3 
  108000     1.101189   -7.1525662    37.439761  0.028888705   0.03268323            2 
  109000     1.106419   -7.1178011    37.917318  0.028988775  0.032612266            1 
  110000    1.0792211    -7.111563    38.172801  0.028918788  0.032538964            3 
  111000    1.1001783   -7.1902962    38.347113  0.028789123  0.032464393            1 
  112000    1.1287701    -7.160011    38.535785  0.028672459  0.032384566            2 
  113000    1.0930171   -7.1757714    38.852496  0.028652283  0.032301451            1 
  114000    1.0889309   -7.1798962    39.203053  0.028657202  0.032219637            1 
  115000    1.0587759    -7.167793    39.537319  0.028650231  0.032141937            3 
  116000    1.0745883   -7.2026387    39.792138  0.028586306  0.032063259            1 
  117000    1.0968426   -7.1984675    39.913735  0.028428586  0.031979761            4 
  118000    1.0985603   -7.1601392     40.36611   0.02850714  0.031896204            1 
  119000    1.0750107   -7.1576816    40.518471   0.02837428   0.03181215            2 
  120000    1.0822772   -7.1761338    40.761888  0.028306867  0.031724303            3 
  121000    1.0906471    -7.157868     40.94883  0.028201673  0.031637447            2 
  122000    1.0646539   -7.1627602     41.21742  0.028153976  0.031550331            2 
  123000    1.0570406   -7.2080286    41.394211  0.028044858  0.031457887            1 
  124000      1.06501   -7.2085663     41.74901   0.02805713  0.031366401            2 
  125000    1.0577438   -7.1905233    42.068988  0.028045992  0.031278708            1 
  126000     1.076114   -7.2278085    42.241793  0.027937694  0.031192506            5 
  127000    1.0656495   -7.1976198    42.646031   0.02798296   0.03110803            1 
  128000    1.0533804   -7.2149096    42.821555  0.027878617  0.031025547            3 
  129000    1.0534341   -7.2062363     43.12137  0.027856182  0.030941284            3 
  130000     1.076775   -7.2533297    43.280405  0.027743849  0.030859216            1 
  131000    1.0576107    -7.193661    43.836422  0.027885764  0.030778558            1 
  132000    1.0949503   -7.2009299     44.20713  0.027908542  0.030701332            2 
  133000     1.031705   -7.1928023    44.415381  0.027829186  0.030624581            1 
  134000    1.0349645   -7.2440382    44.756882  0.027833882  0.030547766            1 
  135000    1.0554932   -7.2368914    45.106143  0.027843298  0.030473164            2 
  136000    1.0494856   -7.2204108     45.29405  0.027753707  0.030401242            2 
  137000    1.0545886    -7.256667    45.275087  0.027539591  0.030326059            4 
  138000    1.0540599    -7.236059    45.683183  0.027586463  0.030250624            5 
  139000     1.029777   -7.2445466    45.942739  0.027543608  0.030175764            4 
  140000    1.0500235   -7.2593926    46.336553  0.027581281  0.030105093            1 
  141000    1.0356833   -7.2353043    46.416277  0.027432788  0.030034865            1 
  142000     1.041279   -7.2152389    46.770765  0.027447632  0.029961692            1 
  143000    1.0377158   -7.2666985    47.145974  0.027474344  0.029889172            2 
  144000     1.040134   -7.2712718    47.269807  0.027355212  0.029816489            2 
  145000    1.0407336   -7.2958475    47.489535  0.027292836  0.029745867            2 
  146000    1.0480949   -7.2529058    47.853121  0.027313425  0.029675581            2 
  147000    1.0189752   -7.2442785    48.143591  0.027292285  0.029606565            1 
  148000    1.0439434   -7.3135523    48.180724  0.027128786  0.029533242            2 
  149000    1.0126273    -7.271207    48.366844  0.027050807  0.029458289            2 
  150000    1.0307654   -7.2442869    48.620407  0.027011337  0.029384503            3 
  151000    1.0468115   -7.3016041    48.640979  0.026843807  0.029306111            3 
  152000    1.0534016   -7.3023475    48.644358  0.026669056  0.029224543            3 
  153000    1.0318235   -7.2984004     48.90071  0.026634374  0.029141796            1 
  154000    1.0023248   -7.3229994    49.203926  0.026625501  0.029060251            1 
  155000    1.0018762   -7.3058416    49.395157  0.026556536  0.028979893            3 
  156000     1.021303   -7.2694741    49.705074  0.026551856  0.028899778            3 
  157000    1.0159481    -7.340494    49.749742  0.026406445  0.028819411            2 
  158000    1.0228364    -7.339133     50.19636  0.026474873  0.028739075            2 
  159000    1.0211122   -7.3045287    50.348434  0.026388068  0.028660209            3 
  160000    1.0208874   -7.3045913    50.425944  0.026263512  0.028579203            2 
  161000    1.0494793   -7.3465064    50.813504  0.026300985  0.028500536            3 
  162000    1.0328428   -7.3263422    50.995471  0.026232238  0.028421744            1 
  163000   0.99146837   -7.3363859     50.90624  0.026025685  0.028343302            2 
  164000   0.98648544   -7.3504712    51.043744  0.025936862  0.028260933            1 
  165000    0.9911755   -7.3222584     51.66511   0.02609349   0.02817999            1 
  166000    1.0059507   -7.3248854    51.906096  0.026057277  0.028100907            3 
  167000    1.0075143   -7.3616386    51.909456  0.025902922  0.028022358            3 
  168000    1.0148392   -7.3541285    52.083775  0.025835206  0.027944219            2 
  169000   0.99946597   -7.3345288    52.395055  0.025835826  0.027868183            2 
  170000   0.97828015    -7.367899    52.588593  0.025778722  0.027793906            5 
  171000   0.98936961    -7.384588     52.87089  0.025765541  0.027721494            1 
  172000   0.98174419    -7.327251    53.115159  0.025734088  0.027647471            2 
  173000    1.0020053   -7.3517394    53.221667  0.025636641    0.0275728            4 
  174000     1.000144   -7.3910032    53.372746   0.02556166  0.027498186            4 
  175000    1.0087972   -7.3974598    53.620101  0.025533382  0.027424593            2 
  176000    1.0048974   -7.3929293    53.989547  0.025563233  0.027352062            2 
  177000   0.99621704   -7.4278793    54.378138   0.02560176  0.027282446            2 
  178000   0.98023843   -7.3954547    54.378175  0.025457947  0.027213684            2 
  179000   0.99635698    -7.397623    54.635174   0.02543537  0.027143462            3 
  180000   0.99188998   -7.3784732    54.848065  0.025392623  0.027073719            4 
  181000   0.96902057   -7.3755252    54.769056  0.025215956  0.027001687            2 
  182000   0.95846038   -7.3774003    54.969555   0.02516921  0.026927657            2 
  183000   0.98086874   -7.4071678    54.984825  0.025038627  0.026852191            2 
  184000   0.95901188    -7.427477    55.013769  0.024915656  0.026775202            1 
  185000   0.97982627   -7.4086557    55.339468  0.024927688  0.026697711            2 
  186000   0.96641009   -7.4177121    55.248088  0.024752728  0.026619486            1 
  187000   0.99118724   -7.4555596    55.466276  0.024717592  0.026541218            2 
  188000   0.96183677   -7.4082995    55.740889  0.024707841  0.026464529            1 
  189000   0.97629281   -7.3862088    56.176398  0.024769135  0.026389851            1 
  190000    0.9544377   -7.4237064    56.223577  0.024659463  0.026316287            4 
  191000   0.94652071   -7.4126657    56.282347  0.024555998  0.026241154            1 
  192000   0.96353831   -7.4648455    56.533603  0.024537154  0.026165726            4 
  193000   0.98585589   -7.4405874    56.818947  0.024533224  0.026091782            3 
  194000    0.9475157   -7.4652048    56.813786  0.024404547  0.026017062            2 
  195000   0.96110318   -7.4482704    57.127222  0.024413343  0.025943797            1 
  196000   0.93444228   -7.4603088    57.314132  0.024368253  0.025870411            4 
  197000   0.95601409   -7.4729306     57.29759  0.024237559   0.02579643            2 
  198000   0.95580138   -7.4475233    57.535487  0.024215272   0.02572378            3 
  199000   0.94917551   -7.4769511    57.657517  0.024144689  0.025652123            1 
  200000   0.92493359   -7.4231126    57.978311  0.024157629  0.025580492            2 
  201000   0.94839221   -7.4926314    57.913233  0.024010462   0.02550815            2 
  202000   0.96852874   -7.4560856    58.307293  0.024054164  0.025435715            2 
  203000   0.93872726   -7.4735889    58.318806  0.023940396  0.025363341            3 
  204000   0.95465226   -7.5081156    58.526523  0.023907893   0.02529045            3 
  205000   0.96593871   -7.5132381    58.744442  0.023879854   0.02522019            2 
  206000   0.93459668   -7.4623323    59.036719  0.023882168  0.025150933            2 
  207000   0.92631897   -7.5118596    59.439227  0.023928835   0.02508307            3 
  208000   0.92379143   -7.4775728    59.246323  0.023736508  0.025015343            6 
  209000    0.9285049    -7.519453    59.344985  0.023662275  0.024947126            3 
  210000   0.94211795   -7.4856949    59.604477   0.02365257  0.024879588            2 
  211000   0.92696794    -7.514242    59.842665  0.023634544  0.024811812            3 
  212000   0.93169956   -7.5216642    60.137213  0.023638841  0.024745881            1 
  213000   0.91212349   -7.5193025    60.231566  0.023564775  0.024681285            2 
  214000   0.90754868   -7.5725269    60.371454  0.023509133  0.024615639            2 
  215000   0.93112843    -7.541917    60.723389  0.023536197  0.024551811            2 
  216000   0.94415036   -7.5207861     60.62272  0.023388395  0.024488443            2 
  217000   0.88832417   -7.5590652    60.669662  0.023298641  0.024423699            3 
  218000   0.93213803    -7.578482    60.676093  0.023194225  0.024357351            3 
  219000   0.92737003    -7.542606    60.834549  0.023148611  0.024291199            3 
  220000   0.92445656   -7.5505403    60.908364   0.02307135   0.02422323            2 
  221000   0.93880147   -7.5574638    60.991416  0.022998272  0.024156407            3 
  222000   0.92025189   -7.5540197    61.273098  0.023000412  0.024089416            2 
  223000    0.9075371   -7.5724721    61.327408  0.022917566  0.024021853            5 
  224000    0.9045086   -7.6087785    61.415386  0.022847986  0.023954282            2 
  225000   0.88694046   -7.5655053    61.514458  0.022783132  0.023886697            1 
  226000   0.87522472   -7.5740976     61.60101  0.022714236  0.023819199            1 
  227000    0.9180852   -7.5723066    61.645093  0.022630357  0.023752201            3 
  228000   0.90265755   -7.5815874    61.870833  0.022613609  0.023683942            2 
  229000   0.91535966    -7.594949    62.019569  0.022568984  0.023616783            2 
  230000   0.90153147     -7.57131    62.202861  0.022537268   0.02355021            5 
  231000    0.9095234   -7.5519244    62.493926  0.022544706  0.023484091            3 
  232000   0.87815346   -7.5884484    62.634628   0.02249807  0.023419717            1 
  233000    0.8922624   -7.5853788    62.658686  0.022410117  0.023354122            4 
  234000   0.91525689   -7.6196637    62.811651  0.022368821  0.023289262            1 
  235000   0.88109161     -7.58075    62.867479  0.022293432  0.023224122            6 
  236000   0.89702002   -7.6282363    62.845948  0.022191366  0.023157847            2 
  237000   0.89635994   -7.6425485    63.187228  0.022217731  0.023092637            2 
  238000   0.90162126   -7.6326469    63.252173  0.022147119  0.023028163            1 
  239000   0.88963017    -7.650372    63.126558  0.022010655  0.022963666            1 
  240000   0.88253236   -7.6292607     63.48785  0.022044392  0.022898838            4 
  241000   0.88192593   -7.6189115    63.481695  0.021950794  0.022833686            2 
  242000   0.88076436   -7.6046626    63.526722  0.021875593  0.022768848            2 
  243000   0.87128577    -7.650188    63.453844  0.021760577  0.022703333            1 
  244000   0.86439916   -7.6328061    63.694041  0.021753429  0.022637165            2 
  245000    0.8816602   -7.6723994    63.719734  0.021673379  0.022570843            2 
  246000   0.88044448   -7.6576842    63.628784  0.021554466  0.022504209            3 
  247000   0.87283135   -7.6712119    63.765609  0.021513363  0.022437637            1 
  248000   0.88076348   -7.6396705    64.068353  0.021528344  0.022371857            2 
  249000   0.86249818   -7.5927939    64.294013  0.021517407  0.022307609            3 
  250000   0.87276049   -7.6928428    64.201273  0.021400424  0.022243015            4 
  251000   0.87675605   -7.6503937    64.261901  0.021335292  0.022178118            1 
  252000    0.8706938   -7.6713265    64.292991   0.02126091   0.02211251            2 
  253000   0.85769409   -7.6582225     64.49705  0.021244088  0.022047336            4 
  254000   0.88443964   -7.6824655     64.43725   0.02114083  0.021981767            2 
  255000   0.85001953    -7.696083    64.512754  0.021082599  0.021915714            4 
  256000   0.87533457    -7.708785    64.793034  0.021091483  0.021850151            3 
  257000   0.84065021   -7.6970574    64.662441  0.020967069  0.021785091            5 
  258000    0.8696191   -7.6946133    64.873623  0.020954013  0.021720195            4 
  259000   0.85871479   -7.6891418    64.952898  0.020898616  0.021655472            4 
  260000   0.86195458   -7.7112453    65.040207   0.02084622  0.021590552            3 
  261000   0.83871608   -7.6940062    65.254666  0.020834823  0.021526257            3 
  262000   0.84457334   -7.7106593    65.383473   0.02079627  0.021462586            2 
  263000   0.84275251   -7.7345156    65.336468  0.020702303  0.021399234            2 
  264000   0.83113753   -7.7271791    65.504394  0.020676892   0.02133658            2 
  265000   0.84295604   -7.7060151    65.865504  0.020712423  0.021274907            4 
  266000   0.82296233   -7.7258444     65.96672  0.020666266  0.021213908            4 
  267000   0.84200898   -7.7102743    65.986154   0.02059493  0.021153163            1 
  268000   0.84058379   -7.7174272    66.086712  0.020549351  0.021092788            1 
  269000   0.83413525   -7.7384704    66.261526  0.020527115  0.021032162            1 
  270000   0.86316757   -7.7419764    66.252345  0.020448255  0.020972033            1 
  271000   0.83763236   -7.7502762    66.038084  0.020306914  0.020911772            2 
  272000    0.8176089   -7.7847715    66.313935  0.020316769  0.020850707            2 
  273000    0.8535117   -7.7597071    66.367286  0.020258634  0.020790242            3 
  274000   0.80542116   -7.7368805    66.478314  0.020218465  0.020730032            3 
  275000    0.8150067   -7.8242908    66.653516  0.020198035  0.020669912            2 
  276000   0.82191952   -7.8133643    66.633844  0.020118914  0.020609724            1 
  277000   0.84101687   -7.7896477    66.736475  0.020077159  0.020549925            2 
  278000   0.83631545   -7.7522802    67.047598  0.020098201  0.020490961            4 
  279000   0.82859538   -7.7911061    66.958605  0.019999583  0.020431674            3 
  280000   0.81189042   -7.7492094    66.965088  0.019930086  0.020372547            3 
  281000   0.82212046   -7.7759918    67.199684  0.019928732  0.020313879            3 
  282000   0.81438961   -7.8031336    67.343611  0.019900594  0.020255501            2 
  283000   0.82349784    -7.788709    67.260437  0.019805782   0.02019753            3 
  284000    0.8188404   -7.7949327     67.55055  0.019821171  0.020140083            1 
  285000   0.81443538   -7.7955013    67.819396  0.019830233  0.020083291            4 
  286000   0.81614035   -7.7926793    67.784333   0.01975068  0.020027037            2 
  287000   0.79690054   -7.8204539    67.693804  0.019655576  0.019970192            4 
  288000   0.79981628   -7.8045277    67.819847  0.019623798  0.019913402            1 
  289000   0.79255686    -7.793284    67.968266  0.019598693  0.019857378            3 
  290000   0.81562408    -7.840001    68.040164  0.019551771  0.019801387            1 
  291000    0.8009618   -7.8662429    67.960082   0.01946165  0.019745685            4 
  292000   0.79941921   -7.8245377    68.298189  0.019491492  0.019690131            1 
  293000   0.79057715   -7.8271675    68.379586  0.019448119  0.019634853            2 
  294000   0.78813255   -7.8130404    68.152103   0.01931749   0.01957931            3 
  295000   0.79575349   -7.8287178    68.434731  0.019331845  0.019524156            6 
  296000   0.80412917   -7.8383816    68.482845   0.01928008  0.019469707            2 
  297000    0.8040741   -7.8373636    68.510614  0.019222956  0.019414976            3 
  298000   0.78533512   -7.8307611    68.641222  0.019194973  0.019360326            2 
  299000    0.7995729   -7.8244665    68.778772  0.019169111  0.019305942            2 
  300000   0.79365626     -7.85551    68.650375  0.019069549  0.019252155            4 
  301000   0.78532328   -7.8861251     68.72918  0.019028012    0.0191978            4 
  302000   0.77824165   -7.8818509    68.799523  0.018984416  0.019143364            1 
  303000   0.77765232   -7.8747179     68.81534  0.018926111  0.019088831            5 
  304000   0.77091265    -7.846393    68.903514  0.018888025  0.019034346            3 
  305000   0.78902198   -7.8400094    68.869432  0.018816785   0.01898033            4 
  306000   0.78003928   -7.8578101     69.10304  0.018818911  0.018926322            6 
  307000   0.78682694   -7.8850873    69.102989  0.018757597  0.018872282            9 
  308000   0.78435426   -7.8915339    69.060747  0.018685267  0.018818029            2 
  309000   0.76098406   -7.8888376    68.988623  0.018605346  0.018763743            3 
  310000   0.76329529   -7.8867096    69.217416  0.018606832  0.018709234            2 
  311000   0.77637426   -7.9045387    69.023043   0.01849492  0.018655431            3 
  312000   0.77756335   -7.9092055     69.25992   0.01849891  0.018601561            2 
  313000   0.77848432   -7.9061381    69.429595  0.018484983   0.01854792            2 
  314000   0.77127674   -7.9047948    69.333009   0.01840048  0.018494048            2 
  315000    0.7585148   -7.8941148    69.316926  0.018337811  0.018440486            2 
  316000   0.75859299   -7.9207789    69.551532  0.018341649  0.018387208            3 
  317000   0.76228389   -7.9212411    69.682412  0.018318194  0.018334432            3 
  318000   0.75568225   -7.9039641    69.851439  0.018304884  0.018281883            4 
  319000   0.76203663   -7.9239388    69.650609  0.018195039  0.018229136            2 
  320000   0.73909555     -7.94687    69.584232  0.018120894  0.018175905            1 
  321000   0.77093811   -7.9261167    69.707369  0.018096409  0.018123018            2 
  322000   0.75670412   -7.9142203    69.741052  0.018048926  0.018070242            4 
  323000   0.74662081   -7.9294045    69.927815  0.018041232   0.01801777            3 
  324000   0.75233233    -7.925426    69.971971  0.017996906  0.017965379            3 
  325000   0.75024886   -7.9648848    69.885635  0.017919393  0.017912863            5 
  326000     0.740948   -7.9480406    69.965513  0.017884845  0.017860324            2 
  327000    0.7424347   -7.9896648    69.973954  0.017832302  0.017808024            3 
  328000   0.75914547   -7.9509944    69.749934   0.01772102  0.017755454            3 
  329000   0.75933275   -7.9658702    69.716923  0.017658795  0.017702337            3 
  330000   0.74508843   -7.9620378    69.706282  0.017602597   0.01764917            3 
  331000   0.73487635   -7.9910659    69.795262  0.017571818  0.017595604            3 
  332000   0.75199769   -7.9837426    69.830521  0.017527741  0.017542136            2 
  333000   0.73893261   -7.9608312    69.844528  0.017478611  0.017488649            6 
  334000   0.72164521   -8.0068799    69.759584  0.017405086  0.017435486            4 
  335000   0.73750835   -7.9774092    69.778088  0.017357733  0.017382178            2 
  336000   0.75045047   -7.9895659    69.871714  0.017329294  0.017329363            5 
  337000   0.72522649   -8.0073885    69.913816  0.017288283   0.01727636            2 
  338000   0.70316337   -8.0104795    70.027413  0.017265141  0.017223804            5 
  339000   0.72461608   -7.9905433    69.981855  0.017203013  0.017170841            2 
  340000   0.71855665   -8.0056539     69.80657  0.017109453   0.01711802            4 
  341000   0.72609356   -8.0131396    69.979862  0.017101628  0.017065255            5 
  342000   0.70605083   -8.0128666    69.896887  0.017031405  0.017012725            2 
  343000   0.72028736   -8.0005581    69.813505  0.016961493  0.016960388            2 
  344000   0.71873025   -7.9928797    69.930767  0.016940593  0.016907917            1 
  345000   0.71792996   -8.0279139     69.97574  0.016902353  0.016855352            2 
  346000   0.71124028   -8.0349859    69.929478   0.01684236  0.016802935            3 
  347000   0.71265044   -8.0491849    69.921197  0.016791834  0.016750658            1 
  348000   0.71010008   -8.0460357    70.004632  0.016763561  0.016698488            1 
  349000   0.71259127   -8.0697595    69.930984  0.016697943  0.016646512            1 
  350000   0.69757493   -8.0835728    70.024004  0.016672382  0.016594587            4 
  351000   0.70699449   -8.0347666    70.189468  0.016664166  0.016542772            2 
  352000   0.70968536   -8.0829222    70.017647  0.016576147  0.016491431            3 
  353000   0.69579449   -8.0787524    70.055842  0.016538206  0.016439918            4 
  354000   0.71237114   -8.0548177     70.15461  0.016514739  0.016388747            5 
  355000   0.68637025   -8.0618678    70.024729   0.01643773  0.016337727            3 
  356000   0.67823995   -8.0772259    69.982762  0.016381733  0.016286306            4 
  357000    0.7020687    -8.093629    70.177791   0.01638137   0.01623511            4 
  358000   0.67980546   -8.1017099    70.149858   0.01632911    0.0161841            2 
  359000   0.67382935    -8.089666    70.035293  0.016257032  0.016132936            3 
  360000    0.7032152   -8.0834076    69.977177  0.016198421  0.016082094            2 
  361000   0.68468842   -8.1237079    70.094866  0.016180717  0.016031149            3 
  362000   0.69387484   -8.1255212    70.180867  0.016155817  0.015980229            2 
  363000   0.67817682   -8.1100099    70.088478  0.016090101  0.015929356            3 
  364000   0.68986028   -8.0961507    69.991078  0.016023598    0.0158785            4 
  365000   0.69431909   -8.1187867    70.032073  0.015989058  0.015827798            2 
  366000   0.68260838   -8.1110181    70.085122   0.01595745  0.015777313            3 
  367000   0.68223488   -8.1536053    69.918409  0.015876115   0.01572648            2 
  368000   0.70537345   -8.1279736    70.049419   0.01586264  0.015675969            3 
  369000   0.68123105   -8.1298393    69.960613  0.015799596  0.015625684            3 
  370000   0.67635661   -8.1437718    70.044514  0.015775791   0.01557538            2 
  371000   0.66752475   -8.1257943    70.070019  0.015738998  0.015525236            2 
  372000   0.66299494   -8.1580829    69.951077  0.015670044  0.015475098            3 
  373000   0.67043948   -8.1476929    69.922306  0.015621606  0.015425023            1 
  374000   0.66518892   -8.1411879     70.02396  0.015602487  0.015375162            1 
  375000   0.67211154   -8.1663949    70.041308  0.015564735  0.015325273            4 
  376000   0.65797482   -8.1584435    70.023311  0.015519351   0.01527572            4 
  377000   0.66415403    -8.159538    70.021805  0.015477852  0.015226238            2 
  378000   0.66779891   -8.1572767    70.051373  0.015443424  0.015177125            2 
  379000   0.66145393   -8.1583658    70.062632  0.015405152  0.015128322            2 
  380000   0.65643705   -8.1748471    70.153967  0.015384642  0.015079652            1 
  381000   0.64575621   -8.1892361    70.116968   0.01533617   0.01503104            4 
  382000   0.63957628   -8.1771517    70.109148  0.015294317  0.014982665            2 
  383000   0.64752184   -8.1876065    70.188396  0.015271627  0.014934439            1 
  384000   0.66467481   -8.2121147    70.193867  0.015233044  0.014886501            2 
  385000   0.65894961   -8.1951276    70.227046  0.015200659   0.01483842            2 
  386000   0.64148628   -8.2167579    70.109808  0.015135969  0.014790626            2 
  387000   0.63905925   -8.1853503    70.342544  0.015146973  0.014743094            1 
  388000   0.65442813   -8.2338807    70.093085  0.015054357  0.014695425            2 
  389000    0.6523129    -8.196181    70.155872  0.015029107  0.014648082            3 
  390000   0.62888844   -8.2025099    70.127077  0.014984418  0.014600843            3 
  391000   0.65958963    -8.235819    70.074159  0.014934816  0.014553734            2 
  392000    0.6383965    -8.236289    70.103879  0.014903035   0.01450669            4 
  393000   0.63640281    -8.210514    70.079867  0.014860023  0.014459647            7 
  394000   0.64368067   -8.2174173    70.054657  0.014816975  0.014412839            2 
  395000   0.63866787   -8.2115591    70.007109  0.014769432  0.014366198            3 
  396000   0.62712674   -8.2271585    70.178645  0.014768233  0.014319726            5 
  397000   0.63285622   -8.2178168    70.181651  0.014731665  0.014273412            2 
  398000   0.62974399   -8.2450834    70.036822  0.014664326  0.014227032            3 
  399000   0.64061664   -8.2587221    70.002071  0.014620316  0.014180676            2 
  400000    0.6409994     -8.24906    70.034407  0.014590501  0.014134425            6 
  401000   0.61720939   -8.2529017    70.019872  0.014551095    0.0140883            2 
  402000   0.63451229   -8.2461543    70.005445  0.014511908  0.014042361            2 
  403000   0.60688206   -8.2689637    70.200609  0.014516255  0.013996712            4 
  404000   0.61123466   -8.2620595    70.020335  0.014443138  0.013951179            4 
  405000   0.61051214   -8.2801067    70.151951  0.014434558  0.013905654            2 
  406000   0.61722863   -8.2701278    70.054387  0.014378979  0.013860331            2 
  407000    0.6212824   -8.2723768    70.175922  0.014368534  0.013815353            3 
  408000   0.62105225    -8.266015    70.054701  0.014308558  0.013770373            3 
  409000   0.60324018   -8.2927276    69.979275  0.014258206  0.013725524            3 
  410000   0.60514292   -8.2813329    69.984013  0.014224393  0.013680903            6 
  411000   0.60409308   -8.2846399    70.002143   0.01419346  0.013636258            5 
  412000   0.61630172   -8.2572828    69.975317  0.014153584   0.01359174            4 
  413000   0.60792975   -8.2785675    69.933876  0.014110952  0.013547428            3 
  414000     0.617204   -8.2825274    69.943413  0.014078787  0.013503115            3 
  415000   0.60067457   -8.3114861    69.932489  0.014042669  0.013458898            2 
  416000   0.60735633   -8.2857571    69.978172  0.014018063  0.013414874            2 
  417000   0.60819585   -8.2904091     69.85568  0.013959968  0.013370879            3 
  418000   0.60868145   -8.3153779    69.906402  0.013936683  0.013327035            4 
  419000   0.60298124   -8.3184378    69.955268   0.01391314  0.013283325            5 
  420000   0.58878016   -8.3159848    69.819303  0.013853036  0.013239722            7 
  421000   0.59912776   -8.3146282    69.865186  0.013829213  0.013196298            2 
  422000   0.60311995   -8.3172745    69.925863  0.013808425   0.01315307            5 
  423000   0.58281664    -8.310403    69.785985  0.013748224   0.01310985            4 
  424000    0.5922022   -8.3283819    69.934935  0.013745074  0.013066822            7 
  425000   0.58669374   -8.3236199    69.744656  0.013675423  0.013023951            3 
  426000   0.58130413   -8.3300477    69.857689  0.013665432  0.012981108            4 
  427000   0.57658928   -8.3187143    69.843292  0.013630619  0.012938419            9 
  428000   0.58823791   -8.3440836    69.864809  0.013602961   0.01289589            7 
  429000   0.58123213   -8.3356599    69.808894  0.013560391  0.012853445            4 
  430000   0.58125033   -8.3519889    69.801888  0.013527498  0.012811304            3 
  431000   0.57767479   -8.3299478     69.89631  0.013514368  0.012769346            4 
  432000   0.58484975   -8.3662357    69.850446  0.013474237  0.012727481            9 
  433000   0.56634941   -8.3650539    69.685269   0.01341133  0.012685733            2 
  434000   0.56934718   -8.3428437     69.90324  0.013422281  0.012644051            5 
  435000   0.57933105   -8.3761622    69.760671  0.013364113  0.012602552            2 
  436000   0.56413181   -8.3548887     69.66447  0.013315074  0.012561184            5 
  437000   0.56680307   -8.3649135    69.738291  0.013298683  0.012519992            7 
  438000   0.56407903   -8.3803961    69.751298  0.013270795  0.012478886            5 
  439000   0.56408165   -8.3880151    69.663335  0.013223868    0.0124379            4 
  440000   0.57246961   -8.3869863    69.674265  0.013195883  0.012397032            7 
  441000   0.56887905   -8.3847309    69.739739  0.013178333  0.012356428            5 
  442000   0.55393089    -8.390733    69.748567  0.013150182  0.012315929            4 
  443000   0.55319673   -8.3994617    69.646193   0.01310124  0.012275518            3 
  444000   0.57378062   -8.3786692    69.612749  0.013065456  0.012235353            8 
  445000   0.56537173   -8.4019773    69.575178   0.01302906  0.012195281            5 
  446000   0.56340795   -8.4127604    69.572679  0.012999379  0.012155325            6 
  447000   0.54952206    -8.389522    69.763543  0.013005881  0.012115511            9 
  448000   0.55439652   -8.4001632    69.639173  0.012953715   0.01207595            5 
  449000   0.55173747   -8.3956178    69.637216  0.012924502   0.01203655           10 
  450000   0.54385313   -8.3813697    69.707575   0.01290881  0.011997264            7 
  451000   0.54895361   -8.4316646    69.723593  0.012883147  0.011958115            8 
  452000   0.56017295   -8.4191104    69.667072  0.012844224  0.011919053            3 
  453000   0.53595059   -8.4085338    69.712462   0.01282422  0.011880189            5 
  454000   0.53126416   -8.4101264    69.619505  0.012778911  0.011841488            9 
  455000   0.55369999   -8.4283033      69.5937  0.012746099  0.011802948            5 
  456000   0.53325802   -8.4141925    69.785697  0.012753234  0.011764527            5 
  457000   0.53626127   -8.4131463    69.516817  0.012676298  0.011726265            5 
  458000   0.52895762   -8.4036395    69.699931  0.012681938  0.011688078            2 
  459000   0.53496156   -8.4153419    69.647763  0.012644837  0.011650154            2 
  460000   0.54194264   -8.4176225    69.695561  0.012626007  0.011612476            3 
  461000   0.53051583   -8.4341787    69.658229  0.012591871  0.011574809            2 
  462000   0.53782571   -8.4344215    69.553571  0.012545738  0.011537314            6 
  463000   0.52158541   -8.4395565    69.533113  0.012514959  0.011499967            3 
  464000   0.52843476   -8.4476287     69.65415  0.012509725  0.011462742            3 
  465000    0.5383128   -8.4401939    69.522123  0.012459162  0.011425689            3 
  466000   0.53472085   -8.4372221     69.48251  0.012425342  0.011388754            4 
  467000   0.52466069     -8.45375    69.598777  0.012419482  0.011352003            3 
  468000    0.5180545   -8.4827141    69.565271  0.012386978  0.011315311            3 
  469000   0.51567783    -8.449558    69.480679  0.012345536  0.011278815            2 
  470000   0.51783514   -8.4541305    69.544221  0.012330536    0.0112424            2 
  471000   0.51402093   -8.4840794    69.446534  0.012287072  0.011206144            2 
  472000   0.51136873   -8.4587767    69.576549  0.012283995  0.011170032            3 
  473000   0.51923541   -8.4751514    69.442289  0.012234371  0.011134027            1 
  474000   0.51420777   -8.4527762    69.515534  0.012221437  0.011098179            3 
  475000   0.51765576   -8.4783194    69.457164  0.012185467  0.011062502            3 
  476000   0.50257445   -8.4836398    69.626472  0.012189508  0.011026934            2 
  477000   0.50863403   -8.4779966    69.552185  0.012150976  0.010991585            3 
  478000   0.50872412   -8.4739893    69.616379  0.012136747  0.010956372            1 
  479000     0.503467    -8.464469    69.525884  0.012095665  0.010921297            3 
  480000   0.50165354   -8.4835877    69.521481  0.012069702  0.010886325            2 
  481000   0.50024875   -8.4743429    69.573967  0.012053702  0.010851529            3 
  482000   0.50113557   -8.4813232    69.524712  0.012020178   0.01081685            2 
  483000   0.49599361   -8.4960414    69.492029  0.011989653  0.010782308            1 
  484000   0.49745901   -8.4880143    69.586538  0.011981153  0.010747921            3 
  485000   0.50018958   -8.4992537    69.590653  0.011957157  0.010713631            2 
  486000   0.48157948   -8.5004465    69.494107  0.011915999   0.01067948            3 
  487000   0.48986069   -8.4941805    69.511378  0.011894486  0.010645444            1 
  488000   0.49052363    -8.500902    69.420436  0.011854583  0.010611528            3 
  489000   0.47774576   -8.5249728    69.399398  0.011826755  0.010577771            3 
  490000   0.49365706   -8.5087893    69.513053  0.011821948   0.01054407            2 
  491000   0.48408973   -8.5140864     69.46824  0.011790265  0.010510527            2 
  492000   0.48379403   -8.5137187    69.376052  0.011750686  0.010477144            1 
  493000   0.48041865   -8.5275655      69.4136  0.011733198  0.010443852            3 
  494000   0.47413405   -8.5432409     69.33128   0.01169556  0.010410656            2 
  495000   0.48289337   -8.5268291    69.432077  0.011688902  0.010377594            3 
  496000   0.47635557    -8.528797    69.368831  0.011654709  0.010344713            2 
  497000   0.46988025   -8.5417472     69.30661  0.011620827  0.010311879            2 
  498000   0.46784549   -8.5206292     69.39522  0.011612319    0.0102792            2 
  499000   0.47931377   -8.5182101    69.480109  0.011603225    0.0102467            2 
  500000   0.47675564   -8.5586096    69.361726  0.011560288  0.010214292            2 
  501000   0.46435892   -8.5370857    69.307215  0.011528146  0.010182007            3 
  502000   0.46326466   -8.5573738     69.35854  0.011513702  0.010149857            1 
  503000   0.46248753   -8.5648301     69.33739  0.011487308  0.010117793            3 
  504000   0.45149446   -8.5575542      69.3473  0.011466154  0.010085841            1 
  505000   0.46039332   -8.5530429    69.257498   0.01142863  0.010053991            2 
  506000   0.46179971   -8.5443624    69.404321  0.011430224   0.01002228            1 
  507000    0.4611193   -8.5464512    69.212064  0.011376079 0.0099906994            3 
  508000   0.45069418   -8.5531836    69.321258  0.011371597 0.0099592441            3 
  509000   0.45129117   -8.5575348    69.311642  0.011347682 0.0099279361            4 
  510000   0.44615025   -8.5646787    69.336808  0.011329544 0.0098967349            5 
  511000   0.46372497   -8.5687214    69.236072  0.011290945 0.0098656315            2 
  512000   0.45567329   -8.5768919     69.34176  0.011286094  0.009834659            3 
Loop time of 1186.56 on 48 procs for 500000 steps with 4000 atoms

Performance: 72815.810 tau/day, 421.388 timesteps/s
99.4% CPU use with 48 MPI tasks x no OpenMP threads

MPI task timing breakdown:
Section |  min time  |  avg time  |  max time  |%varavg| %total
---------------------------------------------------------------
Pair    | 73.093     | 78.955     | 85.024     |  36.7 |  6.65
Neigh   | 7.6731     | 8.1002     | 8.6112     |   8.1 |  0.68
Comm    | 73.059     | 81.743     | 89.206     |  43.5 |  6.89
Output  | 0.88864    | 0.88913    | 0.89914    |   0.2 |  0.07
Modify  | 1001.4     | 1005.9     | 1010.7     |   5.9 | 84.78
Other   |            | 10.95      |            |       |  0.92

Nlocal:        83.3333 ave          90 max          77 min
Histogram: 3 3 6 9 6 2 9 4 3 3
Nghost:        2029.10 ave        2051 max        2003 min
Histogram: 1 1 3 7 7 8 10 8 2 1
Neighs:        13111.2 ave       14825 max       11603 min
Histogram: 3 5 4 7 6 10 5 3 3 2
FullNghs:      26221.7 ave       28497 max       23898 min
Histogram: 2 2 7 8 4 7 6 5 4 3

Total # of neighbors = 1258641
Ave neighs/atom = 314.66025
Neighbor list builds = 26804
Dangerous builds = 0

#clear
#
#next RN
#
#jump SELF
Total wall time: 0:19:49
