
units lj                  # Use reduced LJ style units
atom_style atomic         # Uncharged point particles
atom_modify map hash      # Needed for indexing of clusters etc
                          # Used to be able to find where atoms are in relation to each other.

lattice fcc 1.0 spacing 1 1 1
Lattice spacing in x,y,z = 1.5874011 1.5874011 1.5874011
region box block 0 10 0 10 0 10 units lattice
create_box 2 box
Created orthogonal box = (0.0000000 0.0000000 0.0000000) to (15.874011 15.874011 15.874011)
  3 by 4 by 4 MPI processor grid
create_atoms 1 box
Created 4000 atoms
  using lattice units in orthogonal box = (0.0000000 0.0000000 0.0000000) to (15.874011 15.874011 15.874011)
  create_atoms CPU = 0.025 seconds
set type 1 type/fraction 2 0.03 78393
Setting atom values ...
  125 settings made for type/fraction
mass 1 1.0
mass 2 1.0
pair_style lj/cut  3.5
pair_modify tail  yes
pair_coeff 1  1  1.0  1.0   # Intearaction between 1 and 1 set with epsilon = 1 and sigma = 1
pair_coeff 1  2  1.5  0.8
pair_coeff 2  2  0.5  0.88

write_data data.0
System init for write_data ...
Neighbor list info ...
  update every 1 steps, delay 10 steps, check yes
  max neighbors/atom: 2000, page size: 100000
  master list distance cutoff = 3.8
  ghost atom cutoff = 3.8
  binsize = 1.9, bins = 9 9 9
  1 neighbor lists, perpetual/occasional/extra = 1 0 0
  (1) pair lj/cut, perpetual
      attributes: half, newton on
      pair build: half/bin/atomonly/newton
      stencil: half/bin/3d
      bin: standard
WARNING: Not all mixed pair coeffs generated from mixing. Use write_data with 'pair ij' option to store all pair coeffs. (../write_data.cpp:312)


#############################
#   M E L T   S Y S T E M   #
#############################

velocity all create 2.4 9622624 mom yes dist gaussian # Assign velocities
                                                    # Temperature 2.4, random number seed, zero linear momentum
                                                                                # Gaussian distribution

timestep 0.002   # simulation timestep
thermo 1000       # output thermodynamic data every 1000 steps bf 100

# Define a fix  in this case with index 1 applied to all
# particles in the simulation. This fix is for simulations
# in the anisotropic NPT ensemble. Note that we use the MTK
# correction.
fix 1 all npt temp 2.4 2.4 0.1 iso 5.68 5.68 0.5 mtk yes tchain 5 pchain 5 # Use NPT ensemble
                                                                         # Set temperature and pressure and damping
                                                                         # Numbers of thermostats in chain and in barostat
run 10000          # run for 10000 steps
Per MPI rank memory allocation (min/avg/max) = 3.642 | 3.644 | 3.648 Mbytes
Step Temp E_pair E_mol TotEng Press Volume 
       0          2.4    -8.178823            0    -4.579723   -2.4950487         4000 
    1000    2.3949901   -4.4890585            0  -0.89747143    5.6077764    5088.2978 
    2000    2.3953936   -4.4596588            0   -0.8674666    5.5680122    5118.2075 
    3000    2.4257576   -4.4349863            0  -0.79725956    5.7396258    5107.1552 
    4000    2.4644577   -4.3996522            0  -0.70388979    5.6345656    5136.7926 
    5000    2.4260669   -4.4618563            0  -0.82366577     5.870833    5069.9669 
    6000    2.4172848   -4.4402455            0  -0.81522482    5.5416018    5133.4598 
    7000    2.4401635   -4.4180669            0  -0.75873676    5.8291289    5100.7065 
    8000     2.399778   -4.4632194            0  -0.86445234    5.2724371    5157.0473 
    9000    2.3540873   -4.4269216            0  -0.89667336      5.82904    5101.5491 
   10000    2.4203761   -4.4535383            0   -0.8238817    5.5948125    5120.8649 
Loop time of 2.0451 on 48 procs for 10000 steps with 4000 atoms

Performance: 844944.959 tau/day, 4889.728 timesteps/s
99.6% CPU use with 48 MPI tasks x no OpenMP threads

MPI task timing breakdown:
Section |  min time  |  avg time  |  max time  |%varavg| %total
---------------------------------------------------------------
Pair    | 0.8573     | 0.91509    | 1.0135     |   3.3 | 44.75
Neigh   | 0.16641    | 0.17428    | 0.19506    |   1.2 |  8.52
Comm    | 0.6023     | 0.71332    | 0.78688    |   5.1 | 34.88
Output  | 0.00024132 | 0.00024512 | 0.00030053 |   0.0 |  0.01
Modify  | 0.19658    | 0.22805    | 0.26933    |   4.1 | 11.15
Other   |            | 0.01411    |            |       |  0.69

Nlocal:        83.3333 ave          94 max          71 min
Histogram: 1 2 3 7 7 8 11 4 3 2
Nghost:        1397.92 ave        1434 max        1378 min
Histogram: 3 7 11 9 7 6 4 0 0 1
Neighs:        7439.04 ave        8511 max        6350 min
Histogram: 2 6 2 6 10 6 5 5 2 4

Total # of neighbors = 357074
Ave neighs/atom = 89.268500
Neighbor list builds = 906
Dangerous builds = 209

# Equilibrate just above the melting temperature to avoid step fn in T

fix 1 all npt temp 1.25 1.25 0.1 iso 5.68 5.68 0.5 mtk yes tchain 5 pchain 5
run 2000
Per MPI rank memory allocation (min/avg/max) = 3.643 | 3.645 | 3.648 Mbytes
Step Temp E_pair E_mol TotEng Press Volume 
   10000    2.4203761   -4.4535383            0   -0.8238817    5.5948125    5120.8649 
   11000    1.2487218   -5.9183559            0   -4.0457415    5.6151477    4252.4212 
   12000     1.261754   -5.9676628            0   -4.0755049    5.7433942    4224.0688 
Loop time of 0.445462 on 48 procs for 2000 steps with 4000 atoms

Performance: 775823.946 tau/day, 4489.722 timesteps/s
99.6% CPU use with 48 MPI tasks x no OpenMP threads

MPI task timing breakdown:
Section |  min time  |  avg time  |  max time  |%varavg| %total
---------------------------------------------------------------
Pair    | 0.19179    | 0.2096     | 0.22792    |   1.6 | 47.05
Neigh   | 0.030465   | 0.032085   | 0.035038   |   0.5 |  7.20
Comm    | 0.13173    | 0.15265    | 0.17414    |   2.3 | 34.27
Output  | 5.0803e-05 | 5.2029e-05 | 6.2659e-05 |   0.0 |  0.01
Modify  | 0.040525   | 0.046699   | 0.054378   |   1.5 | 10.48
Other   |            | 0.004377   |            |       |  0.98

Nlocal:        83.3333 ave          92 max          78 min
Histogram: 7 5 9 7 3 6 5 5 0 1
Nghost:        1581.15 ave        1611 max        1557 min
Histogram: 1 6 7 9 5 6 8 4 0 2
Neighs:        9016.50 ave       10292 max        8375 min
Histogram: 7 10 7 6 6 5 5 1 0 1

Total # of neighbors = 432792
Ave neighs/atom = 108.19800
Neighbor list builds = 143
Dangerous builds = 7

#############################
# L I N E A R  Q U E N C H  #
#############################

# Define solid atoms. This closely follows ten Wolde  Ruiz-Montero and Frenkel  Faraday Discuss  1996  104  93-110
# Compute components of the per-atom q6 vector
compute q6 all orientorder/atom degrees 1 6 components 6 nnn NULL cutoff 1.3 # compute the Q6 parameter.
                                                                             # Use all neighbours within 1.3 unit cell.

# get number of connections
compute coord_number all coord/atom orientorder q6 0.5

# An atom is solid if it has 8 or more connections (of a possible 14)
variable is_solid atom c_coord_number>=8
group solid dynamic all var is_solid    # Must be dynamic to update
dynamic group solid defined

# do clustering
compute cluster solid cluster/atom 1.3 # Create a cluster where all atoms within are solid and max 1.3 units from another member

# define chunks one chunk per cluster
compute clus_chunks solid chunk/atom c_cluster nchunk every compress yes  # Says which atoms are in which chunk

# count the size of each chunk
compute size_chunks solid property/chunk clus_chunks count


# Find the maximum entry in the vector of chunk sizes
variable max_n equal max(c_size_chunks)


# Thermo style which includes this variable
# thermo_style custom step temp pe vol v_max_n

thermo ${N}  # Print the thermo information every 100 steps
thermo 1000  

# Reset the npt fix at a lower temperature (below freezing)
fix 1  all npt temp  ${temp} ${temp}  0.1  iso  5.68  5.68  0.5  mtk yes tchain  5  pchain  5
fix 1  all npt temp  0.45 ${temp}  0.1  iso  5.68  5.68  0.5  mtk yes tchain  5  pchain  5
fix 1  all npt temp  0.45 0.45  0.1  iso  5.68  5.68  0.5  mtk yes tchain  5  pchain  5

dump dmp2 all dcd ${N} traj.dcd
dump dmp2 all dcd 1000 traj.dcd


compute msd all msd com yes
variable twopoint equal c_msd[4]/6/(step*dt+1.0e-6)
fix 9 all vector 10 c_msd[4]
variable fit equal slope(f_9)/6/(10*dt)
thermo_style custom step temp pe c_msd[4] v_twopoint v_fit v_max_n

fix 1 all npt temp 1.25 ${temp} 0.1 iso 5.68 5.68 0.5 mtk yes tchain 5 pchain 5
fix 1 all npt temp 1.25 0.45 0.1 iso 5.68 5.68 0.5 mtk yes tchain 5 pchain 5
run 2000000 # 5000000  # Run for this many steps
Neighbor list info ...
  update every 1 steps, delay 10 steps, check yes
  max neighbors/atom: 2000, page size: 100000
  master list distance cutoff = 3.8
  ghost atom cutoff = 3.8
  binsize = 1.9, bins = 9 9 9
  4 neighbor lists, perpetual/occasional/extra = 1 3 0
  (1) pair lj/cut, perpetual
      attributes: half, newton on
      pair build: half/bin/atomonly/newton
      stencil: half/bin/3d
      bin: standard
  (2) compute orientorder/atom, occasional
      attributes: full, newton on
      pair build: full/bin/atomonly
      stencil: full/bin/3d
      bin: standard
  (3) compute coord/atom, occasional
      attributes: full, newton on
      pair build: full/bin/atomonly
      stencil: full/bin/3d
      bin: standard
  (4) compute cluster/atom, occasional
      attributes: full, newton on
      pair build: full/bin/atomonly
      stencil: full/bin/3d
      bin: standard
Per MPI rank memory allocation (min/avg/max) = 9.731 | 9.739 | 9.744 Mbytes
Step Temp PotEng c_msd[4] v_twopoint v_fit v_max_n 
   12000     1.261754   -5.9676628            0            0 8.3333333e+20            3 
   13000    1.2739862   -5.9265357    0.5400404 0.0034617973  0.044440222            3 
   14000    1.2413791   -5.9804573    1.0975021 0.0065327505  0.044493338            4 
   15000    1.2799507   -5.9638902    1.6929872  0.009405484  0.046762962            3 
   16000    1.2372773   -5.9272638    2.2646346  0.011794971  0.047698447            2 
   17000    1.2428962   -5.9305307    2.8120671  0.013784642  0.047431534            4 
   18000    1.2345163   -5.9497738    3.3086341   0.01531775  0.046609199            5 
   19000    1.2713908   -5.9633822    3.8883062  0.017053974  0.046146709            3 
   20000    1.2735765   -5.9854311    4.4721396  0.018633915  0.046358817            1 
   21000    1.2576196   -6.0306427    4.9716893  0.019728925  0.046404824            3 
   22000    1.2353396   -5.9504874    5.5470058  0.021011385  0.046299017            2 
   23000    1.2617677   -5.9615803    6.1840542  0.022405993  0.046386695            2 
   24000     1.244373   -5.9424706    6.7628554  0.023482136  0.046760607            2 
   25000    1.2691489   -5.9492011    7.3199436  0.024399812  0.046895668            2 
   26000    1.2366865   -5.9983907    7.8766536  0.025245684  0.046890383            3 
   27000    1.2718015   -5.9641266    8.4981161  0.026228753  0.047006074            4 
   28000    1.2293942   -5.9564389    9.0999795  0.027083272  0.047145715            4 
   29000    1.2355168   -5.9290812    9.5952235  0.027572481  0.047174558            4 
   30000     1.258381   -5.9935932    10.141505  0.028170847  0.047180131            2 
   31000    1.2433981   -5.9537693    10.608126  0.028516466  0.047096619            2 
   32000    1.2297825   -5.9709383    11.123086   0.02896637  0.046941137            2 
   33000      1.24697   -5.9548316    11.590072  0.029267858  0.046762176            1 
   34000    1.2490919   -5.9585612    12.226534  0.029966995  0.046627299            3 
   35000    1.2485771   -5.9865206    12.872354  0.030648463  0.046557501            3 
   36000    1.2330469   -5.9441399    13.459472  0.031156185  0.046588094            2 
   37000    1.2136792   -5.9645351    14.118392   0.03179818  0.046645687            3 
   38000    1.2222119   -5.9573979    14.624659   0.03207162  0.046728157            2 
   39000    1.2168772   -5.9486421    15.202609  0.032484207  0.046779944            2 
   40000     1.240106   -5.9305864    15.918109  0.033162726   0.04683969            2 
   41000    1.2530149   -5.9599228    16.486874  0.033509905   0.04694872            4 
   42000    1.2323645   -5.9660624    16.953135  0.033637172  0.047043111            4 
   43000     1.229608   -5.9796434    17.540282  0.033992795  0.047082163            5 
   44000    1.2410199   -6.0341067      18.1566    0.0343875  0.047116179            2 
   45000    1.2564446   -5.9395475    18.772158  0.034763255  0.047181182            3 
   46000    1.2365444   -5.9765587     19.19794  0.034778877  0.047236145            5 
   47000    1.2515423    -5.979621     19.73652   0.03499383  0.047221666            4 
   48000    1.2286788   -5.9699332    20.269464  0.035190042  0.047191951            3 
   49000    1.2593841   -5.9848326    20.879787  0.035509842  0.047191709            3 
   50000    1.2257552   -5.9564181    21.596558  0.035994263   0.04722597            1 
   51000    1.2092984   -5.9707555    22.163994  0.036215677  0.047267646            2 
   52000    1.2790789   -5.9476092    22.694229  0.036368957  0.047288788            4 
   53000    1.2488562   -5.9493728    23.184278  0.036453267  0.047296572            3 
   54000    1.2254547    -6.009554    23.663468  0.036517697  0.047274963            3 
   55000    1.2750793   -5.9749445    24.286183  0.036797247  0.047245356            2 
   56000    1.2258651   -6.0112719    24.726519  0.036795415  0.047205823            2 
   57000    1.2603388   -5.9560241    25.376611  0.037100308  0.047177736            3 
   58000    1.2183676   -6.0120548    26.153302  0.037576583  0.047199255            4 
   59000    1.2115942    -5.997375    26.667975   0.03766663  0.047226501            2 
   60000    1.2148813   -5.9340047    26.998072  0.037497321  0.047224518            2 
   61000    1.2440662   -5.9945413    27.630437  0.037746498  0.047198626            2 
   62000    1.1994418   -5.9967542    28.202022  0.037905943  0.047182541            5 
   63000    1.2441921   -5.9744921    28.708866   0.03797469  0.047165182            2 
   64000    1.2317065   -5.9795283    29.157086  0.037964955  0.047125154            3 
   65000    1.2302791   -5.9934644    29.537031  0.037867989  0.047073657            2 
   66000    1.2241462   -5.9981003    30.003187  0.037882811  0.047018011            3 
   67000    1.2206548   -5.9730106    30.499832  0.037935114  0.046957955            3 
   68000    1.2253702    -5.949506    30.985164  0.037972015  0.046888764            6 
   69000    1.2183646   -5.9799434     31.58339   0.03814419  0.046804666            4 
   70000    1.2477935   -5.9351073    32.030831  0.038131941  0.046727704            2 
   71000    1.2066276   -5.9748465     32.60134  0.038264483  0.046648401            2 
   72000    1.2252058   -5.9715443    33.021916   0.03821981   0.04657438            1 
   73000    1.2191554   -5.9922819    33.512721  0.038256531  0.046490227            7 
   74000    1.2503428   -5.9961445    33.903161  0.038179235  0.046396436            4 
   75000    1.2278376   -5.9977843     34.42602  0.038251133  0.046304382            6 
   76000    1.2210293   -6.0223283    34.940522  0.038311975  0.046211132            5 
   77000    1.2468814   -5.9782128    35.540385   0.03846362  0.046136649            6 
   78000    1.2078026   -5.9907629    35.825442  0.038275044  0.046051746            7 
   79000    1.2297154   -5.9944977    36.783016  0.038800649   0.04597501            5 
   80000    1.2317366   -5.9526857    37.279423  0.038832732  0.045920915            2 
   81000    1.1999948   -6.0109563    37.834595   0.03892448  0.045871413            5 
   82000    1.2129816   -5.9802185    38.423936  0.039048715  0.045829858            4 
   83000    1.2022836   -5.9954939    39.056066  0.039212917  0.045798705            3 
   84000    1.2127504   -5.9987909    39.690977  0.039375969  0.045776545            2 
   85000    1.2552107   -5.9764326    40.065931  0.039280324  0.045755563            3 
   86000    1.2452336   -6.0026815     40.52869  0.039271986  0.045711161            1 
   87000    1.2186118   -5.9989346    40.751792  0.039034283  0.045663882            3 
   88000    1.2423364   -5.9680768    41.197297  0.039012592  0.045600562            4 
   89000    1.2165306   -5.9782122    41.598457  0.038949866  0.045526938            5 
   90000    1.1949797   -5.9993353      41.8546  0.038754259  0.045443465            4 
   91000    1.2268377   -6.0090108    42.265754  0.038704903  0.045354958            3 
   92000    1.1829888   -6.0602653    42.667493  0.038648091  0.045262926            4 
   93000    1.2437167   -5.9931379    43.412236  0.038899853  0.045186441            2 
   94000    1.2289039   -6.0015327    44.063501  0.039063387  0.045122738            4 
   95000    1.2200108   -6.0265608    44.734997  0.039241225  0.045067184            4 
   96000    1.2335124   -5.9996006    45.078726  0.039130838  0.045010564            2 
   97000    1.2114754   -5.9963174    45.500043  0.039089384  0.044941861            2 
   98000    1.2095214   -5.9988047    46.116443  0.039214662  0.044876141            1 
   99000     1.198314   -5.9767358    46.763308  0.039363054  0.044819969            2 
  100000    1.1884707   -5.9936468    47.201822  0.039334852  0.044769786            2 
  101000    1.2370986   -6.0038638    47.470471  0.039167055  0.044710579            2 
  102000    1.2046655   -6.0292315    47.806644  0.039057715  0.044645263            6 
  103000    1.2163273   -6.0020147    48.330765   0.03910256  0.044581397            7 
  104000    1.2151128   -6.0161501    48.677113  0.039004096  0.044519137            7 
  105000    1.2019383   -6.0072952    49.135928  0.038996768  0.044459247            4 
  106000    1.2002148   -6.0277824      49.8491  0.039189544  0.044398781            2 
  107000    1.2194118   -6.0164841    50.444047  0.039286641  0.044344831            2 
  108000     1.236454   -5.9843372    51.012987  0.039361873  0.044293528           12 
  109000    1.2287428   -6.0167994    51.520366  0.039388659  0.044251857            2 
  110000    1.2157676   -6.0118575    52.114848  0.039480946   0.04421511            3 
  111000    1.2229639   -6.0103721    52.698471  0.039563417  0.044177441            4 
  112000     1.187708   -6.0206581    52.988977  0.039426322  0.044135791            3 
  113000    1.2191343   -6.0126003    53.539239  0.039483215  0.044096479            2 
  114000    1.2090209    -6.003793    53.910079  0.039407952  0.044059915            4 
  115000    1.2385933   -5.9988447    54.568835  0.039542634  0.044025597            2 
  116000    1.2054316   -6.0344925    55.265939  0.039702542  0.043993758            3 
  117000    1.1896297   -6.0054564    55.922154  0.039830594  0.043970517            2 
  118000     1.208853    -6.011559    56.384372  0.039819472  0.043947346            2 
  119000     1.200339   -6.0069156      56.8988  0.039845098  0.043923817            3 
  120000    1.2056344   -6.0055751    57.542543  0.039960099  0.043901043            4 
  121000    1.2261042   -6.0572961    57.889362  0.039868706  0.043883973            5 
  122000    1.2116547   -5.9902775    58.390152  0.039883983  0.043866369            3 
  123000     1.230636   -6.0005005    58.959854    0.0399457  0.043848501            3 
  124000    1.2232986   -5.9967085    59.555092  0.040023583    0.0438335            2 
  125000    1.1887405   -6.0449948    59.841344  0.039894229  0.043818044            3 
  126000    1.2146173   -5.9810486    60.702219   0.04014697  0.043798741            3 
  127000    1.1820589   -6.0312659    61.119689  0.040104783  0.043783812            2 
  128000    1.2010083   -6.0177283    61.533661  0.040060977  0.043768109            7 
  129000    1.1762851   -6.0559243    62.018628  0.040063713  0.043752573            3 
  130000    1.2025578   -6.0280545    62.743601  0.040220257  0.043744152            3 
  131000    1.2037126   -6.0579307    63.294464  0.040263654  0.043738165            2 
  132000    1.2063708    -6.039345    63.825857  0.040294102  0.043733628            3 
  133000     1.187586   -5.9898714     64.53366  0.040434624  0.043732068            4 
  134000    1.2382838   -6.0356028    64.839507  0.040323076    0.0437285            4 
  135000     1.218766    -6.073316    65.336895  0.040331416  0.043724096            3 
  136000    1.1815267   -6.0472468     65.52866  0.040152365  0.043714047            4 
  137000    1.1996297   -6.0855421    66.234117  0.040288392  0.043702782            3 
  138000    1.2102964   -6.0293299    66.523248  0.040171043  0.043688095            3 
  139000    1.2167674   -6.0299121    66.811763  0.040055014  0.043669844            5 
  140000    1.1804848   -6.0261413    67.129092  0.039957793  0.043648606            4 
  141000    1.1890123   -6.0388447    67.872749  0.040113918  0.043623126            3 
  142000    1.2041715   -6.0396196     68.45714  0.040174378  0.043601309            2 
  143000    1.1958083   -6.0390572    68.398135  0.039859053  0.043573235            3 
  144000    1.1720225   -6.0585189    68.851643  0.039844701  0.043543795           10 
  145000    1.1820403   -6.0314579    69.521596   0.03995494  0.043511494            2 
  146000    1.1951686   -6.0484789    69.799498  0.039839896  0.043480285            2 
  147000    1.1957002   -6.0329683     70.35917   0.03988615  0.043449506            3 
  148000    1.2209852   -6.0105022    70.619516  0.039763241  0.043416296            5 
  149000    1.1942706   -6.0806815    71.119499  0.039776006  0.043380177            2 
  150000    1.2276921   -6.0604926    71.414774  0.039674874  0.043341422            2 
  151000    1.1939172   -6.0186444    72.155141  0.039820718  0.043304494            3 
  152000    1.2116267   -6.0165068    72.596386   0.03980065  0.043269051            4 
  153000    1.1706366   -6.0763853    73.255045  0.039899262  0.043236456            5 
  154000    1.1750089   -6.0952513    73.738273  0.039901663   0.04320877            4 
  155000    1.2133703   -6.0575218    74.069612  0.039822372  0.043180527            2 
  156000      1.19134   -6.0157099    74.890617  0.040005671  0.043150349            6 
  157000    1.1847581   -6.0400047    75.209906  0.039920332  0.043121522            2 
  158000    1.2033223    -6.055597    75.569387  0.039857271  0.043090995            2 
  159000    1.2236604   -6.0355389    75.994637  0.039829474  0.043057507            3 
  160000    1.1981012    -6.045653    76.060503  0.039614845  0.043018509            2 
  161000    1.1997502   -6.0365591    76.507852  0.039600337   0.04297714            2 
  162000    1.1923689   -6.0590222    76.801383  0.039506884  0.042935793            3 
  163000    1.1784314   -6.0819962    77.253055  0.039495427  0.042894093            5 
  164000    1.1953968   -6.0397047    77.666419  0.039464644  0.042851978            3 
  165000    1.1831783     -6.06251    78.320257  0.039555685  0.042809451            2 
  166000    1.2063319   -6.0473087    78.580917  0.039448251  0.042771264            4 
  167000    1.1914717   -6.0429414    79.137635  0.039489838  0.042732321            8 
  168000    1.1873085   -6.0768228    79.915679  0.039640714  0.042694513            3 
  169000    1.1745481   -6.0858199    80.186944  0.039539913  0.042656073            3 
  170000    1.1781646   -6.0317183    80.804297   0.03960995  0.042620089           13 
  171000    1.1945769   -6.0799513    80.813232  0.039382667   0.04258037            3 
  172000    1.1877494   -6.0503778    81.306933  0.039392894  0.042538516            4 
  173000    1.1891704   -6.0707961      81.6478  0.039329383  0.042492333            2 
  174000     1.156466   -6.0498366    82.239705  0.039386832  0.042451053            4 
  175000    1.1932574    -6.040638    82.585795  0.039326569  0.042411104            3 
  176000    1.1989629    -6.047376    82.965605  0.039282957  0.042368454            4 
  177000    1.1828496    -6.034377    83.615237  0.039366872   0.04232987            4 
  178000    1.1876621   -6.0371496    83.983084  0.039317923  0.042290487            4 
  179000    1.1691173   -6.1001073    84.716638  0.039439776  0.042255667            2 
  180000    1.1569023   -6.0489486    84.898919  0.039305055  0.042220596            2 
  181000    1.1687551   -6.0465717      84.9613  0.039116621  0.042182256            2 
  182000    1.1882055   -6.0726321    85.691501  0.039236035  0.042144213            5 
  183000    1.1817033   -6.0735363    86.156673  0.039233458   0.04210537            5 
  184000    1.1843226   -6.1011668    86.686572  0.039260223  0.042068146            4 
  185000    1.1587437   -6.0654384    86.723397  0.039064593  0.042029538            4 
  186000    1.1750332   -6.1175548    87.096099  0.039021549  0.041991181           10 
  187000    1.1761845   -6.0635079    88.198939   0.03930434  0.041952922            5 
  188000    1.1863983   -6.0884611     88.88752  0.039400496  0.041919733            3 
  189000    1.2062251   -6.0535236    89.263466  0.039357789  0.041891011            3 
  190000    1.1775739   -6.0664132    89.325603  0.039177896   0.04186074            5 
  191000    1.1971535   -6.0962513    89.844871  0.039199333  0.041828222            2 
  192000    1.1667199   -6.0790179     90.33966  0.039209922  0.041795454            2 
  193000    1.1777829   -6.0847599    90.607027  0.039122205  0.041761987            2 
  194000    1.1978879    -6.069255    91.142516  0.039150565  0.041726794            3 
  195000    1.1629075   -6.0394026    91.500915  0.039102955  0.041693032            2 
  196000    1.1637325   -6.0816527    92.259719  0.039226071  0.041660677            4 
  197000    1.1678771   -6.0702113    92.198401  0.039001015  0.041627058            3 
  198000    1.2236154    -6.053538    93.020165  0.039149901  0.041592771            3 
  199000    1.2052614    -6.077211    93.458824  0.039136861  0.041560316            3 
  200000    1.1690228   -6.0946966    93.913723  0.039130718  0.041527689            2 
  201000    1.1859739   -6.0913663    94.103893  0.039014881  0.041495308            9 
  202000    1.1667656   -6.0768635    94.818301  0.039116461  0.041462968            3 
  203000    1.1838585   -6.0644728    95.102747  0.039040537  0.041430773            3 
  204000     1.194598   -6.0927985    95.442263  0.038987852  0.041398797            4 
  205000    1.1852879   -6.0922722    96.124849  0.039075142  0.041369785            2 
  206000    1.1703114   -6.0841019    97.156208  0.039302673  0.041344595            3 
  207000    1.1663108   -6.0728768    97.641329  0.039308103  0.041318581            3 
  208000    1.1490549   -6.1039237    97.443159  0.039039727  0.041293144            4 
  209000    1.1891579   -6.0803372    98.365085  0.039220528  0.041267772            3 
  210000    1.1921158   -6.0918247    98.899579  0.039245864  0.041242759            4 
  211000    1.1724171   -6.0739349    99.218095  0.039185662  0.041217733            4 
  212000    1.1933383   -6.0622565    99.768012  0.039216986   0.04119511            3 
  213000    1.1680147   -6.0847212    100.15146  0.039182886  0.041172254            2 
  214000    1.1714943   -6.0661944     100.8828  0.039284578  0.041149543            6 
  215000    1.1638356   -6.0909891    100.97062  0.039135899  0.041125694            3 
  216000    1.1692489   -6.1198889    101.06436  0.038990879  0.041102009            6 
  217000    1.1628301   -6.0804804    101.73279  0.039067891  0.041077278            4 
  218000    1.1653467   -6.0935164    101.75524  0.038897262  0.041052667            6 
  219000    1.1679315   -6.1063597    102.53886  0.039017832  0.041025657            9 
  220000    1.1948126   -6.0808153    103.11209   0.03905761  0.041001132            4 
  221000    1.1540695   -6.1088283     103.4539  0.039009765  0.040977832            6 
  222000    1.1622915   -6.0634007    104.15461  0.039097075   0.04095519            2 
  223000    1.1679841   -6.1085597    104.49375  0.039048488  0.040933843            4 
  224000    1.1811274   -6.0987518    104.97324  0.039052544  0.040912501            2 
  225000    1.1556139    -6.128012    105.40128  0.039037511  0.040892587            3 
  226000    1.1486639   -6.1052076    105.95869  0.039070314  0.040871872            3 
  227000    1.1559615   -6.0653998    106.63597  0.039146831  0.040850892            3 
  228000    1.1728926   -6.0821409    106.76185  0.039021144  0.040832318            5 
  229000    1.1430166   -6.0876983    107.12626  0.038983354  0.040810054            3 
  230000    1.1454811   -6.0877848    107.86515  0.039081577  0.040788687            3 
  231000     1.170181   -6.0761005    108.02894   0.03897148  0.040767961            4 
  232000    1.1716408   -6.1009822    108.87417  0.039107102  0.040748729            4 
  233000    1.1579701   -6.0826571    108.90912  0.038951759  0.040725159            2 
  234000    1.1591534   -6.1021454    109.01562  0.038823228  0.040700766            2 
  235000    1.1562958   -6.1341749    110.07389  0.039033294  0.040678192            4 
  236000    1.1480576   -6.0597178    110.45618   0.03900289  0.040659656            4 
  237000    1.1843079    -6.099185    110.99736  0.039028608  0.040642103            4 
  238000    1.1694193    -6.089149    111.36879  0.038994676  0.040623468            4 
  239000    1.1510508   -6.0711186    112.18419  0.039115827  0.040606975            3 
  240000    1.1715861   -6.0999707    112.18842  0.038954313  0.040589349            6 
  241000    1.1244676   -6.0715567    113.46452  0.039233928  0.040573394            3 
  242000     1.133438   -6.1198488    113.02174  0.038919331  0.040556585            4 
  243000    1.1593038   -6.1179821    113.78216  0.039019946  0.040539324            2 
  244000    1.1503927   -6.1369832    114.41278  0.039075404  0.040522574            5 
  245000    1.1827511   -6.1047847    114.81059  0.039051221  0.040505241            4 
  246000    1.1405048   -6.1019473    115.09412  0.038988525  0.040487768            3 
  247000    1.1431239   -6.0898428     115.8107  0.039072437  0.040470744            5 
  248000    1.1384747   -6.1005257    116.13238  0.039022976  0.040455726            5 
  249000     1.134473   -6.1467391    116.74288  0.039070576  0.040440599            2 
  250000    1.1408345   -6.1120863    117.20431  0.039068102  0.040423795            4 
  251000    1.1681726   -6.1085482    117.41992  0.038984038    0.0404086            5 
  252000    1.1483437    -6.115335    117.72187  0.038929191  0.040393146            2 
  253000    1.1367743   -6.1057848    117.82778  0.038810206  0.040376396            2 
  254000    1.1530099   -6.1270233     118.0424  0.038727822  0.040356962            3 
  255000    1.1606077   -6.0915663    118.91314  0.038860504  0.040336386            2 
  256000    1.1447953   -6.1397851    119.43778  0.038879486  0.040317519            4 
  257000      1.18651   -6.1096739    119.46377   0.03873663  0.040299103            3 
  258000    1.1545558   -6.0564032    120.18849  0.038820571  0.040280084            3 
  259000    1.1310361   -6.0748826    120.78271  0.038861875  0.040262453            2 
  260000    1.1692686   -6.0522421    121.61367  0.038978741  0.040246176            2 
  261000     1.171658    -6.125552    121.60512  0.038826668  0.040228735            6 
  262000    1.1539429   -6.1158335    121.64153  0.038690053  0.040208927            5 
  263000    1.1750649   -6.1402811    122.03046  0.038666178  0.040188677            2 
  264000    1.1572808   -6.1427547    122.26388  0.038593395  0.040168425            3 
  265000    1.1243084   -6.1342422    122.89239  0.038645405  0.040150111            7 
  266000    1.1727093   -6.1572601    123.38015  0.038652929  0.040132974            5 
  267000    1.1191948   -6.1279321    124.14662  0.038747385  0.040116141            4 
  268000    1.1679466   -6.0927209    124.96986  0.038858788  0.040100162            3 
  269000    1.1475171   -6.1047104    125.22637  0.038793793  0.040084565            4 
  270000    1.1404647   -6.1389644    125.54262  0.038747722  0.040068512            4 
  271000    1.1176362   -6.1493063     125.9711  0.038736501  0.040051001            3 
  272000    1.1374273   -6.1304659    126.08938  0.038630325  0.040033005            4 
  273000     1.135835   -6.0999919    126.80333  0.038706754  0.040015715            3 
  274000    1.1416378   -6.1401182     127.8405   0.03888093  0.039998349            3 
  275000    1.1359681   -6.1129952    127.55326  0.038652502  0.039982596            3 
  276000    1.1890294   -6.1124736    128.54363  0.038811481  0.039966044            4 
  277000    1.1569548   -6.0905723    128.29321  0.038596033  0.039949322            3 
  278000    1.1365456   -6.1180665    128.67475  0.038571569   0.03993122            5 
  279000    1.1518656   -6.1474746    128.87129  0.038492022   0.03991388            4 
  280000    1.1296753   -6.0938272    129.66017  0.038589336  0.039896699            4 
  281000    1.1313403   -6.1136537    130.53474  0.038711369  0.039878549            5 
  282000    1.1379969   -6.1143211    130.09272  0.038443474  0.039860033            8 
  283000    1.1732002   -6.1309995    130.68392  0.038481719   0.03984038            4 
  284000    1.1415796   -6.0968923     131.1738  0.038489966   0.03981899            3 
  285000    1.1285278     -6.14251    131.25839  0.038379645  0.039796546            2 
  286000    1.1551483   -6.1250109    131.32496  0.038264849  0.039774791            4 
  287000    1.1436959    -6.124444    131.71786  0.038245603  0.039752275            3 
  288000     1.148142   -6.1482397    132.09046  0.038220618  0.039729118            3 
  289000    1.1164817   -6.1219969    132.05297  0.038077559  0.039705375            3 
  290000    1.1396792   -6.1413818    132.45193  0.038060899  0.039680712            2 
  291000    1.1330438   -6.1473747    133.12372  0.038122485  0.039656589            4 
  292000    1.1521532   -6.1426981    133.32556  0.038049532  0.039632146            2 
  293000     1.124266   -6.1419257    133.94118  0.038094761  0.039606302            3 
  294000    1.1446545   -6.1521236    133.73077  0.037905547   0.03958121            7 
  295000    1.1263331   -6.1317592    135.13458  0.038173611  0.039556344            3 
  296000    1.1284295   -6.1101433    135.26458  0.038081245  0.039532782            4 
  297000    1.1301248   -6.1589622    135.25272  0.037949697  0.039509279            5 
  298000    1.1428834   -6.1474752    135.58586   0.03791551  0.039484756            3 
  299000     1.139897   -6.1851422    136.23477  0.037969556  0.039460766            3 
  300000    1.1438819   -6.1577942    136.83877   0.03801077  0.039436986            2 
  301000    1.1338944    -6.175112      137.243    0.0379964  0.039413028            4 
  302000    1.1335781   -6.1178828    137.53523  0.037951223  0.039390327            4 
  303000     1.146302   -6.1544332    137.76747  0.037889842   0.03936692            4 
  304000    1.1435798   -6.1107877    138.62159  0.037999338  0.039343454            3 
  305000    1.1292493   -6.1456114    139.38606  0.038083623  0.039321509            4 
  306000    1.1305256   -6.1665745    139.50794  0.037992357  0.039300343            9 
  307000    1.1293998   -6.1431865    140.05706   0.03801766  0.039278525            3 
  308000    1.1519179   -6.1684145    140.19724  0.037932154  0.039257452            5 
  309000    1.1243338   -6.1329553    140.55091  0.037904777  0.039236749            4 
  310000    1.1461978   -6.1599972    141.20794  0.037959124  0.039215926            3 
  311000    1.1256487   -6.1807825    141.50755   0.03791735  0.039195377            2 
  312000    1.1361886   -6.1648951    142.26141   0.03799717  0.039174427            4 
  313000    1.1583711   -6.1378846     142.3753  0.037906097  0.039154249            6 
  314000    1.1235539   -6.1594472    142.81735  0.037902694  0.039134225            4 
  315000    1.1558037   -6.1436225    143.24793  0.037896279  0.039114152            7 
  316000    1.1452385   -6.1443605    143.57259  0.037861969  0.039094137            7 
  317000    1.1161923   -6.1232781    144.16645  0.037898645  0.039074223            2 
  318000    1.1219873    -6.166208    144.54069  0.037877539  0.039054438            3 
  319000    1.1305917   -6.1544934    145.08481  0.037900942  0.039034645            4 
  320000    1.1425133   -6.1819117    145.14898  0.037799212  0.039015045            6 
  321000    1.1292749   -6.1566916    146.17173  0.037946971  0.038995794            6 
  322000    1.1225099    -6.154525    146.30025  0.037862384  0.038977397            4 
  323000     1.172504   -6.1592647    146.76874  0.037866033  0.038959499            3 
  324000    1.1092102   -6.1867387    147.69162  0.037986527  0.038941775            3 
  325000    1.1231059   -6.1353801    147.88791  0.037919977  0.038924489            6 
  326000    1.1151799   -6.1494396    148.20852  0.037885614  0.038907666            4 
  327000    1.1484372   -6.1577558     149.5343  0.038107619  0.038892745            3 
  328000    1.1456584   -6.1816666    149.53589  0.037991842  0.038878174            4 
  329000    1.1053007   -6.2119447    150.20524  0.038045906   0.03886476            4 
  330000    1.1366407   -6.1587376    150.73503  0.038064402  0.038851475            3 
  331000    1.1354708   -6.1434484    151.53854  0.038151697  0.038839463            6 
  332000    1.1172046   -6.1515941    152.25208  0.038215883  0.038826016            4 
  333000    1.1113703   -6.1947915    152.24412  0.038099129  0.038812583            4 
  334000    1.1262759   -6.1621856    152.16004  0.037964081  0.038799418            6 
  335000    1.1037183   -6.2074326    152.48003  0.037930355  0.038785031            5 
  336000     1.132267   -6.1393494    153.24385  0.038006908  0.038771583            3 
  337000     1.121498   -6.1782789    152.78035  0.037779512  0.038757747           11 
  338000    1.1104261   -6.1371056    153.94775  0.037955559  0.038743852            3 
  339000    1.1286047   -6.1708361    153.84926  0.037819385  0.038729601            3 
  340000    1.1067058   -6.1726258    154.45575  0.037856802  0.038714301            4 
  341000     1.108535   -6.1664503    155.14762  0.037914864  0.038698799            2 
  342000    1.1334784   -6.1708546    155.46291  0.037880826  0.038684062            9 
  343000     1.124472   -6.2317968    155.69984  0.037827948  0.038669827            6 
  344000    1.1208215    -6.131181    155.87113  0.037759479  0.038654546            6 
  345000    1.1064507   -6.1757168    155.92769  0.037663693  0.038638793            5 
  346000    1.1145016   -6.1856538    156.52729  0.037699252  0.038621605            5 
  347000    1.1209559   -6.1410937    157.40734  0.037801954  0.038605081            3 
  348000     1.110848   -6.1713784    157.65879  0.037753542  0.038590261            2 
  349000    1.1002923   -6.1575361    157.87034  0.037695879   0.03857391            3 
  350000    1.1004108   -6.1833208    157.29088   0.03745021  0.038557479            3 
  351000     1.093379   -6.2107447    158.23232  0.037567028   0.03854097            2 
  352000    1.1114311   -6.1607776    159.27133  0.037706282  0.038525152            5 
  353000    1.1297074   -6.1954854    159.38569  0.037626462  0.038508584            3 
  354000    1.1044756   -6.1765605    159.84232  0.037627665  0.038491122            3 
  355000    1.1168203   -6.1847739    160.24916  0.037617174  0.038474801            2 
  356000    1.1012827   -6.1796211    160.33242  0.037530998  0.038456796            3 
  357000    1.1216805   -6.2024451    160.30992  0.037420616  0.038437912            4 
  358000    1.0917651   -6.1820765    161.13472  0.037508081  0.038420138            7 
  359000    1.0781273   -6.1750851    161.51321   0.03749146  0.038403445            3 
  360000    1.1150034   -6.1789028    161.98575  0.037496701  0.038386566            3 
  361000    1.1297625   -6.1828701    161.86821  0.037365699  0.038368881            2 
  362000     1.081094   -6.1873454    162.49102  0.037405852  0.038350808            3 
  363000    1.1096104   -6.1839767    163.06529   0.03743464  0.038333808            3 
  364000    1.0895187   -6.1613142    163.77005  0.037493144   0.03831732            2 
  365000    1.1379965   -6.1963563    164.20663  0.037490097  0.038301391            3 
  366000    1.1030093   -6.1861035     164.2974  0.037408333  0.038284773            4 
  367000    1.0930273   -6.1790685    164.60029   0.03737518  0.038268852            8 
  368000    1.0752137   -6.2101949    164.97523  0.037358521  0.038252071           23 
  369000    1.1252618   -6.1570526    166.02448  0.037494237  0.038236933            4 
  370000    1.1098555   -6.2027419    166.19893  0.037432191  0.038222344            2 
  371000     1.113967    -6.178926    166.94531  0.037498946  0.038207875            6 
  372000    1.0857787   -6.2347993    166.92321  0.037393192  0.038193948            5 
  373000    1.1042383   -6.1898128    167.40813   0.03740128  0.038178793            6 
  374000    1.1020216   -6.1593754    168.28688  0.037497077  0.038163915            7 
  375000    1.1068551    -6.227435    168.13348  0.037362996   0.03814908            3 
  376000     1.105483   -6.2160031    168.41976  0.037327075  0.038133927            2 
  377000    1.0995147   -6.2090286    168.90789  0.037335963  0.038118999            2 
  378000     1.096445   -6.2053525    169.56371  0.037381771  0.038104538            3 
  379000    1.1145596   -6.1960934    169.94199  0.037366312  0.038089977            2 
  380000    1.1118936   -6.2224739     169.9515  0.037270066  0.038075104            3 
  381000    1.0756181   -6.2079568    170.85086  0.037368954  0.038059831            8 
  382000    1.1289072   -6.2162061    170.87638  0.037276697  0.038044536            9 
  383000    1.1187387   -6.2090261    171.27241  0.037265537    0.0380292            6 
  384000    1.1151865   -6.2146625    171.56919  0.037232898    0.0380141            5 
  385000    1.1094777   -6.1815124    171.89774  0.037207302  0.037998365            2 
  386000     1.090121   -6.1940791    171.64398  0.037056126  0.037982165            5 
  387000    1.1284394   -6.1901379    172.34947   0.03711229   0.03796483            4 
  388000    1.1057029   -6.2140606     172.5793  0.037066002  0.037946984            3 
  389000     1.074358   -6.2133497    173.25097  0.037114603  0.037929541            5 
  390000     1.087114   -6.2308465    172.45445  0.036849242  0.037911409           10 
  391000    1.0935008    -6.231419    173.43675  0.036964355  0.037892177            6 
  392000    1.1090069   -6.2158558    173.76877  0.036940639   0.03787304            6 
  393000    1.1035196   -6.2270602    173.72962  0.036838341  0.037853655            3 
  394000    1.0808268   -6.1981972    174.23061  0.036850805   0.03783398            3 
  395000    1.0819655   -6.2092161    174.57443  0.036830048  0.037814856            4 
  396000    1.0741485   -6.2069994    175.12071  0.036852001   0.03779521            2 
  397000    1.1031369   -6.1955384    175.65881  0.036872126  0.037776339            9 
  398000    1.1071442   -6.2365343    174.92054  0.036624903  0.037756251            4 
  399000    1.0984172   -6.2378708     175.3173  0.036615978  0.037735069            6 
  400000    1.1038939   -6.2093253    175.71546  0.036607388  0.037714361            2 
  401000    1.0809052   -6.2351126    175.95422  0.036565716  0.037692797            5 
  402000    1.0745087   -6.2384101    176.29957  0.036546345  0.037671283            4 
  403000    1.0902882   -6.2185021    177.24256  0.036650653  0.037649996            4 
  404000    1.0803019   -6.2149901     177.6178  0.036637335  0.037629538            3 
  405000    1.1146681   -6.2287769    178.21628  0.036670017  0.037609412            3 
  406000    1.0798002   -6.2191121    178.16219  0.036568594   0.03758907            6 
  407000    1.1018975   -6.2264711    179.13012  0.036676929  0.037569956            6 
  408000    1.0783447   -6.2475096    179.69032  0.036701454  0.037550534            3 
  409000    1.0816936   -6.2528269    179.77499  0.036628971   0.03753061            2 
  410000    1.1032861   -6.2483722    179.88745   0.03656249  0.037510817            3 
  411000    1.0882764   -6.2559897    179.97109   0.03649049  0.037490839            4 
  412000    1.0925577   -6.2271599     180.2087  0.036449979  0.037470802            4 
  413000    1.1264661   -6.2147914    180.74532      0.03647  0.037450605            5 
  414000    1.0921597   -6.2064563     181.5947  0.036552878  0.037430425            6 
  415000    1.0861795   -6.2330075     181.8496  0.036515984  0.037410711            4 
  416000    1.0960269   -6.2284792    181.93723   0.03644576  0.037390621            4 
  417000    1.1026968   -6.2106011    182.28375  0.036427609   0.03737043            2 
  418000    1.0672045   -6.2272505    182.70277  0.036423998  0.037349747            5 
  419000    1.0848042   -6.2345926    183.20597  0.036437145  0.037329414            4 
  420000    1.0864766   -6.2120947    183.49424  0.036407588   0.03730941            6 
  421000    1.1042903   -6.2121754    183.82189  0.036385964  0.037289192            4 
  422000     1.083573   -6.1837826    184.20092  0.036374589  0.037269013            4 
  423000    1.0716156    -6.222867    183.97875  0.036244829  0.037249195            4 
  424000    1.0785886   -6.2407382    185.04795  0.036369486  0.037229334            5 
  425000    1.0849422   -6.2418432    184.89996  0.036254895   0.03721006            5 
  426000    1.0839558   -6.2395277    185.43227  0.036273918  0.037190236           12 
  427000     1.083821   -6.2656585    185.32805  0.036168628  0.037170716            5 
  428000    1.0839071   -6.2224633    187.06497  0.036422306  0.037151086            5 
  429000    1.0992616   -6.2220977    186.83126  0.036292008  0.037131624            9 
  430000    1.0585242   -6.2737344     186.9979  0.036239904  0.037112147            4 
  431000    1.0965797   -6.2472148    187.47964  0.036248963  0.037092323            2 
  432000    1.0793117   -6.2176205    188.17705  0.036299585   0.03707335            4 
  433000     1.079688   -6.2776209    188.22308  0.036224612  0.037054703            4 
  434000    1.0819872   -6.2397379    188.25734  0.036147723  0.037035502            5 
  435000    1.0839959   -6.2507798     189.0971  0.036225498   0.03701588            3 
  436000    1.0788363   -6.2225362    188.54893  0.036037639  0.036996033            2 
  437000    1.0475296    -6.248734    190.10819  0.036252516  0.036976258            6 
  438000     1.073997    -6.252557    190.36232  0.036218097  0.036957137            5 
  439000     1.048095   -6.2277679    190.75016  0.036209217  0.036939119            5 
  440000    1.0830854   -6.2607695    190.82738  0.036141548     0.036921            7 
  441000    1.0793899   -6.2660892    191.25457  0.036140319  0.036902717            5 
  442000    1.0797397    -6.245663    190.74553  0.035962581  0.036884005            6 
  443000    1.0810163   -6.2145954    191.72775  0.036066168  0.036865302            5 
  444000    1.0599752    -6.282534    191.75747  0.035990516  0.036846549            2 
  445000    1.0705635   -6.2515283    192.46004  0.036041205  0.036827633            5 
  446000    1.0791833   -6.2451111    192.71847  0.036008682  0.036808709            4 
  447000    1.0553648     -6.25932    193.20081  0.036018049  0.036789393            3 
  448000    1.0646847   -6.2290276    193.40825  0.035976236   0.03677013            5 
  449000    1.0635202   -6.2384271    193.46985  0.035907544  0.036750799            7 
  450000    1.0873939   -6.2482071    193.96125   0.03591875  0.036731199            5 
  451000    1.0743811   -6.2751063    194.03422   0.03585259  0.036710866           13 
  452000    1.0648181   -6.2716838     194.4504      0.03585  0.036689523            4 
  453000    1.1016841   -6.2354652    194.38161  0.035758206  0.036668196            3 
  454000    1.0561032   -6.2470667    195.12294  0.035815518  0.036647821            9 
  455000    1.0808771   -6.2575446    195.30343   0.03576986  0.036628008            6 
  456000    1.0708117   -6.2868204    195.36746  0.035703118  0.036607384            3 
  457000    1.0852238   -6.2614333    196.06486  0.035752163     0.036587            4 
  458000     1.088006   -6.2568555     196.4191  0.035738556  0.036567642            5 
  459000    1.0869079   -6.2795936    197.21966  0.035806039  0.036548689            2 
  460000    1.0797686   -6.2756289    197.66937  0.035809669  0.036529916            3 
  461000    1.0536159    -6.252347    198.09823  0.035809513  0.036511164            5 
  462000    1.0463619   -6.2689619    197.73266  0.035666064  0.036492045            3 
  463000    1.0771128   -6.2652463    198.55835  0.035737644  0.036473524            2 
  464000    1.0710498   -6.2432527    198.70152  0.035686335  0.036454875            5 
  465000    1.0568989   -6.2778658    198.90759  0.035646521   0.03643535            4 
  466000    1.0869239   -6.2571733    198.91152   0.03557073  0.036415456            4 
  467000    1.0652839   -6.2772113    199.52803  0.035604573   0.03639531            4 
  468000    1.0683046   -6.2737879    199.94944  0.035603533  0.036375375            7 
  469000    1.0469112   -6.2730242    200.10798  0.035555788  0.036355863            4 
  470000    1.0847277   -6.2576408    200.96648  0.035632354  0.036336477            5 
  471000    1.0667927   -6.2644723    201.03274  0.035568426  0.036317833            3 
  472000    1.0413496   -6.2935344    200.62424  0.035420946  0.036298027            7 
  473000    1.0807437   -6.2193159    201.84609  0.035561326  0.036278692            3 
  474000    1.0690369    -6.284184    201.73833  0.035467357  0.036258642            3 
  475000    1.0549181   -6.2332671    201.63562   0.03537467  0.036238277            4 
  476000    1.0526885   -6.2839193    202.22893  0.035404224  0.036217223            2 
  477000    1.0763915   -6.2920897    201.97806  0.035286174  0.036196224            4 
  478000    1.0719201   -6.2889157    202.50445  0.035304123  0.036174695           11 
  479000    1.0940308   -6.2540257    202.81787  0.035284945  0.036153687            4 
  480000    1.0587258   -6.3012549    202.41216     0.035141  0.036132834            4 
  481000    1.0395671    -6.265867    203.75642  0.035300835  0.036111784            9 
  482000    1.0594988   -6.2834344     203.9184  0.035255602  0.036090757           13 
  483000    1.0609004   -6.2627744    204.69903  0.035317293      0.03607            4 
  484000    1.0572349   -6.2759945    204.51665  0.035212921  0.036048652            6 
  485000     1.074973   -6.3119876    203.95013  0.035042977   0.03602626            4 
  486000    1.0612172   -6.2976963    204.24639  0.035021673  0.036004081            6 
  487000    1.0579262   -6.3047297    204.87385  0.035057128  0.035982261            5 
  488000    1.0875874   -6.2731713    205.11471  0.035026419  0.035960051            4 
  489000    1.0778406   -6.2810176    205.61838  0.035040624  0.035937701            2 
  490000    1.0688248   -6.2858331    205.56789  0.034960525  0.035915906            6 
  491000    1.0610642   -6.2812951    206.09718  0.034979155  0.035894014            6 
  492000    1.0661643   -6.2659984    206.27109  0.034937515  0.035871697            5 
  493000     1.050985   -6.2684339    206.63316  0.034927851  0.035849845            6 
  494000    1.0569005   -6.2853808    207.36952  0.034981364  0.035828502            5 
  495000    1.0504543   -6.3152777    207.62517  0.034953732  0.035807294           15 
  496000    1.0449641    -6.283642    207.87277   0.03492486  0.035786117            4 
  497000    1.0895934   -6.2671698    207.94423   0.03486657  0.035765132            6 
  498000    1.0262229   -6.2698486    208.45529  0.034882076  0.035743282           11 
  499000    1.0473453   -6.2931098    208.64765  0.034844297  0.035721295            2 
  500000     1.077409   -6.2860487    208.67042  0.034778403  0.035699851            2 
  501000    1.0631252   -6.2869182    209.24388  0.034804372  0.035678367            6 
  502000     1.061287   -6.3312354    210.19318  0.034892627  0.035657242            8 
  503000     1.052427   -6.2673289    210.80597  0.034924779  0.035636015            3 
  504000    1.0285311     -6.26999    210.32656  0.034776218  0.035614999            4 
  505000    1.0354315   -6.2857685    210.68037  0.034765737  0.035593659            5 
  506000    1.0666469   -6.2335907    211.70125   0.03486516  0.035572996            3 
  507000    1.0693748    -6.300846    211.41382  0.034749148  0.035551971            3 
  508000     1.034917   -6.3190636    211.22064  0.034649055  0.035530697            3 
  509000    1.0513401   -6.2711098    212.02751  0.034713082  0.035509556            6 
  510000    1.0438342   -6.2821842    212.85178  0.034779703  0.035488522            5 
  511000    1.0409519   -6.3252037     212.8769  0.034715737  0.035467949            4 
  512000    1.0418388   -6.2819227    212.92984  0.034656549  0.035447649            4 
  513000    1.0563208   -6.2916959    213.40419  0.034666048  0.035427686            4 
  514000    1.0345715   -6.2921082    213.38564  0.034595596    0.0354073            4 
  515000    1.0521032   -6.3025578    213.55584  0.034555961  0.035386546            9 
  516000    1.0507951   -6.3143275    214.24973  0.034601055  0.035365623            5 
  517000    1.0378875    -6.277329    214.73467  0.034612294   0.03534527            5 
  518000    1.0409874   -6.2722146     214.7855  0.034553652  0.035325446           12 
  519000    1.0570056   -6.2869348    215.21112  0.034555414    0.0353056            3 
  520000    1.0369217   -6.2826225    215.88675  0.034597235  0.035285421            7 
  521000    1.0392438   -6.2787509    216.96379  0.034703101  0.035265748            6 
  522000    1.0406093   -6.2816245    216.72096  0.034597855  0.035246554            5 
  523000    1.0391257   -6.2980023    217.22016  0.034611243  0.035227105            4 
  524000    1.0552205   -6.3176679    217.12578  0.034530181  0.035207155            8 
  525000    1.0339124   -6.3350784    217.59744  0.034539276  0.035187553            7 
  526000    1.0524037   -6.2936034    218.37466  0.034596745    0.0351683            6 
  527000    1.0560269   -6.3144835    218.99517  0.034629218  0.035149508            8 
  528000    1.0244622   -6.3222976    218.81409  0.034535052  0.035130799            3 
  529000    1.0484926   -6.3384478    218.58847  0.034434227  0.035111453            6 
  530000    1.0338112   -6.2908325    219.45397  0.034505341  0.035092118            4 
  531000     1.056131   -6.3231961    219.57739  0.034459728  0.035072689            4 
  532000    1.0413053   -6.2864962    219.00557  0.034305384  0.035052528            8 
  533000    1.0492465   -6.3344918    219.73165  0.034354541  0.035032417            6 
  534000    1.0339131   -6.3053071    221.01537  0.034490539  0.035012431            7 
  535000    1.0440034   -6.2907417    220.58502  0.034359037  0.034992729            4 
  536000    1.0568381   -6.3117538    220.00814  0.034205246   0.03497269            3 
  537000     1.026611    -6.296344    220.83402  0.034269712  0.034952588            3 
  538000    1.0555084     -6.30166    221.70578  0.034341044  0.034932733            4 
  539000    1.0235486   -6.3688284    221.32206  0.034218006  0.034912639            8 
  540000    1.0532643   -6.3393692    222.12494   0.03427854  0.034892736            4 
  541000     1.056012   -6.3057907    222.43063  0.034262266  0.034873048            8 
  542000    1.0165889   -6.3168709    222.33308  0.034184052  0.034853466            8 
  543000    1.0355098   -6.3307358    222.78222  0.034190028  0.034834133            4 
  544000     1.027525   -6.3311136    223.67684  0.034264222  0.034814714            4 
  545000    1.0571355   -6.3226518    223.43737  0.034164735  0.034795107           17 
  546000    1.0519401   -6.3267888    224.39966  0.034249033  0.034775642            8 
  547000    1.0558507   -6.2968236     224.4883  0.034199924  0.034756411            5 
  548000    1.0437038   -6.3171939    223.71788  0.034020359  0.034736809            4 
  549000    1.0363124   -6.3982395    224.40547  0.034062761  0.034717368           10 
  550000    1.0159711   -6.3409889    225.14207  0.034112434  0.034698193            3 
  551000     1.022178   -6.3523267    225.78746  0.034148133  0.034678906            3 
  552000    1.0275576   -6.3306704    225.44015   0.03403384  0.034659393            3 
  553000     1.024755   -6.2983813    226.43152  0.034121688  0.034640146            4 
  554000    1.0382967   -6.3159227    226.52859  0.034074698  0.034621143            5 
  555000     1.027283   -6.3322251    226.63557  0.034029365  0.034602224            3 
  556000    1.0319561   -6.3018282    227.23305  0.034057711   0.03458285            8 
  557000    1.0268517    -6.327763     227.1966  0.033991113  0.034563507            5 
  558000    1.0447142     -6.32105    226.83156   0.03387568  0.034544512            6 
  559000     1.059486   -6.3352906    227.57898  0.033926503  0.034525838            6 
  560000    1.0512268   -6.3454717    229.06625  0.034087239  0.034507084            3 
  561000    1.0030102   -6.3441687    229.21643  0.034048787  0.034488393            4 
  562000    1.0048578   -6.3112158    228.13579  0.033827964  0.034469802            4 
  563000    1.0477268   -6.2998374    229.71343  0.034001396   0.03445124           10 
  564000     1.056223   -6.3514633    229.73772  0.033944698   0.03443332            5 
  565000    1.0421417   -6.3210334    230.38768  0.033980483  0.034415301            6 
  566000     1.029882   -6.3158673    230.91749  0.033998452  0.034397405            4 
  567000     1.016578   -6.3112458    231.40044  0.034009471  0.034379693            4 
  568000    1.0444978   -6.3738406    231.62056   0.03398189  0.034361983            5 
  569000    1.0233716   -6.3602876    230.95789  0.033825115  0.034343862           14 
  570000    1.0663793   -6.3101194    231.48557  0.033842919  0.034325445            4 
  571000    1.0239385   -6.2960786    231.06722  0.033722595  0.034306862            7 
  572000    1.0243811   -6.3621457    232.04274   0.03380576  0.034288191            6 
  573000    1.0281641   -6.3267848    232.30073  0.033784283  0.034269407            3 
  574000    1.0203989    -6.330924    233.56837  0.033909461  0.034251048            7 
  575000    1.0343688   -6.3568258    232.93498  0.033758692   0.03423305            7 
  576000    1.0221829   -6.3176562    232.98732  0.033707656  0.034214631            3 
  577000    1.0462267   -6.3589723    233.95327  0.033788745  0.034196276            3 
  578000    1.0269029   -6.3393957     233.9741   0.03373329  0.034177592            7 
  579000    1.0227589   -6.3736076    233.61235  0.033622963  0.034159182           15 
  580000    1.0378206   -6.3704522    234.16142  0.033643883  0.034140572            7 
  581000    1.0148054   -6.3519555    234.54857  0.033641504  0.034121295            4 
  582000    1.0416206   -6.3307891    233.82749  0.033480454  0.034101644            4 
  583000    1.0249697   -6.3809995    234.82945  0.033566245  0.034082233           18 
  584000    1.0222309    -6.335287    234.94668  0.033525497   0.03406313           12 
  585000    1.0040963    -6.356983    235.27252  0.033514604   0.03404385            5 
  586000    1.0365093   -6.3628181    235.56654  0.033499224  0.034024604            6 
  587000    1.0333388   -6.3370251    235.41209  0.033420229  0.034005699            3 
  588000    1.0046817   -6.3458061    236.76059  0.033554506  0.033987127            5 
  589000     1.016947   -6.3046341    236.95525  0.033525078  0.033968928            5 
  590000    1.0064005   -6.3543867    237.27887  0.033513964  0.033950591            5 
  591000    1.0527384   -6.3915113     237.8186  0.033533361  0.033932283           10 
  592000    1.0173646   -6.3573481    237.34907  0.033410623   0.03391399            5 
  593000    1.0334325   -6.3568825    238.59703  0.033529656  0.033895796            5 
  594000    1.0285412    -6.396966    238.66449  0.033482673  0.033878009            4 
  595000    1.0262818   -6.3218828    239.62997  0.033561621  0.033860315            6 
  596000    1.0208454   -6.3526814    238.32095  0.033322281   0.03384253            5 
  597000     1.019922   -6.3401019    239.39215   0.03341599  0.033824988            6 
  598000    1.0270847   -6.3652289    239.98101   0.03344217  0.033807302            4 
  599000    1.0018541   -6.3802626    239.14455  0.033269971  0.033789146            6 
  600000    1.0135151   -6.3388345     240.5823  0.033414208  0.033771334            7 
  601000     1.026139   -6.3663403    240.87941  0.033399807  0.033754033            4 
  602000    1.0197544   -6.3649518    240.51602  0.033294022  0.033736121           12 
  603000    1.0260158   -6.3597476    241.08055  0.033316825  0.033718173            6 
  604000    1.0322355   -6.3711154    242.14186  0.033408094  0.033700411            4 
  605000    1.0347824   -6.3791049    242.45512  0.033396022  0.033683004           12 
  606000    1.0002525   -6.3657309    242.69585  0.033374017  0.033665806            6 
  607000    1.0007289   -6.3480886    242.30114  0.033264846  0.033648304            9 
  608000    1.0234389    -6.368352    242.86886  0.033287947  0.033630903           10 
  609000     1.016303    -6.344074    243.19477  0.033277883  0.033613501            5 
  610000    1.0152986   -6.3803522    243.38059  0.033248714  0.033596323            7 
  611000    1.0179951   -6.3546542    244.07729  0.033289319   0.03357906            8 
  612000    1.0112684   -6.3831461    243.60488  0.033170599  0.033561754            7 
  613000    1.0158774   -6.3589081    243.68335  0.033127154  0.033543683            7 
  614000    1.0079692   -6.3356053    244.82451  0.033228082  0.033526056            8 
  615000   0.99898296   -6.3702834    244.09713  0.033075491  0.033508673            7 
  616000    1.0039869   -6.3694778    244.97896  0.033141093  0.033490827            5 
  617000    1.0351575   -6.3589628    245.30349  0.033131211  0.033473285           10 
  618000    1.0433885   -6.3693016    245.67101  0.033127158  0.033455916            6 
  619000    1.0033421   -6.3757011    245.64723   0.03307044  0.033438294           13 
  620000    1.0156658   -6.3625984    245.66653  0.033019695   0.03342081            5 
  621000     1.013636    -6.383959    246.82825  0.033122417  0.033403437            5 
  622000    1.0031035    -6.377713    246.35545  0.033005822  0.033385899            6 
  623000    1.0241273   -6.3436387    247.36047  0.033087275  0.033368526            7 
  624000    1.0168105   -6.3603747    247.53566  0.033057647  0.033351134            5 
  625000    1.0019775   -6.3935068    247.26524  0.032968698  0.033333778            5 
  626000   0.99185947   -6.4242886    247.15763  0.032901708  0.033316508            9 
  627000    1.0192491   -6.3586169    248.79974  0.033067482  0.033299239            3 
  628000    1.0113306   -6.3788664    248.77592  0.033011666  0.033282297            6 
  629000   0.99253078   -6.3653984    248.75538  0.032956462  0.033265226            4 
  630000    1.0048113     -6.35473    249.62104  0.033018656  0.033248408            3 
  631000   0.97967798   -6.3764234    249.74832  0.032983138  0.033231692            8 
  632000   0.96960542   -6.3648616    249.97689  0.032961088  0.033215219            4 
  633000   0.99952606    -6.370547    250.25429  0.032945535  0.033198369            4 
  634000   0.99385097   -6.3721808    250.39296  0.032911798  0.033181642            2 
  635000    1.0085465   -6.3852718    250.53328  0.032878383  0.033164614            3 
  636000    1.0304046   -6.4000972    251.05849  0.032895505  0.033147925           10 
  637000    1.0053976   -6.3888447    250.59742  0.032783545  0.033131273            8 
  638000   0.98580689   -6.3720895    251.80097  0.032889364  0.033114715            4 
  639000   0.98707067   -6.3833801    251.55318  0.032805579  0.033097617            6 
  640000    1.0009407   -6.4050673    251.92363  0.032802556   0.03308036            6 
  641000     1.011845   -6.4102656    251.99941  0.032761234  0.033063177            3 
  642000    1.0192362   -6.3830509    252.40764  0.032763193  0.033045993            7 
  643000    1.0068748   -6.3748335    252.16821   0.03268121  0.033028757            9 
  644000   0.99263181    -6.373815     252.9422  0.032730616  0.033011534            4 
  645000    1.0043799   -6.4037966    253.11579  0.032702299  0.032994368            5 
  646000    1.0014982   -6.3537529    253.00341  0.032637179  0.032976965            4 
  647000   0.96967493    -6.386882    252.94114  0.032578714  0.032959331            6 
  648000   0.99021483   -6.3759944     253.4543  0.032594431   0.03294175            3 
  649000    1.0096948   -6.3945929    254.51951  0.032680985  0.032924619            7 
  650000    1.0058372   -6.4005706    254.48279  0.032625999  0.032907421            5 
  651000    1.0006324   -6.4128401    253.67788  0.032472847   0.03289002            4 
  652000   0.99232122   -6.3885144     255.1594  0.032612398   0.03287253            3 
  653000   0.98822555   -6.4112108    255.52197  0.032608725  0.032855272            4 
  654000   0.98129768   -6.3839551    256.17296  0.032641814  0.032838241            7 
  655000   0.98026008   -6.3862097    255.59586  0.032518557  0.032821307            3 
  656000   0.98770586   -6.4431372    255.82658  0.032498295  0.032804146           10 
  657000    0.9988323   -6.3842997    256.89221  0.032583995  0.032786914            8 
  658000    1.0044611   -6.4262866    256.46186  0.032479972  0.032769865            3 
  659000   0.99417928   -6.4090295     257.5364  0.032566565  0.032752684            6 
  660000     0.993725   -6.4000456    256.74534  0.032417341  0.032735301            6 
  661000    1.0061072   -6.4137033     257.4907  0.032462267  0.032718035            8 
  662000    1.0168446   -6.3929082    258.17351  0.032499183  0.032701231            3 
  663000   0.99439086   -6.4111939    258.40463  0.032479214  0.032684642            7 
  664000    1.0103017   -6.4291042    258.88867  0.032491048  0.032668017            9 
  665000   0.97295627   -6.4248242    258.11897  0.032345735  0.032651389            5 
  666000   0.96957133   -6.3901279    260.14375  0.032550519  0.032634892            4 
  667000   0.98541077   -6.4143658    259.34153  0.032401491  0.032618524           10 
  668000    0.9922013   -6.3995061    259.47957  0.032370206  0.032602034            4 
  669000    0.9891861   -6.4206693    259.91169  0.032375646   0.03258532            5 
  670000   0.99470319    -6.403231    259.86108   0.03232103  0.032568455           10 
  671000   0.97344106   -6.3935304    260.33619  0.032331866  0.032551569            4 
  672000   0.96278214    -6.400312    260.45416  0.032298382  0.032534507            3 
  673000   0.97567918   -6.3874697    260.61622  0.032270458  0.032517302            6 
  674000   0.97837718    -6.423906    260.98421  0.032268078  0.032500123            3 
  675000   0.97714157   -6.4081637    260.88744  0.032208325   0.03248256           10 
  676000   0.97419875   -6.4076766    261.06135  0.032182119  0.032465556            5 
  677000   0.95970235   -6.4459214    261.39334  0.032175447  0.032448178            6 
  678000   0.98608421   -6.4187548    261.83101  0.032181786  0.032431044            7 
  679000   0.99511493   -6.4384494    262.32392  0.032194884  0.032413745            4 
  680000   0.98390539   -6.4091945    262.04454  0.032113302  0.032396213           16 
  681000   0.97709971    -6.421621    261.92039  0.032050953  0.032378429           12 
  682000   0.97107975   -6.4040058    261.76391  0.031984837  0.032360473           22 
  683000   0.98683756   -6.4239945    261.25675  0.031876128  0.032341999           20 
  684000   0.97814091   -6.4281326    261.77032  0.031892095  0.032323237            7 
  685000   0.97917358   -6.4200686    261.25809  0.031783223  0.032304209            4 
  686000   0.97640945   -6.3986635    262.87527  0.031933341  0.032285172           17 
  687000   0.96847861   -6.4461264    262.21357  0.031806595   0.03226586            5 
  688000   0.95885231   -6.4514921    261.87388   0.03171922  0.032246923            2 
  689000   0.96545898   -6.4405977    262.87368  0.031794108   0.03222785            7 
  690000   0.98132918   -6.4067618    263.10562  0.031776042  0.032209015            5 
  691000    0.9697583   -6.4329382    263.91062  0.031827137  0.032189804            5 
  692000   0.99527225   -6.4181247    263.41036  0.031720901  0.032170957            5 
  693000   0.98284658    -6.428885    263.91194  0.031735443  0.032152066           11 
  694000   0.99371314   -6.4352429    264.09598  0.031711813  0.032133255            7 
  695000   0.96587704   -6.4633952    264.09795  0.031666421  0.032114326            5 
  696000   0.97848477   -6.4249724    264.24859  0.031638959  0.032095472            7 
  697000   0.98203497   -6.4385744    265.15629  0.031702091  0.032076553            8 
  698000    0.9819614   -6.4582579    264.78566  0.031612424  0.032057698            5 
  699000   0.96993297   -6.3769175     265.1934  0.031615808  0.032038672            5 
  700000   0.97599494   -6.4201221    265.00774  0.031548541  0.032019584            7 
  701000   0.97270713   -6.5014742    264.97435  0.031499566  0.032000252            8 
  702000   0.97470318   -6.4745216    264.87389   0.03144277  0.031980668           16 
  703000   0.97920828   -6.4523479    265.45522  0.031466953  0.031961113            4 
  704000   0.97366964   -6.4446316    266.17004   0.03150687  0.031941712            5 
  705000    1.0042567   -6.4269048     265.9802   0.03143974  0.031922601            7 
  706000   0.97456689   -6.4743826    265.52207  0.031341132  0.031903229           14 
  707000   0.98931349   -6.4363853    266.51368  0.031413682  0.031884008            7 
  708000   0.96004332   -6.4445405    266.95878  0.031421701  0.031865251           12 
  709000   0.98373795    -6.464495    268.08138   0.03150933  0.031846474            5 
  710000   0.98400038   -6.4660997    268.10642  0.031467889  0.031827858            8 
  711000   0.96499019   -6.4584573    267.81363  0.031389315   0.03180935            4 
  712000   0.95667641   -6.4271222    268.22429  0.031393292  0.031790506            4 
  713000   0.97921161   -6.4405352    268.60433   0.03139368  0.031771907            6 
  714000   0.96545904   -6.4701525    268.89054  0.031383116  0.031753174            7 
  715000   0.98214582   -6.4635275    268.90558  0.031340976  0.031734537            8 
  716000   0.96735601   -6.4291022     269.1599  0.031326804  0.031716287            6 
  717000    0.9754098   -6.4958864     269.2352  0.031291865  0.031697998            4 
  718000   0.99288946   -6.4436987    270.31583  0.031373704  0.031679903            6 
  719000   0.97071224   -6.5026849    269.90168  0.031282067  0.031661617            4 
  720000   0.94758435   -6.4470433    270.45555  0.031302725  0.031643426            5 
  721000   0.97117151   -6.4505957    270.74721  0.031293021  0.031625271            5 
  722000   0.96268511   -6.4523526    271.36543  0.031321033  0.031607202            7 
  723000   0.96621311   -6.4410869    270.81734  0.031214539  0.031589174            3 
  724000   0.96166221   -6.4394815    271.66782  0.031269316  0.031571108            6 
  725000   0.98835798   -6.4646661    271.21986  0.031174696  0.031552984           12 
  726000   0.98797921   -6.4671266    272.00446  0.031221816  0.031535172            5 
  727000   0.95152537   -6.4312199    272.07541  0.031187002   0.03151739            6 
  728000   0.97032123     -6.44234    272.10176  0.031147179  0.031499307            5 
  729000   0.95984046      -6.4741     272.5061  0.031150674  0.031481483            9 
  730000   0.95612872   -6.4571141    273.20857  0.031188193  0.031463619            8 
  731000   0.95330231   -6.4257491    273.86831  0.031220737   0.03144621            8 
  732000   0.96688156   -6.4428849    272.69809  0.031044864   0.03142824            8 
  733000   0.96319472   -6.4422113     273.4892  0.031092451  0.031410497            5 
  734000   0.96025666   -6.4539054    273.92611  0.031099695  0.031392371            5 
  735000   0.99562848   -6.4482485    274.30324  0.031100141  0.031374419            4 
  736000   0.95440151   -6.4789295    275.10859  0.031149071  0.031356591           15 
  737000   0.94536846    -6.474326    274.72812  0.031063785  0.031338291            7 
  738000   0.94027961   -6.4387482    274.49143  0.030994967  0.031320068            4 
  739000   0.94541348   -6.4647198    274.62163  0.030967708  0.031302054            6 
  740000   0.95991856   -6.4886782    275.51076  0.031025987  0.031284095            5 
  741000   0.96489931   -6.4709118    275.08943  0.030936733  0.031266097            5 
  742000   0.95115082   -6.4503284    274.97068  0.030881703  0.031248002            6 
  743000   0.96374467   -6.4754053    274.88335  0.030830344  0.031229725           11 
  744000   0.94738361   -6.4741897    275.94916  0.030908284  0.031211358            5 
  745000   0.93856651   -6.4651304     275.2984  0.030794004  0.031192995           11 
  746000   0.95605318   -6.4759939    275.04324  0.030724223  0.031174501            6 
  747000   0.95160315    -6.452258    276.79374  0.030878374  0.031156339            8 
  748000   0.95534355   -6.4709428    276.85265  0.030843655  0.031138055            9 
  749000   0.93880784   -6.4846037    276.63519  0.030778282   0.03111967            3 
  750000   0.95204177   -6.4634029    276.38833  0.030709814  0.031101441            6 
  751000   0.96563867   -6.4566373    277.00539  0.030737393  0.031082962           19 
  752000   0.95606476    -6.447767    277.08587  0.030705438  0.031064629            4 
  753000   0.97049722   -6.4548689    277.83815  0.030747913  0.031046369            8 
  754000   0.95878028   -6.4438995    277.13932  0.030629898  0.031028241            7 
  755000   0.96138332   -6.4659139     278.5795  0.030748289  0.031009951            5 
  756000   0.95967945   -6.4329061     278.2967  0.030676444  0.030991907           10 
  757000   0.97370766   -6.4862809    277.59304  0.030558459  0.030973689            3 
  758000   0.93989101   -6.4732077    278.38686  0.030605416  0.030955133            6 
  759000   0.96528889   -6.5116504    277.92167  0.030514018  0.030936357            8 
  760000   0.96499342   -6.4660489    278.95787  0.030587486  0.030917729            5 
  761000   0.94581626   -6.4921786    278.41694  0.030488057  0.030899108            7 
  762000   0.93311047   -6.4849012    280.21906  0.030645129  0.030880265            7 
  763000   0.95080452   -6.4491844    279.45603  0.030521628  0.030861555            7 
  764000   0.94537447   -6.4648236    279.68391  0.030506535  0.030842653           13 
  765000    0.9478232   -6.4737442    279.65089   0.03046306  0.030823718            4 
  766000   0.93542745   -6.4965346    279.51603  0.030408619  0.030804718            3 
  767000   0.95010112   -6.4807568    279.02914  0.030316073  0.030785793            7 
  768000   0.96076167   -6.4923096    279.46241  0.030323612   0.03076671            5 
  769000   0.96164293    -6.503915    280.60349  0.030407833  0.030747492            5 
  770000   0.97406474   -6.4573334     279.5536  0.030254719   0.03072822           15 
  771000   0.96966428   -6.5098158     280.6694  0.030336079  0.030709144            6 
  772000   0.95110514   -6.4892122    280.18896  0.030244922  0.030690088            6 
  773000   0.93542049   -6.4633262    280.70572  0.030261505  0.030671108            7 
  774000   0.94470688   -6.4902776    280.94775  0.030248466  0.030652104           10 
  775000   0.94365761   -6.4485756    281.09583  0.030225358  0.030633034            6 
  776000   0.93043644   -6.4697967    281.34213  0.030212858  0.030614192            6 
  777000   0.94897951   -6.4869267    281.47093  0.030187787   0.03059505            6 
  778000   0.94149413   -6.5187679    281.45027  0.030146773  0.030576207            3 
  779000   0.94478418    -6.486909    282.25853  0.030194537  0.030557264            5 
  780000   0.95181788   -6.5068763    281.94733  0.030122578   0.03053844            8 
  781000   0.95010069   -6.4758952    282.79372  0.030174319  0.030519546            8 
  782000    0.9309462   -6.4829497    283.03424  0.030161364   0.03050077            7 
  783000   0.95361146   -6.4912314    282.47794  0.030063637  0.030481499           10 
  784000   0.92896621   -6.5149024    283.27793  0.030110324  0.030462456            7 
  785000   0.93119506   -6.4901995    282.74661  0.030015563  0.030443701           10 
  786000   0.91359524    -6.483543    284.02418  0.030112827  0.030425184            4 
  787000    0.9501171   -6.4840013    284.17933  0.030090992  0.030406608            8 
  788000   0.91387264   -6.5123875    283.72593  0.030004857  0.030388002            9 
  789000   0.94066655   -6.4706289    284.28909  0.030026308  0.030369147           14 
  790000   0.94358239   -6.5045481    284.43352  0.030003536  0.030350563            9 
  791000   0.94867715   -6.5047938     285.1992   0.03004627  0.030331966            6 
  792000   0.92277033   -6.5091321    284.59356  0.029944609  0.030313228            7 
  793000   0.94686191   -6.5295912    285.33967  0.029985254  0.030294551            4 
  794000   0.95215602   -6.5230634    284.65621  0.029875757  0.030275778            4 
  795000   0.92991864   -6.5359813     285.3569  0.029911625  0.030256994           13 
  796000   0.92963906   -6.5051577    284.71702  0.029807058  0.030238127            6 
  797000    0.9355449   -6.5557924    285.80574  0.029883494  0.030219251            9 
  798000   0.93363858    -6.522358    285.36211  0.029799719  0.030200106            7 
  799000    0.9298651   -6.5128715    286.18863  0.029848627  0.030181108            7 
  800000   0.96259082   -6.4816484    286.51212  0.029845013  0.030162105            4 
  801000   0.93120086   -6.4701054    286.13658  0.029768683  0.030143065            4 
  802000   0.93975252   -6.4959246    286.83679  0.029804321  0.030124232            6 
  803000   0.95130225   -6.5321915    286.45012  0.029727078  0.030105243            5 
  804000   0.94475561   -6.5107941     286.3839   0.02968324  0.030086087            5 
  805000   0.93404663   -6.5124839    286.37585  0.029645533  0.030067095            9 
  806000   0.93926547   -6.5217488    287.57664  0.029732904  0.030048323            7 
  807000    0.9186287   -6.5344487    287.29527  0.029667004  0.030029573            3 
  808000    0.9389681   -6.5372535    287.81161  0.029683541  0.030011044            4 
  809000   0.92796035   -6.5006923    287.97818  0.029664007   0.02999221           11 
  810000   0.92815188   -6.5133122    287.61634  0.029590158  0.029973267            6 
  811000   0.94360812    -6.545539    287.44664  0.029536235  0.029954211            9 
  812000   0.92155229   -6.4924801    287.99985  0.029556635  0.029935206            6 
  813000   0.94498512    -6.537646    288.55458   0.02957714  0.029916213           10 
  814000   0.94103237   -6.5193725    288.64676  0.029550241  0.029897276            4 
  815000   0.92884815   -6.4670535    289.65445  0.029617019  0.029878566            4 
  816000   0.94841132   -6.5248268    288.22066    0.0294343  0.029859624            7 
  817000   0.92228963   -6.5339493    288.76355  0.029453647  0.029840629           12 
  818000   0.93768455   -6.5536718    288.68034  0.029409163  0.029821602            5 
  819000   0.93009761   -6.5334069    289.91266  0.029498643  0.029802499            3 
  820000   0.93516182   -6.5482144    289.76263  0.029447422  0.029783367            5 
  821000   0.92811451   -6.5437736    289.26811  0.029361359  0.029764202            3 
  822000    0.9129236   -6.5273639     289.9451  0.029394272  0.029745059            7 
  823000    0.9155238   -6.4876537    289.19299  0.029282401  0.029725957            6 
  824000    0.9362086   -6.5099506    290.23964  0.029352714  0.029706763            8 
  825000   0.93848813   -6.5739679    290.31982  0.029325234  0.029687412            5 
  826000   0.93734306    -6.561564     289.5384  0.029210896  0.029667942            7 
  827000   0.92036894   -6.5226253    290.17661  0.029239884  0.029648344            9 
  828000   0.92312695     -6.50596     290.2507  0.029212027  0.029628925           10 
  829000   0.91643302     -6.53008    290.79804  0.029231809   0.02960973            3 
  830000   0.92869029   -6.5107764    290.31761  0.029148354  0.029590382           19 
  831000   0.91754656   -6.5423101    290.95686  0.029177383  0.029571002           13 
  832000   0.92419832   -6.5387561    290.41878  0.029088419  0.029551765            6 
  833000    0.9455555   -6.5260793    290.59561   0.02907119  0.029532431           16 
  834000   0.92679642   -6.5037993    292.16276  0.029192921  0.029513344            8 
  835000   0.91792617   -6.5511516    290.79687  0.029021643  0.029494025           13 
  836000   0.91083404   -6.5491929    291.62399  0.029069377  0.029474751           10 
  837000   0.92426996   -6.5433582    292.63031  0.029134837  0.029455355            6 
  838000   0.93406799    -6.528282    291.47123  0.028984808  0.029436096            6 
  839000   0.93139691   -6.5330596    292.29706  0.029032286  0.029416828            7 
  840000   0.91965301    -6.545988    291.81499    0.0289499  0.029397481            8 
  841000   0.93737681   -6.5228305    292.11736  0.028945438  0.029378094            9 
  842000   0.91735913   -6.5462635    293.31546  0.029029638  0.029358852            7 
  843000   0.90555632    -6.555183    292.98524  0.028962558  0.029339785            6 
  844000    0.8840163   -6.5520614     293.7869  0.029007395  0.029320824            8 
  845000   0.92566139   -6.5473649     293.4628  0.028941104  0.029301664            8 
  846000   0.92010399   -6.5412851    294.32811  0.028992131  0.029282676            7 
  847000   0.91534541   -6.5451768    293.80107  0.028906048  0.029263591            8 
  848000   0.90189065   -6.5747383    294.03311  0.028894764  0.029244296            7 
  849000   0.91730938   -6.5189334    294.23854  0.028880893  0.029225059            7 
  850000   0.93711434   -6.5448404     294.2738  0.028850372   0.02920579           14 
  851000    0.9237743   -6.5274817    294.85823    0.0288737  0.029186686            7 
  852000   0.91171427   -6.5656314    294.23272   0.02877863  0.029167423           10 
  853000   0.93428648   -6.5454862    294.37751  0.028759038  0.029148249           12 
  854000   0.90179776   -6.5684026    294.97224  0.028783396  0.029129314            5 
  855000   0.92903843   -6.5728186    294.90583  0.028743259  0.029110034           17 
  856000   0.90957867   -6.5415506    294.74791  0.028694306  0.029090714           32 
  857000   0.91509635   -6.5541212    295.05935  0.028691107   0.02907154            6 
  858000   0.89709583   -6.5472011     294.4714  0.028600563  0.029052136           12 
  859000   0.91469933   -6.5464717    295.32309  0.028649892  0.029032956            5 
  860000   0.90803133   -6.5522584    296.23181  0.028704633   0.02901367            7 
  861000   0.90202802   -6.5750014     295.8252  0.028631939  0.028994273            5 
  862000   0.91939195   -6.5753034       296.17  0.028632057  0.028974907            7 
  863000   0.91678242   -6.5645451    296.03879   0.02858621   0.02895558           23 
  864000   0.91351065   -6.5635913    295.63607  0.028514282  0.028936376           12 
  865000   0.92338619   -6.5696541     296.6949  0.028583324  0.028917535            8 
  866000   0.90281678   -6.5689645    297.43033  0.028621086  0.028898496            7 
  867000   0.90381881    -6.586222     296.8368  0.028531027  0.028879587            7 
  868000   0.89503731    -6.591899    296.71166  0.028486142  0.028860827            5 
  869000   0.91816856   -6.5800883    297.59056  0.028537644  0.028842033           14 
  870000   0.90350307   -6.5767564     298.4019  0.028582558   0.02882351            8 
  871000   0.90058604   -6.5731062    298.16676  0.028527245  0.028804853            9 
  872000   0.89987231   -6.5274104    298.49548  0.028525944  0.028786209            7 
  873000   0.90786508   -6.5505554    299.27691  0.028567861  0.028767743            5 
  874000   0.90672958   -6.5738739    298.72691  0.028482733  0.028749103           13 
  875000    0.9207834   -6.5819602    298.68101   0.02844581  0.028730443            9 
  876000    0.9110886   -6.5671437    299.50856  0.028492062  0.028711861           12 
  877000   0.93157357   -6.5370093    299.91307  0.028498011  0.028693391            8 
  878000   0.89665046   -6.5738013    299.90426  0.028464717  0.028675022           13 
  879000   0.90682537   -6.5310281    300.75687  0.028513165  0.028656966            8 
  880000   0.90569659   -6.5803558    300.13989  0.028422338  0.028638952            8 
  881000    0.9004118   -6.5908002    300.34916  0.028409872  0.028620684           11 
  882000   0.89703872   -6.5415443    299.97961  0.028342745  0.028602436           14 
  883000   0.89365547   -6.5609959    300.55321   0.02836478  0.028584219            9 
  884000   0.88794825   -6.5867219    300.70961  0.028347437  0.028566026            5 
  885000   0.90531172   -6.5527246    301.39592   0.02838003     0.028548            6 
  886000   0.89625884   -6.5808074    301.23357  0.028332728  0.028529998            9 
  887000    0.9017933   -6.5653109     301.6501  0.028339919  0.028512154            7 
  888000   0.89592138   -6.5513803    300.87325  0.028235102  0.028494292            5 
  889000   0.91028913   -6.5782363    301.99946  0.028308911  0.028476478           10 
  890000   0.90382981   -6.5922847    302.31442  0.028306594  0.028458478           12 
  891000   0.92151678   -6.6110522    301.99266  0.028244731  0.028440464           10 
  892000    0.9024393   -6.5587723    302.07258  0.028220532  0.028422683           17 
  893000   0.90118263   -6.6053778    302.73153  0.028250423  0.028404895           10 
  894000   0.89356329     -6.58339    302.80032  0.028225235  0.028387125           11 
  895000   0.88158387   -6.5343468    303.80182  0.028286948  0.028369542            6 
  896000   0.88556801   -6.6011912     304.0281  0.028276423  0.028351827            9 
  897000   0.88677848   -6.5865305    304.29571  0.028269761  0.028334079            7 
  898000   0.90733939   -6.5565183    304.34465  0.028242822   0.02831643            7 
  899000   0.89905196   -6.5586535    304.21767  0.028199636  0.028298979           12 
  900000   0.91637905   -6.5904472    304.77804  0.028220189  0.028281479            9 
  901000   0.89838628   -6.5729013    303.80942  0.028099281   0.02826385            6 
  902000   0.87783513    -6.608776    304.24259  0.028108148   0.02824621            5 
  903000   0.91040051   -6.6388113      304.126  0.028066261  0.028228485           17 
  904000   0.88644711   -6.5812548    304.46365   0.02806634   0.02821056           15 
  905000   0.88873611   -6.6059508    304.80565  0.028066819  0.028192768            9 
  906000   0.90335937    -6.592373    304.60629  0.028017503  0.028175072            8 
  907000   0.90971778    -6.594996    305.01122  0.028023817  0.028157307            7 
  908000    0.8897959   -6.5978579    305.34152  0.028023267  0.028139699            5 
  909000   0.87830634   -6.5875359     305.2872  0.027987459   0.02812218            9 
  910000   0.87444585   -6.5789936    305.53509  0.027979404  0.028104578            8 
  911000   0.89211913   -6.5722773    307.15153  0.028096554  0.028087205            9 
  912000   0.88235762   -6.5940826    306.47266  0.028003715  0.028069966           27 
  913000   0.89415093   -6.5635609    307.28523   0.02804721  0.028052496            7 
  914000   0.86498291   -6.6068641     307.4964  0.028035777  0.028035339           13 
  915000   0.88942953   -6.5876223    306.93507  0.027954014  0.028018098            6 
  916000   0.89342784   -6.6140979    307.69056  0.027992227  0.028001005            5 
  917000   0.88644015   -6.5891978    306.45959  0.027849835  0.027983773            8 
  918000   0.90624712    -6.585161    307.46799  0.027911038  0.027966376            5 
  919000    0.8972076   -6.5740197     307.7786  0.027908832  0.027949131            6 
  920000   0.88098688    -6.607749    306.75221  0.027785527  0.027931643            9 
  921000   0.89830745   -6.6129926    306.12654  0.027698746  0.027913937            7 
  922000   0.88487708   -6.6108736    306.61835  0.027713156  0.027896109            3 
  923000   0.89022559   -6.5803177    307.45901  0.027759029  0.027878215           12 
  924000   0.89806748   -6.6190941    307.05739  0.027692766  0.027860227           17 
  925000   0.86567816   -6.6001432    307.45262  0.027698435  0.027842263           23 
  926000   0.87339301   -6.6088655    307.29408  0.027654255  0.027824364            9 
  927000   0.87760466   -6.5841743     308.0392  0.027691406  0.027806399           19 
  928000   0.90708224   -6.6081841    307.98701   0.02765688  0.027788517           14 
  929000   0.87768057   -6.5743057    308.17369  0.027643854  0.027770631           16 
  930000   0.88640242   -6.5850615    308.47573  0.027641194  0.027752673           11 
  931000   0.88689012   -6.6584404    308.51177   0.02761473  0.027734768           13 
  932000   0.86490757   -6.5796495    308.87856  0.027617897  0.027716956            5 
  933000   0.89202381   -6.6127977    308.11602  0.027520187  0.027699092            5 
  934000   0.87612866   -6.6056344    308.70644  0.027543401   0.02768107            7 
  935000   0.88804675   -6.5774468    309.33875  0.027570299  0.027663285            7 
  936000   0.88438313   -6.6198763    309.36684  0.027543344  0.027645489            9 
  937000   0.87921879    -6.609127    309.98103  0.027568572  0.027627646           19 
  938000   0.88366396   -6.6125921    308.87301  0.027440744   0.02760985           11 
  939000   0.88413358   -6.5975106    309.06479   0.02742854  0.027592003           20 
  940000   0.87181664   -6.6362792    309.37461  0.027426827  0.027574091            8 
  941000   0.87215242   -6.6213481    310.15195  0.027466521  0.027556257           14 
  942000   0.88089539   -6.6147016    309.55162  0.027384255  0.027538603            7 
  943000   0.87930699   -6.6173497    309.83952  0.027380657  0.027520778            3 
  944000   0.86277387   -6.5979471    309.75286  0.027344003  0.027503139           19 
  945000   0.88264669   -6.6449254    309.85274  0.027323875  0.027485315           13 
  946000   0.86883616   -6.6200934    310.24136  0.027329225  0.027467485           19 
  947000   0.88496258   -6.6112072    310.12196  0.027289859   0.02744965            9 
  948000   0.89212024   -6.6022317    311.08846  0.027346032  0.027431914           10 
  949000   0.87674886   -6.6223764     310.0633  0.027227195  0.027414171           16 
  950000   0.86943557   -6.6233369    309.88699  0.027183069  0.027396384           11 
  951000   0.86584998    -6.624189    310.93062  0.027245936  0.027378377            9 
  952000   0.88892913   -6.6090563    311.57967  0.027274131  0.027360564           11 
  953000   0.86664684   -6.6238001    311.80864  0.027265534  0.027342885           11 
  954000   0.87585153   -6.6619225    311.26648  0.027189594  0.027325062            9 
  955000    0.8668376   -6.6267837    311.34042  0.027167576  0.027307144            7 
  956000   0.87349383   -6.6291793    312.07159  0.027202893  0.027289472           20 
  957000    0.8882382   -6.5962412    311.85869  0.027155929  0.027271854            8 
  958000   0.86797351   -6.6265245    312.64587  0.027196057  0.027254121           11 
  959000   0.87402613   -6.6104943    312.60041  0.027163748  0.027236661           18 
  960000   0.87267829   -6.6203058    313.37879   0.02720302  0.027219213            9 
  961000   0.86182989   -6.6285769     312.9743  0.027139638  0.027201884           11 
  962000   0.88477298   -6.6435049    313.28353  0.027138213  0.027184361            6 
  963000   0.87687814    -6.615107    313.32948  0.027114008  0.027166813            7 
  964000   0.87789643   -6.6390794    313.48133  0.027099009  0.027149405           10 
  965000   0.87829768   -6.6294476    314.28695  0.027140496  0.027132097            9 
  966000    0.8714914    -6.666792    314.25847  0.027109944  0.027114788            7 
  967000    0.8784479    -6.660476     313.4744   0.02701434  0.027097567            7 
  968000   0.87469312   -6.6638438    314.59626  0.027083011  0.027080289           11 
  969000   0.87335386   -6.6141305    314.00298   0.02700404  0.027063023           11 
  970000   0.85542036   -6.6385601    314.23514  0.026996146  0.027045734           18 
  971000   0.86702386   -6.6224546    314.68685   0.02700711   0.02702838            6 
  972000   0.87576622   -6.6522095    315.29115  0.027031134  0.027011042           15 
  973000   0.86487229   -6.6449777    314.67259  0.026950376  0.026993701            6 
  974000   0.87917699    -6.646577    314.65717  0.026921387   0.02697652            8 
  975000   0.87584453   -6.6050201    314.93106  0.026917184  0.026959339           11 
  976000    0.8724871   -6.6360567    315.19228  0.026911909  0.026942008           13 
  977000   0.86761467   -6.6406129    315.04795  0.026872053   0.02692474           18 
  978000   0.84805941   -6.6330423    315.18428  0.026856193  0.026907446            8 
  979000   0.86925563   -6.6131881    315.18983  0.026829233  0.026890163            6 
  980000   0.86143134   -6.6392884    315.39625  0.026819409  0.026872862           20 
  981000    0.8915062   -6.6270605    316.17977  0.026858628  0.026855718            9 
  982000   0.86483486   -6.6358876    317.22875  0.026920295  0.026838578           15 
  983000   0.85680812   -6.6506812    316.63189   0.02684231  0.026821354           12 
  984000   0.85752838   -6.6777829    316.14753  0.026774012  0.026804117            5 
  985000   0.85759632   -6.6409035    316.80307   0.02680229  0.026786887           18 
  986000   0.86108206   -6.6759949    316.71398  0.026767578  0.026769749            8 
  987000   0.84647996   -6.6619816    317.59431  0.026814784  0.026752635            7 
  988000   0.85822075   -6.6256593    317.29177  0.026762127  0.026735555           21 
  989000   0.86665782   -6.6323976    317.47338  0.026750369  0.026718455            8 
  990000   0.86193878   -6.6537526    315.97413  0.026597149  0.026701227            8 
  991000   0.85249188   -6.6758246    316.66842  0.026628693   0.02668374           13 
  992000    0.8562314   -6.6371358    317.14097  0.026641547  0.026666463            3 
  993000   0.87050745   -6.6622553    317.52176  0.026646673  0.026649098            9 
  994000    0.8454071   -6.6538601     317.9781  0.026658124  0.026631746           13 
  995000   0.87011028   -6.6961308    317.92821  0.026627153  0.026614514           14 
  996000   0.84675772   -6.6325702    317.10762  0.026531762  0.026597217           11 
  997000   0.85087969   -6.6570907    318.12887   0.02659051  0.026579936           21 
  998000   0.85507646   -6.6615638    317.50985  0.026512179  0.026562742           21 
  999000   0.87936659   -6.6723284    318.61938  0.026578193  0.026545515           12 
 1000000   0.87532312   -6.6927475     318.8431  0.026570258  0.026528313           15 
 1001000   0.84361691   -6.6778212    318.55318  0.026519579  0.026511215           10 
 1002000   0.85253148   -6.6479618    318.53876  0.026491913  0.026494331           14 
 1003000   0.85254732   -6.6508999    319.00242  0.026504023   0.02647751           10 
 1004000   0.86432987   -6.6676226    318.66468  0.026449592  0.026460716           12 
 1005000   0.87605019    -6.655608    319.27639  0.026473995  0.026443898            9 
 1006000   0.84521424   -6.6373506    319.82788  0.026493363  0.026427119           20 
 1007000     0.829077   -6.6589106     319.5681  0.026445556  0.026410252           10 
 1008000   0.87293291   -6.6755637    320.24125  0.026474971  0.026393429           16 
 1009000   0.86217427   -6.6839169    319.68531  0.026402817  0.026376707            9 
 1010000   0.84890094    -6.664352    320.34718  0.026431285  0.026360069           15 
 1011000   0.83584255   -6.6710354    320.59629  0.026425675  0.026343617            8 
 1012000   0.86060047   -6.6749474    320.35736  0.026379888  0.026326977           25 
 1013000   0.84524754   -6.7061731    321.63997  0.026459359  0.026310437            9 
 1014000   0.83959034    -6.712645    322.04609  0.026466641  0.026293899           11 
 1015000   0.84093281   -6.6577822    322.62772  0.026488318  0.026277566           11 
 1016000   0.83270426   -6.6771235     321.2395  0.026348384  0.026261327           11 
 1017000   0.84397017    -6.700578     321.1239  0.026313004  0.026244889            4 
 1018000   0.83704437   -6.6803389    322.27684  0.026381536  0.026228397           19 
 1019000   0.86990012   -6.6894424    322.11612  0.026342503  0.026211974            9 
 1020000    0.8490249   -6.6627172    321.77926  0.026289156  0.026195562            6 
 1021000   0.84259564   -6.6935151    322.64159   0.02633379  0.026179198           10 
 1022000    0.8476151   -6.6788676    322.23824  0.026275134   0.02616283            8 
 1023000   0.84098966   -6.6665295    323.57309  0.026358185  0.026146603           22 
 1024000   0.86852415   -6.6715455    322.52015  0.026246757  0.026130433           11 
 1025000   0.83665297   -6.6884544    322.85907  0.026248705  0.026114256           10 
 1026000    0.8426945   -6.7062621    322.91419  0.026227599  0.026097973           10 
 1027000   0.82512398   -6.7180395    323.01466  0.026210212  0.026081625            7 
 1028000   0.84212365   -6.6707699    324.09481  0.026272277  0.026065336           16 
 1029000   0.86985723   -6.6412759    323.73456  0.026217571  0.026049258           16 
 1030000   0.83578646   -6.6707268    323.21735  0.026150271  0.026032993           15 
 1031000   0.84613083   -6.6966384    323.15621  0.026119965  0.026016722            8 
 1032000   0.84219135   -6.6685313    324.26964  0.026184564  0.026000494           12 
 1033000   0.84332529   -6.6867549    324.52961  0.026180188  0.025984239            9 
 1034000   0.83399376   -6.6963443    323.88661  0.026103047  0.025967892           10 
 1035000   0.83990691   -6.6734916    323.99365  0.026086445  0.025951669           10 
 1036000   0.85149265    -6.657838    324.40465  0.026094325  0.025935474            8 
 1037000   0.82454533   -6.6911669    324.80017  0.026100946  0.025919312           15 
 1038000   0.84014672   -6.7077113    324.29073  0.026034901   0.02590311            7 
 1039000   0.83451642   -6.6703927    323.70964  0.025963237  0.025886771            9 
 1040000   0.82748654   -6.7069794    324.35439  0.025989935  0.025870567           15 
 1041000   0.84506144   -6.6960651    325.39053  0.026047913  0.025854477            8 
 1042000   0.83129298   -6.6884566    325.64206  0.026043031  0.025838382           11 
 1043000   0.83283959   -6.7008977    325.44658  0.026002443  0.025822246            8 
 1044000   0.83342048   -6.6975364    325.96082  0.026018584  0.025806169            6 
 1045000   0.83249487   -6.6986021    326.30978  0.026021514  0.025790216           11 
 1046000   0.83175312   -6.6725395    326.45963  0.026008575  0.025774203            8 
 1047000   0.83578515   -6.6961214    325.95279  0.025943393  0.025758212            5 
 1048000   0.84260367   -6.6949533    326.05452  0.025926727  0.025742367            4 
 1049000   0.82460747   -6.7072116    325.74144   0.02587714  0.025726442            8 
 1050000    0.8453058   -6.7053315    326.41241  0.025905746  0.025710416           13 
 1051000   0.82055168   -6.7012113    326.34841  0.025876024  0.025694379           10 
 1052000   0.82920284   -6.6892845    326.42706  0.025857657  0.025678491            9 
 1053000   0.83655503   -6.7217763    326.56144  0.025843735  0.025662424           10 
 1054000   0.83851418   -6.7368513    325.92598  0.025768973  0.025646266           17 
 1055000   0.82207462   -6.7067104    326.09274  0.025757721  0.025630095           20 
 1056000   0.82181119   -6.6854977    326.74271  0.025784621  0.025613993            9 
 1057000   0.83580293   -6.6852193    327.21649  0.025797579  0.025597941           19 
 1058000   0.83827904   -6.7003467    327.63522  0.025806177  0.025582003            8 
 1059000   0.84113118      -6.7237    326.88743  0.025722964  0.025565894           24 
 1060000   0.82327139   -6.7018177    327.60448  0.025755069  0.025549871            8 
 1061000   0.82083146   -6.7131216     328.1101  0.025770507  0.025533866           10 
 1062000   0.82661201   -6.6796054    327.56303  0.025703314  0.025517941           11 
 1063000   0.81758124    -6.701961     327.2228  0.025652462  0.025502011           10 
 1064000   0.82218508   -6.7329139    327.76446  0.025670776   0.02548613           28 
 1065000   0.81087256   -6.7328279    327.55251  0.025630087  0.025470063           13 
 1066000   0.83280691   -6.6993394    328.10072  0.025648899  0.025454014           11 
 1067000   0.82345454   -6.7338519    328.51655  0.025657337   0.02543801           10 
 1068000   0.82229868   -6.7214149    328.24544   0.02561216   0.02542197           10 
 1069000   0.82932785   -6.7202712    327.48545  0.025528956  0.025405991           12 
 1070000   0.83730861   -6.7047895    328.72342  0.025601512  0.025389954           20 
 1071000   0.83450286   -6.6899941    328.36153   0.02554945  0.025373933           15 
 1072000   0.83336846    -6.697645     329.4911  0.025613425  0.025357957           16 
 1073000   0.81729009   -6.6929434    328.92239  0.025545386  0.025341936           22 
 1074000   0.82710597   -6.7114732    328.75781   0.02550883  0.025325722           38 
 1075000     0.842221   -6.7229406    328.61046  0.025473679  0.025309442           13 
 1076000   0.80892115   -6.7349593    328.12967  0.025412769  0.025293184           21 
 1077000   0.82414138   -6.7297148    328.43228  0.025412587  0.025276874           15 
 1078000   0.82249041   -6.7156952    328.91301  0.025426175  0.025260562            9 
 1079000   0.82703405   -6.7343961    329.57488  0.025453728  0.025244307            8 
 1080000   0.82477317   -6.7132597    329.18444  0.025400034  0.025228181            7 
 1081000   0.81229283   -6.7117046    328.51692  0.025325079  0.025212095           11 
 1082000   0.80958083   -6.7378046    329.02957  0.025341156  0.025195959           13 
 1083000   0.82890801   -6.7349374    329.18412  0.025329649  0.025179736            8 
 1084000   0.81985704   -6.7677955    329.80427  0.025353957  0.025163584           10 
 1085000    0.8476073   -6.7424882    330.19248  0.025360406  0.025147436            6 
 1086000   0.81117926   -6.7413556    329.35045  0.025272441  0.025131272           10 
 1087000    0.8184758   -6.6884302    330.19896  0.025314241  0.025115111            4 
 1088000   0.83136502   -6.7011058    329.98731  0.025274763  0.025099035            8 
 1089000   0.80592625   -6.7066625    329.66423  0.025226831  0.025083045           13 
 1090000   0.79948973   -6.7343183    330.03158  0.025231772  0.025066913           21 
 1091000   0.80391167   -6.7377351    330.94467  0.025278389  0.025050891           16 
 1092000   0.82496281   -6.7101993    330.63474  0.025231588  0.025034814           38 
 1093000   0.81988428   -6.7249106    330.46602  0.025195641  0.025018773           13 
 1094000   0.82440493   -6.7688742    330.38476  0.025166419  0.025002647           15 
 1095000   0.81071442   -6.7317386    331.08656  0.025196846  0.024986553           23 
 1096000   0.80325879   -6.7369086    330.81628  0.025153306  0.024970359           33 
 1097000   0.80945673   -6.7225465    330.56761  0.025111486  0.024954241           11 
 1098000   0.82995332   -6.7519148    331.30609  0.025144664  0.024938088            9 
 1099000   0.81856842   -6.7730463    331.66282  0.025148834  0.024921971           11 
 1100000   0.81342072   -6.7410301    330.53228  0.025040324  0.024905841            9 
 1101000   0.80895258   -6.7422244    331.74852  0.025109637  0.024889937            9 
 1102000    0.8059549   -6.7569093     331.6063  0.025076097  0.024873865           14 
 1103000   0.81116941   -6.7438513    331.60228  0.025053058  0.024857813           18 
 1104000   0.81247942   -6.7294891    331.59674  0.025029947  0.024841831           14 
 1105000   0.79645021   -6.7469504    331.08947   0.02496904  0.024825797           28 
 1106000   0.81667791     -6.75566    332.19765  0.025029961  0.024809794            7 
 1107000   0.80756583   -6.7474533    331.98426  0.024991287  0.024793741           15 
 1108000   0.81086193   -6.7735423    330.87578  0.024885363  0.024777659            8 
 1109000   0.81068899   -6.7739332    332.12544  0.024956826  0.024761586           20 
 1110000    0.8249236    -6.762855    331.30931  0.024873071  0.024745435            8 
 1111000   0.81970648   -6.7441368    332.22061  0.024919037  0.024729343            8 
 1112000   0.81328839   -6.7410696    331.95874  0.024877004  0.024713199           25 
 1113000   0.79408979   -6.7877645    331.86088  0.024847326  0.024697101           21 
 1114000   0.80559218   -6.7436302     332.7347  0.024890388  0.024681021           22 
 1115000     0.794169   -6.7357512    331.81009   0.02479896  0.024664961           27 
 1116000   0.80071264   -6.7668855      332.237  0.024808617  0.024648701           11 
 1117000   0.81569889   -6.7684406    332.39889  0.024798484  0.024632555            9 
 1118000     0.810755    -6.731464     332.3506  0.024772705  0.024616479           13 
 1119000   0.79369924   -6.7646703    332.97879  0.024797348  0.024600467           19 
 1120000   0.81384154   -6.7569583    332.68415  0.024753285  0.024584419           17 
 1121000   0.80555791   -6.7661671    332.87603  0.024745467  0.024568391           16 
 1122000   0.81933621    -6.775894     332.9025  0.024725379  0.024552404           11 
 1123000    0.8036491   -6.7697933    333.15136  0.024721828  0.024536368           10 
 1124000   0.81840233   -6.7443418    333.42927  0.024720438  0.024520535           29 
 1125000   0.79751129   -6.7832737    333.10446  0.024674405  0.024504719           42 
 1126000   0.79915243   -6.7654212     333.3566  0.024671151  0.024488873           36 
 1127000   0.79667968   -6.7653992    334.57521  0.024739367  0.024473058           10 
 1128000   0.80197191   -6.7752657    334.07416   0.02468042  0.024457169           17 
 1129000   0.80047665    -6.749454    334.47869  0.024688418  0.024441283           11 
 1130000   0.80516939   -6.7421286    333.91702  0.024625149  0.024425389           14 
 1131000   0.79743445   -6.7989763     333.8375  0.024597517  0.024409463           32 
 1132000   0.79908368   -6.7774036     334.4579  0.024621459  0.024393519           31 
 1133000    0.8044717   -6.7689747     334.8933  0.024631752  0.024377646           33 
 1134000   0.82526626    -6.767204    333.87888  0.024535485  0.024361857           28 
 1135000   0.80846654   -6.7801844    334.96821  0.024593848  0.024346114           11 
 1136000   0.79439418   -6.7637768    334.19278  0.024515316  0.024330419            8 
 1137000   0.78285543   -6.7627642     336.1624  0.024638112   0.02431472           23 
 1138000   0.80170368   -6.7759323    334.68492  0.024508269  0.024299093           29 
 1139000    0.8153873   -6.7536649    334.96949  0.024507572  0.024283517           26 
 1140000   0.81469449   -6.7907874    335.75625  0.024543586  0.024267883           21 
 1141000   0.78676301   -6.7944417     335.4588  0.024500351  0.024252267           16 
 1142000    0.7974181   -6.7798032    335.72833  0.024498565  0.024236608           14 
 1143000   0.79157957   -6.7595378    336.09502  0.024503866  0.024220908           18 
 1144000   0.77882722   -6.7937696    335.21982  0.024418693  0.024205224           12 
 1145000    0.8078639   -6.7918213    334.69234  0.024358977  0.024189413           28 
 1146000   0.80134414   -6.8097782    335.27332  0.024379968  0.024173594           25 
 1147000   0.80096772   -6.7787567    335.47377  0.024373276  0.024157782           20 
 1148000    0.8142979   -6.7929222    335.94487  0.024386242  0.024142051           14 
 1149000   0.81115396   -6.8160155    335.44929  0.024329076  0.024126301            9 
 1150000   0.79877405   -6.7676579     335.1793  0.024288355    0.0241106           24 
 1151000   0.79734365   -6.7895585    335.72779  0.024306964  0.024094823           10 
 1152000    0.8018524   -6.7954824    336.01224  0.024306441     0.024079           11 
 1153000    0.7932571   -6.7841923    336.11523  0.024292804  0.024063215           14 
 1154000   0.79287978   -6.7646117    336.75518  0.024317965  0.024047462           11 
 1155000   0.79354494   -6.7895641     335.2496  0.024188283  0.024031687           28 
 1156000   0.79084637   -6.7852213    336.98353  0.024292354  0.024015879           23 
 1157000   0.79600091    -6.796947    335.78885   0.02418531  0.024000048           23 
 1158000   0.78621358   -6.8065236    336.17819  0.024192443  0.023984169           14 
 1159000   0.80359177   -6.8143096    336.99617  0.024230383  0.023968314           25 
 1160000   0.78273942    -6.810003    336.68732  0.024187308   0.02395249           11 
 1161000   0.78718925   -6.7610774    337.13453  0.024198574  0.023936637           13 
 1162000   0.79268542    -6.810744    336.35979  0.024122188  0.023920738           21 
 1163000   0.79846521    -6.805583    336.07734  0.024081208  0.023904855           22 
 1164000   0.79880444   -6.8102751    336.26214   0.02407375   0.02388893           16 
 1165000   0.78155724   -6.8152875     336.4251  0.024064742  0.023873031           34 
 1166000   0.77215866   -6.8035506    336.64977  0.024060161  0.023857095           33 
 1167000   0.77872529   -6.8320725    336.40607  0.024022141  0.023841239           37 
 1168000   0.79790669    -6.816799    336.97115  0.024041891  0.023825471           65 
 1169000   0.79916264   -6.7857526    337.33753  0.024047443  0.023809667           20 
 1170000     0.795483   -6.7879208     337.8092  0.024060484  0.023793938           12 
 1171000   0.78972312   -6.8144838    337.00321   0.02398258   0.02377813           25 
 1172000   0.78319635   -6.8206217    337.65404  0.024008393  0.023762428           22 
 1173000   0.77993329   -6.8231864       337.42  0.023971299  0.023746702           33 
 1174000    0.7792974   -6.8086798    337.40525  0.023949833   0.02373097           12 
 1175000   0.78564936   -6.8072165    337.79084  0.023956797  0.023715268           18 
 1176000   0.78961869   -6.8266306    337.37066  0.023906651  0.023699455           26 
 1177000   0.78838001    -6.823787     337.6286  0.023904602  0.023683763           11 
 1178000   0.79689598   -6.8131404    337.85529  0.023900346  0.023668022            9 
 1179000   0.78415761   -6.7960461    338.64942  0.023936205  0.023652316            5 
 1180000   0.78782712   -6.8026871    337.39278  0.023827173  0.023636565           15 
 1181000   0.79308759   -6.8031442    338.07163  0.023854899  0.023620778            9 
 1182000    0.7674417   -6.8143485    337.51422  0.023795419  0.023605056           27 
 1183000   0.78898321   -6.8305494    337.66176  0.023785697  0.023589359           18 
 1184000    0.7761274   -6.8355143    338.22356  0.023805149  0.023573611           19 
 1185000    0.7793573    -6.799121    338.33607  0.023792973  0.023557838           29 
 1186000   0.77242052    -6.788784    338.13539   0.02375881  0.023542188           11 
 1187000   0.77221649   -6.8021898     338.6469  0.023774705  0.023526528           10 
 1188000   0.78194452   -6.7990607    339.05672   0.02378344  0.023510857           16 
 1189000   0.79834773   -6.8114893    338.82198  0.023746985  0.023495207           24 
 1190000   0.77691659   -6.7892943    338.55699  0.023708473  0.023479535           12 
 1191000   0.77650891   -6.8208858    338.75476  0.023702404  0.023463796           15 
 1192000   0.78401943   -6.7889311    338.57768   0.02367014  0.023448075           13 
 1193000   0.78601872   -6.8027409    339.22057  0.023695206  0.023432448           27 
 1194000   0.77198412   -6.8482212    338.17615  0.023602467  0.023416702           30 
 1195000   0.78473714   -6.8336721    339.27005  0.023658999   0.02340101           15 
 1196000   0.77870441    -6.814999    339.19431   0.02363394  0.023385375           17 
 1197000   0.78431384   -6.8485044    338.96354   0.02359813  0.023369709           16 
 1198000   0.76652216   -6.8284285     339.0173  0.023582172  0.023354022           25 
 1199000   0.79080981   -6.8459621    340.02072  0.023632244  0.023338419           12 
 1200000   0.77965402   -6.8444715    339.01656  0.023542817  0.023322835           11 
 1201000   0.78997183   -6.7842718    339.82373  0.023579221  0.023307339           19 
 1202000   0.76459696   -6.8198857    338.71384  0.023482657  0.023291773           13 
 1203000    0.7873505   -6.8327395    339.88335   0.02354415  0.023276117           17 
 1204000   0.77118803   -6.8619116    339.68036  0.023510545  0.023260493            9 
 1205000   0.77766839   -6.8348628    340.47229  0.023545801  0.023244939           11 
 1206000   0.74381675   -6.7755984    341.00938   0.02356339  0.023229399           20 
 1207000   0.76294424    -6.852028    339.47378  0.023437847  0.023213826           30 
 1208000   0.76091861   -6.8326431    339.77006  0.023438884  0.023198192           27 
 1209000   0.79061446   -6.8231989    339.61273  0.023408652  0.023182576           49 
 1210000   0.76993688   -6.8577901    341.05624  0.023488722  0.023166877           55 
 1211000   0.77112615   -6.8630368    339.69893  0.023375924  0.023151248           46 
 1212000   0.75780223   -6.8389308    340.39151  0.023404257  0.023135658           35 
 1213000   0.77682875   -6.8515139    339.74701  0.023340685  0.023120008           25 
 1214000   0.78615128    -6.852364    340.83897  0.023396415  0.023104397           27 
 1215000   0.75877333   -6.8631309    340.38936  0.023346321   0.02308881           31 
 1216000   0.77207653   -6.8616235    340.06793  0.023305094  0.023073239           14 
 1217000   0.77207908   -6.8691516    340.71009  0.023329916  0.023057734           28 
 1218000   0.76844379   -6.8330974    341.61136  0.023372424  0.023042276           23 
 1219000   0.75672571   -6.8100209    341.52682  0.023347472  0.023026862           12 
 1220000    0.7608008   -6.8258998    340.73378  0.023274166   0.02301148           23 
 1221000     0.758281   -6.8335386    340.81927  0.023260938  0.022996039           23 
 1222000   0.75746043   -6.8426373    341.28242  0.023273487  0.022980785           23 
 1223000   0.76013434   -6.8309476    341.91861  0.023297806  0.022965484           10 
 1224000   0.77173599   -6.8427224     341.6609  0.023261227  0.022950197           22 
 1225000   0.76379098   -6.8530634    341.51715  0.023232459  0.022934968           10 
 1226000   0.76808834   -6.8520274    341.92189   0.02324102  0.022919696           29 
 1227000   0.77147858   -6.8246796    340.97564  0.023157813  0.022904367           20 
 1228000   0.75965803    -6.857858    342.29163  0.023228259  0.022889029           10 
 1229000    0.7545951   -6.8609369    341.39012  0.023148232  0.022873657            8 
 1230000   0.78263883   -6.8176264    341.88594  0.023163004  0.022858353            9 
 1231000   0.76424817   -6.8358533    341.59826  0.023124713  0.022843029           15 
 1232000    0.7816737   -6.8251914    341.79425    0.0231192  0.022827678           10 
 1233000   0.74797923    -6.842982    342.17642  0.023126279  0.022812325           17 
 1234000   0.75689127   -6.8747945    340.98884  0.023027339  0.022796892           11 
 1235000   0.75325545   -6.8515144    342.60034  0.023117432   0.02278152           18 
 1236000   0.74227293   -6.8570113    342.41369  0.023086144  0.022766084           20 
 1237000   0.75286551   -6.8473888    342.53467  0.023075631   0.02275062           29 
 1238000   0.75755115   -6.8653265    342.56343  0.023058928   0.02273523           26 
 1239000   0.77443047   -6.8502988    341.90869   0.02299628  0.022719828           36 
 1240000   0.75834914   -6.8649634    341.92431  0.022978785  0.022704434           37 
 1241000   0.76104475   -6.8636921    342.49945  0.022998889  0.022689033           14 
 1242000   0.74916669    -6.857602    342.41514  0.022974714  0.022673601           10 
 1243000   0.76983315   -6.8590727    342.43758  0.022957736  0.022658254           18 
 1244000   0.74613934   -6.8535345    342.71441  0.022957825  0.022642767           23 
 1245000   0.75919157   -6.8708008    342.12322  0.022899814  0.022627229           21 
 1246000   0.77463519   -6.8708336    341.27687  0.022824831  0.022611701           16 
 1247000   0.77230728   -6.8676961    342.22358  0.022869793  0.022596159           12 
 1248000    0.7473949   -6.8337383    343.32273  0.022924862  0.022580768           11 
 1249000   0.74542154   -6.8650191     342.8254  0.022873325  0.022565349           36 
 1250000   0.74645832   -6.8524799    342.46175  0.022830783  0.022549928           14 
 1251000   0.73694136   -6.8801965    342.91852   0.02284296  0.022534514           22 
 1252000   0.75359159   -6.8669287     342.4808  0.022795581  0.022519061           32 
 1253000   0.74182339   -6.8226222    343.47904  0.022843778  0.022503675           53 
 1254000   0.75339747   -6.8186528    343.01298   0.02279459    0.0224884           39 
 1255000   0.75303557   -6.8713056    343.08201   0.02278101  0.022473094           10 
 1256000   0.76764322   -6.8475267    344.26497   0.02284136  0.022457828           13 
 1257000   0.76446251   -6.8647155    342.77702  0.022724544  0.022442484           20 
 1258000    0.7356185    -6.850128    343.27695  0.022739596  0.022427116           43 
 1259000   0.74761251   -6.8652577    342.38154  0.022662268  0.022411729           31 
 1260000   0.75606245   -6.8894381    343.09989  0.022691792  0.022396277           33 
 1261000   0.75010978   -6.8822015    342.75376  0.022650923  0.022380873           35 
 1262000   0.74442069   -6.8650065    343.57741  0.022687362  0.022365439           48 
 1263000   0.73333844   -6.8711525    342.68467  0.022610495  0.022349981           14 
 1264000   0.74292415   -6.8677164    342.61361  0.022587923  0.022334454           11 
 1265000   0.75779975   -6.8886336    342.41945  0.022557276  0.022318933           14 
 1266000   0.75633968   -6.8793169    343.06327  0.022581837  0.022303379           29 
 1267000   0.74587861   -6.8977126     343.2324  0.022575138  0.022287771           31 
 1268000    0.7369836   -6.8707432    342.42004  0.022503946  0.022272188           20 
 1269000   0.75086454   -6.8746781    342.99322  0.022523852  0.022256591           25 
 1270000   0.76743381   -6.8859563    343.18721  0.022518846   0.02224098           23 
 1271000   0.72645419   -6.8952702    343.06631  0.022493201  0.022225356           26 
 1272000   0.75793586   -6.8955133    342.60656  0.022445398  0.022209734           21 
 1273000   0.75281827   -6.8769139    342.73246  0.022436008  0.022194104           10 
 1274000    0.7448407   -6.8583373    342.56526   0.02240746  0.022178493           15 
 1275000   0.75444102   -6.8693708    342.79261  0.022404745  0.022162877           22 
 1276000   0.75300685   -6.8981266    342.64106   0.02237729  0.022147198           13 
 1277000   0.72462277   -6.8716088    342.50871   0.02235113  0.022131562           14 
 1278000   0.73556909   -6.8638136    342.67134  0.022344245   0.02211588           14 
 1279000   0.73944571   -6.8711456    343.56682   0.02238512  0.022100274           10 
 1280000   0.73520703   -6.8751553    342.86164  0.022321721    0.0220846           41 
 1281000   0.74080394   -6.8784923    343.20842  0.022326855  0.022068951           20 
 1282000   0.73889851   -6.8845926    342.17208  0.022242075  0.022053267           19 
 1283000   0.74283655   -6.8882919    342.57751  0.022251072  0.022037642           14 
 1284000   0.73207154   -6.8823832    343.40987  0.022287764  0.022021939           14 
 1285000   0.73336055   -6.8863612    343.01739  0.022244967  0.022006301           22 
 1286000   0.73377756   -6.8278852    343.62754  0.022267207    0.0219907           12 
 1287000   0.74113455   -6.8823872    343.45265  0.022238581   0.02197508           36 
 1288000   0.71844575   -6.9084193     342.4276  0.022154995  0.021959454           24 
 1289000   0.75300539   -6.8742721    343.43813  0.022203137  0.021943851           22 
 1290000   0.73734329   -6.9044618    343.94336  0.022218563  0.021928336           25 
 1291000   0.72457571   -6.8924417    344.54028  0.022239884  0.021912844           12 
 1292000   0.72457167   -6.8765727    343.83107  0.022176926  0.021897414           35 
 1293000   0.75315005   -6.8725378    343.91809  0.022165383  0.021881948           20 
 1294000   0.74260931   -6.8923852    344.52886  0.022187587  0.021866517           59 
 1295000   0.74525721   -6.8872717    344.05687  0.022140082  0.021851018           53 
 1296000   0.73618284   -6.9035479    343.73411  0.022102245  0.021835539           29 
 1297000   0.73487744   -6.9047637    342.88671  0.022030758   0.02181998           74 
 1298000   0.72806472   -6.9165822    343.78011  0.022071142  0.021804426           13 
 1299000   0.73165912   -6.9245344    344.33387  0.022089676  0.021788966           18 
 1300000   0.72806117   -6.9076575    344.17971  0.022062802  0.021773555           16 
 1301000   0.76001682   -6.9048887    344.84794  0.022088646  0.021758111           17 
 1302000   0.73333853   -6.9145351    343.29643  0.021972378  0.021742644           35 
 1303000   0.73484484   -6.8921289    344.73405  0.022047458  0.021727232           20 
 1304000   0.73103749   -6.8930134    344.61879  0.022023185  0.021711794           37 
 1305000   0.72292275   -6.8844553    344.58442  0.022004114   0.02169638           23 
 1306000   0.73372717   -6.9079843    344.44929  0.021978643  0.021681014           14 
 1307000   0.71672773   -6.9237356    344.55439  0.021968528  0.021665624           38 
 1308000   0.72749756    -6.922968      344.565  0.021952408  0.021650208           22 
 1309000   0.72424005   -6.9166445    344.29875  0.021918688    0.0216348           52 
 1310000   0.72299785   -6.9309855     344.7953  0.021933543  0.021619381           41 
 1311000    0.7228204   -6.9036667    344.65411  0.021907838  0.021603991           17 
 1312000   0.73074091   -6.9330335    344.54005  0.021883896  0.021588563           46 
 1313000   0.73704284   -6.9293915    344.41741  0.021859444  0.021573108           50 
 1314000   0.72557407   -6.9084183    344.65609  0.021857946  0.021557623           62 
 1315000   0.73714748   -6.9123862     344.6078  0.021838264  0.021542118           61 
 1316000   0.72506382   -6.9168146    343.36194  0.021742778  0.021526652           54 
 1317000   0.74013112   -6.9018109    344.65906  0.021808343  0.021511216           33 
 1318000   0.70813465   -6.9221606    343.89906  0.021743744  0.021495719           44 
 1319000   0.71929754   -6.9343547    344.63515  0.021773765  0.021480296           19 
 1320000   0.73493075   -6.9225146    344.13409  0.021725637  0.021464854           50 
 1321000   0.70809958   -6.9272848     345.6367  0.021803981  0.021449478           39 
 1322000   0.72756658   -6.9109841    344.02343  0.021685794  0.021434085           52 
 1323000   0.73981528   -6.9441305    344.29535   0.02168653  0.021418619           39 
 1324000   0.72666784   -6.9296499    344.39621  0.021676499  0.021403098           26 
 1325000   0.73462226   -6.9172531     344.6689   0.02167729  0.021387586           25 
 1326000   0.71466768   -6.9256981    344.52426  0.021651852  0.021372129           51 
 1327000   0.72151432   -6.9332094    344.33633  0.021623733  0.021356715           52 
 1328000   0.72513066   -6.9318794    344.44031  0.021613975  0.021341247           20 
 1329000   0.70951329   -6.9449107    344.58804  0.021606975  0.021325794           23 
 1330000   0.70632753   -6.9248918    344.34991  0.021575809  0.021310369           22 
 1331000   0.71182137   -6.8924877    344.54052  0.021571533  0.021294982           13 
 1332000   0.71872587   -6.9243829    345.84946  0.021637229   0.02127955           33 
 1333000    0.7346609    -6.906887    345.45941  0.021596612  0.021264255           15 
 1334000    0.7227371   -6.9090538    344.92819  0.021547238  0.021248958           37 
 1335000   0.72201524   -6.9410443    344.88638  0.021528488  0.021233609           36 
 1336000     0.733686   -6.9207442    344.87541   0.02151169  0.021218261           95 
 1337000   0.71933549   -6.9272346    345.64146  0.021543347   0.02120295           45 
 1338000   0.71306231   -6.9151505    345.63464  0.021526821  0.021187631           59 
 1339000   0.72038802   -6.9453879    345.62807  0.021510336  0.021172382           40 
 1340000   0.71380734   -6.9393732    345.36565  0.021477963  0.021157131           45 
 1341000   0.71369871   -6.9294759    345.31268  0.021458655  0.021141813           82 
 1342000   0.72370405   -6.9378641     344.7241  0.021406117  0.021126436           68 
 1343000   0.72272726   -6.9273704    345.72678  0.021452394  0.021111041           77 
 1344000   0.73046621   -6.9659885    344.51152  0.021361081  0.021095621           48 
 1345000   0.70708938   -6.9569331    344.84559  0.021365898  0.021080149           80 
 1346000     0.719003   -6.9689365    344.59319  0.021334398  0.021064665           70 
 1347000   0.71086549   -6.9279085    345.10096  0.021349973   0.02104921          124 
 1348000   0.72139443   -6.9441927    345.48376  0.021357799  0.021033795           34 
 1349000    0.7089909   -6.9335484    345.73215  0.021357311  0.021018379           71 
 1350000   0.72578627   -6.9428975    345.30902  0.021315371  0.021003027           53 
 1351000   0.72611219   -6.9533795    344.60015  0.021255869  0.020987685           77 
 1352000   0.70612158   -6.9384422    345.01401  0.021265657  0.020972397          143 
 1353000   0.71907719   -6.9629336    344.76681  0.021234714  0.020957099          241 
 1354000   0.70442747   -6.9575911    345.75985  0.021280148  0.020941859           71 
 1355000   0.71294178   -6.9584787    345.91595  0.021274044  0.020926569          236 
 1356000   0.70501681   -6.9579668    345.06272   0.02120592  0.020911272           89 
 1357000   0.70595541   -6.9682126    344.79275  0.021173714  0.020895936          134 
 1358000   0.72595845   -6.9716853    344.89913   0.02116465  0.020880616          121 
 1359000   0.70636485   -6.9593037    345.40392  0.021180029  0.020865294          211 
 1360000    0.7067926   -6.9990262    344.45605  0.021106376  0.020849981          260 
 1361000   0.70575378   -6.9752644    344.97361  0.021122558  0.020834621          204 
 1362000   0.71209754   -6.9658329     345.2381  0.021123232  0.020819281          272 
 1363000   0.71681701   -6.9597345    345.76038  0.021139666  0.020803951          242 
 1364000   0.72371286   -6.9865746    344.62626  0.021054879  0.020788606          262 
 1365000   0.72029428   -6.9766703    345.26646  0.021078539  0.020773314          223 
 1366000    0.6986293   -7.0092342    345.19624  0.021058824  0.020757992          247 
 1367000   0.70940936   -6.9975426    345.47696  0.021060531  0.020742652          157 
 1368000   0.70727916    -6.993112    344.68523  0.020996907  0.020727282          237 
 1369000   0.70922459   -7.0000726    345.73578  0.021045518  0.020711978          129 
 1370000   0.70264883   -6.9730069    345.69026  0.021027388  0.020696688          134 
 1371000   0.71286362   -6.9811886    345.57923  0.021005302  0.020681441          125 
 1372000   0.72965043      -6.9799    345.74814  0.021000251  0.020666173          220 
 1373000    0.7070041   -7.0036056    345.62408  0.020977426  0.020650921          262 
 1374000    0.7027479   -6.9610215    345.39989  0.020948562  0.020635618          249 
 1375000   0.71339842   -6.9698953    345.40211  0.020933461  0.020620374           77 
 1376000   0.70014943   -6.9767688    346.23156  0.020968481  0.020605161          100 
 1377000   0.71063482   -6.9529376    345.52718  0.020910626      0.02059          122 
 1378000    0.7034282   -6.9754522    345.48422  0.020892853  0.020574818           40 
 1379000   0.70126223   -6.9773527    345.73543  0.020892883  0.020559598          104 
 1380000   0.69874003   -6.9909939    345.87125  0.020885945  0.020544423          226 
 1381000   0.70101382   -6.9592836    345.68472  0.020859566  0.020529195          153 
 1382000   0.70754181    -6.992354     345.8141  0.020852274  0.020513983          157 
 1383000   0.70216455   -6.9938476    345.28566  0.020805354  0.020498722          157 
 1384000   0.70012113   -6.9906172    346.28553  0.020850525  0.020483489          177 
 1385000   0.70681106   -6.9784486    346.11223  0.020825044  0.020468302           98 
 1386000   0.68847216   -6.9812184    345.84824  0.020794146  0.020453128           88 
 1387000   0.69630129   -6.9783918    346.43146  0.020814195  0.020438018           80 
 1388000   0.69034004   -7.0103037    345.03337   0.02071526   0.02042287          123 
 1389000   0.70660559   -6.9903593    346.35733  0.020779778  0.020407755           62 
 1390000    0.6954553   -6.9866145    346.20391   0.02075563  0.020392601           46 
 1391000   0.69663071   -6.9821378    345.37739  0.020691193  0.020377457           43 
 1392000   0.70916856   -7.0181151     345.8535  0.020704831  0.020362302           33 
 1393000   0.69190696   -7.0133642    345.75192  0.020683891  0.020347166           69 
 1394000   0.68698318   -6.9912326    345.87307  0.020676295  0.020332001          166 
 1395000   0.69127716   -6.9890664    346.33257  0.020688923  0.020316805           70 
 1396000   0.68633262   -6.9967357    346.40255   0.02067828  0.020301639           82 
 1397000   0.68758458   -6.9885157    346.09072  0.020644877  0.020286529           83 
 1398000   0.68982788   -6.9869005    345.68394  0.020605862  0.020271376          208 
 1399000   0.68367051   -6.9877493    345.26259  0.020566035  0.020256227          105 
 1400000   0.69837844   -6.9963519    345.89317  0.020588879  0.020241067           69 
 1401000   0.71576726   -6.9692977    345.28174  0.020537814  0.020225903          144 
 1402000   0.68510563   -6.9969757    345.30343  0.020524455  0.020210698          149 
 1403000   0.70714746   -6.9941556    345.26793  0.020507718  0.020195527          175 
 1404000   0.68972335   -7.0148879    345.32625  0.020496573  0.020180314          112 
 1405000   0.68145683   -7.0087076    345.92782  0.020517664   0.02016505           96 
 1406000   0.69032831   -7.0081581    346.00093  0.020507404  0.020149837          108 
 1407000   0.70751435   -6.9996314    345.45472  0.020460479  0.020134618          159 
 1408000   0.68749243   -7.0193912    345.61672  0.020455535  0.020119495           96 
 1409000   0.68258605   -6.9912013    345.84533  0.020454538  0.020104376           97 
 1410000   0.69448136   -6.9987431    345.75448  0.020434662  0.020089306          154 
 1411000   0.67388688   -7.0136169    346.14474  0.020443228  0.020074215          184 
 1412000    0.6813638   -7.0071822    345.94143  0.020416751   0.02005912          210 
 1413000   0.68345947   -7.0062776    345.66814  0.020386184  0.020044034          133 
 1414000   0.69187973   -6.9987079    346.37634  0.020413504  0.020028969          189 
 1415000   0.69028156   -6.9968048     345.7164  0.020360212  0.020013886          161 
 1416000   0.69165034    -7.006452     345.7077  0.020345321  0.019998794          160 
 1417000   0.67993815    -6.998035    346.66119  0.020387038  0.019983764          152 
 1418000   0.69292595    -7.007637    346.18985  0.020344961  0.019968745          151 
 1419000   0.68551807   -7.0211444    345.49146  0.020289609  0.019953681          194 
 1420000   0.69197363    -7.025014    346.02458  0.020306607  0.019938631          216 
 1421000   0.68724496   -7.0267752    346.37076  0.020312618  0.019923557          187 
 1422000   0.68938659   -7.0158163    345.71475  0.020259889  0.019908504          389 
 1423000   0.67396625   -7.0126266    346.21343  0.020274855  0.019893449          328 
 1424000   0.67954278   -7.0195428    346.07079   0.02025227  0.019878465          400 
 1425000   0.70614636   -7.0365774    346.47482  0.020261685  0.019863447          365 
 1426000   0.69331608   -6.9963657    346.04325  0.020222256  0.019848451          405 
 1427000   0.67650512   -7.0113262    346.79751  0.020252132   0.01983345          416 
 1428000   0.67947285   -7.0106975     346.1645  0.020201009  0.019818456          326 
 1429000   0.68981254   -7.0473363       346.11  0.020183695  0.019803442          365 
 1430000   0.67533897   -7.0453013    346.01372   0.02016397  0.019788427          396 
 1431000   0.67951189   -7.0367327    345.89763  0.020143119  0.019773432          371 
 1432000   0.68853789    -7.048885    346.19073  0.020146109  0.019758457          233 
 1433000   0.68301854    -7.027184    345.19285   0.02007402  0.019743523          371 
 1434000   0.67973521   -7.0311691     346.5644  0.020139726  0.019728605          470 
 1435000   0.68335481   -7.0305662    346.18694  0.020103771  0.019713671          430 
 1436000   0.67294945    -7.029805    346.20355  0.020090736   0.01969876          387 
 1437000   0.68132401   -7.0347158     346.2933  0.020081959  0.019683834          385 
 1438000   0.67753296   -7.0297537    345.66897  0.020031814  0.019668929          349 
 1439000   0.67116214   -7.0606124    346.49889  0.020065954  0.019654009          545 
 1440000   0.68063452   -7.0322685    346.06294   0.02002679  0.019639092          405 
 1441000   0.67163758   -7.0549076    346.45659  0.020035658   0.01962417          444 
 1442000   0.67057485   -7.0524983    346.82313  0.020042946  0.019609244          564 
 1443000   0.66508875   -7.0551973     345.4995  0.019952616  0.019594291          579 
 1444000   0.66727911   -7.0804409    345.56877  0.019942796    0.0195793          693 
 1445000   0.66303334   -7.0784915      346.018  0.019954902  0.019564325          695 
 1446000   0.69138318   -7.0610469    345.75447  0.019925915  0.019549345          694 
 1447000   0.66427535   -7.0792116    345.87325  0.019918985  0.019534397          636 
 1448000   0.67421094   -7.0601851    345.30128  0.019872311  0.019519474          747 
 1449000   0.68505731   -7.0768238    345.77998  0.019886127   0.01950459          759 
 1450000   0.68841024   -7.0859145    346.27544  0.019900887  0.019489702          767 
 1451000   0.67732068   -7.0639521    345.62115  0.019849595  0.019474779          865 
 1452000   0.67056635   -7.0716866    345.79195  0.019845727  0.019459877          837 
 1453000      0.67514   -7.0601658    345.63192  0.019822891   0.01944498          866 
 1454000   0.66682255   -7.0732145    345.84898  0.019821697  0.019430132          832 
 1455000   0.66657775   -7.1052977     345.0323    0.0197613  0.019415202          878 
 1456000   0.67389394   -7.0990702    345.55356  0.019777562  0.019400321          832 
 1457000   0.66210963   -7.0982462    346.14377  0.019797745  0.019385473          908 
 1458000   0.67581634   -7.0898379    345.67161  0.019757179  0.019370597          875 
 1459000    0.6600814    -7.101131    345.59009  0.019738982  0.019355697         1038 
 1460000   0.67184328   -7.0951346    345.62872  0.019727666  0.019340777         1140 
 1461000   0.67139992   -7.1066163    345.52248  0.019708104  0.019325851         1255 
 1462000   0.66126852   -7.1076308    346.17005  0.019731535  0.019310932         1283 
 1463000   0.65938257   -7.1384228    346.20505  0.019720042  0.019296045         1394 
 1464000   0.67484263   -7.1408253    345.57053  0.019670454  0.019281159         1317 
 1465000   0.68454655    -7.129813      344.933  0.019620762  0.019266248         1332 
 1466000   0.67264758    -7.125644    345.41012    0.0196345  0.019251316         1430 
 1467000    0.6787427   -7.1398625    345.39274  0.019620128  0.019236361         1480 
 1468000   0.66127586   -7.1340121    345.49577  0.019612612  0.019221404         1585 
 1469000   0.65726261   -7.1387846    345.00876  0.019571633  0.019206426         1600 
 1470000   0.66560947   -7.1451007    345.12994  0.019565189  0.019191461         1655 
 1471000   0.68381758   -7.1681631    345.24049  0.019558152  0.019176493         1708 
 1472000   0.66232335   -7.1622979    344.94865  0.019528343  0.019161531         1776 
 1473000   0.66457383   -7.1558828    344.29067  0.019477861   0.01914652         1897 
 1474000   0.66105187   -7.1666707    344.70284  0.019487949  0.019131534         1879 
 1475000   0.66878681   -7.1630723    344.36388  0.019455586  0.019116554         1940 
 1476000   0.67855991   -7.2040761    345.31623  0.019496174  0.019101551         2011 
 1477000   0.67539869   -7.2021196    344.89287  0.019459088  0.019086485         2049 
 1478000   0.66751138   -7.1963438    344.59762  0.019429275  0.019071415         2175 
 1479000   0.66365918   -7.1861642    345.07936  0.019443282  0.019056337         2176 
 1480000   0.65156243   -7.2242953    344.13996   0.01937725  0.019041239         2297 
 1481000   0.66811081   -7.2430605    344.40208  0.019378915  0.019026117         2415 
 1482000   0.66810151    -7.237433    343.17391  0.019296778   0.01901096         2437 
 1483000   0.67358836   -7.2337017    343.45065  0.019299317  0.018995783         2481 
 1484000    0.6502852   -7.2531794     343.8044  0.019306177  0.018980622         2509 
 1485000   0.67576958   -7.2378321    343.47261  0.019274557  0.018965401         2563 
 1486000   0.65710652   -7.2501104    343.83914  0.019282141  0.018950156         2550 
 1487000   0.66603474   -7.2452083    343.42003  0.019245687  0.018934914         2596 
 1488000   0.65888744   -7.2814368    343.73223  0.019250237  0.018919693         2665 
 1489000   0.65631201   -7.2872852    343.86442  0.019244707  0.018904454         2683 
 1490000   0.65522219   -7.2969958    343.27514  0.019198833  0.018889152         2747 
 1491000   0.64542694   -7.2787877    343.33338  0.019189212  0.018873839         2753 
 1492000   0.66222869   -7.3084103    343.09691  0.019163143  0.018858515         2856 
 1493000   0.65669341   -7.2867605    342.45219  0.019114322  0.018843161         2784 
 1494000   0.65904601   -7.2922573    343.29201  0.019148372  0.018827808         2806 
 1495000    0.6579013   -7.3178672    343.12756  0.019126397  0.018812463         2794 
 1496000   0.64827109   -7.3086467    342.63449  0.019086146  0.018797126         2849 
 1497000   0.66843739   -7.2881856    342.24424  0.019051672  0.018781763         2971 
 1498000   0.65255567    -7.330771    342.19619  0.019036281  0.018766408         3006 
 1499000   0.65893871   -7.3274341    341.72518  0.018997397  0.018751003         2978 
 1500000   0.65579734   -7.3300752    341.93178   0.01899621  0.018735605         3050 
 1501000   0.66018895   -7.3328891    342.01972  0.018988437  0.018720179         3001 
 1502000   0.65344439    -7.353015    341.49508  0.018946687  0.018704745         2994 
 1503000   0.65954595   -7.3748183    341.74238  0.018947792  0.018689324         3031 
 1504000   0.64471824   -7.3690678     341.3421  0.018913015  0.018673906         3071 
 1505000    0.6580443    -7.370487    341.62273  0.018915987  0.018658471         3064 
 1506000   0.67382083   -7.3807896    341.98312  0.018923369  0.018643043         3051 
 1507000   0.64597734   -7.3664805    341.52287  0.018885361  0.018627634         3050 
 1508000   0.64763512   -7.3618901    341.92357  0.018894981  0.018612248         3042 
 1509000    0.6441246   -7.3576514    341.49209  0.018858631  0.018596881         3104 
 1510000   0.64891579   -7.3640321    341.03574  0.018820957  0.018581521         3104 
 1511000   0.65036859    -7.404973     341.3856  0.018827796  0.018566129         3141 
 1512000   0.64663099   -7.3843769    342.37558  0.018869907  0.018550763         3172 
 1513000    0.6563253   -7.3865945    340.43786  0.018750708  0.018535416         3257 
 1514000   0.63779053   -7.3998606    341.72602  0.018809226  0.018520024         3252 
 1515000   0.65155559   -7.4108601    341.27798  0.018772166  0.018504618         3351 
 1516000   0.62799521   -7.4066303    341.23412  0.018757372  0.018489208         3305 
 1517000   0.65146549   -7.4188874    341.11457  0.018738441  0.018473774         3312 
 1518000   0.64854738   -7.4207606    341.20984  0.018731327  0.018458361         3317 
 1519000   0.64523147   -7.4266357    340.75694  0.018694149  0.018442911         3410 
 1520000    0.6411557   -7.4156783     340.3081  0.018657242  0.018427436         3446 
 1521000    0.6463393   -7.4252313    340.89164  0.018676947  0.018411948         3426 
 1522000   0.65309464   -7.4417802    341.00894  0.018671098  0.018396451         3433 
 1523000   0.64404575   -7.4245971     340.5384  0.018633092  0.018380977         3453 
 1524000    0.6462244   -7.4593745    340.58491  0.018623409  0.018365486         3497 
 1525000   0.64628049   -7.4569412    339.95235  0.018576631  0.018349991         3483 
 1526000   0.64931257   -7.4383936    340.07881  0.018571364  0.018334507         3487 
 1527000   0.65465186   -7.4324782     340.2809   0.01857023  0.018319024         3478 
 1528000    0.6502874    -7.459183    339.95325  0.018540208  0.018303576         3518 
 1529000   0.64979712   -7.4441311    339.67522  0.018512929  0.018288113         3530 
 1530000   0.64465427   -7.4571044    340.25594  0.018532459   0.01827264         3527 
 1531000   0.63325093   -7.4690019    340.20547  0.018517607  0.018257196         3551 
 1532000   0.64613228    -7.457451     340.7181  0.018533404  0.018241737         3458 
 1533000   0.64590698   -7.4606001    339.84086  0.018473628  0.018226311         3528 
 1534000   0.64008981   -7.4673139    339.56159  0.018446414  0.018210882         3527 
 1535000   0.64722549   -7.4706296    339.84502  0.018449784  0.018195466         3549 
 1536000   0.63433104   -7.4474508    340.01971   0.01844725  0.018180071         3485 
 1537000   0.64695884   -7.4668133     339.8524  0.018426176  0.018164682         3533 
 1538000   0.62492626   -7.4529468    339.62244  0.018401736  0.018149285         3572 
 1539000   0.64605735   -7.4620316     339.5021  0.018383263  0.018133916         3550 
 1540000   0.64638749   -7.4572884    339.49967  0.018371194   0.01811856         3606 
 1541000   0.63308419   -7.4794412    340.41895  0.018408985  0.018103217         3555 
 1542000    0.6574684    -7.470658    339.20247  0.018331305  0.018087873         3563 
 1543000   0.64457516   -7.4924283    339.25668  0.018322352  0.018072525         3598 
 1544000   0.63396121   -7.4753655    339.82423  0.018341118  0.018057202         3507 
 1545000   0.63704364   -7.4788982    339.72162  0.018323712  0.018041896         3581 
 1546000   0.63134648   -7.4632589    340.22267  0.018338867  0.018026608         3581 
 1547000   0.64526198   -7.4604185    339.88843  0.018309008   0.01801133         3577 
 1548000   0.65317323    -7.455124    339.86977  0.018296176  0.017996059         3586 
 1549000   0.63349564   -7.4680793    340.06089  0.018294646  0.017980809         3565 
 1550000   0.63807008   -7.4855563    339.71051  0.018264006  0.017965553         3545 
 1551000   0.62821638    -7.493682    339.53049  0.018242558  0.017950292         3555 
 1552000   0.63405151   -7.4716305    340.20177  0.018266848  0.017935039         3554 
 1553000   0.63452907   -7.4693142    339.59259  0.018222397  0.017919823         3551 
 1554000   0.62799008   -7.4687502    339.54524  0.018208132  0.017904592         3540 
 1555000    0.6279935   -7.4742744      339.635  0.018201233  0.017889392         3553 
 1556000   0.63438832   -7.4747336    339.56442  0.018185755    0.0178742         3519 
 1557000   0.62309033   -7.4605429    339.79377   0.01818635  0.017859002         3602 
 1558000   0.62472069   -7.4929257    339.15838  0.018140692  0.017843819         3595 
 1559000   0.63078895   -7.4782985    339.19066  0.018130782  0.017828636         3547 
 1560000   0.63608338   -7.4931701    339.43253   0.01813208  0.017813481         3595 
 1561000    0.6326708   -7.4911412    340.56077  0.018180694  0.017798346         3561 
 1562000   0.62835684   -7.4921086    339.31191  0.018102428  0.017783201         3580 
 1563000   0.63825697   -7.4814497    339.67664  0.018110292  0.017768073         3583 
 1564000   0.62260589   -7.4766729    339.14853  0.018070574  0.017752969         3596 
 1565000    0.6329228   -7.4709338    340.25082  0.018117722  0.017737891         3557 
 1566000   0.63585004   -7.4772034    339.40674  0.018061236  0.017722814         3588 
 1567000   0.63376012   -7.4796502    339.83768  0.018072627  0.017707737         3554 
 1568000   0.63492926     -7.47754    339.57127  0.018046943  0.017692671         3570 
 1569000     0.627726   -7.4833694    339.37521  0.018025027  0.017677615         3578 
 1570000   0.63016037   -7.5036629    339.55406  0.018023039  0.017662575         3587 
 1571000    0.6242399   -7.5052363    339.13018  0.017989082  0.017647517         3596 
 1572000   0.62592858   -7.5116219    339.26823  0.017984957  0.017632493         3587 
 1573000   0.62317276   -7.5040347    340.30939  0.018028682  0.017617489         3581 
 1574000   0.61179013    -7.487737    339.79011  0.017989735  0.017602507         3597 
 1575000   0.62059468    -7.489082     339.3326  0.017954106  0.017587519         3569 
 1576000   0.62292228   -7.4911542    339.16592    0.0179339  0.017572553         3587 
 1577000   0.62195513   -7.4893034    339.73373  0.017952533  0.017557591         3556 
 1578000   0.62076987   -7.5057425    339.43991   0.01792564  0.017542651         3588 
 1579000   0.61903756   -7.4986905    339.10983  0.017896867  0.017527717         3589 
 1580000   0.61836967   -7.4984634    339.08345  0.017884148  0.017512764         3568 
 1581000   0.61734406   -7.5143378     339.2989  0.017884192  0.017497847         3573 
 1582000   0.62073078   -7.5135812    339.34671  0.017875406  0.017482943         3586 
 1583000    0.6197874   -7.5261768    339.73344  0.017884472  0.017468057         3569 
 1584000   0.61318609   -7.5195493    339.07871  0.017838737  0.017453181         3578 
 1585000   0.62407891   -7.5114218    339.32105  0.017840224  0.017438302         3551 
 1586000   0.60938417   -7.5152387    339.09714   0.01781721  0.017423432         3549 
 1587000    0.6216784   -7.5278602    339.28278  0.017815731  0.017408575         3640 
 1588000   0.62339048   -7.5083261    339.17129  0.017798662  0.017393726         3555 
 1589000   0.62019978   -7.5136393    339.35037  0.017796852   0.01737888         3555 
 1590000   0.62324057   -7.5257693    339.00931  0.017767784  0.017364036         3582 
 1591000   0.61251594   -7.5400423    339.06648   0.01775961  0.017349203         3589 
 1592000   0.61333483   -7.5104773     339.5825  0.017775466  0.017334374         3615 
 1593000    0.6241152   -7.5246595    339.04667  0.017736277  0.017319584         3581 
 1594000   0.61441117   -7.5312407    339.69456  0.017759021  0.017304795         3638 
 1595000   0.60749856   -7.5198683    338.69914   0.01769588  0.017290014         3630 
 1596000   0.61561569    -7.535022    338.82039  0.017691123  0.017275243         3611 
 1597000   0.63715105   -7.5202381    339.12633   0.01769601  0.017260503         3580 
 1598000   0.61799299   -7.5383039    338.82458    0.0176692  0.017245758         3581 
 1599000    0.6154511   -7.5256419    338.90142  0.017662154  0.017231008         3633 
 1600000   0.61891266   -7.5296711    339.13566  0.017663316  0.017216286         3602 
 1601000   0.61347978   -7.5152582    338.90609  0.017640334  0.017201575         3586 
 1602000   0.61494561   -7.5065637     339.3535  0.017652596   0.01718689         3596 
 1603000   0.61584917   -7.5349051    338.00091  0.017571268  0.017172211         3579 
 1604000   0.61031669   -7.5219257    338.56328  0.017589531   0.01715754         3603 
 1605000   0.60569928   -7.5300296    338.81404  0.017591591  0.017142893         3588 
 1606000   0.61141577    -7.525201    339.39313  0.017610686  0.017128266         3587 
 1607000   0.60090772   -7.5325982    339.07053  0.017582998  0.017113622         3647 
 1608000   0.60463789   -7.5446276    338.75085  0.017555496  0.017099011         3625 
 1609000    0.6167155   -7.5246516    338.69752  0.017541823  0.017084405         3599 
 1610000   0.60755014   -7.5421136    339.14983  0.017554339  0.017069822         3633 
 1611000   0.61360072   -7.5235457    338.36333  0.017502759  0.017055256         3595 
 1612000   0.60177383    -7.506569     338.6956  0.017509078  0.017040681         3590 
 1613000   0.61152054   -7.5612018    339.26403   0.01752759  0.017026121         3595 
 1614000   0.60576966   -7.5310084    338.56598  0.017480689  0.017011582         3591 
 1615000   0.60971411   -7.5389326    338.61538  0.017472414  0.016997048         3615 
 1616000   0.61097892   -7.5357079    338.80303  0.017471278  0.016982536         3599 
 1617000   0.60029978   -7.5224683    338.86537  0.017463686  0.016968044         3563 
 1618000   0.60980415   -7.5343532    338.42232  0.017430074   0.01695354         3578 
 1619000   0.60758709   -7.5362436    338.57704  0.017427272  0.016939068         3604 
 1620000   0.59882246   -7.5257624    338.98296  0.017437395  0.016924594         3593 
 1621000   0.60276685   -7.5448877    339.00932  0.017427993  0.016910139         3617 
 1622000   0.60417397   -7.5393351    338.80469  0.017406735  0.016895703         3620 
 1623000   0.59412839   -7.5503372    338.47018  0.017378834   0.01688128         3586 
 1624000   0.61429451   -7.5393808    338.78415  0.017384244  0.016866859         3580 
 1625000   0.60302916   -7.5394172    338.22415  0.017344828   0.01685244         3619 
 1626000   0.61117766   -7.5415495    338.70477  0.017358793  0.016838052         3613 
 1627000    0.6006819   -7.5479198    338.38026  0.017331503  0.016823685         3647 
 1628000   0.59887894   -7.5495478    338.40986  0.017322372  0.016809327         3630 
 1629000   0.59831867   -7.5362156    338.17942   0.01729995  0.016794967         3610 
 1630000   0.60026462   -7.5296688    338.85117  0.017323679  0.016780619         3635 
 1631000    0.5943394     -7.53323    338.86197   0.01731361  0.016766282         3561 
 1632000   0.59370871   -7.5352882    338.58711  0.017288966  0.016751935         3610 
 1633000   0.58723849   -7.5482993    338.93694  0.017296231  0.016737632         3590 
 1634000   0.61076512    -7.558879    338.22275  0.017249222  0.016723333         3627 
 1635000   0.60654485   -7.5464538      338.785  0.017267329  0.016709057         3617 
 1636000   0.60461131   -7.5516248    338.62958  0.017248858  0.016694786         3604 
 1637000   0.59342448   -7.5476569    338.28015  0.017220533  0.016680526         3628 
 1638000   0.59827327   -7.5490551    338.19268   0.01720557   0.01666628         3613 
 1639000    0.6164895   -7.5438309    338.01157  0.017185864  0.016652042         3624 
 1640000   0.61326882   -7.5605227    337.82598  0.017165954  0.016637799         3635 
 1641000   0.59876434   -7.5624967    338.80241  0.017205079  0.016623573         3640 
 1642000   0.59932103   -7.5352762    338.26875  0.017167516  0.016609356         3617 
 1643000   0.59969274    -7.553085    338.34217  0.017160792  0.016595166         3620 
 1644000   0.59000099   -7.5579779    338.23093  0.017144715  0.016580986         3623 
 1645000   0.60189471   -7.5488211    338.62667   0.01715434  0.016566818         3616 
 1646000   0.59331398   -7.5360049    338.73219  0.017149261  0.016552674         3624 
 1647000   0.60665139   -7.5731986    339.39544  0.017172406  0.016538548         3627 
 1648000    0.6047985   -7.5511995    338.10323  0.017096644   0.01652442         3630 
 1649000   0.60187149   -7.5615992    337.79832  0.017070867  0.016510316         3633 
 1650000   0.60103548   -7.5227343    338.60146  0.017101084   0.01649623         3625 
 1651000   0.60288307   -7.5613461    338.51264  0.017086243  0.016482138         3627 
 1652000   0.59220969   -7.5520132    338.80178  0.017090485  0.016468062         3587 
 1653000   0.58385477   -7.5532675    338.38208  0.017058988  0.016454001         3659 
 1654000   0.60200612   -7.5566143    338.37509  0.017048322  0.016439933         3642 
 1655000   0.59900901    -7.550488    338.06391  0.017022352  0.016425895         3636 
 1656000    0.5875187   -7.5440647    337.72134  0.016994834  0.016411876         3637 
 1657000   0.59596166   -7.5494832    338.09056  0.017003146  0.016397867         3616 
 1658000   0.58518836   -7.5620814    338.07484  0.016992101  0.016383866         3614 
 1659000   0.57111988   -7.5475792    338.29489  0.016992912  0.016369882         3626 
 1660000   0.59621605   -7.5727456     338.2681   0.01698133  0.016355904         3664 
 1661000   0.58776443    -7.549401    338.40672  0.016978062  0.016341947         3602 
 1662000    0.5933393   -7.5499217    337.28307  0.016911506  0.016328007         3630 
 1663000   0.58893786   -7.5689836    338.06012  0.016940275  0.016314084         3615 
 1664000   0.58981736   -7.5808744    338.76822  0.016965556  0.016300162         3625 
 1665000   0.58694148   -7.5786031    337.95079  0.016914454  0.016286252         3605 
 1666000   0.58873419   -7.5626959    337.70549  0.016892031   0.01627236         3654 
 1667000   0.58762738   -7.5757986    338.10549  0.016901894  0.016258476         3634 
 1668000   0.60574258   -7.5819047    338.35467   0.01690421  0.016244604         3664 
 1669000   0.58881002   -7.5626605    337.54113  0.016853462  0.016230749         3651 
 1670000   0.58168545   -7.5651094     338.2855  0.016880514  0.016216884         3625 
 1671000   0.59782496   -7.5585082    338.31555  0.016871911  0.016203056         3643 
 1672000   0.58242192   -7.5688767    337.78981  0.016835616  0.016189245         3633 
 1673000   0.59903554    -7.554374     338.4101  0.016856451  0.016175444         3641 
 1674000   0.57311288   -7.5686021    338.00137  0.016826034  0.016161652         3634 
 1675000   0.58771786    -7.576313    338.00488  0.016816163  0.016147867         3647 
 1676000   0.57474897    -7.575934    338.59388  0.016835416  0.016134095         3629 
 1677000   0.58271383   -7.5732093    338.46126  0.016818787  0.016120337         3665 
 1678000   0.58644186   -7.5649547    338.03268  0.016787479  0.016106585         3620 
 1679000   0.57461759   -7.5778974    338.31441  0.016791464  0.016092855         3645 
 1680000     0.587367   -7.5964386    338.43277   0.01678734  0.016079137         3653 
 1681000   0.58568671   -7.5571523    338.09596  0.016760657  0.016065432         3660 
 1682000   0.58788316     -7.58207    338.46042  0.016768749  0.016051738         3677 
 1683000   0.58189945   -7.5923504    337.78456   0.01672532  0.016038047         3683 
 1684000   0.57961487   -7.5723997    338.15755  0.016733845   0.01602437         3644 
 1685000   0.58602506    -7.572199     337.4923  0.016691014  0.016010717         3678 
 1686000   0.58042528   -7.5642697    337.67751  0.016690268  0.015997064         3637 
 1687000   0.57579467   -7.5766979    337.40713  0.016667019  0.015983426         3643 
 1688000   0.57697511   -7.5977883    338.02354  0.016687576  0.015969807         3657 
 1689000   0.57872308   -7.5685629    337.41124  0.016647486  0.015956202         3612 
 1690000   0.58672237   -7.6018821      337.581  0.016646006  0.015942611         3655 
 1691000     0.584775   -7.5741137    337.16848  0.016615833  0.015929043         3634 
 1692000   0.57476475   -7.5672693    337.97288   0.01664563  0.015915484         3643 
 1693000   0.57696141   -7.5786168    338.09696  0.016641906  0.015901933         3604 
 1694000   0.58809662   -7.5763415    337.99193  0.016626915  0.015888396         3633 
 1695000   0.56883462   -7.5833102    337.68821  0.016602174  0.015874876         3620 
 1696000   0.56651494    -7.581822    337.65692  0.016590847  0.015861355         3643 
 1697000   0.57357979   -7.5901311      337.895  0.016592762  0.015847852         3657 
 1698000   0.57680713   -7.5726716    337.42507  0.016559927  0.015834357         3639 
 1699000   0.58164557   -7.5787173    337.44352  0.016551085  0.015820884         3637 
 1700000   0.58065375   -7.5845009    338.13654   0.01657532  0.015807409         3657 
 1701000   0.57690677   -7.6000583    337.22949  0.016521139  0.015793948         3665 
 1702000   0.58279516    -7.582074    337.77873  0.016538324  0.015780515         3655 
 1703000   0.57122496   -7.5769952    337.99235  0.016539066  0.015767092         3647 
 1704000   0.56260453   -7.6140343    338.22489  0.016540732  0.015753676         3658 
 1705000   0.57327352   -7.5960505    337.83684  0.016512065  0.015740271         3645 
 1706000   0.57184201    -7.576656     337.7033  0.016495863  0.015726881         3660 
 1707000    0.5681513   -7.6009116    337.37764  0.016470301  0.015713503         3650 
 1708000   0.56849862    -7.594102    337.52279  0.016467739  0.015700139         3637 
 1709000   0.56906676   -7.5736395    337.71061  0.016467262  0.015686783         3627 
 1710000   0.57416296   -7.5991518    337.50519  0.016447621  0.015673448         3652 
 1711000   0.56601169   -7.5849432    336.82014  0.016404643  0.015660124         3661 
 1712000    0.5610253   -7.5844043    338.19562  0.016462014  0.015646801         3644 
 1713000   0.56222786   -7.5930578    338.46682  0.016465597  0.015633498         3662 
 1714000    0.5677925   -7.5903713    337.62944  0.016415278   0.01562021         3680 
 1715000   0.57035551   -7.5878606    337.50511  0.016399665  0.015606943         3640 
 1716000   0.58085968   -7.5913595    337.21978  0.016376252  0.015593674         3651 
 1717000   0.56636837   -7.5921583    337.21863  0.016366658  0.015580423         3649 
 1718000   0.56743866   -7.5821515    337.33673  0.016362861   0.01556718         3668 
 1719000   0.55868897    -7.603874    337.59762  0.016365989  0.015553953         3663 
 1720000   0.56759386   -7.5860433    337.31612  0.016342835  0.015540753         3671 
 1721000   0.55219032   -7.5903635    337.45639  0.016340131  0.015527555         3636 
 1722000   0.56618022   -7.6141799    337.78235  0.016346416  0.015514376         3693 
 1723000   0.56277965   -7.5954268    337.91845  0.016343512  0.015501214         3649 
 1724000   0.56424934    -7.599366    337.81354  0.016328961  0.015488052         3695 
 1725000   0.55202433   -7.5755018    337.57495  0.016307969  0.015474912         3673 
 1726000   0.57185421   -7.5997516    337.22958  0.016281845  0.015461765         3627 
 1727000   0.56699879   -7.5939092    336.96998  0.016259891  0.015448647         3663 
 1728000   0.57130623   -7.6194171    337.32137  0.016267427   0.01543554         3685 
 1729000   0.56727429   -7.6097732    337.35352  0.016259568  0.015422447         3687 
 1730000    0.5714229   -7.6128722    337.97127  0.016279926  0.015409358         3692 
 1731000   0.55792458   -7.5827017    337.82908  0.016263676  0.015396289         3666 
 1732000   0.56092984   -7.5901179    337.31228  0.016229421  0.015383233         3642 
 1733000   0.56299533   -7.6056851    337.22616  0.016215915  0.015370184         3660 
 1734000   0.55511872   -7.6069163    336.89188  0.016190498  0.015357154         3678 
 1735000   0.56459293   -7.6109296    337.40099  0.016205619  0.015344129         3657 
 1736000   0.57445186   -7.5932993    337.19253  0.016186277  0.015331137         3650 
 1737000   0.57486985   -7.6033161    337.49061  0.016191259  0.015318141         3655 
 1738000   0.55633405   -7.6032229    337.10377  0.016163395  0.015305162         3670 
 1739000   0.55886617    -7.605138    337.77013  0.016186032  0.015292179         3679 
 1740000   0.56284161   -7.6187574    336.92725  0.016136363  0.015279218         3682 
 1741000   0.56195882   -7.5919023    337.48613  0.016153845  0.015266271         3688 
 1742000   0.55472187   -7.5951898    337.55347  0.016147793  0.015253337         3677 
 1743000    0.5526001   -7.5992768    336.82733  0.016103812  0.015240414         3624 
 1744000   0.55842605   -7.6184595     336.9556  0.016100707  0.015227509         3661 
 1745000   0.55924033   -7.5841967     336.9458  0.016091013  0.015214615         3675 
 1746000   0.56041993   -7.6366585    337.24123  0.016095897  0.015201724         3663 
 1747000   0.55510349   -7.6241493    337.51121  0.016099562  0.015188847         3653 
 1748000   0.55400764   -7.6081532    337.12762  0.016072064   0.01517598         3661 
 1749000   0.55181725   -7.6222963    336.99663  0.016056634  0.015163124         3672 
 1750000   0.56588219   -7.6184324    337.27961  0.016060934    0.0151503         3628 
 1751000   0.54736181   -7.6060891     337.0441  0.016040553  0.015137493         3678 
 1752000   0.55950011   -7.6028674    337.20952  0.016039266  0.015124689         3654 
 1753000   0.56207764   -7.6118248     337.4486  0.016041481  0.015111896         3676 
 1754000    0.5546255    -7.628034    337.55119   0.01603721  0.015099113         3667 
 1755000   0.55119974   -7.6244439    336.52577  0.015979381  0.015086331         3690 
 1756000   0.54679713   -7.6021543    337.70308  0.016026152  0.015073574         3642 
 1757000   0.57233503   -7.6033876    336.92109  0.015979942  0.015060825         3655 
 1758000   0.56370833   -7.6172149    337.05851  0.015977366  0.015048094         3659 
 1759000   0.54355932   -7.5883819    337.31275  0.015980327  0.015035383         3617 
 1760000    0.5453089   -7.6270578     337.1939   0.01596562  0.015022679         3660 
 1761000   0.53376716   -7.6106797    337.21966  0.015957773  0.015009982         3653 
 1762000   0.55234704   -7.6375678    337.42266  0.015958317  0.014997292         3645 
 1763000   0.54865074   -7.6251695     337.0708  0.015932634  0.014984614         3654 
 1764000   0.55287912    -7.623238    337.20954  0.015930156  0.014971953         3666 
 1765000    0.5531227   -7.6245578    336.87193   0.01590519  0.014959307         3642 
 1766000   0.56092483   -7.6317254    337.82604  0.015941206  0.014946674         3645 
 1767000    0.5470739   -7.6240281    336.89565  0.015888306  0.014934058         3669 
 1768000   0.54571773   -7.6226666    337.48178  0.015906947  0.014921454         3657 
 1769000   0.56051374   -7.6069985    336.81244  0.015866423  0.014908871         3623 
 1770000   0.54760366   -7.6104083    337.03323  0.015867855  0.014896291         3629 
 1771000   0.54843201   -7.6247807    337.89664  0.015899522  0.014883725         3672 
 1772000   0.54275907    -7.610241    336.80323  0.015839129  0.014871184         3686 
 1773000    0.5329863   -7.6297229    336.71576  0.015826084   0.01485864         3667 
 1774000     0.537475   -7.6239579    337.14368  0.015837264  0.014846114         3683 
 1775000   0.54939252   -7.6030814    336.43298  0.015794975  0.014833597         3679 
 1776000   0.55318582   -7.6197437    337.13913  0.015819216  0.014821097         3668 
 1777000   0.54416178   -7.6148415    337.21987    0.0158141  0.014808605         3646 
 1778000    0.5377643    -7.612958    336.99871   0.01579484   0.01479613         3663 
 1779000   0.54616002   -7.6364889    337.12327  0.015791797  0.014783656         3670 
 1780000   0.51674243   -7.6228415     336.2575  0.015742392  0.014771195         3672 
 1781000    0.5376684   -7.6382874    336.78602  0.015758283  0.014758747         3678 
 1782000   0.54171892   -7.6177046    336.55004  0.015738404  0.014746315         3668 
 1783000   0.54541688   -7.6396654    337.08447  0.015754555  0.014733895         3667 
 1784000   0.53225351    -7.644266    336.64381   0.01572514  0.014721484         3679 
 1785000   0.54754254   -7.6344281    336.73868   0.01572076  0.014709093         3656 
 1786000   0.53047527   -7.6137904    336.54054  0.015702713  0.014696714         3644 
 1787000   0.52281548    -7.627581    337.25348  0.015727172  0.014684346         3657 
 1788000   0.53570842   -7.6320689    336.88289  0.015701104  0.014671979         3701 
 1789000   0.53195621   -7.6393055    337.32251  0.015712805  0.014659632         3667 
 1790000   0.54610284   -7.6518276    336.89092  0.015683935  0.014647291         3642 
 1791000   0.52839453    -7.632757    337.40675  0.015699179  0.014634962         3661 
 1792000   0.53720074   -7.6467862    337.22179  0.015681817  0.014622651         3657 
 1793000   0.53209697   -7.6334822    336.41142  0.015635407  0.014610346         3680 
 1794000   0.53870485   -7.6416936    336.65184  0.015637859  0.014598053         3702 
 1795000   0.52935861   -7.6254225    336.89942  0.015640641  0.014585774         3652 
 1796000   0.54065259   -7.6293937      337.152  0.015643652  0.014573514         3662 
 1797000   0.53695429   -7.6290264    337.18623  0.015636535  0.014561275         3680 
 1798000   0.55090355   -7.6314368    336.65078  0.015603021  0.014549042         3670 
 1799000   0.54026803   -7.6449277    336.71117  0.015597145  0.014536812         3650 
 1800000   0.53649004   -7.6563043    336.81875  0.015593461    0.0145246         3668 
 1801000   0.52854892   -7.6527818    336.68549  0.015578636  0.014512399         3703 
 1802000   0.54149592   -7.6526777    336.51515  0.015562114  0.014500208         3692 
 1803000   0.52339528   -7.6268008    336.38202  0.015547329  0.014488043         3668 
 1804000    0.5277996   -7.6599494    337.44035  0.015587599  0.014475881         3681 
 1805000   0.53772704   -7.6330852     336.4935  0.015535249  0.014463739         3649 
 1806000   0.52547608   -7.6391822    336.72213  0.015537197  0.014451608         3659 
 1807000   0.52473331   -7.6478327    336.86501  0.015535188  0.014439492         3676 
 1808000   0.53285633   -7.6403441    336.44863  0.015507404  0.014427389         3697 
 1809000   0.53234072   -7.6493406    336.67248  0.015509143  0.014415295         3681 
 1810000   0.53425497   -7.6427261    336.65249  0.015499654  0.014403195         3690 
 1811000   0.53960426   -7.6424931    336.65671   0.01549129  0.014391113         3674 
 1812000    0.5385365   -7.6525695    337.17982  0.015506798  0.014379056         3672 
 1813000   0.53606135   -7.6511001    336.35599  0.015460378  0.014366995         3698 
 1814000   0.53893226   -7.6489937    336.08853  0.015439568  0.014354962         3655 
 1815000   0.51702533   -7.6523517    337.00971  0.015473357  0.014342933         3678 
 1816000   0.53717622   -7.6499298     336.3867  0.015436247  0.014330914         3672 
 1817000   0.53706375   -7.6196744    336.42576  0.015429543  0.014318911         3675 
 1818000   0.52692305   -7.6390773    336.62971  0.015430405  0.014306913         3667 
 1819000   0.52924536    -7.651777    337.21752  0.015448851  0.014294932         3683 
 1820000   0.50964253   -7.6477006    336.27883  0.015397382  0.014282964         3675 
 1821000   0.52085467   -7.6456461    336.70831  0.015408581  0.014271006         3661 
 1822000     0.528022   -7.6494334    336.58174  0.015394335  0.014259057         3666 
 1823000   0.52845551   -7.6569839    336.24872  0.015370667  0.014247117         3678 
 1824000    0.5279066   -7.6523552    336.98933  0.015396077  0.014235196         3674 
 1825000   0.52042248   -7.6614278    336.37402  0.015359544  0.014223273         3672 
 1826000   0.51722693    -7.640489    336.71325  0.015366614  0.014211374         3695 
 1827000   0.51920945    -7.651907    336.27248  0.015338099  0.014199485         3675 
 1828000   0.51839187   -7.6593553    336.23373  0.015327942  0.014187607         3676 
 1829000   0.52724328   -7.6586397     336.2806  0.015321697  0.014175746         3668 
 1830000    0.5289281   -7.6521463    336.62794  0.015329141  0.014163893         3652 
 1831000   0.52580871   -7.6579932    336.09631  0.015296573  0.014152051         3696 
 1832000    0.5240444   -7.6463556    336.52505  0.015307726  0.014140225         3666 
 1833000   0.52508025   -7.6621656    336.29504  0.015288918  0.014128397         3663 
 1834000   0.52592961   -7.6518396    336.67959  0.015298055  0.014116599         3677 
 1835000   0.51777778   -7.6418782    336.54828  0.015283755  0.014104809         3711 
 1836000   0.52735614   -7.6577467    336.30264  0.015264281  0.014093023         3669 
 1837000   0.52852643   -7.6701738    336.49111  0.015264521  0.014081259         3696 
 1838000    0.5195556    -7.672683     336.3255  0.015248708  0.014069511         3678 
 1839000   0.51528509   -7.6622819    335.95641  0.015223691  0.014057757         3675 
 1840000   0.52930734    -7.644525    336.85588  0.015256154  0.014046039         3687 
 1841000   0.53605973   -7.6566389    336.28903  0.015222208  0.014034329         3679 
 1842000   0.52629027   -7.6628976    336.52294  0.015224527   0.01402262         3693 
 1843000   0.50541542   -7.6566828    336.64348  0.015221716  0.014010928         3670 
 1844000   0.50842125   -7.6574634    336.12229  0.015189908  0.013999244         3703 
 1845000   0.52401828   -7.6661702    336.63795  0.015204966  0.013987573         3660 
 1846000   0.50956147   -7.6573645    336.44824  0.015188165  0.013975905         3643 
 1847000   0.52264783   -7.6725068    336.61009  0.015187245  0.013964259         3675 
 1848000   0.51690503   -7.6721534    335.83711   0.01514417   0.01395261         3681 
 1849000   0.51880818   -7.6524844    336.18523  0.015151669  0.013940979         3677 
 1850000    0.5186652   -7.6553731    336.12064  0.015140569  0.013929356         3685 
 1851000    0.5095145   -7.6578453    336.25721  0.015138538  0.013917755         3665 
 1852000   0.50342343   -7.6581975    336.27571  0.015131196  0.013906178         3684 
 1853000   0.52317853   -7.6677398    336.10026   0.01511514  0.013894594         3676 
 1854000   0.51474291   -7.6739383    336.44831  0.015122632  0.013883025         3700 
 1855000   0.51852416   -7.6622244    336.47223  0.015115554  0.013871468         3680 
 1856000   0.51426431   -7.6649979    335.76026  0.015075443  0.013859919         3690 
 1857000    0.5063441   -7.6771353    336.21173  0.015087584  0.013848388         3686 
 1858000   0.51906048   -7.6791713    336.26002   0.01508163  0.013836857         3688 
 1859000   0.50817949   -7.6536009    336.21934  0.015071694  0.013825342         3681 
 1860000   0.51430094   -7.6583156    335.82041  0.015045717  0.013813843         3670 
 1861000   0.50893669   -7.6725841    335.89351  0.015040906  0.013802349         3663 
 1862000    0.5205315   -7.6697713    336.54863  0.015062148  0.013790875         3677 
 1863000   0.51582914   -7.6856882    336.15558  0.015036481  0.013779414         3699 
 1864000   0.50828361   -7.6849692    335.82826  0.015013781  0.013767963         3680 
 1865000   0.51441126   -7.6780793    336.27659  0.015025764  0.013756512         3688 
 1866000   0.50547202   -7.6758582    336.18086  0.015013436  0.013745082         3691 
 1867000   0.49820548   -7.6804672    335.82997  0.014989733  0.013733662         3663 
 1868000   0.50404996    -7.688512    335.91664  0.014985575  0.013722248         3686 
 1869000   0.50979516   -7.6759919    336.03945  0.014983032  0.013710846         3685 
 1870000    0.5047458   -7.6702592    336.30662  0.014986926  0.013699457         3674 
 1871000   0.50143695   -7.6886041     336.1421  0.014971588  0.013688083         3676 
 1872000   0.50149338   -7.6724024    335.88162  0.014951995  0.013676718         3665 
 1873000   0.50533586   -7.6859234    336.13821  0.014955428  0.013665383         3686 
 1874000   0.49574254   -7.6846122    335.62267  0.014924523  0.013654045         3687 
 1875000   0.50488009   -7.7006335    336.03135  0.014934727  0.013642715         3698 
 1876000   0.50614162   -7.6761331    335.69927  0.014912015  0.013631406         3684 
 1877000   0.50296111   -7.6653001    335.98574  0.014916789  0.013620105         3663 
 1878000   0.50782107   -7.6714311    335.58571  0.014891095  0.013608811         3693 
 1879000   0.50792824   -7.6867966    336.31711  0.014915607  0.013597529         3680 
 1880000   0.50937017   -7.6768138    336.19702   0.01490235   0.01358626         3668 
 1881000   0.49921108   -7.6769212    335.96677  0.014884227  0.013575008         3659 
 1882000   0.48908665   -7.6892871    335.88485  0.014872691  0.013563757         3684 
 1883000    0.4985814   -7.6928358    335.51525  0.014848436  0.013552514         3677 
 1884000   0.49777231   -7.6712475    335.89181   0.01485721  0.013541291         3685 
 1885000   0.49635489   -7.6912365    336.03722  0.014855757  0.013530083         3667 
 1886000   0.49726992   -7.6747828    336.16687  0.014853609   0.01351888         3663 
 1887000    0.4954364   -7.6787562    335.61035   0.01482116  0.013507692         3683 
 1888000   0.50711884   -7.6922327    336.51502  0.014853241  0.013496519         3690 
 1889000   0.49142618   -7.6944449    335.58068  0.014804159  0.013485347         3656 
 1890000   0.48884726   -7.6992978    335.99906  0.014814773  0.013474191         3641 
 1891000   0.49721615   -7.6973885    335.75178  0.014796042  0.013463042         3663 
 1892000   0.49396102   -7.6960573    336.03446  0.014800672  0.013451901         3667 
 1893000   0.49874627   -7.6962704    335.70891  0.014778522  0.013440773         3659 
 1894000   0.49599079   -7.6900502     336.1911  0.014791935  0.013429659         3658 
 1895000   0.50214201   -7.6861264    335.55274  0.014756057  0.013418566         3661 
 1896000   0.49605406   -7.6745248    335.80576  0.014759395  0.013407487         3666 
 1897000   0.48861263   -7.6903775    335.80731  0.014751683  0.013396413         3684 
 1898000   0.49777662   -7.6813994    336.36958  0.014768598  0.013385351         3665 
 1899000   0.49604652   -7.6905734    336.17324  0.014752204  0.013374307         3712 
 1900000   0.50355222   -7.7107994    336.18095  0.014744779  0.013363269         3686 
 1901000   0.48902609   -7.7004467    335.89236  0.014724371  0.013352238         3686 
 1902000   0.48859971   -7.6912243    335.97485  0.014720244  0.013341219         3660 
 1903000   0.49801264    -7.677684    335.90431   0.01470942   0.01333021         3644 
 1904000   0.50477246   -7.6993754    336.09316   0.01470996  0.013319218         3690 
 1905000   0.49339425   -7.6917394    335.42985  0.014673222  0.013308233         3694 
 1906000   0.49192498   -7.7026715    335.59505  0.014672746   0.01329726         3672 
 1907000   0.48558135   -7.6894008    336.00801  0.014683098   0.01328629         3690 
 1908000   0.48647237   -7.6950482    335.61395  0.014658191  0.013275338         3675 
 1909000   0.49571392   -7.7037103     335.6994  0.014654243  0.013264393         3663 
 1910000   0.49600831   -7.6988577    335.37021  0.014632208  0.013253462         3649 
 1911000   0.47526608   -7.6993133     335.5875  0.014634027  0.013242539         3658 
 1912000   0.49059773   -7.6928216    335.65853  0.014629469  0.013231629         3672 
 1913000    0.5006106   -7.7076798    335.69082  0.014623228   0.01322074         3685 
 1914000   0.49263823   -7.6998507    335.70033  0.014616002  0.013209859         3633 
 1915000   0.48244819   -7.7036741    335.55866  0.014602204   0.01319898         3661 
 1916000   0.49522986   -7.7062229    335.72327  0.014601743  0.013188113         3691 
 1917000    0.4722764   -7.7020735    335.81902  0.014598288  0.013177259         3673 
 1918000   0.48706695   -7.6938872    335.31809  0.014568913  0.013166418         3678 
 1919000   0.48351956   -7.7055787    336.27483  0.014602868  0.013155584         3720 
 1920000   0.48293699   -7.7130909    335.61234  0.014566508  0.013144768         3668 
 1921000   0.47395029   -7.7105474    335.54097  0.014555829  0.013133959         3701 
 1922000   0.49115482   -7.6890501    335.74869  0.014557262  0.013123163         3682 
 1923000   0.48503908   -7.7015009    336.04043  0.014562334  0.013112383         3648 
 1924000   0.49554987   -7.6961598    335.37095  0.014525769   0.01310162         3653 
 1925000   0.48217024   -7.7071831    335.63416  0.014529617  0.013090854         3668 
 1926000   0.48773698   -7.7192176    335.49052  0.014515858  0.013080107         3669 
 1927000   0.48961272   -7.7032471    335.36442  0.014502872  0.013069371         3668 
 1928000   0.48801753   -7.7099945     335.5663  0.014504076  0.013058643         3684 
 1929000   0.49130949   -7.6917357    335.34049  0.014486802  0.013047925         3683 
 1930000   0.48774948   -7.7000491    335.57371  0.014489366  0.013037224         3658 
 1931000   0.48976956   -7.7104013    335.45148  0.014476587  0.013026528         3668 
 1932000   0.48731074   -7.7204581    335.30664  0.014462847  0.013015846         3681 
 1933000   0.48394796    -7.700746    335.54306  0.014465557  0.013005166         3698 
 1934000   0.48388729   -7.6956965    335.22978  0.014444579  0.012994501         3693 
 1935000   0.48625633   -7.7030275    335.79227  0.014461338  0.012983852         3672 
 1936000   0.47550182     -7.71814    335.49112  0.014440906  0.012973213         3689 
 1937000   0.49060894   -7.7225499    335.33874  0.014426895  0.012962585         3667 
 1938000   0.47226735   -7.6997808    335.71045  0.014435434  0.012951961         3651 
 1939000   0.46633328   -7.7048004    335.18536  0.014405422  0.012941349         3654 
 1940000   0.47489746   -7.7208925    335.78489  0.014423749  0.012930746         3674 
 1941000   0.47468712   -7.7137824    335.00027  0.014382632  0.012920158         3676 
 1942000    0.4787792   -7.7134915    334.99806  0.014375131  0.012909578         3704 
 1943000   0.47521549   -7.7153534    334.90748  0.014363848   0.01289901         3656 
 1944000   0.48353978   -7.7057784    335.84847  0.014396797  0.012888448         3679 
 1945000   0.47458921   -7.7040728    334.99959  0.014353025  0.012877904         3669 
 1946000    0.4780352   -7.7202764    335.29672  0.014358373  0.012867367         3676 
 1947000   0.46888412   -7.7206379    335.32055  0.014352018  0.012856843         3679 
 1948000   0.47018436   -7.7149223    335.19295  0.014339192  0.012846324         3688 
 1949000   0.47785752    -7.728387    335.37367  0.014339562  0.012835816         3687 
 1950000   0.47813819     -7.70861    335.58758   0.01434135  0.012825312         3657 
 1951000   0.46776189   -7.7208934     334.4262  0.014284392  0.012814828         3675 
 1952000   0.46935354   -7.7122175    335.39516  0.014318441  0.012804355         3689 
 1953000   0.48035531   -7.7319207    335.18871    0.0143023   0.01279389         3671 
 1954000    0.4770535   -7.7119917    334.99623  0.014286772  0.012783436         3673 
 1955000   0.47790995   -7.7248012    335.87581  0.014316957  0.012772991         3711 
 1956000   0.48115493   -7.7206951    335.04647  0.014274304  0.012762553         3678 
 1957000   0.46407745   -7.7359945     335.1465   0.01427127  0.012752129         3666 
 1958000   0.46672055   -7.7434964     335.0088   0.01425812  0.012741709         3689 
 1959000   0.46610055   -7.7378326    335.59511  0.014275783  0.012731303         3706 
 1960000    0.4760002   -7.7303249    335.46807  0.014263098  0.012720912         3697 
 1961000   0.47050323    -7.741045    334.86185  0.014230063   0.01271053         3679 
 1962000   0.47498176   -7.7115608    334.83012  0.014221463  0.012700152         3699 
 1963000   0.47719183   -7.7381674    334.99353  0.014221155  0.012689786         3687 
 1964000   0.45997395   -7.7401555    334.92846  0.014211153  0.012679429         3696 
 1965000   0.46626562   -7.7269737    334.91142  0.014203198  0.012669083         3699 
 1966000   0.46907456   -7.7228304    334.84048  0.014192967  0.012658751         3704 
 1967000   0.46795847   -7.7193561    335.72409  0.014223186  0.012648432         3667 
 1968000   0.46831624   -7.7111442    335.22493  0.014194823  0.012638128         3697 
 1969000   0.46874834   -7.7228263    334.82786  0.014170808  0.012627835         3681 
 1970000   0.45758795   -7.7348339    334.68978  0.014157774  0.012617545         3697 
 1971000   0.47235141   -7.7214672    335.46828  0.014183506  0.012607276         3717 
 1972000   0.46483923    -7.718654    335.42728  0.014174581  0.012597009         3698 
 1973000   0.46676211   -7.7345416    334.98342  0.014148649  0.012586759         3677 
 1974000   0.46430083   -7.7234384     334.7759  0.014132721  0.012576515         3719 
 1975000    0.4796148    -7.732082    335.47186  0.014154931  0.012566287         3676 
 1976000    0.4600377   -7.7378084    335.06135  0.014130455  0.012556063         3691 
 1977000   0.46343084   -7.7203701    335.12468  0.014125977  0.012545852         3683 
 1978000   0.46326199   -7.7405363    335.15357  0.014120053  0.012535653         3678 
 1979000   0.46310647   -7.7306507    334.56317  0.014088057  0.012525459         3667 
 1980000     0.473695   -7.7222732    335.19171  0.014107395  0.012515281         3687 
 1981000   0.46699628   -7.7140099    334.68825  0.014079095  0.012505111         3704 
 1982000   0.46615857   -7.7420411    335.06358  0.014087772  0.012494949         3691 
 1983000   0.46573162   -7.7468389    335.07281  0.014081056  0.012484793         3704 
 1984000   0.45344754   -7.7287988     335.4972  0.014091784  0.012474649         3690 
 1985000   0.46330308   -7.7372109    334.83388  0.014056838  0.012464509         3703 
 1986000   0.46307423   -7.7315042    335.14977  0.014063015  0.012454398         3687 
 1987000   0.45818154   -7.7526556    334.54001  0.014030364  0.012444291         3683 
 1988000    0.4530266   -7.7440972    335.36432   0.01405786  0.012434196         3684 
 1989000   0.47172536   -7.7436237    335.12786  0.014040886  0.012424114         3696 
 1990000   0.45419899   -7.7423517    334.60642  0.014011994  0.012414034         3658 
 1991000   0.45568944    -7.746448    335.02753  0.014022582   0.01240397         3671 
 1992000    0.4696417    -7.741646    334.75991  0.014004347  0.012393917         3677 
 1993000   0.45615454   -7.7532551    335.10374  0.014011697  0.012383876         3719 
 1994000     0.463956   -7.7284248    334.64875  0.013985655  0.012373837         3727 
 1995000   0.46188715    -7.744029    335.26021  0.014004186  0.012363815         3708 
 1996000   0.45482067   -7.7442922    334.45583  0.013963587  0.012353802         3716 
 1997000   0.46083171   -7.7329347    334.80762  0.013971275  0.012343798         3687 
 1998000   0.45762897   -7.7511574    334.92426  0.013969147  0.012333803         3671 
 1999000   0.44738256   -7.7448636    334.30776  0.013936458  0.012323817         3691 
 2000000   0.46066735   -7.7582817    334.80756  0.013950315  0.012313843         3671 
 2001000   0.46755182   -7.7374165    334.94697  0.013949149  0.012303873         3688 
 2002000   0.45839009   -7.7669458    334.80187  0.013936142  0.012293922         3713 
 2003000   0.44600978   -7.7485779    335.15119  0.013943717  0.012283977         3711 
 2004000   0.46408591   -7.7466375    334.68879  0.013917531  0.012274038         3723 
 2005000   0.46093968    -7.749624    334.58765  0.013906386  0.012264115         3715 
 2006000   0.45394031   -7.7474167    334.43529  0.013893124  0.012254198         3727 
 2007000   0.45631541   -7.7439007    334.80551  0.013901574  0.012244285         3745 
 2008000   0.44884096   -7.7494907    334.80707  0.013894716  0.012234394         3714 
 2009000   0.46266212   -7.7677106    335.01445  0.013896402  0.012224508         3713 
 2010000   0.44880647    -7.738794       334.14  0.013853234  0.012214629         3746 
 2011000   0.45157684    -7.756337    335.32139  0.013895301  0.012204767         3721 
 2012000   0.45503374   -7.7630334    334.88136  0.013870169  0.012194908         3726 
Loop time of 4245.43 on 48 procs for 2000000 steps with 4000 atoms

Performance: 81405.232 tau/day, 471.095 timesteps/s
99.4% CPU use with 48 MPI tasks x no OpenMP threads

MPI task timing breakdown:
Section |  min time  |  avg time  |  max time  |%varavg| %total
---------------------------------------------------------------
Pair    | 259.89     | 272.8      | 287.51     |  33.3 |  6.43
Neigh   | 26.736     | 27.157     | 28.545     |   5.1 |  0.64
Comm    | 231.46     | 246.1      | 262.26     |  44.7 |  5.80
Output  | 4.3564     | 4.358      | 4.3879     |   0.2 |  0.10
Modify  | 3628.4     | 3648       | 3665.6     |  15.2 | 85.93
Other   |            | 47.04      |            |       |  1.11

Nlocal:        83.3333 ave          88 max          78 min
Histogram: 1 0 2 10 6 6 6 10 2 5
Nghost:        1764.94 ave        1786 max        1749 min
Histogram: 3 11 5 3 3 11 6 1 3 2
Neighs:        10707.2 ave       11336 max       10024 min
Histogram: 2 3 5 5 6 10 6 6 2 3
FullNghs:      21414.7 ave       22970 max       19995 min
Histogram: 1 4 7 6 9 5 9 3 2 2

Total # of neighbors = 1027907
Ave neighs/atom = 256.97675
Neighbor list builds = 108001
Dangerous builds = 0

#clear
#
#next RN
#
#jump SELF
Total wall time: 1:10:48
