
units lj                  # Use reduced LJ style units
atom_style atomic         # Uncharged point particles
atom_modify map hash      # Needed for indexing of clusters etc
                          # Used to be able to find where atoms are in relation to each other.

lattice fcc 1.0 spacing 1 1 1
Lattice spacing in x,y,z = 1.5874011 1.5874011 1.5874011
region box block 0 10 0 10 0 10 units lattice
create_box 2 box
Created orthogonal box = (0.0000000 0.0000000 0.0000000) to (15.874011 15.874011 15.874011)
  3 by 4 by 4 MPI processor grid
create_atoms 1 box
Created 4000 atoms
  using lattice units in orthogonal box = (0.0000000 0.0000000 0.0000000) to (15.874011 15.874011 15.874011)
  create_atoms CPU = 0.002 seconds
set type 1 type/fraction 2 0.93 78393
Setting atom values ...
  3709 settings made for type/fraction
mass 1 1.0
mass 2 1.0
pair_style lj/cut  3.5
pair_modify tail  yes
pair_coeff 1  1  1.0  1.0   # Intearaction between 1 and 1 set with epsilon = 1 and sigma = 1
pair_coeff 1  2  1.5  0.8
pair_coeff 2  2  0.5  0.88

write_data data.0
System init for write_data ...
Neighbor list info ...
  update every 1 steps, delay 10 steps, check yes
  max neighbors/atom: 2000, page size: 100000
  master list distance cutoff = 3.8
  ghost atom cutoff = 3.8
  binsize = 1.9, bins = 9 9 9
  1 neighbor lists, perpetual/occasional/extra = 1 0 0
  (1) pair lj/cut, perpetual
      attributes: half, newton on
      pair build: half/bin/atomonly/newton
      stencil: half/bin/3d
      bin: standard
WARNING: Not all mixed pair coeffs generated from mixing. Use write_data with 'pair ij' option to store all pair coeffs. (../write_data.cpp:312)


#############################
#   M E L T   S Y S T E M   #
#############################

velocity all create 2.4 1741580 mom yes dist gaussian # Assign velocities
                                                    # Temperature 2.4, random number seed, zero linear momentum
                                                                                # Gaussian distribution

timestep 0.002   # simulation timestep
thermo 1000       # output thermodynamic data every 1000 steps bf 100

# Define a fix  in this case with index 1 applied to all
# particles in the simulation. This fix is for simulations
# in the anisotropic NPT ensemble. Note that we use the MTK
# correction.
fix 1 all npt temp 2.4 2.4 0.1 iso 5.68 5.68 0.5 mtk yes tchain 5 pchain 5 # Use NPT ensemble
                                                                         # Set temperature and pressure and damping
                                                                         # Numbers of thermostats in chain and in barostat
run 10000          # run for 10000 steps
Per MPI rank memory allocation (min/avg/max) = 3.642 | 3.644 | 3.648 Mbytes
Step Temp E_pair E_mol TotEng Press Volume 
       0          2.4   -3.0493222            0   0.54977785   -2.3496824         4000 
    1000    2.4022705   -2.0337399            0    1.5687651    5.7094706     4034.005 
    2000    2.3363245   -1.9810367            0    1.5225739     5.522133    4098.0549 
    3000     2.434168   -1.9818684            0    1.6684708    5.5200697    4123.1397 
    4000    2.4179983   -1.9878884            0    1.6382024     5.449568    4132.8205 
    5000      2.39595   -2.0285821            0    1.5644444    5.6062246    4073.4096 
    6000     2.420589   -1.9821629            0    1.6478129     5.645781    4103.4629 
    7000    2.4380804   -2.0131946            0    1.6430118    5.4719699    4110.4144 
    8000     2.391628   -1.9871085            0    1.5994366    5.7362212    4079.0232 
    9000    2.4249838   -2.0171211            0    1.6194453    5.6168256    4089.4281 
   10000    2.3702492   -1.9579673            0    1.5965177    5.7273468    4105.4199 
Loop time of 2.42344 on 48 procs for 10000 steps with 4000 atoms

Performance: 713037.087 tau/day, 4126.372 timesteps/s
99.6% CPU use with 48 MPI tasks x no OpenMP threads

MPI task timing breakdown:
Section |  min time  |  avg time  |  max time  |%varavg| %total
---------------------------------------------------------------
Pair    | 1.0747     | 1.1302     | 1.2028     |   2.7 | 46.64
Neigh   | 0.20576    | 0.21293    | 0.22871    |   1.0 |  8.79
Comm    | 0.74738    | 0.82709    | 0.89929    |   3.6 | 34.13
Output  | 0.00024231 | 0.00024609 | 0.00031553 |   0.0 |  0.01
Modify  | 0.2123     | 0.2378     | 0.27102    |   2.9 |  9.81
Other   |            | 0.01514    |            |       |  0.62

Nlocal:        83.3333 ave          92 max          74 min
Histogram: 2 4 3 7 6 5 9 7 3 2
Nghost:        1613.06 ave        1647 max        1579 min
Histogram: 2 3 6 8 3 8 6 7 3 2
Neighs:        9290.19 ave       10629 max        7640 min
Histogram: 1 1 4 5 7 10 9 8 1 2

Total # of neighbors = 445929
Ave neighs/atom = 111.48225
Neighbor list builds = 906
Dangerous builds = 195

# Equilibrate just above the melting temperature to avoid step fn in T

fix 1 all npt temp 1.25 1.25 0.1 iso 5.68 5.68 0.5 mtk yes tchain 5 pchain 5
run 2000
Per MPI rank memory allocation (min/avg/max) = 3.643 | 3.645 | 3.649 Mbytes
Step Temp E_pair E_mol TotEng Press Volume 
   10000    2.3702492   -1.9579673            0    1.5965177    5.7273468    4105.4199 
   11000    1.2227706   -3.0182894            0   -1.1845921    5.6426524    3171.5786 
   12000     1.279349   -3.0303624            0   -1.1118187    5.6775146    3159.0507 
Loop time of 0.607272 on 48 procs for 2000 steps with 4000 atoms

Performance: 569102.771 tau/day, 3293.419 timesteps/s
99.6% CPU use with 48 MPI tasks x no OpenMP threads

MPI task timing breakdown:
Section |  min time  |  avg time  |  max time  |%varavg| %total
---------------------------------------------------------------
Pair    | 0.25747    | 0.28618    | 0.30865    |   2.0 | 47.13
Neigh   | 0.038809   | 0.040889   | 0.043234   |   0.5 |  6.73
Comm    | 0.19715    | 0.22358    | 0.25658    |   2.7 | 36.82
Output  | 5.2212e-05 | 5.3994e-05 | 6.9921e-05 |   0.0 |  0.01
Modify  | 0.04547    | 0.051766   | 0.056692   |   1.2 |  8.52
Other   |            | 0.004797   |            |       |  0.79

Nlocal:        83.3333 ave          92 max          76 min
Histogram: 2 6 4 6 8 9 6 4 1 2
Nghost:        1928.08 ave        1966 max        1900 min
Histogram: 3 4 7 11 4 7 6 3 2 1
Neighs:        12102.4 ave       13608 max       10495 min
Histogram: 2 2 5 9 3 9 4 8 4 2

Total # of neighbors = 580913
Ave neighs/atom = 145.22825
Neighbor list builds = 143
Dangerous builds = 13

#############################
# L I N E A R  Q U E N C H  #
#############################

# Define solid atoms. This closely follows ten Wolde  Ruiz-Montero and Frenkel  Faraday Discuss  1996  104  93-110
# Compute components of the per-atom q6 vector
compute q6 all orientorder/atom degrees 1 6 components 6 nnn NULL cutoff 1.3 # compute the Q6 parameter.
                                                                             # Use all neighbours within 1.3 unit cell.

# get number of connections
compute coord_number all coord/atom orientorder q6 0.5

# An atom is solid if it has 8 or more connections (of a possible 14)
variable is_solid atom c_coord_number>=8
group solid dynamic all var is_solid    # Must be dynamic to update
dynamic group solid defined

# do clustering
compute cluster solid cluster/atom 1.3 # Create a cluster where all atoms within are solid and max 1.3 units from another member

# define chunks one chunk per cluster
compute clus_chunks solid chunk/atom c_cluster nchunk every compress yes  # Says which atoms are in which chunk

# count the size of each chunk
compute size_chunks solid property/chunk clus_chunks count


# Find the maximum entry in the vector of chunk sizes
variable max_n equal max(c_size_chunks)


# Thermo style which includes this variable
# thermo_style custom step temp pe vol v_max_n

thermo ${N}  # Print the thermo information every 100 steps
thermo 1000  

# Reset the npt fix at a lower temperature (below freezing)
fix 1  all npt temp  ${temp} ${temp}  0.1  iso  5.68  5.68  0.5  mtk yes tchain  5  pchain  5
fix 1  all npt temp  0.45 ${temp}  0.1  iso  5.68  5.68  0.5  mtk yes tchain  5  pchain  5
fix 1  all npt temp  0.45 0.45  0.1  iso  5.68  5.68  0.5  mtk yes tchain  5  pchain  5

dump dmp2 all dcd ${N} traj.dcd
dump dmp2 all dcd 1000 traj.dcd


compute msd all msd com yes
variable twopoint equal c_msd[4]/6/(step*dt+1.0e-6)
fix 9 all vector 10 c_msd[4]
variable fit equal slope(f_9)/6/(10*dt)
thermo_style custom step temp pe c_msd[4] v_twopoint v_fit v_max_n

fix 1 all npt temp 1.25 ${temp} 0.1 iso 5.68 5.68 0.5 mtk yes tchain 5 pchain 5
fix 1 all npt temp 1.25 0.45 0.1 iso 5.68 5.68 0.5 mtk yes tchain 5 pchain 5
run 5000000 # 5000000  # Run for this many steps
Neighbor list info ...
  update every 1 steps, delay 10 steps, check yes
  max neighbors/atom: 2000, page size: 100000
  master list distance cutoff = 3.8
  ghost atom cutoff = 3.8
  binsize = 1.9, bins = 8 8 8
  4 neighbor lists, perpetual/occasional/extra = 1 3 0
  (1) pair lj/cut, perpetual
      attributes: half, newton on
      pair build: half/bin/atomonly/newton
      stencil: half/bin/3d
      bin: standard
  (2) compute orientorder/atom, occasional
      attributes: full, newton on
      pair build: full/bin/atomonly
      stencil: full/bin/3d
      bin: standard
  (3) compute coord/atom, occasional
      attributes: full, newton on
      pair build: full/bin/atomonly
      stencil: full/bin/3d
      bin: standard
  (4) compute cluster/atom, occasional
      attributes: full, newton on
      pair build: full/bin/atomonly
      stencil: full/bin/3d
      bin: standard
Per MPI rank memory allocation (min/avg/max) = 9.817 | 9.825 | 9.831 Mbytes
Step Temp PotEng c_msd[4] v_twopoint v_fit v_max_n 
   12000     1.279349   -3.0303624 4.2101507e-30 2.9237156e-32 8.3333333e+20            3 
   13000    1.2793186    -3.017469    1.0628687 0.0068132607  0.090271894            2 
   14000    1.2677956   -3.0098617    2.1438561  0.012761048  0.091097352            1 
   15000    1.2910331   -3.0381588    3.3040124  0.018355624  0.092362445            2 
   16000    1.2294812   -2.9842755    4.4489085  0.023171398  0.093372448            1 
   17000    1.2434067   -2.9913018    5.6032579   0.02746695  0.094023616            1 
   18000    1.2456286   -3.0356523    6.7853169  0.031413503  0.094501873            1 
   19000    1.2182772   -2.9955553    8.0041848  0.035106073  0.095235194            1 
   20000    1.2568615   -3.0188868    9.1020351  0.037925145  0.095583505            3 
   21000    1.2551498   -2.9702375    10.240491  0.040636866  0.095687749            1 
   22000    1.2691098   -3.0592627    11.431381  0.043300685  0.095914595            2 
   23000    1.2494661   -2.9915764    12.875348  0.046649811  0.096805798            3 
   24000    1.2513569   -3.0221785    14.020173  0.048681154  0.097578336            1 
   25000    1.2522119   -3.0044512    15.178523  0.050595076  0.098019916            2 
   26000    1.2533554   -3.0382166    16.287011  0.052201956  0.098219205            1 
   27000    1.2456271   -3.0184547    17.394757  0.053687519  0.098090571       -1e+20 
   28000    1.2402015   -3.0207148    18.430094  0.054851471  0.097816926            3 
   29000    1.2331111   -2.9890613    19.532678  0.056128383  0.097529195            1 
   30000    1.2516962   -3.0210154    20.607252  0.057242366   0.09714574            2 
   31000    1.2689829   -3.0325411    21.944471  0.058990513  0.097037741            1 
   32000    1.2550613   -3.0131953    23.109065  0.060179856  0.096920475            3 
   33000    1.2438116    -3.010662    24.272105  0.061293194  0.096852825            2 
   34000    1.2699725   -3.0281515    25.175966  0.061705799  0.096631576            1 
   35000     1.241559   -3.0081658    26.242882  0.062483053  0.096355548            2 
   36000    1.2136215   -3.0194277    27.334687  0.063274738  0.096111979            3 
   37000    1.2374397   -2.9991591     28.43271  0.064037635  0.095908685            2 
   38000     1.262476    -3.031452    29.790768   0.06533063   0.09579069            3 
   39000    1.2350934     -3.01909    30.779292  0.065767718  0.095709181            3 
   40000    1.2327279   -3.0303992    32.240527  0.067167764  0.095680955            2 
   41000    1.2625307   -3.0202938     32.98832  0.067049431    0.0956044            3 
   42000    1.2283012   -3.0091832     34.38298  0.068220197   0.09558173            2 
   43000    1.2149805   -3.0577296    35.146642  0.068113647  0.095502096            2 
   44000    1.2458458   -3.0098537    36.076776  0.068327227  0.095323403            1 
   45000    1.2716819   -3.0296764    37.263777  0.069006994  0.095100988            2 
   46000    1.2359669   -3.0122729    38.164915  0.069139339  0.094864648            2 
   47000    1.2628821   -3.0297809    39.398594  0.069855663  0.094669017            2 
   48000    1.2693815   -2.9829107    40.787143  0.070811011  0.094569493            2 
   49000    1.2405123   -3.0484776    41.804946  0.071096847  0.094474188            2 
   50000    1.2583293   -3.0109283    43.204941  0.072008235   0.09442132            1 
   51000    1.2769001    -3.012534     44.63033  0.072925376  0.094465183            2 
   52000    1.2222675   -3.0305431    45.958755   0.07365185  0.094538063            1 
   53000    1.2532555   -3.0096235    46.808673  0.073598542  0.094624252            1 
   54000    1.2217146   -3.0209162    47.490404   0.07328766  0.094644063            1 
   55000    1.2321712   -3.0262536    48.816797  0.073964843  0.094593593            3 
   56000    1.2469435   -3.0212164      49.7298  0.074002678  0.094530768            1 
   57000     1.234412   -3.0111756     50.82622  0.074307339    0.0944459            1 
   58000    1.2449834    -2.992768    52.262407  0.075089665  0.094402982            3 
   59000    1.2173158   -3.0159257    53.262911  0.075230099  0.094377764            1 
   60000    1.2352648   -3.0320442     54.29872  0.075414888  0.094348548            2 
   61000    1.2340318    -3.025281    55.710562  0.076107324  0.094351314            3 
   62000    1.2464493   -3.0273528    56.974288  0.076578344  0.094353239            2 
   63000    1.2504962   -3.0393819    57.650812  0.076257688  0.094372885            1 
   64000     1.215353   -3.0289972    59.024899  0.076855337  0.094415853            3 
   65000    1.2445405    -3.019888    60.578872   0.07766522  0.094478066            2 
   66000    1.2662612   -3.0151614    61.773199  0.077996462   0.09455476            4 
   67000    1.2643118   -3.0192187    63.090825  0.078471174  0.094607883            1 
   68000    1.2389404   -3.0227681    63.899309  0.078307976  0.094648151            1 
   69000    1.2528869    -3.042627      65.2792  0.078839613  0.094663801            1 
   70000    1.2106016   -3.0207333    65.824881  0.078362953  0.094647391            1 
   71000    1.2344218   -3.0143986    66.696619  0.078282417  0.094615977            1 
   72000    1.2351757   -2.9956103    68.093471  0.078811887  0.094580801            2 
   73000    1.2356273   -3.0278054    68.982293  0.078746909  0.094560868            1 
   74000    1.2746942   -3.0280094    69.660896  0.078446954  0.094484328            2 
   75000    1.2407355   -3.0107767    71.215293  0.079128102  0.094420687            2 
   76000     1.246385   -3.0167994     72.36773  0.079350581  0.094374489            1 
   77000    1.2560661   -3.0019334    73.798509  0.079868516  0.094366496            1 
   78000    1.2351448   -3.0449937    74.856368  0.079974752  0.094371507            2 
   79000    1.2776213   -2.9955997    76.045146  0.080216398   0.09438937            2 
   80000    1.2580352   -3.0361582    77.539191   0.08076999  0.094423927            2 
   81000    1.2227874   -3.0061064     78.65203  0.080917726   0.09444886            1 
   82000    1.2443583    -2.995316    79.897786  0.081196936  0.094491662            2 
   83000    1.2636275   -3.0066572    80.791597   0.08111606  0.094520606            1 
   84000    1.2505615   -3.0003172    82.134904  0.081483039   0.09453401            2 
   85000    1.2385896   -3.0107818    82.517686  0.080899692  0.094549796            3 
   86000    1.2222179   -3.0219018    83.943792  0.081340883  0.094553056            1 
   87000    1.2817835    -3.042757    85.253502  0.081660442  0.094562945            3 
   88000     1.226171   -3.0174585    86.489363  0.081902805  0.094567858            1 
   89000    1.2231638   -3.0231611    87.154302  0.081605151  0.094570971            2 
   90000    1.2056878   -3.0311745    88.966088  0.082376007  0.094580952            3 
   91000    1.2415711    -3.020369    90.323872  0.082714168   0.09460942            2 
   92000    1.2201276    -3.037156    91.275129  0.082676747  0.094622748            2 
   93000    1.2585384   -3.0217684     91.83749  0.082291657  0.094628892            1 
   94000    1.2207688   -3.0327842    93.056403  0.082496811  0.094629147            1 
   95000    1.2496211   -3.0195244    94.487095  0.082883416  0.094645873            1 
   96000    1.2483408    -3.017545    95.538779  0.082932968  0.094657874            2 
   97000    1.2388376   -3.0163977    96.564837  0.082959482  0.094658355            4 
   98000    1.2547479    -2.966525    97.985132   0.08332069  0.094648172            2 
   99000     1.264847   -3.0107127    98.504381  0.082916145  0.094641291            1 
  100000    1.2168553    -3.050566    99.611496   0.08300958  0.094599774            2 
  101000    1.2312094   -3.0375047    100.30997  0.082764004  0.094558692            2 
  102000      1.24322   -3.0263264    101.80404  0.083173231  0.094525614            1 
  103000    1.2291558   -3.0279083    102.55943  0.082976888  0.094481025            1 
  104000    1.2595639   -3.0118582     103.8165  0.083186302  0.094454224            1 
  105000    1.2424655    -3.026931    105.02366  0.083352113   0.09443287            3 
  106000    1.2243841   -3.0360805    106.03404  0.083360091  0.094411065            2 
  107000    1.2446996   -3.0620383    106.47249  0.082922498  0.094378445            1 
  108000    1.2015952   -3.0207314    108.27278  0.083543812  0.094344528            4 
  109000    1.2385546   -2.9978999    109.07455  0.083390326  0.094300146            1 
  110000    1.2388859   -3.0138325    109.90101  0.083258343  0.094244238            1 
  111000    1.2386203   -2.9957146    111.51928  0.083723184  0.094188496            1 
  112000    1.2429148   -3.0340254    112.63349  0.083804682  0.094153007            2 
  113000    1.2420996   -3.0282493    113.51079  0.083710019  0.094114678            1 
  114000    1.2265867   -3.0264334     114.5714  0.083751027  0.094077202            2 
  115000    1.2254983   -3.0412627    115.53651  0.083722111  0.094038347            2 
  116000    1.2235104   -3.0217572    117.21514  0.084206275  0.094001099            1 
  117000    1.2114071    -3.048449    118.70617  0.084548553   0.09398488            2 
  118000    1.2392618   -3.0085412    119.58783  0.084454679  0.093968844            2 
  119000    1.2317779   -3.0147508    120.72677  0.084542554  0.093969885            2 
  120000    1.2240227   -3.0476496    122.06947  0.084770464  0.093974697            1 
  121000    1.2532351   -3.0470673    123.24648  0.084880498  0.093967176            1 
  122000    1.2261316   -3.0508284    124.11766  0.084779825  0.093954503            1 
  123000    1.2559659   -3.0702585    124.82399  0.084569096  0.093938858            2 
  124000    1.2306977   -3.0378125    125.72893  0.084495246  0.093920921            1 
  125000    1.2422346    -3.014061    126.91417  0.084609449   0.09389429            2 
  126000    1.2251312   -3.0210789    128.53463  0.085009679  0.093874873            2 
  127000    1.2326796   -3.0469815    129.21543  0.084787027   0.09386241            1 
  128000    1.2158914   -3.0640142    130.62119  0.085039838  0.093849977            2 
  129000    1.2261832   -3.0405462    131.12625  0.084706879  0.093832544            1 
  130000    1.2343853   -3.0249898    132.29236  0.084802794  0.093798206            3 
  131000     1.246582   -3.0344984    132.97698  0.084590953  0.093758929            2 
  132000    1.2228486   -3.0400699    133.52691   0.08429729  0.093713969            2 
  133000      1.23822   -3.0525603    135.12953  0.084667627  0.093663799            4 
  134000    1.2400408   -3.0329169     136.3542  0.084797388  0.093609535            2 
  135000    1.2457384   -3.0161346    137.34786  0.084782628  0.093559895            1 
  136000    1.2311349   -3.0214356    138.10854  0.084625328  0.093504287            2 
  137000     1.250161   -3.0321838    138.33034  0.084142542  0.093443006            7 
  138000    1.2014466   -3.0477368    140.08835  0.084594416  0.093373685            1 
  139000    1.2351671   -3.0118225    141.46084  0.084808659  0.093312871            1 
  140000    1.1968964   -3.0345507    142.24655  0.084670568  0.093260769            3 
  141000     1.223933   -3.0274095    143.66444  0.084908063  0.093212781            2 
  142000    1.2197388    -3.017629    145.65961  0.085480994  0.093183964            4 
  143000     1.235184   -3.0246652    146.55198  0.085403252  0.093150339            1 
  144000     1.241904   -3.0456294    146.30346  0.084666354  0.093111961            1 
  145000    1.2556905   -3.0778911    147.15091  0.084569488  0.093063961            2 
  146000    1.2125206   -3.0521736    148.12208  0.084544568   0.09301681            2 
  147000    1.2290808   -3.0515272    149.36016  0.084671294  0.092968036            1 
  148000    1.2447017   -3.0414478    150.90479  0.084968916  0.092931079            3 
  149000    1.2022263   -3.0527363    152.36448  0.085215034  0.092898222            2 
  150000    1.2485567   -3.0482534    153.96643  0.085536907  0.092864214            2 
  151000    1.2281592    -3.039526    155.20997  0.085656714  0.092837924            1 
  152000    1.2257605   -3.0802137    156.17246  0.085620869   0.09281884            2 
  153000    1.2325473   -3.0240867    156.38075  0.085174698  0.092793713            1 
  154000    1.2659517   -3.0644732    158.27625  0.085647318  0.092769068            3 
  155000    1.2211664   -3.0337245    159.04492  0.085508022   0.09273805            1 
  156000    1.2419195   -3.0627408     159.8482  0.085388998  0.092706091            2 
  157000    1.2409829   -3.0650804    160.86903  0.085386959  0.092675406            1 
  158000    1.2040994   -3.0112701    162.94555  0.085941748  0.092646527            1 
  159000    1.2319496   -3.0497753    163.23186   0.08555129  0.092621021            1 
  160000    1.2197329   -3.0252249    163.65411  0.085236517   0.09259175            4 
  161000    1.2115852   -2.9902264    165.31779  0.085568214  0.092567378            1 
  162000    1.2466687   -3.0260613    166.71706  0.085759805  0.092548266            1 
  163000    1.2250338   -3.0456691     167.7004  0.085736399  0.092523782            2 
  164000    1.2173606   -3.0260269    170.44028  0.086605831  0.092511427            2 
  165000    1.2166665   -3.0406765    170.74301  0.086233841  0.092505308            2 
  166000    1.2195141   -3.0424503    172.38081  0.086536553  0.092502962            2 
  167000    1.2311078   -3.0365904    173.51056  0.086582113  0.092506796            1 
  168000    1.2081762   -3.0450488    174.71887  0.086666106   0.09250829            1 
  169000    1.2433871   -3.0222116    175.44709   0.08651237  0.092512377            1 
  170000    1.2340712   -3.0617019    176.84633  0.086689376  0.092517643            2 
  171000    1.2583658   -3.0179726    178.30462  0.086893092  0.092521244            2 
  172000    1.2184605   -3.0704643    177.40983  0.085954376  0.092516308            1 
  173000     1.201946   -3.0514303    179.00615  0.086226469  0.092500474            2 
  174000    1.2447489   -3.0459537    180.47575  0.086434748  0.092488612            3 
  175000    1.2184141    -3.015939    181.58538  0.086469227  0.092481688            2 
  176000    1.2408204   -3.0483652    182.96821  0.086632675  0.092475413            1 
  177000     1.232107   -3.0172863    183.47503   0.08638184  0.092468442            7 
  178000    1.2363179   -3.0216609    184.31449  0.086289556  0.092462756            1 
  179000    1.2415067   -3.0643872    185.48931  0.086354426  0.092456851            2 
  180000     1.235242   -3.0478919    187.73182   0.08691288  0.092452999       -1e+20 
  181000    1.2348202   -3.0829349    187.97491   0.08654462  0.092452173            2 
  182000    1.2133024   -3.0359622    189.15128  0.086607729  0.092449789            2 
  183000    1.2132759   -3.0441675    191.86441   0.08736995  0.092452603            4 
  184000    1.2377373   -3.0328968    191.98551  0.086949957  0.092464871            2 
  185000    1.2146146   -3.0336453    193.97533  0.087376275  0.092476756            1 
  186000    1.2182406   -3.0669925    194.68375  0.087223902  0.092484838            5 
  187000    1.2116603   -3.0467013      195.576   0.08715508  0.092492564            2 
  188000    1.2112962   -3.0791144    197.53391  0.087559356  0.092501208            2 
  189000    1.2267053   -3.0528949    198.28713  0.087428185  0.092510378            2 
  190000    1.2313425   -3.0548422     198.8139  0.087199077  0.092522971            2 
  191000    1.2314248   -3.0733177    200.32709  0.087402744  0.092536684            1 
  192000    1.2066002   -3.0565023    200.95032  0.087218022   0.09254879            1 
  193000    1.2298191   -3.0190007    203.03462  0.087666071  0.092556703            2 
  194000    1.2064639   -3.0822073    204.25211  0.087737159  0.092565705            2 
  195000    1.2238691   -3.0645549    205.28446  0.087728399  0.092581051            2 
  196000    1.2615171   -3.0492964    206.98547  0.088004028  0.092596921            1 
  197000    1.2028478   -3.0282074    208.08899  0.088024106  0.092619321            2 
  198000    1.2144594   -3.0692276    208.97934  0.087954269  0.092636998            1 
  199000    1.2281649   -3.0340647    210.16654  0.088009438   0.09265075            1 
  200000    1.2286304   -3.0573766      210.928  0.087886666  0.092661147            2 
  201000    1.2268402   -3.0122383    213.05382  0.088330772  0.092668439            2 
  202000    1.2084006   -3.0645548    213.10765  0.087915697  0.092680803            3 
  203000    1.2072021   -3.0448729    214.60891  0.088098894  0.092685755            1 
  204000    1.2289007   -3.0803015    215.49183   0.08802771  0.092698414            1 
  205000     1.230846   -3.0501237    216.06311  0.087830532  0.092709676            2 
  206000    1.2068582   -2.9920061    217.98371  0.088181114  0.092719125            1 
  207000    1.2108259   -3.0706873     218.0506  0.087782045  0.092725676            3 
  208000    1.2095104   -3.0259545    219.10007  0.087780475  0.092733509            1 
  209000     1.187001   -3.0841567     220.6256  0.087968741  0.092737301            3 
  210000    1.1968224   -3.0618307    221.94079   0.08807174  0.092749466            2 
  211000    1.2294641   -3.0583222    224.38316  0.088618942  0.092768361            1 
  212000    1.1908631   -3.0610947    225.30158  0.088561941  0.092783121            1 
  213000      1.22485   -3.0571952    225.15454   0.08808863  0.092795109            3 
  214000    1.2228129   -3.0531735    225.99017  0.088002404  0.092802059            1 
  215000     1.221357   -3.0735473    227.07206  0.088012425  0.092810887            1 
  216000    1.2122882   -3.0153008     228.4426  0.088133718  0.092818054            1 
  217000    1.2217113   -3.0624087    230.41754  0.088485997  0.092823366            3 
  218000    1.2291986   -3.0385032    230.62554  0.088159609  0.092826199            2 
  219000    1.2174535   -3.0344009    233.57018  0.088877542  0.092833975            4 
  220000    1.2128704   -3.0379613     232.5487  0.088086627  0.092842682            1 
  221000    1.1968561   -3.0390254    234.21987  0.088318203  0.092848726            1 
  222000    1.2068773   -3.0395465    234.99651  0.088211904  0.092857673            1 
  223000    1.1787477   -3.0756383    235.97147  0.088180669   0.09286122            5 
  224000    1.2231141   -3.0426615    237.11201  0.088211313   0.09286117            2 
  225000    1.2222757   -3.0170737    239.87681  0.088843263  0.092870764            4 
  226000    1.2312235   -3.0428482    239.85483  0.088442046  0.092876645            3 
  227000    1.1929155   -3.0341524    241.94358  0.088819228  0.092884145            1 
  228000    1.2448708   -3.0408769    242.12719  0.088496781  0.092892862            2 
  229000    1.2495192   -3.0742209    242.13123    0.0881118  0.092900241            2 
  230000    1.2113748   -3.0583371     244.9689  0.088756849  0.092911596            2 
  231000    1.2236462   -3.0855456    246.27359  0.088843288  0.092930711            1 
  232000    1.2043929   -3.0506549    247.67143  0.088962438  0.092947171            1 
  233000    1.2285214   -3.0172248    248.70903  0.088951728  0.092965359            1 
  234000    1.1974811   -3.0495953     250.6796  0.089273361  0.092983303            2 
  235000    1.1965783   -3.0589318    250.83494   0.08894856   0.09299436            3 
  236000    1.2237866   -3.0491055    252.51295  0.089164179  0.093008757            2 
  237000    1.2459408   -3.0508486     253.1112  0.088998312  0.093021571            2 
  238000    1.2208294   -3.0592773    252.53813  0.088423714  0.093032424            3 
  239000    1.2215204   -3.0501534      255.632  0.089132497  0.093043047            2 
  240000    1.2271878   -3.0627156    254.88641  0.088502225  0.093050578            1 
  241000    1.2188871   -3.0551462     256.5658  0.088715697  0.093058122            5 
  242000    1.2228217    -3.043317    258.05081  0.088860471  0.093066579            5 
  243000     1.229914   -3.0826839    259.34937  0.088940112  0.093074103            2 
  244000    1.2171254   -3.0545512    261.21013  0.089211111  0.093085199            2 
  245000    1.1916504   -3.0565529    261.50886  0.088948593  0.093089352            3 
  246000    1.1860897   -3.0772031    261.84572  0.088701125  0.093095698            2 
  247000    1.2340218   -3.0184498    264.93339  0.089383733  0.093103635            3 
  248000     1.222868   -3.0851434    263.87654  0.088668193  0.093108225            1 
  249000    1.2284253   -3.0329071    266.36076  0.089143494  0.093115091            3 
  250000    1.2167381   -3.0749102    266.29299   0.08876433  0.093119244            1 
  251000    1.2089744   -3.0774411    268.07316  0.089001713  0.093117619            1 
  252000    1.2196459   -3.0714903     267.8611  0.088578407   0.09311495            1 
  253000    1.2119635   -3.0507867    268.89562  0.088569043  0.093109037            1 
  254000    1.1929435   -3.0463709    269.89071  0.088546822  0.093097152            1 
  255000    1.2616292   -3.1036744    269.46728  0.088061202  0.093087781            2 
  256000    1.1765304   -3.0424945    272.84839  0.088817834  0.093082954            1 
  257000    1.2107321   -3.0690982     272.6199  0.088398152  0.093074422            2 
  258000    1.2272544   -3.0440208     273.9226  0.088476293   0.09306927            1 
  259000    1.2198706      -3.1165    274.61287  0.088356778  0.093059007            2 
  260000    1.2159966   -3.0563384    276.20692  0.088527859  0.093050945            2 
  261000    1.2031918   -3.0545413     277.3644  0.088558237  0.093038819            3 
  262000    1.2144346   -3.0504255    278.79359  0.088674806  0.093027304            2 
  263000     1.232147   -3.0495787    280.78313  0.088968039  0.093018618            1 
  264000    1.2157182   -3.0700416    280.76039  0.088623862  0.093008223            1 
  265000    1.2272236   -3.0880986    281.11886  0.088402158  0.092999746            1 
  266000    1.1693401   -3.0811933    282.50301  0.088503449  0.092987271            2 
  267000     1.227103   -3.0102997    285.17385  0.089005571  0.092979388            1 
  268000    1.1942914   -3.0712545    285.50279  0.088775744  0.092971359            3 
  269000    1.1763433   -3.0947851    285.64905  0.088491031  0.092957601            2 
  270000     1.225052   -3.0699155    286.91661  0.088554509  0.092945367            2 
  271000    1.2171766    -3.040031    288.50937  0.088717519   0.09293597            4 
  272000    1.2325531   -3.0727578    289.16864  0.088593333  0.092922334            3 
  273000    1.2107541   -3.0786208    291.37418  0.088942057   0.09291304            1 
  274000    1.2242692   -3.0509635    292.54071  0.088972235  0.092904496            3 
  275000    1.2117746   -3.0825878    291.74513  0.088407614  0.092895196            2 
  276000    1.2166147     -3.03252    293.22132  0.088533006  0.092886488            1 
  277000    1.2023973   -3.0278341      295.291  0.088836042  0.092875721            1 
  278000    1.2131651   -3.0564669    295.30006  0.088519202  0.092861142            3 
  279000    1.1937726   -3.0742058     297.2119  0.088772968   0.09284834            1 
  280000    1.2119674   -3.0656151    297.18973  0.088449324   0.09283433            1 
  281000    1.1913785   -3.0329446    300.20892  0.089029928  0.092822322            2 
  282000    1.1984959   -3.0607214    299.98717   0.08864869  0.092812167            2 
  283000    1.2138803    -3.061423    300.38847  0.088453613  0.092798209            1 
  284000    1.2207246   -3.0584741    302.27008  0.088694271   0.09278503            2 
  285000    1.2491388    -3.066814    300.86962  0.087973573  0.092776211            2 
  286000    1.2063187   -3.0752116    303.39696  0.088402376  0.092764137            2 
  287000    1.1932425   -3.0355549    305.69391  0.088761299  0.092754723            2 
  288000    1.2146205   -3.0500592    306.65704  0.088731782  0.092741881            1 
  289000    1.1984822   -3.0833618    307.31316  0.088613944  0.092730122            1 
  290000    1.2008138   -3.0686796    306.88917  0.088186542  0.092716531            5 
  291000    1.1866134   -3.0408953    308.85576  0.088446665  0.092698302            2 
  292000    1.2319199   -3.0698444    309.67468  0.088377476  0.092681915            3 
  293000    1.2006901   -3.0621764    309.61607  0.088059178  0.092658824            3 
  294000    1.2041663   -3.0818093    311.48114  0.088288305  0.092635854            1 
  295000    1.2289131    -3.029132    312.37358  0.088241124  0.092614398            2 
  296000    1.2028978   -3.0560873    313.84318  0.088356751  0.092589908            1 
  297000     1.210518   -3.0847739    313.37116  0.087926812  0.092564032            2 
  298000    1.1926388   -3.0665911    315.33713  0.088181523  0.092538834            1 
  299000     1.190493   -3.0732972    314.99331  0.087790779  0.092512954            2 
  300000    1.1943203   -3.0677738    315.28343  0.087578732  0.092487042            2 
  301000    1.2055813   -3.0437926    317.47505  0.087894533  0.092459217            1 
  302000    1.1943354   -3.0728462    318.42372  0.087865266  0.092430249            1 
  303000    1.2002377   -3.0953996    318.46368  0.087586272  0.092403164            1 
  304000    1.2022601   -3.0467802    319.92411  0.087698495  0.092375082            2 
  305000    1.2264775   -3.0231189     321.3087  0.087789263  0.092350163            1 
  306000    1.2528706   -3.0869517    323.03733  0.087973129   0.09232882            5 
  307000    1.1779511    -3.064456    324.91161  0.088195334  0.092306721            1 
  308000    1.1861069   -3.0608734    325.86549   0.08816707  0.092289708            1 
  309000    1.2037495   -3.0660012    327.63449  0.088358815  0.092275638            2 
  310000    1.1952802   -3.0525358    330.38017  0.088811873  0.092264697            1 
  311000    1.1940962   -3.0842468     329.6526   0.08833135  0.092251594            1 
  312000    1.2021118    -3.061615     329.9058  0.088115865  0.092238831            4 
  313000    1.1635916   -3.0302593    333.52558  0.088798076  0.092224608            2 
  314000    1.1888649   -3.0831677    334.80152  0.088853907  0.092210847            2 
  315000    1.2022646   -3.0580159    334.58127  0.088513562  0.092198172            3 
  316000    1.1794577   -3.0723176    335.93852  0.088591381  0.092181795            1 
  317000    1.1811931   -3.0754945    336.93829  0.088574735   0.09216881            1 
  318000    1.2206206   -3.0816346    338.69285  0.088755989  0.092154828            1 
  319000     1.189689   -3.0944542     338.5636   0.08844399  0.092144024            2 
  320000    1.1974414   -3.0638371    339.77948   0.08848424  0.092133146            2 
  321000    1.1740574   -3.0798923    339.07595  0.088025948  0.092118268            1 
  322000    1.2019523   -3.0657405    342.72369  0.088696608  0.092100978            1 
  323000    1.2546845   -3.0616654    342.04505  0.088246918  0.092084576            1 
  324000    1.1623956   -3.0650457    342.53251  0.088099925  0.092068591            1 
  325000     1.184081   -3.0735118    342.99363  0.087947084  0.092049403            1 
  326000    1.2287552   -3.1263407    343.72343  0.087863863  0.092027455            1 
  327000    1.2104198   -3.0627197    346.07753  0.088195089  0.092007843            2 
  328000    1.1746849   -3.0547322    347.39378  0.088260615   0.09199172            2 
  329000    1.2021572   -3.0802114    346.66878  0.087808708  0.091971048            1 
  330000    1.2272616   -3.0827415     347.3141  0.087705579  0.091949815            3 
  331000    1.1987488   -3.0870995    349.83968  0.088076455  0.091930624            3 
  332000    1.2141395   -3.0783457    351.84222  0.088313811  0.091909258            3 
  333000     1.180779   -3.0461553    352.02781  0.088095047  0.091891424            1 
  334000    1.2087491   -3.0380158    353.68439  0.088244609  0.091872854            1 
  335000    1.1872404   -3.0675772    352.62184  0.087716875  0.091851373            2 
  336000    1.2058764    -3.075825    352.12838  0.087333427  0.091826894            2 
  337000    1.2082087   -3.0886399    353.39841  0.087388331  0.091799169            2 
  338000    1.2027286   -3.0471558    355.53666  0.087656968  0.091774672            1 
  339000    1.1988093   -3.0835835    357.08546   0.08777912   0.09174867            2 
  340000    1.2042253   -3.0482438    358.05251  0.087757969  0.091724812            2 
  341000    1.2068792   -3.0840167    357.45782  0.087355284   0.09170147            1 
  342000    1.1722941   -3.0756593    360.69323  0.087888214  0.091681287            1 
  343000    1.1990376   -3.0870871    360.97276  0.087699893  0.091659472            1 
  344000    1.2074824   -3.0833025    363.21059  0.087987061  0.091635666            3 
  345000    1.1672863   -3.0739938    364.05914  0.087936991  0.091612494            3 
  346000    1.1874936   -3.1080592      364.774  0.087855011  0.091589766            2 
  347000    1.2007805   -3.0825384    366.34698  0.087979583   0.09157169            2 
  348000     1.201329   -3.0985886    369.12818  0.088392764  0.091555366            2 
  349000    1.1844133    -3.086229    369.68385  0.088272171  0.091537085            3 
  350000    1.2319942   -3.0577027     371.8449  0.088534501  0.091521086            1 
  351000    1.1708666   -3.0981504    370.53332  0.087970873  0.091508083            2 
  352000    1.2108608   -3.0888095    371.71699  0.088001182  0.091493693            1 
  353000    1.1764419   -3.0993601     375.0048  0.088528046  0.091479553            2 
  354000    1.2042713   -3.0749707    375.31306  0.088350532  0.091467546            2 
  355000    1.2137884   -3.0820996    374.68532    0.0879543  0.091456697            4 
  356000    1.2069835   -3.0935181    377.25548  0.088308867  0.091443532            1 
  357000    1.1604704   -3.0699977    376.65863  0.087922182   0.09143058            2 
  358000    1.2027684   -3.0690426    380.99159  0.088685193  0.091419602            1 
  359000    1.1757113   -3.0776053    380.73987  0.088379728  0.091407388            3 
  360000    1.2202629   -3.0526982    381.51137  0.088312818  0.091395857            1 
  361000    1.1924024   -3.0702017    381.55207  0.088077578  0.091381513            2 
  362000    1.2056903   -3.0694919    381.99207  0.087935559  0.091366647            4 
  363000    1.1917137   -3.0807605    383.64209  0.088072106  0.091351021            1 
  364000    1.1858512   -3.0833038    385.38843  0.088229951  0.091334542            2 
  365000     1.184379   -3.0592521    386.76772  0.088303132  0.091319274            1 
  366000    1.2028801   -3.0901501    387.59241  0.088249637  0.091305936            1 
  367000    1.2112553   -3.0895042     387.0401  0.087883765   0.09129086            3 
  368000    1.2398257   -3.0936332    389.06557  0.088103616  0.091275792            2 
  369000    1.1838057   -3.0549789     390.7679  0.088249301   0.09126428            1 
  370000     1.166562   -3.0647503    392.37504  0.088372757  0.091249812            2 
  371000    1.1921519   -3.0720778    394.37189  0.088583083  0.091236211            2 
  372000    1.2019553   -3.0809047    393.47978  0.088145112  0.091222329            1 
  373000    1.1846174   -3.0933557     395.1184  0.088274889  0.091207691            1 
  374000    1.1838027   -3.0956348    394.00414  0.087790583  0.091194142            1 
  375000     1.181377   -3.0860092    395.84068  0.087964596  0.091177992            3 
  376000    1.1816973   -3.0834314      398.468  0.088312944  0.091161307            6 
  377000    1.1955074   -3.0664135    398.92401  0.088179489  0.091146758            4 
  378000    1.1900599   -3.0960617    399.47604  0.088067909  0.091130371            3 
  379000    1.1950696   -3.1139911    399.01286  0.087733698  0.091116917            3 
  380000     1.164545   -3.0811384    402.52725  0.088273519  0.091101851            1 
  381000    1.2131088   -3.0950344    401.44106  0.087804257  0.091084944            1 
  382000    1.1869552   -3.0809659    404.47585  0.088236442  0.091068673            2 
  383000    1.1974481   -3.0994616    402.89622  0.087662364  0.091052345            1 
  384000    1.1961972   -3.0911871    405.12393   0.08791752  0.091035001            1 
  385000    1.1654538   -3.0916314    405.45997  0.087761898  0.091019181            1 
  386000    1.1588157   -3.0950151    406.56496  0.087773092  0.091001761            1 
  387000    1.2037853   -3.1184864    406.52243  0.087537129  0.090983928            3 
  388000    1.2128091   -3.0777341     407.9596  0.087620189  0.090966187            4 
  389000    1.1895472   -3.0754058    410.29257  0.087894725  0.090949917            2 
  390000    1.1914081   -3.0666442    411.14132  0.087850709  0.090934548            4 
  391000    1.1968368   -3.0802401    411.83776  0.087774459  0.090919607            1 
  392000    1.1899966    -3.102922    413.34832  0.087871667  0.090904399            1 
  393000    1.1748579   -3.0302651    413.71235  0.087725266  0.090884685            1 
  394000    1.2095456   -3.0809941    414.49289  0.087667701   0.09086722            1 
  395000    1.1818415   -3.0729841    415.96339  0.087755989   0.09084997            2 
  396000    1.1701625   -3.1004869    415.74409  0.087488234   0.09083091            1 
  397000    1.1714077   -3.0975353    415.98647  0.087318739  0.090808669            3 
  398000    1.2067145   -3.0470529    417.48377  0.087412849  0.090784329            1 
  399000    1.1995753    -3.073925    418.74758  0.087457723  0.090764488            2 
  400000    1.1751267   -3.1010342    418.66406   0.08722168   0.09074281            1 
  401000    1.1761311   -3.0665725    420.80029  0.087448106  0.090720811            1 
  402000     1.184492   -3.0760886    422.00919  0.087481176   0.09070041            1 
  403000    1.1876221   -3.0776419    423.63685  0.087600673  0.090682088            1 
  404000    1.2032978   -3.0626029    424.64588  0.087591972  0.090665068            2 
  405000    1.1869378   -3.0514556    425.79711  0.087612574  0.090651568            3 
  406000    1.1967605   -3.0835455    428.53901  0.087959566  0.090634304            1 
  407000    1.1887775   -3.0572966    428.92292  0.087822056  0.090619086            2 
  408000    1.1945977   -3.1090202    429.38725  0.087701644  0.090603009            2 
  409000    1.1675134   -3.0780709    430.12319  0.087637161  0.090587768            3 
  410000    1.1784744   -3.0772765    432.12622  0.087830532  0.090571538            1 
  411000    1.1873213    -3.095867    431.70489  0.087531404   0.09055563            2 
  412000    1.1882511   -3.1022438     433.0236  0.087585679  0.090537886            3 
  413000    1.1760404   -3.0965545    431.89462  0.087145807  0.090522094            2 
  414000    1.1904349   -3.0709069    435.16019  0.087592631  0.090505073            1 
  415000    1.1836514   -3.0864575    435.58635  0.087467139   0.09048909            2 
  416000    1.1891908   -3.1153884    435.92692  0.087325104  0.090473615            2 
  417000    1.1896179   -3.0639884    439.18833  0.087767452  0.090458855            3 
  418000    1.1691875   -3.1101501     438.0748  0.087335487  0.090444707            3 
  419000    1.1663091   -3.0726457    441.04083   0.08771695  0.090428863            1 
  420000    1.1834061   -3.0725961    440.33714   0.08736848  0.090412343            2 
  421000     1.167896   -3.1075197    441.79871  0.087450258  0.090394658            2 
  422000    1.1769422   -3.0836398    444.95437  0.087866187  0.090378179            3 
  423000    1.1888573   -3.1164925    442.72135  0.087218548  0.090360988            2 
  424000    1.1925436    -3.084899    445.25222  0.087510264  0.090344992            1 
  425000    1.1650672   -3.1161791     445.2145  0.087296961  0.090330588            4 
  426000    1.1861739   -3.1087842    446.66915  0.087376595  0.090315174            3 
  427000    1.1876978   -3.0741486     449.2207  0.087669926  0.090299745            1 
  428000    1.2059449   -3.0682926    452.30012  0.088064664  0.090288286            2 
  429000    1.1918282   -3.1130189     449.4456  0.087304895  0.090275304            4 
  430000    1.1849923     -3.09493    453.25411  0.087839944  0.090262498            3 
  431000     1.160621   -3.0741137     455.1082  0.087994625  0.090249367            1 
  432000    1.1832096   -3.1298443    453.79738  0.087538075  0.090235524            2 
  433000    1.1822839   -3.1121165    456.21459  0.087801115  0.090222162            4 
  434000    1.2140581   -3.0880246    457.33943   0.08781479  0.090209621            2 
  435000    1.1971344   -3.0844752    458.98404  0.087927976  0.090201707            2 
  436000     1.179486   -3.0725584    459.50129   0.08782517  0.090187658            2 
  437000     1.158759   -3.0804899    458.16152   0.08736871  0.090173705            1 
  438000    1.1884855    -3.122555    460.00926  0.087520788  0.090158771            4 
  439000    1.1651743   -3.1107453    461.52308  0.087608785  0.090145324            2 
  440000    1.1962772   -3.0960924    464.72653  0.088016387  0.090132429            2 
  441000    1.1616777   -3.1008992    461.98166  0.087298122  0.090120455            2 
  442000    1.1617234   -3.0889939     466.3325  0.087920908  0.090111634            3 
  443000    1.1868904   -3.0892479    466.61929   0.08777639  0.090100955            1 
  444000    1.1671176   -3.0751007    469.59175   0.08813659  0.090090337            1 
  445000    1.1914229   -3.0688173    469.69147  0.087957204  0.090079008            2 
  446000    1.1699347   -3.0862351    471.18733  0.088039487  0.090070462            1 
  447000    1.2028481   -3.1033519     470.6778  0.087747539  0.090057273            2 
  448000    1.1782008   -3.0744491    473.21386  0.088023411  0.090046847            2 
  449000    1.1819407   -3.1107837    473.07493  0.087801582  0.090036773            3 
  450000    1.1774953   -3.0851098    473.97196  0.087772586  0.090027596            2 
  451000    1.1866667   -3.0949761    476.38865   0.08802451  0.090016695            3 
  452000    1.1626817   -3.1153315    475.71241   0.08770509  0.090004485            1 
  453000    1.1668226   -3.1082321    475.89638  0.087545324   0.08999466            2 
  454000    1.1715145   -3.0965877     477.4894  0.087644898  0.089982342            2 
  455000    1.2084019    -3.101238    479.96191  0.087905113  0.089972439            4 
  456000    1.1781192   -3.0717085     481.8513  0.088057621  0.089962681            1 
  457000    1.1708296   -3.0826004    479.72293  0.087476828  0.089952507            4 
  458000    1.1634592   -3.0901888    481.12715  0.087541331  0.089943135            5 
  459000    1.1832917   -3.0840468    484.57943  0.087977384  0.089933083            1 
  460000    1.1505967   -3.0804349    485.20398  0.087899271  0.089921172            1 
  461000    1.1917813   -3.1090116    483.23206  0.087352143  0.089909164            1 
  462000    1.1797001   -3.0848379    486.38322  0.087731461  0.089898713            1 
  463000    1.1997194   -3.1152571    485.19117  0.087327425  0.089884988            2 
  464000    1.1638276   -3.0937649    486.60696  0.087393492  0.089870895            2 
  465000     1.167922   -3.0816949    488.24935  0.087499883  0.089858163            1 
  466000    1.1546526   -3.0704572    490.50069  0.087714715  0.089846585            3 
  467000    1.2016564   -3.0673547    492.50513   0.08788457  0.089833646            2 
  468000    1.1692589   -3.1212556    490.53398  0.087345794  0.089822926            3 
  469000    1.2015168   -3.0891893    492.27301  0.087468552  0.089807995            1 
  470000    1.1948668   -3.0997583    492.47256  0.087317829  0.089795747            3 
  471000    1.1668905   -3.1287407    491.30471  0.086925815   0.08978199            2 
  472000    1.1927121   -3.1004487    493.07073  0.087053448  0.089764708            3 
  473000    1.1925539   -3.0949062    492.76628  0.086815764  0.089746632            1 
  474000    1.1713215   -3.0984565    494.40473  0.086920662  0.089728769            5 
  475000    1.1624471   -3.0858683    496.84763  0.087166251  0.089712573            2 
  476000    1.1978747   -3.0925667    498.05118  0.087193834  0.089695717            2 
  477000    1.1766636   -3.0969007    500.68992  0.087472034  0.089679676            1 
  478000    1.1793308   -3.0914719    498.78262  0.086956524  0.089664101            4 
  479000    1.1717158   -3.0884456    499.99369   0.08698568  0.089647587            2 
  480000    1.1819189   -3.1454282    500.37545  0.086870738  0.089631727            2 
  481000    1.1485102    -3.113736    503.55232  0.087240527  0.089615027            1 
  482000    1.1475931   -3.1398722    504.07343  0.087149625  0.089599609            2 
  483000    1.1680508    -3.075068    506.13339  0.087324601  0.089584118            2 
  484000     1.163382   -3.0950292    507.02571  0.087297815  0.089569164            2 
  485000    1.1542004    -3.097756    508.15976  0.087312673  0.089555442            1 
  486000    1.1908731   -3.0937229    508.78189  0.087239693  0.089542127            1 
  487000    1.1594235   -3.0766451    513.68573   0.08789968  0.089529714            3 
  488000    1.1839698   -3.0991762    510.64491  0.087200292  0.089519395            1 
  489000    1.1746731   -3.1079702    513.22319  0.087461348    0.0895081            4 
  490000    1.1693025   -3.1082573    515.33891  0.087642672  0.089498038            1 
  491000    1.1617835   -3.1177554    515.86843  0.087554044  0.089488641            1 
  492000    1.1710126    -3.115174    515.94921  0.087389771   0.08947712            3 
  493000    1.1503975   -3.1035084     516.5101  0.087307319  0.089466376            2 
  494000    1.1824997   -3.0721152    518.21143  0.087417582   0.08945577            1 
  495000    1.1757225    -3.107314    519.04974  0.087382111  0.089444586            1 
  496000    1.1926778   -3.1095823    518.81294  0.087166153  0.089432668            4 
  497000    1.1769871   -3.1169589    519.07429  0.087034589  0.089420157            3 
  498000    1.1900594    -3.076164    520.89769  0.087164941  0.089405459            1 
  499000    1.1920658   -3.1035414    522.33361  0.087230062  0.089391889            1 
  500000    1.1998763   -3.1117661    522.66603  0.087111005  0.089377831            2 
  501000    1.1570281    -3.125672    524.19399  0.087191283  0.089363886            2 
  502000    1.1620669   -3.0788253    526.69568  0.087432881  0.089348957            1 
  503000    1.1494078   -3.1426343    522.97176  0.086642107  0.089334351            4 
  504000    1.1581311    -3.107419    526.96598  0.087130618  0.089320771            2 
  505000    1.1618645    -3.125887    528.06569  0.087139552  0.089307118            1 
  506000    1.1632007   -3.1173711    529.86905  0.087264337  0.089294953            4 
  507000     1.161081   -3.1314987    530.95629  0.087270922  0.089281682            5 
  508000    1.2034685   -3.1091532    532.03303  0.087275759  0.089271402            2 
  509000    1.1691695    -3.113311    534.02247  0.087430005  0.089260783            2 
  510000    1.1787441   -3.0637053    534.70578  0.087370225  0.089251125            2 
  511000    1.1587754   -3.1050168    536.91512  0.087559544  0.089244184            2 
  512000    1.1624987   -3.1218599    538.64404  0.087669929  0.089235205            5 
  513000    1.2021108   -3.1086942    537.34921  0.087288696  0.089227324            1 
  514000    1.1621009   -3.1226169    537.68824  0.087173839  0.089220605            2 
  515000    1.1900882   -3.1346322    539.99833   0.08737837  0.089213076            1 
  516000     1.181113   -3.1080263    541.59921  0.087467573  0.089206836            1 
  517000    1.1391825   -3.0882934    544.61483  0.087784466  0.089200455            1 
  518000    1.1540015    -3.068403    544.81837  0.087647742   0.08919583            2 
  519000     1.182281   -3.1036135    545.69418   0.08761949  0.089189774            3 
  520000    1.1631561   -3.1110736    546.19684  0.087531545  0.089182585            2 
  521000    1.1808395    -3.087797    547.40012  0.087556002  0.089176372            3 
  522000    1.1700797   -3.0933531    548.07794  0.087496478  0.089167938            1 
  523000     1.156294   -3.0971001    548.84512  0.087451422  0.089161547            1 
  524000    1.1481741   -3.0541837    552.50499   0.08786657  0.089154935            2 
  525000     1.179461   -3.1034622    552.60222  0.087714638  0.089148893            2 
  526000    1.1740183   -3.1286902    552.29761  0.087499622  0.089142543            1 
  527000     1.172592   -3.1068496    555.70795  0.087872857  0.089134846            1 
  528000     1.149364   -3.1057205    553.14084  0.087301268  0.089126875            1 
  529000    1.1463381   -3.0784004    556.91232  0.087730359  0.089118921            1 
  530000     1.185292   -3.0854062    559.23528  0.087930076  0.089114838            1 
  531000    1.1619863   -3.0933043    557.90289  0.087555382  0.089108276            2 
  532000     1.171876   -3.0962654    560.15582  0.087743706  0.089101486            2 
  533000    1.1878591   -3.1217297    557.18168  0.087114083  0.089093442            1 
  534000     1.185776   -3.1168011    560.55638  0.087477588  0.089086205            2 
  535000    1.1698948   -3.0945966    564.87178  0.087986258  0.089081133            2 
  536000    1.1691938    -3.118122    563.08863  0.087544874  0.089076336            6 
  537000    1.1634926    -3.120657    566.73829  0.087948214  0.089071356            2 
  538000    1.1582055   -3.0945634    570.41006  0.088353479  0.089066471            2 
  539000    1.1595487   -3.1414114    564.40916  0.087261775  0.089061767            2 
  540000    1.1394063   -3.1189005    568.47712  0.087727951   0.08905607            1 
  541000    1.1643626   -3.1127027    569.74236  0.087760683  0.089051277            1 
  542000    1.1526675   -3.1408871    569.27923  0.087527557   0.08904701            1 
  543000    1.1421976   -3.1412048    569.90959  0.087463105  0.089040904            7 
  544000    1.1699941   -3.1094673    571.15815   0.08749359  0.089037228            2 
  545000    1.1773011   -3.1273178    573.59242  0.087705263  0.089033063            1 
  546000    1.1565777   -3.0981728    576.65163  0.088011543  0.089028777            3 
  547000    1.1455628   -3.1161842    572.88336  0.087276563  0.089023636            2 
  548000    1.1648551   -3.1182686    574.43776  0.087353675  0.089017096            1 
  549000    1.1571572   -3.0798755    579.45551   0.08795621  0.089012128            1 
  550000    1.1688033   -3.1109233    575.71919   0.08723018  0.089005547            1 
  551000    1.1797558   -3.1183174    578.48393  0.087490007  0.088999081            2 
  552000    1.1709891     -3.09379    581.44629  0.087778728  0.088992006            3 
  553000    1.1449134   -3.1093363    578.74282    0.0872126  0.088985946            2 
  554000    1.1822852   -3.1210318     581.1339  0.087414846  0.088978069            1 
  555000    1.1319268   -3.1312586    583.00109  0.087537701  0.088970693            4 
  556000    1.1748819   -3.1226888    585.02991  0.087684338  0.088966084            3 
  557000    1.1478908   -3.1157561    585.84919  0.087649489   0.08896097            1 
  558000    1.1729903   -3.1488718    585.50906  0.087441616  0.088954937            2 
  559000    1.1862474   -3.1305697    587.13873  0.087528136  0.088948561            1 
  560000    1.1549803   -3.1356518    585.35609  0.087106562  0.088942819            3 
  561000    1.1602038   -3.1308476    591.02842  0.087793882  0.088937533            2 
  562000    1.1605165   -3.1124941    589.90442  0.087470999  0.088931919            2 
  563000    1.1760689   -3.1464954    589.57017  0.087266158  0.088924875            3 
  564000    1.1833141   -3.1210541    590.45593  0.087242306   0.08891634            2 
  565000    1.1330357   -3.0846184    597.99649  0.088200073  0.088909123            6 
  566000    1.1448911   -3.1148494    596.15489  0.087773099  0.088902622            1 
  567000     1.169729   -3.1148475    596.19294  0.087623888  0.088897294            2 
  568000    1.1577588   -3.1158456    597.75085  0.087698188   0.08889187            1 
  569000    1.1467879   -3.1194469    598.47125  0.087649567  0.088887318            2 
  570000    1.1545296   -3.1071977    597.72073  0.087386072  0.088881928            2 
  571000    1.1578286   -3.1167643    599.65215  0.087514909  0.088879051            4 
  572000    1.1575177   -3.1053154    604.04044   0.08800123  0.088874744            1 
  573000    1.1431748    -3.100259    605.43072  0.088049842  0.088870883            2 
  574000    1.1839036   -3.1363622     606.8143  0.088097314   0.08886687            2 
  575000    1.1538616   -3.1041829    605.83551  0.087802247  0.088862813            2 
  576000    1.1546149   -3.1018803    605.28859  0.087570688  0.088858796            2 
  577000    1.1531702   -3.1433039    606.15487  0.087544031  0.088853903            4 
  578000     1.141643   -3.0996131    610.32049   0.08799315  0.088847151            3 
  579000    1.1372052   -3.0804429    610.10558  0.087810245  0.088841939            2 
  580000    1.1784098    -3.123278    609.31398  0.087545112   0.08883636            4 
  581000    1.1659769   -3.1321757    609.69369  0.087448894  0.088829983            1 
  582000    1.1656889   -3.1731137    606.67974  0.086867087  0.088823335            2 
  583000    1.1609397   -3.1168607    612.97618  0.087618094  0.088816966            4 
  584000    1.1324456   -3.1162925    613.96569  0.087609259  0.088812834            3 
  585000    1.1601481    -3.116704    617.24955  0.087927286   0.08880748            2 
  586000    1.1665421   -3.1194263    614.73941  0.087420281  0.088801711            1 
  587000    1.1647398   -3.1190186    617.57098  0.087673336  0.088795274            1 
  588000    1.1534289   -3.1199071    616.96032  0.087437687  0.088790275            4 
  589000    1.1441206   -3.1333152    618.94699  0.087570316  0.088786723            2 
  590000    1.1923462   -3.1220276    620.23539  0.087603869  0.088782732            2 
  591000    1.1243277   -3.1275951    620.22792  0.087454585  0.088779139            1 
  592000    1.1684227   -3.1306298     623.9658  0.087833023  0.088774859            2 
  593000    1.1776032   -3.0975985    624.38566  0.087743909  0.088770886            3 
  594000     1.136765   -3.1577049    622.20669  0.087290501  0.088767879            1 
  595000    1.1678086   -3.1529353    626.03839  0.087680447  0.088762685            2 
  596000    1.1701737   -3.0880118    628.80769  0.087920538  0.088757691            1 
  597000    1.1473533   -3.1300263    628.51629  0.087732592  0.088752922            1 
  598000    1.1862298   -3.1348001    625.30615  0.087138538  0.088747021            1 
  599000    1.1363587   -3.1294379     631.2232  0.087816249  0.088740963            2 
  600000    1.1326375   -3.1211572    630.30948  0.087542984  0.088734329            1 
  601000    1.1641499   -3.1021974    631.97781  0.087628648  0.088727501            2 
  602000    1.1678347   -3.1259157    630.34492  0.087257048   0.08872047            2 
  603000    1.1504714   -3.1473639    632.87179  0.087461551  0.088713443            5 
  604000    1.1564805   -3.1123735    632.07563  0.087206902  0.088706533            3 
  605000    1.1468992   -3.1423715    632.39432  0.087106655   0.08869844            3 
  606000    1.1399728   -3.1228993    633.76581  0.087151514  0.088689997            3 
  607000    1.1731174    -3.098872    638.06898  0.087598707  0.088683373            2 
  608000    1.1696874   -3.1454578    633.79062  0.086868232  0.088676225            2 
  609000    1.1707276   -3.1403361    640.94968  0.087705211  0.088669512            2 
  610000    1.1474893   -3.1468178    637.75603  0.087125141  0.088660911            4 
  611000    1.1687241   -3.1183248    639.87523  0.087271581   0.08865376            2 
  612000    1.1597259   -3.0902217    643.19041  0.087580394  0.088647112            2 
  613000    1.1457939   -3.1279527    640.66754  0.087094554   0.08864154            1 
  614000    1.1417899   -3.1678748    639.52632  0.086797818  0.088633772            1 
  615000    1.1456849   -3.1483193    642.09053  0.087004137  0.088624799            4 
  616000    1.1634795   -3.1285476    644.86886  0.087238752  0.088617416            1 
  617000    1.1496344   -3.1102816    646.54967  0.087324374  0.088611236            2 
  618000    1.1828039   -3.1188342    649.81004  0.087622713  0.088603625            2 
  619000    1.1529771   -3.1494277    646.88139  0.087086886  0.088597559            1 
  620000    1.1598309   -3.1234714    651.11324   0.08751522  0.088591917            1 
  621000    1.1812711   -3.1422626    652.35681  0.087541172  0.088586752            2 
  622000     1.165795   -3.1464352     654.2013  0.087647548  0.088581017            2 
  623000    1.1584835    -3.140747    652.99077  0.087344939   0.08857612            2 
  624000     1.174126   -3.1467342    653.05785  0.087213922  0.088570269            1 
  625000    1.1594193   -3.0976723    657.84971  0.087713295  0.088565585            2 
  626000    1.1579035   -3.1215135    653.67951  0.087018039  0.088560589            4 
  627000    1.1677565   -3.1024015    659.90956  0.087707278  0.088555562            2 
  628000    1.1653168   -3.1378857     656.5575  0.087122811  0.088550004            3 
  629000    1.1073147   -3.1263541    659.08948   0.08731975  0.088544089            2 
  630000    1.1697806   -3.1315855     660.4194  0.087357064   0.08853859            1 
  631000    1.1441886   -3.1166007    662.21086  0.087455212  0.088532987            2 
  632000    1.1794171   -3.1144064    660.47369  0.087087775  0.088527632            3 
  633000    1.1445215   -3.1470467    662.47751  0.087213996  0.088522851            2 
  634000    1.1481638   -3.1333339     664.0515   0.08728332  0.088517963            3 
  635000    1.1502118   -3.1489849    667.22691  0.087562587  0.088512718            2 
  636000    1.1234989   -3.1390643    666.56009  0.087337538  0.088508669            3 
  637000    1.1484068   -3.1394914    670.68217  0.087739687  0.088505272       -1e+20 
  638000    1.1706728   -3.1272057    669.82449  0.087490137  0.088502396            3 
  639000    1.1554878   -3.1233581     672.9948  0.087766666  0.088499175            3 
  640000    1.1861013   -3.1376135     673.9228  0.087750365  0.088496842            3 
  641000    1.1461906    -3.146243    672.03361  0.087367863  0.088493668            3 
  642000    1.1602312   -3.1766405    671.56809  0.087171352  0.088489867            1 
  643000    1.1387893   -3.1361663    678.16148   0.08789029   0.08848493            3 
  644000      1.14554   -3.1504617     676.4388  0.087530901  0.088480832            3 
  645000    1.1605081   -3.1488896    674.16674  0.087101646  0.088475835            1 
  646000    1.1464112   -3.1062894    676.83961  0.087311611  0.088471278            1 
  647000    1.1315973   -3.1113852    677.53484  0.087266208  0.088466027            1 
  648000    1.1582147   -3.1365196    677.69451  0.087152071  0.088459687            1 
  649000     1.146165   -3.1424257    679.12893  0.087201968  0.088453052            2 
  650000    1.1618258   -3.1261232    680.25796  0.087212559  0.088446844            1 
  651000    1.1554267   -3.1202727    682.14174  0.087319731  0.088441384            2 
  652000    1.1551851   -3.1194155    680.82137  0.087017046  0.088434838            3 
  653000    1.1600379     -3.11475    687.50479  0.087736701  0.088429071            3 
  654000    1.1342882   -3.1214815    681.40406  0.086825186  0.088421793            1 
  655000    1.1331984   -3.1161989    684.47626  0.087083494  0.088414212            1 
  656000    1.1456328   -3.1331224    686.90202  0.087258895  0.088408443            1 
  657000    1.1400158   -3.1060569    687.25503  0.087170856  0.088402164            2 
  658000    1.1357749   -3.1085277    691.83585  0.087618522  0.088396878            2 
  659000    1.1645354   -3.1261695    690.02594  0.087256694  0.088392105            1 
  660000    1.1447467    -3.123965    691.16927  0.087268847  0.088385955            4 
  661000    1.1369237   -3.1584656    691.06682  0.087123906  0.088379432            2 
  662000    1.1488223   -3.1540024    692.31139  0.087148967  0.088372633            2 
  663000    1.1507782   -3.1205239    692.49004  0.087039975  0.088366239            2 
  664000    1.1525778   -3.1367462    692.35366  0.086891774  0.088360166            4 
  665000    1.1258039   -3.0825296    698.41678  0.087520899  0.088353928            1 
  666000    1.1520563    -3.157836    696.16078  0.087107205  0.088348441            4 
  667000    1.1567388   -3.1374279     696.9654  0.087077136  0.088342416            1 
  668000    1.1652955   -3.1488129     697.4591  0.087008371  0.088336779            2 
  669000    1.1621035   -3.1129386    703.89366  0.087679828   0.08833028            1 
  670000     1.120378   -3.1625607    699.02035  0.086942829  0.088323475            2 
  671000    1.1437168   -3.1213989    699.15163  0.086829562  0.088314707            1 
  672000    1.1433085   -3.1122675    703.48253  0.087237417  0.088305632            2 
  673000     1.118534    -3.128341    700.46304  0.086733908  0.088297104            2 
  674000    1.1373339   -3.1726562    706.99101   0.08741234  0.088287902            2 
  675000    1.1509103   -3.1265464    702.52394   0.08673135  0.088280668            2 
  676000    1.1616198   -3.1094789    707.56157  0.087224059  0.088272649            7 
  677000    1.1312338   -3.1770846    705.05579  0.086786779  0.088265235            2 
  678000    1.1734346   -3.1387951    709.66852  0.087225728  0.088258049            2 
  679000    1.1302512   -3.1302411    708.27263  0.086925948  0.088249029            7 
  680000     1.128363   -3.1457493    706.76166  0.086612948  0.088240215            7 
  681000    1.1239256    -3.155738    707.48067  0.086573748  0.088230978            4 
  682000    1.1354638   -3.1532519    709.05662  0.086639372  0.088221625            2 
  683000     1.124669   -3.1723478    710.03122  0.086631432  0.088212373            1 
  684000    1.1331256   -3.1762469     710.8449  0.086603911  0.088202311            1 
  685000    1.1604218   -3.1486679    712.90182  0.086727715  0.088192721            3 
  686000    1.1603374   -3.0907045      716.831  0.087078596   0.08818414            2 
  687000    1.1658978   -3.1270483     714.3051  0.086645452  0.088174765            2 
  688000    1.1286864   -3.1588044    716.54766  0.086791141  0.088165298            2 
  689000    1.1509802   -3.0925635    721.00522  0.087204309  0.088155902            3 
  690000    1.1315411   -3.1249049    719.89353  0.086943663  0.088147056            2 
  691000    1.1293551   -3.1357411    719.36213  0.086753754  0.088138245            2 
  692000    1.1384209   -3.1646982    720.91003  0.086814792  0.088128766            1 
  693000    1.1569646   -3.1234074    722.59415  0.086892033  0.088121745            2 
  694000    1.1483097   -3.1233619    723.97587  0.086932742  0.088114544            1 
  695000     1.161465   -3.1469369    725.73745  0.087018879  0.088106932            3 
  696000    1.1313577    -3.155715    727.74294  0.087133972  0.088099076            2 
  697000    1.1334851   -3.1274684    728.35882  0.087082594  0.088092289            2 
  698000    1.1420789   -3.1281338    729.03074  0.087038053  0.088085325            2 
  699000    1.1215878   -3.1652688    727.61278   0.08674449  0.088078535            1 
  700000    1.1356006   -3.1530381    728.05117  0.086672758  0.088071776            6 
  701000     1.129926   -3.1568129    730.59603  0.086851644  0.088065394            2 
  702000    1.1296223   -3.1575192    725.79647  0.086158175  0.088056455            2 
  703000    1.1250824   -3.1262234    729.95765  0.086528882  0.088047012            2 
  704000    1.1179794   -3.1276145    733.39485  0.086812837   0.08804022            2 
  705000    1.1414136   -3.1286578    733.77329  0.086734432  0.088031789            2 
  706000    1.1426465   -3.1547673    732.48615  0.086459649  0.088023055            3 
  707000    1.1501419   -3.1706237    732.33699  0.086319777   0.08801423            3 
  708000    1.1157828   -3.1269999    735.70438  0.086594207  0.088005028            1 
  709000    1.1459365    -3.146414    736.04517  0.086512126  0.087994861            5 
  710000    1.1580939   -3.1314682    734.77761  0.086241503  0.087984584            3 
  711000    1.1210361   -3.1035473    741.79294  0.086942445  0.087974371            1 
  712000    1.1265106   -3.1234548    739.38803  0.086538861  0.087965264            2 
  713000     1.127846   -3.1325993    736.13714  0.086037534  0.087954613            2 
  714000    1.1315113      -3.1567    741.44303  0.086536301  0.087943272            1 
  715000    1.1254754   -3.1527224     738.7108   0.08609683  0.087932306            2 
  716000    1.1380055   -3.1609799    740.75674  0.086214704  0.087921083            1 
  717000    1.1252391   -3.1551001    741.58628  0.086190874  0.087910145            1 
  718000    1.1458974   -3.1572935    740.83398  0.085983516  0.087900367            4 
  719000      1.12576    -3.180721    744.16736  0.086250273   0.08789108            2 
  720000    1.1479778   -3.1822137    745.91168  0.086332371  0.087881272            3 
  721000    1.1304927   -3.1509305    747.45491  0.086390997  0.087869931            2 
  722000     1.134737   -3.1224915    749.63366  0.086522814   0.08786085            2 
  723000    1.1543183   -3.1468741    748.78189  0.086304967  0.087851092            2 
  724000     1.132034   -3.1496026    749.14542  0.086227603  0.087841346            4 
  725000    1.1452883   -3.1306678     750.2025  0.086230173  0.087830556            4 
  726000    1.1542353   -3.1544262    750.19765  0.086110841   0.08781933            1 
  727000    1.1378453   -3.1334861    752.18706  0.086220434  0.087808429            1 
  728000    1.1356175   -3.1463162    752.45999  0.086133241  0.087797023            2 
  729000    1.1208075   -3.1646397     754.1195  0.086204789  0.087786031            1 
  730000    1.1254271   -3.1554039    751.72447  0.085813295  0.087775771            1 
  731000    1.1171849   -3.1506752    756.20611  0.086206807  0.087764839            4 
  732000    1.1325384    -3.158571    757.72503  0.086261957  0.087755229            3 
  733000    1.1406053   -3.1592255     758.6622  0.086250819  0.087743948            1 
  734000    1.1681546   -3.1393657     757.9293  0.086050102   0.08773198            1 
  735000    1.1309134   -3.1468081     758.1941  0.085963049  0.087720995            2 
  736000    1.1536747   -3.1721913    758.44668   0.08587485  0.087710503            3 
  737000    1.1422415   -3.1469523    762.35272  0.086199991  0.087699078            1 
  738000    1.1418891   -3.1203758    761.59369  0.085997481  0.087686452            3 
  739000    1.1342988   -3.1774258    760.20627  0.085724658  0.087673562            2 
  740000    1.1215885   -3.1167589    765.05206  0.086154511  0.087661388            2 
  741000    1.1569017   -3.1849538    762.20875  0.085718483  0.087648799            3 
  742000     1.138932   -3.1709119    766.40358  0.086074076   0.08763553            3 
  743000    1.1507839   -3.1315951    766.49317  0.085968278  0.087622146            3 
  744000    1.1373332   -3.1495399    767.26197   0.08593884  0.087608837            1 
  745000     1.129657   -3.1918886    763.66095  0.085420687  0.087596121            1 
  746000    1.1481465   -3.1798449     768.5838  0.085856099  0.087583566            3 
  747000    1.1570056   -3.1807568      768.397  0.085720326  0.087571287            2 
  748000    1.1334691   -3.1127908    771.70416  0.085974171  0.087560208            2 
  749000    1.1523826   -3.1728905    772.94606  0.085997559  0.087549772            2 
  750000    1.1483158   -3.1750408    773.35062  0.085927847  0.087539359            4 
  751000    1.1262021   -3.1689611    777.27953  0.086249393  0.087528805            1 
  752000    1.1391794   -3.1158666    777.75528   0.08618742  0.087518435            2 
  753000    1.1398148   -3.1374784     779.5312  0.086269499  0.087508126            2 
  754000    1.1388393   -3.1287076    776.16233  0.085782751  0.087497314            2 
  755000    1.1033829   -3.1411689    774.49184  0.085484751  0.087485651            3 
  756000    1.1417795   -3.1332785    779.07586  0.085876969  0.087474394            1 
  757000    1.1447778   -3.1488812    781.30257  0.086008649  0.087461877            1 
  758000    1.1179472   -3.1591519     780.5778  0.085815502  0.087449103            1 
  759000    1.1266232   -3.1737771    781.91929  0.085849725  0.087436726            2 
  760000    1.1252633   -3.1582441    783.91996  0.085956136  0.087425752            2 
  761000    1.1286389   -3.1483229    781.83764  0.085615159   0.08741376            4 
  762000    1.1481551   -3.1533319    785.38344  0.085890578  0.087402296            2 
  763000    1.1318765   -3.1875842    783.15719  0.085534861   0.08738967            2 
  764000    1.1243824   -3.1669054    785.91693  0.085723923  0.087376711            4 
  765000    1.1130856   -3.1444452    784.97381   0.08550913  0.087365128            1 
  766000     1.127129     -3.15093    788.94663  0.085829703   0.08735158            1 
  767000     1.148585   -3.1854735    785.96024  0.085393333  0.087338537            2 
  768000    1.1391036   -3.1495174    792.51217  0.085993074  0.087325318            2 
  769000     1.133557   -3.1332242     791.1915  0.085738134   0.08731334            1 
  770000    1.1455361   -3.1231808    793.04442  0.085827318  0.087301739            3 
  771000    1.1280223   -3.1798438    791.25883  0.085523003  0.087289641            4 
  772000    1.1360994   -3.1745984    790.34003  0.085313043  0.087277827            3 
  773000    1.1225028   -3.1290757    794.76655  0.085679878  0.087265221            1 
  774000    1.1376511   -3.1323524    799.57093  0.086086448  0.087253432            4 
  775000    1.1331783   -3.1422094    796.81574  0.085679112  0.087241416            1 
  776000    1.1222136   -3.1204993    794.98918  0.085372549  0.087229619            3 
  777000    1.1187684   -3.1442543    797.87362  0.085572031  0.087217442            1 
  778000    1.1084092   -3.1478737    797.59397  0.085432088  0.087205149            2 
  779000    1.1235737   -3.1575167      802.453  0.085842212   0.08719283            4 
  780000    1.1226241   -3.1654396    802.01679  0.085685555  0.087181008            2 
  781000    1.1310133   -3.1685558    800.36553  0.085399651  0.087168707            2 
  782000    1.1433955   -3.1373892      802.406  0.085507885  0.087156746            2 
  783000    1.1058145   -3.1693929    802.92623  0.085454048  0.087143856            1 
  784000    1.1293944   -3.1737901    799.20556   0.08494957  0.087130021            2 
  785000    1.1432575   -3.1634573     803.8621  0.085335679  0.087116064            6 
  786000    1.1518423   -3.1557525    804.09597  0.085251905  0.087101667            1 
  787000    1.1143776   -3.1455728    802.80196  0.085006561  0.087087303            1 
  788000    1.1229771   -3.1697937     805.3334  0.085166392  0.087072431            3 
  789000    1.1093104   -3.1408224    806.52897  0.085184725  0.087058054            3 
  790000    1.1023364    -3.153231    807.20657  0.085148373  0.087044141            2 
  791000    1.1343965   -3.1797178    812.30564  0.085577923  0.087030734            2 
  792000    1.1181197   -3.1606488    812.02262  0.085440091  0.087016862            2 
  793000    1.1161403   -3.1580711    814.56299  0.085599305  0.087004617            1 
  794000    1.1245154    -3.156594    816.46537   0.08569116  0.086992765            3 
  795000    1.1221152   -3.1502278    815.39226  0.085470887  0.086980605            2 
  796000    1.1365937   -3.1609532    814.07074  0.085225161  0.086967693            2 
  797000    1.1167272    -3.167592    815.64199  0.085282517   0.08695517            2 
  798000    1.1029983   -3.1605315    814.15036  0.085019878   0.08694294            1 
  799000    1.1210071   -3.2012227    816.26458  0.085133978  0.086931136            1 
  800000    1.1096922    -3.164976    818.16978  0.085226019  0.086918914            1 
  801000    1.1320476   -3.1594281    818.04765  0.085106913  0.086906761            1 
  802000    1.1188404   -3.1824686    822.11258  0.085423169   0.08689522            1 
  803000    1.1100961   -3.1501279    824.29088  0.085542848  0.086883481            2 
  804000    1.1307654   -3.1435873     822.8512   0.08528723  0.086871087            1 
  805000    1.1348237   -3.1873366    819.74058  0.084859273  0.086857883            6 
  806000    1.1515053   -3.1791692    823.66465  0.085159704  0.086844646            1 
  807000    1.1174299   -3.1771444    823.96001  0.085084677  0.086831418            2 
  808000    1.1123842   -3.1822681    822.25728  0.084803762   0.08681731            3 
  809000    1.1327546   -3.1691791     827.9055  0.085280748  0.086803747            1 
  810000    1.1215174    -3.176179     827.3686  0.085120226  0.086790224            3 
  811000    1.1159838    -3.171404    829.93129  0.085278596  0.086776918            3 
  812000    1.1338847   -3.1478618     831.6732   0.08535234  0.086762759            2 
  813000    1.1312614   -3.1748954    828.97422  0.084970707   0.08674932            1 
  814000     1.150393   -3.1895863    829.01684  0.084870684  0.086733502            2 
  815000    1.1131401   -3.1782488    830.81099  0.084949999  0.086719194            1 
  816000    1.1218519   -3.1636425    832.95115  0.085064456  0.086704146            2 
  817000    1.1126169   -3.1551029    830.71665   0.08473242  0.086689659            3 
  818000    1.1073511   -3.1531945    835.86548   0.08515337  0.086674255            3 
  819000    1.1176081   -3.2007037    832.10715  0.084666987  0.086659804            1 
  820000    1.1291366   -3.1731285    831.41366  0.084493258  0.086645113            4 
  821000    1.1434022   -3.1610545    837.15498    0.0849731  0.086630541            1 
  822000    1.1554315   -3.1673141    838.56167  0.085012334  0.086616324            1 
  823000     1.111494   -3.1486281     837.3686  0.084788234  0.086602392            1 
  824000    1.1314089   -3.1677466    841.71906  0.085125309  0.086588896            4 
  825000    1.1180995   -3.1674449     842.4028  0.085091192  0.086575802            2 
  826000    1.1427424   -3.1555542    842.07725  0.084955332  0.086562448            1 
  827000    1.0857831   -3.1616198    846.49461  0.085297723  0.086549689            2 
  828000    1.0935338    -3.151335    848.72712  0.085419396  0.086536993            1 
  829000    1.1116386   -3.1564729    844.90363  0.084932009  0.086523461            2 
  830000     1.098447    -3.148037    847.09847  0.085050047  0.086510187            2 
  831000    1.1418914   -3.1400819     849.3449  0.085172974  0.086496902            1 
  832000    1.1368223   -3.1817647    847.27279  0.084863059  0.086484084            2 
  833000    1.1269083   -3.2158835    845.22592  0.084556414  0.086471259            2 
  834000    1.0980935   -3.1727766    849.54043  0.084886134  0.086457901            3 
  835000    1.1201478   -3.1722488    853.35307  0.085164977  0.086444424            1 
  836000    1.1118492   -3.1502658    848.82694  0.084611936  0.086431171            4 
  837000    1.1002939   -3.1756845     850.8093  0.084708213  0.086417377            4 
  838000    1.1185706   -3.1906677    856.37369   0.08516047  0.086403992            2 
  839000    1.1014367   -3.1791978    854.02843  0.084826026   0.08639152            4 
  840000    1.1383578    -3.173088    857.02972   0.08502279   0.08637912            2 
  841000    1.1419237   -3.1611669    860.45483  0.085261081    0.0863669            1 
  842000    1.1122371   -3.1404015    859.49857  0.085065179  0.086354547            1 
  843000     1.120315   -3.1830705    860.19531  0.085033147  0.086343181            2 
  844000    1.0998188   -3.1633294    858.80033  0.084794662  0.086331096            8 
  845000     1.100973   -3.1665714    862.51935   0.08506108   0.08631834            1 
  846000    1.1193415     -3.16687    866.46873   0.08534956  0.086306715            3 
  847000    1.1174035   -3.1916276    862.93976   0.08490159  0.086295133            2 
  848000     1.105863    -3.190084     865.9172  0.085094064  0.086284265            3 
  849000    1.1216616   -3.1740228     865.0794  0.084911602  0.086274117            1 
  850000    1.0932866   -3.1728763    867.70284  0.085068906  0.086263162            6 
  851000    1.1264401   -3.1853124    868.20943   0.08501855  0.086252434            2 
  852000    1.1383944   -3.1821874    871.82066  0.085271973   0.08624176            1 
  853000    1.1201612   -3.1568349    874.70165  0.085453463   0.08623124            2 
  854000     1.107165   -3.1783378    870.44868  0.084938396  0.086220761            1 
  855000    1.1252745   -3.1801112    868.39212  0.084638608  0.086208878            2 
  856000    1.1148766     -3.18814    869.27011  0.084625205  0.086196666            1 
  857000    1.1120208   -3.1736345    873.11051  0.084899894  0.086184714            5 
  858000    1.1179125   -3.1776431    873.92931  0.084880469  0.086172529            3 
  859000    1.1386203   -3.1752758    867.11473   0.08412056   0.08615915            3 
  860000    1.1232969   -3.1858969    874.31636  0.084720578  0.086145374            3 
  861000    1.1317749   -3.1964816     869.9642  0.084200948  0.086131381            1 
  862000    1.1048395   -3.1687267    874.37134  0.084529325  0.086117559            6 
  863000    1.1240446   -3.1727162    870.76803  0.084083432  0.086103368            2 
  864000    1.1173737   -3.1724205     875.2556  0.084418943  0.086089144            3 
  865000    1.1094231   -3.1780843    873.37783  0.084140446  0.086075603            2 
  866000    1.0978844   -3.1689786    878.30359  0.084517282  0.086061347            1 
  867000    1.1214593   -3.1893409    874.00955  0.084007069  0.086045841            2 
  868000    1.1199241   -3.1678736    879.92407  0.084478117  0.086031049            6 
  869000    1.0838696   -3.1804775    882.02998  0.084582851   0.08601658            1 
  870000    1.1271548   -3.1852412    877.71297  0.084072123  0.086001648            2 
  871000    1.1117208   -3.1890106    880.02393  0.084196702  0.085986802            2 
  872000    1.1211629   -3.1835031    881.64594  0.084255154  0.085972952            5 
  873000    1.1087168   -3.1962139    879.14422  0.083919837  0.085957914            3 
  874000    1.1028535   -3.1868785    885.09324  0.084391041  0.085943073            4 
  875000    1.1331315   -3.1784943    886.58617  0.084436778  0.085927341            3 
  876000    1.1078653   -3.1726525    883.98457    0.0840929  0.085913026            1 
  877000    1.1035337   -3.1987023    882.58772  0.083864283  0.085899152            1 
  878000    1.1065792   -3.1768688    887.05479  0.084192748  0.085883198            3 
  879000    1.0887403   -3.1387353     886.4806  0.084042529  0.085868496            1 
  880000    1.1129709   -3.1696779    887.60108  0.084053132  0.085853969            1 
  881000    1.1065696   -3.1622037    886.76004  0.083878172  0.085838217            2 
  882000    1.0991634   -3.1624244    888.05166  0.083905108  0.085822153            3 
  883000     1.083277   -3.1369091    891.94385  0.084177412  0.085806421            3 
  884000     1.109312   -3.1676582    892.44844  0.084129755  0.085791178            3 
  885000     1.134756   -3.1678616    891.71553  0.083965681  0.085775192            1 
  886000     1.135168   -3.1830699    890.99028  0.083802697  0.085759782            2 
  887000    1.1156707   -3.1915412    894.25813  0.084015232  0.085743725            2 
  888000    1.0888182    -3.209216    893.03774  0.083806094  0.085727449            2 
  889000    1.0985373   -3.1834509    895.05396  0.083900821  0.085711471            2 
  890000    1.1172953   -3.1713782    891.59858  0.083483013   0.08569547            3 
  891000    1.1007622   -3.1819787    895.79766  0.083782048  0.085678936            1 
  892000    1.0987612   -3.1996257    893.68589  0.083490834  0.085662675            2 
  893000    1.1079719   -3.1691301    897.97165   0.08379728  0.085646649            1 
  894000    1.1322757   -3.1948368    899.95603  0.083888519  0.085630903            2 
  895000    1.0855121   -3.1459759     897.6216   0.08357743  0.085615177            2 
  896000    1.1160531   -3.1769732    899.60342  0.083668473  0.085600073            3 
  897000    1.0819111   -3.1772912    906.46119  0.084212299  0.085584816            1 
  898000     1.090126   -3.1966306    900.89072  0.083601588  0.085568892            1 
  899000    1.1240815   -3.1886305    904.29779  0.083824415  0.085553001            3 
  900000    1.1222958   -3.1757398     905.0435  0.083800324  0.085538518            2 
  901000    1.0959515   -3.1991081    909.87904  0.084154554  0.085523327            3 
  902000     1.091014   -3.1928741    905.86815  0.083690702  0.085508353            2 
  903000    1.1277392   -3.1863962    908.00057  0.083794811  0.085493738            1 
  904000    1.1011244    -3.179811    903.61423  0.083297772  0.085478575            2 
  905000    1.1099075    -3.193143     911.3944  0.083922136  0.085463897            2 
  906000    1.1244841   -3.1772061    908.28319  0.083543339  0.085449234            2 
  907000    1.1036167   -3.1972853    905.00949  0.083150449  0.085433751            2 
  908000    1.0984936   -3.1992278    908.51151  0.083380278  0.085416711            2 
  909000    1.1053705   -3.1814768    909.66552  0.083394345   0.08539975            1 
  910000    1.1153853   -3.2014986    915.15225  0.083805151  0.085382383            2 
  911000    1.1269438   -3.2015703    907.99979  0.083058891  0.085366649            2 
  912000    1.1263553   -3.2030318    912.61077  0.083389142  0.085350396            3 
  913000    1.1187706   -3.1896807    916.63187  0.083664829  0.085333774            3 
  914000    1.1118028   -3.1868425     914.2309  0.083354385  0.085317941            2 
  915000    1.1274948   -3.2136256    914.72059  0.083307886  0.085302616            2 
  916000    1.1208383   -3.1637923    920.66871   0.08375807  0.085287727            2 
  917000    1.0944956   -3.2012912    917.22224   0.08335353  0.085272404            2 
  918000    1.0945156   -3.1708308    921.54105  0.083654779  0.085256365            3 
  919000    1.1207168   -3.1902648    920.23257  0.083445101  0.085240369            2 
  920000    1.1013354   -3.2216155    920.87546  0.083412632  0.085224713            2 
  921000    1.1034733   -3.2031003      921.047  0.083337586  0.085208543            3 
  922000     1.114088   -3.1405368    928.61346  0.083931079  0.085193899            3 
  923000    1.1013965   -3.1922835    922.72953  0.083308914  0.085178384            3 
  924000    1.1301282   -3.1904134    926.26751  0.083537835  0.085162841            3 
  925000    1.1007905   -3.1705799    929.32163  0.083722669  0.085147128            7 
  926000    1.1115428   -3.1921838    927.16602  0.083438267  0.085131749            1 
  927000    1.1094502   -3.2162913    926.10602  0.083252968  0.085116692            3 
  928000    1.1163264   -3.1578795    929.41981  0.083460831  0.085101784            2 
  929000    1.1195547   -3.1985285    931.61777  0.083568153  0.085086108            2 
  930000    1.1063428   -3.2032689    932.32267  0.083541458  0.085071121            1 
  931000    1.0878028   -3.2122566    930.01837  0.083245468  0.085055869            2 
  932000    1.1064972   -3.2010836    933.48547  0.083466155  0.085040463            4 
  933000    1.0970531   -3.1863032    930.34684   0.08309636  0.085025784            3 
  934000    1.0958297   -3.1690588    929.69598   0.08294932  0.085010314            3 
  935000    1.1057129   -3.1916125    933.77321  0.083223994  0.084994965            2 
  936000    1.1166229   -3.2215121    932.60531    0.0830311  0.084979552            3 
  937000    1.0953965   -3.1975337    933.89103  0.083056833  0.084963875            2 
  938000    1.1023243   -3.1728603     934.0994  0.082986798  0.084948872            3 
  939000    1.0839633   -3.2122901    935.58715  0.083030454  0.084933133            1 
  940000    1.1056883    -3.180654    942.32862  0.083539771  0.084917461            2 
  941000    1.0979324   -3.1922206     940.6225  0.083299903  0.084901766            2 
  942000    1.1064966   -3.2062994    939.14527  0.083080792   0.08488537            2 
  943000    1.0906537   -3.1857777     938.2717  0.082915492  0.084870377            2 
  944000    1.0887813   -3.2081448    939.54647   0.08294019  0.084854986            2 
  945000    1.0896883    -3.206501    944.52572  0.083291509  0.084839293            2 
  946000    1.0830349   -3.2020851    940.32284  0.082833231  0.084823641            2 
  947000    1.0903512   -3.1955797    941.80859  0.082876504  0.084807147            1 
  948000    1.1000432   -3.2082039    944.74806  0.083047474  0.084791387            3 
  949000    1.0877408   -3.1483635    949.73875  0.083398204  0.084775897            2 
  950000    1.0896018   -3.1883684    944.69768  0.082868218  0.084760293            2 
  951000    1.1033914   -3.1927312    948.40343  0.083105804  0.084744607            4 
  952000     1.096022   -3.1670265    947.57833  0.082946282  0.084727721            2 
  953000    1.0964795    -3.157526    947.52587  0.082854658   0.08471132            1 
  954000    1.1074786   -3.1867597    947.68728  0.082781908  0.084694619            2 
  955000    1.1187006   -3.2002974    949.47288  0.082851037  0.084678422            1 
  956000    1.0785471   -3.2114123    950.19338  0.082827177  0.084661505            4 
  957000    1.0886843   -3.1917621    950.97266  0.082808487  0.084644792            2 
  958000    1.1186828    -3.162484    954.18471  0.083001453  0.084628426            1 
  959000    1.0921642   -3.1849373    954.55644  0.082947205  0.084612517            1 
  960000    1.0831472   -3.1953512    955.03921  0.082902709  0.084596457            2 
  961000    1.1027737   -3.1718042    954.07327   0.08273268  0.084580967            1 
  962000    1.0981046   -3.2012167     956.7065  0.082874784  0.084565286            4 
  963000    1.1074183   -3.1642921    961.11682  0.083170372  0.084549892            2 
  964000    1.0765869   -3.1992635    958.18354  0.082830527  0.084535096            3 
  965000    1.0766132   -3.2179869    961.52097  0.083032899  0.084519531            2 
  966000    1.1272986   -3.2011989    958.59653  0.082694662  0.084504403            4 
  967000    1.0809497    -3.208855     959.1682  0.082658411  0.084489363            1 
  968000    1.0899232   -3.1992597    966.60933  0.083213613  0.084474366            2 
  969000    1.0938023   -3.1859744     961.7341  0.082708471    0.0844598            2 
  970000    1.1064237   -3.1815664     967.2593  0.083097878  0.084445137            1 
  971000    1.0734367   -3.1928805    966.67579   0.08296222  0.084430672            2 
  972000    1.0813672   -3.1861424    965.56722  0.082781826  0.084416943            1 
  973000     1.095465   -3.1898666    968.92622  0.082984431  0.084402718            4 
  974000    1.0743778   -3.2108773    970.90043  0.083068141  0.084389165            1 
  975000     1.108205   -3.2130961    970.07709  0.082912572  0.084374824            2 
  976000    1.1110293   -3.2009377    973.58428  0.083127073  0.084360602            3 
  977000    1.0880506   -3.2359323    969.61902  0.082703772  0.084346618            2 
  978000     1.087191   -3.2203131    974.04601  0.082996422  0.084332465            2 
  979000    1.1019322   -3.1999887     972.1548  0.082750664  0.084318241            2 
  980000    1.1024535   -3.1911401    980.33967  0.083362216  0.084303695            2 
  981000    1.1000439   -3.2082923    973.51167  0.082697219  0.084289955            5 
  982000    1.1099704   -3.1859548    980.52678  0.083208315  0.084275555            1 
  983000    1.0984193   -3.2076809    971.49125  0.082357685  0.084261285            2 
  984000    1.0960756   -3.1912169     978.8939  0.082900906  0.084246748            2 
  985000    1.0838545   -3.1929658    977.92134  0.082734462  0.084232512            3 
  986000    1.0851982   -3.2057755    977.70822   0.08263254  0.084216296            2 
  987000    1.1050701   -3.2144324    978.07907  0.082580131  0.084200239            3 
  988000    1.0836364   -3.1794076    978.22484  0.082508843  0.084184155            1 
  989000    1.0849919   -3.1875224    984.39416  0.082945245  0.084168681            1 
  990000    1.1050819   -3.1916145    983.02924  0.082746569  0.084153191            1 
  991000    1.1007649   -3.1881514    981.55539  0.082539135  0.084138223            2 
  992000    1.0895278   -3.2125821    980.89864  0.082400759  0.084123006            2 
  993000    1.1178316   -3.2018408    984.50213  0.082620185  0.084107558            3 
  994000    1.0825333   -3.2344463    984.82323  0.082563987  0.084092627            1 
  995000    1.0848407   -3.1996401    982.60022  0.082294826  0.084077357            2 
  996000     1.102139   -3.1855385    988.63402  0.082717037  0.084062277            2 
  997000    1.1117736   -3.2142305    988.33898   0.08260941  0.084047937            4 
  998000    1.0959466   -3.2398559    989.10112  0.082590274  0.084033709            5 
  999000     1.086927   -3.2059806    985.47867  0.082205428  0.084019523            2 
 1000000    1.1008176    -3.205053    986.04284  0.082170237  0.084005122            2 
 1001000    1.0952475   -3.2148054    986.20011  0.082101241  0.083991146            5 
 1002000     1.092419   -3.2301892     990.2535  0.082356412  0.083976619            4 
 1003000    1.0642515   -3.1724816     1000.625  0.083136009  0.083963058            1 
 1004000    1.1053065   -3.2061626    994.53408  0.082547649  0.083949375            3 
 1005000    1.0969759   -3.1870252    997.53976   0.08271474  0.083935698            2 
 1006000    1.1133276   -3.2192319    995.24725  0.082442615  0.083921284            4 
 1007000    1.0782702     -3.19851    999.57743  0.082719086  0.083907229            3 
 1008000    1.0974717   -3.2043934    998.22081  0.082524869  0.083893186            1 
 1009000    1.1114508   -3.2116308     996.6728   0.08231523  0.083879677            2 
 1010000    1.0932378   -3.2110334    1001.0842  0.082597704  0.083865319            1 
 1011000    1.0810732   -3.2111326    997.92376  0.082255503  0.083851399            2 
 1012000    1.0689186   -3.1905854    1002.5917  0.082558602  0.083837778            1 
 1013000    1.0636918   -3.2135641    997.61559  0.082067751  0.083824184            1 
 1014000    1.0987279   -3.2015567    999.81818  0.082167832  0.083810611            2 
 1015000      1.06902   -3.1972073     1009.858  0.082911165  0.083797261            1 
 1016000    1.0739408   -3.2309997    1005.7833   0.08249535  0.083784272            2 
 1017000    1.1052056   -3.1491688    1010.2985  0.082784213  0.083770288            4 
 1018000    1.0713771   -3.2063908    1005.6282  0.082320576  0.083755874            4 
 1019000    1.0912873   -3.2028498    1006.9035  0.082344091  0.083742118            5 
 1020000    1.0871074   -3.2213945    1006.2388  0.082209049  0.083727321            3 
 1021000    1.1053354   -3.1830069    1008.2412  0.082291969  0.083713343            2 
 1022000    1.1036642   -3.1937503    1018.5068  0.083048497  0.083699669            3 
 1023000    1.1139852   -3.1815246    1015.0565  0.082686254  0.083686692            1 
 1024000    1.0873416    -3.245492    1009.5135   0.08215442  0.083672847            1 
 1025000    1.0987466   -3.2081721    1011.6826  0.082250621  0.083658515            3 
 1026000    1.0784156   -3.2163048    1012.8298  0.082263625   0.08364416            2 
 1027000    1.1020674    -3.216465    1010.5612  0.081999451  0.083629388            4 
 1028000    1.0750778   -3.2220524    1012.3781  0.082066965  0.083614456            5 
 1029000    1.0775705   -3.2053153    1016.1919  0.082296076  0.083599693            1 
 1030000    1.0772733   -3.1947343    1014.3383  0.082066206  0.083584489            2 
 1031000    1.0815982    -3.227131    1010.7586  0.081697271  0.083569354            2 
 1032000    1.0792923   -3.2276109    1020.3628   0.08239364  0.083554348            3 
 1033000    1.0698335    -3.216249    1014.8318  0.081867682  0.083539495            2 
 1034000    1.0995578   -3.1959792    1018.0228  0.082045682  0.083524809            2 
 1035000    1.0824573    -3.202741    1015.6856   0.08177823  0.083509191            2 
 1036000    1.0762729   -3.2403484    1015.0712  0.081649869  0.083494808            2 
 1037000    1.0894959   -3.2093663    1022.3491  0.082155988  0.083480219            1 
 1038000     1.114334   -3.2193372    1025.2732   0.08231159  0.083465752            2 
 1039000    1.0868687   -3.2238607    1019.4436  0.081764805  0.083451006            6 
 1040000    1.0688628   -3.2260994    1018.9717  0.081648374  0.083436278            1 
 1041000    1.0821849   -3.2018257    1023.9101  0.081965269  0.083421518            2 
 1042000    1.1049097   -3.1970163    1027.1185  0.082143195  0.083407726            1 
 1043000    1.0646879   -3.2018401    1026.0157  0.081976325  0.083392691            2 
 1044000    1.0795015   -3.2094066    1022.2695  0.081598776  0.083377641            2 
 1045000    1.0850039   -3.2129687    1025.8152  0.081803444  0.083363132            2 
 1046000    1.0878117   -3.2476153    1025.9031  0.081732241  0.083347218            1 
 1047000    1.0719108   -3.2186273    1027.6933  0.081796663  0.083332411            1 
 1048000    1.1374369   -3.2173497    1029.3855  0.081853175  0.083317316            2 
 1049000    1.0858408   -3.2137534     1035.317  0.082246344  0.083302388            1 
 1050000    1.0833114    -3.220176    1030.0044   0.08174638  0.083287602            1 
 1051000    1.0634338   -3.2119557    1033.2862  0.081928814  0.083272455            2 
 1052000    1.0904423   -3.2146417    1034.5906   0.08195426  0.083258694            2 
 1053000    1.0615853   -3.2270908    1033.9682  0.081827176  0.083244406            3 
 1054000    1.0821073   -3.2152127    1038.1654  0.082081391  0.083230388            1 
 1055000    1.0951388   -3.2052135    1037.6971  0.081966593  0.083216851            2 
 1056000    1.0864158   -3.2214804    1035.3579  0.081704383  0.083202422            2 
 1057000    1.1026996   -3.2408507    1037.6244  0.081805774  0.083187698            2 
 1058000    1.0753188   -3.2335009    1037.1178  0.081688546  0.083172724            2 
 1059000    1.0879183   -3.2351651    1035.4247  0.081478179  0.083157902            3 
 1060000    1.1012811   -3.2115807    1036.8688  0.081514846  0.083143743            3 
 1061000    1.0585346   -3.2070236    1042.9647  0.081916797  0.083129528            1 
 1062000    1.0863244   -3.2210379    1037.7352  0.081429317  0.083114775            3 
 1063000    1.0892697   -3.2145679    1046.6025   0.08204786  0.083099963            3 
 1064000    1.0879802   -3.1798299    1045.3777  0.081874819  0.083085371            1 
 1065000    1.1199737   -3.2111546    1048.4764  0.082040407  0.083070801            1 
 1066000    1.0547344   -3.2351011    1046.5008  0.081809008  0.083056013            2 
 1067000     1.086044    -3.227596    1040.6886  0.081278401  0.083040931            2 
 1068000     1.063553   -3.2669994    1044.6372  0.081510391  0.083026263            4 
 1069000    1.0878645   -3.2267368    1047.4705  0.081655009  0.083012242            2 
 1070000    1.0785111    -3.213494    1050.5209  0.081816272  0.082997008            3 
 1071000    1.0856477   -3.2177923    1054.3433  0.082037294  0.082982979            1 
 1072000    1.0714572   -3.2108239    1049.3854  0.081575358  0.082969016            3 
 1073000    1.0774122   -3.1975336    1054.3027  0.081881228  0.082954963            3 
 1074000    1.0746337    -3.226818    1058.4938  0.082130184   0.08294109            2 
 1075000    1.0863297   -3.2319137     1053.155  0.081639921  0.082927346            2 
 1076000    1.0601587    -3.238003    1052.6574  0.081525512  0.082913009            1 
 1077000    1.1259347   -3.2298187    1057.7038  0.081840282  0.082898648            2 
 1078000    1.0927364   -3.2329513    1058.6221  0.081835349  0.082885163            2 
 1079000    1.0890238   -3.2091364    1059.4353  0.081822309  0.082871824            1 
 1080000    1.0816775    -3.240824    1060.8244  0.081853735  0.082857778            2 
 1081000    1.0905726   -3.2074305    1061.2044  0.081807309  0.082844091            2 
 1082000    1.0829123    -3.254857    1060.9772  0.081714204  0.082830922            3 
 1083000    1.0750864   -3.2025717    1060.5726  0.081607618  0.082817177            3 
 1084000    1.0791067   -3.2272449     1059.949  0.081484391  0.082803364            2 
 1085000    1.0655158   -3.2167806    1064.0031  0.081720671  0.082790293            2 
 1086000     1.078248   -3.2460991    1063.7434   0.08162549  0.082777744            1 
 1087000    1.0563543   -3.2393452    1062.2696  0.081437408  0.082764566            1 
 1088000    1.0719007   -3.2128132    1070.3959  0.081984978  0.082751068            3 
 1089000    1.0854553   -3.2311471    1064.4015   0.08145099  0.082737133            4 
 1090000    1.1000591   -3.2397216    1066.3076  0.081521991   0.08272323            1 
 1091000    1.0529004   -3.2449106    1065.8696  0.081413806   0.08270878            1 
 1092000    1.0732843   -3.2077352    1072.0357  0.081809809  0.082694642            6 
 1093000    1.1044391   -3.1890493    1070.3993  0.081610193  0.082680627            2 
 1094000    1.0826537   -3.2209587    1069.6549   0.08147889  0.082666738            2 
 1095000     1.087528    -3.220776    1071.4911  0.081544224  0.082652954            2 
 1096000    1.0813035   -3.2225063    1066.2719  0.081072988  0.082639391            6 
 1097000    1.0806888   -3.2112261    1069.9166  0.081275948  0.082625624            5 
 1098000    1.0917164   -3.2200858    1076.1989  0.081678723  0.082612349            3 
 1099000    1.0750347    -3.237246    1072.4209  0.081317935  0.082599066            2 
 1100000    1.0757298   -3.2440998    1074.5879  0.081408175  0.082585813            2 
 1101000     1.064999   -3.2268386    1077.3323  0.081541953  0.082572287            2 
 1102000    1.0817288   -3.2581146    1072.4102  0.081095753  0.082558544            4 
 1103000    1.0818956   -3.2677548    1077.9901  0.081443796  0.082545356            3 
 1104000    1.0738524   -3.2637318    1074.4414   0.08110216  0.082532251            3 
 1105000    1.1141526   -3.2152749    1078.6545  0.081346492  0.082518869            1 
 1106000    1.0716027   -3.2235854    1081.4605  0.081484365  0.082505767            2 
 1107000     1.071206   -3.2218345    1079.2592  0.081245047   0.08249218            1 
 1108000    1.0750034   -3.2145307    1083.4533  0.081487164  0.082478783            1 
 1109000    1.0636717   -3.2284324    1080.0412  0.081157288  0.082464381            2 
 1110000     1.068797   -3.2602543     1081.505  0.081194073  0.082450569            2 
 1111000    1.0770391   -3.2229605    1086.5312  0.081497993  0.082436868            3 
 1112000    1.0846956   -3.2236093    1082.3196  0.081109081  0.082422255            1 
 1113000    1.0796035   -3.2300116    1083.9551  0.081158664  0.082408106            3 
 1114000    1.0767388   -3.2273374    1085.7664  0.081221306  0.082394137            4 
 1115000    1.0907335   -3.2765525    1084.6791  0.081067198  0.082379711            3 
 1116000    1.0670975   -3.2413671    1086.5581  0.081134867  0.082364982            1 
 1117000    1.0610593   -3.2246452    1088.4322  0.081202043   0.08235129            3 
 1118000    1.0752544   -3.2339815    1092.0819  0.081401452   0.08233698            2 
 1119000    1.0839191   -3.2296563    1085.1378  0.080811576  0.082323066            1 
 1120000    1.0464348   -3.2337039    1089.3989  0.081056465   0.08230846            3 
 1121000    1.0746631   -3.2531813     1087.897  0.080872508  0.082294539            2 
 1122000    1.0684965   -3.2017635    1089.5126  0.080920428  0.082280018            1 
 1123000    1.0717974   -3.2290609    1089.3875  0.080839088  0.082265004            3 
 1124000    1.0721239   -3.2417825    1090.6389  0.080859941  0.082250005            4 
 1125000    1.0787009   -3.2142827    1093.3139  0.080986216  0.082235612            1 
 1126000    1.0601978   -3.2191607    1089.0451  0.080598366  0.082221393            4 
 1127000    1.0831443   -3.2287666    1096.3995  0.081070653  0.082207182            1 
 1128000    1.0708043   -3.2207689    1099.9987  0.081264681  0.082192373            2 
 1129000     1.069456   -3.2612344    1094.3636  0.080776766  0.082177878            5 
 1130000    1.0828951   -3.2156832    1093.5952  0.080648613  0.082163677            2 
 1131000    1.0674164   -3.2176239    1099.0277   0.08097758  0.082149551            3 
 1132000    1.0765885   -3.2536149     1095.723  0.080662765  0.082134723            3 
 1133000    1.0650079   -3.2441426    1097.5815  0.080728262  0.082119869            2 
 1134000    1.0702567    -3.231142    1100.8119  0.080894469  0.082104712            2 
 1135000    1.0808111    -3.246909    1096.7294  0.080523453  0.082089897            2 
 1136000    1.0677732   -3.2033929    1101.7404  0.080820162  0.082074504            2 
 1137000    1.0828632   -3.2353826    1102.1252  0.080777277   0.08205918            1 
 1138000     1.070121   -3.2500737    1099.2963   0.08049914  0.082043308            4 
 1139000    1.0689682   -3.2535247    1104.4926  0.080808646  0.082028261            1 
 1140000    1.0713978   -3.2508193    1102.1736  0.080568243  0.082012566            1 
 1141000    1.0525806   -3.2196113    1105.1382  0.080714158  0.081997279            4 
 1142000    1.0661555   -3.2274651    1100.5739   0.08031041  0.081982036            1 
 1143000    1.0378885    -3.236561    1100.8006  0.080256681  0.081965799            2 
 1144000    1.0617177   -3.2264681    1102.7059  0.080325314   0.08194959            2 
 1145000    1.0593866   -3.2231563    1105.4318  0.080453551  0.081933581            2 
 1146000    1.0615207   -3.2432486    1109.8804  0.080706833  0.081917394            5 
 1147000    1.0522324   -3.2435698    1107.2105  0.080442493  0.081902268            1 
 1148000    1.0433623   -3.2391466    1108.2059  0.080444682  0.081886349            3 
 1149000    1.0680616   -3.2295074    1107.5584  0.080327703  0.081870598            1 
 1150000     1.056195   -3.2309514    1109.3113  0.080384874  0.081855319            3 
 1151000    1.0502023   -3.2437536      1113.09  0.080588618  0.081840419            3 
 1152000    1.0819515   -3.2242365    1109.7369  0.080276104  0.081825868            2 
 1153000    1.0810005    -3.237363    1113.1338  0.080451992  0.081810847            1 
 1154000     1.066241   -3.2540953    1114.0438  0.080447989  0.081795636            2 
 1155000    1.0693378   -3.2423355    1111.7175    0.0802105  0.081780042            3 
 1156000     1.048831   -3.2532456    1113.4543  0.080266316  0.081764546            2 
 1157000    1.0667899   -3.2164731    1118.2023  0.080538913  0.081748915            2 
 1158000    1.0864249   -3.2351819    1114.0998  0.080174139   0.08173287            3 
 1159000    1.0552977   -3.2335196    1118.8873  0.080449185  0.081717293            2 
 1160000    1.0824371   -3.2354401    1116.0246  0.080174184  0.081701575            2 
 1161000    1.0546774   -3.2356971    1121.5399  0.080500994   0.08168616            2 
 1162000    1.0386784   -3.2424087    1119.2415  0.080266889  0.081670613            3 
 1163000    1.0780761   -3.2266032    1123.6626  0.080514658  0.081655451            2 
 1164000    1.0726018   -3.2293076    1121.0458  0.080258144  0.081640389            2 
 1165000    1.0579629   -3.2719856    1121.6468  0.080232243  0.081625144            5 
 1166000     1.082373    -3.208012    1122.0541  0.080192548  0.081609982            2 
 1167000    1.0465191   -3.2378447    1121.4898  0.080083532   0.08159515            4 
 1168000    1.0642436   -3.2150496    1126.9921   0.08040754  0.081579718            1 
 1169000    1.0937548   -3.2336254    1126.3051  0.080289786  0.081565046            2 
 1170000    1.0556614   -3.2264994    1124.6885  0.080106016  0.081549631            3 
 1171000    1.0707749   -3.2771512    1123.0384  0.079920183  0.081534475            2 
 1172000    1.0437071   -3.2453458    1128.8946  0.080268387  0.081518655            2 
 1173000     1.061006   -3.2447812    1130.7229  0.080329844  0.081502576            4 
 1174000    1.0717419   -3.2235643    1128.6991  0.080117769  0.081486982            3 
 1175000    1.0572416   -3.2557091    1126.2948  0.079879064  0.081471939            2 
 1176000      1.07983   -3.2089191    1127.2627  0.079879727  0.081456878            2 
 1177000    1.0633686   -3.2590934    1133.3533  0.080243085  0.081441651            3 
 1178000    1.0725976   -3.2466205    1130.7422  0.079990253  0.081426205            2 
 1179000    1.0621657   -3.2402889    1134.2104  0.080167542  0.081410885            2 
 1180000    1.0848972   -3.2140296     1134.758   0.08013828  0.081395489            2 
 1181000     1.074221   -3.2185438    1133.4774   0.07998006  0.081379932            4 
 1182000    1.0604675    -3.203048    1131.8107  0.079794885  0.081364182            2 
 1183000    1.0651544   -3.2518649    1134.1609  0.079892989  0.081348661            1 
 1184000    1.0620212   -3.2344267    1139.6123  0.080209199  0.081333084            1 
 1185000    1.0411285   -3.2384153    1133.9355  0.079742299  0.081317438            2 
 1186000    1.0516852   -3.2409984    1133.7092  0.079659159  0.081301212            2 
 1187000    1.0460278   -3.2285336    1139.4307  0.079993733  0.081285025            3 
 1188000    1.0511768   -3.2300075    1137.8814  0.079817717  0.081268914            5 
 1189000    1.0653567   -3.2200243    1141.8971  0.080032035  0.081253313            3 
 1190000    1.0520838   -3.2132334    1139.5769  0.079802305   0.08123723            1 
 1191000     1.050763   -3.2156893    1142.1967  0.079918608  0.081221633            3 
 1192000    1.0705364   -3.2438002    1142.8772  0.079899136  0.081205903            2 
 1193000    1.0477775   -3.2173464    1140.0022  0.079631335  0.081190491            2 
 1194000    1.0708184   -3.2373617    1140.5934  0.079605902  0.081174525            1 
 1195000    1.0560436   -3.2605796    1140.7226  0.079548296  0.081158545            1 
 1196000    1.0606084   -3.2283832    1148.5276  0.080025616   0.08114265            8 
 1197000     1.057373   -3.2689954    1139.9685   0.07936289  0.081126245            1 
 1198000    1.0986766    -3.247529    1139.8361  0.079287431  0.081109984            2 
 1199000    1.0475631   -3.2485439    1147.3744  0.079745235  0.081094013            2 
 1200000    1.0668585   -3.2220467    1152.8631  0.080059936  0.081078233            5 
 1201000    1.0445047   -3.2370552     1147.784  0.079640858  0.081062315            2 
 1202000    1.0631816   -3.2422412    1146.5224   0.07948713  0.081046252            2 
 1203000    1.0560494   -3.2537325     1150.581  0.079702203  0.081030787            1 
 1204000    1.0674397   -3.2653747    1147.8835  0.079449303   0.08101488            2 
 1205000     1.052621   -3.2732103    1148.9647  0.079458137  0.080999068            4 
 1206000    1.0377392   -3.2604154    1150.3137   0.07948547  0.080983232            2 
 1207000    1.0646126   -3.2476269    1154.4696  0.079706546   0.08096769            2 
 1208000    1.0466697   -3.1978945    1157.0507   0.07981862  0.080952142            3 
 1209000    1.0674378   -3.2467654    1153.9071   0.07953592  0.080936696            4 
 1210000     1.049482    -3.235022    1155.4016  0.079573111  0.080920857            1 
 1211000    1.0722127   -3.2622749    1153.4613  0.079373883  0.080905046            3 
 1212000    1.0466337   -3.2483314    1151.4649   0.07917113  0.080889227            4 
 1213000    1.0677404    -3.252015    1157.2055  0.079500243    0.0808735            2 
 1214000    1.0564124   -3.2415129    1154.6711  0.079260783  0.080857017            3 
 1215000    1.0529426   -3.2531106    1157.0814  0.079360861  0.080840643            4 
 1216000    1.0694205   -3.2713892    1157.9788  0.079357098  0.080825015            2 
 1217000    1.0746989   -3.2637924    1154.9304  0.079083152   0.08080909            3 
 1218000    1.0648991    -3.232091    1158.1085  0.079235667  0.080792934            2 
 1219000    1.0373951     -3.27805     1155.074  0.078963219    0.0807769            4 
 1220000    1.0792809   -3.2482749    1160.1102  0.079242498  0.080760222            2 
 1221000    1.0955633   -3.2544652     1164.562  0.079481437  0.080744273            2 
 1222000    1.0500553   -3.2497142     1162.088  0.079247679  0.080728156            3 
 1223000    1.0570437   -3.2241082    1164.7029  0.079361056  0.080712204            3 
 1224000    1.0593117   -3.2667538    1164.8712  0.079307683   0.08069612            1 
 1225000    1.0516292   -3.2346283    1167.3898  0.079414273  0.080680387            2 
 1226000    1.0652917   -3.2552856    1162.7687   0.07903539  0.080664209            3 
 1227000    1.0609511   -3.2463626    1165.5815  0.079162016   0.08064818            2 
 1228000    1.0444765   -3.2455994    1169.2756  0.079348233   0.08063229            1 
 1229000     1.072964   -3.2595448    1166.5409  0.079098243  0.080616445            1 
 1230000    1.0344499   -3.2507136    1173.0657  0.079475995  0.080600167            3 
 1231000    1.0659973   -3.2303372    1173.6688  0.079452261  0.080584498            1 
 1232000    1.0432413   -3.2628185    1171.7321  0.079256773  0.080568832            3 
 1233000    1.0520711   -3.2432897    1169.8384  0.079064507  0.080552879            3 
 1234000    1.0555391   -3.2147888    1173.6283   0.07925637    0.0805369            3 
 1235000    1.0256542   -3.2693402    1171.1306  0.079023659  0.080520443            1 
 1236000    1.0419688   -3.2793879    1173.3196  0.079107307  0.080504506            8 
 1237000    1.0497565   -3.2539008      1169.54  0.078788738  0.080488628            3 
 1238000    1.0559425   -3.2769466    1173.7494  0.079008443  0.080472708            2 
 1239000    1.0480426   -3.2301748    1177.1036  0.079170275  0.080456594            1 
 1240000    1.0433256   -3.2381622    1174.2091  0.078911901  0.080440349            2 
 1241000    1.0593412   -3.2408743    1174.3037  0.078854668  0.080424694            3 
 1242000    1.0509878   -3.2488443    1178.0407  0.079041915  0.080408715            2 
 1243000     1.040593   -3.2623688     1172.593  0.078613103  0.080392035            2 
 1244000    1.0704558   -3.2332278     1182.249  0.079196745   0.08037545            4 
 1245000    1.0528985   -3.2384205    1177.5145  0.078816235  0.080359173            2 
 1246000    1.0392728   -3.2508439    1183.6295  0.079161953  0.080342777            1 
 1247000     1.070304   -3.2848364    1177.4589  0.078686105    0.0803266            3 
 1248000    1.0465875   -3.2702116    1180.2698  0.078810752   0.08031049            1 
 1249000    1.0595251   -3.2715208    1182.5268  0.078898236  0.080294567            4 
 1250000    1.0432117   -3.2569306    1187.0483  0.079136552  0.080278453            3 
 1251000    1.0239344   -3.2800672     1184.002  0.078870372  0.080262818            1 
 1252000    1.0626622   -3.2725772     1182.154  0.078684374  0.080246998            1 
 1253000    1.0777962   -3.2517413    1188.1994  0.079023637  0.080231242            1 
 1254000    1.0623648   -3.2738374    1189.5079  0.079047576  0.080215548            2 
 1255000    1.0221093   -3.2711367    1187.2116  0.078832108  0.080199969            4 
 1256000    1.0602335   -3.2691151    1185.4263  0.078650898   0.08018444            3 
 1257000    1.0327991   -3.2431688    1189.6947  0.078871299  0.080168761            1 
 1258000    1.0400664    -3.261212     1187.716  0.078677529  0.080153464            2 
 1259000    1.0380407   -3.2594621     1190.766  0.078816915  0.080138484            3 
 1260000     1.050273   -3.2231601    1196.3376  0.079122856  0.080122793            2 
 1261000    1.0543233   -3.2610633    1190.2008  0.078654563   0.08010705            4 
 1262000    1.0487469   -3.2555899    1190.6856  0.078624247  0.080091572            4 
 1263000    1.0328823    -3.249992    1198.5725  0.079082378   0.08007617            2 
 1264000    1.0546059   -3.2344892    1196.6565  0.078893496  0.080060638            2 
 1265000    1.0633088   -3.2906156    1194.0288  0.078658021  0.080045114            3 
 1266000    1.0421139   -3.2913971    1197.6196  0.078832257  0.080029972            2 
 1267000    1.0485348   -3.2722457    1197.8537  0.078785432  0.080014713            1 
 1268000    1.0398876   -3.2688515     1195.501  0.078568681  0.079999442            3 
 1269000    1.0658213   -3.2693364    1192.8066  0.078329824  0.079983849            5 
 1270000    1.0354688   -3.2336005    1202.4048  0.078897952  0.079968338            2 
 1271000    1.0357439   -3.2373648    1206.1816  0.079083506  0.079953181            2 
 1272000     1.041608   -3.2498669    1202.0347  0.078749651  0.079938088            2 
 1273000    1.0388275   -3.2468839    1199.8789  0.078546668  0.079922691            2 
 1274000    1.0557375   -3.3019202     1194.102  0.078107143  0.079907118            6 
 1275000    1.0498223    -3.254339    1202.9494  0.078624146  0.079890985            2 
 1276000    1.0418576   -3.2654091    1200.5519  0.078405948  0.079875348            2 
 1277000    1.0558671   -3.2655431    1206.0085  0.078700636  0.079859906            3 
 1278000    1.0534387   -3.2559571    1204.2195  0.078522399  0.079844473            2 
 1279000    1.0153212   -3.2639368    1204.5281  0.078481113  0.079829257            3 
 1280000    1.0296386    -3.246805    1210.1415  0.078785256  0.079814025            1 
 1281000    1.0434312   -3.2778183    1206.5838  0.078492312   0.07979949            3 
 1282000    1.0531644   -3.2623605     1206.842   0.07844787  0.079784252            5 
 1283000    1.0437933   -3.2998185    1208.1942  0.078474549  0.079769071            2 
 1284000    1.0641577   -3.2753418    1212.1653  0.078671165  0.079753909            3 
 1285000    1.0436449   -3.2787034    1216.7634  0.078908135   0.07973903            2 
 1286000    1.0523805   -3.2494858    1212.3525  0.078560946  0.079724261            3 
 1287000    1.0526774   -3.2682724    1212.3187  0.078497714  0.079708821            1 
 1288000     1.066801   -3.2497572    1216.2669  0.078692214  0.079693758            1 
 1289000    1.0420093   -3.2705719    1215.4459  0.078578088  0.079677945            3 
 1290000    1.0438928   -3.2629455    1209.0874  0.078106422  0.079661904            2 
 1291000    1.0384661   -3.2657844    1210.9072  0.078163388  0.079646342            1 
 1292000    1.0375104   -3.2499929    1220.5081  0.078722144  0.079631048            1 
 1293000    1.0582004   -3.2583649     1214.356  0.078264759  0.079615446            1 
 1294000    1.0461208   -3.2660957     1220.592  0.078605875   0.07959972            2 
 1295000    1.0789987    -3.259878     1220.087  0.078512678  0.079584808            1 
 1296000    1.0404641   -3.2606123    1225.7946  0.078819098  0.079569875            2 
 1297000    1.0510719    -3.266066    1220.0068  0.078386454  0.079554112            5 
 1298000    1.0645984   -3.2931509    1215.3358  0.078026179  0.079538881            3 
 1299000    1.0439065   -3.2666383     1219.736  0.078248396  0.079523632            5 
 1300000    1.0604033   -3.2871229     1223.543  0.078432242  0.079508722            1 
 1301000    1.0336473   -3.2724254    1222.8142  0.078325274  0.079493934            1 
 1302000    1.0346698   -3.2721296    1225.1475  0.078414456  0.079478985            3 
 1303000    1.0541301   -3.2565964    1229.6564  0.078642646  0.079464447            2 
 1304000    1.0698972   -3.2953881    1227.0066  0.078413001  0.079449953            2 
 1305000    1.0310713   -3.2458977    1228.2493  0.078432264  0.079435063            2 
 1306000    1.0561566   -3.2815228    1228.1515  0.078365974  0.079420204            2 
 1307000    1.0350644   -3.2645818    1229.0401  0.078362666  0.079405263            2 
 1308000    1.0292891   -3.2752648    1226.4455  0.078137457  0.079389942            2 
 1309000    1.0317942   -3.2805459    1224.2473   0.07793782  0.079374315            2 
 1310000    1.0333564   -3.2554896    1231.0276  0.078309645  0.079358584            2 
 1311000    1.0686716   -3.2826422    1232.9729  0.078373561    0.0793433            4 
 1312000    1.0304718    -3.298251    1229.5822  0.078098465  0.079328273            1 
 1313000    1.0482203   -3.2501439    1231.7021  0.078173526  0.079313347            3 
 1314000     1.041792   -3.2877952     1228.103   0.07788578  0.079298062            4 
 1315000    1.0483309   -3.2898832    1229.9987  0.077946686  0.079282391            1 
 1316000    1.0335549   -3.2567003    1236.1238  0.078275314  0.079266739            2 
 1317000    1.0365689   -3.2753922    1232.3618  0.077977842  0.079250878            2 
 1318000    1.0442783   -3.2492105    1233.9867  0.078021416  0.079235957            3 
 1319000    1.0221973   -3.2756919    1232.9529   0.07789695  0.079220577            2 
 1320000    1.0417972   -3.2903657    1233.6546  0.077882232  0.079204942            2 
 1321000    1.0153424   -3.2556964    1236.7517  0.078018655  0.079189552            2 
 1322000    1.0431284    -3.289201    1238.5467  0.078072784  0.079173897            1 
 1323000    1.0377547   -3.2733942    1236.5943  0.077890797  0.079158558            2 
 1324000    1.0374081   -3.2862327    1236.4486  0.077822794  0.079143106            2 
 1325000    1.0462233   -3.2890256    1237.9945   0.07786129  0.079127383            2 
 1326000     1.048175   -3.2706613    1242.0003  0.078054321  0.079111363            1 
 1327000    1.0357532   -3.3037812    1240.6436    0.0779103  0.079095559            2 
 1328000    1.0629989   -3.2614468    1238.8376  0.077738302  0.079080241            3 
 1329000    1.0466973   -3.2763488     1243.116  0.077948084  0.079065406            2 
 1330000    1.0319599   -3.2760682    1244.7366  0.077991012   0.07905042            2 
 1331000    1.0308003   -3.2822431    1245.9319  0.078007258  0.079035232            1 
 1332000    1.0363086   -3.2570875    1244.8863  0.077883274  0.079020231            5 
 1333000    1.0623801   -3.2774339    1248.1437  0.078028486  0.079005632            2 
 1334000    1.0593906   -3.2981813    1242.1826  0.077597613   0.07899086            4 
 1335000    1.0407082   -3.2827015    1243.2728  0.077607539   0.07897565            3 
 1336000    1.0392252   -3.2830079    1244.8153  0.077645663  0.078960206            1 
 1337000    1.0393623    -3.267738    1244.7539  0.077583763  0.078944747            3 
 1338000    1.0541753   -3.2556976    1250.3432  0.077873889   0.07892948            2 
 1339000    1.0485322   -3.2651988    1246.7033  0.077589202  0.078913668            5 
 1340000    1.0428895   -3.2708966    1248.9854  0.077673222  0.078897971            2 
 1341000    1.0364926   -3.2577783    1248.6778  0.077596183  0.078882495            1 
 1342000    1.0220352   -3.2599092    1255.0742  0.077935557  0.078866789            2 
 1343000    1.0400777    -3.313517    1246.6451    0.0773545  0.078850828            3 
 1344000    1.0393026   -3.2543116    1252.7046  0.077672659  0.078835079            3 
 1345000    1.0435255   -3.2853597    1243.8603  0.077066936  0.078819019            1 
 1346000    1.0355622   -3.2895614    1250.6321  0.077428928  0.078802873            3 
 1347000    1.0302053   -3.2825793    1258.8396  0.077879214  0.078786625            3 
 1348000    1.0553797   -3.2566821    1256.2446  0.077661016  0.078770935            1 
 1349000    1.0527936    -3.279135    1253.6004  0.077440104  0.078754793            5 
 1350000     1.040114   -3.2832031    1255.6275  0.077507872  0.078738258            5 
 1351000    1.0572975   -3.2940543    1253.4151  0.077314036  0.078721486            3 
 1352000    1.0341637   -3.2730202    1253.7073  0.077274857  0.078705304            5 
 1353000    1.0169739   -3.2826862    1260.0553  0.077608725  0.078689323            1 
 1354000    1.0532745   -3.2855842    1254.7219  0.077223158  0.078672374            2 
 1355000    1.0483559    -3.287775    1255.8794  0.077237357  0.078655348            3 
 1356000    1.0461141   -3.2968792    1252.7796  0.076989897    0.0786382            2 
 1357000    1.0365564   -3.2926967    1250.7763  0.076810137  0.078620737            3 
 1358000    1.0566523   -3.2600766    1254.4982  0.076981969  0.078603522            1 
 1359000    1.0533114   -3.2885304    1257.5212  0.077110696  0.078586483            4 
 1360000    1.0084799   -3.2875867    1253.6417  0.076816283  0.078569605            1 
 1361000    1.0301135    -3.295068     1258.619  0.077064597  0.078552151            4 
 1362000    1.0192002   -3.2897627    1254.2293  0.076739432  0.078535113            4 
 1363000    1.0269141   -3.2810561    1259.6837  0.077016611  0.078518207            2 
 1364000    1.0455417   -3.2850325    1260.8821  0.077033365  0.078501209            2 
 1365000    1.0387548   -3.3016602    1260.1602  0.076932857  0.078484012            1 
 1366000    1.0331056    -3.273146    1263.4769  0.077078877  0.078467534            1 
 1367000    1.0252727   -3.3064431    1265.7174  0.077159069  0.078451375            2 
 1368000    1.0280418   -3.2898835    1262.4931  0.076906258  0.078434713            2 
 1369000    1.0388856   -3.2894725    1266.9865  0.077123602  0.078418108            2 
 1370000    1.0283245   -3.2752822    1262.6311  0.076802379  0.078402155            3 
 1371000    1.0372901   -3.2808911      1272.25  0.077331022  0.078385774            4 
 1372000    1.0378442   -3.2708326     1270.316  0.077157192  0.078369652            3 
 1373000    1.0472364   -3.2608682    1274.3502  0.077345846  0.078353997            2 
 1374000    1.0409589    -3.284407    1272.1219  0.077154408  0.078338401            2 
 1375000     1.025288   -3.2687656    1276.9031  0.077388064  0.078323063            2 
 1376000    1.0243776   -3.2620842    1276.0833  0.077282179  0.078307218            1 
 1377000    1.0200708   -3.2745772    1274.6755  0.077140854  0.078291656            2 
 1378000    1.0379941   -3.2907152    1272.8682  0.076975582  0.078275254            4 
 1379000    1.0413525   -3.2921967    1277.9797  0.077228652  0.078258896            3 
 1380000    1.0291996   -3.2864255     1268.504  0.076600485   0.07824251            3 
 1381000    1.0338691   -3.2644274    1272.5443  0.076788821  0.078225626            1 
 1382000    1.0362488    -3.311804    1272.9039   0.07675494  0.078209469            2 
 1383000     1.043081   -3.2645436    1281.0648   0.07719118  0.078193074            2 
 1384000    1.0224606   -3.2798989    1274.5309  0.076741988   0.07817693            3 
 1385000    1.0340477    -3.276732     1275.666  0.076754874   0.07816028            2 
 1386000   0.98920943   -3.3061053    1274.4025  0.076623524  0.078143444            1 
 1387000    1.0296703   -3.2758744    1280.1128  0.076911368  0.078127075            2 
 1388000    1.0158476   -3.2914394    1281.0231  0.076910606  0.078110871            3 
 1389000    1.0324061   -3.2717852    1281.2733  0.076870248  0.078094729            3 
 1390000    1.0246665   -3.2953131    1278.6416  0.076657171  0.078078628            4 
 1391000    1.0372675   -3.2982524    1274.6157  0.076360872  0.078062412            1 
 1392000     1.019102   -3.3132844    1281.7648  0.076734006  0.078046001            3 
 1393000    1.0228417   -3.2734055    1283.0588  0.076756328  0.078029856            3 
 1394000    1.0414388   -3.3081186    1283.1808   0.07670856  0.078013905            2 
 1395000    1.0116291   -3.2767604    1285.9906  0.076821419  0.077997737            4 
 1396000     1.030464   -3.2753824    1287.3634  0.076848338  0.077981706            2 
 1397000     1.021634   -3.2779203    1287.3591  0.076793073  0.077965322            3 
 1398000    1.0467885   -3.2853041    1284.7826  0.076584562  0.077949076            5 
 1399000    1.0295825    -3.274863    1286.2534  0.076617429  0.077933259            1 
 1400000    1.0333597   -3.2858313    1289.7327  0.076769801  0.077916983            4 
 1401000    1.0182397   -3.2684858    1292.5087  0.076880124  0.077901139            2 
 1402000    1.0411226   -3.2713648    1289.3155  0.076635493  0.077885568            1 
 1403000    1.0016378    -3.311237    1292.9193  0.076794921  0.077870084            2 
 1404000     1.043088    -3.293803    1293.8082  0.076792984   0.07785414            3 
 1405000    1.0115133   -3.2994662    1291.0199  0.076572947  0.077838008            3 
 1406000    1.0363221   -3.3034727     1289.085  0.076403808  0.077821987            2 
 1407000    1.0226717   -3.2963039    1292.6057  0.076558026  0.077806297            2 
 1408000    1.0160255   -3.2775983     1294.342  0.076606415  0.077789937            2 
 1409000    1.0222611   -3.2736545    1297.8536  0.076759733  0.077774135            1 
 1410000    1.0250247   -3.3145311    1295.4743  0.076564675  0.077758115            6 
 1411000    1.0078042   -3.2604262    1298.1468  0.076668247  0.077742399            3 
 1412000    1.0642845     -3.25067     1298.356  0.076626296  0.077726571            2 
 1413000    1.0180534    -3.271428    1297.0687  0.076496146  0.077711189            3 
 1414000    1.0231657   -3.2804912    1296.9416   0.07643456  0.077695528            2 
 1415000    1.0143343   -3.3055413    1299.9307  0.076556577  0.077679639            3 
 1416000    1.0297361   -3.3257801      1298.81   0.07643656  0.077663747            3 
 1417000    1.0229746   -3.2860587    1302.3128  0.076588612  0.077647482            6 
 1418000    1.0185117   -3.3002842    1298.8742  0.076332522  0.077631722            3 
 1419000    1.0245075   -3.3076079    1295.7892  0.076097559  0.077615545            3 
 1420000    1.0301347   -3.2968758    1304.2666  0.076541465  0.077599317            4 
 1421000    1.0310488   -3.3122701    1300.6526  0.076275665  0.077583305            2 
 1422000    1.0378455   -3.2901877    1298.8241  0.076114866  0.077566754            1 
 1423000    1.0289077   -3.2897257    1302.6832  0.076287374  0.077550296            2 
 1424000    1.0137354    -3.298574     1298.726  0.076002223  0.077533774            4 
 1425000    1.0112796   -3.3036908    1300.2842  0.076040009  0.077517112            5 
 1426000    1.0431592   -3.2591643      1302.27  0.076102733  0.077500587            4 
 1427000    1.0333408   -3.2951757     1305.467  0.076236103  0.077483763            3 
 1428000    1.0225738   -3.2867148    1298.8886  0.075798823   0.07746673            6 
 1429000    1.0125074   -3.3068977    1297.6203  0.075671816  0.077449448            8 
 1430000    1.0424194   -3.2616273    1306.7005  0.076148049  0.077432038            1 
 1431000    1.0328937   -3.2841389    1303.2307  0.075892771  0.077415031            2 
 1432000     1.044025   -3.2611637    1308.2151  0.076129838  0.077397717            1 
 1433000    1.0270652   -3.2930062    1306.0929  0.075953298  0.077380316            3 
 1434000    1.0214303   -3.2871452    1302.4234  0.075687089  0.077362823            5 
 1435000    1.0277117   -3.2845837     1307.018  0.075901164  0.077345498            3 
 1436000    1.0179305   -3.2960512    1306.1468  0.075797751  0.077328305            3 
 1437000     1.015456   -3.2914547    1305.3523   0.07569893  0.077310975            2 
 1438000    1.0199402   -3.3028675    1302.5464  0.075483682  0.077293287            2 
 1439000    1.0195723   -3.2814205    1308.3253  0.075765883  0.077275669            2 
 1440000    1.0185154   -3.2947274    1308.5898  0.075728577  0.077258186            2 
 1441000   0.99554232   -3.2961631    1311.5396  0.075846609  0.077240699            2 
 1442000    1.0370281   -3.2994264     1308.463  0.075616216  0.077223121            3 
 1443000    1.0231779   -3.2835291    1311.5837  0.075744035  0.077205933            2 
 1444000    1.0409083   -3.2763262    1313.0784   0.07577784  0.077188253            2 
 1445000    1.0152746   -3.2563362    1312.4821  0.075691012  0.077171035            8 
 1446000    1.0072235   -3.2847666    1314.2934  0.075743047  0.077153972            2 
 1447000    1.0240533   -3.3152554    1317.5094  0.075875916   0.07713685            3 
 1448000    1.0283424   -3.2826662    1313.2302  0.075577244  0.077119761            1 
 1449000    1.0260992   -3.3112313    1313.5472  0.075543318  0.077102993            3 
 1450000    1.0123513   -3.3107919    1320.4724  0.075889218  0.077085889            1 
 1451000    1.0305613    -3.294452    1322.0888  0.075929749  0.077068678            3 
 1452000    1.0281906   -3.3046155    1316.9254  0.075581118  0.077051433            5 
 1453000    1.0105942   -3.3176696    1321.6583  0.075800546   0.07703473            3 
 1454000    1.0101548   -3.2919829    1320.4772  0.075680721  0.077017981            7 
 1455000    1.0352035   -3.2918066    1319.2756  0.075559883  0.077001234            2 
 1456000   0.99806521   -3.3179339    1318.9009  0.075486543  0.076984239            3 
 1457000    1.0234949   -3.3167935    1318.1301  0.075390646  0.076967346            2 
 1458000    1.0232886   -3.2797485     1326.846  0.075837108  0.076950364            2 
 1459000   0.99780888    -3.310784     1320.448  0.075419691  0.076933432            1 
 1460000    1.0194424   -3.2824094    1320.9309  0.075395597   0.07691662            3 
 1461000    1.0437422   -3.3134051    1327.3973  0.075712828   0.07690003            3 
 1462000     1.009041    -3.319855    1325.9104  0.075576287  0.076883026            1 
 1463000    1.0258833   -3.2742468    1329.0421  0.075703012  0.076866292            2 
 1464000    1.0291785   -3.3073044    1329.9638  0.075703766    0.0768496            6 
 1465000    1.0186327   -3.3096163    1329.7955  0.075642521  0.076832591            3 
 1466000    1.0326502   -3.3167675    1327.2871  0.075448335  0.076816061            1 
 1467000     1.002056   -3.3172913    1327.4398  0.075405577  0.076799633            3 
 1468000    1.0242039   -3.2808958    1331.7893  0.075601121  0.076783232            2 
 1469000    1.0198408   -3.3106529    1332.0186  0.075562663  0.076766577            4 
 1470000     1.000335   -3.3088878    1328.3305  0.075302185  0.076749918            2 
 1471000    1.0052558    -3.267355      1334.12  0.075578971  0.076733959            2 
 1472000     1.048535   -3.2924568    1328.6101  0.075215697  0.076717905            2 
 1473000    1.0181776    -3.317616    1334.3268   0.07548805   0.07670168            3 
 1474000   0.98530829   -3.3408379    1331.0604  0.075252168  0.076684974            4 
 1475000    1.0330755   -3.3251887    1335.8231   0.07547023   0.07666846            2 
 1476000     1.002919   -3.2703981    1343.0165  0.075825232  0.076652191            2 
 1477000    1.0213277   -3.2953265    1334.9345  0.075317905  0.076635994            1 
 1478000    1.0016309   -3.2980798    1332.4983  0.075129583   0.07661919            2 
 1479000    1.0282939   -3.2859149    1338.6615  0.075426047  0.076602528            2 
 1480000    1.0116647   -3.3133928    1334.9686   0.07516715  0.076586431            2 
 1481000    1.0081734   -3.3253728    1335.3633  0.075138606  0.076569616            5 
 1482000    1.0025766   -3.3340357    1332.5426  0.074929293  0.076553099            1 
 1483000    1.0003036   -3.2912148     1335.492  0.075044504  0.076536366            2 
 1484000    1.0394696    -3.333604    1342.9595  0.075413272  0.076520188            3 
 1485000    1.0079433   -3.3083346    1339.5934  0.075173592  0.076503885            5 
 1486000    1.0237927   -3.2970094    1341.3788  0.075223125  0.076487561            3 
 1487000    1.0118728   -3.3350496    1334.5183  0.074788068  0.076470889            4 
 1488000     1.018559   -3.3209728    1342.7045  0.075196267  0.076454235            5 
 1489000     1.027119   -3.3181695    1342.3113  0.075123759  0.076437702            2 
 1490000    0.9972892   -3.3272501    1343.9521  0.075165107  0.076421512            2 
 1491000    1.0153362   -3.3249843    1342.1775  0.075015508  0.076405562            2 
 1492000    1.0042103   -3.2872424    1345.5668  0.075154533  0.076389299            2 
 1493000    1.0100131   -3.3102679    1349.5957  0.075329076  0.076373044            3 
 1494000    1.0547578   -3.3498555    1344.7508  0.075008412  0.076356532            5 
 1495000    1.0259532   -3.3080366    1349.4795  0.075221823  0.076340548            6 
 1496000    1.0233786   -3.3331215    1346.2539  0.074991863  0.076324034            2 
 1497000    1.0102188    -3.284317    1347.3804  0.075004474  0.076308034            2 
 1498000    1.0139348   -3.3525244     1342.329    0.0746734  0.076291805            5 
 1499000    1.0000036   -3.3025165    1349.1512  0.075002847  0.076275299            1 
 1500000    1.0158549    -3.298678    1350.3497  0.075019426  0.076258786            3 
 1501000    1.0163584    -3.307895    1347.7288  0.074823938  0.076242528            2 
 1502000    1.0525238   -3.3272742    1354.1896  0.075132578  0.076226108            2 
 1503000    1.0292275   -3.3059632     1353.242  0.075030051  0.076209561            1 
 1504000   0.99614615   -3.3184319    1355.0614  0.075080973   0.07619345            6 
 1505000    1.0226273   -3.3095151    1359.4204  0.075272445  0.076177532            2 
 1506000    1.0362261   -3.3479011    1350.4634  0.074726835  0.076161619            3 
 1507000    1.0178728    -3.331136     1354.179  0.074882716  0.076145682            2 
 1508000    1.0167277   -3.2861622    1356.2998  0.074950256  0.076130006            1 
 1509000   0.99003287   -3.3103111    1364.5294  0.075355061  0.076114178            3 
 1510000    1.0032381    -3.308003    1355.1911  0.074789796  0.076098275            6 
 1511000    1.0005358   -3.3406325    1363.1829  0.075181054   0.07608203            2 
 1512000   0.99782069   -3.2965526    1366.0349  0.075288522  0.076066131            2 
 1513000    1.0150047   -3.2970456     1363.999  0.075126623  0.076050169            2 
 1514000    1.0194621     -3.30437    1362.1357  0.074974447  0.076034592            3 
 1515000    1.0370841   -3.3268128    1357.2053  0.074653759  0.076018741            2 
 1516000    1.0031323   -3.3007681    1364.1253  0.074984898   0.07600291            2 
 1517000   0.98926755   -3.3311379    1364.6165  0.074962454  0.075987253            6 
 1518000   0.99450634   -3.3350914    1363.9995  0.074879198  0.075971078            2 
 1519000    1.0143837   -3.3132805    1364.9579  0.074882481  0.075954932            4 
 1520000    1.0087275   -3.3153866    1368.6693  0.075036694  0.075939426            3 
 1521000    1.0117746   -3.3125321    1367.2996  0.074912315  0.075923612            4 
 1522000    1.0189638   -3.2881615    1364.3681  0.074702591  0.075907723            2 
 1523000    1.0112469   -3.3108118    1368.9014  0.074901585   0.07589154            4 
 1524000    1.0045321    -3.319358    1368.0635  0.074806621  0.075875519            2 
 1525000    1.0181767      -3.3353     1365.125  0.074596992  0.075859241            6 
 1526000   0.99702435   -3.3141701    1373.6671  0.075014586  0.075843224            4 
 1527000    1.0194598   -3.3259273    1364.8869  0.074486296  0.075827201            2 
 1528000   0.98072328   -3.3120206    1372.8583  0.074872289  0.075810746            2 
 1529000   0.99936298   -3.3296895    1361.8301  0.074222266  0.075794897            4 
 1530000   0.98445835   -3.3431079    1372.3602  0.074747285  0.075778949            4 
 1531000    1.0099778    -3.331039    1374.0675  0.074791395  0.075763016            1 
 1532000   0.99768099   -3.3130122    1374.9855  0.074792511  0.075747121            5 
 1533000   0.97845765   -3.3290777     1376.121  0.074805447  0.075731123            8 
 1534000    1.0023016   -3.3254069     1373.113  0.074593277  0.075715433            3 
 1535000   0.98215831   -3.3396746    1373.4371  0.074562277  0.075699266            2 
 1536000   0.98971006     -3.32406    1375.9821  0.074651807  0.075682924            3 
 1537000    1.0136107   -3.3038138    1375.7609  0.074591245  0.075666605            2 
 1538000    1.0098836   -3.3307406    1372.6165  0.074372374  0.075650693            1 
 1539000   0.98746587   -3.3245088    1376.2962  0.074523296  0.075634177            3 
 1540000    1.0375698   -3.3115979    1373.7043  0.074334651  0.075617875            1 
 1541000    1.0072674   -3.3386328    1374.9776   0.07435527  0.075601596            3 
 1542000   0.98651401    -3.316709    1380.5663  0.074609073   0.07558536            3 
 1543000    0.9915293   -3.3384427    1381.4545  0.074608689  0.075569422            2 
 1544000    1.0309294   -3.3169128    1375.1039   0.07421761  0.075553255            2 
 1545000    1.0172438   -3.3049092    1380.2325  0.074446198  0.075537265            2 
 1546000   0.99268912   -3.3434741    1387.8614  0.074809259  0.075521203            4 
 1547000    1.0216402   -3.3593317    1377.4682  0.074201046   0.07550478            5 
 1548000   0.97856657   -3.3172693    1380.8924  0.074337446  0.075488981            5 
 1549000    1.0043106    -3.304706    1381.9019  0.074343764  0.075472566            3 
 1550000    1.0194097   -3.3169901    1377.9124  0.074081311  0.075456227            4 
 1551000   0.99248774    -3.325064    1380.6824  0.074182379  0.075439824            1 
 1552000    1.0233427   -3.3324366    1381.8376  0.074196606  0.075423381            3 
 1553000    1.0224114   -3.3123082    1385.8849  0.074366008   0.07540695            2 
 1554000   0.99393221   -3.3231966    1389.0548  0.074488139  0.075390743            2 
 1555000   0.98762582   -3.2953876    1388.3718  0.074403634  0.075374856            3 
 1556000   0.98968002   -3.3212977    1384.4515  0.074145863   0.07535884            4 
 1557000    1.0043863   -3.2810935    1391.7143  0.074486958  0.075343186            4 
 1558000    1.0162829   -3.3011046    1386.5257  0.074161625  0.075327562            3 
 1559000   0.99686895   -3.3069587     1388.611  0.074225517  0.075311667            3 
 1560000   0.99199684   -3.3100694    1389.0011  0.074198776  0.075295745            5 
 1561000    1.0008541   -3.3372501    1392.9678  0.074363004  0.075279958            2 
 1562000   0.99219241   -3.3116282    1392.3893  0.074284535   0.07526435            3 
 1563000    1.0002671   -3.3607294    1389.8944  0.074103987  0.075248624            2 
 1564000    1.0145165   -3.3443167    1394.5905  0.074306824  0.075232806            3 
 1565000   0.99349546   -3.3186663    1393.7261  0.074213316  0.075217416            1 
 1566000   0.99425354   -3.3311818    1394.8313  0.074224741  0.075202064            4 
 1567000     1.006348   -3.3295224    1396.4347  0.074262639  0.075186474            2 
 1568000   0.99887023   -3.3403224    1401.4311   0.07448082  0.075170811            2 
 1569000   0.97113843   -3.3419661    1394.5594  0.074068376  0.075155144            2 
 1570000    1.0061199   -3.3079059      1404.36  0.074541401  0.075139446            2 
 1571000    1.0236031   -3.3487415    1392.5374  0.073866824  0.075123427            3 
 1572000   0.98223902   -3.2898092    1396.1621  0.074011986  0.075107562            2 
 1573000   0.98737676   -3.3264676    1395.8352  0.073947616  0.075091629            4 
 1574000    1.0094267    -3.355445    1400.6781  0.074157034  0.075075694            3 
 1575000    1.0222729   -3.3179856    1401.8805  0.074173571  0.075059828            3 
 1576000     1.002423   -3.3533975    1398.3049  0.073937441  0.075044255            2 
 1577000    1.0042757   -3.3258636    1406.1645  0.074305879  0.075028214            2 
 1578000   0.98512504   -3.3506702    1404.6687  0.074179801   0.07501316            3 
 1579000    1.0011844   -3.3358138    1404.7882  0.074139127  0.074997841            3 
 1580000   0.98058569   -3.3248316     1403.029  0.073999419  0.074982166            3 
 1581000    0.9677718   -3.3399484    1399.9266  0.073789088  0.074966374            2 
 1582000    1.0204077   -3.3429079    1403.2475  0.073917378  0.074950467            2 
 1583000    0.9887207   -3.3303488    1405.4531  0.073986793  0.074934572            1 
 1584000    1.0054987   -3.3164913    1407.9706   0.07407253  0.074918767            1 
 1585000   0.98347759    -3.348956    1403.1881  0.073774348  0.074903113            2 
 1586000    1.0059101   -3.3461581    1407.2385  0.073940652  0.074887233            3 
 1587000   0.99250409   -3.3125818    1414.4627  0.074273405  0.074871712            1 
 1588000    1.0142802   -3.3124729    1412.8376  0.074141354  0.074856627            1 
 1589000    1.0055356   -3.3286554    1400.0179  0.073422379  0.074841237            4 
 1590000    1.0167344   -3.3311092    1411.0367  0.073953706  0.074825572            2 
 1591000   0.99378271   -3.3132056    1409.8104  0.073842991   0.07480997            3 
 1592000     1.004705   -3.3206649    1410.7423  0.073845387  0.074794347            2 
 1593000   0.99983562   -3.3558702    1411.7638   0.07385247  0.074778707            4 
 1594000   0.98960571   -3.3207464    1412.9568  0.073868507  0.074762971            3 
 1595000    1.0312026    -3.338573    1409.7245  0.073653318  0.074747018            1 
 1596000   0.99974479   -3.3332005    1412.1821   0.07373549  0.074731509            6 
 1597000   0.99590681   -3.3460239     1411.824  0.073670634  0.074715846            2 
 1598000   0.97586808   -3.3602877    1416.1066  0.073847863  0.074699946            1 
 1599000   0.99946932   -3.3253368    1417.0356  0.073850092   0.07468397            3 
 1600000   0.98354565   -3.3389201     1412.949  0.073591091  0.074667809            2 
 1601000    1.0063095   -3.3398704    1411.4251  0.073465809   0.07465179            6 
 1602000    1.0005506   -3.3549309    1412.7568   0.07348922  0.074635845            2 
 1603000    0.9908694   -3.3523757    1414.4908  0.073533519  0.074619844            2 
 1604000    0.9717688   -3.2762028    1417.7312  0.073656028  0.074604445            3 
 1605000    1.0035012   -3.3337965    1419.5985  0.073707088  0.074588538            1 
 1606000    1.0026531   -3.3468957    1410.5014  0.073189155  0.074572205            3 
 1607000    1.0138617   -3.3282313    1421.6022  0.073719259  0.074556166            5 
 1608000   0.99944802   -3.3263463    1420.7739  0.073630489   0.07454019            9 
 1609000    0.9871033   -3.3419724    1420.6165  0.073576575   0.07452452            3 
 1610000   0.99648506    -3.365823    1419.3273  0.073464143  0.074508164            2 
 1611000    1.0068711   -3.3614978    1417.2736  0.073312313  0.074491608            2 
 1612000    1.0069535   -3.3327232    1417.8308  0.073295635  0.074475312            3 
 1613000   0.97379992    -3.341923    1421.9517  0.073463096  0.074459394            1 
 1614000   0.98272281   -3.3427822    1425.0836  0.073579285  0.074443722            5 
 1615000    1.0058759   -3.3551933    1420.4602  0.073295161  0.074427835            2 
 1616000    1.0008254   -3.3278763    1419.0765  0.073178451  0.074411663            3 
 1617000      1.00938   -3.3335078    1420.9894  0.073231779  0.074395857            6 
 1618000    1.0009293   -3.3588313    1419.3342  0.073101266  0.074379955            6 
 1619000    1.0119981   -3.3223392     1422.727  0.073230747  0.074364182            2 
 1620000     1.015223   -3.3307961    1421.0977  0.073101731  0.074348119            4 
 1621000   0.98851888   -3.3206232    1427.1934  0.073370009  0.074332065            4 
 1622000    1.0039647   -3.3219762    1421.6842  0.073041727  0.074316265            4 
 1623000   0.98785956   -3.3244661    1428.5859  0.073351092  0.074300387            2 
 1624000   0.99399014   -3.3823046    1425.7731  0.073161593  0.074284499            3 
 1625000   0.99884389   -3.3249958    1435.8636  0.073634033  0.074268894            2 
 1626000   0.98739754   -3.3533725    1427.7314  0.073171965  0.074253163            5 
 1627000   0.95450823   -3.3369069    1426.3261  0.073055017    0.0742371            2 
 1628000   0.98507081   -3.3584294    1424.8049  0.072932272  0.074220975            3 
 1629000   0.98299412   -3.3340676    1429.6062   0.07313312   0.07420512            2 
 1630000   0.96747557   -3.3526548    1429.7802  0.073097145  0.074188975            4 
 1631000   0.98442314   -3.3337148    1432.7005   0.07320154  0.074173545            2 
 1632000   0.98238771    -3.321976    1433.5067  0.073197849  0.074157544            4 
 1633000   0.98448273   -3.3405606    1434.1927  0.073188035  0.074141708            4 
 1634000   0.99974292   -3.3495004    1432.5761  0.073060796  0.074125958            3 
 1635000   0.97517973   -3.3163384    1436.1115  0.073196307  0.074110122            2 
 1636000    1.0046464   -3.3426258    1435.1445  0.073102309  0.074094284            9 
 1637000    1.0000372   -3.3564037     1436.595  0.073131489  0.074078151            2 
 1638000   0.97780744   -3.3113477    1433.7728  0.072943262  0.074062427            2 
 1639000   0.96312362   -3.3398935    1436.2126  0.073022811  0.074046759            3 
 1640000   0.97489108   -3.3316416    1435.1523  0.072924406  0.074030864            2 
 1641000   0.99265098   -3.3589537    1437.2221  0.072985076   0.07401468            2 
 1642000   0.99033554   -3.3741024    1440.7153  0.073117912  0.073998704            5 
 1643000   0.98402771   -3.3489442    1441.0555  0.073090664  0.073983053            3 
 1644000   0.98362104   -3.3527294    1444.8585  0.073238976  0.073967156            2 
 1645000   0.97452906   -3.3145199    1445.9245  0.073248455  0.073951536            2 
 1646000   0.97545219   -3.3677219    1443.6517  0.073088887   0.07393633            2 
 1647000    1.0090395   -3.3421716    1439.6109   0.07284006  0.073921056            4 
 1648000   0.97083054   -3.3256529    1444.5117  0.073043672  0.073905613            2 
 1649000    1.0025144   -3.3319237    1445.1596  0.073032123  0.073890581            3 
 1650000   0.96417531   -3.3326589    1444.8334  0.072971382  0.073874974            2 
 1651000   0.95753663    -3.365112    1447.4132  0.073057398  0.073859597            3 
 1652000   0.96425126   -3.3224004    1447.2948  0.073007205  0.073844488            4 
 1653000   0.98901965   -3.3300028    1449.3969  0.073069009  0.073829411            3 
 1654000   0.98026101   -3.3536706    1446.4633  0.072877032  0.073814423            2 
 1655000    1.0040131   -3.3364123    1451.2329  0.073073157   0.07379952            1 
 1656000   0.98743594   -3.3391841    1452.5012  0.073092854  0.073784855            2 
 1657000    1.0146102    -3.363971    1451.2416  0.072985394  0.073770156            4 
 1658000    1.0078789   -3.3765172    1456.0258  0.073181834   0.07375537            3 
 1659000   0.97998959    -3.353525    1457.0766  0.073190508  0.073740613            2 
 1660000   0.99055658   -3.3521136    1455.1616   0.07305028  0.073725682            3 
 1661000   0.97723822    -3.352379     1446.179   0.07255564  0.073710795            3 
 1662000   0.98278145   -3.3120047    1458.4231  0.073125905  0.073695946           10 
 1663000    0.9915278   -3.3570327    1459.7071  0.073146274  0.073680887            5 
 1664000   0.97052839   -3.3401289    1457.6616   0.07299988  0.073666215            5 
 1665000   0.98612407   -3.3439115    1458.0964  0.072977797  0.073651566            3 
 1666000   0.98790344   -3.3706078    1456.0688  0.072832571   0.07363676            2 
 1667000   0.96080485   -3.3409555    1452.7066  0.072620804  0.073621556            2 
 1668000    0.9966096   -3.3501555    1464.0161  0.073142292  0.073606603            3 
 1669000   0.98063941   -3.3291107    1468.1193   0.07330334  0.073592156            1 
 1670000   0.98099884   -3.3430876    1460.8369  0.072896052  0.073577671            4 
 1671000    1.0029089   -3.3519882    1463.2102  0.072970785  0.073562723            2 
 1672000   0.98330784    -3.360561    1460.7011  0.072802091  0.073548143            2 
 1673000   0.98025842   -3.3354478    1465.7166  0.073008396  0.073533251            3 
 1674000   0.95702583   -3.3502668    1459.9088  0.072675666  0.073518442            2 
 1675000   0.97875479   -3.3410221    1464.0195  0.072836791  0.073503674            3 
 1676000   0.99507846   -3.3661162    1462.9054  0.072737937  0.073488914            2 
 1677000   0.97453685   -3.3497373    1464.0469  0.072751288  0.073474338            4 
 1678000    1.0046975   -3.3367658    1464.4445  0.072727679  0.073459619            2 
 1679000   0.96966568    -3.327203    1470.3146  0.072975712  0.073445133            3 
 1680000   0.99252439   -3.3471869    1471.1001  0.072971236  0.073430604            2 
 1681000   0.96792877   -3.3428074     1469.426  0.072844835  0.073416171            1 
 1682000    1.0078261   -3.3727881    1469.2327  0.072791948  0.073402082            3 
 1683000   0.97848724   -3.3469408      1473.96  0.072982768  0.073387654            3 
 1684000   0.97521032   -3.3614539    1468.8148  0.072684818  0.073373178            2 
 1685000    0.9743185   -3.3529996    1475.5557  0.072975058  0.073358839            3 
 1686000    0.9549533   -3.3714718    1466.9078   0.07250434  0.073344357            3 
 1687000   0.99334203    -3.365064     1471.252  0.072675952  0.073329637            4 
 1688000   0.99829707   -3.3769208    1478.6242   0.07299685  0.073315022           11 
 1689000   0.99977423    -3.371295    1478.2073   0.07293306  0.073300953            2 
 1690000     1.003443   -3.3400499     1471.438  0.072556114  0.073286759            4 
 1691000   0.97591291   -3.3395425    1478.7205  0.072872093  0.073272337            4 
 1692000   0.99744298   -3.3222362    1479.3958  0.072862281  0.073258114            2 
 1693000   0.97654213   -3.3473052    1483.2403  0.073008481  0.073244237            3 
 1694000   0.98215879   -3.3388188    1479.9928  0.072805628  0.073229847            2 
 1695000   0.95407716   -3.3556851    1481.7947  0.072851261  0.073215654            7 
 1696000   0.97037252   -3.3380477    1480.4461  0.072742044  0.073201385            7 
 1697000   0.97886426   -3.3501834    1477.2057  0.072540057   0.07318702            1 
 1698000   0.95659319   -3.3670479    1480.2917  0.072648789  0.073172713            3 
 1699000   0.97435842   -3.3394781    1484.5573  0.072815248  0.073158346            3 
 1700000   0.95791137    -3.363896    1480.3461  0.072565983  0.073144174            2 
 1701000   0.97370924    -3.375051    1486.4531  0.072822511  0.073130026            3 
 1702000    1.0045753   -3.3302213    1486.2682  0.072770671  0.073115714            3 
 1703000   0.98212984    -3.338603    1487.3942  0.072783038  0.073101747            5 
 1704000   0.99149803   -3.3565925    1486.8835  0.072715353  0.073088014            4 
 1705000   0.99950171   -3.3391836    1488.6892  0.072760958   0.07307441            7 
 1706000   0.96943592   -3.3620337    1491.4628  0.072853788  0.073060842            3 
 1707000   0.97904018   -3.3510624    1488.6819   0.07267535  0.073047065            3 
 1708000   0.97226412   -3.3653554    1484.3878  0.072423291  0.073033368            3 
 1709000   0.97263977   -3.3693683    1481.8998  0.072259594  0.073019686            4 
 1710000   0.96704672    -3.350042    1488.4464  0.072536374    0.0730057            1 
 1711000    0.9781032   -3.3656011    1488.8252  0.072512431  0.072991744            2 
 1712000   0.97247897   -3.3860882    1485.8792  0.072326674   0.07297721            2 
 1713000    1.0150487   -3.3516526    1494.5959  0.072708501  0.072963288            3 
 1714000   0.95756836   -3.3422931    1489.2172  0.072404569  0.072949398            1 
 1715000   0.97286457   -3.3581904    1493.2823  0.072559877  0.072935661            3 
 1716000   0.97052112   -3.3399919    1498.3509  0.072763739  0.072921533            3 
 1717000   0.96489913   -3.3659775    1492.2515  0.072425331   0.07290743            3 
 1718000   0.99212665    -3.366444    1491.4931  0.072346386  0.072893427            4 
 1719000   0.99078539   -3.3908973    1493.8948   0.07242073  0.072879168            3 
 1720000    0.9937349   -3.3663326    1497.3631   0.07254666  0.072865031            2 
 1721000   0.99965068   -3.3437556     1495.343  0.072406691  0.072850427            3 
 1722000    0.9778343   -3.3922339    1489.6559  0.072089427  0.072836008            3 
 1723000   0.97210329   -3.3565945    1495.0788  0.072309866  0.072821422            2 
 1724000   0.95977435   -3.3765856    1496.8526  0.072353666  0.072807154            3 
 1725000    1.0021756   -3.3595207    1497.3122  0.072333922  0.072792495            3 
 1726000   0.97537166   -3.3978071    1495.7461  0.072216401  0.072777706            4 
 1727000   0.96349859   -3.3715066    1493.4266   0.07206266  0.072763272            3 
 1728000   0.95614281   -3.3523896    1496.7467  0.072181072  0.072748485            3 
 1729000   0.98483315     -3.35161    1491.7982  0.071900819  0.072733823            7 
 1730000   0.94869518   -3.3298243    1494.9464  0.072010907  0.072719447            3 
 1731000   0.99008477   -3.3703697     1491.659  0.071811046  0.072704511            3 
 1732000   0.98074074   -3.3863891    1493.8924  0.071877042   0.07268946            7 
 1733000   0.98308101   -3.3410507    1499.7376  0.072116638  0.072674872            4 
 1734000   0.97687024   -3.3637067    1501.9945  0.072183513  0.072660305            3 
 1735000   0.95726953   -3.3978372    1501.1782  0.072102701  0.072645905            1 
 1736000    0.9783287   -3.3675606    1504.4763  0.072219485  0.072631548            6 
 1737000   0.94436214   -3.3882356     1498.602  0.071896087  0.072617053            4 
 1738000   0.97230041   -3.3902477    1502.8766  0.072059676  0.072602475            2 
 1739000   0.98744653   -3.3715212    1510.0314  0.072361098  0.072588085            5 
 1740000   0.95586614   -3.3569785    1507.9863  0.072221567  0.072574002            2 
 1741000   0.97475276   -3.3688423    1506.3182  0.072100238  0.072560104            2 
 1742000   0.94571094   -3.3702509    1503.4564  0.071921946  0.072545471            2 
 1743000   0.96305201   -3.3735741    1507.7904  0.072087894  0.072530835            3 
 1744000   0.97907382   -3.3516003    1504.7056   0.07189916  0.072516494            2 
 1745000    0.9724395   -3.3995377    1509.8649  0.072104341  0.072502048            5 
 1746000   0.96642088   -3.3592217    1508.5295  0.071999308  0.072487923            2 
 1747000   0.95901387   -3.3769668    1508.4077  0.071952286  0.072473457            1 
 1748000   0.98685104   -3.4076615    1504.4398   0.07172196  0.072459052            2 
 1749000   0.97714049   -3.3553124     1514.937  0.072181101  0.072444498            3 
 1750000   0.96313811   -3.3656799    1510.6944   0.07193783      0.07243            2 
 1751000   0.96812639   -3.4102664    1506.1665  0.071681253  0.072415569            3 
 1752000   0.97106764   -3.3627844    1514.5478  0.072038991  0.072401172            3 
 1753000   0.97266285   -3.3626141    1508.0907  0.071690945   0.07238673            5 
 1754000   0.95208938   -3.3686379    1510.0562  0.071743451  0.072372229            3 
 1755000   0.97358596   -3.3872344    1514.4096  0.071909288  0.072357743            2 
 1756000   0.96637425   -3.3923538    1514.2359  0.071860092  0.072343108            4 
 1757000   0.97570337   -3.3681851    1509.3185  0.071585965  0.072328904            1 
 1758000   0.97049535   -3.3489507    1506.7193  0.071422037  0.072314317            3 
 1759000    1.0010861   -3.3719073    1517.7543  0.071904221  0.072299428            3 
 1760000   0.96764495   -3.3853626    1512.4213  0.071610856  0.072285157            2 
 1761000   0.97985288   -3.3951083    1520.8875  0.071970827  0.072270576            3 
 1762000   0.97626094   -3.3621069     1515.268  0.071664208  0.072256226            3 
 1763000   0.97229696   -3.3982254     1514.061  0.071566508  0.072241639            4 
 1764000    1.0030295   -3.3801119    1514.0348  0.071524696  0.072226693            4 
 1765000   0.98979666   -3.3563393    1520.5135  0.071790064  0.072212131            1 
 1766000   0.98968728   -3.3752178    1521.0289  0.071773729  0.072197764            2 
 1767000   0.94236963   -3.3852166    1519.3696  0.071654858  0.072183259            2 
 1768000   0.98212675   -3.3955042    1517.0783  0.071506329  0.072168688            5 
 1769000   0.97290472   -3.3541868    1521.0921  0.071654988  0.072154039            6 
 1770000   0.96722127   -3.3607316    1518.7218  0.071502907  0.072139462            1 
 1771000   0.96835633    -3.390357    1526.4371  0.071825573  0.072124744            3 
 1772000   0.97688522   -3.3818316    1522.5574  0.071602587  0.072110261            2 
 1773000   0.95104556   -3.3772679    1525.5921  0.071704836  0.072095794            2 
 1774000   0.94787479   -3.3903537    1526.8952  0.071725628  0.072081209            3 
 1775000   0.96641773   -3.3756753    1527.7294  0.071724383  0.072066748            3 
 1776000   0.95337579    -3.396121    1521.2824  0.071381493  0.072052505            1 
 1777000   0.95335862   -3.3686972    1528.9466  0.071700741  0.072038411            2 
 1778000   0.97815106   -3.3897234    1522.1731  0.071342946  0.072023921            2 
 1779000   0.95709975   -3.3900002    1524.3968  0.071407009  0.072009696            2 
 1780000   0.95701706   -3.3983066    1532.2259  0.071733422  0.071995415            3 
 1781000   0.96509526   -3.3747912    1526.0188  0.071402715  0.071981266            2 
 1782000   0.98496593   -3.3924348    1528.3422  0.071471298  0.071967115            4 
 1783000   0.97045609   -3.3556149     1535.495  0.071765515  0.071952911            6 
 1784000   0.95742327   -3.3823668    1524.8776  0.071229337  0.071938707            2 
 1785000   0.96676756   -3.3677332    1525.9603  0.071239977  0.071924654            2 
 1786000   0.97852387   -3.3858784    1531.6655  0.071466289  0.071910506            4 
 1787000   0.95223223   -3.3725112    1528.1907  0.071264254  0.071896431            3 
 1788000    0.9387504   -3.3795906    1527.3886  0.071187015  0.071882164            2 
 1789000   0.97515087   -3.3837605    1529.8196  0.071260463  0.071868097            4 
 1790000   0.94537596   -3.3687177     1539.919   0.07169083  0.071854058            3 
 1791000   0.95505391   -3.3707894     1535.759  0.071457241  0.071839973            4 
 1792000   0.94779704   -3.3592027    1531.9483  0.071240153  0.071825942            2 
 1793000   0.94299798   -3.3735729    1526.7102   0.07095697   0.07181166            2 
 1794000   0.97604354   -3.3851599    1532.5923   0.07119065  0.071797354            4 
 1795000    0.9408033   -3.4114266    1537.0207  0.071356578  0.071783074            3 
 1796000   0.97567932   -3.3717656    1548.1536  0.071833408  0.071769188            1 
 1797000   0.94746648   -3.3816842    1538.1617  0.071330073  0.071755222            2 
 1798000   0.96592104   -3.3697142    1540.5192  0.071399664  0.071741151            4 
 1799000   0.95888853   -3.3966928    1534.3523  0.071074316  0.071727043            2 
 1800000   0.98048244    -3.404878    1538.3155   0.07121831  0.071713232            6 
 1801000   0.95946159   -3.3623685     1536.181  0.071080001  0.071699366            2 
 1802000   0.94794095   -3.3915146    1541.2769  0.071276215  0.071685441            3 
 1803000   0.94645758   -3.3680785    1540.7016  0.071210093  0.071671136            4 
 1804000   0.96642224   -3.3884324    1543.1761  0.071284927  0.071657101            2 
 1805000   0.95795899   -3.3532652    1551.8068  0.071643894  0.071643146            2 
 1806000   0.96364769   -3.3972506    1544.8713  0.071284205   0.07162901            4 
 1807000   0.98165914   -3.3710517    1538.6918  0.070959775  0.071614969            3 
 1808000   0.92444508   -3.3679242    1547.4815   0.07132566  0.071600909            2 
 1809000   0.96183831   -3.3851838    1548.8711  0.071350245  0.071587373            3 
 1810000     0.958166   -3.3744547    1548.6304  0.071299743  0.071573297            5 
 1811000   0.97905428   -3.3913676     1543.877  0.071041645  0.071559181            3 
 1812000   0.96728026   -3.3536835    1549.5686  0.071264191  0.071545196            1 
 1813000   0.94674311   -3.3757906    1546.7628  0.071095918  0.071531184            2 
 1814000   0.95392551   -3.3725969    1545.7774  0.071011457   0.07151753            3 
 1815000   0.95324974   -3.4071498    1540.9136  0.070749019   0.07150378            4 
 1816000   0.97958304    -3.394125    1553.1624  0.071272138  0.071490013            2 
 1817000   0.98405341   -3.3936348    1554.0879  0.071275358  0.071476302            2 
 1818000   0.94709764   -3.3961576    1546.9828  0.070910467  0.071462497            2 
 1819000   0.98515185    -3.400357    1555.6848   0.07127015  0.071448601            3 
 1820000   0.96422444   -3.4042342    1559.9856  0.071427911  0.071434774            2 
 1821000   0.95253352    -3.388552    1549.7821  0.070921749    0.0714207            5 
 1822000   0.95898853   -3.3927034    1550.9994    0.0709385  0.071406602            4 
 1823000   0.96002187   -3.3779265    1551.5379  0.070924206  0.071392751            3 
 1824000   0.95142116   -3.3952506    1551.7086  0.070893117  0.071378528            2 
 1825000   0.95514613   -3.3936883      1553.56  0.070938815  0.071364273            4 
 1826000    0.9635927   -3.3768817    1550.9618   0.07078139  0.071350016            5 
 1827000   0.96845949   -3.3913126    1553.8193  0.070872986  0.071335893            2 
 1828000   0.98122177   -3.3768988    1554.5887  0.070869287  0.071321661            3 
 1829000   0.95802913   -3.4124211    1555.2858  0.070862303  0.071307785            3 
 1830000   0.94470848   -3.3593881    1561.6552  0.071113626  0.071293363            3 
 1831000   0.95413918   -3.3764007    1560.3472  0.071015256  0.071279652            2 
 1832000   0.95945768   -3.3556671    1560.2898  0.070973883  0.071265624            3 
 1833000   0.97302307   -3.3809714    1560.6971  0.070953676  0.071251788            4 
 1834000   0.93967151   -3.4000466    1558.6714  0.070822947  0.071237926            2 
 1835000   0.94100054   -3.3792929    1562.4241  0.070954775   0.07122412            4 
 1836000   0.96992711   -3.3967487    1568.4916  0.071191522  0.071210396            1 
 1837000   0.94398981   -3.3739666    1562.0156  0.070858993  0.071196683            3 
 1838000   0.95873639   -3.3904247    1560.7365  0.070762445  0.071182928            1 
 1839000   0.98291535   -3.4143394    1559.4829  0.070667162  0.071168929            3 
 1840000   0.95151345   -3.3830287    1559.5902  0.070633615  0.071155013            2 
 1841000    0.9625845   -3.3818951    1560.8319  0.070651452  0.071141009            2 
 1842000   0.93748875   -3.3966952     1565.087  0.070805599   0.07112714            2 
 1843000   0.97226912   -3.3966163    1559.7991  0.070528085  0.071113195            3 
 1844000   0.96882615   -3.3635308    1567.9958  0.070860258  0.071099304            2 
 1845000    0.9637521   -3.4237769    1560.1078  0.070465575  0.071085359            2 
 1846000   0.96882498   -3.4015095    1566.5182  0.070716783  0.071071244            4 
 1847000   0.95369268   -3.3978764    1565.1438  0.070616488  0.071057331            3 
 1848000   0.96352962   -3.3876921    1564.1885  0.070535194  0.071043512            4 
 1849000   0.92288824   -3.3957835    1568.6219  0.070696859  0.071029428            3 
 1850000   0.95390477   -3.4173299    1564.5479   0.07047513  0.071015416            1 
 1851000   0.95104744    -3.371465    1568.9205  0.070633915  0.071001303            2 
 1852000   0.95185083   -3.3898531    1576.3713  0.070931035  0.070987183            8 
 1853000   0.96147144   -3.3891778     1570.404  0.070624391  0.070973152            3 
 1854000   0.95470303   -3.3900267     1568.155  0.070485213  0.070959342            4 
 1855000   0.96986369   -3.3853254    1575.4908  0.070776764  0.070945309            2 
 1856000   0.96753654   -3.3889663    1567.8614  0.070396075   0.07093123            2 
 1857000     0.958448    -3.400669    1571.4504  0.070519224    0.0709174            3 
 1858000   0.95099314   -3.3862543    1580.5749  0.070890513  0.070903293            3 
 1859000   0.94332798   -3.3883774    1571.8257  0.070460178  0.070889319            4 
 1860000   0.92983058   -3.3956452    1573.0069   0.07047522  0.070875067            7 
 1861000   0.94426245   -3.4024549    1571.4103  0.070365855  0.070860824            3 
 1862000    0.9457028   -3.3867771    1576.1215  0.070538916  0.070846762            5 
 1863000   0.95704037   -3.3900196    1574.1228  0.070411649  0.070832836            3 
 1864000   0.93430407   -3.3889697    1574.7586  0.070402296  0.070818701            4 
 1865000    0.9605549   -3.4027862    1575.7085  0.070406993  0.070804524            4 
 1866000   0.94689237   -3.3821669    1570.5044  0.070136854  0.070790516            2 
 1867000   0.94169371   -3.3859821    1577.4169  0.070407826  0.070776384           12 
 1868000   0.96316122   -3.4020135    1575.0491  0.070264503  0.070762143            2 
 1869000   0.95600923   -3.4009564    1574.9854  0.070224068  0.070747965            4 
 1870000   0.94175221   -3.3752934    1577.2538  0.070287604  0.070733854            4 
 1871000    0.9470582   -3.4085704    1578.3023  0.070296734  0.070719371            5 
 1872000   0.94875057   -3.3818099    1584.9489  0.070555059   0.07070512            2 
 1873000   0.96948978   -3.3956634    1580.3313  0.070311948  0.070691166            1 
 1874000   0.97106221   -3.3822322    1582.6402    0.0703771  0.070677291            7 
 1875000   0.96175879   -3.4129484    1574.2373  0.069966104  0.070663151            3 
 1876000   0.93420881   -3.3980541    1579.9459  0.070182389  0.070648783            2 
 1877000   0.96682052   -3.3863323    1588.7054  0.070533894  0.070634716            5 
 1878000   0.94125568   -3.3927028    1588.7678  0.070499106  0.070620735            3 
 1879000   0.94038829   -3.3984294    1586.0053  0.070339069  0.070606557            4 
 1880000   0.96524976    -3.404694    1579.8581  0.070029171  0.070592564            5 
 1881000   0.96621964   -3.4060691    1587.2408  0.070319016  0.070578684            2 
 1882000   0.94292248   -3.4270471    1583.5738  0.070119281  0.070564658            3 
 1883000   0.97735461   -3.3851868      1590.94  0.070408037  0.070550752            4 
 1884000   0.96196087   -3.4217868    1582.7827  0.070009849   0.07053673            2 
 1885000   0.94406201   -3.4274313     1587.728  0.070191333  0.070522665            2 
 1886000   0.95305947   -3.3890799    1584.8856  0.070028527  0.070508713            3 
 1887000   0.97104057   -3.4047949    1586.3746  0.070057173  0.070494834            2 
 1888000   0.93795048   -3.3662031    1596.2126  0.070454298  0.070481121            3 
 1889000   0.95022722   -3.3897538    1590.2388  0.070153466  0.070467536            6 
 1890000   0.96128521   -3.4064426     1591.888  0.070189067  0.070453633            3 
 1891000   0.92891574   -3.3951778    1599.4557  0.070485443  0.070439852            2 
 1892000   0.94734723   -3.4095809    1596.1059  0.070300647  0.070426001            2 
 1893000   0.94118998   -3.3903951    1598.3183  0.070360904  0.070412382            2 
 1894000   0.94477843   -3.3919086    1596.3247  0.070236041  0.070398908            3 
 1895000   0.95033556   -3.4289932    1590.0905  0.069924824  0.070385533            3 
 1896000   0.96267685   -3.4089005    1589.3555   0.06985564   0.07037184            3 
 1897000   0.94287828   -3.4137917    1599.3202  0.070256556  0.070358063            6 
 1898000   0.94793582   -3.4154086    1598.9599  0.070203719  0.070344489            3 
 1899000   0.93495678   -3.3901488    1600.7503  0.070245316  0.070331277            1 
 1900000   0.94344122   -3.4090957     1596.559  0.070024517  0.070317775            2 
 1901000   0.95397715   -3.4014315    1597.9247  0.070047551  0.070304069            2 
 1902000   0.93839978   -3.4007292    1599.6189  0.070084948  0.070290452            2 
 1903000   0.94914131   -3.4097367    1600.6878  0.070094929  0.070276967            5 
 1904000     0.957325   -3.3886723    1598.4945  0.069962117  0.070263486            3 
 1905000   0.94758167   -3.4061102    1601.8106  0.070070453  0.070249749            1 
 1906000   0.95530798   -3.4161073    1596.5976   0.06980577  0.070236009            2 
 1907000   0.94673902   -3.4240481    1599.5392  0.069897708  0.070222011            2 
 1908000   0.92520855   -3.4191932    1602.0942   0.06997267    0.0702085            2 
 1909000   0.93544282   -3.4402552    1596.4321  0.069688845   0.07019489            4 
 1910000   0.96121544   -3.3721209    1605.4236  0.070044661  0.070181019            2 
 1911000   0.94407268   -3.3922808    1609.8913  0.070202832  0.070167333            4 
 1912000   0.96230952   -3.4185954    1610.2359   0.07018113  0.070153731            2 
 1913000   0.94158221   -3.4056347    1597.6517  0.069596258  0.070140128            2 
 1914000   0.94527668   -3.4135322    1602.2242  0.069758979  0.070126439            7 
 1915000    0.9559106   -3.4145504    1604.2316  0.069809905  0.070112849            2 
 1916000   0.95148394   -3.4122789    1613.4133  0.070172814  0.070099355            5 
 1917000    0.9595776   -3.3904504    1612.8272  0.070110727  0.070086065            6 
 1918000   0.92143936   -3.3979307    1610.2623  0.069962734  0.070072773            2 
 1919000   0.96337026   -3.4157859    1612.9415  0.070042623  0.070059246            5 
 1920000   0.94407519   -3.4087227    1606.7858  0.069738968  0.070046104            2 
 1921000   0.93943573    -3.422393    1611.9146   0.06992515  0.070032678            4 
 1922000   0.94620219   -3.4026534    1608.4912  0.069740339  0.070019187            6 
 1923000   0.94103188   -3.4045483    1609.8195  0.069761637  0.070005728            3 
 1924000   0.93969908   -3.4324594    1607.0829  0.069606846  0.069991982            4 
 1925000   0.94079445   -3.3867373    1613.6458  0.069854798  0.069978293            3 
 1926000   0.93757777    -3.391825    1615.5174  0.069899506  0.069964985           10 
 1927000   0.96110103   -3.3974475    1611.9927  0.069710807  0.069951243            5 
 1928000   0.93336825   -3.4090096    1610.9088    0.0696278  0.069937631            4 
 1929000   0.93332118   -3.4093077    1610.7961  0.069586837  0.069923691            3 
 1930000   0.95668102   -3.4155157    1609.6274  0.069500319  0.069909954            8 
 1931000   0.94283052   -3.4045772    1613.5729  0.069634598  0.069896319            2 
 1932000   0.96191562   -3.3974454    1618.6003  0.069815403  0.069882791            1 
 1933000    0.9564071   -3.3929453    1614.5926  0.069606511  0.069869203            4 
 1934000   0.93895163   -3.3738441    1617.3872  0.069690935  0.069855583            5 
 1935000   0.96002409   -3.4263703    1610.8563  0.069373655  0.069841958            6 
 1936000    0.9437226   -3.4420851    1610.6371  0.069328389  0.069828109            4 
 1937000   0.93500604   -3.4049362    1617.7858  0.069600146   0.06981447            4 
 1938000   0.94122604    -3.416416    1613.4906   0.06937954  0.069800948            1 
 1939000   0.93975978   -3.4123066     1620.621  0.069650208  0.069787424            3 
 1940000   0.91830987   -3.4133267    1620.4281  0.069606019  0.069773665            3 
 1941000    0.9265955   -3.4203162    1622.4135  0.069655397  0.069760175            1 
 1942000   0.94679783    -3.428418    1617.2109  0.069396281  0.069746248            3 
 1943000   0.93505505   -3.4193318    1620.3076  0.069493376  0.069732282            6 
 1944000   0.94164503   -3.4114687    1619.9695  0.069443137  0.069718554            1 
 1945000    0.9492084   -3.4328056     1616.362  0.069252869  0.069704716            2 
 1946000   0.94534187   -3.4008894    1620.2277  0.069382825  0.069690729            2 
 1947000     0.932414   -3.4138449    1623.1212  0.069471032  0.069677103            3 
 1948000   0.94040923   -3.3929077    1620.7167  0.069332507  0.069663457            3 
 1949000   0.95372379   -3.4337619    1621.1226  0.069314289   0.06964969            6 
 1950000   0.95220878   -3.4168659    1620.1955  0.069239122  0.069635851            4 
 1951000   0.95447275   -3.4277964    1620.0508  0.069197455  0.069622066            3 
 1952000   0.94492672   -3.4103042    1627.0292  0.069459923  0.069608348            2 
 1953000   0.92208547   -3.4205812    1627.1363  0.069428924  0.069594873            4 
 1954000   0.93374745   -3.4485363     1620.445  0.069108028  0.069581305            3 
 1955000   0.93051969   -3.4172696     1629.137  0.069443179  0.069567814            1 
 1956000   0.94968093   -3.4058856    1622.1521  0.069110094  0.069554225            2 
 1957000    0.9531233   -3.4234346    1626.7031  0.069268569  0.069540589            3 
 1958000   0.93426724   -3.4414518    1631.7135  0.069446436  0.069527027            2 
 1959000   0.95517463   -3.4546937    1619.3806  0.068886363  0.069513032            3 
 1960000   0.93896656   -3.4176954    1628.2283  0.069227395  0.069499014            2 
 1961000   0.94450044   -3.4042907    1628.9087  0.069221006  0.069484924            2 
 1962000    0.9469382   -3.4011666    1631.7748   0.06930746  0.069471167            4 
 1963000   0.95950046   -3.4169454    1622.1271  0.068862586  0.069457057            2 
 1964000   0.94583007   -3.4104556    1632.8313  0.069281709  0.069443178            2 
 1965000   0.92661397   -3.4180156    1630.8254  0.069161382  0.069429478            4 
 1966000   0.94851808   -3.4176215    1629.8877  0.069086459  0.069415776            3 
 1967000   0.91814015    -3.429935    1625.9296  0.068883648  0.069401681            2 
 1968000   0.94082374   -3.4234382    1628.3764  0.068952251   0.06938778            2 
 1969000   0.92832036   -3.4053259     1633.578  0.069137379  0.069373894            1 
 1970000    0.9373236     -3.41138    1637.1863   0.06925492   0.06936004            2 
 1971000   0.94988721   -3.4076856    1638.6407  0.069281276  0.069346349            4 
 1972000   0.95129557   -3.4036345    1637.1311   0.06918235  0.069332524            2 
 1973000    0.9647598   -3.4056131    1636.4129   0.06911695  0.069318646            1 
 1974000    0.9357891   -3.4249638    1634.9215  0.069018975   0.06930476            1 
 1975000   0.93710874   -3.4346185    1632.1095  0.068865378  0.069290813            3 
 1976000   0.94723777   -3.4260796    1635.5233  0.068974499  0.069276932            5 
 1977000   0.93862638   -3.4499732    1633.1075  0.068837778  0.069262959            1 
 1978000   0.92415348   -3.4130208    1639.8434  0.069086764    0.0692488            5 
 1979000   0.93219363   -3.4340727    1635.1536  0.068854371  0.069234787            3 
 1980000    0.9233016   -3.4311374     1639.477  0.069001556    0.0692207            2 
 1981000   0.91376384   -3.4116608    1641.3597  0.069045925   0.06920679            5 
 1982000   0.91646427    -3.427188    1635.8953  0.068781337  0.069192868            3 
 1983000   0.94816697   -3.4272054    1638.1758  0.068842486  0.069178897            3 
 1984000   0.95276266   -3.4145506    1640.5402  0.068907096  0.069164705            3 
 1985000   0.93418955   -3.4250408    1638.7568  0.068797515   0.06915064            5 
 1986000   0.94424309   -3.4045699     1642.109  0.068903532  0.069136782            3 
 1987000   0.94934715   -3.4425599    1638.1997  0.068704903  0.069122828            3 
 1988000   0.95020071   -3.4390534    1641.3038   0.06880046  0.069108782            3 
 1989000    0.9186798   -3.4296747    1642.7724  0.068827402  0.069095012            2 
 1990000   0.94168043   -3.4029269    1639.6885  0.068663673  0.069081397            7 
 1991000   0.94246304   -3.4343805    1641.2661  0.068695218  0.069067492            1 
 1992000   0.91795234   -3.4264434    1641.7793  0.068682199  0.069053789            2 
 1993000   0.90945366   -3.4006384    1651.9087  0.069071277   0.06904004            4 
 1994000   0.92857178   -3.4258071    1644.9033  0.068743869  0.069026455            6 
 1995000   0.93632969   -3.4035847    1649.8569  0.068916328  0.069012727            3 
 1996000   0.93264216   -3.4370705    1647.0448  0.068764394  0.068999087            4 
 1997000   0.94171444   -3.4476041    1644.7806  0.068635477  0.068985521            4 
 1998000   0.92295652   -3.4311206    1647.9577   0.06873364  0.068971751            5 
 1999000   0.92848824   -3.4450573    1646.1598  0.068624302  0.068958037            6 
 2000000   0.94224487   -3.4205089    1653.9718  0.068915491  0.068944237           10 
 2001000   0.94681441   -3.4121575    1652.3606   0.06881395  0.068930734            3 
 2002000   0.95117555   -3.4184056     1649.736  0.068670329  0.068917359            2 
 2003000   0.92121692   -3.4009487    1646.6216  0.068506474  0.068903913            3 
 2004000   0.94161715   -3.4249567    1648.4294  0.068547465  0.068890821            2 
 2005000   0.92720062   -3.4285906    1649.7515  0.068568226  0.068877112            2 
 2006000   0.93771385    -3.438518    1653.7286  0.068699261  0.068863545            3 
 2007000   0.94396553   -3.4186575    1654.6336  0.068702606  0.068849959            3 
 2008000   0.93240294   -3.4194058    1652.8742  0.068595377  0.068836538            6 
 2009000   0.94122303   -3.3937846    1654.5169   0.06862937  0.068822894            3 
 2010000   0.92841259   -3.3995468    1658.0244  0.068740646   0.06880941            3 
 2011000    0.9222381   -3.4461988    1650.8607  0.068409609  0.068796265            2 
 2012000   0.94246299   -3.4384409    1652.9711  0.068463018  0.068782566            1 
 2013000   0.91227546   -3.4213906    1656.8035  0.068587658  0.068768706            2 
 2014000   0.92661365   -3.4290823    1657.2567  0.068572357  0.068755135            2 
 2015000   0.94446711   -3.4144391    1659.3368  0.068624351  0.068741471           10 
 2016000   0.93036127   -3.4533218    1653.8777  0.068364653  0.068727512            2 
 2017000    0.9234562   -3.4271821    1657.0363   0.06846126  0.068713636            2 
 2018000   0.94053536    -3.448804    1650.0798  0.068140066   0.06869984            3 
 2019000    0.9371095    -3.446623    1659.1071  0.068478914  0.068686145            3 
 2020000   0.92725889   -3.4199769    1658.0653  0.068402033  0.068672462            3 
 2021000   0.90599871    -3.391862    1660.6105  0.068473137  0.068658914            5 
 2022000   0.93412371   -3.4438228    1665.3809  0.068635875  0.068645379            3 
 2023000    0.9084344   -3.4391082    1658.5292  0.068319707  0.068631629            1 
 2024000   0.90559675   -3.4288623    1666.1576  0.068600034  0.068617981            2 
 2025000   0.90392365   -3.4400712     1663.158  0.068442718  0.068604387            7 
 2026000   0.93629356   -3.4091518    1662.7701   0.06839298  0.068590727            4 
 2027000   0.91997523   -3.4400098    1655.6643  0.068067106    0.0685771           10 
 2028000   0.92932273    -3.451168    1657.8248  0.068122322  0.068563542            4 
 2029000   0.91678003   -3.4463275    1662.6947  0.068288758  0.068549879            2 
 2030000   0.93567354   -3.4234356    1667.7033  0.068460728  0.068536366            2 
 2031000   0.93723414   -3.4356297    1668.0425  0.068440938   0.06852283            2 
 2032000   0.91059298   -3.4300766    1666.6746  0.068351158  0.068509206            5 
 2033000   0.92631376   -3.4187323    1665.0592  0.068251321  0.068495626            2 
 2034000   0.92527932    -3.445537    1670.2781  0.068431583   0.06848199            2 
 2035000   0.92613774   -3.4226749    1672.3307  0.068482012  0.068468425            4 
 2036000   0.94485944   -3.4513453    1668.5315  0.068292873  0.068454971            3 
 2037000    0.9186933   -3.4397646    1670.3511  0.068333788  0.068441635            2 
 2038000    0.9324562   -3.4475216    1672.4871  0.068387597  0.068428307            6 
 2039000   0.88757437   -3.4205079    1666.7636  0.068120142  0.068414812            4 
 2040000   0.92866284   -3.4210829    1671.9521  0.068298698  0.068401291            3 
 2041000   0.93137777   -3.3912375    1669.9612  0.068183946  0.068387937            3 
 2042000   0.92033916   -3.4415644    1672.4772  0.068253233  0.068374216            2 
 2043000   0.94182815   -3.4496852    1667.4218  0.068013616  0.068360362            2 
 2044000   0.94176445   -3.4427185    1670.6109  0.068110361   0.06834645            4 
 2045000   0.93546986   -3.4367524     1667.846  0.067964385  0.068332714            2 
 2046000   0.92073994   -3.4467673    1673.1081  0.068145492  0.068319003            3 
 2047000   0.92558924   -3.4614863    1668.4217  0.067921419  0.068305246            3 
 2048000   0.92071721    -3.447328    1674.1676  0.068122054  0.068291208            2 
 2049000   0.92951147   -3.4402042    1669.1803  0.067885975  0.068277176            5 
 2050000   0.91930202   -3.4191593    1678.3104     0.068224  0.068263329            3 
 2051000   0.92699621   -3.4379981    1667.4019  0.067747519  0.068249522            3 
 2052000   0.93398334   -3.4314828    1680.0465  0.068228007   0.06823582            3 
 2053000   0.92243771   -3.4397823    1669.4714   0.06776552  0.068222041            1 
 2054000   0.90507825   -3.4479565    1674.5007  0.067936573  0.068208109            4 
 2055000   0.91316657   -3.4446556    1672.5026  0.067822489   0.06819436            1 
 2056000   0.93497529   -3.4741435    1671.8023   0.06776112  0.068180417            5 
 2057000   0.90183075   -3.4554544    1674.8562  0.067851896  0.068166716            2 
 2058000    0.9076131   -3.4464081    1681.2794  0.068079016  0.068152936            2 
 2059000   0.92921532   -3.4459344    1675.5876  0.067815592  0.068139348            4 
 2060000   0.92568721   -3.4505515    1677.2722  0.067850817    0.0681258            6 
 2061000   0.91339501   -3.4256577    1679.0688  0.067890537   0.06811223            6 
 2062000   0.93934221   -3.4251396     1675.859  0.067727895  0.068098409            2 
 2063000   0.92522558   -3.4672848    1676.9528  0.067739246  0.068084635            3 
 2064000   0.93067898   -3.4149119    1682.3122  0.067922811  0.068070964            3 
 2065000   0.91459347    -3.430109    1681.7424  0.067866924  0.068057363            4 
 2066000   0.90889421   -3.4239954    1684.0922  0.067928856  0.068043716            2 
 2067000   0.93834687   -3.4318791    1683.4859   0.06787155  0.068030124            2 
 2068000   0.91363183   -3.4203312    1683.3902  0.067834874  0.068016667            3 
 2069000   0.91083434   -3.4225772    1681.7462  0.067735871   0.06800297            2 
 2070000   0.93566192   -3.4709779    1684.5317  0.067815284  0.067989427            3 
 2071000   0.91554764    -3.440757    1691.9742  0.068082014  0.067976037            5 
 2072000   0.92037643    -3.453097    1678.5156  0.067507867  0.067962663            3 
 2073000   0.90968517    -3.459341    1686.1083  0.067780525  0.067949219            2 
 2074000    0.9240292   -3.4097736    1688.0237  0.067824804    0.0679358            7 
 2075000    0.9114078   -3.4350647    1688.7158   0.06781991  0.067922331            5 
 2076000    0.9086779   -3.4557455    1690.6279  0.067863996   0.06790865            3 
 2077000   0.92078295   -3.4437707    1690.2541  0.067816327  0.067895116            3 
 2078000   0.91189987   -3.4316899      1687.36  0.067667627  0.067881605            1 
 2079000    0.8990791    -3.451026    1685.4535  0.067558661  0.067868127            2 
 2080000    0.9334477   -3.4392844    1692.8897  0.067824106  0.067854754            2 
 2081000   0.93243326   -3.4316449    1692.2943  0.067767673  0.067841323            4 
 2082000   0.90913792   -3.4335712    1694.3799  0.067818598  0.067828234            2 
 2083000   0.90598788   -3.4247051    1694.2068  0.067779115  0.067814774            3 
 2084000   0.91672567   -3.4413851    1690.4117  0.067594837  0.067801351            6 
 2085000   0.91839883   -3.4283929    1700.1118  0.067950114  0.067788118            3 
 2086000   0.91969879   -3.4298208    1692.8318  0.067626709  0.067775014            2 
 2087000   0.90724836   -3.4530628    1692.9986  0.067600966  0.067761626            3 
 2088000   0.91427835   -3.4586916     1689.908  0.067445245  0.067748258            7 
 2089000   0.92026693    -3.444661    1698.0462  0.067737603  0.067734744            6 
 2090000   0.90771468   -3.4410423    1697.2951  0.067675244  0.067721444            3 
 2091000   0.91988365   -3.4630734    1693.7247  0.067500585  0.067708121            1 
 2092000    0.9201735   -3.4517977    1698.5294  0.067659712  0.067694724            3 
 2093000   0.91233657   -3.4443495    1699.8622  0.067680449  0.067681516            7 
 2094000   0.90417204    -3.451534    1694.3077  0.067427081  0.067668386            3 
 2095000    0.9063135   -3.4443574    1698.0194  0.067542539  0.067654962            3 
 2096000   0.91644232   -3.4557211    1695.2233  0.067399146   0.06764138            3 
 2097000   0.90316317   -3.4473912    1697.3037  0.067449678  0.067628043            4 
 2098000   0.92328926   -3.4060563     1696.237  0.067375159  0.067614595            1 
 2099000   0.90561466   -3.4225245    1699.1139  0.067457275  0.067601141            3 
 2100000   0.92573149   -3.4715487     1700.755  0.067490278  0.067587402            2 
 2101000   0.91360673   -3.4662764    1702.8028  0.067539378  0.067573996            3 
 2102000   0.91618732   -3.4364971    1700.0797  0.067399289  0.067560855            5 
 2103000    0.9116777   -3.4739849    1698.2791  0.067295891  0.067547645            3 
 2104000   0.92610227   -3.4343349    1703.8342  0.067483929  0.067534368            2 
 2105000   0.92140924   -3.4610811    1702.0997  0.067383202  0.067521159            3 
 2106000   0.90340853   -3.4467276    1706.2037  0.067513598  0.067507787            2 
 2107000   0.92103884   -3.4470664    1709.2017  0.067600131  0.067494615            3 
 2108000   0.91883351   -3.4375502    1707.0079  0.067481338  0.067481204            3 
 2109000    0.9230905   -3.4285033    1698.3389  0.067106799  0.067468067            2 
 2110000   0.90981194   -3.4503604    1708.7273  0.067485281  0.067454941            7 
 2111000   0.93607512   -3.4445957    1710.5738  0.067526202  0.067441822            3 
 2112000   0.91728775   -3.4447204    1706.9876  0.067352732  0.067428675            2 
 2113000   0.92992939   -3.4488393    1704.3242  0.067215814  0.067415286            3 
 2114000   0.92150486   -3.4468182    1709.1667   0.06737491  0.067402317            3 
 2115000   0.89658621    -3.442535    1715.9715  0.067611172  0.067389212            3 
 2116000   0.90254493   -3.4514699    1712.2782  0.067433767   0.06737634            6 
 2117000   0.92755878   -3.4342724    1707.5674  0.067216477  0.067363467            4 
 2118000   0.91891949   -3.4725264    1713.4858  0.067417605  0.067350681            4 
 2119000   0.90909746   -3.4778701    1711.7294  0.067316712  0.067337842            2 
 2120000   0.89873992   -3.4682501    1708.4605  0.067156466  0.067324777            2 
 2121000   0.89525357   -3.4162377    1713.0336  0.067304478  0.067311624            4 
 2122000   0.91210914   -3.4362187    1716.2961  0.067400885  0.067298749            4 
 2123000   0.91576396   -3.4767176    1711.7873  0.067192155  0.067285806            5 
 2124000   0.92712987   -3.4720306    1713.9712  0.067246203  0.067272776            4 
 2125000   0.90292383   -3.4434807    1711.4881  0.067117181  0.067259744            2 
 2126000   0.89954212   -3.4648332     1712.422  0.067122217  0.067246643            2 
 2127000   0.91948199   -3.4571598     1713.837  0.067146098  0.067233699            3 
 2128000   0.91460285    -3.458538    1715.1147   0.06716458  0.067220732            2 
 2129000   0.92133025   -3.4551745    1715.5814    0.0671513  0.067207714            4 
 2130000   0.90203551   -3.4447794    1723.9144   0.06744579  0.067195112            2 
 2131000   0.92608197   -3.4844284    1718.1767  0.067189764  0.067182135            5 
 2132000   0.93272662   -3.4583496     1718.631  0.067176008  0.067169339            4 
 2133000   0.92874078   -3.4703421    1714.8841  0.066998129  0.067156444            2 
 2134000   0.88583654   -3.4550498    1726.1188   0.06740545  0.067143787            5 
 2135000    0.9153611   -3.4345973    1724.2396  0.067300531  0.067131214            2 
 2136000   0.88927682   -3.4237334    1736.4526  0.067745499  0.067118592            4 
 2137000   0.91025493   -3.4513769    1724.3416  0.067241523  0.067105851            3 
 2138000   0.91428952   -3.4610209    1717.7723   0.06695402  0.067093128            2 
 2139000   0.90119694   -3.4449676    1721.6936  0.067075488  0.067080128            3 
 2140000    0.9220013   -3.4346792    1725.2271  0.067181741  0.067067502            3 
 2141000   0.87562661   -3.4322866    1725.9781  0.067179593  0.067054503            4 
 2142000   0.92824732   -3.4475621    1719.5496  0.066898133  0.067041467            2 
 2143000   0.90926358   -3.4870291    1719.1237  0.066850354  0.067028496            5 
 2144000   0.93067506   -3.4419234    1722.4717  0.066949303  0.067015379            7 
 2145000   0.90875093   -3.4871298    1719.7885  0.066813849  0.067002438            6 
 2146000   0.94153067   -3.4499853    1725.7084  0.067012597  0.066989264            4 
 2147000   0.89745564   -3.4518018    1725.6853  0.066980489  0.066976498            4 
 2148000   0.89960972   -3.4932735    1728.7737  0.067069124  0.066963331            2 
 2149000   0.92000582   -3.4734746    1720.3765   0.06671229  0.066950327            4 
 2150000   0.92205465   -3.4587419    1733.7607  0.067200026  0.066937289            3 
 2151000   0.91344132   -3.4950378    1722.0467  0.066714965  0.066924292            5 
 2152000   0.89897985   -3.4602744    1727.4232   0.06689216  0.066911334            4 
 2153000   0.90485428    -3.444351    1731.3659  0.067013696  0.066898576            4 
 2154000   0.89572751    -3.455824    1728.1581  0.066858485  0.066885892            3 
 2155000   0.91551801   -3.4587651    1729.9105  0.066895225   0.06687307            2 
 2156000   0.90702126   -3.4553912    1727.0772  0.066754685  0.066860262            2 
 2157000   0.91445325   -3.4629477    1730.3103  0.066848645  0.066847714            3 
 2158000   0.91336897   -3.4495831    1731.3237  0.066856801  0.066835135            3 
 2159000   0.90728104   -3.4394246    1733.3394  0.066903637  0.066822312            3 
 2160000   0.92952296   -3.4682407    1739.0265  0.067092071  0.066809494            4 
 2161000   0.91471026   -3.4542517    1728.0593  0.066638104  0.066796559            4 
 2162000   0.89289102   -3.4409307    1737.0305  0.066953073  0.066783779            2 
 2163000   0.91283628   -3.4760208    1734.7188  0.066833056  0.066770825            4 
 2164000   0.91393943   -3.4986718    1735.8822  0.066846972  0.066757752            3 
 2165000   0.92707417    -3.479581    1736.5993  0.066843701  0.066744885            3 
 2166000   0.88179811   -3.4721498     1732.409  0.066651624  0.066731889            9 
 2167000    0.9147926    -3.458736    1739.0663  0.066876877  0.066719028            3 
 2168000   0.89999163   -3.4630917    1739.4522  0.066860861  0.066706365            5 
 2169000   0.90555397   -3.4745504     1742.379  0.066942487  0.066693743            3 
 2170000   0.91005853   -3.4616345    1740.8649  0.066853491  0.066681205            2 
 2171000   0.91088222   -3.4742392    1737.9353  0.066710246  0.066668741            4 
 2172000   0.90214497   -3.4621643    1744.2067  0.066920148  0.066656275            2 
 2173000   0.89845393   -3.5029305    1736.5358  0.066595174  0.066643669            4 
 2174000   0.89218359   -3.4809436    1744.9418  0.066886761  0.066631142            3 
 2175000   0.90264013   -3.4648918    1745.5765  0.066880324  0.066618427            3 
 2176000   0.89998795   -3.4589984    1745.6154  0.066851079  0.066605975            2 
 2177000   0.91167212   -3.4539758    1752.1034  0.067068724  0.066593506            4 
 2178000   0.88948554   -3.4552465    1742.2253  0.066659983  0.066581089            4 
 2179000   0.90090034    -3.452213    1745.7922  0.066765804  0.066568552            2 
 2180000   0.88901617   -3.4687013    1741.9767  0.066589322     0.066556            3 
 2181000   0.89753058   -3.4591016    1742.9714  0.066596797  0.066543519            3 
 2182000   0.90174611   -3.4637653    1742.6275  0.066553144  0.066531114            3 
 2183000   0.90835152   -3.4645199    1744.9694  0.066612054  0.066518416            3 
 2184000    0.8886763   -3.4728224    1746.4724  0.066638904  0.066505907            2 
 2185000   0.88848807   -3.4653426    1743.0722  0.066478724  0.066493182            2 
 2186000   0.90815004   -3.4759451    1751.4932  0.066769335  0.066480639            2 
 2187000   0.90221633   -3.4488098    1752.4931  0.066776903  0.066468141            4 
 2188000   0.88927443   -3.4475143    1755.3268  0.066854312   0.06645574            5 
 2189000    0.9250566   -3.4859514    1752.5367  0.066717555  0.066443286            1 
 2190000   0.88478003   -3.4829032    1746.2181  0.066446655  0.066430808            3 
 2191000   0.89721508   -3.4746376    1745.5468  0.066390794  0.066418253            2 
 2192000   0.89776766   -3.4828159    1742.6799  0.066251518  0.066405695            1 
 2193000   0.91684301   -3.4760329    1752.3365  0.066588254   0.06639308            1 
 2194000   0.89642434   -3.4924026    1754.0584  0.066623307  0.066380594            2 
 2195000   0.88710391   -3.4741041     1751.644  0.066501292  0.066367759            5 
 2196000   0.88113847   -3.4694549    1753.2156  0.066530648     0.066355            2 
 2197000   0.87176409   -3.4417514     1751.132  0.066421332  0.066342447            2 
 2198000   0.90313981   -3.4602899     1750.077  0.066351115  0.066329766            4 
 2199000   0.90307315   -3.4806536    1755.9012  0.066541654  0.066317204            3 
 2200000   0.90173896   -3.4645235    1755.7225   0.06650464  0.066304506            3 
 2201000   0.89654958   -3.4830942    1755.8358  0.066478714  0.066291988            4 
 2202000    0.9053688   -3.4795654    1760.6016  0.066628882  0.066279625            2 
 2203000   0.88810684    -3.435319    1758.8153  0.066531066  0.066267119            4 
 2204000   0.91718851   -3.4758311    1753.2917  0.066292033   0.06625481            8 
 2205000    0.9012328   -3.4806296    1752.4141  0.066228801  0.066242292            2 
 2206000    0.8998289   -3.4521678    1757.2146  0.066380123  0.066229744            2 
 2207000   0.89337853   -3.4727598    1753.5683  0.066212367  0.066216962            3 
 2208000   0.89326994   -3.4955367    1758.2289  0.066358277  0.066204117            2 
 2209000   0.90839331   -3.4735675      1761.55  0.066453523  0.066191449            2 
 2210000   0.90170832   -3.4623932    1761.3985  0.066417743  0.066178856            3 
 2211000   0.87830496   -3.4807133    1757.8447  0.066253757  0.066166249            4 
 2212000   0.90208159   -3.4924972    1759.5841  0.066289336  0.066153731            2 
 2213000   0.91693268   -3.4825269    1757.7674   0.06619097  0.066141214            3 
 2214000   0.89234242   -3.4715242    1763.1204  0.066362556  0.066128658            3 
 2215000   0.88653939   -3.4506942    1759.7117  0.066204354  0.066116166            4 
 2216000   0.91069628   -3.4687691    1771.6022  0.066621624  0.066103731            5 
 2217000   0.91860488   -3.4979104    1767.1607  0.066424625  0.066091311            5 
 2218000   0.88391019   -3.4844371    1760.9429  0.066161065  0.066078787            2 
 2219000   0.90079641   -3.4677542    1767.8066  0.066389013  0.066066556            2 
 2220000   0.89560481   -3.4848159    1765.8388  0.066285242  0.066054186            4 
 2221000   0.88110096   -3.4685449    1764.7812  0.066215714  0.066042024            2 
 2222000   0.88978143   -3.4758044    1770.0709  0.066384296  0.066029786            2 
 2223000   0.90547429   -3.5050424    1764.8614  0.066159146  0.066017321            3 
 2224000   0.89316978   -3.4561549     1767.804  0.066239659  0.066004875            3 
 2225000   0.89482789    -3.465069    1771.7392  0.066357275  0.065992621            6 
 2226000   0.90006183   -3.4628412    1774.0704  0.066414734  0.065980349            3 
 2227000    0.8819744   -3.4823614    1772.6946   0.06633343  0.065967912            5 
 2228000   0.89087827    -3.464204    1771.7405  0.066267973   0.06595584            6 
 2229000    0.8908359   -3.4712022    1769.2878  0.066146544  0.065943696            5 
 2230000   0.90596467   -3.4655186    1769.2516   0.06611553  0.065931399            4 
 2231000   0.89293299   -3.4837676    1776.5731  0.066359371  0.065919226            3 
 2232000   0.87790313   -3.4858198    1772.7254  0.066185985  0.065906974            3 
 2233000   0.90732506   -3.4827181    1777.1785   0.06632253   0.06589463            1 
 2234000   0.88939802   -3.4841979    1775.6955  0.066237522  0.065882185            6 
 2235000   0.88060349   -3.4572288     1771.021  0.066033594  0.065869743            3 
 2236000   0.90564718   -3.4918612    1775.3049  0.066163719  0.065857481            7 
 2237000   0.88656615   -3.5007326    1772.7842   0.06604024   0.06584514            2 
 2238000   0.90448336   -3.5007575     1768.112   0.06583676  0.065832683            3 
 2239000   0.89138209   -3.5232639    1775.2986  0.066074833  0.065820214            3 
 2240000   0.91801407   -3.4847643    1771.9038   0.06591904  0.065807583            7 
 2241000   0.88959413   -3.4908339    1771.5053  0.065874807  0.065794959            2 
 2242000   0.88472571   -3.4948024    1774.1874  0.065945115  0.065782336            4 
 2243000   0.90107605   -3.4983672     1773.889  0.065904629   0.06576981            2 
 2244000   0.89555148     -3.50495    1768.4806  0.065674414  0.065757222            4 
 2245000   0.89693806    -3.498081     1781.119  0.066114292   0.06574475            2 
 2246000   0.88108995   -3.5101214    1771.4457  0.065725948  0.065732125            6 
 2247000   0.88394891   -3.4741104    1779.1127  0.065981039  0.065719772            3 
 2248000    0.9152843   -3.4841535    1775.4168  0.065814678  0.065707282            2 
 2249000    0.8903885    -3.513324    1773.0769  0.065698712  0.065694634            5 
 2250000   0.90986079   -3.4767432    1771.7859    0.0656217  0.065681852            5 
 2251000   0.88679564   -3.4877896    1780.2067   0.06590429  0.065669213            2 
 2252000   0.88403649   -3.5024198    1779.1311  0.065835224  0.065656637            3 
 2253000   0.89743874    -3.478676    1783.0043  0.065949263  0.065643927            6 
 2254000   0.89678816   -3.4885147    1781.9411  0.065880697  0.065631166            3 
 2255000    0.8951418   -3.5065997    1774.1935  0.065565172  0.065618464            2 
 2256000   0.89043895   -3.4888493     1784.307  0.065909684  0.065605584            4 
 2257000   0.89757254    -3.494466    1775.4101  0.065551989  0.065592665            5 
 2258000    0.8807981   -3.4604894    1782.0009  0.065766198  0.065579825            3 
 2259000   0.88518777   -3.4972805    1783.4185  0.065789379  0.065567052            2 
 2260000   0.90050741   -3.4879576    1782.0288  0.065709025  0.065554132            3 
 2261000   0.87462281   -3.5011276    1783.1801  0.065722396  0.065541512            2 
 2262000   0.88887789   -3.4934528    1776.6743  0.065453664  0.065528689            3 
 2263000   0.88395122   -3.4726432    1787.1267  0.065809646  0.065516155            2 
 2264000    0.8976433   -3.4868506    1785.9439   0.06573704  0.065503593            4 
 2265000   0.87127187   -3.5002017    1785.8069  0.065702977  0.065491122            3 
 2266000    0.9210033   -3.4822846    1784.3915  0.065621931  0.065478645            3 
 2267000   0.89269092   -3.5034824    1781.4672  0.065485486  0.065465916            4 
 2268000   0.88994069   -3.4811447     1778.895  0.065362103  0.065453298            2 
 2269000   0.89722857    -3.500405    1781.0234  0.065411467  0.065440285            3 
 2270000   0.88251084   -3.5034597    1782.7766  0.065447011  0.065427451            5 
 2271000   0.89377172   -3.4778559    1789.3328  0.065658771  0.065414945            4 
 2272000   0.88507118   -3.5186834    1788.3206  0.065592745   0.06540215            4 
 2273000   0.90438303   -3.4845274    1787.9064  0.065548703  0.065389646            4 
 2274000   0.88603043   -3.5201456    1786.1243   0.06545457  0.065377025            5 
 2275000   0.88247896    -3.497368    1787.8692  0.065489714  0.065364347            9 
 2276000   0.88014455   -3.4992658    1788.7326  0.065492554  0.065351555            5 
 2277000   0.88990332   -3.4682896    1790.6038  0.065532273  0.065338989            3 
 2278000   0.87654687    -3.491951    1787.4134  0.065386795  0.065326408            4 
 2279000   0.91181383   -3.4773155     1787.174  0.065349348  0.065313816            4 
 2280000    0.8935875    -3.469827    1789.7404  0.065414487  0.065301095            2 
 2281000   0.88601129   -3.5169234     1791.054  0.065433802  0.065288413            4 
 2282000   0.87804509   -3.5105235    1791.1762  0.065409591  0.065275818            5 
 2283000   0.89496041   -3.4847522    1790.9514  0.065372732  0.065263113            4 
 2284000   0.87962295   -3.5131946    1785.2371  0.065135621   0.06525045            2 
 2285000    0.8879211    -3.505113    1789.9066  0.065277409  0.065237529            5 
 2286000   0.88483705    -3.504445    1795.1726   0.06544082  0.065224982            2 
 2287000   0.88563281   -3.5038226    1794.3964  0.065383925  0.065212328            3 
 2288000   0.88010282   -3.4851374    1800.4557   0.06557604  0.065199348            3 
 2289000   0.89303914   -3.5046497    1787.4511  0.065073943  0.065186374            2 
 2290000   0.87053324   -3.4933349    1786.9574  0.065027561  0.065173479            2 
 2291000   0.87586219   -3.5222214    1789.3663  0.065086799  0.065160522            4 
 2292000   0.89868501   -3.4969343    1792.0912  0.065157476  0.065147696           11 
 2293000   0.88193659   -3.4904584    1794.5006  0.065216624  0.065134999            2 
 2294000   0.90074559    -3.508919    1789.9131  0.065021545  0.065122313            5 
 2295000   0.86789626   -3.4973151    1796.4611  0.065230977  0.065109556            5 
 2296000   0.88953814    -3.447069    1803.5689  0.065460542  0.065096881            4 
 2297000   0.88182741   -3.5152176    1800.0654   0.06530494  0.065084241            4 
 2298000    0.8732298    -3.469456    1796.5273   0.06514822  0.065071548            1 
 2299000    0.8864598   -3.4776092    1801.1451  0.065287265  0.065058756            4 
 2300000   0.88363289   -3.4904628    1793.2579  0.064973112   0.06504604            5 
 2301000   0.86455813   -3.4997776    1799.1453  0.065158093  0.065033354            2 
 2302000    0.8889086   -3.4693452    1801.9543  0.065231477  0.065020587            8 
 2303000   0.89211656   -3.4722148    1792.2999   0.06485381  0.065007766            5 
 2304000   0.90405393   -3.4904913     1803.942  0.065246744  0.064995121            4 
 2305000   0.89611478   -3.4780544    1800.4658  0.065092764  0.064982225            3 
 2306000     0.893128   -3.4981988    1795.8641  0.064898241   0.06496937            2 
 2307000    0.8915558   -3.4790818    1798.2793  0.064957351  0.064956243            7 
 2308000   0.86791482   -3.4981108    1796.2177  0.064854769  0.064943288            3 
 2309000   0.89570823   -3.4917487    1799.9301  0.064960665  0.064930315            2 
 2310000   0.87179716   -3.4886496    1800.2872  0.064945426  0.064917471            5 
 2311000    0.8847123   -3.5038781    1803.1345  0.065019995  0.064904572            3 
 2312000   0.86889632   -3.5202003    1795.7885  0.064727094  0.064891817            4 
 2313000   0.87578376   -3.5050898    1808.8884  0.065171075  0.064879018            2 
 2314000   0.88398931   -3.4771663    1804.1883  0.064973649  0.064866242            4 
 2315000   0.87272436   -3.4752724    1800.7681  0.064822467  0.064853698            3 
 2316000   0.86442098   -3.4910967     1805.821  0.064976287  0.064841083            3 
 2317000    0.8696976   -3.5009301    1798.8732   0.06469836  0.064828151            4 
 2318000    0.9242311   -3.4982087    1802.9274  0.064816199  0.064815357            2 
 2319000   0.88207009   -3.5144404    1799.9675  0.064681885  0.064802551            4 
 2320000   0.87917711   -3.4746001    1808.3533  0.064955218  0.064789821            3 
 2321000   0.88976089    -3.484963    1810.9208  0.065019417  0.064777127            3 
 2322000   0.89194329   -3.4879288    1811.3733  0.065007656  0.064764428            2 
 2323000   0.86221901   -3.4886224    1817.0078  0.065181798  0.064751753            2 
 2324000   0.88674429   -3.5166252    1805.6481  0.064746419  0.064738981            2 
 2325000   0.88142169   -3.5032206    1811.4775  0.064927508  0.064726466            5 
 2326000   0.88062133   -3.5028843    1807.9375  0.064772767  0.064713843            4 
 2327000   0.88571561   -3.4999182    1810.6326   0.06484145  0.064701051            3 
 2328000   0.89698914   -3.4901652    1812.8111  0.064891578  0.064688405            4 
 2329000   0.89016652   -3.4931452    1807.7807  0.064683724  0.064675643            4 
 2330000   0.88201427   -3.5156648    1813.0946  0.064846014   0.06466292            4 
 2331000    0.8791683   -3.4853914     1812.689  0.064803698  0.064650186            5 
 2332000   0.86869928    -3.503506    1809.9254  0.064677151  0.064637598            5 
 2333000   0.88019721   -3.5056103    1815.0757  0.064833395  0.064625017            4 
 2334000   0.89589412   -3.4981523    1812.7637  0.064723068  0.064612616            4 
 2335000   0.88633258   -3.5013467    1810.4067   0.06461123  0.064600219            4 
 2336000   0.87635136   -3.4890202    1821.9287  0.064994604  0.064587825            2 
 2337000   0.88940062   -3.4991334    1822.3748  0.064982698  0.064575309            2 
 2338000   0.88703831    -3.525267    1824.3501  0.065025312  0.064562772            2 
 2339000   0.88770169   -3.5311613    1813.7265  0.064619015  0.064550493            2 
 2340000    0.8801172   -3.5066388    1818.4077   0.06475811  0.064537996            5 
 2341000   0.88291716    -3.512656       1816.5  0.064662536  0.064525418            7 
 2342000    0.8854304   -3.4999213     1823.557  0.064886029  0.064513157            3 
 2343000   0.88527509   -3.5207238    1824.4367  0.064889624  0.064501016            8 
 2344000   0.86948015   -3.5302971     1817.477  0.064614513  0.064488712            3 
 2345000   0.87593884    -3.502664    1820.5056  0.064694584  0.064476406            2 
 2346000   0.88896209   -3.5196468    1823.2486  0.064764443  0.064464028            3 
 2347000   0.87528503   -3.5248744    1823.5385  0.064747143   0.06445205            6 
 2348000   0.89869636   -3.5102095    1827.8776  0.064873565  0.064439778            2 
 2349000   0.87283055   -3.4887951    1826.1449  0.064784478   0.06442769            4 
 2350000   0.90061427   -3.5056487    1821.7898  0.064602474  0.064415472            2 
 2351000   0.86888328   -3.5191429    1826.6829  0.064748438    0.0644033            7 
 2352000   0.88691947   -3.4868139    1824.9322  0.064658881   0.06439104            5 
 2353000   0.87656256   -3.5001409    1828.0804  0.064742897  0.064378789            2 
 2354000   0.86679175   -3.5122814    1832.4307  0.064869396  0.064366501            4 
 2355000   0.87907895   -3.5023155    1825.4753  0.064595729  0.064354032            9 
 2356000   0.85613861   -3.5255092    1821.6982  0.064434713   0.06434143            4 
 2357000   0.86536126   -3.5201167    1824.1285  0.064493299  0.064328796            2 
 2358000   0.86182616   -3.5445993    1823.9038  0.064458008  0.064316281            5 
 2359000   0.89336247   -3.4941039    1829.1015  0.064614298  0.064303795            1 
 2360000   0.88864366   -3.5153592    1825.7957  0.064470189  0.064291351            4 
 2361000   0.87214014   -3.5103467    1828.3559  0.064533244  0.064278753            2 
 2362000   0.85887463   -3.5231119     1832.515  0.064652661  0.064266454            2 
 2363000   0.88450334   -3.5128446    1833.3434  0.064654515   0.06425413            7 
 2364000   0.87031141   -3.4950158    1830.9407  0.064542468     0.064242            2 
 2365000   0.88627615   -3.4909879    1831.3805  0.064530674  0.064229864            2 
 2366000   0.86085052   -3.5113911    1831.5799  0.064510422  0.064217636            3 
 2367000   0.89721173   -3.5052426    1829.9364  0.064425305  0.064205369            2 
 2368000   0.85727426   -3.5214924    1828.5598  0.064349653  0.064192999            4 
 2369000   0.88584672   -3.5201885    1828.9579  0.064336496  0.064180463           10 
 2370000   0.87149749   -3.4857445    1839.1902  0.064669136  0.064168325            5 
 2371000   0.88203282   -3.5120303    1831.7106  0.064378974  0.064155998            2 
 2372000    0.8915984   -3.5158275    1835.0672  0.064469758  0.064143456            3 
 2373000   0.87208292   -3.4954261    1834.1228  0.064409426  0.064131141            2 
 2374000    0.8719026   -3.5266761    1828.1517  0.064172694  0.064118489            4 
 2375000   0.86629766   -3.5162282     1832.421  0.064295475  0.064106031            2 
 2376000   0.86551682   -3.5158735    1829.0461  0.064150045  0.064093465            2 
 2377000   0.86295884   -3.5184881    1832.1529  0.064231978  0.064080936            3 
 2378000    0.8610813   -3.4960299    1836.5967  0.064360692  0.064068455            4 
 2379000   0.85847564   -3.5056258    1835.8278  0.064306704  0.064055984            6 
 2380000    0.8687743   -3.5330314    1837.0138  0.064321212  0.064043937            8 
 2381000   0.86525339   -3.5307958    1830.5252    0.0640671  0.064031461            3 
 2382000   0.87741678   -3.5384963    1837.5562  0.064286181  0.064019159            4 
 2383000   0.85952129   -3.5011689     1842.677  0.064438279  0.064007051            3 
 2384000   0.86573112   -3.5008363    1841.4332   0.06436777  0.063994913            2 
 2385000   0.87070842    -3.504446    1834.3857   0.06409454  0.063982754            4 
 2386000   0.87582659   -3.5174288    1839.9439  0.064261801  0.063970485            3 
 2387000    0.8827382   -3.5284103    1838.5662  0.064186781  0.063958062            3 
 2388000   0.85430801   -3.5143837     1843.258  0.064323632  0.063945636            5 
 2389000    0.8591822   -3.5079141    1835.4396  0.064023984  0.063933236            3 
 2390000   0.85948085   -3.4999391    1844.7209  0.064320813  0.063920991            4 
 2391000   0.86345842   -3.5144989     1840.463  0.064145512  0.063908568            3 
 2392000    0.9025884   -3.5289434    1839.9513  0.064100867  0.063896066            3 
 2393000   0.85453529   -3.5202098    1837.3156  0.063982295  0.063883716            4 
 2394000   0.87943261   -3.4985791    1841.5463  0.064102837  0.063871228            5 
 2395000   0.88374496   -3.5140678    1840.0428  0.064023759  0.063858955            3 
 2396000   0.85025509   -3.5063823    1847.9614  0.064272448  0.063846578            1 
 2397000   0.87512332   -3.5255057    1841.9239  0.064035735  0.063834365            3 
 2398000   0.86073744    -3.535034    1842.7695  0.064038418  0.063822038            2 
 2399000   0.86901001   -3.5285862     1843.691  0.064043734  0.063809618            2 
 2400000   0.86216467   -3.5285718     1848.944  0.064199445  0.063797496            4 
 2401000    0.8593507   -3.5292203    1840.4197  0.063876846  0.063784981            4 
 2402000   0.86397308   -3.5270362    1845.7547  0.064035341  0.063772786            5 
 2403000   0.86488141   -3.5023393     1848.699  0.064110801  0.063760457            2 
 2404000   0.86781549   -3.5267366    1841.4773  0.063833796  0.063748108            4 
 2405000   0.87899976   -3.5379615    1846.5753  0.063983899  0.063735802            2 
 2406000   0.86838138   -3.5062111    1848.1525  0.064011931  0.063723512            4 
 2407000    0.8743353    -3.507039    1844.5666   0.06386119  0.063710994            3 
 2408000   0.84981347   -3.5402618    1841.9308  0.063743454  0.063698647            6 
 2409000   0.86208386   -3.5326411    1848.0275  0.063927891  0.063686052            3 
 2410000   0.84533638   -3.4972919    1860.2424  0.064323734  0.063673627            2 
 2411000   0.87292678   -3.5405016    1845.3368   0.06378186  0.063661295            6 
 2412000   0.85778658   -3.5321888     1846.106  0.063781994  0.063648784            8 
 2413000   0.87087173   -3.5353239    1849.3406  0.063867269  0.063636422            6 
 2414000   0.87902709    -3.532786    1845.5145  0.063708729  0.063624069            3 
 2415000   0.85863878   -3.5121191    1853.2859  0.063950515  0.063611869            4 
 2416000   0.86896859   -3.5308707    1850.9848  0.063844675  0.063599534            3 
 2417000    0.8552957   -3.5178892    1847.7064  0.063705227  0.063587332            3 
 2418000   0.86383065   -3.5435546    1846.7444  0.063645725  0.063574958            2 
 2419000   0.87218467   -3.5188653    1853.0891  0.063837987  0.063562688            1 
 2420000   0.88176163   -3.5012468     1856.596   0.06393237  0.063550532            8 
 2421000   0.86073557   -3.5294143    1858.7447  0.063979924  0.063538352            1 
 2422000   0.87993998   -3.5025378    1861.0401  0.064032485  0.063526345            3 
 2423000   0.87511476   -3.5248755    1853.8211  0.063757776  0.063514287            4 
 2424000   0.87133509   -3.5331379    1854.2028  0.063744596  0.063501994            2 
 2425000   0.86227225   -3.5133958    1857.3682  0.063827087  0.063489598            5 
 2426000   0.85993759   -3.4910184    1858.9305  0.063854442  0.063477443            2 
 2427000   0.86922719   -3.5215273    1859.5169  0.063848268  0.063465344            2 
 2428000   0.87286877   -3.5124714     1860.197  0.063845311  0.063453404            4 
 2429000   0.86824464   -3.5211823    1857.7559   0.06373528  0.063441077            5 
 2430000   0.85426102   -3.5168935    1856.4918  0.063665698  0.063428859            3 
 2431000   0.83744041   -3.5458821    1851.1345  0.063455865  0.063416613            3 
 2432000   0.88509486   -3.5292406    1859.4637  0.063715178  0.063404322            3 
 2433000   0.84858243   -3.5441793      1856.29  0.063580283  0.063392109            7 
 2434000   0.85643472   -3.5216026     1860.149  0.063686284   0.06338001            3 
 2435000   0.86363981    -3.514085    1861.2995  0.063699503   0.06336783            7 
 2436000   0.85425999   -3.5276165    1859.9105  0.063625839   0.06335578            5 
 2437000   0.86992817   -3.5413429    1855.4479   0.06344713  0.063343481            5 
 2438000   0.88203448     -3.54368    1856.6801  0.063463223   0.06333096            8 
 2439000   0.85518683   -3.5336764    1858.5634  0.063501551    0.0633186            3 
 2440000   0.85126632   -3.5418549    1859.1002  0.063493859  0.063306228            4 
 2441000   0.85394133   -3.5000091    1858.5294   0.06344836  0.063293954            3 
 2442000   0.87280875    -3.497043     1864.585  0.063629028  0.063281655            2 
 2443000   0.84816094   -3.5293306    1866.3244  0.063662314  0.063269358            5 
 2444000   0.86109219   -3.5647094    1859.1817  0.063392721   0.06325695            4 
 2445000   0.85807484   -3.5430833    1863.7347  0.063521973  0.063244694            3 
 2446000   0.85765261   -3.5303872    1857.8928  0.063296975  0.063232446            3 
 2447000   0.87011506   -3.5057489    1869.3711  0.063662004  0.063220427            3 
 2448000    0.8639768   -3.5283371     1873.181  0.063765694  0.063208423            5 
 2449000   0.86704003     -3.48129    1867.8034  0.063556671  0.063196458            2 
 2450000    0.8605116   -3.5147701    1868.5708  0.063556829  0.063184289            2 
 2451000   0.85603991   -3.5401625    1878.0001  0.063851492  0.063172273            3 
 2452000    0.8511731   -3.5396302    1864.7252  0.063374291  0.063160167            2 
 2453000   0.86633589   -3.5198159     1872.639  0.063617304  0.063147908            3 
 2454000   0.85978056   -3.5366938    1869.8213  0.063495698  0.063135695            6 
 2455000     0.864775   -3.5279031    1870.2644  0.063484874  0.063123663            3 
 2456000    0.8645505   -3.5401567    1868.9362  0.063413959  0.063111479            3 
 2457000   0.87273177   -3.5441454    1869.5494  0.063408946  0.063099296            3 
 2458000   0.84291561   -3.5634767    1865.2127  0.063236122  0.063087051            5 
 2459000   0.86608091   -3.5323286    1865.6187  0.063224165  0.063074829            7 
 2460000   0.83816512   -3.5444526      1869.85  0.063341804   0.06306252            5 
 2461000   0.86125329   -3.5408586    1870.8928  0.063351374  0.063050447            3 
 2462000      0.84777   -3.4955933    1869.8784  0.063291308   0.06303845            2 
 2463000   0.87090949   -3.5642163    1865.6181  0.063121469  0.063026417            4 
 2464000   0.84291206   -3.5325145    1873.6274  0.063366726  0.063014282            2 
 2465000    0.8711656   -3.5233775    1876.3623  0.063433478  0.063002443            4 
 2466000   0.85508772   -3.4998858     1877.054  0.063431131  0.062990385            4 
 2467000   0.84870805   -3.5638844    1870.6517  0.063189153  0.062978356            7 
 2468000   0.85747018   -3.5383961     1878.097  0.063414944  0.062966236            6 
 2469000   0.85673821   -3.5113282     1871.471   0.06316562  0.062954183            8 
 2470000   0.82869704   -3.5227342    1873.4409  0.063206507  0.062942107            4 
 2471000    0.8665554   -3.5383994    1874.9322  0.063231222  0.062929985            3 
 2472000   0.85834323   -3.5774648    1867.3972  0.062951631  0.062917986            3 
 2473000   0.85667219   -3.5691375    1875.4418  0.063197258   0.06290584            3 
 2474000    0.8456121   -3.5354238    1879.1423   0.06329636  0.062893675            8 
 2475000   0.83778894   -3.5492205    1875.7485  0.063156514  0.062881482            4 
 2476000   0.87648468   -3.5240108    1881.9901  0.063341079  0.062869536            4 
 2477000   0.86145944   -3.5470499    1869.1245  0.062882672  0.062857469            2 
 2478000   0.84316984   -3.5421755    1881.8351  0.063284742   0.06284554            3 
 2479000   0.85096901   -3.5641741    1881.0319  0.063232214  0.062833623            4 
 2480000   0.85059875    -3.550657    1882.4289  0.063253661  0.062821653            1 
 2481000   0.87491666   -3.5538973    1875.4542  0.062993892  0.062809652            5 
 2482000   0.85970223   -3.5327617    1880.3939  0.063134365  0.062797604            3 
 2483000   0.85569491   -3.5136638    1886.9268  0.063328192  0.062785479            4 
 2484000   0.85343861   -3.5502345    1882.6584  0.063159501   0.06277366            2 
 2485000   0.86442017   -3.5419943    1881.8885  0.063108266  0.062761478            4 
 2486000    0.8437537    -3.546325    1882.1233  0.063090752   0.06274928            4 
 2487000   0.85671563   -3.5383614    1885.7214  0.063185946  0.062737127            4 
 2488000   0.87011246   -3.5332701    1883.2922  0.063079188  0.062725102            2 
 2489000   0.87256901     -3.54312    1881.9981  0.063010517  0.062713153            5 
 2490000   0.85748369   -3.5424091     1879.522  0.062902342   0.06270122            2 
 2491000   0.85099751   -3.5397522    1889.9141  0.063224747   0.06268916            6 
 2492000   0.84877314   -3.5067226    1881.4223  0.062915407   0.06267695            4 
 2493000   0.85700056   -3.5461623    1882.4888   0.06292582  0.062664985            2 
 2494000   0.86294893   -3.5565374    1890.1149  0.063155403  0.062652944            3 
 2495000   0.85582732   -3.5351831    1880.6866  0.062815182  0.062640715            2 
 2496000   0.85245001   -3.5420874    1887.6487  0.063022458  0.062628631            8 
 2497000   0.84106254   -3.5219774    1886.7283  0.062966504  0.062616625            2 
 2498000   0.85315866   -3.5344788    1889.1778  0.063023011  0.062604725            3 
 2499000   0.83386787   -3.5559462    1886.4174  0.062905744  0.062592679            3 
 2500000   0.84485501   -3.5371971     1883.917  0.062797235  0.062580627            4 
 2501000   0.84033782   -3.5506767    1894.5765  0.063127298  0.062568466            4 
 2502000   0.85803176   -3.5415842    1890.9116  0.062980004  0.062556339            2 
 2503000   0.85367586   -3.5602404    1882.4907  0.062674481  0.062544201            3 
 2504000   0.83747347   -3.5630699    1889.5637  0.062884839  0.062531931            8 
 2505000   0.86511449   -3.5344459    1891.1029  0.062910942  0.062519958            5 
 2506000    0.8417756   -3.5636389    1893.1771  0.062954812  0.062507848            3 
 2507000   0.85487608     -3.53482    1888.2459  0.062765787  0.062495907            6 
 2508000   0.83349997   -3.5463978    1891.4055  0.062845743  0.062483777            4 
 2509000     0.854586   -3.5377429    1890.1202  0.062778007  0.062471611            3 
 2510000   0.85089425   -3.5453287    1895.0811    0.0629177  0.062459782            2 
 2511000   0.84765166   -3.5367464    1894.0096  0.062857081  0.062447892            2 
 2512000    0.8534916   -3.5378683    1899.4173  0.063011456  0.062436085            5 
 2513000   0.85371461    -3.531726    1891.2921  0.062716941    0.0624243            5 
 2514000   0.85355632   -3.5390232    1895.0935  0.062818004  0.062412198            2 
 2515000   0.82215113   -3.5339055    1890.3528  0.062635945  0.062400284            4 
 2516000   0.85570895   -3.5489295    1889.8214  0.062593449  0.062388271            4 
 2517000   0.84523867   -3.5518042    1898.4535  0.062854372   0.06237619            4 
 2518000   0.85666782   -3.5306735    1902.4701   0.06296234   0.06236432            5 
 2519000   0.86543359    -3.570778    1894.0427  0.062658551  0.062352229            5 
 2520000   0.83440396    -3.541623     1901.509  0.062880589  0.062340231            3 
 2521000   0.85231081   -3.5794724    1893.0058  0.062574566  0.062328276            2 
 2522000   0.83516118   -3.5353856    1896.9443  0.062679892  0.062316326            3 
 2523000   0.85275822   -3.5367262    1903.1091  0.062858669   0.06230433            3 
 2524000    0.8422235   -3.5784447    1896.6581  0.062620777  0.062292378            5 
 2525000   0.84847631   -3.5379053    1899.0931  0.062676341  0.062280298            6 
 2526000    0.8444747   -3.5479308     1892.729  0.062441575  0.062268196            4 
 2527000   0.85652376   -3.5641984    1900.2263  0.062664105  0.062256293            5 
 2528000   0.85423714   -3.5312625    1902.7443  0.062722321  0.062244461            3 
 2529000   0.85469629   -3.5483945    1899.1316  0.062578476  0.062232366            3 
 2530000   0.84895505   -3.5619703    1899.6479  0.062570748  0.062220306            3 
 2531000   0.84094372   -3.5325191    1896.6975  0.062448885  0.062208175            5 
 2532000   0.84569668   -3.5567994    1898.7774  0.062492673  0.062196012            3 
 2533000   0.86671833   -3.5381793    1904.1748  0.062645573  0.062184178            3 
 2534000   0.82734304   -3.5601098    1901.5427  0.062534289  0.062172226            2 
 2535000    0.8345719   -3.5330972    1903.5501   0.06257561  0.062160239            3 
 2536000   0.84111945   -3.5424147    1903.5739  0.062551719  0.062148498            6 
 2537000   0.85088664   -3.5316144    1906.6666  0.062628649  0.062136553            9 
 2538000   0.84092184   -3.5633209    1906.0481  0.062583664  0.062124532            4 
 2539000   0.84245286   -3.5602238     1903.943  0.062489922  0.062112611            4 
 2540000   0.85462914    -3.550797     1904.231   0.06247477  0.062100613            4 
 2541000   0.83447037   -3.5497485    1902.3129   0.06238728  0.062088633            3 
 2542000    0.8502573   -3.5600873    1913.2611  0.062721647  0.062076637            5 
 2543000   0.85016106   -3.5299909    1907.5782  0.062510754  0.062064568            5 
 2544000   0.84948211   -3.5537438    1898.7093  0.062195667  0.062052518            3 
 2545000   0.84643021    -3.526858    1909.8899  0.062537324  0.062040604            5 
 2546000   0.84303919   -3.5281467    1907.9181  0.062448221  0.062028774            3 
 2547000   0.85011038   -3.5715293     1907.439   0.06240803  0.062016857            2 
 2548000   0.84524387   -3.5497222    1909.5724   0.06245331    0.0620049            4 
 2549000   0.84199021    -3.557296    1908.8333  0.062404647  0.061992938            3 
 2550000   0.84556365   -3.5786563     1904.636  0.062243005  0.061980949            3 
 2551000   0.86446677     -3.57503    1906.1549  0.062268225  0.061969086            3 
 2552000   0.82290036   -3.5480139     1913.837  0.062494677  0.061957358            3 
 2553000   0.83666079    -3.571173    1907.7756  0.062272348  0.061945316            1 
 2554000   0.84298723   -3.5560513    1912.4049  0.062399013  0.061933397            2 
 2555000   0.85545754   -3.5671791    1906.2833  0.062174929  0.061921506            2 
 2556000   0.82610079   -3.5452876    1914.2121  0.062409106  0.061909736            5 
 2557000   0.83936947   -3.5613552    1917.3418  0.062486698  0.061897818            4 
 2558000   0.85508393   -3.5487084    1912.9838  0.062320296  0.061885944            3 
 2559000   0.84428585   -3.5932326    1912.5434  0.062281602  0.061874086            2 
 2560000   0.84380493   -3.5595921    1914.1433  0.062309353  0.061862289            3 
 2561000   0.85153795   -3.5639029    1913.3746  0.062260008  0.061850493            5 
 2562000   0.83440542   -3.5638842    1916.2596  0.062329547  0.061838787            4 
 2563000   0.82092858   -3.5479162     1911.125  0.062138281  0.061826899            4 
 2564000   0.83956707   -3.5604402    1920.4782  0.062418039  0.061815192            1 
 2565000   0.83322056   -3.5594831    1919.4704  0.062360961  0.061803364            2 
 2566000   0.85266358   -3.5458882     1916.723  0.062247434   0.06179152            2 
 2567000   0.84717212   -3.5397952    1916.3733  0.062211833  0.061779598            4 
 2568000   0.85243076   -3.5536522     1913.708  0.062101115  0.061767704            3 
 2569000   0.83771886   -3.5543461    1917.5103  0.062200281  0.061755854            3 
 2570000   0.82932572   -3.5601423    1917.6843   0.06218172  0.061743959            4 
 2571000   0.83266497   -3.5559678    1912.5388  0.061990756  0.061732049            2 
 2572000   0.84232107   -3.5315587    1918.7355  0.062167429  0.061720068            3 
 2573000   0.84793666   -3.5530183    1917.3003  0.062096785   0.06170838            5 
 2574000   0.84243031   -3.5703837     1923.995  0.062289402  0.061696506            2 
 2575000   0.82662295   -3.5756494    1919.6558  0.062124782  0.061684611            4 
 2576000   0.83918709   -3.5538686    1917.4328  0.062028754  0.061672784            3 
 2577000   0.82576187   -3.5566374    1919.2101  0.062062156  0.061660867            2 
 2578000   0.84257007   -3.5422607    1923.9725  0.062192025  0.061648901            5 
 2579000    0.8438553   -3.5728419    1920.6893  0.062061823  0.061637093            6 
 2580000   0.83279262    -3.565214    1921.1455  0.062052505  0.061625118            7 
 2581000   0.82489229   -3.5821953    1925.6279  0.062173186    0.0616134            3 
 2582000   0.84271913   -3.5561663    1927.5808  0.062212136  0.061601662            3 
 2583000   0.84274995   -3.5796408    1923.2324   0.06204776  0.061589895            4 
 2584000   0.85398743   -3.5923869    1922.5227   0.06200086  0.061578072            7 
 2585000   0.82878563    -3.536884    1931.6184  0.062270095  0.061566236            3 
 2586000   0.84644267   -3.5508692     1927.467   0.06211224  0.061554535            5 
 2587000   0.84531947   -3.5443554     1926.883  0.062069419  0.061542685            5 
 2588000   0.84295501   -3.5611948    1926.9206  0.062046644  0.061531013            4 
 2589000   0.85156868   -3.5765405    1922.1688  0.061869731  0.061519034            3 
 2590000   0.82219683   -3.5800414    1926.5752  0.061987618  0.061507124            3 
 2591000   0.82276836   -3.5964413    1926.5427  0.061962648  0.061495399            1 
 2592000   0.83270964    -3.580456    1927.0079    0.0619537  0.061483651            4 
 2593000   0.83003493   -3.5769331    1927.1156  0.061933268  0.061471974            5 
 2594000   0.84469025   -3.5536141    1930.5306  0.062019102   0.06146031            2 
 2595000   0.83361985   -3.5583188    1931.7929   0.06203574  0.061448655            2 
 2596000   0.81370818   -3.5765776    1930.2429  0.061962084  0.061436896            3 
 2597000   0.83946508    -3.594842    1927.5397  0.061851487  0.061424977            3 
 2598000   0.83039381   -3.5878845    1927.6037  0.061829732  0.061413146            6 
 2599000   0.84258878   -3.5680928    1932.7469  0.061970851  0.061401397            3 
 2600000   0.81867543   -3.5889034    1934.1977  0.061993517  0.061389682            3 
 2601000   0.83803475   -3.5843001    1929.1267  0.061807211  0.061377863            4 
 2602000   0.82899428   -3.5884708    1928.3743  0.061759362  0.061366173            9 
 2603000   0.85459919    -3.582541    1929.8249  0.061782075  0.061354405            3 
 2604000   0.84418912   -3.5785197    1932.2773  0.061836832  0.061342411            3 
 2605000   0.83413442   -3.5927086    1933.5076   0.06185245  0.061330662            4 
 2606000   0.82764797   -3.5487181    1933.2745  0.061821263  0.061318955            3 
 2607000   0.82362966   -3.5744233    1941.0472  0.062046005  0.061307389            5 
 2608000   0.82097749   -3.5835807    1933.3678  0.061776836  0.061295532            3 
 2609000   0.85357873   -3.5946593    1931.6379  0.061697903   0.06128392            4 
 2610000   0.83580037    -3.563623    1930.8172  0.061648058  0.061272179            3 
 2611000   0.82000543   -3.5814241    1934.5844  0.061744683  0.061260394            3 
 2612000   0.84398757   -3.5601763    1933.6264  0.061690479  0.061248664            3 
 2613000   0.81842123   -3.5822758    1931.0852  0.061585826  0.061236954            4 
 2614000   0.81400879   -3.5855989    1934.1659  0.061660479  0.061225325            6 
 2615000   0.82121124   -3.5836212    1933.0236  0.061600499  0.061213663            5 
 2616000   0.83119591   -3.5755951    1932.2933  0.061553685  0.061201853            5 
 2617000     0.827101   -3.5646695    1936.0658  0.061650292  0.061190176            3 
 2618000   0.81811418   -3.5764407    1933.5511    0.0615467  0.061178519            5 
 2619000    0.8439089   -3.5775155    1936.8981  0.061629697   0.06116681            7 
 2620000   0.84174234   -3.5911704    1942.5743  0.061786713   0.06115521            4 
 2621000   0.83963503   -3.5812475    1943.2592  0.061784918  0.061143593            5 
 2622000   0.82627743   -3.5501773    1939.2347  0.061633444  0.061131919            3 
 2623000   0.82935422   -3.5685364    1942.0215  0.061698484  0.061120313            7 
 2624000   0.84239851   -3.5633437    1940.5813  0.061629233  0.061108593            3 
 2625000   0.81404829   -3.5710392    1944.8339   0.06174076  0.061096965            4 
 2626000   0.83793192   -3.5958172    1938.1172  0.061504101  0.061085403            3 
 2627000   0.84425667   -3.5481019    1942.2815  0.061612787  0.061074044            6 
 2628000   0.82560172   -3.5815394    1937.8701  0.061449459  0.061062471            7 
 2629000   0.83298602   -3.5785564    1945.0407  0.061653376  0.061050851            4 
 2630000    0.8367591   -3.5550203    1947.6876  0.061713803  0.061039138            4 
 2631000   0.82676458   -3.5733367    1940.4635  0.061461533  0.061027527            3 
 2632000   0.83085341   -3.5891098    1944.6794  0.061571663  0.061015788           11 
 2633000   0.83228282   -3.6014665    1949.2908  0.061694228   0.06100412            3 
 2634000   0.82355289   -3.5725518    1946.1567  0.061571649  0.060992718            4 
 2635000   0.82434318   -3.5824782    1945.3721   0.06152347  0.060981258            5 
 2636000   0.83395111   -3.5533691    1951.3756  0.061689923  0.060969687            4 
 2637000   0.83973347   -3.5722718    1948.6918  0.061581714  0.060958187            6 
 2638000   0.83263949   -3.5925658    1943.8982  0.061406942  0.060946599            3 
 2639000   0.85078785   -3.5923089    1941.2604  0.061300378  0.060935037            3 
 2640000     0.823037   -3.5462988    1949.2561   0.06152955   0.06092338           10 
 2641000   0.84447667    -3.586536    1945.8567  0.061398988  0.060911735            2 
 2642000   0.81379789   -3.6100634    1944.4931  0.061332736  0.060900129            5 
 2643000   0.82297879   -3.5904385     1945.806  0.061350927  0.060888534            4 
 2644000   0.82283605   -3.5944256    1943.0325  0.061240308  0.060876993            4 
 2645000   0.84614305   -3.5619038    1951.9189  0.061497128  0.060865553            4 
 2646000   0.82861013   -3.5950037    1940.6243  0.061118174   0.06085411            5 
 2647000   0.82705157   -3.6014533    1951.9236  0.061450813  0.060842629            3 
 2648000   0.81965569   -3.5498563    1949.7987  0.061360735   0.06083115            3 
 2649000   0.81268163   -3.5873789    1946.6552   0.06123868  0.060819678            5 
 2650000   0.81997301    -3.595126    1945.8325  0.061189702  0.060807848            4 
 2651000   0.83030934    -3.550548    1958.4975  0.061564741  0.060796133            3 
 2652000    0.8374835   -3.5831394    1952.5578  0.061354883  0.060784525            2 
 2653000   0.84558392   -3.5726008    1944.3943  0.061075332  0.060772754            2 
 2654000    0.8377668   -3.5764482    1950.3555  0.061239498  0.060761016            2 
 2655000     0.816453    -3.542236    1955.0382  0.061363409  0.060749514            4 
 2656000   0.83308941   -3.5838411    1950.9939  0.061213412  0.060737977            1 
 2657000   0.81211185   -3.6147571    1951.9477  0.061220289  0.060726272           10 
 2658000   0.80789411   -3.5677133    1958.0132  0.061387422  0.060714487            3 
 2659000   0.84827831     -3.57787    1952.7501  0.061199389  0.060702837            5 
 2660000   0.85301717    -3.599177    1955.7861  0.061271495  0.060691113            3 
 2661000   0.80749621   -3.5763864    1947.3887  0.060985492  0.060679467            4 
 2662000   0.80758515   -3.5832109    1953.3669  0.061149728  0.060667594            4 
 2663000     0.812224   -3.5818928    1954.3374  0.061157136  0.060655778            9 
 2664000   0.82629211    -3.592118    1949.2133  0.060973888  0.060644009            9 
 2665000   0.82572961   -3.5751857    1955.7885  0.061156613  0.060632165            5 
 2666000   0.80585707   -3.5994991    1951.8513  0.061010604  0.060620335            3 
 2667000   0.81882908    -3.580644    1956.5756  0.061135347  0.060608648           13 
 2668000   0.82311927    -3.589909    1961.7905  0.061275316  0.060596925            4 
 2669000   0.80885887   -3.6022251    1953.0351  0.060978989  0.060585076            4 
 2670000   0.83532878   -3.5924533    1952.0556  0.060925581  0.060573137            3 
 2671000   0.80836603   -3.5841264    1952.0771   0.06090344  0.060561324            4 
 2672000   0.82320687   -3.5932702      1955.07  0.060973988  0.060549432            4 
 2673000   0.83496762   -3.5942057    1949.9906  0.060792824  0.060537407            7 
 2674000    0.8275963   -3.6172018     1954.253  0.060902923  0.060525399            4 
 2675000   0.82795232    -3.592244    1954.5103  0.060888172  0.060513457            4 
 2676000   0.82760115   -3.5815803    1957.1425  0.060947389  0.060501485            6 
 2677000   0.81557963   -3.5722099     1951.766  0.060757255  0.060489642            4 
 2678000    0.8283174   -3.5856982    1958.2746  0.060937099  0.060477802            2 
 2679000   0.80975485   -3.5643243    1960.4822  0.060983023  0.060465897            5 
 2680000   0.81851142    -3.586017    1958.1406  0.060887457  0.060453887            4 
 2681000   0.81051842   -3.5978458    1960.9916  0.060953364   0.06044184            4 
 2682000   0.81583787   -3.5894492    1951.6055  0.060638997  0.060429711            5 
 2683000   0.82270492   -3.5825037    1952.7326  0.060651404  0.060417765            4 
 2684000   0.82280132   -3.5760619    1962.9174  0.060945025  0.060405776            6 
 2685000   0.82727081   -3.5790202    1958.5985  0.060788285  0.060393838            5 
 2686000   0.82674401   -3.6161835    1962.0508  0.060872761  0.060381967           10 
 2687000   0.81621643   -3.5806778     1963.251  0.060887328  0.060370046            7 
 2688000   0.82034429   -3.6025281    1960.7799  0.060788068  0.060358148            6 
 2689000   0.82103862   -3.5861513    1963.2849  0.060843091  0.060346284            4 
 2690000   0.80664593   -3.5949097    1959.5882  0.060705954  0.060334523            7 
 2691000   0.81876095   -3.5838712     1955.057  0.060543076  0.060322677            7 
 2692000   0.83828636   -3.5604309    1963.5693  0.060784091  0.060310873            9 
 2693000   0.82547046   -3.6059217    1963.7854  0.060768209  0.060299109            5 
 2694000   0.83264803   -3.6124528    1961.1892  0.060665342  0.060287406            3 
 2695000   0.82561775   -3.5784731    1965.7523   0.06078393  0.060275765            4 
 2696000   0.82547618   -3.5970354    1963.1765  0.060681765  0.060264065            5 
 2697000   0.82330731   -3.6138739    1965.3593  0.060726712  0.060252227            6 
 2698000    0.8193646   -3.5842634    1971.3456  0.060889103  0.060240438            6 
 2699000   0.81630829   -3.5886874     1967.148   0.06073694  0.060228611            8 
 2700000   0.80048296   -3.5844419    1968.2565  0.060748658   0.06021677            5 
 2701000   0.82617714   -3.5924166    1960.1936  0.060477405  0.060205018            3 
 2702000   0.81477609   -3.5859737     1958.585  0.060405411  0.060193074            6 
 2703000   0.81947737   -3.5820945    1964.5742  0.060567708  0.060181115            7 
 2704000   0.82263817   -3.5937136     1956.899  0.060308771  0.060169125            4 
 2705000   0.80491049   -3.5948105    1962.5746  0.060461325  0.060157122            2 
 2706000   0.81336148   -3.5917236    1964.3603  0.060493975  0.060145185            2 
 2707000   0.80850428   -3.5898781    1966.2222  0.060528944  0.060133334            5 
 2708000   0.84518596   -3.6058687    1966.9194  0.060528048  0.060121594            3 
 2709000   0.80418039    -3.602754    1966.9358  0.060506207  0.060109669            4 
 2710000   0.81084482   -3.5837406    1967.5912  0.060504035  0.060097891            4 
 2711000   0.82889643   -3.5817764    1969.1401  0.060529328   0.06008625            9 
 2712000   0.81014894   -3.6040508    1962.8521  0.060313793  0.060074523            2 
 2713000   0.80503016   -3.5858824    1965.3227   0.06036745  0.060062609            4 
 2714000   0.81422838   -3.5975412     1967.557  0.060413811  0.060050612            2 
 2715000   0.82072347   -3.5794503    1969.3491  0.060446565  0.060038606            5 
 2716000   0.81290156   -3.6158358    1963.9593  0.060258937  0.060026553            4 
 2717000   0.82005745   -3.6071774    1961.8338  0.060171567  0.060014458            2 
 2718000   0.82221064   -3.6042961    1968.2012  0.060344651  0.060002362            4 
 2719000   0.81170273   -3.5946474    1965.9622  0.060253838   0.05999018            3 
 2720000   0.82665051   -3.5768803    1973.2808  0.060455906   0.05997817            3 
 2721000   0.81468088   -3.6270314    1969.2163   0.06030921  0.059966123            7 
 2722000    0.8065791   -3.5896047    1968.0815  0.060252312  0.059953868            4 
 2723000   0.82203756   -3.6165285    1973.0902  0.060383469  0.059941945            7 
 2724000   0.83488358   -3.6109051    1967.8979  0.060202457   0.05992983            9 
 2725000   0.81927984   -3.6028053    1965.8449  0.060117582  0.059917692            7 
 2726000   0.82120451   -3.5952493    1969.8242  0.060217173  0.059905638            3 
 2727000   0.83660629   -3.6363496    1972.4728  0.060276029  0.059893701            5 
 2728000   0.81588971   -3.5988827    1969.0052   0.06014801  0.059881694            4 
 2729000   0.79899517    -3.594963     1971.644  0.060206547  0.059869722            3 
 2730000   0.81350071   -3.5967757    1976.0152  0.060317926  0.059857943            7 
 2731000   0.81996259   -3.5951576    1977.7861  0.060349875  0.059846189            5 
 2732000   0.82470356   -3.6195368    1976.0057  0.060273478  0.059834285            4 
 2733000   0.79832097   -3.6232768    1974.9142  0.060218142  0.059822359            5 
 2734000   0.79534112   -3.5969432     1980.175  0.060356468   0.05981067            4 
 2735000   0.80305647   -3.5873231     1980.293  0.060337996  0.059799031            2 
 2736000   0.81037466   -3.6103269    1979.4606  0.060290588  0.059787257            3 
 2737000   0.81205421   -3.6014485     1988.558  0.060545548  0.059775522            6 
 2738000   0.82884206   -3.6057361    1980.4797  0.060277566  0.059763811            6 
 2739000   0.82206615   -3.5948547    1983.9074  0.060359845  0.059752211            3 
 2740000   0.81526644   -3.5957224     1985.022  0.060371716  0.059740458            7 
 2741000   0.81872879   -3.5724216    1984.5073  0.060334041  0.059728904            2 
 2742000   0.84138929   -3.6037842    1980.1684  0.060180174  0.059717269            4 
 2743000   0.79469038   -3.6027687    1984.5777  0.060292188  0.059705546            2 
 2744000   0.81099408   -3.5896505    1986.9239  0.060341468  0.059693806            8 
 2745000   0.80318995    -3.619955    1986.3353  0.060301617  0.059682235            5 
 2746000   0.80916407   -3.6067753    1984.5411   0.06022521   0.05967054            8 
 2747000   0.81509922   -3.5891348    1987.1639  0.060282851  0.059658825            3 
 2748000   0.81722238   -3.6032949     1982.317  0.060113931  0.059647277            5 
 2749000   0.79333921   -3.6050171    1990.3391  0.060335247  0.059635726            3 
 2750000   0.79837461   -3.6168412    1980.4213  0.060012768  0.059624081            2 
 2751000   0.80669214   -3.5994426    1991.6537  0.060331202  0.059612492            3 
 2752000   0.81928327   -3.6215003    1987.0971  0.060171302  0.059600993           10 
 2753000   0.81061537   -3.6182807    1986.8542  0.060142093  0.059589568            6 
 2754000   0.79513624   -3.6257711    1981.9915  0.059973114  0.059577987           11 
 2755000   0.83313282   -3.6188107    1988.6836  0.060153769  0.059566371            4 
 2756000   0.83915706    -3.626487    1984.8875   0.06001716  0.059554899            7 
 2757000   0.79110421   -3.5858859    1993.5913  0.060258473  0.059543327            4 
 2758000   0.80296084   -3.6009228    1986.8066  0.060031623  0.059531895           11 
 2759000    0.8170803   -3.6193726    1991.0978  0.060139477  0.059520377            2 
 2760000   0.81434705   -3.6227392    1986.2247  0.059970552   0.05950887            8 
 2761000    0.8191109   -3.5903669    1990.6108  0.060081216  0.059497303            4 
 2762000   0.80354106    -3.602414    1986.4669  0.059934435  0.059485829            3 
 2763000   0.79400274   -3.6036094    1996.3305  0.060210232  0.059474389            4 
 2764000   0.79826699   -3.6051338    1996.6135  0.060196981  0.059462811            4 
 2765000   0.81264515   -3.5809398    1994.6569  0.060116241   0.05945131            2 
 2766000   0.81098131   -3.6181281    1981.5268  0.059698927  0.059439789            7 
 2767000   0.81909175    -3.616883    1993.5157  0.060038419    0.0594285            3 
 2768000   0.81930589   -3.6360738    1992.5074  0.059986374  0.059417102            4 
 2769000   0.81655357   -3.6137354    1989.4618  0.059873052  0.059405798            3 
 2770000   0.81463433   -3.6204606     1994.363  0.059998887  0.059394465            3 
 2771000   0.81478524   -3.5871026    1993.9387  0.059964476  0.059383089            7 
 2772000   0.81050099   -3.6168656    1993.0359  0.059915703  0.059371933            9 
 2773000   0.81947344   -3.5980844    1996.6392   0.06000238  0.059360605            5 
 2774000   0.79914787   -3.6109915     1993.698  0.059892393  0.059349192            2 
 2775000   0.81435165   -3.6050433     1993.523  0.059865556   0.05933786            3 
 2776000   0.81395394   -3.6207884    1997.2677  0.059956404   0.05932653            3 
 2777000   0.81162013   -3.6229114    1996.3001  0.059905777   0.05931508            5 
 2778000   0.81301519   -3.6218119    1995.0955  0.059848078  0.059303671            8 
 2779000   0.80949651   -3.5892926    1996.9779   0.05988299  0.059292346            8 
 2780000   0.79119555    -3.607622    2001.4005   0.05999402  0.059280962            4 
 2781000   0.81226867   -3.6140769    2000.2504  0.059937985  0.059269595            3 
 2782000     0.793422   -3.6418397    1997.3208  0.059828685  0.059258198            5 
 2783000   0.80836083   -3.6089837    1998.6751  0.059847739  0.059246919            3 
 2784000   0.80149156   -3.5903389    2003.7051  0.059976806  0.059235505            5 
 2785000   0.80517977   -3.6070705    2001.4997  0.059889278   0.05922425            5 
 2786000   0.79365256   -3.6221791    2000.1668  0.059827913  0.059212828            2 
 2787000   0.80448074   -3.6205931    2004.4854  0.059935576  0.059201256            3 
 2788000   0.79520147   -3.6017386    1996.0702  0.059662548  0.059189944            6 
 2789000   0.81307178   -3.6275395    2007.7857  0.059991207  0.059178524            6 
 2790000   0.77933016   -3.6085741     2004.271  0.059864725  0.059167109            5 
 2791000   0.80239195   -3.6079497    1998.8147  0.059680361  0.059155552            2 
 2792000   0.80767557   -3.6391674     1989.283  0.059374491  0.059144041            5 
 2793000   0.79635332   -3.6206538    2001.9248  0.059730422  0.059132389            6 
 2794000   0.80281332    -3.603185    1996.5353  0.059548296  0.059120809            4 
 2795000   0.78133826   -3.6637048    1995.1228  0.059484878  0.059109214            5 
 2796000   0.81140387   -3.6089852     2003.632  0.059717214  0.059097671            7 
 2797000   0.79478027   -3.6046419    2000.7431  0.059609793  0.059086004            3 
 2798000   0.78957181   -3.6257289    2002.9007   0.05965275  0.059074594            4 
 2799000   0.80097807   -3.6274534    2003.0551  0.059636035  0.059063174            4 
 2800000   0.81355456   -3.6223079    2003.3766  0.059624302  0.059051707            5 
 2801000   0.79851878   -3.6249058    1995.0028  0.059353885   0.05904018            4 
 2802000    0.7955946   -3.6481045    2000.0228     0.059482  0.059028656            2 
 2803000    0.8000812   -3.6098603    2007.5693  0.059685137  0.059017047            2 
 2804000   0.79974155   -3.6119888    2008.2914  0.059685312  0.059005582            5 
 2805000   0.80786722   -3.6088069     2001.819  0.059471747  0.058994076            8 
 2806000   0.79480445   -3.6033515    2007.8538  0.059629775  0.058982575            5 
 2807000    0.8111389   -3.5976347    1999.7055  0.059366629  0.058971099            6 
 2808000   0.80450058   -3.6207471    2004.6578  0.059492456  0.058959659            4 
 2809000    0.8181478    -3.612824    2006.8287  0.059535679  0.058948179            4 
 2810000    0.8178413    -3.608094    2005.8011  0.059484018  0.058936678            7 
 2811000   0.79937804   -3.6195766    2007.8011  0.059522147   0.05892516            3 
 2812000   0.78381998   -3.5780271    2009.0769   0.05953879  0.058913643            5 
 2813000   0.78752917   -3.6431283    2005.9885  0.059426131  0.058902102            4 
 2814000   0.81680191   -3.6041185    2005.9204  0.059402998  0.058890579            6 
 2815000   0.79604139   -3.5999882     2008.279  0.059451717  0.058879052            7 
 2816000   0.79495347   -3.6463246    2010.4845  0.059495873   0.05886752            2 
 2817000   0.78673131   -3.6288161     2003.101  0.059256329  0.058855848            8 
 2818000   0.80546581   -3.6398361     2003.447  0.059245536  0.058844175            3 
 2819000   0.80014048   -3.6440784     2007.696  0.059350126   0.05883272            4 
 2820000   0.82409972   -3.6218088    2012.6262   0.05947477  0.058821302            4 
 2821000   0.80006256   -3.6140711    2007.4645   0.05930121  0.058809881            3 
 2822000   0.80462182   -3.6279554    2007.3999  0.059278286  0.058798455            5 
 2823000   0.78607815   -3.6333525    2004.3114  0.059166117  0.058786832            7 
 2824000   0.79028602    -3.618573    2008.7341  0.059275676  0.058775283            6 
 2825000   0.79999889   -3.6367905    2008.2342  0.059239946  0.058763729            4 
 2826000   0.78509011   -3.6367153    2012.6552  0.059349352  0.058752282            6 
 2827000    0.8135649   -3.6417603    2011.1586   0.05928424  0.058740738            2 
 2828000   0.80922664    -3.630553    2015.6515   0.05939567  0.058729152            4 
 2829000   0.80270665   -3.6342834    2010.7732  0.059230977  0.058717588            4 
 2830000   0.80902976    -3.630079    2011.9601  0.059244998  0.058705923            8 
 2831000   0.79894949   -3.6262154    2010.1742  0.059171499   0.05869439            3 
 2832000   0.80071613   -3.6705987    2007.8554  0.059082375   0.05868292            6 
 2833000   0.81715488   -3.6368688    2014.4275   0.05925484  0.058671329            5 
 2834000    0.8005129   -3.6485785    2012.6411  0.059181401   0.05865978            2 
 2835000   0.78493274   -3.6274206    2011.4937    0.0591268  0.058648301            4 
 2836000     0.803171   -3.6274619    2009.6174  0.059050816  0.058636759            4 
 2837000   0.83238781   -3.6210978     2011.898  0.059096993  0.058625175            3 
 2838000   0.79925573   -3.6425711    2015.0905   0.05916991  0.058613745            8 
 2839000   0.79130266   -3.6294198    2015.3954   0.05915802  0.058602134            5 
 2840000     0.812927   -3.6141316    2014.1871  0.059101735   0.05859063            2 
 2841000   0.79770378   -3.6174234    2021.6738  0.059300534  0.058579276            3 
 2842000   0.78999423   -3.6342174    2018.1949  0.059177658   0.05856782            4 
 2843000   0.77666268   -3.6463361    2010.2231  0.058923176  0.058556276            7 
 2844000   0.80990013   -3.6470759    2013.3765  0.058994857  0.058544717            3 
 2845000   0.80990615   -3.6447445    2015.3894  0.059033081  0.058533081            3 
 2846000   0.79514233   -3.6505073    2019.1455  0.059122322   0.05852154            4 
 2847000    0.7957768    -3.641416    2015.8379   0.05900474  0.058509793            5 
 2848000    0.8227457   -3.6309366    2021.5136  0.059150093  0.058498257            4 
 2849000   0.77576096   -3.6516004    2015.0843  0.058941276  0.058486651            9 
 2850000   0.79816607   -3.6416903    2011.6647  0.058820606  0.058475146            2 
 2851000    0.8007533   -3.6219634    2020.2534  0.059051017  0.058463633            5 
 2852000   0.79890043   -3.6401847    2022.9804  0.059109992  0.058452004            3 
 2853000   0.76608347   -3.6390648    2013.5809  0.058814723   0.05844033            3 
 2854000    0.8035765   -3.6266679    2022.3465  0.059050062  0.058428784            3 
 2855000   0.79012694   -3.6343672    2017.2945  0.058881917  0.058417289            4 
 2856000   0.81086411   -3.6017402    2029.7096  0.059223551  0.058405866            6 
 2857000   0.79350683   -3.6465107    2023.2551  0.059014558  0.058394402            5 
 2858000   0.80304523   -3.6266577    2015.1181  0.058756652  0.058382758            3 
 2859000   0.80489961   -3.6424236    2023.7167  0.058986728  0.058371202            5 
 2860000    0.7871897    -3.642499     2022.718  0.058937006  0.058359681            3 
 2861000   0.79944019   -3.6327334    2019.1992   0.05881391  0.058348104            3 
 2862000   0.81506067   -3.6441728    2020.8878  0.058842529  0.058336653            5 
 2863000   0.80302601   -3.6440298    2023.3877  0.058894741  0.058324964            5 
 2864000   0.78340731   -3.6520731      2022.22    0.0588402   0.05831348            3 
 2865000   0.80128778    -3.615654    2026.1037  0.058932628  0.058301903            6 
 2866000   0.79304025   -3.6443939    2025.9963  0.058908942  0.058290481            2 
 2867000   0.78817748   -3.6295003    2021.7947  0.058766268  0.058278998            2 
 2868000   0.79869195    -3.660032    2012.7394  0.058482666  0.058267328            6 
 2869000   0.79507012   -3.6263377    2023.4405  0.058773107  0.058255683            5 
 2870000   0.80068834   -3.6307404    2024.3873  0.058780118  0.058244151            3 
 2871000   0.79074569   -3.6258647    2031.6955  0.058971771  0.058232699            4 
 2872000   0.80591312   -3.6233065    2023.6722  0.058718438  0.058221148            5 
 2873000    0.7944077   -3.6261907    2020.1633   0.05859622  0.058209523            2 
 2874000   0.79589326   -3.6273256    2023.1909   0.05866362  0.058197991            3 
 2875000   0.80610589   -3.6452305    2027.3442    0.0587636  0.058186438            6 
 2876000   0.80838004    -3.636663    2023.7619  0.058639369  0.058174837            5 
 2877000   0.80987856   -3.6596426    2024.6468  0.058644618  0.058163224            6 
 2878000   0.78825974    -3.609595    2028.1385  0.058725343  0.058151461            6 
 2879000   0.78417225   -3.6342508    2029.3612  0.058740338  0.058139773            3 
 2880000    0.8062168    -3.624689     2019.088  0.058422684  0.058128149            7 
 2881000   0.80041345   -3.6604229    2023.7785  0.058538079  0.058116358            4 
 2882000   0.78253702   -3.6368485    2026.1505  0.058586354  0.058104733           18 
 2883000   0.79586454   -3.6494738    2026.6219  0.058579659  0.058093066            5 
 2884000   0.79169738   -3.6414955      2029.98  0.058656381  0.058081372            2 
 2885000   0.77354252   -3.6361578    2039.8011  0.058919732  0.058069652           10 
 2886000   0.79018496   -3.6440433    2022.5842  0.058402177  0.058058061            2 
 2887000   0.80733141   -3.6145641    2027.8576  0.058534166  0.058046402            7 
 2888000   0.80401616   -3.6863034    2022.3174  0.058354035  0.058034615            4 
 2889000   0.79537937   -3.6720943    2025.6975  0.058431334  0.058022835            6 
 2890000    0.7867601   -3.6455548    2023.1808  0.058338547  0.058011036            5 
 2891000   0.81358703   -3.6649406    2023.1933  0.058318727  0.057999148            5 
 2892000   0.78515859   -3.6439741    2025.3053  0.058359418  0.057987426            6 
 2893000   0.80398355   -3.6271378     2028.804  0.058440028  0.057975614            6 
 2894000   0.78078737   -3.6144215    2025.9929  0.058338887  0.057963805            6 
 2895000    0.7775175   -3.6417529    2025.8418  0.058314386  0.057952164            4 
 2896000   0.78172497   -3.6567889    2032.8709  0.058496514  0.057940454            7 
 2897000   0.79745685   -3.6548444    2027.3506   0.05831753   0.05792873            9 
 2898000   0.77772057   -3.6490765    2028.6406  0.058334501  0.057917044            2 
 2899000   0.78297443   -3.6701868    2030.7463  0.058374908  0.057905308            3 
 2900000   0.79084863   -3.6568347    2031.3377  0.058371772  0.057893707            4 
 2901000   0.79356435   -3.6465486    2036.4252  0.058497795   0.05788206            5 
 2902000   0.78798985   -3.6392443    2030.4322  0.058305543  0.057870434            4 
 2903000   0.78568961   -3.6430447    2025.5276  0.058144667  0.057858849            2 
 2904000   0.78928537   -3.6405607    2023.5514  0.058067935  0.057847094            7 
 2905000    0.8020621   -3.6492847    2030.4673  0.058246338  0.057835451            7 
 2906000   0.79007844   -3.6498895    2027.9865  0.058155153  0.057823679            4 
 2907000   0.76249737    -3.641948    2032.2521  0.058257426  0.057811996            5 
 2908000   0.79149232   -3.6333916    2035.9395  0.058343064  0.057800222            7 
 2909000   0.79210718     -3.64384    2028.9971  0.058124129  0.057788599            5 
 2910000   0.79785465    -3.657326    2027.9755    0.0580749  0.057776843            5 
 2911000   0.80243643   -3.6529332    2035.2341  0.058262741  0.057765182            5 
 2912000    0.8030993   -3.6823521    2032.4252   0.05816235  0.057753441            9 
 2913000   0.78203996   -3.6357683    2034.2758  0.058195326  0.057741627            5 
 2914000   0.77773086   -3.6390993    2034.1652  0.058172191  0.057729928            3 
 2915000   0.80295685   -3.6649041    2033.0568   0.05812055  0.057718086            3 
 2916000   0.80533532   -3.6464681    2037.3926  0.058224525  0.057706272            5 
 2917000   0.78059517   -3.6382647    2035.9303  0.058162789  0.057694673            4 
 2918000   0.79263044   -3.6263084    2034.5215  0.058102625  0.057682921            2 
 2919000   0.77726575   -3.6513887    2038.5648   0.05819815  0.057671318            3 
 2920000   0.78277991   -3.6581296    2039.1498  0.058194914  0.057659639            2 
 2921000   0.79121916   -3.6620772    2036.5412  0.058100571  0.057648022            3 
 2922000   0.78356232   -3.6555431    2037.6683  0.058112831  0.057636354            4 
 2923000   0.78675699   -3.6644242     2038.682  0.058121851  0.057624708           13 
 2924000   0.79113753   -3.6650057    2036.5778  0.058042002  0.057612969            3 
 2925000   0.78310539   -3.6062564    2045.5374   0.05827742   0.05760136            3 
 2926000   0.77838129   -3.6670345    2038.6454  0.058061215  0.057589862            3 
 2927000   0.79965913   -3.6501682    2036.9874  0.057994174  0.057578236            9 
 2928000   0.79167626   -3.6740655     2042.378  0.058127788   0.05756675            3 
 2929000   0.76296584   -3.6471286    2038.7762  0.058005469  0.057554939            6 
 2930000   0.76076234   -3.6459071    2042.4961  0.058091472  0.057543065            4 
 2931000   0.77753494    -3.628096    2042.4486  0.058070302  0.057531436            4 
 2932000   0.80041899   -3.6700532    2040.8232  0.058004298  0.057519678            4 
 2933000   0.76500395   -3.6509359    2043.1348    0.0580502  0.057507963            4 
 2934000   0.79096695   -3.6396035    2037.4083  0.057867765  0.057496264            2 
 2935000   0.79174998       -3.652    2039.6678  0.057912202  0.057484743            5 
 2936000   0.78582342   -3.6452206    2040.1624  0.057906518  0.057473173            7 
 2937000   0.78052096   -3.6540624     2041.163  0.057915191  0.057461601            4 
 2938000    0.7756311   -3.6633896    2042.5473  0.057934744  0.057449981            3 
 2939000   0.78101663   -3.6583747    2041.0376  0.057872225  0.057438365            7 
 2940000   0.78114289   -3.6492951    2040.9091  0.057848896  0.057426667            2 
 2941000   0.79639239   -3.6635708    2037.0347  0.057719446  0.057414974            3 
 2942000   0.78675841   -3.6841004    2037.5622   0.05771477  0.057403314            6 
 2943000   0.78164377   -3.6528742    2041.4633  0.057805621  0.057391579            2 
 2944000   0.78215468   -3.6414636    2042.6403  0.057819301  0.057379781            4 
 2945000   0.77295737   -3.6677201    2040.8989  0.057750393  0.057368095            4 
 2946000   0.78392628   -3.6643209    2046.3477   0.05788492  0.057356466            8 
 2947000   0.78707858   -3.6453999    2046.2113   0.05786142  0.057344787            5 
 2948000   0.78576939   -3.6631188    2044.5056  0.057793578  0.057332924            5 
 2949000   0.77215257   -3.6556936    2044.7703  0.057781459  0.057321227            4 
 2950000   0.79537134   -3.6502455    2045.5305  0.057783348  0.057309502            6 
 2951000   0.79306967    -3.645983    2057.2987  0.058096089  0.057298014            3 
 2952000    0.7729712   -3.6652151    2040.8675  0.057612566  0.057286331            8 
 2953000   0.78319183   -3.6603662    2044.8179  0.057704536  0.057274575            6 
 2954000    0.7802282   -3.6515442    2050.5085  0.057845533  0.057262878            8 
 2955000   0.77360308   -3.6521189    2046.4895  0.057712621  0.057251085            6 
 2956000   0.76677609   -3.6560631    2045.2673   0.05765864  0.057239366            6 
 2957000    0.7851903   -3.6678719    2051.1967  0.057806242  0.057227681            6 
 2958000   0.76187259   -3.6629877    2048.6503  0.057714963  0.057215831            7 
 2959000   0.79049888    -3.659326    2042.6499   0.05752647  0.057204084            3 
 2960000    0.7598106   -3.6597699     2048.467  0.057670804  0.057192235            4 
 2961000   0.78554778   -3.6474261    2044.3134  0.057534431  0.057180429            3 
 2962000     0.776585   -3.6570646     2048.079  0.057620948  0.057168579            5 
 2963000   0.76115509   -3.6503462    2048.8975  0.057624522  0.057156826            4 
 2964000   0.78573359   -3.6812976    2043.0329  0.057440197  0.057144965            3 
 2965000   0.78345744     -3.65055    2050.8427  0.057640323  0.057133249            5 
 2966000   0.78381941   -3.6614526    2041.2406  0.057351106  0.057121357            4 
 2967000   0.79422731    -3.669399    2036.8785  0.057209259   0.05710937            7 
 2968000   0.76471337   -3.6686077    2046.6264  0.057463678  0.057097433            5 
 2969000   0.78540108   -3.6684081     2040.973  0.057285645  0.057085523            5 
 2970000   0.77966521   -3.6362609    2044.4444  0.057363759  0.057073651            5 
 2971000   0.77089087   -3.6692478    2047.3139  0.057424937  0.057061626            4 
 2972000   0.75256638   -3.6593372    2048.3629   0.05743503  0.057049605            4 
 2973000   0.75649344   -3.6590379     2043.259  0.057272648   0.05703766           12 
 2974000   0.78036613   -3.6885487    2045.4348  0.057314358  0.057025598            7 
 2975000    0.7918105   -3.6822764     2044.554  0.057270419  0.057013602            3 
 2976000   0.78969931   -3.6804754    2045.3447  0.057273318  0.057001657            7 
 2977000   0.77497845   -3.6694854    2045.5501  0.057259828   0.05698964            5 
 2978000   0.76843773   -3.6760607    2046.5361  0.057268191  0.056977604            4 
 2979000   0.76769234   -3.6629336    2041.5808  0.057110349  0.056965583            2 
 2980000   0.75837964   -3.6506509    2055.2234   0.05747269  0.056953604            3 
 2981000   0.76858955   -3.6629931    2046.3078  0.057204176  0.056941622            4 
 2982000   0.78163996   -3.6570533    2045.6461  0.057166503  0.056929512            5 
 2983000   0.78211341   -3.6697106    2048.8158  0.057235888  0.056917366            6 
 2984000   0.76865986   -3.6797693    2045.4836  0.057123649  0.056905296            4 
 2985000   0.76904756   -3.6381594    2045.8191  0.057113877  0.056893229            2 
 2986000    0.7774275   -3.6742244    2048.5117  0.057169897  0.056881116            3 
 2987000   0.78186983   -3.6865425    2050.2925  0.057200438  0.056869005            4 
 2988000   0.78434321   -3.6712755     2048.702  0.057136938  0.056856966            3 
 2989000   0.77221329   -3.6704696    2042.2647  0.056938348  0.056844737            3 
 2990000   0.75598671   -3.7015553     2043.378  0.056950334  0.056832479            3 
 2991000   0.76834852   -3.6740755    2046.4948  0.057018133   0.05682036            4 
 2992000   0.76188269   -3.6530649    2050.2168  0.057102742  0.056808072            3 
 2993000   0.77198769   -3.6647762    2046.8458  0.056989805  0.056795813            6 
 2994000    0.7669555    -3.688077    2049.5803  0.057046881  0.056783659            7 
 2995000   0.77314785   -3.6658008    2049.7568  0.057032743  0.056771371            6 
 2996000   0.76380251   -3.6683325    2044.8861   0.05687823  0.056759177            3 
 2997000   0.77411529   -3.6560144     2045.105  0.056865339   0.05674696            4 
 2998000   0.75933419   -3.6682009    2054.3618  0.057103674  0.056734731            2 
 2999000   0.77113055   -3.6863886     2052.622  0.057036291  0.056722672            3 
 3000000   0.78672078   -3.6804527    2044.3506  0.056787518  0.056710558            5 
 3001000   0.76707423     -3.67151    2047.7497  0.056862982  0.056698499            5 
 3002000   0.76653651   -3.6549902    2047.2054  0.056828931  0.056686389            7 
 3003000    0.7693128   -3.6809756    2050.9462  0.056913814  0.056674266            4 
 3004000   0.78606156   -3.6693724     2054.311  0.056988209  0.056662145            4 
 3005000   0.77715147   -3.6682812      2051.49  0.056891016   0.05665019            8 
 3006000   0.75325123   -3.6896634    2048.8598  0.056799174     0.056638            7 
 3007000   0.78250586   -3.6563246    2055.6612  0.056968774  0.056625891            7 
 3008000   0.79401543   -3.6557433    2056.6053   0.05697599  0.056613853            5 
 3009000   0.79065981    -3.674467    2057.2885  0.056975975  0.056601901            3 
 3010000   0.77130145   -3.6804188    2045.5006  0.056630692  0.056589876            7 
 3011000   0.77233763   -3.6920197    2048.8455  0.056704459  0.056577781            6 
 3012000   0.75545799   -3.6533272    2058.5462  0.056954022  0.056565553            4 
 3013000   0.75760527   -3.6761638     2057.171  0.056897085  0.056553407            4 
 3014000   0.76782613   -3.6646861    2062.1954  0.057017126  0.056541388            6 
 3015000   0.77335534   -3.6814501    2055.9021   0.05682427  0.056529398            3 
 3016000   0.77503623   -3.6977407    2058.6575  0.056881562  0.056517199            8 
 3017000   0.76704886   -3.6775033    2059.0709  0.056874127  0.056504998            6 
 3018000   0.76916222   -3.6840873    2051.7313   0.05665262  0.056492879            5 
 3019000   0.77953831   -3.6596868    2050.5773  0.056602001   0.05648071            3 
 3020000   0.76929774   -3.6776554    2050.7528  0.056588101  0.056468654            5 
 3021000    0.7698743   -3.6880261    2053.2415  0.056638021  0.056456443            4 
 3022000   0.77215175   -3.6485903    2053.9046  0.056637563  0.056444095            3 
 3023000   0.77410637   -3.6458382    2060.9123  0.056812004  0.056431866            4 
 3024000    0.7525674   -3.6598325    2047.7662  0.056430948  0.056419733            3 
 3025000   0.75909736   -3.6942976     2047.178  0.056396088  0.056407535            5 
 3026000   0.77331199   -3.6691497     2056.374    0.0566307  0.056395444            4 
 3027000   0.75965274    -3.681871    2055.9343  0.056599888  0.056383274            9 
 3028000   0.78047157   -3.6994696    2057.6949  0.056629648  0.056371068            5 
 3029000     0.773562   -3.6933479     2051.329  0.056435816  0.056358831            7 
 3030000   0.75876099   -3.6913463    2055.1386  0.056521964   0.05634671            4 
 3031000    0.7702028   -3.7177967    2057.1751  0.056559306  0.056334576            3 
 3032000   0.76604929   -3.6715755     2057.065  0.056537626  0.056322452            5 
 3033000    0.7548821   -3.6840095    2058.0346  0.056545627  0.056310276            5 
 3034000   0.76622903   -3.6818268    2055.8022  0.056465672   0.05629797           14 
 3035000   0.76630607   -3.7064946    2061.9949  0.056617102  0.056285738            3 
 3036000   0.76707429   -3.6666519    2062.0177   0.05659908  0.056273573            7 
 3037000   0.76246555   -3.6894123    2050.0965  0.056253335  0.056261447            6 
 3038000   0.76365791   -3.6791516    2056.0629  0.056398479   0.05624912            7 
 3039000    0.7635951   -3.6581685    2065.0992  0.056627706  0.056237017            5 
 3040000   0.76000308    -3.690138    2054.3763  0.056315139  0.056224933            6 
 3041000   0.78290945   -3.7034353    2060.0612  0.056452407  0.056212888            6 
 3042000   0.75836537   -3.7034039    2057.1549  0.056354232  0.056200774            4 
 3043000   0.75872806   -3.6897999    2061.1664  0.056445569  0.056188731            6 
 3044000   0.76283509   -3.6873221    2059.2602   0.05637484  0.056176606            2 
 3045000    0.7532439   -3.6871929    2057.6364  0.056311888    0.0561645            7 
 3046000   0.76697812    -3.678428    2056.0606   0.05625029  0.056152357            5 
 3047000   0.76823481   -3.7050993    2061.6693  0.056385222  0.056140295            6 
 3048000   0.76988593   -3.6810336    2062.6885  0.056394588   0.05612807            3 
 3049000   0.76512507   -3.6986374    2058.5756  0.056263683  0.056115899            5 
 3050000   0.76657711   -3.6979453    2057.9871  0.056229155  0.056103581            1 
 3051000   0.76713161   -3.6999987    2058.6904  0.056229935  0.056091301            4 
 3052000   0.75400417   -3.6778976    2066.7723  0.056432183  0.056079133            2 
 3053000   0.76052137   -3.7158534    2054.0428   0.05606624  0.056066903            6 
 3054000   0.75035799   -3.6811111    2068.0582  0.056430315  0.056054763            4 
 3055000   0.76427994   -3.6973306    2061.9013  0.056243899    0.0560426            2 
 3056000   0.76402098   -3.6922279    2061.6533   0.05621873  0.056030519            3 
 3057000   0.76909835   -3.7086653    2063.2384  0.056243551   0.05601835            7 
 3058000    0.7626857   -3.6944675    2065.4735  0.056286067   0.05600627           17 
 3059000   0.74580124   -3.7201742    2063.2777  0.056207848  0.055994083            4 
 3060000   0.75527004   -3.6973251    2066.1593  0.056267953  0.055981892            6 
 3061000   0.74485044   -3.6820249    2069.8615  0.056350361  0.055969796            5 
 3062000   0.75546264   -3.7300722    2065.1889  0.056204792   0.05595767            3 
 3063000   0.76013609   -3.6871644    2062.6621  0.056117698  0.055945564           11 
 3064000   0.75208234   -3.6819785     2069.317   0.05628038  0.055933344            6 
 3065000   0.75270368   -3.6688879    2080.0637  0.056554205  0.055921332            2 
 3066000   0.75275446   -3.6684707     2067.172  0.056185367  0.055909249            6 
 3067000   0.77679673   -3.6705304    2070.5557  0.056258987  0.055897269            4 
 3068000   0.75702489   -3.6878053    2069.1989  0.056203794  0.055885237            6 
 3069000      0.75852   -3.7109024    2060.8374  0.055958439  0.055873046            6 
 3070000   0.75621388   -3.7027861    2066.2968  0.056088405  0.055860897            3 
 3071000    0.7471407   -3.7085508    2062.8649  0.055977014  0.055848718            3 
 3072000    0.7518436   -3.6830057    2061.8727  0.055931876  0.055836486            7 
 3073000   0.76190884    -3.714736    2060.8542  0.055886055  0.055824191            3 
 3074000   0.76202425   -3.7077509     2056.021  0.055736851  0.055811814            5 
 3075000   0.76709887   -3.6734046    2071.0336  0.056125571  0.055799581            8 
 3076000    0.7681934   -3.6981288    2065.0454  0.055945097  0.055787358            4 
 3077000   0.77786209   -3.7018876    2063.5291  0.055885848  0.055775035           10 
 3078000   0.75251848   -3.6932873    2062.3765  0.055836488  0.055762763            5 
 3079000   0.77593024   -3.6689955    2067.1971  0.055948823  0.055750608            3 
 3080000   0.78315569   -3.7118556    2063.4811  0.055830117  0.055738504           16 
 3081000   0.76418999   -3.6852965    2070.8875  0.056012319  0.055726296            3 
 3082000   0.76189434   -3.7092152    2064.9549  0.055833736  0.055714046            7 
 3083000   0.76064209   -3.6962203    2067.3866  0.055881355  0.055701814            5 
 3084000   0.75670023   -3.7106656    2074.0312  0.056042779  0.055689666            3 
 3085000   0.75138735   -3.7171585    2066.0786  0.055809795  0.055677541            4 
 3086000    0.7542232   -3.6947784    2073.1271  0.055982046  0.055665488            5 
 3087000   0.74892478   -3.6809736     2075.223   0.05602049  0.055653363            5 
 3088000    0.7420395   -3.7061867    2075.4097  0.056007385  0.055641255            3 
 3089000    0.7563758   -3.6825419    2069.7985  0.055837878  0.055629252            3 
 3090000   0.77382763   -3.7105624    2065.5236  0.055704519   0.05561715            2 
 3091000   0.76512607   -3.6996613    2068.9532   0.05577896  0.055604896            3 
 3092000    0.7554124    -3.673276    2071.9184  0.055840835  0.055592808            5 
 3093000   0.77264762   -3.6611873    2071.0764  0.055800096  0.055580577            4 
 3094000   0.73878591   -3.6859351    2065.6942  0.055637098  0.055568411            4 
 3095000   0.74178112   -3.6914889     2071.377  0.055772131  0.055556282            8 
 3096000   0.74823607   -3.6817055    2067.1905  0.055641434  0.055544126            8 
 3097000   0.77001455   -3.6915636    2074.1258   0.05581008  0.055532071            4 
 3098000   0.75074382   -3.6910322    2069.8446  0.055676906  0.055519938           16 
 3099000   0.75895395   -3.7047383    2074.2102  0.055776331   0.05550766            4 
 3100000   0.75210014   -3.7121893    2072.3569   0.05570852   0.05549532            3 
 3101000   0.75385929   -3.6717644    2069.6027  0.055616541  0.055482985            7 
 3102000   0.75513031   -3.6667724    2079.2009  0.055856461  0.055470808            4 
 3103000   0.74731115   -3.6747734    2068.5843  0.055553344   0.05545858            4 
 3104000   0.75880829   -3.6855304    2068.9089   0.05554416  0.055446427            4 
 3105000   0.74147471   -3.7012124    2073.1512  0.055640129  0.055434112            7 
 3106000   0.76346748   -3.6912687    2072.5161  0.055605176  0.055421969            7 
 3107000   0.75639007    -3.694832    2067.4625  0.055451736  0.055409853           11 
 3108000   0.75846024   -3.7074602    2073.3622   0.05559208   0.05539762            5 
 3109000   0.75123825   -3.7094066    2076.6399  0.055662053  0.055385479            3 
 3110000    0.7398825   -3.7078358    2074.1698   0.05557797  0.055373323            7 
 3111000   0.75969646   -3.6958813    2072.7048  0.055520861  0.055361138            4 
 3112000   0.73874721   -3.7227152    2072.6129   0.05550056  0.055348966            7 
 3113000   0.75043877   -3.6808537    2073.1305  0.055496587   0.05533673            4 
 3114000   0.74868138   -3.7024139    2081.3586  0.055698957  0.055324641            4 
 3115000   0.75337893   -3.6997664    2072.3638  0.055440444  0.055312465           11 
 3116000   0.76423276    -3.718687    2067.3562  0.055288729  0.055300338            6 
 3117000   0.75067563   -3.6859653    2077.0865  0.055531134   0.05528817            5 
 3118000   0.76285607   -3.6905575    2079.8394  0.055586899  0.055276118           10 
 3119000   0.76884692   -3.7018427     2081.089  0.055602464  0.055264053            3 
 3120000   0.75258872   -3.7022569    2077.7802  0.055496266  0.055252022            6 
 3121000   0.75888463    -3.703127    2078.0008  0.055484376   0.05523999            3 
 3122000   0.75107414    -3.688345    2081.4117  0.055557648    0.0552279           10 
 3123000   0.73886846   -3.6845536    2086.5533  0.055677055  0.055215896            4 
 3124000   0.74082339   -3.7062928    2078.9815  0.055457253  0.055203842            3 
 3125000   0.76348665   -3.6904276    2079.2998  0.055447994  0.055191695           10 
 3126000   0.74082567   -3.6975057    2087.4259  0.055646883   0.05517964            6 
 3127000   0.76022994   -3.6988546    2081.7799  0.055478625  0.055167587            2 
 3128000   0.75440041   -3.7050352    2078.3575  0.055369712  0.055155563           10 
 3129000   0.75074813   -3.7087463    2082.6883  0.055467355  0.055143656            3 
 3130000   0.74649527   -3.6867746       2076.6  0.055287539  0.055131627            6 
 3131000   0.75655716   -3.7034633    2080.5363  0.055374649  0.055119634            5 
 3132000   0.75634793   -3.7594109    2081.0413  0.055370404  0.055107546            8 
 3133000   0.74752166    -3.682944    2077.6316  0.055262038  0.055095394            7 
 3134000   0.74470323   -3.7002816    2087.1292  0.055496948  0.055083256            4 
 3135000   0.75145468   -3.7129514    2078.4301  0.055248008  0.055071135            3 
 3136000   0.76117707   -3.7011395    2088.0199  0.055485222  0.055059034            4 
 3137000   0.74347949   -3.7206468    2081.2838  0.055288592  0.055046919           12 
 3138000   0.75556819    -3.722811    2078.8163  0.055205447  0.055034886            6 
 3139000   0.75761186   -3.7114513    2086.3671  0.055388315  0.055022729            6 
 3140000   0.76540001   -3.7151554    2080.7425  0.055221405  0.055010619            6 
 3141000   0.75904162   -3.7124947    2081.3288  0.055219378  0.054998479            9 
 3142000   0.74254142    -3.705213    2082.4469  0.055231457  0.054986303            3 
 3143000   0.74444855    -3.714873    2082.4658  0.055214386  0.054974065            3 
 3144000   0.74097726    -3.700378    2085.1899  0.055269028  0.054961877            6 
 3145000   0.74948558   -3.6902996    2091.7606  0.055425558  0.054949823            6 
 3146000   0.75095826   -3.6858462    2085.2841  0.055236388  0.054937757           10 
 3147000   0.73724842   -3.7034431     2083.526  0.055172281  0.054925706            4 
 3148000   0.75417747   -3.7062808    2080.6315  0.055078133   0.05491368            7 
 3149000    0.7296725   -3.7084833    2089.7993  0.055303251  0.054901541            8 
 3150000   0.74296378   -3.7313393    2087.7719  0.055232061  0.054889474            3 
 3151000    0.7642399   -3.7043215    2085.8262  0.055163075  0.054877411            4 
 3152000   0.75021122   -3.7215436    2082.8247  0.055066219  0.054865269            7 
 3153000   0.74372811   -3.7215797    2090.7226  0.055257495  0.054853145            5 
 3154000   0.74110831   -3.7225098    2085.6732  0.055106564  0.054840951            3 
 3155000   0.74251577   -3.7074746    2080.6673  0.054956875   0.05482888            4 
 3156000   0.73142554   -3.7229109    2083.1127  0.055004032  0.054816815            4 
 3157000   0.76303066    -3.709943    2090.7442  0.055188053  0.054804717           10 
 3158000   0.75510258   -3.7317169    2083.6406  0.054983127  0.054792689           10 
 3159000   0.73319232   -3.7140502    2083.1463  0.054952682  0.054780548            5 
 3160000   0.73977109   -3.7228619    2085.1828  0.054988999  0.054768388            5 
 3161000   0.73919544   -3.7076156    2093.8747  0.055200746  0.054756327            7 
 3162000   0.73528207   -3.7172543    2094.6467  0.055203636  0.054744363            7 
 3163000   0.74703566   -3.7030976    2094.6408  0.055186025  0.054732461            3 
 3164000    0.7464504   -3.7027964    2092.3002  0.055106938  0.054720465            6 
 3165000   0.74344896   -3.7182115    2086.7767  0.054944095  0.054708524            6 
 3166000   0.73559343   -3.6892818    2088.5932  0.054974553  0.054696624            9 
 3167000   0.75560523   -3.7098334    2092.6323  0.055063474  0.054684669            5 
 3168000   0.74212845   -3.7448221    2091.2995  0.055011035  0.054672711            7 
 3169000   0.74347615    -3.733229    2092.1902  0.055017097  0.054660701            3 
 3170000   0.73638244   -3.7100925    2093.3564  0.055030401  0.054648722            3 
 3171000   0.74534625    -3.715162    2088.9276  0.054896658  0.054636662            2 
 3172000   0.73833073   -3.7093073    2092.8383   0.05498209  0.054624793            4 
 3173000   0.74247602   -3.6985016    2097.3804  0.055084052  0.054612859            6 
 3174000   0.76342423   -3.7059866    2088.1963  0.054825569  0.054600993            6 
 3175000   0.74277893   -3.7141039    2086.7323  0.054769876  0.054589012            5 
 3176000    0.7367695    -3.705793    2091.1626  0.054868877  0.054577102            5 
 3177000   0.71806269   -3.7333833     2099.074  0.055059124  0.054565123           10 
 3178000   0.72511717    -3.710788    2097.8045  0.055008509  0.054553232            4 
 3179000   0.72780423   -3.7188605    2092.8707  0.054861872  0.054541302            2 
 3180000   0.75180821   -3.6928956    2090.7578   0.05478925  0.054529455            9 
 3181000    0.7322743   -3.7113031    2095.9595  0.054908296  0.054517543            5 
 3182000   0.72541812   -3.7111271    2102.8808  0.055072301  0.054505654           22 
 3183000   0.73457397   -3.7225694    2093.9982  0.054822449  0.054493788           10 
 3184000   0.73639057     -3.73683    2102.4144  0.055025503  0.054481953            8 
 3185000   0.72542384   -3.7208485    2094.4594  0.054800089  0.054470148           12 
 3186000   0.74757978   -3.7327227    2095.4561  0.054808958  0.054458363            6 
 3187000   0.74556182   -3.7366084    2095.7245  0.054798778  0.054446554           18 
 3188000   0.75008887   -3.7239326    2097.8061  0.054836002  0.054434678            5 
 3189000   0.73729173   -3.7322272    2100.0792  0.054878208  0.054422984            5 
 3190000   0.74153277    -3.726521    2100.3667  0.054868512  0.054411181            5 
 3191000   0.73338062   -3.7117642    2090.3132  0.054588771  0.054399428            5 
 3192000   0.72746262   -3.7487323    2092.3079  0.054623746  0.054387585            3 
 3193000   0.74385672   -3.7201638    2098.5168  0.054768682  0.054375826            6 
 3194000   0.73925252   -3.7404819    2102.1768  0.054847027   0.05436409            3 
 3195000   0.73570486   -3.7170213    2106.2831  0.054936962  0.054352345            6 
 3196000   0.72734221   -3.7122453     2103.294  0.054841835   0.05434058            4 
 3197000   0.74969822   -3.7129189    2101.2672  0.054771848  0.054328629            4 
 3198000   0.74538812   -3.7084225    2098.9982  0.054695596  0.054316888            6 
 3199000   0.73527173   -3.7250935    2099.1998  0.054683749  0.054305116            6 
 3200000    0.7376745   -3.7438527    2099.7106  0.054679964  0.054293321            4 
 3201000   0.73369867   -3.7059173    2095.7038   0.05455857  0.054281531            7 
 3202000   0.74220581   -3.7351415    2098.8507   0.05462343  0.054269663            5 
 3203000   0.73855289   -3.7390014    2091.8907  0.054425297  0.054257758            8 
 3204000   0.73239491   -3.7145462    2104.3288  0.054731815  0.054245955            4 
 3205000   0.74401668   -3.7298292    2101.8043  0.054649098  0.054234155           11 
 3206000   0.75310705   -3.7013477    2107.4147  0.054777883  0.054222518            3 
 3207000   0.74331424   -3.7399497    2105.2554  0.054704693   0.05421082            3 
 3208000   0.73933638   -3.7318378     2102.566  0.054617778  0.054199017            7 
 3209000   0.75093779   -3.7108957    2101.2109  0.054565569  0.054187254            4 
 3210000   0.73247148   -3.7172618    2106.4505  0.054684593  0.054175508            5 
 3211000   0.72781028   -3.7346326    2100.5725  0.054515014  0.054163755            5 
 3212000   0.73500611   -3.7314014    2099.9435  0.054481721  0.054152014            6 
 3213000    0.7493451   -3.7517393    2107.8313  0.054669345   0.05414025            7 
 3214000   0.73480624   -3.7257155    2102.5617  0.054515706  0.054128476            2 
 3215000   0.75553851   -3.7376942    2105.1103  0.054564809  0.054116841            8 
 3216000   0.73856519   -3.7372686    2102.6207  0.054483332  0.054105103            2 
 3217000   0.73573448   -3.7272653    2101.7532  0.054443923  0.054093293            5 
 3218000   0.73948374   -3.7354893    2103.8546  0.054481422  0.054081538            9 
 3219000   0.73504521   -3.7381711    2105.3806  0.054504002  0.054069848            6 
 3220000   0.73582489   -3.7203876    2105.8466  0.054499136  0.054058039            6 
 3221000   0.73261456   -3.7278597    2113.4399  0.054678669  0.054046433            6 
 3222000   0.73092025   -3.7277366    2109.7027   0.05456504  0.054034641            5 
 3223000    0.7297095   -3.7367424    2108.0524   0.05450544  0.054022889            8 
 3224000    0.7288098   -3.7261514    2108.3232  0.054495534  0.054011136            5 
 3225000    0.7280639   -3.7492779    2108.0885   0.05447257  0.053999435            4 
 3226000   0.73443829   -3.7346543    2105.9621  0.054400758  0.053987773            5 
 3227000   0.72271153   -3.7420985    2109.3772  0.054472089  0.053976053            4 
 3228000   0.73185954   -3.7422409     2108.284  0.054426993  0.053964278            3 
 3229000    0.7270961   -3.7424778    2105.3038  0.054333225  0.053952498            6 
 3230000   0.73154127   -3.7274921    2110.7162  0.054456042  0.053940778            3 
 3231000   0.73289279   -3.7452426    2102.4518  0.054226034  0.053929046            6 
 3232000   0.73492628   -3.7376606    2103.3235  0.054231733  0.053917381           10 
 3233000   0.73689365   -3.7152995    2110.1898  0.054391943  0.053905654            4 
 3234000   0.72624424   -3.7395613    2102.4298  0.054175165  0.053893945            5 
 3235000   0.73728341   -3.7566408    2101.6749  0.054138973  0.053882174            7 
 3236000   0.73064569   -3.7399613    2110.7739  0.054356558  0.053870316            6 
 3237000   0.75414603   -3.7150652     2108.802  0.054289001  0.053858687            3 
 3238000   0.71276229   -3.7384915    2110.8125  0.054323978  0.053847091           10 
 3239000   0.74682593   -3.7468692    2115.8686   0.05443729  0.053835419            6 
 3240000   0.75135073   -3.7318538    2117.1305  0.054452945  0.053823781            7 
 3241000   0.71769798    -3.742064    2107.4425  0.054187045  0.053812075            6 
 3242000   0.74418061   -3.7249132    2110.7969  0.054256551  0.053800381            5 
 3243000   0.72600853   -3.7294322    2110.7962  0.054239803  0.053788816            4 
 3244000   0.72326283   -3.7378537    2110.3931  0.054212728  0.053777169           12 
 3245000   0.72998174   -3.7212549     2107.687  0.054126529  0.053765537            6 
 3246000   0.73518662    -3.766275    2112.1361  0.054224073  0.053753874            7 
 3247000   0.73993767   -3.7227056    2117.6543  0.054348997  0.053742303            6 
 3248000   0.72841881   -3.7246493    2116.0949  0.054292254  0.053730697            7 
 3249000   0.73394956   -3.7317315    2104.3753  0.053974948  0.053719114            4 
 3250000   0.72976045   -3.7366426    2114.0689  0.054206894  0.053707564            3 
 3251000   0.72898872   -3.7377321    2120.1232  0.054345412   0.05369592            3 
 3252000   0.74304753   -3.7430477    2115.5214  0.054210778  0.053684393            5 
 3253000   0.72780271   -3.7251193    2114.1796   0.05415974  0.053672731            2 
 3254000   0.73240792   -3.7516472    2111.4717  0.054073748  0.053661157            6 
 3255000   0.72222816   -3.7375756     2109.609  0.054009446  0.053649494            6 
 3256000   0.73419384   -3.7227874    2119.4211  0.054243989  0.053637952            4 
 3257000   0.72865387    -3.754634    2116.3145  0.054147848  0.053626394            5 
 3258000   0.72767705   -3.7541499    2117.2737  0.054155763  0.053614772            5 
 3259000   0.73886399    -3.742655     2119.256  0.054189832  0.053603066            5 
 3260000   0.72639678   -3.7387843    2116.7868  0.054110092  0.053591508            2 
 3261000   0.74334481   -3.7287711    2118.2044  0.054129725  0.053579957            8 
 3262000   0.72065916   -3.7330108    2111.4782  0.053941299  0.053568459            3 
 3263000   0.72910802   -3.7612335    2117.9221  0.054089337  0.053556853            9 
 3264000   0.74366315   -3.7400002     2113.154  0.053951032  0.053545221           11 
 3265000    0.7158517   -3.7302506    2123.5104  0.054198836  0.053533665            6 
 3266000   0.74333869   -3.7361533    2123.9697  0.054193961  0.053522182            3 
 3267000    0.7236179   -3.7279281    2123.9721  0.054177433   0.05351077            6 
 3268000   0.73766967   -3.7358467    2124.5667  0.054176018  0.053499271            2 
 3269000   0.73788963   -3.7323502    2123.3397  0.054128167  0.053487824            6 
 3270000    0.7248225   -3.7547262    2109.9963  0.053771568  0.053476427           11 
 3271000   0.73270195    -3.738456    2124.1543  0.054115823  0.053464904            9 
 3272000   0.73997109   -3.7547029    2121.0299  0.054019709  0.053453392            5 
 3273000   0.73395931   -3.7505042    2118.8566  0.053947871  0.053441819            6 
 3274000   0.71342145   -3.7555046    2116.8624  0.053880635  0.053430289            4 
 3275000    0.7347143   -3.7532523    2119.5117  0.053931596  0.053418797            2 
 3276000   0.72937581   -3.7594707    2125.4288   0.05406565  0.053407247            6 
 3277000   0.72974483   -3.7173936    2124.8425  0.054034242   0.05339571           15 
 3278000   0.72398688   -3.7448356    2120.6426  0.053910989  0.053384206            5 
 3279000   0.71072572   -3.7364125    2127.0144  0.054056479  0.053372657            5 
 3280000   0.72979085    -3.769855    2121.3729  0.053896669  0.053361176            3 
 3281000   0.73120437    -3.763577    2128.4484  0.054059951  0.053349638            6 
 3282000   0.73614122   -3.7484979    2121.0964  0.053856805  0.053338082            7 
 3283000   0.73234873   -3.7489297    2114.4823  0.053672512  0.053326439            3 
 3284000    0.7229912   -3.7492512    2124.3834  0.053907416   0.05331496            6 
 3285000   0.72547329   -3.7555717    2121.9244  0.053828624  0.053303463            5 
 3286000   0.71827536   -3.7229769    2119.1776  0.053742584  0.053291852            5 
 3287000   0.72432091   -3.7590658    2119.4576  0.053733333  0.053280223            7 
 3288000   0.73803054   -3.7438328     2132.657  0.054051526  0.053268692            4 
 3289000   0.73252825   -3.7454196     2120.983  0.053739307  0.053257054            5 
 3290000   0.71119445    -3.763341    2117.7769  0.053641765  0.053245364            7 
 3291000   0.74044336   -3.7537877    2129.3689  0.053918994  0.053233749           12 
 3292000   0.72037445   -3.7727463    2114.7144  0.053531652  0.053222027            7 
 3293000   0.72023848    -3.750702    2124.3472  0.053759165   0.05321027            5 
 3294000   0.71806479   -3.7431946    2117.6939  0.053574528  0.053198594            3 
 3295000   0.73086072   -3.7659317    2120.1251  0.053619756  0.053186868            7 
 3296000   0.72011837   -3.7648959    2119.0936  0.053577407  0.053175218            4 
 3297000    0.7159834   -3.7488029    2117.8268  0.053529139  0.053163556            6 
 3298000   0.73286949   -3.7473423     2131.384  0.053855468  0.053151933            4 
 3299000   0.72121557   -3.7414203    2130.1915   0.05380902  0.053140398            5 
 3300000   0.73130234   -3.7458021    2123.0253  0.053611751  0.053128773            2 
 3301000   0.72942656   -3.7581381    2118.2012  0.053473726  0.053117145            8 
 3302000   0.73360866   -3.7578964    2129.5467   0.05374386  0.053105536            5 
 3303000   0.71366157   -3.7645619    2121.8563  0.053533563   0.05309395            7 
 3304000   0.72516806   -3.7603891    2126.4175  0.053632402  0.053082313            4 
 3305000   0.73999102   -3.7724336    2121.5404  0.053493203  0.053070708            7 
 3306000   0.73449809   -3.7403945    2132.3637  0.053749841  0.053059141            6 
 3307000    0.7172769   -3.7351787    2133.2907  0.053756946  0.053047588            7 
 3308000   0.72162776    -3.751882    2117.8166  0.053350882  0.053036009            8 
 3309000   0.71357144   -3.7675829    2126.2889  0.053548124  0.053024469            5 
 3310000   0.71801034   -3.7531663    2127.7493  0.053568714  0.053012948            7 
 3311000   0.71974485   -3.7594488    2133.8285   0.05370554  0.053001451            4 
 3312000   0.72496791   -3.7615832    2124.2998  0.053449572  0.052989831            6 
 3313000   0.71551725    -3.752443    2128.9501  0.053550411  0.052978195            8 
 3314000   0.71530665    -3.786271    2126.7612  0.053479211  0.052966592            4 
 3315000   0.71292983   -3.7332329    2130.1272  0.053547693  0.052955058            5 
 3316000   0.72306893    -3.782209    2124.6822  0.053394708  0.052943463           13 
 3317000   0.73672745   -3.7500375    2118.6895  0.053228055  0.052931921            4 
 3318000   0.71423016   -3.7686235    2122.9971  0.053320201  0.052920315            9 
 3319000   0.73316961   -3.7727582    2128.7689  0.053449053  0.052908634            8 
 3320000   0.72704606   -3.7432438    2125.5328  0.053351727  0.052896992            6 
 3321000   0.70419147   -3.7454967    2130.4036  0.053457885  0.052885365            4 
 3322000   0.71187719    -3.769217    2127.1635  0.053360513  0.052873706            2 
 3323000   0.71979867    -3.756514    2127.6539  0.053356753  0.052862051            8 
 3324000   0.71241272   -3.7520247    2128.2872  0.053356579  0.052850514            7 
 3325000   0.74230672   -3.7579405    2126.5819  0.053297791  0.052838953            7 
 3326000   0.72487099   -3.7648395    2128.7682  0.053336546  0.052827409            3 
 3327000   0.72096439   -3.7666547    2137.9315  0.053550031  0.052815862            7 
 3328000   0.73052417   -3.7659274    2126.4265  0.053245857  0.052804279            7 
 3329000   0.72322746   -3.7401836    2131.3108  0.053352127  0.052792836            6 
 3330000   0.70708165   -3.7690092    2128.3112  0.053261041  0.052781357            5 
 3331000   0.71354095    -3.764591    2131.2525  0.053318635  0.052769893           10 
 3332000   0.73478754   -3.7587867    2131.5251  0.053309452  0.052758425            4 
 3333000   0.71304596    -3.773477    2131.6732   0.05329716  0.052747032            5 
 3334000   0.72033495   -3.7428527    2136.0747   0.05339119   0.05273563            3 
 3335000   0.71494379   -3.7456349    2136.3714  0.053382595  0.052724287            3 
 3336000   0.72257101   -3.7596641    2134.4765  0.053319258  0.052712958            7 
 3337000    0.7203013      -3.7689    2138.3444  0.053399871  0.052701709            4 
 3338000   0.71990495   -3.8047666    2129.9211  0.053173585  0.052690312            6 
 3339000   0.72173518   -3.7882219    2131.7751  0.053203931  0.052678909            9 
 3340000   0.71588778   -3.7573189    2140.0247  0.053393829  0.052667481           13 
 3341000   0.71567998   -3.7466065    2135.6054  0.053267619  0.052656077            7 
 3342000   0.72412706   -3.7464799    2142.8843  0.053433181  0.052644764            5 
 3343000   0.71300267   -3.7476612     2135.359  0.053229609  0.052633577            7 
 3344000   0.71743175   -3.7618917    2147.4693  0.053515483   0.05262228            7 
 3345000   0.72347677   -3.7374649    2136.4921  0.053226013  0.052610939            8 
 3346000   0.73346684   -3.7692439    2139.0554  0.053273944  0.052599602            4 
 3347000   0.70811572   -3.7940956    2142.0576  0.053332775  0.052588309            5 
 3348000    0.7119453   -3.7505932    2139.3935  0.053250535  0.052576901            8 
 3349000   0.72937714   -3.7606445    2148.3989  0.053458716  0.052565601           14 
 3350000   0.73050349   -3.7706204    2139.0074  0.053209138  0.052554368            4 
 3351000   0.70347383   -3.7563069    2139.9092  0.053215687  0.052543103            3 
 3352000   0.68393915   -3.7581024    2138.1237  0.053155423  0.052531789            8 
 3353000   0.71174018   -3.7568609    2144.9866  0.053310135  0.052520482            4 
 3354000   0.72032834   -3.7864839    2140.8664   0.05319187  0.052509151            3 
 3355000   0.71475394   -3.7708844    2137.6743  0.053096728  0.052497825            7 
 3356000   0.71462046   -3.7592852    2141.7064   0.05318103  0.052486609            7 
 3357000   0.72264723   -3.7720496    2141.0294  0.053148381  0.052475263            7 
 3358000   0.71199155   -3.7506749    2129.2653  0.052840612  0.052463874           10 
 3359000   0.70904997   -3.7599549    2138.8153  0.053061805  0.052452551            5 
 3360000    0.7063655   -3.7631403    2131.5056  0.052864722  0.052441154            5 
 3361000   0.73649543   -3.7737821    2146.1014  0.053210885   0.05242984            4 
 3362000   0.70983736    -3.767724    2144.7148  0.053160689  0.052418599            8 
 3363000   0.71591801   -3.7749495    2139.6809  0.053020144  0.052407284            9 
 3364000    0.7121368   -3.7584308    2137.8624  0.052959334  0.052395982            6 
 3365000   0.72308009   -3.7713376    2135.0028  0.052872778  0.052384661            7 
 3366000   0.72259342   -3.7600192    2139.9158  0.052978703  0.052373272            6 
 3367000   0.71151721   -3.7787728    2137.5321  0.052903973  0.052362023            6 
 3368000   0.69814386   -3.7897796    2138.0091  0.052900066  0.052350717            4 
 3369000   0.70536488   -3.7766548    2133.9763  0.052784611  0.052339369            8 
 3370000   0.71749704   -3.7474868     2144.782  0.053036152  0.052328106           12 
 3371000   0.70281795   -3.7528674    2147.0205  0.053075758  0.052316809            3 
 3372000   0.70467878   -3.7472819    2146.7474  0.053053268  0.052305532            3 
 3373000   0.70866211   -3.7561699    2146.1804  0.053023531  0.052294348            4 
 3374000    0.7251577   -3.7702325    2146.2248  0.053008911  0.052283167            3 
 3375000   0.72280845   -3.7378647    2150.4262  0.053096943  0.052271999            3 
 3376000   0.70504432   -3.7611441    2136.2218  0.052730593  0.052260795            6 
 3377000    0.7151525   -3.7492729    2145.2713  0.052938291  0.052249504            7 
 3378000   0.71828367   -3.7637306     2143.262  0.052873051  0.052238202            6 
 3379000   0.70529913    -3.768319     2149.767   0.05301783     0.052227            5 
 3380000   0.68695827   -3.7766902    2146.7846  0.052928614   0.05221575            8 
 3381000   0.68727481   -3.7772426    2143.9143  0.052842215  0.052204517            8 
 3382000   0.70003924   -3.7928921    2145.1973  0.052858202  0.052193225            4 
 3383000   0.69666121   -3.7767265    2146.0504  0.052863592  0.052181859            3 
 3384000   0.69963229   -3.7713754    2143.4835  0.052784759  0.052170475            7 
 3385000   0.71730654   -3.7685511    2143.1183  0.052760176  0.052159154            6 
 3386000    0.7108207   -3.7906643    2149.3884  0.052898907  0.052147908            5 
 3387000   0.70394675   -3.7766627    2142.1637  0.052705533  0.052136626            9 
 3388000   0.71882044   -3.7933268    2144.5108  0.052747708  0.052125353            3 
 3389000   0.69385246   -3.7642419    2155.1869  0.052994662  0.052114087            3 
 3390000   0.70187314   -3.7771183    2144.5335  0.052717145  0.052102831            4 
 3391000   0.71625765   -3.8040784    2143.0463  0.052665053  0.052091524            4 
 3392000    0.7095001   -3.7859622    2145.4693  0.052709054  0.052080192            4 
 3393000   0.70639916   -3.7987991    2144.0452  0.052658542  0.052068704            3 
 3394000   0.70899971    -3.773643    2148.3683  0.052749174  0.052057298            9 
 3395000   0.71544131   -3.7729425    2146.3609  0.052684362  0.052045893            5 
 3396000    0.7259374   -3.7834962    2146.7561  0.052678547  0.052034603            5 
 3397000   0.69623364   -3.7866742    2146.1658  0.052648557  0.052023214            7 
 3398000   0.70610165   -3.7811384    2144.2675   0.05258651  0.052011892            4 
 3399000   0.69489187   -3.7802624    2143.1026  0.052542477  0.052000529            5 
 3400000   0.71016851   -3.7890706     2144.882  0.052570638  0.051989205            5 
 3401000   0.70264789   -3.7590554    2145.5504  0.052571558  0.051977777            3 
 3402000   0.71695535   -3.8405598    2140.2056  0.052425181  0.051966346            7 
 3403000   0.72216122   -3.7916397     2146.581  0.052565897  0.051954804            6 
 3404000   0.69451447   -3.7573223    2150.9958  0.052658533  0.051943519            4 
 3405000   0.71024969   -3.7568546    2150.5218  0.052631468  0.051932258            9 
 3406000    0.7096312   -3.7723813    2147.4629  0.052541174  0.051920921            4 
 3407000   0.70274764    -3.799761    2144.0943   0.05244336  0.051909648           10 
 3408000   0.70213816    -3.793442    2143.4889  0.052413167  0.051898299            5 
 3409000   0.69590416    -3.778816    2135.4507  0.052201299  0.051886823            4 
 3410000   0.69366292   -3.7775977    2150.8641  0.052562661  0.051875459            4 
 3411000   0.68205652    -3.764079    2143.2863  0.052362121  0.051864171            4 
 3412000   0.70512512   -3.7788438    2142.3462  0.052323812  0.051852716            5 
 3413000   0.70414883    -3.789125    2145.8292  0.052393524   0.05184136            5 
 3414000   0.70051384   -3.7802831    2149.3444  0.052463981  0.051829882            6 
 3415000   0.69900958   -3.7885546      2144.62  0.052333333  0.051818454            4 
 3416000   0.70828922   -3.7828173    2148.7142   0.05241789  0.051807018            8 
 3417000   0.69879845   -3.7965655    2142.5299  0.052251729  0.051795611            6 
 3418000    0.7052022   -3.7857505    2148.5003  0.052382004  0.051784203            6 
 3419000   0.68944145   -3.7681443    2148.0335  0.052355307  0.051772794            7 
 3420000   0.69980528   -3.7957738    2147.0855  0.052316898  0.051761365            6 
 3421000    0.6917236   -3.7828716    2145.3205  0.052258612  0.051749997           11 
 3422000    0.6982785   -3.7787191    2152.8102   0.05242573  0.051738701            7 
 3423000   0.71516158   -3.7982814    2148.2486  0.052299362  0.051727388            3 
 3424000   0.70828724   -3.7925586     2149.927  0.052324937  0.051715963            4 
 3425000   0.69974516   -3.8119682     2152.438  0.052370754  0.051704534           13 
 3426000   0.71257229   -3.7824044    2152.2792  0.052351606   0.05169322            6 
 3427000   0.70208196   -3.7822145    2152.6543   0.05234545  0.051681786            8 
 3428000   0.70440836   -3.7889252    2151.4162  0.052300082  0.051670506            6 
 3429000   0.71706405   -3.7934672    2150.2106  0.052255532  0.051659208            5 
 3430000   0.69197775   -3.7985432    2147.9825  0.052186163  0.051647804            8 
 3431000   0.70036814   -3.7981842    2153.6686  0.052309059  0.051636409            8 
 3432000   0.71520823   -3.7906271    2155.8817  0.052347555  0.051625059            7 
 3433000   0.70980884   -3.7923985    2153.1407  0.052265772  0.051613734            6 
 3434000   0.70825854   -3.7907368    2151.3635  0.052207423  0.051602383            4 
 3435000   0.71864062   -3.7813375    2153.5056  0.052244193  0.051591064            6 
 3436000   0.70469768   -3.7939675    2150.5998  0.052158513   0.05157978           10 
 3437000   0.70037317   -3.7784457    2143.3771  0.051968216  0.051568457            6 
 3438000   0.69623627   -3.8045913    2154.5769  0.052224571  0.051557079            5 
 3439000   0.71101697   -3.7797051    2156.6355  0.052259269  0.051545759            4 
 3440000   0.70450603    -3.777265    2156.1699  0.052232799  0.051534475            8 
 3441000   0.71556868   -3.7789409    2153.7364  0.052158685  0.051523245            9 
 3442000   0.70451509   -3.7828425    2150.8482  0.052073606   0.05151201            4 
 3443000   0.68447748   -3.7936871    2154.1682  0.052138837  0.051500799            1 
 3444000   0.69275387   -3.7724955    2156.7916  0.052187177  0.051489569            2 
 3445000   0.69966913   -3.7808036    2158.9282   0.05222371  0.051478384            8 
 3446000   0.68795437   -3.7911887    2154.6196  0.052104362  0.051467303            4 
 3447000   0.69618632   -3.7733208    2163.6169  0.052306761  0.051456141            9 
 3448000   0.71255351   -3.7858312     2154.503  0.052071323  0.051444918            6 
 3449000   0.69856249   -3.8058741     2157.985  0.052140354  0.051433665            4 
 3450000     0.683566   -3.7772161    2159.1248  0.052152772  0.051422497            5 
 3451000   0.70250103    -3.768738    2163.7509  0.052249369  0.051411344            8 
 3452000   0.71452525   -3.7857859    2153.6152  0.051989552  0.051400157            7 
 3453000   0.69972387   -3.7931453    2159.4051  0.052114227  0.051388931            6 
 3454000   0.69642298   -3.8017626    2158.3214  0.052072992  0.051377737           13 
 3455000   0.68871659   -3.7809856    2162.4468  0.052157425  0.051366711           10 
 3456000   0.68571719   -3.7972783     2158.771  0.052053699  0.051355647            5 
 3457000   0.70963726   -3.8119995    2155.9399  0.051970395  0.051344626            5 
 3458000   0.70319865   -3.7691274    2170.2934  0.052301268  0.051333566            6 
 3459000    0.6967816   -3.7796367    2163.6059  0.052125034  0.051322489            6 
 3460000   0.69192751   -3.7971193    2159.2628  0.052005367  0.051311379            3 
 3461000   0.69578985   -3.8224218    2162.5051  0.052068407  0.051300235            5 
 3462000   0.70353476   -3.7965201    2158.9478  0.051967739  0.051289133            8 
 3463000   0.70057344   -3.8175964    2162.1603  0.052030038  0.051278074            9 
 3464000   0.67836639   -3.8010284    2165.0421  0.052084346  0.051266945            4 
 3465000    0.7040153   -3.8020604     2166.184  0.052096778  0.051255833            8 
 3466000   0.70737552   -3.7809788    2166.6352  0.052092596  0.051244759            7 
 3467000   0.70921852   -3.7765193    2165.8165  0.052057892  0.051233745            9 
 3468000   0.69064859   -3.7853677    2162.4071  0.051960955  0.051222674            6 
 3469000   0.67917171   -3.8054293    2169.1219  0.052107282  0.051211593            4 
 3470000   0.70559499   -3.7871779    2163.7304  0.051962787  0.051200498           10 
 3471000   0.70304758   -3.8019976    2163.9011  0.051951914   0.05118943            5 
 3472000   0.69049092   -3.8041641    2163.1594  0.051919148  0.051178376            8 
 3473000   0.70159068   -3.7901208    2169.2537   0.05205043  0.051167293            5 
 3474000   0.68972375   -3.7995276    2162.4156  0.051871416   0.05115616            6 
 3475000   0.68837222   -3.7982465    2163.3655  0.051879269  0.051145083            5 
 3476000    0.7039541   -3.8123255    2165.5276  0.051916179  0.051134022            8 
 3477000   0.70108211   -3.7925389    2165.0383  0.051889518  0.051122944            6 
 3478000   0.68692363   -3.7987013    2164.5958  0.051863997  0.051111846           12 
 3479000   0.69233201   -3.8012628    2164.2599  0.051841043   0.05110065           10 
 3480000   0.68877879   -3.8011668    2169.7499  0.051957613  0.051089501            3 
 3481000   0.69069158   -3.7981636    2170.4222  0.051958781  0.051078441            5 
 3482000   0.68473012    -3.833156    2165.5583  0.051827452  0.051067398            6 
 3483000    0.6954354    -3.777248    2166.4107  0.051832967   0.05105634            5 
 3484000   0.68908653    -3.771562    2168.8493  0.051876418  0.051045348            8 
 3485000   0.68438138   -3.7933183    2171.5145  0.051925263  0.051034334            6 
 3486000   0.70022348   -3.8201114    2161.1506  0.051662618  0.051023178            7 
 3487000    0.7044659   -3.7940617    2163.5611  0.051705409  0.051012066            5 
 3488000   0.69704599   -3.7909895    2169.0019  0.051820572  0.051001049            6 
 3489000   0.69043008     -3.78509    2166.2744  0.051740576  0.050989961            4 
 3490000   0.67794925   -3.7978683    2169.6584  0.051806551  0.050978918            4 
 3491000   0.69414804   -3.8111498      2166.62  0.051719183  0.050967898            5 
 3492000   0.69188668   -3.8116342    2166.1137   0.05169229  0.050956704           13 
 3493000   0.70233599   -3.8081436    2156.0165    0.0514366  0.050945582           10 
 3494000   0.69784664   -3.7804856    2168.8228  0.051727313  0.050934381            3 
 3495000   0.70910738   -3.8218942    2167.3634  0.051677715  0.050923158            7 
 3496000    0.6955105   -3.8114335    2168.2809  0.051684804  0.050911931           11 
 3497000   0.69551432   -3.8108259    2163.6603  0.051559916  0.050900618            7 
 3498000   0.70322501   -3.8064251    2166.5545  0.051614124   0.05088936            3 
 3499000    0.6902603   -3.8125577    2161.1002  0.051469472  0.050878153            6 
 3500000   0.68921094   -3.7904098    2172.3104  0.051721677  0.050867082            5 
 3501000   0.70905134   -3.8193709    2166.5725  0.051570326   0.05085591            9 
 3502000   0.68872881   -3.7953449    2161.8267  0.051442669  0.050844723            5 
 3503000    0.6941575    -3.813864    2167.4172  0.051560975  0.050833512            9 
 3504000   0.68781193   -3.8020779    2170.0379  0.051608588  0.050822312            4 
 3505000   0.68576559   -3.8096168    2171.6514  0.051632225  0.050811187           11 
 3506000   0.68937635   -3.8284574    2167.9595  0.051529747  0.050799954            7 
 3507000   0.67220858   -3.8224107    2163.8747  0.051417991  0.050788649            6 
 3508000   0.69287042   -3.8270175    2164.1692  0.051410329  0.050777348            4 
 3509000    0.6907806   -3.8035939    2165.0882  0.051417503  0.050766104            4 
 3510000   0.67762104    -3.788029     2164.952  0.051399621  0.050754896            4 
 3511000   0.70840005   -3.8162429    2163.7733  0.051357005  0.050743743            5 
 3512000    0.6831093   -3.8143751    2170.4827  0.051501584  0.050732636           14 
 3513000   0.68223888    -3.835976    2167.2774  0.051410888  0.050721366           12 
 3514000   0.68026037   -3.7881323    2171.5583  0.051497778  0.050710213            3 
 3515000   0.68005153   -3.7991761    2169.1121  0.051425132  0.050699072            4 
 3516000   0.69321915   -3.8230112    2170.2514  0.051437509  0.050687964            7 
 3517000   0.69839796   -3.8068402    2168.0503   0.05137073  0.050676853            5 
 3518000   0.69645184   -3.7933504     2169.309  0.051385943  0.050665731            8 
 3519000   0.67298122   -3.8061928    2172.0856  0.051437093  0.050654705            6 
 3520000   0.68611716   -3.8240568    2174.2157  0.051472911  0.050643644            6 
 3521000   0.67124972    -3.801892    2171.5995  0.051396372  0.050632516            4 
 3522000   0.70360113    -3.826022    2168.0709  0.051298289  0.050621398            4 
 3523000   0.67831843   -3.7823809    2168.8394  0.051301907  0.050610356            6 
 3524000   0.68534529   -3.8242612    2166.5664  0.051233599  0.050599242            8 
 3525000   0.68167746   -3.8039375    2176.0437  0.051443113  0.050588124            6 
 3526000   0.68814612   -3.8185781     2170.128  0.051288713  0.050577043            5 
 3527000   0.69394619    -3.827562    2171.5288  0.051307269  0.050565955            6 
 3528000   0.68400313   -3.8131444    2166.4265  0.051172205  0.050554817            6 
 3529000   0.67720603   -3.8014886    2173.0399  0.051313873  0.050543742            7 
 3530000   0.67741077   -3.7996159    2176.5495  0.051382187  0.050532696            7 
 3531000   0.67979513   -3.8113456    2176.7887  0.051373282  0.050521642           10 
 3532000   0.68821794   -3.8230785    2171.6723   0.05123802  0.050510577            8 
 3533000   0.69762424   -3.7893193    2174.0293  0.051279114  0.050499548            8 
 3534000   0.68146147   -3.8138874    2167.9257  0.051120677  0.050488488           12 
 3535000   0.68561764   -3.8167727    2170.1572  0.051158822  0.050477455            5 
 3536000   0.68699538   -3.8301953    2168.4058  0.051103078  0.050466363            6 
 3537000   0.69388823   -3.8350644    2169.9098  0.051124063  0.050455297           10 
 3538000   0.67745293   -3.7946334    2177.0073  0.051276787  0.050444245            5 
 3539000   0.67794197   -3.8159575    2175.2184  0.051220174   0.05043326           10 
 3540000   0.69771345   -3.8380167    2171.7854  0.051124892  0.050422192            8 
 3541000   0.68604354   -3.8091304    2170.3181  0.051075923  0.050411124            5 
 3542000   0.68805138   -3.8320158     2168.563   0.05102021  0.050400005            6 
 3543000   0.69262926   -3.7979096    2175.7496  0.051174843  0.050388968            7 
 3544000   0.68169412   -3.8095131    2174.4115   0.05112894  0.050377929            7 
 3545000   0.68874481   -3.8160881    2180.4932   0.05125748  0.050366829            6 
 3546000   0.68226449    -3.815805    2177.9697  0.051183722   0.05035577            5 
 3547000   0.67389214   -3.8328222    2170.7522  0.050999723  0.050344662            6 
 3548000   0.67994518   -3.8168871    2174.6879  0.051077789  0.050333596            3 
 3549000     0.703758   -3.8157252    2178.6055  0.051155385  0.050322497            7 
 3550000   0.69045779   -3.8178427      2175.18  0.051060563  0.050311449            5 
 3551000   0.67444061   -3.8115755    2172.9026   0.05099274  0.050300416            9 
 3552000   0.68359126   -3.8216797    2178.4747   0.05110911   0.05028931            5 
 3553000   0.68219387   -3.8158592    2173.6806  0.050982283  0.050278205            6 
 3554000   0.68251948   -3.8119027    2177.7653  0.051063716  0.050267237            5 
 3555000   0.65594399   -3.8260126    2176.2154   0.05101302   0.05025614            7 
 3556000   0.67471316   -3.8262093    2171.6583  0.050891879  0.050245107            8 
 3557000   0.68840855     -3.84532    2183.8313   0.05116276  0.050234102            3 
 3558000   0.67019975   -3.8198986    2176.9525   0.05098727  0.050222997           10 
 3559000   0.67145328   -3.8244531    2171.9042  0.050854739  0.050211948           13 
 3560000   0.68141756   -3.8464413     2171.743  0.050836681  0.050200901           10 
 3561000   0.68353628   -3.8073635    2187.2872  0.051186164  0.050189817            8 
 3562000   0.68827294    -3.806968    2182.6978  0.051064426  0.050178748            4 
 3563000   0.68235452   -3.8148716    2181.0029  0.051010452  0.050167657            8 
 3564000   0.69576759   -3.8201583    2173.4143  0.050818703   0.05015655            3 
 3565000    0.6736422   -3.8164251    2176.4143  0.050874574  0.050145381           12 
 3566000   0.67455303   -3.8393389    2178.7827  0.050915656  0.050134275           12 
 3567000   0.66293392   -3.8143715    2175.0871  0.050815044  0.050123155            6 
 3568000   0.67662799   -3.8311805    2175.7946  0.050817326  0.050112055           12 
 3569000     0.679962    -3.844092    2177.7434  0.050848591  0.050100977           10 
 3570000   0.67620654   -3.8273961    2180.4568  0.050897684  0.050089872            2 
 3571000   0.65814546   -3.8519434    2174.4721  0.050743773  0.050078822            7 
 3572000   0.67508327   -3.8281451    2177.7622  0.050806323  0.050067651            3 
 3573000   0.68690537   -3.8112213    2172.6438  0.050672727  0.050056626            9 
 3574000   0.68084864   -3.8382362    2175.0845  0.050715456  0.050045625            4 
 3575000   0.68502707   -3.8203041    2180.1276  0.050818825  0.050034596            7 
 3576000   0.68365869   -3.8241205    2179.1852  0.050782653  0.050023604            5 
 3577000   0.66353938   -3.8351895    2177.2523  0.050723425   0.05001254           10 
 3578000   0.66188371    -3.834012    2184.3125  0.050873683  0.050001383            6 
 3579000   0.68633782   -3.8343048    2184.3316  0.050859915  0.049990314            4 
 3580000   0.67710216   -3.8360901    2179.7548  0.050739172  0.049979252            9 
 3581000   0.67117509   -3.8068379    2189.9526  0.050962315  0.049968167            4 
 3582000   0.67194024   -3.8261649    2180.9581  0.050738836  0.049957122           12 
 3583000   0.66345669   -3.8536582    2179.8881  0.050699788  0.049946153            6 
 3584000   0.68569323   -3.7971725    2181.4918   0.05072293  0.049935108            8 
 3585000   0.68775696   -3.8351486    2176.0577  0.050582467  0.049924053            4 
 3586000   0.67241473   -3.8474689    2179.0742  0.050638459   0.04991306            8 
 3587000   0.66896671   -3.8188511     2185.476  0.050773071  0.049902043            4 
 3588000   0.67614653   -3.8366416    2177.9766  0.050584742  0.049891007           13 
 3589000   0.67704216   -3.8570431    2184.3893  0.050719542  0.049879942            3 
 3590000   0.67293243   -3.8260265    2179.6148  0.050594586  0.049868798            4 
 3591000   0.68222215   -3.8200268    2185.7716  0.050723372  0.049857727            7 
 3592000   0.68681025    -3.845313    2183.2816  0.050651485  0.049846705            5 
 3593000     0.685972   -3.8308634    2180.6138  0.050575512  0.049835679            6 
 3594000   0.66909299   -3.8158001    2177.7257  0.050494476  0.049824694           12 
 3595000   0.67512713   -3.8495986    2185.1149  0.050651714  0.049813744            6 
 3596000   0.67470556   -3.8268001    2186.0819  0.050660037  0.049802763            6 
 3597000   0.67499466   -3.8451363    2188.4397  0.050700577  0.049791767           11 
 3598000   0.67130444   -3.8243867    2187.8512  0.050672855  0.049780742            5 
 3599000    0.6758943    -3.825428    2179.8656  0.050473873  0.049769748            7 
 3600000   0.66467072    -3.836797    2182.1241  0.050512132  0.049758737            3 
 3601000   0.67721519   -3.8366343    2191.8321  0.050722764   0.04974774            5 
 3602000   0.67320178   -3.8393526    2182.3043  0.050488254  0.049736727            3 
 3603000   0.66837951   -3.8311463    2185.9856  0.050559386  0.049725703            6 
 3604000   0.67847158   -3.8450158    2178.9938   0.05038369  0.049714627            5 
 3605000   0.68484284   -3.8324846     2187.941  0.050576537  0.049703674            7 
 3606000    0.6825013   -3.8296543    2180.3312  0.050386653  0.049692757           14 
 3607000   0.67200859   -3.8235611    2181.5942  0.050401862  0.049681873            5 
 3608000   0.67534014    -3.834074    2187.5949  0.050526489  0.049670958            3 
 3609000   0.67865742   -3.8352842    2180.9505  0.050359067  0.049660091            5 
 3610000   0.65602957   -3.8571477    2184.4173  0.050425145  0.049649096            8 
 3611000   0.68546928   -3.8251256     2187.052  0.050471983  0.049638174            9 
 3612000   0.68094423   -3.8267397    2188.6665  0.050495259  0.049627257            5 
 3613000   0.66502761   -3.8261091    2189.7147  0.050505459  0.049616382           14 
 3614000   0.66590563   -3.8377665    2182.4204  0.050323288  0.049605436            5 
 3615000    0.6810762   -3.8350474    2185.7169  0.050385361  0.049594452           14 
 3616000   0.66244969   -3.8253572     2188.295  0.050430841  0.049583537           11 
 3617000   0.66868253   -3.8247434    2194.1867  0.050552639  0.049572681            4 
 3618000    0.6680022   -3.8197146    2195.9883  0.050580163  0.049561877            6 
 3619000    0.6710836   -3.8299007    2186.0619  0.050337614  0.049551054           10 
 3620000   0.66986923   -3.8384235    2185.4067  0.050308625  0.049540131            8 
 3621000    0.6567601   -3.8397542    2186.5077   0.05032007  0.049529296            6 
 3622000   0.67911972   -3.8477679    2191.3547  0.050417696  0.049518473            8 
 3623000   0.68194336   -3.8612014    2185.2958  0.050264418  0.049507613           15 
 3624000   0.66036648   -3.8706005    2181.6776  0.050167347  0.049496693            6 
 3625000   0.67061198   -3.8488106    2191.0709  0.050369445  0.049485747            5 
 3626000   0.65828978   -3.8583925    2195.8749  0.050465961  0.049474933            6 
 3627000   0.66276629    -3.824463    2187.7396  0.050265132  0.049464037            6 
 3628000   0.66493979   -3.8457654    2185.2254  0.050193527  0.049453176            6 
 3629000   0.67386135   -3.8519127    2189.7671  0.050283988  0.049442335            4 
 3630000   0.66725589   -3.8416765    2191.5183  0.050310337  0.049431569            3 
 3631000   0.65172925   -3.8640556    2184.5434  0.050136403   0.04942064            6 
 3632000   0.64956568   -3.8359455    2187.9769   0.05020138  0.049409849           10 
 3633000   0.67778907   -3.8296338    2193.9292  0.050324095  0.049399002            8 
 3634000   0.67095114   -3.8357295    2197.3982  0.050389796  0.049388214            3 
 3635000   0.66143235   -3.8402622    2195.7048  0.050337111  0.049377479            4 
 3636000   0.67608823   -3.8385921    2192.7342  0.050255183  0.049366696            8 
 3637000   0.66605169   -3.8505039    2195.6338  0.050307803  0.049355802            7 
 3638000   0.68194271   -3.8595104    2191.5775   0.05020106   0.04934492            3 
 3639000   0.66150641   -3.8526941    2183.7686  0.050008441  0.049334094           13 
 3640000   0.66728853   -3.8592243    2195.0419   0.05025279  0.049323306            5 
 3641000   0.67940838   -3.8464148    2194.2452  0.050220755  0.049312426            7 
 3642000   0.66863818   -3.8495796    2192.9394  0.050177086  0.049301532           10 
 3643000   0.66386713   -3.8327029     2188.425  0.050060048  0.049290658            5 
 3644000   0.66133855   -3.8485049    2194.8565  0.050193388  0.049279744            7 
 3645000    0.6736621   -3.8418563    2193.7602  0.050154554  0.049268862            7 
 3646000   0.67061741   -3.8564857    2196.6758  0.050207437  0.049258023           12 
 3647000   0.66280982   -3.8530734    2196.8026  0.050196568  0.049247148           10 
 3648000   0.67211198   -3.8208222    2198.6141  0.050224188  0.049236283           10 
 3649000    0.6711896   -3.8557301     2196.576  0.050163879   0.04922545            5 
 3650000   0.68547431   -3.8272315    2197.0391   0.05016071  0.049214596            4 
 3651000   0.66912707   -3.8409273    2193.7323  0.050071494  0.049203763            5 
 3652000   0.66517886   -3.8501733    2187.1011  0.049906469  0.049192913            4 
 3653000   0.69375588   -3.8487891    2190.7579  0.049976228  0.049182007            7 
 3654000   0.66111912   -3.8475249     2193.337   0.05002137   0.04917119            5 
 3655000   0.66816104    -3.849024    2195.3807  0.050054279  0.049160331            7 
 3656000    0.6558705   -3.8530349    2188.0552  0.049873614  0.049149461            5 
 3657000   0.67127749   -3.8703492    2193.8998  0.049993159  0.049138488           13 
 3658000   0.64677168   -3.8754344     2183.679  0.049746651  0.049127525            9 
 3659000   0.67106181    -3.863058    2192.3015  0.049929432  0.049116636            4 
 3660000   0.66347356   -3.8529474    2188.2651  0.049823886  0.049105646            4 
 3661000   0.66693493    -3.846229    2193.7914  0.049936069  0.049094678            7 
 3662000   0.67623599   -3.8396289    2193.1298  0.049907378  0.049083796            9 
 3663000   0.66562716   -3.8475514    2192.8897   0.04988829  0.049072919            7 
 3664000   0.66269297   -3.8630853    2187.7555  0.049757903   0.04906201           14 
 3665000   0.67366293   -3.8474043     2193.436  0.049873489    0.0490511            3 
 3666000   0.67713266    -3.880853    2187.6587  0.049728558  0.049040249            5 
 3667000   0.66466674    -3.845809    2196.9281  0.049925645  0.049029371            4 
 3668000    0.6734847   -3.8643687    2199.9759  0.049981277  0.049018529            7 
 3669000    0.6753765   -3.8596172    2196.1302  0.049880307  0.049007614            8 
 3670000   0.65679115   -3.8547583    2192.8861  0.049793054  0.048996695           11 
 3671000   0.65412712   -3.8696371    2191.1352  0.049739743  0.048985767            7 
 3672000   0.67070261   -3.8470829    2193.9797  0.049790752  0.048974813            5 
 3673000   0.67861912   -3.8561024     2191.191  0.049713926  0.048963886            9 
 3674000   0.67385483   -3.8447928    2187.8881  0.049625479  0.048952972            8 
 3675000   0.65202232   -3.8604836    2191.4003  0.049691617  0.048942118            5 
 3676000   0.66794421   -3.8555611    2188.4393  0.049610973  0.048931182            8 
 3677000     0.667755   -3.8584143    2188.2857  0.049594001  0.048920196           13 
 3678000   0.65838129   -3.8647708    2191.1443  0.049645284  0.048909223            9 
 3679000    0.6646335   -3.8325987    2189.6123   0.04959709  0.048898329            6 
 3680000   0.65166197   -3.8515908    2189.6017  0.049583372  0.048887285            3 
 3681000   0.66459058   -3.8602991    2195.1714  0.049695993  0.048876377            7 
 3682000   0.67095259   -3.8493386    2195.3627  0.049686826  0.048865452            4 
 3683000   0.66643954    -3.876119    2198.7303  0.049749531  0.048854508            4 
 3684000   0.65710796   -3.8628716    2189.4169  0.049525355  0.048843576            3 
 3685000   0.65388452   -3.8711725    2194.6313  0.049629836  0.048832678            5 
 3686000   0.65134178   -3.8542661    2203.4147  0.049814946  0.048821738            7 
 3687000    0.6449602   -3.8432112    2206.8019  0.049877993   0.04881089            6 
 3688000   0.66078058   -3.8544475    2197.3774  0.049651514  0.048800036           22 
 3689000    0.6592815   -3.8362304    2203.3597  0.049773194   0.04878921            7 
 3690000   0.65923034    -3.835079    2201.7253  0.049722793  0.048778354            8 
 3691000   0.64906848    -3.865854    2198.1412  0.049628403  0.048767412            9 
 3692000    0.6616159   -3.8725615    2193.7411  0.049515644  0.048756474            7 
 3693000   0.65383058     -3.85941    2199.1331  0.049623909  0.048745461           17 
 3694000   0.66377478   -3.8528876    2196.4408  0.049549739  0.048734558            4 
 3695000   0.65458329   -3.8606731    2194.2414  0.049486726  0.048723603            5 
 3696000   0.65504648   -3.8767058    2190.4065  0.049386871  0.048712628            7 
 3697000    0.6726327   -3.8490684    2196.4871  0.049510573  0.048701664            4 
 3698000   0.64639392   -3.8727987    2197.6564  0.049523536  0.048690759            7 
 3699000   0.66076987   -3.8739345    2190.8182  0.049356091  0.048679764            7 
 3700000   0.67876761   -3.8565246    2189.2309  0.049307003  0.048668879            7 
 3701000   0.66155908    -3.851177     2199.424  0.049523192   0.04865792            4 
 3702000    0.6615696    -3.873786    2197.4904  0.049466288  0.048646964            8 
 3703000   0.67322522   -3.8617434    2191.9653  0.049328592  0.048636023           12 
 3704000   0.65901011   -3.8531318    2196.8246  0.049424599  0.048625081           20 
 3705000   0.66278928   -3.8754853    2190.5292  0.049269663  0.048614159            4 
 3706000   0.66783375   -3.8741499    2194.7726  0.049351785  0.048603151            5 
 3707000    0.6651822   -3.8661639    2203.1887  0.049527666  0.048592192            9 
 3708000   0.65518913   -3.8571497    2199.7516  0.049437063  0.048581256            6 
 3709000   0.64758682   -3.8815296    2195.5847  0.049330114  0.048570331            4 
 3710000   0.66240138   -3.8868427    2197.6258  0.049362663  0.048559364            8 
 3711000   0.66587525   -3.8655539    2196.7562  0.049329834  0.048548391            6 
 3712000   0.66240402   -3.8566463    2191.0266  0.049187917  0.048537428            4 
 3713000   0.66851104   -3.8619353    2201.1474  0.049401817  0.048526493            6 
 3714000   0.66318422   -3.8631849    2195.6213  0.049264524  0.048515524            7 
 3715000   0.65997218   -3.9074872    2190.5273  0.049136997  0.048504475           12 
 3716000   0.65943348   -3.8609328    2199.5143  0.049325311  0.048493467           12 
 3717000   0.65153401   -3.8867777    2197.8629  0.049275019  0.048482561           14 
 3718000   0.64484604   -3.8771503    2199.6815  0.049302526  0.048471626            7 
 3719000   0.65386877   -3.8694417    2192.0271  0.049117753  0.048460658           16 
 3720000    0.6534311   -3.8652663    2201.2493  0.049311141   0.04844969            9 
 3721000   0.64364018   -3.8776474     2193.678  0.049128326  0.048438673            7 
 3722000    0.6558892   -3.8627398    2202.7008   0.04931714  0.048427708            5 
 3723000   0.64695217   -3.8779899    2196.3836  0.049162494   0.04841679            8 
 3724000   0.64905876   -3.8578043     2204.245  0.049325211  0.048405778           10 
 3725000   0.65338098   -3.8772861    2199.7853  0.049212199  0.048394881           10 
 3726000   0.65033967   -3.8449916    2201.7783  0.049243565  0.048384017            9 
 3727000   0.66043035   -3.8602869    2200.3852  0.049199203  0.048373164            9 
 3728000    0.6551234   -3.8835436    2199.4521  0.049165148  0.048362227            7 
 3729000   0.65838933   -3.8595364    2207.1695  0.049324427  0.048351396           12 
 3730000   0.64771509    -3.885495    2201.8583  0.049192545  0.048340533           10 
 3731000   0.65373337   -3.8719929    2200.0973  0.049140028  0.048329719            3 
 3732000   0.65826441   -3.8673724    2198.0509  0.049081166  0.048318867           10 
 3733000   0.67474702   -3.8724307    2197.2446  0.049050017  0.048307943           13 
 3734000   0.66845684    -3.884153    2203.0866   0.04916726   0.04829699            7 
 3735000   0.63991639   -3.8943654    2201.7901   0.04912517  0.048286085            5 
 3736000   0.64169875   -3.8624126    2203.6706  0.049153966  0.048275207            5 
 3737000   0.65170912   -3.8636748    2204.4628  0.049158478  0.048264297            9 
 3738000   0.63864031   -3.8732335    2202.0264   0.04909101  0.048253463            8 
 3739000   0.65170605   -3.8628843    2207.0932   0.04919081  0.048242531            4 
 3740000   0.65111475   -3.8753116    2197.3776  0.048961176  0.048231665            8 
 3741000   0.66096145   -3.8988407    2197.7099   0.04895549  0.048220727            7 
 3742000    0.6609549   -3.8660338    2204.8947  0.049102413  0.048209828            7 
 3743000   0.64443096   -3.8691408    2205.0951  0.049093755  0.048199035            5 
 3744000   0.66459378   -3.8506019    2199.2247   0.04894998  0.048188181            6 
 3745000   0.65291152   -3.8620737    2199.9576  0.048953217  0.048177391            5 
 3746000   0.64532012   -3.8880821    2202.6924  0.049000987  0.048166517           16 
 3747000   0.65389305   -3.8851421    2197.9743   0.04888298  0.048155686            5 
 3748000    0.6501661   -3.9011272     2203.536  0.048993596   0.04814482            4 
 3749000    0.6553707   -3.8887532    2203.8731   0.04898802  0.048133985            9 
 3750000   0.66410783   -3.8725693    2205.6748  0.049014995  0.048123189            4 
 3751000   0.63578132    -3.882364    2204.6473  0.048979102  0.048112411            5 
 3752000   0.64726663   -3.8594708    2203.2856  0.048935802  0.048101563            9 
 3753000   0.65203593   -3.8647331    2204.5335  0.048950472  0.048090723           11 
 3754000   0.64382589   -3.8957957    2200.8506  0.048855678  0.048079969           16 
 3755000   0.66105317   -3.8864964     2203.745  0.048906903  0.048069153           10 
 3756000   0.64807089   -3.8876457     2206.562   0.04895638  0.048058358            7 
 3757000    0.6600612   -3.8982396    2204.4955  0.048897513  0.048047511            7 
 3758000   0.65188158   -3.8799092    2201.6759  0.048821977  0.048036649            6 
 3759000   0.64575302   -3.8759469    2210.7961  0.049011175  0.048025911           12 
 3760000   0.64615035   -3.9005503    2206.9405  0.048912688  0.048015183            8 
 3761000   0.65328646   -3.8675558     2203.459  0.048822542  0.048004384            7 
 3762000   0.64004619   -3.8831815    2205.4818  0.048854374  0.047993606            8 
 3763000   0.64626086   -3.9094299    2212.3073  0.048992544  0.047982838           10 
 3764000   0.64535593   -3.8884016    2208.5924   0.04889728  0.047972053           11 
 3765000   0.65779087   -3.8872844    2205.0826   0.04880661  0.047961297            6 
 3766000   0.64685409   -3.8919256    2206.7635  0.048830843  0.047950536            7 
 3767000   0.65302498   -3.8759718    2212.7506  0.048950328  0.047939749            9 
 3768000   0.63937438   -3.8763104    2207.8038  0.048827933  0.047928999            7 
 3769000   0.66742704   -3.8742515    2214.4219  0.048961305  0.047918305            6 
 3770000   0.65149262   -3.8974608    2210.3191  0.048857628  0.047907681            5 
 3771000   0.64481904   -3.8634141    2216.6613  0.048984825  0.047896984           10 
 3772000    0.6538998   -3.8761171    2206.7007  0.048751782  0.047886223           11 
 3773000   0.64029339   -3.8804234    2209.2808  0.048795847  0.047875531            5 
 3774000   0.65073095   -3.8957305    2209.3466  0.048784371  0.047864764            6 
 3775000   0.64640772   -3.9047973    2206.2315  0.048702681  0.047854019           14 
 3776000    0.6510786    -3.874382    2210.4712   0.04878335  0.047843316            4 
 3777000   0.64241962    -3.879708    2218.2317  0.048941659  0.047832532            5 
 3778000   0.65488304   -3.8749508    2207.1807  0.048684946  0.047821796            6 
 3779000   0.66107216   -3.8709384    2205.8325  0.048642332  0.047811016            7 
 3780000    0.6503584   -3.8845767    2206.2169  0.048637939   0.04780025            8 
 3781000   0.66135671   -3.8885073    2206.2069  0.048624855  0.047789459            8 
 3782000   0.65156066   -3.8617538    2209.7239  0.048689493  0.047778662            8 
 3783000   0.64426787   -3.8823045    2214.1437  0.048773983  0.047767891           11 
 3784000   0.64864581   -3.9004235    2213.1596  0.048739421  0.047757181            6 
 3785000   0.64590009   -3.8792443    2211.6003  0.048692213  0.047746437           10 
 3786000   0.64800315   -3.8915945    2207.1177  0.048580685   0.04773565            6 
 3787000    0.6502734   -3.8947661    2213.7876  0.048714628  0.047724923           14 
 3788000   0.63998302   -3.8826625    2214.5044  0.048717537  0.047714227            4 
 3789000   0.64760465   -3.8801795    2207.8473  0.048558268  0.047703578            6 
 3790000   0.64102088   -3.8844482    2204.4229   0.04847016  0.047692858            9 
 3791000   0.64329949   -3.8933385    2212.3163  0.048630886  0.047682078           10 
 3792000   0.64105253   -3.8856986    2204.5535  0.048447466  0.047671299            8 
 3793000   0.64185971   -3.9089152    2209.9573  0.048553416  0.047660531            8 
 3794000   0.62348379    -3.884261     2211.818  0.048581489  0.047649788            6 
 3795000   0.64688984   -3.8971396    2206.4829  0.048451535  0.047639032            4 
 3796000    0.6502537   -3.8927282    2209.4081  0.048502987  0.047628361            7 
 3797000   0.63830015   -3.8789338    2214.6186   0.04860457  0.047617696           11 
 3798000   0.64211386   -3.8845922    2210.7619  0.048507151  0.047607034            3 
 3799000   0.64440125   -3.8779219    2215.7777  0.048604406  0.047596383            4 
 3800000   0.64814271   -3.8821428    2212.6676  0.048523412   0.04758566            4 
 3801000   0.64896732   -3.8851403    2207.1638  0.048389981  0.047574878            6 
 3802000   0.64902761   -3.8872775    2204.1937  0.048312154  0.047564082            4 
 3803000   0.64330779   -3.8844344    2214.2607  0.048520044  0.047553359            7 
 3804000   0.64284666    -3.878676    2214.7735  0.048518523  0.047542648            8 
 3805000   0.64190532   -3.9054702    2211.3385  0.048430541  0.047531862            4 
 3806000   0.64925456   -3.8930353    2212.6987  0.048447599  0.047521161            5 
 3807000   0.66001323   -3.8913262    2211.4707  0.048407992  0.047510413            7 
 3808000   0.64298053   -3.8653791     2213.796  0.048446165  0.047499647           18 
 3809000    0.6347834   -3.8841004     2210.043  0.048351339  0.047488911            6 
 3810000     0.632151   -3.9094395    2212.9344   0.04840189  0.047478162            7 
 3811000   0.63970963   -3.8922129    2215.8071  0.048452005  0.047467379           16 
 3812000   0.64447182   -3.8806772    2213.7045  0.048393331  0.047456668            6 
 3813000   0.64281322   -3.8870253    2218.9865  0.048496077  0.047445982            8 
 3814000   0.64347323   -3.8978499    2207.4728  0.048231794  0.047435237           14 
 3815000   0.64423085   -3.8925326    2213.1096   0.04834228  0.047424515            7 
 3816000   0.63454451   -3.8820794    2217.9833  0.048436043  0.047413792            7 
 3817000   0.64207076   -3.9024389    2211.9581   0.04829181  0.047403159            8 
 3818000   0.64859933    -3.897407     2215.563  0.048357845  0.047392442            5 
 3819000   0.64381832   -3.8952178    2212.7398  0.048283577  0.047381679            7 
 3820000   0.63638627   -3.9006082    2213.9011  0.048296273  0.047370983           19 
 3821000   0.63331906   -3.8801722    2215.2046  0.048312061  0.047360294           14 
 3822000    0.6327493   -3.8898984    2216.4059  0.048325612   0.04734956            4 
 3823000   0.62245347    -3.897746    2216.5765   0.04831669  0.047338847            5 
 3824000   0.63631576   -3.8933431    2215.3638  0.048277629   0.04732816            8 
 3825000   0.63017582   -3.8986308    2221.9073  0.048407567   0.04731753            5 
 3826000   0.64430805    -3.917881    2208.9872  0.048113505  0.047306853            5 
 3827000    0.6443528   -3.8950992     2220.259  0.048346377  0.047296129            9 
 3828000   0.64155541   -3.9078249    2215.6861  0.048234198  0.047285426           17 
 3829000   0.64109612   -3.9090127    2208.7485  0.048070613  0.047274723            7 
 3830000    0.6258687   -3.9299534    2210.4365  0.048094789  0.047263986           12 
 3831000   0.65517472   -3.9005018    2215.6363  0.048195343   0.04725327           11 
 3832000   0.64224961   -3.8896538    2214.2343  0.048152277  0.047242603            8 
 3833000   0.62623326    -3.919702    2217.0376  0.048200662  0.047231981            7 
 3834000   0.64051581   -3.9089326    2215.6359  0.048157623  0.047221278           12 
 3835000   0.63975279   -3.8984834    2218.7354  0.048212416  0.047210579           15 
 3836000   0.62481858   -3.9198349    2218.9615   0.04820476  0.047199897            7 
 3837000   0.65271667   -3.9026125    2215.8861  0.048125404  0.047189209            6 
 3838000   0.63366153   -3.9112314    2219.9314    0.0482007  0.047178573           10 
 3839000   0.63045151    -3.909248    2213.3477  0.048045232  0.047167837            9 
 3840000   0.63814624   -3.8892546     2219.748  0.048171614   0.04715722           15 
 3841000   0.64206004   -3.8967664    2217.6256  0.048113027  0.047146589            5 
 3842000   0.64157307   -3.9049742    2210.6511  0.047949226  0.047135957            3 
 3843000   0.65294904   -3.9205518     2214.331  0.048016545  0.047125319            6 
 3844000    0.6403119   -3.8863331    2218.3801  0.048091834   0.04711462            4 
 3845000   0.63474948   -3.9038399     2220.485  0.048124945  0.047104023           16 
 3846000   0.63147073   -3.8970594    2218.0877  0.048060489  0.047093411            6 
 3847000   0.61369361   -3.9165314    2218.1096   0.04804847  0.047082853            8 
 3848000   0.61743882   -3.9030153    2216.3369  0.047997594  0.047072246           13 
 3849000   0.62978714   -3.9107741    2217.6098  0.048012683  0.047061554           10 
 3850000   0.62448542   -3.8967359    2220.1756   0.04805575  0.047050886           12 
 3851000   0.63553184   -3.9097575    2217.9949   0.04799608  0.047040254           10 
 3852000   0.63623593   -3.8998873    2225.0151  0.048135494  0.047029648            7 
 3853000     0.635446   -3.9008421     2219.184  0.047996886  0.047019114            4 
 3854000   0.65176509   -3.9174543    2217.6174  0.047950558  0.047008499            4 
 3855000   0.62858447   -3.9135689    2212.9372  0.047836947  0.046997813           10 
 3856000   0.63846128   -3.9107085    2217.5097  0.047923359  0.046987146            7 
 3857000   0.63866312    -3.897466    2225.0429  0.048073695  0.046976461            5 
 3858000   0.62479193   -3.8952208    2221.5274    0.0479853  0.046965834            6 
 3859000   0.62776932   -3.9020538    2220.8779  0.047958838  0.046955194            5 
 3860000   0.64165233   -3.8968088    2220.0931  0.047929471  0.046944539            6 
 3861000   0.63111208   -3.8997998    2219.0202    0.0478939  0.046933961            4 
 3862000   0.61973953   -3.9265964    2224.1331  0.047991823  0.046923296           10 
 3863000   0.64543993   -3.9253509    2221.2553   0.04791732  0.046912728           10 
 3864000   0.62547006   -3.9006836    2223.7291  0.047958271  0.046902103            4 
 3865000   0.63135781   -3.9270864    2217.5946  0.047813596  0.046891512            5 
 3866000   0.63541714   -3.9213144    2226.7124  0.047997768  0.046880959            7 
 3867000    0.6362438   -3.9101422    2222.2646  0.047889505  0.046870362            4 
 3868000   0.65355699   -3.9217697    2223.9961  0.047914429  0.046859771            7 
 3869000   0.63651331   -3.9126644    2221.6184   0.04785083  0.046849202           15 
 3870000   0.62906554   -3.9071782    2222.9494  0.047867127  0.046838621            6 
 3871000   0.63704741   -3.9101538     2218.832  0.047766125  0.046828051            5 
 3872000   0.63166996   -3.9269038    2211.2256  0.047590082  0.046817402           14 
 3873000   0.63581212   -3.9200615    2214.3813  0.047645695  0.046806747            3 
 3874000   0.62892098   -3.8993269     2233.836  0.048051884  0.046796224           14 
 3875000   0.63480404   -3.8876871    2225.9637  0.047870188  0.046785722            6 
 3876000   0.63553559   -3.9255325    2221.0808  0.047752855  0.046775117            9 
 3877000     0.622718   -3.9035834    2219.5757  0.047708188  0.046764547            6 
 3878000   0.63138705   -3.9065224    2227.8749  0.047874225  0.046753935            6 
 3879000    0.6332677   -3.9229988    2221.2856  0.047720324  0.046743367            5 
 3880000   0.63032402   -3.9089531    2225.5172   0.04779891  0.046732784           21 
 3881000   0.63494874   -3.9010728    2222.1991  0.047715345  0.046722192           16 
 3882000   0.63674904   -3.9133517       2223.9  0.047739567  0.046711691            6 
 3883000   0.63233849   -3.9050968     2226.708  0.047787536  0.046701148            4 
 3884000   0.63576164   -3.9005004    2223.2121  0.047700226  0.046690609            6 
 3885000   0.63208362   -3.9345317    2221.9401  0.047660662  0.046680053           21 
 3886000   0.63741268   -3.9095466    2224.4725  0.047702705  0.046669428           22 
 3887000   0.62553216    -3.911243    2222.4025  0.047646052  0.046658924           20 
 3888000   0.60955961   -3.8986812    2220.2933  0.047588591  0.046648363            9 
 3889000   0.63988386   -3.9161462    2222.2027  0.047617269  0.046637889           11 
 3890000   0.62428971   -3.9330299    2223.2502  0.047627467  0.046627277           13 
 3891000   0.63466271   -3.9158231    2229.9782  0.047759321  0.046616799           16 
 3892000   0.63348176   -3.9178403    2222.4553  0.047585973  0.046606288            4 
 3893000    0.6478342   -3.8914795    2229.9318  0.047733791  0.046595797            5 
 3894000   0.62462103   -3.9223551    2220.6044  0.047521922  0.046585235           11 
 3895000    0.6161002   -3.9247576    2227.3666  0.047654399   0.04657463            9 
 3896000    0.6367981   -3.9172123    2220.0805  0.047486321  0.046564098            9 
 3897000   0.62605764   -3.8980645    2226.6832  0.047615328  0.046553606            6 
 3898000   0.63694148   -3.9166749     2230.914  0.047693561  0.046543138            6 
 3899000    0.6275358    -3.928055    2227.5521  0.047609475  0.046532665            7 
 3900000   0.62371736   -3.9178646    2225.6523  0.047556673  0.046522214            6 
 3901000   0.63404455   -3.9102507    2226.1524  0.047555165  0.046511814            7 
 3902000    0.6256478   -3.9266577    2233.3553  0.047696807  0.046501388            5 
 3903000   0.62567072     -3.93229    2221.8629  0.047439212  0.046490863           10 
 3904000   0.62337728   -3.8904792    2222.2796  0.047435954  0.046480395            6 
 3905000   0.62713849   -3.9146109    2230.3197  0.047595383  0.046469873            6 
 3906000   0.62239444   -3.9148443    2227.4932  0.047522896   0.04645944            6 
 3907000   0.62370073   -3.9318785    2225.0924  0.047459525   0.04644888            6 
 3908000   0.61922321    -3.928622    2226.4656  0.047476664  0.046438407            6 
 3909000   0.62549258   -3.9128361    2225.2389  0.047438366  0.046427908           12 
 3910000   0.62796744   -3.9261527    2229.0612  0.047507699    0.0464174           13 
 3911000   0.63618668   -3.9154198    2227.3249  0.047458554  0.046406902           12 
 3912000    0.6203806   -3.9249858    2226.6954  0.047433013  0.046396395            6 
 3913000   0.61763612   -3.9238616    2227.9469  0.047447545  0.046385831           17 
 3914000   0.63448332   -3.9282162    2219.6826  0.047259466  0.046375241           18 
 3915000   0.62609064   -3.8832228    2226.3337  0.047388968   0.04636476            6 
 3916000   0.62153574   -3.9255533     2228.955  0.047432648  0.046354246            9 
 3917000    0.6266631   -3.9232922     2227.509  0.047389775  0.046343695           14 
 3918000   0.61866285   -3.9297887    2229.4272  0.047418479  0.046333148            4 
 3919000    0.6173109   -3.9008241    2226.6189  0.047346663  0.046322666            8 
 3920000   0.61108361   -3.9358663     2224.328  0.047285884  0.046312166           11 
 3921000   0.62352113   -3.9452454    2229.7831  0.047389763  0.046301728            7 
 3922000   0.61856452   -3.9369005    2224.6764  0.047269174  0.046291233            9 
 3923000   0.63477473   -3.9291634    2224.3212  0.047249579  0.046280722            5 
 3924000   0.61993627   -3.9539701    2225.9867  0.047272909  0.046270193           11 
 3925000   0.61413982   -3.9327007    2227.5549  0.047294159  0.046259624           10 
 3926000   0.63049993   -3.9327107    2226.2728  0.047254899  0.046249058           12 
 3927000   0.63043507   -3.9138729    2228.5878  0.047291992  0.046238521            4 
 3928000   0.61305408   -3.9449533    2223.4446  0.047170837  0.046228024            8 
 3929000   0.61824774   -3.9210052    2227.7365  0.047249862  0.046217492            6 
 3930000   0.61891619   -3.9294731     2220.857  0.047091963  0.046206961           11 
 3931000   0.63951012   -3.9391767    2222.4589  0.047113942  0.046196438           12 
 3932000   0.64089477   -3.9405559    2223.6446   0.04712709  0.046185875           11 
 3933000   0.62431208   -3.9307544     2226.252  0.047170354  0.046175376           11 
 3934000   0.64509139   -3.9201523    2230.1688  0.047241332  0.046164873           14 
 3935000   0.63771525   -3.9501736    2219.2567  0.046998236   0.04615438           13 
 3936000   0.62192265   -3.9284046    2225.4666  0.047117772   0.04614384            8 
 3937000   0.62040211   -3.9222103    2222.5676  0.047044442  0.046133273            7 
 3938000   0.62682662   -3.9513733    2229.8394  0.047186376  0.046122766            5 
 3939000    0.6073627   -3.9631575    2229.7651  0.047172826  0.046112198           15 
 3940000   0.61414948   -3.9384607    2228.0743  0.047125091  0.046101648           10 
 3941000   0.62940844   -3.9423761    2227.6335  0.047103812  0.046091135           11 
 3942000    0.6164199   -3.9361704     2225.401  0.047044669  0.046080601            6 
 3943000   0.62181654   -3.9334309    2228.6063   0.04710048    0.0460701            9 
 3944000   0.62821757   -3.9218679    2234.5664   0.04721447  0.046059618           16 
 3945000   0.61618862   -3.9166489    2238.1705  0.047278634   0.04604923            7 
 3946000   0.60820493   -3.9244703    2229.5879  0.047085401  0.046038781           12 
 3947000   0.62694767   -3.9275244    2231.8684  0.047121619  0.046028346            8 
 3948000   0.61538842    -3.942753    2228.5463  0.047039563   0.04601794            8 
 3949000   0.62646701   -3.9392345    2228.3288  0.047023061  0.046007504            8 
 3950000   0.63524447   -3.9339345    2230.3704  0.047054228  0.045997039            9 
 3951000   0.61989635   -3.9568834    2228.4411  0.047001625   0.04598652           17 
 3952000   0.61932326   -3.9291336    2231.4709  0.047053621  0.045976058            8 
 3953000    0.6162595   -3.9362129    2228.6873  0.046983036  0.045965677           16 
 3954000   0.61419741   -3.9638729    2228.6569  0.046970513  0.045955208           14 
 3955000   0.63207953   -3.9425959    2229.1887  0.046969842  0.045944735            5 
 3956000   0.62997774   -3.9380494    2233.7377  0.047053794  0.045934273            9 
 3957000   0.60960283   -3.9125395    2237.0181  0.047110986  0.045923907            9 
 3958000   0.61081138   -3.9591281    2233.4069  0.047023053  0.045913495            7 
 3959000   0.62063897   -3.9142571    2237.5248  0.047097853   0.04590306            4 
 3960000   0.61891525   -3.9411475    2230.7517  0.046943428  0.045892643           12 
 3961000   0.62680384    -3.939114     2230.901  0.046934717  0.045882183           11 
 3962000   0.62342295   -3.9386928    2223.2671  0.046762306  0.045871699            6 
 3963000   0.62257897   -3.9421353    2226.6911  0.046822506  0.045861196           21 
 3964000   0.61667941   -3.9258842    2229.9807  0.046879849  0.045850732           11 
 3965000   0.61983004   -3.9404452    2225.3265  0.046770208   0.04584027            9 
 3966000   0.62535876   -3.9379296    2232.7889  0.046915215  0.045829811           12 
 3967000   0.61747076    -3.933534    2232.2712  0.046892514  0.045819324            6 
 3968000   0.62393291   -3.9314145    2227.0991  0.046772075  0.045808793            6 
 3969000    0.6199328   -3.9350727    2233.0315  0.046884848  0.045798313           12 
 3970000    0.6189871   -3.9590262    2234.1134  0.046895747  0.045787853            8 
 3971000   0.60859181   -3.9398993    2229.3315  0.046783587  0.045777386            5 
 3972000   0.62318296   -3.9186961     2227.551  0.046734453  0.045766881            5 
 3973000   0.60062326   -3.9325922    2234.9163  0.046877177  0.045756408            4 
 3974000   0.62305393   -3.9525649    2232.8011  0.046821027  0.045745924           15 
 3975000   0.62227024   -3.9548333    2228.6474  0.046722168  0.045735375           17 
 3976000   0.62478795   -3.9390943    2234.6248  0.046835698  0.045724808            6 
 3977000   0.61585217   -3.9446694    2228.8326  0.046702552   0.04571429           14 
 3978000   0.61859236    -3.941148    2231.5577  0.046747899    0.0457038            8 
 3979000   0.61058607   -3.9288484    2233.4173  0.046775096   0.04569327            9 
 3980000   0.62831824   -3.9506223     2233.205  0.046758899  0.045682839           16 
 3981000   0.62143071   -3.9368097    2231.3999  0.046709367   0.04567236            9 
 3982000   0.60893018   -3.9262883    2226.0113  0.046584868   0.04566187            6 
 3983000   0.62280122   -3.9442854    2229.1119  0.046638043  0.045651366            5 
 3984000   0.62472645   -3.9516061    2227.8523   0.04659999  0.045640864            7 
 3985000   0.61890585   -3.9613655    2232.6794  0.046689239   0.04563035            7 
 3986000   0.62450334   -3.9562252    2233.4791  0.046694244  0.045619769           17 
 3987000   0.61265279   -3.9473835    2233.0171  0.046672876   0.04560929           15 
 3988000   0.61593934    -3.932051     2236.994  0.046744274  0.045598877           10 
 3989000   0.59076834    -3.934976    2239.0277  0.046775041   0.04558849           10 
 3990000   0.61848899   -3.9486751     2230.259  0.046580179  0.045578103            9 
 3991000   0.61092668   -3.9509546    2234.1134  0.046648989  0.045567764           11 
 3992000   0.60947792    -3.951678     2235.727  0.046670988  0.045557346            6 
 3993000   0.60387725    -3.935429    2236.1134  0.046667363  0.045546954            5 
 3994000    0.5998896   -3.9595626    2235.8121  0.046649392  0.045536593           12 
 3995000   0.61514122   -3.9603772    2232.7582  0.046574013  0.045526149            7 
 3996000   0.61694122   -3.9317121    2235.1705  0.046612665  0.045515758            8 
 3997000   0.61133831   -3.9421961    2238.3272  0.046666816  0.045505387           13 
 3998000   0.58774356   -3.9390207    2238.3024  0.046654627  0.045495032           14 
 3999000   0.60203439   -3.9520112    2241.9088  0.046718113  0.045484624            5 
 4000000   0.61295019   -3.9614003     2233.482  0.046530875  0.045474181            9 
 4001000   0.60576676   -3.9440975    2231.5827  0.046479686  0.045463652            8 
 4002000   0.60371569   -3.9334793     2228.656  0.046407129  0.045453147           15 
 4003000   0.61811009   -3.9421376    2232.2618    0.0464706  0.045442642            6 
 4004000   0.61617928   -3.9456181    2233.7675  0.046490332   0.04543221           10 
 4005000   0.61190417   -3.9405784    2228.7453  0.046374227  0.045421692           10 
 4006000    0.6315843   -3.9527629    2238.9425  0.046574773  0.045411241            6 
 4007000   0.61354129   -3.9482854    2226.7955   0.04631053  0.045400757            5 
 4008000   0.60467517   -3.9528454    2230.2331  0.046370449  0.045390298            9 
 4009000   0.59997835   -3.9629732     2230.145  0.046357051  0.045379839           13 
 4010000   0.59896028   -3.9727207      2233.61  0.046417498  0.045369359           12 
 4011000   0.62048262   -3.9496415    2237.4023  0.046484714  0.045358904            7 
 4012000   0.59077824    -3.956899    2235.5577  0.046434813  0.045348394            8 
 4013000   0.59555198   -3.9442859    2231.0124  0.046328857   0.04533791            7 
 4014000    0.6202319   -3.9531332    2233.7014  0.046373139   0.04532744            8 
 4015000   0.61582508   -3.9558283    2235.0595  0.046389778  0.045317032            6 
 4016000   0.60041919   -3.9576425    2232.1103  0.046317029  0.045306539            8 
 4017000   0.61085376   -3.9411232    2230.7132  0.046276516  0.045296067            9 
 4018000   0.61325951   -3.9379054     2238.523  0.046426975  0.045285658            5 
 4019000   0.60950568   -3.9447499    2240.8011  0.046462658  0.045275327           11 
 4020000   0.59113724   -3.9615171    2228.8429  0.046203211  0.045264885           12 
 4021000   0.60025693   -3.9767417    2236.4362  0.046349088  0.045254396           17 
 4022000   0.61365892   -3.9689071    2238.8619  0.046387824  0.045244018           13 
 4023000   0.61690237    -3.949612    2234.0725  0.046277084  0.045233629            6 
 4024000   0.59884888   -3.9742355    2234.7238  0.046279071  0.045223221            5 
 4025000   0.60995036   -3.9507973    2231.8028  0.046207097  0.045212818           15 
 4026000   0.60830976    -3.957387    2238.3857  0.046331877  0.045202394           15 
 4027000   0.59962136   -3.9655372    2236.1435  0.046273973  0.045191962            8 
 4028000   0.59633931    -3.954123    2238.1897  0.046304819  0.045181559            5 
 4029000   0.60298733   -3.9564478    2234.6217  0.046219527  0.045171261           29 
 4030000   0.60601211   -3.9659895    2231.7291  0.046148245  0.045160917            5 
 4031000   0.61762432   -3.9695704    2239.2764  0.046292822  0.045150529            9 
 4032000   0.61019614   -3.9665508    2232.6934  0.046145283    0.0451401            6 
 4033000   0.59802345   -3.9443841    2240.6411  0.046298064  0.045129682            7 
 4034000   0.61340654    -3.975229    2240.0624  0.046274632  0.045119339            7 
 4035000   0.61323518   -3.9995135    2232.2522  0.046101863   0.04510896            5 
 4036000   0.60609334    -3.975209    2236.4324  0.046176752  0.045098555            8 
 4037000   0.60757207   -3.9699189    2242.9399  0.046299642  0.045088213           14 
 4038000    0.6105437    -3.977648    2242.5649  0.046280439   0.04507783           17 
 4039000   0.60889747    -3.962661    2237.1521  0.046157302   0.04506746           14 
 4040000   0.60416255   -3.9666975    2238.3436  0.046170454  0.045057106            7 
 4041000   0.60193907   -3.9809465     2237.684  0.046145426  0.045046778           13 
 4042000   0.60439947   -3.9820048    2239.0033  0.046161209  0.045036442            9 
 4043000   0.60971924   -3.9666161    2242.0461   0.04621251  0.045026086            8 
 4044000   0.59064857   -3.9753326    2241.2104  0.046183861  0.045015725            7 
 4045000   0.61645405   -3.9563578    2240.2699  0.046153068  0.045005484            7 
 4046000   0.59448831   -3.9728171    2241.1317   0.04615941  0.044995201            9 
 4047000   0.60270914   -3.9669878    2243.1034  0.046188605  0.044984912           11 
 4048000   0.58566239   -3.9614635     2239.442   0.04610182  0.044974619           11 
 4049000   0.60422366   -3.9690527    2232.0682  0.045938673  0.044964276            8 
 4050000   0.63342914   -3.9757478    2241.1974  0.046115174  0.044953944            9 
 4051000   0.59138275   -3.9604814    2239.9745  0.046078633  0.044943664            6 
 4052000   0.59305084   -3.9741376    2241.2947  0.046094413  0.044933407            6 
 4053000   0.61454731   -3.9496103    2245.3872  0.046167186  0.044923077            8 
 4054000   0.60822825   -3.9848988    2237.8443  0.046000746  0.044912781           12 
 4055000   0.60030195   -3.9516428    2245.8397  0.046153714  0.044902538            8 
 4056000   0.60696807   -3.9691064    2243.9488  0.046103485  0.044892235           13 
 4057000   0.59805877   -3.9596645    2244.3677  0.046100725  0.044881926            4 
 4058000   0.60920922   -3.9654116    2251.1239  0.046228107  0.044871702           10 
 4059000   0.61321513   -3.9573533    2241.3822  0.046016717  0.044861518           11 
 4060000   0.59591456   -3.9553846    2249.6896  0.046175894  0.044851281            7 
 4061000   0.59938291   -3.9904034    2239.2521  0.045950343  0.044841043            8 
 4062000   0.61058331   -3.9692978    2245.8285  0.046073947  0.044830794           25 
 4063000   0.60698638   -3.9834684    2238.2329   0.04590682  0.044820527            6 
 4064000   0.59210769    -3.975882    2241.6606   0.04596581  0.044810224            5 
 4065000   0.60113142   -3.9677144    2239.6918   0.04591414  0.044799975           13 
 4066000   0.59618053   -3.9577594    2240.6367  0.045922215  0.044789696            5 
 4067000   0.60179893   -3.9940456    2243.2383   0.04596423  0.044779409            6 
 4068000   0.60388815   -3.9432864    2245.6531  0.046002398  0.044769213            9 
 4069000   0.59985986   -3.9896011    2242.4149  0.045924775  0.044758954            8 
 4070000   0.59902818   -3.9659154    2244.8677  0.045963711  0.044748717            9 
 4071000   0.59820874   -4.0052695    2239.4476  0.045841471  0.044738498            8 
 4072000   0.61224913   -3.9596401    2242.7372  0.045897537  0.044728252            9 
 4073000    0.5959595   -3.9676912    2243.1533   0.04589478  0.044718061            6 
 4074000   0.59453121   -3.9825719    2244.2945  0.045906858  0.044707877           10 
 4075000   0.59853428   -3.9732749    2249.5763  0.046003605  0.044697603           15 
 4076000   0.59703235   -3.9819458    2239.1632  0.045779424  0.044687386           14 
 4077000   0.60511038   -3.9805986    2243.4485  0.045855786  0.044677137           10 
 4078000   0.58146335   -3.9944182    2237.6261  0.045725562  0.044666964            6 
 4079000   0.59049975   -3.9707757    2244.5834  0.045856488  0.044656728           19 
 4080000   0.60598788   -3.9833625     2249.615  0.045948018  0.044646526           22 
 4081000   0.59753354   -3.9882307    2241.3415  0.045767816   0.04463631           10 
 4082000   0.61437646    -3.978916    2246.8103  0.045868248  0.044626091           11 
 4083000   0.59480839    -3.983784    2245.3195  0.045826588  0.044615901            5 
 4084000    0.6021378   -3.9716318    2250.9029  0.045929295  0.044605724            5 
 4085000    0.5942585   -3.9705617    2248.1701  0.045862302  0.044595528           10 
 4086000    0.6002161   -3.9430848     2246.153  0.045809941   0.04458531            5 
 4087000   0.59815492   -3.9809279    2246.3275   0.04580229  0.044575173            8 
 4088000   0.58693756   -3.9927573    2246.0692  0.045785821  0.044564941            8 
 4089000   0.60262635   -3.9787254    2239.5584  0.045641934  0.044554709            8 
 4090000   0.59868648   -4.0011622    2239.2768  0.045625037  0.044544466           18 
 4091000   0.58719589   -3.9762915     2240.766  0.045644219  0.044534232           12 
 4092000   0.58546789   -3.9879405    2244.1407   0.04570179  0.044524053           18 
 4093000   0.58507654   -3.9852513    2242.3627  0.045654425  0.044513866            7 
 4094000   0.59655278   -3.9953949    2244.0512  0.045677643  0.044503645           17 
 4095000   0.60259422   -3.9941566    2244.3532  0.045672633  0.044493395           14 
 4096000   0.60272231   -3.9880802    2250.2265  0.045780975  0.044483174            8 
 4097000   0.59878571   -3.9855809    2245.4335  0.045672312   0.04447305           10 
 4098000   0.59450648   -3.9716321    2250.4752  0.045763689  0.044462917            7 
 4099000   0.57942417   -3.9714648    2251.2972  0.045769236    0.0444528           22 
 4100000   0.60566773   -3.9782474     2246.258  0.045655651  0.044442683            8 
 4101000   0.59599131   -3.9666596    2246.5479  0.045650408  0.044432557            2 
 4102000   0.58840589   -3.9932418    2251.6078  0.045742073  0.044422402           15 
 4103000   0.60254347   -3.9808807    2246.4096  0.045625348  0.044412231           10 
 4104000    0.5958985   -3.9821619    2246.1851  0.045609672  0.044402111            6 
 4105000   0.59735496   -3.9655422    2246.8064  0.045611174  0.044392018           14 
 4106000   0.58783172   -3.9880479    2252.2841  0.045711237  0.044381902           17 
 4107000    0.6096401   -3.9809031    2249.8123  0.045649952  0.044371785           12 
 4108000   0.59337049   -4.0048063    2243.6255  0.045513339  0.044361613           10 
 4109000   0.59831299    -3.967582    2253.0067  0.045692519  0.044351453           15 
 4110000   0.59248276   -3.9762065    2248.4919   0.04558986  0.044341365            8 
 4111000   0.59268731   -3.9933046    2245.8724  0.045525671  0.044331208           15 
 4112000   0.58640252   -3.9853993     2252.567  0.045650272  0.044321121            5 
 4113000   0.58935009   -3.9967666    2250.2909  0.045593057   0.04431102           13 
 4114000   0.59998689   -3.9720566    2252.1826  0.045620293  0.044300921            7 
 4115000    0.5913736   -3.9844519    2250.2656  0.045570385  0.044290834            6 
 4116000    0.6007558   -3.9877441    2248.9249  0.045532169  0.044280707            8 
 4117000   0.56637393   -3.9781039    2245.7973  0.045457803  0.044270538            7 
 4118000   0.57918309    -3.995198    2245.3998  0.045438721    0.0442604           10 
 4119000   0.59433607   -3.9963609    2240.0087  0.045318619  0.044250234            6 
 4120000   0.60239301   -3.9951921    2249.1493  0.045492501  0.044240092           13 
 4121000   0.59153613   -3.9975834    2241.7395  0.045331625  0.044229896            9 
 4122000   0.59722843   -4.0027888    2252.5017  0.045538203  0.044219722            7 
 4123000   0.60349425   -3.9810014    2253.9853  0.045557146  0.044209546           15 
 4124000   0.58223112   -3.9997053    2248.5393  0.045436051  0.044199367            6 
 4125000   0.57392311   -3.9884799    2248.9341  0.045433012  0.044189157            7 
 4126000   0.60230236   -3.9846383      2242.06  0.045283164  0.044178985           20 
 4127000    0.5968417   -3.9923001    2243.5611  0.045302502  0.044168789           12 
 4128000   0.59441327   -3.9891989    2236.6038  0.045151077  0.044158563            6 
 4129000   0.58424997   -3.9846673     2242.591  0.045260978  0.044148388           12 
 4130000   0.58643696   -4.0001771    2249.0248  0.045379839  0.044138187           12 
 4131000   0.59414936   -3.9900389    2245.8996  0.045305811  0.044128009           12 
 4132000   0.60160199   -3.9838772    2253.5165  0.045448461   0.04411791           11 
 4133000   0.58939821   -3.9785997    2252.5555  0.045418088   0.04410778           12 
 4134000   0.58443536   -3.9776756    2248.5589  0.045326537  0.044097669           17 
 4135000   0.58807895   -3.9801083    2252.9967  0.045405011  0.044087557           10 
 4136000   0.59516446   -4.0020718    2252.3585  0.045381176  0.044077389            9 
 4137000   0.58323852    -3.984624    2253.5508  0.045394222  0.044067236           10 
 4138000   0.58850135   -3.9931507    2252.0532  0.045353093  0.044057142           22 
 4139000   0.58321378   -3.9873782    2244.6384  0.045192848  0.044047012            5 
 4140000   0.59303444   -3.9809405    2250.3811  0.045297526  0.044036873           10 
 4141000   0.58098444   -3.9757447    2256.9914  0.045419613  0.044026795            6 
 4142000   0.57254154   -3.9753921    2254.3182  0.045354865  0.044016742            6 
 4143000   0.58337814   -3.9779551    2253.8126  0.045333748  0.044006663           11 
 4144000   0.59876288   -3.9973782    2246.7173  0.045180126   0.04399654            8 
 4145000   0.58058478   -3.9848594     2249.211  0.045219361  0.043986485            8 
 4146000   0.58719722   -3.9899059    2253.4105  0.045292862  0.043976404            6 
 4147000   0.59253735   -4.0082891    2246.0809  0.045134653  0.043966301           21 
 4148000   0.57496927   -4.0005331    2246.6628  0.045135464  0.043956161            9 
 4149000   0.59371376   -4.0137242    2248.8319  0.045168151  0.043946046            8 
 4150000    0.5805523   -3.9871238    2247.9739  0.045140039  0.043935909           15 
 4151000   0.59866595   -3.9999229    2253.1548  0.045233173  0.043925767           16 
 4152000   0.58684222   -3.9843863    2256.0436  0.045280259   0.04391561            9 
 4153000   0.59073488   -3.9597456    2252.4832  0.045197914  0.043905548            9 
 4154000   0.58284193   -4.0004288     2249.538  0.045127949  0.043895497            7 
 4155000   0.59302098   -4.0059163    2248.5063  0.045096395  0.043885394            6 
 4156000    0.6000291   -3.9756375     2247.307  0.045061496  0.043875305            5 
 4157000   0.58767158   -3.9925444     2246.466  0.045033798  0.043865234            5 
 4158000   0.58693784   -3.9766044    2248.9651  0.045073054   0.04385514            8 
 4159000   0.58587751   -3.9810665    2249.4243  0.045071417  0.043845079           10 
 4160000   0.58684199   -4.0039592    2242.4751  0.044921376  0.043834889            8 
 4161000   0.57697638   -4.0022673     2249.704  0.045055355  0.043824751            6 
 4162000   0.58303147   -3.9975442    2244.8221  0.044946782  0.043814634            9 
 4163000   0.58211193   -4.0011138    2251.5321  0.045070304   0.04380449            9 
 4164000   0.58606079   -4.0066558    2249.3811  0.045016432  0.043794307           16 
 4165000   0.59355208   -4.0034583    2250.0925  0.045019858  0.043784108            9 
 4166000   0.58695809   -3.9995648    2258.6694  0.045180616  0.043773978            6 
 4167000   0.58471112    -4.010936      2248.43  0.044965002  0.043763842           10 
 4168000   0.58196743   -3.9966512    2249.6916  0.044979439  0.043753718           29 
 4169000    0.5811842   -3.9806953    2248.6025  0.044946879  0.043743601           22 
 4170000   0.58685761   -4.0066074     2248.203  0.044928117  0.043733484           12 
 4171000    0.5908128   -3.9945686    2244.3342  0.044840051  0.043723394           10 
 4172000   0.58352988    -3.995827    2251.0743  0.044963933  0.043713304            7 
 4173000   0.59783935   -4.0156973    2250.5096   0.04494188  0.043703194            6 
 4174000   0.58578131   -4.0056756    2243.3214  0.044787602  0.043693085            9 
 4175000   0.57991232    -4.018046    2248.6224  0.044882683   0.04368299            7 
 4176000   0.58425733   -3.9874102     2255.496  0.045009099  0.043672903            6 
 4177000   0.57322096   -3.9871798    2250.2421  0.044893506  0.043662788           15 
 4178000   0.57880216    -4.010428    2252.8654  0.044935085  0.043652675            9 
 4179000   0.58592166   -4.0088599    2253.7935  0.044942839  0.043642542            9 
 4180000   0.58076748   -4.0239145    2253.6877  0.044929978  0.043632422           10 
 4181000    0.5822311   -4.0126375    2247.5415  0.044796728  0.043622298            9 
 4182000   0.58189761   -4.0047799    2253.3122  0.044901008  0.043612175            4 
 4183000   0.58120435   -4.0199265    2248.5633  0.044795667  0.043602037           10 
 4184000   0.57884452   -3.9882537    2252.7508  0.044868364   0.04359194           10 
 4185000   0.58328399   -4.0024689     2250.839  0.044819573  0.043581871            7 
 4186000   0.58829665   -4.0024458    2250.0171  0.044792505  0.043571807           13 
 4187000   0.58482846    -3.993728    2249.4815  0.044771146  0.043561687           15 
 4188000   0.57908529   -4.0097681    2249.3064  0.044756972  0.043551549           16 
 4189000   0.59067846   -4.0279054    2244.9203  0.044659034  0.043541343            9 
 4190000   0.58512455   -4.0179141     2248.151   0.04471263  0.043531171            6 
 4191000   0.58923723    -3.997353     2248.812  0.044715104  0.043521069           13 
 4192000   0.57765975   -3.9952618    2249.0306  0.044708782  0.043510982            7 
 4193000   0.59017161   -4.0179729    2244.0586  0.044599304  0.043500802           12 
 4194000   0.58185877   -4.0203584    2248.3599  0.044674136  0.043490652            6 
 4195000   0.58322937   -4.0084354    2250.8491  0.044712935  0.043480472           17 
 4196000   0.56985735   -3.9900762    2252.9006  0.044743022   0.04347036            6 
 4197000   0.58971387   -4.0085078    2254.1702  0.044757568  0.043460265            6 
 4198000   0.59126863   -3.9951684    2252.6931  0.044717585  0.043450132           21 
 4199000   0.56672252   -3.9908124    2254.4801  0.044742401  0.043440008            7 
 4200000   0.57389331   -4.0161833    2242.5812  0.044495658  0.043429891            7 
 4201000   0.57885967   -4.0135593    2249.6887  0.044626056  0.043419721            4 
 4202000   0.57929171   -3.9933647    2253.0645  0.044682383   0.04340962           14 
 4203000   0.58027015   -4.0172793    2249.9009  0.044609028   0.04339952           24 
 4204000    0.5812968   -4.0120845     2253.245  0.044664703  0.043389416           27 
 4205000   0.57335976   -4.0266194    2248.4808  0.044559667  0.043379302            5 
 4206000    0.5718668   -4.0096144    2247.1779  0.044523258  0.043369187           14 
 4207000   0.57634003   -4.0362077    2250.3062  0.044574641  0.043359115            5 
 4208000   0.57016636   -4.0200619     2254.793  0.044652903   0.04334907            9 
 4209000   0.56761188   -4.0179865     2251.767  0.044582383  0.043338954            8 
 4210000   0.58426119   -4.0146807    2254.9348  0.044634498  0.043328904           17 
 4211000   0.57526759   -4.0257389    2250.0046  0.044526331  0.043318858           11 
 4212000   0.58182337   -4.0103827    2252.0758  0.044556739  0.043308775           20 
 4213000   0.59166116   -4.0214616    2251.4814  0.044534405  0.043298724           10 
 4214000   0.58597286   -4.0089739    2253.4942   0.04456364  0.043288716           13 
 4215000    0.5833729   -4.0117103    2256.8084  0.044618592  0.043278692           14 
 4216000   0.57964982   -4.0141851    2257.4633  0.044620953  0.043268632           11 
 4217000   0.56557628   -4.0149164    2260.1696  0.044663853  0.043258599            6 
 4218000   0.58442729   -4.0290131    2254.0946  0.044533242  0.043248547           11 
 4219000   0.57773918   -4.0023847    2254.1755  0.044524284  0.043238559            6 
 4220000   0.57744595   -4.0053819    2256.4813  0.044559267  0.043228572           10 
 4221000   0.57854282   -4.0157163    2251.8478  0.044457234  0.043218576            9 
 4222000   0.58043698   -3.9926358    2248.8479  0.044387493  0.043208529            4 
 4223000   0.56769762   -4.0059158    2261.4241  0.044625151  0.043198528           10 
 4224000     0.587905   -4.0185912    2251.5027  0.044418851  0.043188497            9 
 4225000   0.55854765   -4.0200189     2252.074  0.044419606  0.043178485           17 
 4226000   0.57919402   -3.9962245    2254.1364  0.044449763  0.043168499            8 
 4227000   0.56893102   -4.0140938    2254.5453  0.044447308  0.043158514           21 
 4228000   0.56776765   -4.0057184    2251.8148  0.044382978  0.043148518           10 
 4229000   0.57239279   -4.0296535    2251.6059  0.044368368   0.04313849           14 
 4230000   0.56317979   -4.0201006    2252.2106  0.044369791  0.043128455            8 
 4231000   0.56788226   -4.0239719    2251.6072   0.04434742  0.043118431            9 
 4232000   0.57605515   -4.0165115    2251.0862  0.044326682  0.043108351           10 
 4233000    0.5652113   -3.9964827    2260.4531  0.044500613  0.043098309            6 
 4234000   0.57334556   -4.0132134      2254.15  0.044366044  0.043088327            9 
 4235000   0.56339348   -4.0230435    2254.8894  0.044370118  0.043078349           14 
 4236000   0.58166045   -4.0058525    2258.9174  0.044438884  0.043068343           18 
 4237000   0.58062002   -4.0055113    2256.0736  0.044372464  0.043058395           12 
 4238000   0.57723388    -4.017789    2251.9116  0.044280157  0.043048423            5 
 4239000    0.5707291   -4.0235125    2254.6584  0.044323708  0.043038509            9 
 4240000   0.55320729   -4.0163174    2249.8054  0.044217874  0.043028489            9 
 4241000   0.58104457   -4.0367358     2252.395  0.044258332  0.043018503            7 
 4242000   0.57078429    -4.039177    2244.9022  0.044100703  0.043008427           16 
 4243000    0.5639072   -4.0233176    2253.3116  0.044255471  0.042998354            8 
 4244000   0.57923724    -4.023722    2249.6793  0.044173722  0.042988383           11 
 4245000   0.57298947   -4.0268172    2256.5796  0.044298775  0.042978339            6 
 4246000   0.56735487   -4.0278146    2258.8313  0.044332534  0.042968329           13 
 4247000   0.58203624   -4.0487019    2252.6122  0.044200066  0.042958307            7 
 4248000   0.56563753   -4.0333507    2256.3176  0.044262351  0.042948302           12 
 4249000    0.5848218   -4.0184059    2248.9701  0.044107832  0.042938351           11 
 4250000   0.55938961   -4.0092755    2255.6167  0.044227779  0.042928354           10 
 4251000   0.58063341   -4.0182004    2244.7046  0.044003462  0.042918319           15 
 4252000   0.56805226   -4.0209241    2253.5586  0.044166639  0.042908283            4 
 4253000   0.58269249   -4.0143787    2258.0751   0.04424475  0.042898281            7 
 4254000   0.56818552   -4.0256461    2252.8749  0.044132481  0.042888295           13 
 4255000   0.56095039   -4.0422812    2258.2284  0.044226957  0.042878221           17 
 4256000   0.55647987   -4.0299834     2252.006   0.04409473  0.042868219           30 
 4257000   0.56546752   -4.0549792      2247.11  0.043988529  0.042858215           28 
 4258000   0.58248572    -4.053664    2253.4271   0.04410183   0.04284814            8 
 4259000   0.56767096   -4.0202255     2256.526   0.04415211  0.042838088            6 
 4260000   0.57306365   -4.0192992    2254.6251   0.04410456  0.042828078            8 
 4261000   0.57451873   -4.0294561    2257.7312  0.044154956  0.042818048            8 
 4262000   0.56310737   -4.0332293    2261.2156  0.044212725  0.042808087           10 
 4263000   0.57164245   -4.0148353    2256.0016  0.044100431  0.042798101            6 
 4264000   0.57268446   -4.0351757    2256.0712  0.044091449  0.042788132           11 
 4265000   0.56755468   -4.0441106    2258.0568  0.044119907  0.042778134           20 
 4266000   0.56148879   -4.0397831    2253.7115  0.044024682  0.042768167           12 
 4267000   0.57197941   -4.0211447    2252.3308  0.043987399  0.042758166            8 
 4268000   0.57756138   -4.0331436    2247.3911  0.043880644  0.042748149           23 
 4269000   0.57208946   -4.0481162     2254.032        0.044  0.042738194            8 
 4270000   0.56988208   -4.0265684     2260.804  0.044121858  0.042728242           24 
 4271000   0.56070417    -4.041029    2258.4469  0.044065537   0.04271829           16 
 4272000   0.57699594   -4.0280684    2258.3691  0.044053704  0.042708298            7 
 4273000   0.57126076   -4.0317399    2250.2273   0.04388461   0.04269837            5 
 4274000   0.56308879   -4.0267344    2260.0405  0.044065679  0.042688424           12 
 4275000   0.56708621   -4.0375833    2259.4909  0.044044657  0.042678503            5 
 4276000    0.5734118    -4.038343    2251.4167  0.043877002  0.042668537           10 
 4277000   0.55729687   -4.0484389    2252.6081  0.043889956  0.042658531            9 
 4278000   0.56597704   -4.0447131    2258.5285  0.043995023  0.042648531           24 
 4279000   0.56652893   -4.0436628    2254.2393  0.043901209  0.042638539           14 
 4280000   0.56915887   -4.0390001    2258.5329   0.04397455  0.042628593            8 
 4281000   0.56305964   -4.0180615    2260.2765   0.04399822  0.042618689           14 
 4282000   0.57229558   -4.0146942    2257.7311  0.043938407  0.042608838           17 
 4283000   0.56476744   -4.0230375    2258.8683  0.043950274  0.042598952           20 
 4284000   0.56312128   -4.0271815    2261.0057  0.043981593  0.042589053           11 
 4285000   0.56847284   -4.0468178    2256.0404  0.043874766  0.042579091            9 
 4286000   0.56167066   -4.0283801    2258.1312   0.04390518  0.042569141           12 
 4287000   0.56450795   -4.0473159    2261.0466  0.043951609  0.042559175           14 
 4288000   0.56450879   -4.0384103      2260.22  0.043925295  0.042549239           11 
 4289000   0.56874127   -4.0601088    2257.1866  0.043856116  0.042539303           10 
 4290000   0.56742206   -4.0228643    2261.5549  0.043930747  0.042529334           10 
 4291000   0.56183289   -4.0457664    2257.6513  0.043844701  0.042519459           19 
 4292000   0.57292605   -4.0355146    2261.4369  0.043907987  0.042509564            7 
 4293000   0.57245788   -4.0330116    2259.1766  0.043853882  0.042499746           14 
 4294000   0.56026127   -4.0378681    2259.7522   0.04385484   0.04248991           11 
 4295000    0.5617157   -4.0178779    2259.0437  0.043830882  0.042480068            9 
 4296000   0.57143003   -4.0214365    2255.3115  0.043748283  0.042470265            7 
 4297000   0.56849865   -4.0256312    2263.7089  0.043900957  0.042460351           15 
 4298000   0.57586071   -4.0315629    2258.5201  0.043790137  0.042450517            6 
 4299000   0.56930438   -4.0430552     2261.454  0.043836822  0.042440693           21 
 4300000   0.56919308   -4.0268155      2258.85  0.043776163  0.042430893           10 
 4301000   0.55946892   -4.0528387    2259.5162  0.043778893  0.042421026           14 
 4302000   0.56193215    -4.043508    2262.0345  0.043817498  0.042411118           22 
 4303000   0.57701921   -4.0349531     2262.048  0.043807577  0.042401258           13 
 4304000   0.56200198   -4.0471742    2255.2002  0.043664812  0.042391382           20 
 4305000   0.56133025   -4.0628567    2258.8933  0.043726157  0.042381454           14 
 4306000   0.57384786   -4.0423733    2258.3128  0.043704768  0.042371552            9 
 4307000   0.56070265   -4.0491003    2257.4802  0.043678511   0.04236166            9 
 4308000   0.56922607   -4.0420901    2253.8962  0.043599044  0.042351768           35 
 4309000   0.57805169   -4.0572333    2260.2179  0.043711184  0.042341883           16 
 4310000   0.56564546   -4.0447901     2261.709  0.043729873  0.042332018            5 
 4311000   0.56233242    -4.036602    2256.9592  0.043627912   0.04232214           19 
 4312000   0.56723631   -4.0332151    2261.4233  0.043704068  0.042312331           19 
 4313000   0.57902284   -4.0428762    2261.0828  0.043687356  0.042302514           10 
 4314000   0.57279823   -4.0346818    2258.6263  0.043629776  0.042292658           18 
 4315000   0.55161723    -4.049684    2256.5272  0.043579127  0.042282751            7 
 4316000   0.57103431   -4.0455956    2262.2405  0.043679342  0.042272868           10 
 4317000   0.55626702   -4.0368713    2262.5544  0.043675284  0.042263042           13 
 4318000   0.55482597   -4.0383135    2265.1659  0.043715569  0.042253169            8 
 4319000   0.56461718   -4.0383778    2257.8994  0.043565243  0.042243325           16 
 4320000   0.57273192   -4.0546509    2263.5978   0.04366508  0.042233506            9 
 4321000   0.55880571   -4.0514888    2263.9821  0.043662386  0.042223688            7 
 4322000   0.55700806   -4.0547544    2260.7988  0.043590907  0.042213818           16 
 4323000    0.5579579   -4.0496182    2257.3389  0.043514128  0.042203947           17 
 4324000   0.56386265    -4.043617    2255.8815  0.043475978  0.042194083           12 
 4325000   0.54424016   -4.0472859    2257.2432  0.043492163  0.042184216           16 
 4326000    0.5502674   -4.0535926    2262.8715  0.043590528  0.042174333            5 
 4327000    0.5539521   -4.0230429    2266.2745  0.043645992  0.042164533            9 
 4328000   0.55785715   -4.0459689    2260.0525  0.043516106  0.042154687            9 
 4329000   0.56171825   -4.0479882    2263.0649  0.043564043  0.042144823            8 
 4330000   0.54617625   -4.0479865    2259.1278   0.04347821  0.042134996           12 
 4331000   0.55974102   -4.0498288    2262.5976  0.043534933  0.042125148            6 
 4332000   0.54900734   -4.0344378    2260.8344  0.043490966  0.042115246            8 
 4333000   0.56772223   -4.0240399    2259.3398  0.043452184  0.042105439            6 
 4334000    0.5485149   -4.0671248    2258.6736  0.043429349  0.042095591            5 
 4335000   0.56408127    -4.038795     2265.024  0.043541407   0.04208572           15 
 4336000   0.56105518   -4.0661638    2259.8004  0.043430974  0.042075894           34 
 4337000   0.55410658   -4.0480991    2259.8454  0.043421824  0.042066038           25 
 4338000   0.55370552   -4.0471665    2262.6975  0.043466604  0.042056166           11 
 4339000   0.55905158   -4.0656763    2261.2453  0.043428695  0.042046307            5 
 4340000   0.54185106   -4.0509899    2260.4156  0.043402758  0.042036483           14 
 4341000   0.54916431   -4.0488065    2268.2033  0.043542258  0.042026645            6 
 4342000   0.55933299   -4.0525402    2264.2513  0.043456382  0.042016803            8 
 4343000   0.54958099   -4.0462256    2261.0072  0.043384128  0.042006966            7 
 4344000   0.55945478   -4.0359267    2260.7842  0.043369862  0.041997126            6 
 4345000   0.55531163   -4.0740268    2257.5308  0.043297483  0.041987288           12 
 4346000   0.55159434   -4.0444812    2261.1274  0.043356484  0.041977443           11 
 4347000   0.54682968   -4.0596935    2268.1767  0.043481649  0.041967684            7 
 4348000   0.55446016   -4.0317535    2265.5302  0.043420925    0.0419579           12 
 4349000   0.56311499   -4.0520674     2265.808  0.043416265  0.041948129            7 
 4350000   0.56836334   -4.0564005    2262.7499  0.043347699  0.041938359            7 
 4351000   0.55224629   -4.0591564    2264.7551  0.043376142  0.041928544            5 
 4352000   0.54728006   -4.0552532    2261.9599  0.043312652  0.041918801            8 
 4353000   0.56230618   -4.0430984     2265.828  0.043376752   0.04190907           11 
 4354000   0.55854364   -4.0589324     2259.857  0.043252507  0.041899303           12 
 4355000   0.55776174   -4.0528897    2263.5528  0.043313295  0.041889536           14 
 4356000   0.55745026   -4.0407238    2265.1581  0.043334061  0.041879782           16 
 4357000   0.55402031   -4.0449669    2263.0074  0.043282981  0.041870041            6 
 4358000   0.55890175   -4.0350874    2268.9067  0.043385856  0.041860373           12 
 4359000   0.55538088    -4.079081    2266.4927  0.043329752   0.04185071            8 
 4360000   0.55169692   -4.0599055    2268.0037  0.043348694  0.041841009           10 
 4361000   0.55205198   -4.0538973    2263.2924  0.043248728  0.041831272           34 
 4362000   0.55956019   -4.0455206    2262.0211  0.043214524  0.041821521            9 
 4363000   0.55697106   -4.0414285    2266.4315  0.043288858  0.041811771            8 
 4364000   0.55293109   -4.0775221    2264.6129  0.043244213  0.041802046           15 
 4365000   0.54853931   -4.0656527    2258.5588  0.043118725  0.041792298           10 
 4366000   0.55775708   -4.0843436     2265.916  0.043249274  0.041782561           27 
 4367000   0.56066967   -4.0690151    2264.5984  0.043214229  0.041772812            9 
 4368000   0.56548223   -4.0622538     2270.481  0.043316563  0.041763073           11 
 4369000   0.55800753   -4.0724382    2269.6477  0.043290756  0.041753359           17 
 4370000   0.55931743   -4.0640651    2268.0713  0.043250788  0.041743644           27 
 4371000   0.54956966   -4.0568519    2262.6833  0.043138171  0.041733951           13 
 4372000   0.54883748    -4.063178    2265.0888  0.043174153  0.041724239           10 
 4373000   0.56237885   -4.0482122    2263.6411  0.043136692  0.041714521           11 
 4374000   0.54300384   -4.0473731    2261.6747  0.043089366  0.041704817           16 
 4375000   0.54792934   -4.0555387    2262.1431  0.043088441   0.04169506            7 
 4376000    0.5546703   -4.0633434    2264.1565  0.043116935  0.041685322           21 
 4377000   0.56370799   -4.0605462    2263.9164  0.043102513  0.041675614           13 
 4378000   0.54812412   -4.0802314    2263.8273  0.043090973  0.041665894            6 
 4379000   0.53776631    -4.063839     2260.956  0.043026491  0.041656085            9 
 4380000   0.56927313   -4.0743088    2265.0365  0.043094301  0.041646321           26 
 4381000   0.54414663    -4.065366    2257.0073  0.042931737  0.041636573           15 
 4382000   0.56000587   -4.0663365    2264.6048  0.043066423  0.041626845           11 
 4383000   0.55878232   -4.0516166    2265.5377  0.043074335  0.041617144           10 
 4384000   0.53562272   -4.0659597    2266.3093  0.043079176  0.041607446            9 
 4385000   0.54234467   -4.0740267    2264.7745  0.043040184  0.041597734            7 
 4386000   0.56281885   -4.0692231    2265.9167  0.043052073  0.041587971           13 
 4387000   0.55454513   -4.0504648    2267.3427  0.043069347  0.041578219           15 
 4388000   0.55653794   -4.0663862    2264.2905  0.043001566  0.041568496           25 
 4389000      0.55399    -4.085855    2266.8891  0.043041109  0.041558773           12 
 4390000   0.53874205   -4.0771898    2265.6338  0.043007476  0.041549077           10 
 4391000   0.56012035   -4.0784055     2261.505  0.042919324  0.041539351           21 
 4392000   0.54475533   -4.0678098    2264.7748  0.042971592  0.041529581            9 
 4393000    0.5552739   -4.0703075    2262.3487  0.042915789  0.041519848           12 
 4394000   0.55449208   -4.0835256    2267.8581  0.043010509  0.041510142           18 
 4395000   0.55142609    -4.055086    2269.4745  0.043031371  0.041500406           14 
 4396000   0.54306238   -4.0855598    2258.9361   0.04282181  0.041490626            8 
 4397000   0.55780866   -4.0567456    2264.9325  0.042925717  0.041480858            6 
 4398000    0.5631922   -4.0755101    2265.9911  0.042936014  0.041471112           15 
 4399000   0.54489368   -4.0721579    2268.4102   0.04297208  0.041461327           10 
 4400000   0.55128521   -4.0706049     2266.394  0.042924128  0.041451615           11 
 4401000   0.54318532   -4.0725258     2266.532  0.042916989  0.041441864           12 
 4402000   0.55296581   -4.0453149    2266.2125  0.042901191  0.041432158           13 
 4403000    0.5593734   -4.0531329    2269.8578  0.042960441  0.041422438            8 
 4404000   0.54772992   -4.0741611    2266.9114  0.042894933  0.041412693           13 
 4405000   0.53371504   -4.0622482    2263.7727  0.042825817  0.041402948            7 
 4406000    0.5481451   -4.0569218    2266.3496  0.042864835  0.041393185           10 
 4407000   0.55375394   -4.0706773     2265.809  0.042844887  0.041383435           14 
 4408000    0.5413311   -4.0649818    2268.5447  0.042886886  0.041373718           13 
 4409000    0.5361038   -4.0588978    2265.3695  0.042817144  0.041363964            7 
 4410000   0.54152838   -4.0860537    2264.0448  0.042782404  0.041354189           14 
 4411000   0.53736242   -4.0781105    2270.5797  0.042896164  0.041344436            7 
 4412000   0.53763513   -4.0669244    2264.8816  0.042778815  0.041334643            9 
 4413000   0.54244304   -4.0801268    2258.4078  0.042646872  0.041324832           10 
 4414000   0.55447178   -4.0636429    2260.3983   0.04267479  0.041315042           14 
 4415000   0.55373739   -4.0811899    2256.8427  0.042598013  0.041305217           26 
 4416000   0.53038067   -4.0920471       2257.5  0.042600771  0.041295387           25 
 4417000   0.55233014   -4.0725408    2259.9521  0.042637389  0.041285567           11 
 4418000   0.54329242    -4.088976    2263.6505  0.042697497  0.041275757            9 
 4419000   0.54848277   -4.0793969    2262.3539  0.042663383  0.041265951            8 
 4420000    0.5515268   -4.0910037    2265.6124  0.042715165  0.041256169           27 
 4421000    0.5468382   -4.0695805    2268.4313  0.042758638   0.04124643            8 
 4422000   0.53666744   -4.0765519     2265.792  0.042699231  0.041236661           12 
 4423000   0.53976021   -4.0578452    2259.8184  0.042577029  0.041226913           21 
 4424000   0.54576223   -4.0631456    2264.5137  0.042655848  0.041217164           13 
 4425000   0.54755548   -4.0970198    2258.4754  0.042532493  0.041207426           10 
 4426000   0.53342154   -4.0732091    2260.0417  0.042552374  0.041197657           14 
 4427000   0.55027972   -4.0760082    2262.9371  0.042597265  0.041187871           14 
 4428000   0.53717647   -4.1012016    2261.2874  0.042556597  0.041178077           18 
 4429000   0.53994294   -4.0856658    2255.3957  0.042436134  0.041168261           13 
 4430000   0.54268342   -4.0916152    2264.3672  0.042595319   0.04115841            7 
 4431000   0.54180599   -4.0963853    2266.5392  0.042626555  0.041148582           11 
 4432000   0.54121169   -4.0916054    2264.2789  0.042574438  0.041138778           14 
 4433000   0.53407904   -4.0911304    2265.2962  0.042583957   0.04112899           12 
 4434000   0.54791605   -4.0964713    2268.1986  0.042628902   0.04111924           10 
 4435000   0.54263603   -4.0925644    2259.5555  0.042456886  0.041109506            8 
 4436000   0.53672916   -4.0884479     2263.661   0.04252444  0.041099707            6 
 4437000   0.54249957   -4.0825846    2261.2797  0.042470132  0.041089915           10 
 4438000   0.54714184   -4.0775123    2265.4926   0.04253967  0.041080163           20 
 4439000   0.54999436   -4.0716148    2258.4824  0.042398482  0.041070419           12 
 4440000   0.54732469   -4.0785944    2263.2658  0.042478713  0.041060699           17 
 4441000   0.54941611    -4.094596      2257.31  0.042357389  0.041050886           25 
 4442000   0.54582226   -4.0999309    2259.9458  0.042397303   0.04104109           10 
 4443000   0.54107345   -4.0835358    2257.2019  0.042336295   0.04103132           13 
 4444000   0.53756769   -4.0826087    2255.7209  0.042298997  0.041021556           11 
 4445000    0.5460083   -4.0912368    2257.5876  0.042324477  0.041011776           14 
 4446000    0.5536344   -4.0708525    2261.7533  0.042393037  0.041002026            8 
 4447000   0.54669263   -4.0948886    2265.0938  0.042446102  0.040992233           17 
 4448000   0.55098443   -4.0789529    2262.4204  0.042386473  0.040982471           20 
 4449000   0.55082753   -4.0862412    2261.3273  0.042356471  0.040972712           20 
 4450000   0.53278163   -4.0837891    2265.5955  0.042426882  0.040962973           32 
 4451000   0.55391357   -4.0605688    2266.0069  0.042425053  0.040953276           16 
 4452000   0.53672227   -4.0803459    2262.7204  0.042354006  0.040943591           15 
 4453000   0.54319598   -4.0807489    2259.4793  0.042283841  0.040933868           16 
 4454000   0.53499503   -4.0891691    2263.1155  0.042342379  0.040924137            7 
 4455000   0.54820177   -4.0996599    2259.7147  0.042269261  0.040914376           12 
 4456000   0.53746697   -4.0836302    2261.4042  0.042291372  0.040904611            7 
 4457000   0.52641859   -4.0796412    2261.2084  0.042278222  0.040894856           11 
 4458000    0.5295226   -4.0880315    2268.3357  0.042401968  0.040885132            7 
 4459000   0.54057796   -4.0870219    2266.4569  0.042357346  0.040875387            7 
 4460000   0.53890973   -4.1132058    2260.9665  0.042245264  0.040865634           17 
 4461000   0.54513257   -4.1038329    2262.7519  0.042269145  0.040855874           17 
 4462000   0.54123935   -4.0922018    2261.5094  0.042236467  0.040846113           23 
 4463000   0.53229205   -4.0998367    2260.5409   0.04220892  0.040836384           12 
 4464000   0.54054012   -4.0807162    2265.2181  0.042286778  0.040826643            8 
 4465000   0.52904428   -4.0907633    2263.8262  0.042251329  0.040816925           17 
 4466000   0.53310764   -4.0876586    2265.8927  0.042280427  0.040807212           17 
 4467000   0.54164436   -4.0978095    2264.1743  0.042238906  0.040797496            8 
 4468000   0.54169028   -4.0920968    2260.6508  0.042163735  0.040787788           15 
 4469000   0.53460463   -4.0810971    2263.8416  0.042213798  0.040778079            9 
 4470000   0.53619816   -4.0907926    2260.4463  0.042141057  0.040768387           14 
 4471000   0.53533923   -4.1020061    2259.5583   0.04211508  0.040758672            7 
 4472000   0.54515557   -4.0902996    2263.5515  0.042180073  0.040748957            8 
 4473000    0.5415906   -4.1062036    2263.6179  0.042171881  0.040739245           14 
 4474000   0.53346358   -4.0914455    2262.6983  0.042145326  0.040729526            9 
 4475000   0.53466896    -4.094527    2261.5525  0.042114572  0.040719818           14 
 4476000   0.53222676   -4.1037137    2264.4028  0.042158228  0.040710109           21 
 4477000   0.53491626    -4.102041    2267.6103  0.042208515  0.040700381           11 
 4478000    0.5286728    -4.096584    2263.6862  0.042126064   0.04069066            9 
 4479000   0.53838904   -4.0965361    2263.8448  0.042119611  0.040680933            9 
 4480000   0.53002204   -4.0784472    2266.2826  0.042155555  0.040671209            6 
 4481000   0.52545906   -4.0959539    2263.0694  0.042086391  0.040661549           13 
 4482000   0.53089119   -4.0732585    2262.8898  0.042073661  0.040651893            7 
 4483000   0.54358271   -4.0646933    2260.8978  0.042027248  0.040642208            6 
 4484000   0.53448323   -4.0991823    2259.5694  0.041993186  0.040632483           12 
 4485000   0.53535677   -4.0916176    2258.4129  0.041962336  0.040622796           18 
 4486000   0.52611263   -4.0944894    2264.5735  0.042067423  0.040613114           20 
 4487000   0.52699064   -4.0987814    2263.4487  0.042037158  0.040603411           10 
 4488000   0.52333097   -4.1000754    2258.7142   0.04193988  0.040593739           15 
 4489000   0.53736966   -4.0957874    2259.3393  0.041942142  0.040584033           15 
 4490000   0.54283238   -4.0934926    2265.6451  0.042049835  0.040574336            9 
 4491000   0.53434248   -4.1223998    2262.7398  0.041986562  0.040564629            8 
 4492000    0.5436547   -4.0921295    2259.9501  0.041925462  0.040554919           18 
 4493000   0.52776088   -4.1119677    2258.9973  0.041898459  0.040545206           11 
 4494000   0.54247481   -4.1059885     2257.862  0.041868083  0.040535475           14 
 4495000    0.5313726   -4.0872444    2267.0901  0.042029849  0.040525784           11 
 4496000   0.51881206   -4.1011005    2268.1061  0.042039332  0.040516076           16 
 4497000    0.5308115   -4.0967777    2260.6224  0.041891306  0.040506408           17 
 4498000   0.53033531     -4.08198    2263.7486   0.04193991  0.040496755           18 
 4499000   0.51861704   -4.0951535    2261.6455  0.041891633  0.040487123           66 
 4500000   0.53490218   -4.1001052    2267.6629  0.041993758  0.040477474           27 
 4501000   0.52615851   -4.1182567    2263.9298  0.041915312   0.04046777           27 
 4502000   0.53363806   -4.1004208    2268.2153  0.041985328  0.040458118           30 
 4503000   0.51829402    -4.102976    2264.7508  0.041911889  0.040448449           28 
 4504000   0.53896378   -4.0937094    2269.5457  0.041991298  0.040438877           13 
 4505000   0.52324843    -4.086176    2266.2441  0.041920905  0.040429343            8 
 4506000   0.52363021   -4.0923994    2267.7763  0.041939937   0.04041979            6 
 4507000   0.55123105   -4.0944505    2270.0521  0.041972712  0.040410205           23 
 4508000   0.52594986   -4.1036917    2265.6452  0.041881935  0.040400595           15 
 4509000   0.52912686   -4.0971924    2262.3054  0.041810922  0.040390996            9 
 4510000   0.53252873   -4.0997949    2266.5333  0.041879772  0.040381419           12 
 4511000    0.5299128   -4.0980961    2271.5093  0.041962412  0.040371855           10 
 4512000   0.53315674   -4.1159419    2265.5186  0.041842467  0.040362256           13 
 4513000   0.52517487   -4.1028149    2269.8816  0.041913759  0.040352677           14 
 4514000   0.53346494   -4.1057488    2268.2017  0.041873463  0.040343047           31 
 4515000   0.52808098   -4.1055591     2267.036  0.041842672  0.040333445           14 
 4516000   0.52511079   -4.1090003    2263.6128  0.041770239  0.040323878            6 
 4517000   0.52926217   -4.0952902    2269.0723  0.041861712  0.040314336           12 
 4518000   0.53204404   -4.1002898    2269.8741  0.041867236  0.040304752           19 
 4519000   0.52954877   -4.1003079    2266.1889  0.041790015  0.040295196           35 
 4520000    0.5259163   -4.0831326    2268.4699  0.041822824  0.040285693           33 
 4521000   0.51988721   -4.0979754    2270.4312  0.041849723  0.040276189           23 
 4522000   0.52425439   -4.1020492    2266.1869  0.041762253  0.040266678           10 
 4523000   0.53324608   -4.0991002     2266.723  0.041762897  0.040257147           18 
 4524000    0.5286509   -4.1374371    2264.5572  0.041713772  0.040247596           32 
 4525000   0.52719956   -4.1076379    2266.8418  0.041746626  0.040238011           28 
 4526000   0.53673075   -4.0987226    2273.3529  0.041857286  0.040228512           23 
 4527000   0.53449687   -4.1198175    2267.5829  0.041741826   0.04021896           13 
 4528000   0.52534077   -4.0935909    2265.6497  0.041697028  0.040209382            8 
 4529000   0.53525225   -4.1152804    2268.5918  0.041741956  0.040199834           13 
 4530000   0.53308492   -4.0883562    2263.8802  0.041646067  0.040190301           14 
 4531000   0.53260113   -4.1063279    2267.9402  0.041711547   0.04018078            9 
 4532000    0.5248203   -4.0865242    2269.8038   0.04173661  0.040171212           31 
 4533000   0.51933694    -4.100782    2269.9953  0.041730924   0.04016166           27 
 4534000   0.51897236   -4.1178755    2268.7275  0.041698417  0.040152112           23 
 4535000   0.51943826    -4.095188    2268.9872  0.041693995  0.040142547           16 
 4536000   0.51381333   -4.1194199    2263.2286  0.041579009   0.04013297           23 
 4537000   0.52245786   -4.1347192    2261.6863  0.041541516  0.040123408           14 
 4538000    0.5141864   -4.1034347    2260.2687   0.04150633  0.040113848            7 
 4539000   0.52400462   -4.1068899    2267.5728  0.041631285   0.04010427           27 
 4540000   0.52704653   -4.1294844    2267.7059  0.041624557  0.040094727           22 
 4541000   0.52179306    -4.117221    2268.0396  0.041621516  0.040085147           13 
 4542000    0.5244833   -4.1217085    2273.5133  0.041712779  0.040075594           19 
 4543000   0.53233037   -4.1279617    2264.0686  0.041530351  0.040066028           10 
 4544000   0.52516682   -4.1050325    2266.5241  0.041566242  0.040056454           16 
 4545000   0.52713065   -4.1505902    2265.3723   0.04153598  0.040046839           10 
 4546000   0.54037172    -4.116392    2268.0449  0.041575835  0.040037248           18 
 4547000   0.53276971   -4.0913263    2269.3929  0.041591395  0.040027687           21 
 4548000   0.51924478   -4.1280161    2263.6648  0.041477295  0.040018115           21 
 4549000   0.52312751   -4.0903027    2271.4548  0.041610881  0.040008591           11 
 4550000   0.52896338   -4.1104193    2269.1496  0.041559517  0.039999089           15 
 4551000   0.52523855   -4.0995626    2267.2893   0.04151632  0.039989548           19 
 4552000   0.52716824    -4.104403    2269.4057  0.041545945  0.039980023           12 
 4553000   0.51321333   -4.1258586    2266.1493  0.041477218  0.039970481           10 
 4554000   0.51820577   -4.1331819    2271.2828  0.041562048  0.039960915           13 
 4555000   0.52008859   -4.1155092    2267.1018  0.041476432  0.039951364            8 
 4556000   0.51253806   -4.1190599    2268.9619  0.041501352  0.039941823            5 
 4557000   0.52107753   -4.1089746    2267.5073  0.041465644  0.039932314           14 
 4558000   0.52163535    -4.115586    2262.9681  0.041373558  0.039922794            9 
 4559000   0.51918172   -4.1276699    2267.3661  0.041444872  0.039913262           12 
 4560000   0.53283569   -4.1145249    2271.5957  0.041513079  0.039903693           30 
 4561000   0.52500245    -4.109978    2265.9946   0.04140164  0.039894143           21 
 4562000   0.53028577   -4.1113233    2271.4056  0.041491407  0.039884601           10 
 4563000   0.53158239   -4.1262595    2267.6185  0.041413151  0.039875082           27 
 4564000   0.51691323   -4.1124397    2262.0456  0.041302322   0.03986553           18 
 4565000   0.52014069   -4.1096493    2271.3941   0.04146393  0.039855985           13 
 4566000    0.5270511   -4.1209053    2267.8456  0.041390086  0.039846507           20 
 4567000   0.52307978   -4.1038494    2270.9168  0.041437064  0.039836973           14 
 4568000   0.52355212   -4.1169552    2269.4157  0.041400608  0.039827485           26 
 4569000   0.52719862   -4.1300828    2265.0496  0.041311913  0.039818022           12 
 4570000   0.52719781   -4.1193616    2269.3167  0.041380684  0.039808509           12 
 4571000   0.52693143   -4.1215566    2276.6287  0.041504935  0.039798996           19 
 4572000   0.52087265    -4.127245    2275.6242  0.041477548  0.039789511           31 
 4573000   0.51300373   -4.1144848    2274.0465  0.041439728  0.039780005           28 
 4574000   0.51300706   -4.1025835    2266.0967  0.041285832  0.039770537           11 
 4575000   0.51649276   -4.1263285    2269.7622  0.041343574  0.039761071           14 
 4576000   0.51271191   -4.1343783    2270.0055   0.04133897  0.039751566           29 
 4577000   0.52561761   -4.1445834    2268.0313  0.041293994  0.039742063           12 
 4578000   0.51634381    -4.123158     2268.555  0.041294506  0.039732544           26 
 4579000   0.52184319   -4.1329069    2264.6643  0.041214681  0.039723063           10 
 4580000   0.52232435   -4.1261311    2271.9184  0.041337671  0.039713569           32 
 4581000    0.5090894   -4.1211732     2264.686  0.041197082  0.039704108           33 
 4582000   0.51375301   -4.1355647    2268.5119  0.041257674  0.039694635           14 
 4583000   0.51654281   -4.1295742    2264.5878  0.041177319  0.039685132           10 
 4584000   0.51490667   -4.1263663    2269.6783  0.041260876  0.039675673           16 
 4585000   0.51685563   -4.1403345    2268.3394  0.041227544  0.039666186           21 
 4586000   0.51223704   -4.1169336    2269.9881  0.041248512   0.03965673           21 
 4587000     0.523914   -4.1331332    2265.9256  0.041165715  0.039647261           15 
 4588000   0.51224993   -4.1245294    2269.7995  0.041227105  0.039637766           17 
 4589000   0.53172873   -4.1312764    2266.2839   0.04115428  0.039628267           14 
 4590000   0.51632586   -4.1415316     2270.712  0.041225708  0.039618844           25 
 4591000   0.50505217   -4.1297647    2269.8596  0.041201257  0.039609331           35 
 4592000   0.51226843   -4.1172581    2266.3575   0.04112873  0.039599835           28 
 4593000   0.50782068   -4.1511502    2265.5614   0.04110533  0.039590364           26 
 4594000   0.52102157   -4.1328428    2270.8066  0.041191529  0.039580853           20 
 4595000   0.52157387    -4.149858    2272.0722  0.041205517   0.03957139           33 
 4596000    0.5187654   -4.1360092    2260.4752  0.040986278  0.039561922           20 
 4597000   0.51047669   -4.1316608    2269.8843  0.041147927  0.039552468           23 
 4598000   0.51041446   -4.1274447    2271.6944  0.041171785  0.039543054           10 
 4599000   0.51289124   -4.1349275    2272.2861  0.041173555   0.03953364           38 
 4600000   0.50580667   -4.1155821    2275.2274  0.041217887   0.03952422           35 
 4601000   0.51587764   -4.1505112     2265.994  0.041041694  0.039514788           12 
 4602000   0.51052024   -4.1294107    2266.7532  0.041046524   0.03950533           38 
 4603000   0.51177616   -4.1404016    2267.3571   0.04104854  0.039495884           14 
 4604000   0.50998666   -4.1222334    2265.4328  0.041004794   0.03948641           14 
 4605000   0.51555417    -4.157993    2272.2905  0.041119987   0.03947697           10 
 4606000   0.52516913   -4.1196696    2266.9644  0.041014698  0.039467536           12 
 4607000   0.50557328   -4.1213496    2266.5736  0.040998727  0.039458131           23 
 4608000   0.52167402   -4.1420629     2266.812  0.040994142  0.039448692           14 
 4609000    0.5171811   -4.1492084    2273.7738  0.041111119  0.039439297            7 
 4610000   0.51492824   -4.1272342    2270.6715  0.041046123  0.039429905            9 
 4611000   0.51509002   -4.1503919    2270.2019  0.041028734  0.039420516            8 
 4612000   0.50332743    -4.133109     2270.594  0.041026922  0.039411138           19 
 4613000   0.52248978   -4.1267451    2269.3569  0.040995681  0.039401781           14 
 4614000   0.50877396   -4.1556956    2273.2694  0.041057459   0.03939238           21 
 4615000   0.52494712    -4.130472    2274.4169  0.041069283     0.039383           15 
 4616000   0.50508305   -4.1301523    2269.9029  0.040978894  0.039373628            8 
 4617000   0.53185652   -4.1372447    2274.6786  0.041056216  0.039364264           24 
 4618000    0.5126845   -4.1161035    2276.8213  0.041085992  0.039354922           15 
 4619000    0.5175877   -4.1312249    2275.9819  0.041061953   0.03934558           18 
 4620000   0.51772144   -4.1267048    2272.2645  0.040986012  0.039336226           17 
 4621000    0.5231883   -4.1428489    2271.2996  0.040959741  0.039326843           25 
 4622000   0.50840087   -4.1456772     2270.665  0.040939438  0.039317454            8 
 4623000   0.51678733   -4.1357638     2272.589  0.040965264  0.039308038            9 
 4624000   0.52255804   -4.1158036    2270.5852  0.040920293  0.039298665           17 
 4625000   0.50808914   -4.1323369    2271.1537  0.040921688  0.039289263            8 
 4626000   0.52129753   -4.1311436    2272.8741  0.040943834  0.039279842           19 
 4627000   0.51247628     -4.14116    2274.8467  0.040970512  0.039270445           11 
 4628000   0.51603204   -4.1467802    2270.6423  0.040885953  0.039261011           15 
 4629000   0.51397354   -4.1375765    2276.6871  0.040985941  0.039251642            7 
 4630000   0.51558886   -4.1328102    2267.6879  0.040815117  0.039242276           17 
 4631000   0.51243183   -4.1344183    2277.1608  0.040976765  0.039232946           17 
 4632000   0.51612071   -4.1455603    2271.3662  0.040863669  0.039223588            9 
 4633000   0.49969728   -4.1355135    2270.0665  0.040831472  0.039214185           12 
 4634000   0.50169615   -4.1302237    2273.8706   0.04089107  0.039204834           21 
 4635000    0.4978817   -4.1515119     2268.305  0.040782183  0.039195498           16 
 4636000   0.51464398   -4.1290636     2274.332  0.040881723  0.039186172           22 
 4637000   0.50842742   -4.1474633      2271.73  0.040826145  0.039176851           20 
 4638000   0.51665306   -4.1375545    2272.7287  0.040835286   0.03916752           10 
 4639000   0.50403827   -4.1486345    2275.8531  0.040882609  0.039158193           21 
 4640000   0.50617886   -4.1559202    2271.3319  0.040792598  0.039148797            7 
 4641000   0.51721167   -4.1515252    2268.1988  0.040727552  0.039139423           34 
 4642000   0.50952172   -4.1502942    2278.0291  0.040895251  0.039130074            9 
 4643000   0.50195101   -4.1503478    2272.3276  0.040784112  0.039120737           10 
 4644000   0.51109437   -4.1409213    2274.4134  0.040812759  0.039111406           20 
 4645000   0.49949383   -4.1432826    2273.3404  0.040784722  0.039102077           10 
 4646000   0.49463312    -4.142719    2271.2414  0.040738294  0.039092729           19 
 4647000   0.49994624   -4.1322711    2277.2223  0.040836782  0.039083406           31 
 4648000   0.50156922   -4.1353307    2269.8395  0.040695631  0.039074135            9 
 4649000   0.51225929   -4.1578529    2274.5592  0.040771477  0.039064843           17 
 4650000   0.51635681   -4.1576371    2267.9392  0.040644072  0.039055518           19 
 4651000   0.50488716   -4.1462293    2269.0698   0.04065559  0.039046178           29 
 4652000   0.50704703   -4.1420677    2274.2542  0.040739722  0.039036826           18 
 4653000   0.51165865   -4.1521858    2275.5054  0.040753374  0.039027486           26 
 4654000   0.50388927   -4.1289559    2276.9114  0.040769792  0.039018173           21 
 4655000   0.50742428    -4.162071    2275.8688  0.040742371  0.039008834           18 
 4656000   0.50585586   -4.1549949    2271.1526  0.040649209  0.038999505           30 
 4657000   0.50284966   -4.1519325     2274.044   0.04069222   0.03899017           14 
 4658000   0.50104877   -4.1553452    2265.8849  0.040537514  0.038980863           17 
 4659000   0.51586055   -4.1530267    2271.6282  0.040631542  0.038971548           13 
 4660000     0.508335   -4.1406245    2269.9637  0.040593057  0.038962245           17 
 4661000   0.50826364   -4.1466755    2269.1791   0.04057032  0.038952944           13 
 4662000   0.50816828   -4.1472662    2272.7569  0.040625569  0.038943655           42 
 4663000   0.51401849   -4.1496488    2271.0685  0.040586685  0.038934338           35 
 4664000   0.49990926    -4.152371    2272.6504  0.040606246  0.038925003           26 
 4665000   0.50538968   -4.1658098     2270.619  0.040561253  0.038915647            9 
 4666000   0.50809642   -4.1577379    2268.4902  0.040514541  0.038906296           14 
 4667000   0.49698545   -4.1550235    2268.7787  0.040511011   0.03889697           31 
 4668000   0.49647169   -4.1505776    2272.0606  0.040560921  0.038887654           15 
 4669000   0.50505563   -4.1581891    2267.1458  0.040464515  0.038878336           26 
 4670000   0.50070382   -4.1680658    2275.6775  0.040608092  0.038868976           17 
 4671000   0.49796516   -4.1534169    2268.4332  0.040470156  0.038859623           33 
 4672000   0.50495722   -4.1610467     2270.434  0.040497182  0.038850294            9 
 4673000     0.505011   -4.1721964    2268.9016  0.040461188  0.038840999           15 
 4674000   0.48621787   -4.1715437    2271.5283  0.040499363  0.038831697           23 
 4675000   0.49614262   -4.1622316    2273.9545  0.040533949  0.038822417           13 
 4676000   0.51847779   -4.1659864    2270.1745  0.040457915  0.038813089           24 
 4677000   0.50400794   -4.1564546    2273.2786  0.040504572  0.038803744           27 
 4678000   0.50116533   -4.1541915    2273.4825  0.040499546  0.038794419           16 
 4679000   0.50586287   -4.1638215     2267.291  0.040380618  0.038785116           26 
 4680000    0.5216431   -4.1699564    2270.1095  0.040422178  0.038775796            5 
 4681000   0.50240229   -4.1703019    2267.4796  0.040366724  0.038766486           16 
 4682000   0.49464126   -4.1452909    2266.3957   0.04033881  0.038757171           20 
 4683000   0.51355888    -4.174859    2269.5673  0.040386635  0.038747803           20 
 4684000   0.50266075   -4.1561883    2271.2697  0.040408299  0.038738513           26 
 4685000   0.49459609   -4.1572966     2274.889  0.040464053  0.038729272           19 
 4686000   0.49470497   -4.1522652     2267.623  0.040326202  0.038719994           29 
 4687000   0.50925011    -4.148011    2273.3548  0.040419508  0.038710713           40 
 4688000    0.5024943   -4.1563906     2274.883   0.04043805  0.038701382           29 
 4689000   0.49527589   -4.1625205     2272.821   0.04039278  0.038692116           21 
 4690000   0.49565795   -4.1552673    2278.3359  0.040482159  0.038682814           25 
 4691000   0.49636134   -4.1675178    2278.5788  0.040477844  0.038673519           20 
 4692000   0.49378338   -4.1579506    2267.7079  0.040276143  0.038664202           35 
 4693000   0.50131526   -4.1578691     2274.968  0.040396477  0.038654873           34 
 4694000     0.487859   -4.1758062    2276.5677  0.040416271  0.038645579           17 
 4695000   0.49989877   -4.1601042    2267.3522  0.040244092  0.038636294           17 
 4696000   0.50567218   -4.1648733    2267.7473  0.040242535  0.038626978           17 
 4697000   0.50745996    -4.160751     2268.337  0.040244429   0.03861769           16 
 4698000   0.49395152   -4.1721978    2273.9086  0.040334692  0.038608381            7 
 4699000   0.49892705   -4.1801413    2270.6758  0.040268777  0.038599076           19 
 4700000   0.50675739   -4.1706303    2271.3219  0.040271665  0.038589773           17 
 4701000   0.49359468    -4.171354    2270.3609  0.040246063   0.03858046            9 
 4702000   0.49978418   -4.1681648    2274.1638  0.040304903  0.038571138           17 
 4703000   0.50369507   -4.1510975    2266.5853  0.040162048  0.038561837           15 
 4704000   0.50600546    -4.172603     2272.421  0.040256891  0.038552551           28 
 4705000    0.5033353   -4.1695196    2269.7465  0.040200966  0.038543246           51 
 4706000   0.49630087    -4.163889    2264.4552  0.040098725  0.038533977           62 
 4707000   0.50708164   -4.1658267    2269.7667  0.040184242  0.038524686           20 
 4708000    0.5038892   -4.1571851    2271.7127  0.040210152  0.038515417           41 
 4709000   0.50410018   -4.1615389    2271.7154   0.04020166  0.038506137           37 
 4710000   0.50976514   -4.1735659     2272.722  0.040210934  0.038496851           35 
 4711000   0.50658701   -4.1662456    2266.6543  0.040095066  0.038487549           18 
 4712000   0.50170209   -4.1716152    2273.0291  0.040199298  0.038478295           16 
 4713000   0.48984288    -4.170547    2266.0386  0.040067165  0.038469027           18 
 4714000   0.49615034   -4.1787699    2270.8157  0.040143115  0.038459767           14 
 4715000   0.49972296   -4.1582117    2269.9259  0.040118875  0.038450504            9 
 4716000   0.49429731   -4.1796119    2270.3297  0.040117503  0.038441212           16 
 4717000   0.48094133   -4.1647818    2272.0865  0.040140034  0.038431931           15 
 4718000    0.4872704   -4.1846093    2272.3239   0.04013572  0.038422653           11 
 4719000   0.50258874   -4.1661027    2272.3335  0.040127384    0.0384134           17 
 4720000   0.49838691   -4.1613846    2277.1789  0.040204429  0.038404145           16 
 4721000   0.49346211   -4.1514304    2274.6979   0.04015212  0.038394942           12 
 4722000   0.49550071   -4.1744172    2266.1576  0.039992899  0.038385723           19 
 4723000   0.49466613   -4.1798789    2271.7231  0.040082629  0.038376437           18 
 4724000   0.48972434   -4.1798077    2269.1011  0.040027891  0.038367123            9 
 4725000   0.49790796   -4.1873497    2268.0068   0.04000012  0.038357829           31 
 4726000   0.48981897   -4.1705756    2273.0086  0.040079853  0.038348549           38 
 4727000   0.50366657   -4.1601981    2274.8274  0.040103438  0.038339282           25 
 4728000   0.49847534   -4.1731688    2270.4469  0.040017748   0.03833001           44 
 4729000   0.49104939   -4.1710465    2266.6879  0.039943044  0.038320756           45 
 4730000   0.49620358   -4.1890348    2272.9701   0.04004528  0.038311504           49 
 4731000   0.48911496   -4.1768339    2267.4932  0.039940343  0.038302199           91 
 4732000   0.49329851   -4.1800856    2272.4589  0.040019352  0.038292898          129 
 4733000   0.49204054   -4.1713687    2272.0184  0.040003141  0.038283614           55 
 4734000   0.48825784   -4.1625863    2270.2923  0.039964306   0.03827433          105 
 4735000   0.48019426   -4.1787693    2273.4483   0.04001141  0.038265046           78 
 4736000   0.49989187   -4.1573822    2268.4946  0.039915797   0.03825577           38 
 4737000   0.50095675   -4.1724534    2271.5382  0.039960914   0.03824649           23 
 4738000   0.48763107   -4.1781663    2274.2294  0.039999814  0.038237243           13 
 4739000   0.49653478   -4.1609232    2265.9342  0.039845506  0.038227995           24 
 4740000   0.50095829   -4.1828027    2272.4074  0.039950904  0.038218767           19 
 4741000   0.49519745   -4.1622593    2272.0629  0.039936421  0.038209542           30 
 4742000   0.49439848   -4.1541236     2274.631  0.039973131  0.038200337           28 
 4743000   0.48746483    -4.165915    2274.6382  0.039964828  0.038191068           19 
 4744000    0.5033246   -4.1784169    2267.5163  0.039831301   0.03818181           11 
 4745000   0.49885046   -4.1684396    2270.1058  0.039868385  0.038172557           16 
 4746000   0.49547283   -4.1713841    2273.4879  0.039919369   0.03816332           14 
 4747000   0.48661154   -4.1751141    2270.3741  0.039856298  0.038154118           16 
 4748000    0.5022859   -4.1715011    2264.5817  0.039746239  0.038144892           17 
 4749000    0.4944794   -4.1690289     2269.493   0.03982405  0.038135645           10 
 4750000    0.4977282   -4.1721383    2265.2894  0.039741919   0.03812638            9 
 4751000    0.4830574   -4.1885563    2268.6802  0.039793029  0.038117122           49 
 4752000   0.48033586   -4.1789066     2270.965  0.039824723  0.038107862           22 
 4753000   0.48775956    -4.182774    2271.3771   0.03982357  0.038098596           53 
 4754000   0.48674725   -4.1792237    2265.0537  0.039704349  0.038089304           13 
 4755000   0.48881998   -4.1808554    2271.2292  0.039804228  0.038080038           14 
 4756000   0.49245862   -4.1967791     2267.369   0.03972822  0.038070784           29 
 4757000   0.48988561   -4.1867198    2266.9479  0.039712492  0.038061526           15 
 4758000   0.48650838   -4.1958071    2269.3448  0.039746125  0.038052225           28 
 4759000   0.49089687   -4.1831302    2269.3638  0.039738106  0.038042951           26 
 4760000   0.49780979   -4.1936666    2268.6235  0.039716799  0.038033659           20 
 4761000    0.4953964   -4.1768155     2264.187  0.039630802  0.038024343           25 
 4762000    0.4922757   -4.1777051    2269.3288   0.03971246  0.038015111           21 
 4763000   0.48963062   -4.1754633    2273.7462  0.039781409  0.038005862           22 
 4764000   0.49148276   -4.1810779     2264.862  0.039617653  0.037996609            7 
 4765000   0.49920163   -4.1904159    2269.3588  0.039687981  0.037987322           23 
 4766000   0.49146779   -4.1780852    2266.9757  0.039637986   0.03797808           17 
 4767000   0.49315246   -4.1810502    2266.6043  0.039623178  0.037968837           25 
 4768000   0.48888311   -4.1672412    2269.5068  0.039665598   0.03795958           69 
 4769000   0.48911455   -4.1878891    2269.3685  0.039654864  0.037950342           62 
 4770000   0.49814014   -4.1770606     2267.743  0.039618151  0.037941101           38 
 4771000     0.498305   -4.1882644    2269.1288  0.039634054  0.037931896           24 
 4772000   0.48238707     -4.17861    2266.9138  0.039587067  0.037922659           16 
 4773000   0.48795826   -4.1850844    2267.2945   0.03958542  0.037913454           15 
 4774000   0.48464901   -4.1778045    2265.8743  0.039552337  0.037904232           28 
 4775000   0.49260817   -4.1854352    2271.4193  0.039640825  0.037895014           35 
 4776000   0.49336726   -4.1725512    2268.5965  0.039583272  0.037885788           16 
 4777000   0.48682338   -4.1724123    2267.4603  0.039555166  0.037876565           52 
 4778000   0.49550447   -4.1859061    2267.0879  0.039540391  0.037867336           54 
 4779000   0.47525979   -4.1890328    2264.3068  0.039483623  0.037858085           50 
 4780000   0.48027978   -4.1748276    2268.8433  0.039554451   0.03784885           59 
 4781000   0.48504095   -4.2067855    2266.4288  0.039504092  0.037839644           43 
 4782000    0.4867933   -4.1809832    2271.7854  0.039589178  0.037830407           42 
 4783000   0.47411608   -4.1880259    2267.8971  0.039513155  0.037821207           51 
 4784000   0.48721727   -4.1806173    2268.9564  0.039523349  0.037811988           43 
 4785000   0.49362065   -4.1759995    2271.3211  0.039556272  0.037802773           29 
 4786000    0.4788093   -4.1992814    2265.3318  0.039443722  0.037793552           26 
 4787000   0.48172956   -4.1944443    2275.6027   0.03961428  0.037784344           23 
 4788000   0.48030034   -4.1849218    2272.0835  0.039544755  0.037775157           28 
 4789000   0.48148186   -4.1880133    2267.2354  0.039452137  0.037765979           27 
 4790000   0.49091988   -4.1776967    2271.7791  0.039522949  0.037756803           19 
 4791000   0.49018454   -4.1953717    2264.9256  0.039395491  0.037747587           12 
 4792000    0.4838404   -4.1942403    2270.9827  0.039492603  0.037738385           13 
 4793000   0.48560276   -4.1996704    2267.9623  0.039431851  0.037729152           19 
 4794000   0.47947398   -4.1932532    2271.4168  0.039483674  0.037719908           43 
 4795000   0.49624338   -4.2072689    2267.3521  0.039404799  0.037710702           15 
 4796000   0.47395935   -4.1661309    2266.7916  0.039386843  0.037701483           25 
 4797000   0.48044683   -4.1796269    2275.8901  0.039536692  0.037692309           15 
 4798000    0.4876023   -4.1984743    2269.1294  0.039411029  0.037683122           37 
 4799000   0.47592829   -4.1946924    2268.1433  0.039385694  0.037673903           24 
 4800000   0.49672171   -4.2016556    2268.8632  0.039389986   0.03766468           40 
 4801000   0.48795981   -4.1919983    2265.6287  0.039325639  0.037655443           15 
 4802000   0.47603839   -4.1956247     2264.916   0.03930508   0.03764621           15 
 4803000   0.49071568   -4.2085377    2267.3761  0.039339581  0.037637013           23 
 4804000   0.48512698   -4.1888115    2271.0062  0.039394362  0.037627789           18 
 4805000   0.48375814   -4.1928415    2267.8852  0.039332035  0.037618596           13 
 4806000   0.48481071    -4.173761    2268.2376  0.039329962  0.037609385           15 
 4807000   0.48601521   -4.1882959    2267.3654   0.03930666  0.037600218            9 
 4808000   0.47712273   -4.2030796    2267.1237  0.039294296  0.037591039           17 
 4809000   0.48223266   -4.2031694    2263.9619  0.039231335  0.037581815           35 
 4810000   0.48183941   -4.1899261    2262.1545  0.039191866  0.037572606           24 
 4811000   0.48566399   -4.1872335    2265.4711  0.039241168  0.037563411           33 
 4812000   0.49444574   -4.1982108    2267.2887   0.03926449  0.037554203           15 
 4813000    0.4850826   -4.2103144     2267.633  0.039262292  0.037544993           10 
 4814000   0.46694277   -4.1927223    2270.0145  0.039295363  0.037535814           15 
 4815000   0.47688798   -4.1842741     2266.754  0.039230772  0.037526607           11 
 4816000    0.4751694   -4.2061216    2266.4928  0.039218106  0.037517398            9 
 4817000    0.4901097   -4.1923881    2268.6752   0.03924772  0.037508216           14 
 4818000   0.47502331   -4.2164333    2270.2829  0.039267381  0.037499022           21 
 4819000   0.47964534   -4.1849213     2269.069  0.039238241  0.037489834           13 
 4820000   0.47361993   -4.2035474    2266.8219  0.039191249  0.037480637           14 
 4821000   0.48472511   -4.2026187    2266.0712  0.039170145  0.037471453           38 
 4822000   0.48084603    -4.203306    2265.6883  0.039155404  0.037462269           15 
 4823000   0.47302338   -4.2114751    2266.3812  0.039159258  0.037453041           16 
 4824000   0.46978521   -4.2000345    2265.5179  0.039136226   0.03744383           36 
 4825000   0.48773712   -4.1958524    2266.1827  0.039139598  0.037434617           48 
 4826000   0.46728981   -4.2119602    2258.1282  0.038992406  0.037425396           34 
 4827000   0.46976946   -4.2040238    2263.8811  0.039083645   0.03741618           19 
 4828000   0.47587095   -4.2133346    2260.9377  0.039024746  0.037406978           27 
 4829000   0.47710005   -4.1796245    2264.1481  0.039072066  0.037397773           57 
 4830000   0.48163512   -4.2022796    2267.7481  0.039126089  0.037388589           37 
 4831000   0.48342988   -4.1926048    2264.6172  0.039063983  0.037379395           18 
 4832000   0.48414978   -4.1817353    2267.5329  0.039106183  0.037370223           22 
 4833000   0.47541141   -4.1938235    2261.0302  0.038985968  0.037361043           18 
 4834000   0.46665865   -4.2018248    2267.7069  0.039093003  0.037351858           18 
 4835000   0.47695131    -4.198726    2274.1834  0.039196543  0.037342704           13 
 4836000    0.4778382   -4.1937451    2263.3939  0.039002514  0.037333548           35 
 4837000   0.47828932   -4.2058003     2260.705  0.038948126  0.037324353           29 
 4838000   0.48173746   -4.2057462    2262.2087  0.038965975  0.037315141           39 
 4839000    0.4733935   -4.2139562    2266.5237  0.039032234  0.037305951           21 
 4840000   0.47917096    -4.196478    2268.2617  0.039054092  0.037296754           43 
 4841000   0.47649894    -4.212038    2261.9182  0.038936827  0.037287579           17 
 4842000    0.4819601   -4.1924812    2266.5858  0.039009117  0.037278394           14 
 4843000   0.47963256    -4.205584    2271.4024  0.039083943  0.037269235            7 
 4844000   0.46715974   -4.1906586     2262.706  0.038926265  0.037260069           16 
 4845000   0.47976224    -4.188968    2267.8959  0.039007497  0.037250913           24 
 4846000   0.47297033   -4.1947447    2263.8186  0.038929334   0.03724175           24 
 4847000   0.46991681   -4.2124511     2265.329   0.03894727  0.037232621           31 
 4848000   0.47172416   -4.1963448    2270.5497  0.039028975  0.037223485           35 
 4849000   0.47575327   -4.2011341    2268.9921  0.038994159  0.037214334           15 
 4850000   0.48411039   -4.2057455    2263.1246  0.038885302  0.037205183           15 
 4851000   0.47944818   -4.1989181    2269.4409  0.038985792  0.037196039           29 
 4852000   0.47705299   -4.2103932    2268.9917  0.038970042  0.037186878            7 
 4853000   0.47565635   -4.2137146    2267.4091  0.038934836  0.037177743           28 
 4854000   0.47570333   -4.2241998     2265.093  0.038887052  0.037168569           22 
 4855000   0.47099984   -4.2008675    2262.1529  0.038828577  0.037159396            7 
 4856000   0.47576151   -4.2215947    2263.7547   0.03884807  0.037150214           24 
 4857000   0.48245064   -4.1984022    2266.9109  0.038894223  0.037141093           13 
 4858000   0.46630716    -4.217312    2271.8601  0.038971115  0.037131956           18 
 4859000   0.47210673   -4.2117219    2262.3944  0.038800754   0.03712281           32 
 4860000   0.47857357    -4.204293    2266.7769  0.038867918  0.037113691           20 
 4861000   0.47407878   -4.2280612    2265.8091   0.03884333   0.03710454           52 
 4862000   0.48052395   -4.2260285    2263.0191  0.038787521   0.03709537           20 
 4863000   0.47509981   -4.2157176    2261.9653  0.038761487   0.03708621           16 
 4864000   0.47518887   -4.2006759    2269.2132  0.038877693   0.03707706           24 
 4865000   0.47786142   -4.2270405    2265.5763  0.038807405  0.037067923           18 
 4866000   0.46810252   -4.2109593    2267.8529  0.038838419  0.037058836           13 
 4867000   0.46972467   -4.2012771    2267.1542  0.038818475   0.03704976           24 
 4868000   0.48374437   -4.2144777    2268.4894  0.038833358  0.037040648           19 
 4869000   0.46584269    -4.216759    2266.8878   0.03879797  0.037031551           35 
 4870000   0.47300658   -4.2193886     2271.082  0.038861773  0.037022443           46 
 4871000   0.47984518     -4.21557    2267.9423   0.03880008  0.037013335           33 
 4872000   0.48054436   -4.2055598    2268.1511  0.038795688  0.037004213           28 
 4873000   0.46786305   -4.2136175    2260.4766  0.038656484  0.036995061           28 
 4874000   0.47854701    -4.216061    2269.4811  0.038802508  0.036985919           31 
 4875000   0.46595516   -4.2162482    2267.9903  0.038769065  0.036976803           39 
 4876000   0.47533896   -4.2122344    2262.0142  0.038658979  0.036967705           54 
 4877000     0.467789    -4.205487     2268.018  0.038753639  0.036958598           30 
 4878000   0.47836374   -4.2043664    2265.4569  0.038701942    0.0369495           56 
 4879000   0.47395514   -4.1959756     2264.098  0.038670801  0.036940385           33 
 4880000    0.4755212   -4.2022349    2266.3893  0.038702004   0.03693127           21 
 4881000   0.47828678   -4.2208018    2261.6528  0.038613208  0.036922144           30 
 4882000   0.46775709   -4.2069668    2260.4931  0.038585503  0.036913028           11 
 4883000   0.46547504   -4.2066475     2263.838  0.038634685  0.036903912           40 
 4884000   0.45454807   -4.2148745     2260.312  0.038566611  0.036894791           15 
 4885000   0.47756839    -4.225852    2259.8607  0.038551018  0.036885691           13 
 4886000     0.472762   -4.2134096    2267.1868  0.038668078  0.036876567           33 
 4887000   0.47836159   -4.2175137    2267.3131   0.03866232  0.036867476           25 
 4888000   0.47909114   -4.2134527    2268.1331  0.038668391  0.036858407           16 
 4889000   0.46769654   -4.2239598    2269.2676  0.038679818  0.036849315           14 
 4890000   0.47349405   -4.2364381    2267.3842  0.038639813   0.03684021           30 
 4891000   0.47792291   -4.2103549    2261.4885  0.038531462   0.03683109           24 
 4892000   0.46223465   -4.2186598    2265.3572  0.038589487  0.036821954           37 
 4893000   0.47741934   -4.2204762    2263.2522  0.038545748  0.036812829           22 
 4894000   0.46402528   -4.2260753    2260.3527  0.038488501   0.03680372           13 
 4895000   0.46784091   -4.2302671    2267.1338   0.03859608  0.036794575           29 
 4896000   0.46016174   -4.2307467    2265.0775  0.038553199  0.036785449           34 
 4897000    0.4655584    -4.223907    2266.4674  0.038568978  0.036776347           39 
 4898000   0.46862039   -4.2387695    2266.1239  0.038555258  0.036767228           18 
 4899000    0.4575544   -4.2277725    2259.1758  0.038429199  0.036758118           12 
 4900000   0.46650506    -4.218566    2260.2735  0.038440025  0.036749006           23 
 4901000    0.4666228   -4.2482704    2260.6117  0.038437932  0.036739901           12 
 4902000   0.47096804   -4.2196208    2264.1821  0.038490788  0.036730775           24 
 4903000   0.47016165   -4.2237988    2262.4145  0.038452895  0.036721656           10 
 4904000   0.47296788    -4.228216    2263.2291  0.038458895  0.036712538           19 
 4905000   0.46429251   -4.2382234    2258.8622  0.038376864  0.036703406           37 
 4906000   0.46765761   -4.2362123    2266.5078   0.03849891  0.036694284           51 
 4907000   0.46274084   -4.2210241    2261.2412  0.038401623   0.03668515           30 
 4908000   0.47164684   -4.2271856    2262.7425   0.03841929  0.036675997           34 
 4909000   0.47061606   -4.2187624    2264.4069  0.038439717  0.036666884           56 
 4910000   0.46700938   -4.2295938    2265.6602   0.03845316  0.036657796           17 
 4911000   0.45911781   -4.2380962    2266.3389  0.038456847  0.036648713           26 
 4912000    0.4754113    -4.225712    2263.0153  0.038392632  0.036639656           34 
 4913000   0.45909197   -4.2241504    2266.3746  0.038441797  0.036630548           40 
 4914000   0.46235595   -4.2110756    2261.7765  0.038355998  0.036621455            7 
 4915000    0.4668779   -4.2414043    2264.7869  0.038399236  0.036612359           18 
 4916000   0.47171349   -4.2234451    2266.7436  0.038424593  0.036603275           24 
 4917000   0.47047321   -4.2182329     2263.977   0.03836989  0.036594204           12 
 4918000   0.46589495   -4.2244264     2268.919  0.038445828  0.036585163           25 
 4919000   0.46738082   -4.2436319    2262.9067  0.038336157  0.036576101           13 
 4920000   0.47014825   -4.2167182      2262.25  0.038317243  0.036567029           17 
 4921000   0.46210451   -4.2239558    2266.8337  0.038387077  0.036557972            6 
 4922000   0.46843929   -4.2418341    2261.6623  0.038291722    0.0365489           12 
 4923000   0.45591572   -4.2302863    2261.7193  0.038284909  0.036539821           13 
 4924000   0.46166558   -4.2408775     2265.625  0.038343234  0.036530712           13 
 4925000   0.47132627   -4.2389127    2265.8354  0.038339008   0.03652163           14 
 4926000    0.4754935   -4.2292227    2265.6577   0.03832822  0.036512527           26 
 4927000   0.45373857   -4.2437759    2261.7479  0.038254312  0.036503433            8 
 4928000    0.4646705   -4.2347952    2266.5443  0.038327657  0.036494325           18 
 4929000   0.46175774   -4.2374532    2263.7683  0.038272947  0.036485246           48 
 4930000   0.46349482    -4.228724    2262.0991  0.038236969  0.036476159           11 
 4931000   0.46262327   -4.2383011    2265.8175  0.038292056  0.036467106           36 
 4932000   0.45451492   -4.2423536    2261.5433  0.038212073  0.036458035           47 
 4933000   0.46744685   -4.2418529    2261.6966  0.038206917  0.036448935           27 
 4934000   0.45414415   -4.2629556    2258.1135  0.038138655  0.036439839           27 
 4935000   0.46805674    -4.249911    2262.9671  0.038212886  0.036430734           62 
 4936000   0.45858137   -4.2389719    2256.7735   0.03810058  0.036421632           35 
 4937000   0.46908664   -4.2380018    2259.4044   0.03813727  0.036412561           59 
 4938000   0.46162532   -4.2263232    2263.3563  0.038196239  0.036403501           41 
 4939000   0.46257144   -4.2293501    2261.3398  0.038154481  0.036394447           32 
 4940000   0.46581979   -4.2294764    2262.4623  0.038165694  0.036385382           35 
 4941000   0.45649162   -4.2228222    2262.3396    0.0381559  0.036376333           35 
 4942000   0.45944569   -4.2319201    2265.6192   0.03820348  0.036367288           40 
 4943000   0.46073945   -4.2279176    2261.5725  0.038127529  0.036358244           48 
 4944000   0.46664549   -4.2512084    2262.5162  0.038135724  0.036349208           36 
 4945000   0.45640403   -4.2331613    2261.5967  0.038112516  0.036340139           16 
 4946000    0.4744056   -4.2384749    2263.8324  0.038142479  0.036331097           41 
 4947000   0.45801058   -4.2345685    2256.2104  0.038006373   0.03632204           55 
 4948000   0.46393532   -4.2350561    2261.1673  0.038082176  0.036312984           23 
 4949000    0.4649117   -4.2387776    2263.5828  0.038115154  0.036303912           32 
 4950000   0.46050965   -4.2312241     2261.445  0.038071465  0.036294861           22 
 4951000   0.46333094   -4.2476435    2259.9058  0.038037868   0.03628579           56 
 4952000   0.46977507   -4.2543128    2264.1903  0.038102286  0.036276696           36 
 4953000   0.44500636   -4.2548534     2259.922  0.038022782  0.036267637           52 
 4954000   0.45629487    -4.242468    2260.6435  0.038027242   0.03625857           64 
 4955000   0.45489703    -4.237982    2262.1787  0.038045387  0.036249533           62 
 4956000   0.45967494   -4.2504833    2260.3406  0.038006802  0.036240472           56 
 4957000   0.45780032    -4.242848    2260.7769  0.038006471  0.036231428           39 
 4958000   0.46459584   -4.2355314    2262.3266  0.038024852   0.03622237           67 
 4959000   0.45690684   -4.2388627    2260.3337  0.037983694  0.036213336           40 
 4960000   0.46480868   -4.2471909    2260.5223  0.037979205  0.036204298           11 
 4961000   0.46124959   -4.2326908    2263.8804  0.038027958  0.036195251           15 
 4962000   0.46677219   -4.2428765     2262.647  0.037999579  0.036186235           17 
 4963000   0.46013506   -4.2317868    2265.5875  0.038041296  0.036177206           29 
 4964000   0.45119826   -4.2476746    2259.3384  0.037928727  0.036168183           14 
 4965000    0.4543575   -4.2478527    2260.2235  0.037935944  0.036159157           21 
 4966000   0.44837371   -4.2427864    2260.6553   0.03793555  0.036150115           25 
 4967000   0.45721236   -4.2450312    2258.0149  0.037883614  0.036141068           30 
 4968000   0.44928625   -4.2435976    2257.2065  0.037862429  0.036131995           37 
 4969000   0.46297616   -4.2416094    2256.4034  0.037841339  0.036122934           19 
 4970000   0.45684689   -4.2499245    2257.4553  0.037851364  0.036113881           29 
 4971000   0.45190744   -4.2597222    2259.6767  0.037880988  0.036104833           87 
 4972000   0.46427618   -4.2499264     2263.091  0.037930595  0.036095808           36 
 4973000   0.45158956   -4.2463058    2262.3841  0.037911122  0.036086803           41 
 4974000    0.4426248    -4.233929    2261.2443  0.037884403  0.036077816           16 
 4975000   0.45623852   -4.2356466    2261.9213  0.037888128  0.036068841           12 
 4976000   0.45454109   -4.2493089    2261.3611  0.037871133   0.03605985           16 
 4977000   0.46458552   -4.2530541     2261.887  0.037872329  0.036050835           16 
 4978000   0.47400853   -4.2521815    2264.1756  0.037903034  0.036041812           17 
 4979000   0.45976881   -4.2398415    2260.9442  0.037841337    0.0360328           16 
 4980000   0.44815832   -4.2429417    2262.9661  0.037867571  0.036023791           34 
 4981000   0.45368847   -4.2350078    2258.1185  0.037778867  0.036014758           50 
 4982000   0.46472956   -4.2600228     2263.139  0.037855263  0.036005753           33 
 4983000   0.45880246   -4.2446543    2261.4346  0.037819161  0.035996749           52 
 4984000   0.45428567   -4.2524106    2259.1384  0.037773181  0.035987754           22 
 4985000    0.4459212   -4.2520689    2262.1335  0.037815672  0.035978738           42 
 4986000   0.45147039   -4.2486925    2258.7241  0.037751105  0.035969725           26 
 4987000   0.44905952   -4.2585735    2262.4558  0.037805892  0.035960706           31 
 4988000   0.44682812   -4.2449674    2260.5666   0.03776675  0.035951696           25 
 4989000   0.45990239   -4.2555208    2260.5304  0.037758575  0.035942699           23 
 4990000   0.45641672   -4.2579773    2261.4152  0.037765785  0.035933714           10 
 4991000    0.4630569    -4.258992    2254.7466  0.037646875   0.03592471           16 
 4992000   0.43931376   -4.2573383    2259.1944  0.037713582   0.03591572           30 
 4993000   0.44615728   -4.2552677    2262.5211  0.037761551  0.035906721           39 
 4994000   0.45535353   -4.2496259    2258.1613  0.037681239  0.035897718           25 
 4995000   0.45911375   -4.2713358    2256.0927  0.037639184   0.03588873           48 
 4996000   0.45123228   -4.2503407    2255.4199  0.037620428  0.035879734           35 
 4997000   0.45509388    -4.265151    2259.1651  0.037675356  0.035870723          113 
 4998000   0.45123376   -4.2514859    2258.0865  0.037649834   0.03586174           49 
 4999000   0.45978976   -4.2509967     2261.227  0.037694656  0.035852749           36 
 5000000   0.44596238   -4.2655334    2256.8581  0.037614302  0.035843766           24 
 5001000   0.45413345   -4.2571331    2258.0483  0.037626614  0.035834763           25 
 5002000   0.44855497   -4.2617929    2257.6851  0.037613039  0.035825771           18 
 5003000   0.44484759   -4.2690449    2259.6827  0.037638796  0.035816804           39 
 5004000   0.45012248   -4.2648877    2255.8876  0.037568073  0.035807835           40 
 5005000   0.46194831   -4.2456018    2254.4785  0.037537105  0.035798859           14 
 5006000    0.4455971   -4.2423071    2259.8003  0.037618196  0.035789919           25 
 5007000   0.45183911   -4.2471406     2264.335  0.037686156  0.035780971           14 
 5008000   0.44899159   -4.2675274    2259.6299  0.037600337  0.035772025           16 
 5009000   0.45838599   -4.2680297    2254.4557   0.03750675  0.035763038           63 
 5010000   0.45183799   -4.2598833    2253.5248  0.037483779  0.035754045           52 
 5011000   0.45396294   -4.2662641    2259.1636  0.037570072  0.035745065           87 
 5012000   0.44875169   -4.2597038    2259.0433  0.037560576  0.035736089           79 
Loop time of 12430.1 on 48 procs for 5000000 steps with 4000 atoms

Performance: 69508.714 tau/day, 402.250 timesteps/s
99.4% CPU use with 48 MPI tasks x no OpenMP threads

MPI task timing breakdown:
Section |  min time  |  avg time  |  max time  |%varavg| %total
---------------------------------------------------------------
Pair    | 843.03     | 894.04     | 965.1      | 113.2 |  7.19
Neigh   | 83.206     | 86.421     | 90.24      |  21.5 |  0.70
Comm    | 785.35     | 856.58     | 908.75     | 113.6 |  6.89
Output  | 13.834     | 13.838     | 13.916     |   0.3 |  0.11
Modify  | 10427      | 10460      | 10493      |  18.2 | 84.15
Other   |            | 118.9      |            |       |  0.96

Nlocal:        83.3333 ave          90 max          79 min
Histogram: 5 2 14 8 8 3 3 1 0 4
Nghost:        2230.71 ave        2251 max        2215 min
Histogram: 3 7 6 9 4 5 6 3 3 2
Neighs:        14924.9 ave       16820 max       13352 min
Histogram: 2 0 8 10 11 8 5 1 2 1
FullNghs:      29851.2 ave       32173 max       27879 min
Histogram: 3 2 6 10 10 8 2 3 0 4

Total # of neighbors = 1432856
Ave neighs/atom = 358.21400
Neighbor list builds = 270774
Dangerous builds = 0

#clear
#
#next RN
#
#jump SELF
Total wall time: 3:27:13
