
units lj                  # Use reduced LJ style units
atom_style atomic         # Uncharged point particles
atom_modify map hash      # Needed for indexing of clusters etc
                          # Used to be able to find where atoms are in relation to each other.

lattice fcc 1.0 spacing 1 1 1
Lattice spacing in x,y,z = 1.5874011 1.5874011 1.5874011
region box block 0 10 0 10 0 10 units lattice
create_box 2 box
Created orthogonal box = (0.0000000 0.0000000 0.0000000) to (15.874011 15.874011 15.874011)
  3 by 4 by 4 MPI processor grid
create_atoms 1 box
Created 4000 atoms
  using lattice units in orthogonal box = (0.0000000 0.0000000 0.0000000) to (15.874011 15.874011 15.874011)
  create_atoms CPU = 0.002 seconds
set type 1 type/fraction 2 0.18 78393
Setting atom values ...
  747 settings made for type/fraction
mass 1 1.0
mass 2 1.0
pair_style lj/cut  3.5
pair_modify tail  yes
pair_coeff 1  1  1.0  1.0   # Intearaction between 1 and 1 set with epsilon = 1 and sigma = 1
pair_coeff 1  2  1.5  0.8
pair_coeff 2  2  0.5  0.88

write_data data.0
System init for write_data ...
Neighbor list info ...
  update every 1 steps, delay 10 steps, check yes
  max neighbors/atom: 2000, page size: 100000
  master list distance cutoff = 3.8
  ghost atom cutoff = 3.8
  binsize = 1.9, bins = 9 9 9
  1 neighbor lists, perpetual/occasional/extra = 1 0 0
  (1) pair lj/cut, perpetual
      attributes: half, newton on
      pair build: half/bin/atomonly/newton
      stencil: half/bin/3d
      bin: standard
WARNING: Not all mixed pair coeffs generated from mixing. Use write_data with 'pair ij' option to store all pair coeffs. (../write_data.cpp:312)


#############################
#   M E L T   S Y S T E M   #
#############################

velocity all create 2.4 2750902 mom yes dist gaussian # Assign velocities
                                                    # Temperature 2.4, random number seed, zero linear momentum
                                                                                # Gaussian distribution

timestep 0.002   # simulation timestep
thermo 1000       # output thermodynamic data every 1000 steps bf 100

# Define a fix  in this case with index 1 applied to all
# particles in the simulation. This fix is for simulations
# in the anisotropic NPT ensemble. Note that we use the MTK
# correction.
fix 1 all npt temp 2.4 2.4 0.1 iso 5.68 5.68 0.5 mtk yes tchain 5 pchain 5 # Use NPT ensemble
                                                                         # Set temperature and pressure and damping
                                                                         # Numbers of thermostats in chain and in barostat
run 10000          # run for 10000 steps
Per MPI rank memory allocation (min/avg/max) = 3.642 | 3.644 | 3.648 Mbytes
Step Temp E_pair E_mol TotEng Press Volume 
       0          2.4   -7.1764538            0   -3.5773538   -3.5088476         4000 
    1000     2.356897   -4.7758849            0   -1.2414233    5.7942032    4545.9709 
    2000    2.3708853   -4.8337109            0    -1.278272    5.5922079    4525.7225 
    3000    2.4502969   -4.7876078            0   -1.1130812     5.821544    4534.5731 
    4000    2.3456265   -4.8080762            0    -1.290516    5.5531645    4543.4154 
    5000    2.4441989    -4.809423            0   -1.1440412    5.5607174    4551.3738 
    6000    2.3769005    -4.823707            0   -1.2592476    6.0521491     4490.694 
    7000    2.3818012   -4.8616409            0   -1.2898323    5.5073594    4536.4093 
    8000    2.3243486    -4.800866            0   -1.3152147    6.0076579    4500.1283 
    9000    2.3920788   -4.7831417            0   -1.1959204    5.5889956    4561.7532 
   10000    2.4330048   -4.7354132            0   -1.0868185    5.9846544    4545.8364 
Loop time of 2.22425 on 48 procs for 10000 steps with 4000 atoms

Performance: 776891.002 tau/day, 4495.897 timesteps/s
99.6% CPU use with 48 MPI tasks x no OpenMP threads

MPI task timing breakdown:
Section |  min time  |  avg time  |  max time  |%varavg| %total
---------------------------------------------------------------
Pair    | 0.95188    | 1.0178     | 1.0836     |   2.9 | 45.76
Neigh   | 0.19524    | 0.20224    | 0.21051    |   0.8 |  9.09
Comm    | 0.66649    | 0.76067    | 0.83878    |   3.7 | 34.20
Output  | 0.00023644 | 0.00024127 | 0.00030232 |   0.0 |  0.01
Modify  | 0.1931     | 0.229      | 0.26531    |   4.5 | 10.30
Other   |            | 0.01431    |            |       |  0.64

Nlocal:        83.3333 ave          93 max          76 min
Histogram: 1 9 7 5 6 11 3 4 0 2
Nghost:        1509.27 ave        1540 max        1470 min
Histogram: 1 1 5 4 11 3 7 7 6 3
Neighs:        8386.40 ave        9865 max        7489 min
Histogram: 4 7 7 8 8 7 4 2 0 1

Total # of neighbors = 402547
Ave neighs/atom = 100.63675
Neighbor list builds = 908
Dangerous builds = 209

# Equilibrate just above the melting temperature to avoid step fn in T

fix 1 all npt temp 1.25 1.25 0.1 iso 5.68 5.68 0.5 mtk yes tchain 5 pchain 5
run 2000
Per MPI rank memory allocation (min/avg/max) = 3.642 | 3.644 | 3.648 Mbytes
Step Temp E_pair E_mol TotEng Press Volume 
   10000    2.4330048   -4.7354132            0   -1.0868185    5.9846544    4545.8364 
   11000    1.2678295   -6.4750256            0   -4.5737567    5.7656756    3715.0327 
   12000     1.256235   -6.5071924            0   -4.6233111    5.4413803    3719.0606 
Loop time of 0.4918 on 48 procs for 2000 steps with 4000 atoms

Performance: 702725.001 tau/day, 4066.696 timesteps/s
99.7% CPU use with 48 MPI tasks x no OpenMP threads

MPI task timing breakdown:
Section |  min time  |  avg time  |  max time  |%varavg| %total
---------------------------------------------------------------
Pair    | 0.21888    | 0.23823    | 0.25835    |   2.0 | 48.44
Neigh   | 0.032048   | 0.034142   | 0.036479   |   0.5 |  6.94
Comm    | 0.14707    | 0.16614    | 0.1985     |   2.7 | 33.78
Output  | 4.7018e-05 | 4.9391e-05 | 6.1692e-05 |   0.0 |  0.01
Modify  | 0.037658   | 0.048897   | 0.062778   |   3.4 |  9.94
Other   |            | 0.004336   |            |       |  0.88

Nlocal:        83.3333 ave          90 max          76 min
Histogram: 3 5 6 3 2 11 4 3 3 8
Nghost:        1728.98 ave        1755 max        1703 min
Histogram: 3 2 2 5 10 14 4 3 3 2
Neighs:        10267.7 ave       11383 max        9147 min
Histogram: 2 3 9 4 7 6 6 2 4 5

Total # of neighbors = 492848
Ave neighs/atom = 123.21200
Neighbor list builds = 144
Dangerous builds = 7

#############################
# L I N E A R  Q U E N C H  #
#############################

# Define solid atoms. This closely follows ten Wolde  Ruiz-Montero and Frenkel  Faraday Discuss  1996  104  93-110
# Compute components of the per-atom q6 vector
compute q6 all orientorder/atom degrees 1 6 components 6 nnn NULL cutoff 1.3 # compute the Q6 parameter.
                                                                             # Use all neighbours within 1.3 unit cell.

# get number of connections
compute coord_number all coord/atom orientorder q6 0.5

# An atom is solid if it has 8 or more connections (of a possible 14)
variable is_solid atom c_coord_number>=8
group solid dynamic all var is_solid    # Must be dynamic to update
dynamic group solid defined

# do clustering
compute cluster solid cluster/atom 1.3 # Create a cluster where all atoms within are solid and max 1.3 units from another member

# define chunks one chunk per cluster
compute clus_chunks solid chunk/atom c_cluster nchunk every compress yes  # Says which atoms are in which chunk

# count the size of each chunk
compute size_chunks solid property/chunk clus_chunks count


# Find the maximum entry in the vector of chunk sizes
variable max_n equal max(c_size_chunks)


# Thermo style which includes this variable
# thermo_style custom step temp pe vol v_max_n

thermo ${N}  # Print the thermo information every 100 steps
thermo 1000  

# Reset the npt fix at a lower temperature (below freezing)
fix 1  all npt temp  ${temp} ${temp}  0.1  iso  5.68  5.68  0.5  mtk yes tchain  5  pchain  5
fix 1  all npt temp  0.45 ${temp}  0.1  iso  5.68  5.68  0.5  mtk yes tchain  5  pchain  5
fix 1  all npt temp  0.45 0.45  0.1  iso  5.68  5.68  0.5  mtk yes tchain  5  pchain  5

dump dmp2 all dcd ${N} traj.dcd
dump dmp2 all dcd 1000 traj.dcd


compute msd all msd com yes
variable twopoint equal c_msd[4]/6/(step*dt+1.0e-6)
fix 9 all vector 10 c_msd[4]
variable fit equal slope(f_9)/6/(10*dt)
thermo_style custom step temp pe c_msd[4] v_twopoint v_fit v_max_n

fix 1 all npt temp 1.25 ${temp} 0.1 iso 5.68 5.68 0.5 mtk yes tchain 5 pchain 5
fix 1 all npt temp 1.25 0.45 0.1 iso 5.68 5.68 0.5 mtk yes tchain 5 pchain 5
run 500000 # 5000000  # Run for this many steps
Neighbor list info ...
  update every 1 steps, delay 10 steps, check yes
  max neighbors/atom: 2000, page size: 100000
  master list distance cutoff = 3.8
  ghost atom cutoff = 3.8
  binsize = 1.9, bins = 9 9 9
  4 neighbor lists, perpetual/occasional/extra = 1 3 0
  (1) pair lj/cut, perpetual
      attributes: half, newton on
      pair build: half/bin/atomonly/newton
      stencil: half/bin/3d
      bin: standard
  (2) compute orientorder/atom, occasional
      attributes: full, newton on
      pair build: full/bin/atomonly
      stencil: full/bin/3d
      bin: standard
  (3) compute coord/atom, occasional
      attributes: full, newton on
      pair build: full/bin/atomonly
      stencil: full/bin/3d
      bin: standard
  (4) compute cluster/atom, occasional
      attributes: full, newton on
      pair build: full/bin/atomonly
      stencil: full/bin/3d
      bin: standard
Per MPI rank memory allocation (min/avg/max) = 9.770 | 9.775 | 9.781 Mbytes
Step Temp PotEng c_msd[4] v_twopoint v_fit v_max_n 
   12000     1.256235   -6.5071924 7.4251533e-31 5.1563562e-33 8.3333333e+20            4 
   13000    1.2356005   -6.4892521   0.54745182 0.0035093064  0.045154879            1 
   14000    1.2376252   -6.5295458    1.1176591 0.0066527324  0.045527953            3 
   15000    1.2437072   -6.5039343    1.6492172 0.0091623173  0.046214376            3 
   16000    1.2462937   -6.5099777    2.1461736  0.011177987  0.045187023            2 
   17000    1.2481345   -6.5118936    2.6605899  0.013042107  0.044495695            2 
   18000    1.2433511   -6.5038704    3.1471696  0.014570229  0.043531271            2 
   19000    1.2478332   -6.5316347    3.6135916  0.015849086  0.043043263            1 
   20000    1.2629592   -6.5523875    4.0366732  0.016819471  0.042445833            1 
   21000    1.2282408   -6.5188858    4.4280004   0.01757143  0.041398685            2 
   22000      1.22276   -6.5179162    4.9512937    0.0187549  0.040767077            3 
   23000    1.2414752   -6.5319874    5.4820098  0.019862354  0.040498848            2 
   24000    1.2386745   -6.5154301    5.9895804  0.020797154   0.04050963            1 
   25000    1.2252923   -6.5212048     6.435781  0.021452603  0.040512168            2 
   26000     1.237149   -6.5484601    6.8732288  0.022029579  0.040374962            2 
   27000    1.2229346   -6.5200066    7.3997141  0.022838623  0.040299501            2 
   28000    1.2361399   -6.5090993    7.8247554  0.023287962  0.040198925            2 
   29000    1.2311895    -6.535539    8.2827116  0.023800895    0.0400545            1 
   30000     1.201922   -6.5413061    8.7382412  0.024272892  0.039937614            2 
   31000    1.1944511   -6.5665999    9.1665824   0.02464135  0.039843257            2 
   32000    1.2185778   -6.5716251    9.6947999  0.025246874  0.039765285            2 
   33000    1.2124799    -6.522655     10.20053  0.025758913  0.039720305            2 
   34000    1.2051197   -6.5642448    10.672416  0.026157881  0.039705313            2 
   35000    1.2300814   -6.5762467    11.136812  0.026516218  0.039696954            2 
   36000    1.2272182   -6.5757294    11.387793  0.026360632   0.03960593            2 
   37000    1.2339981   -6.5280267    11.825612  0.026634261   0.03944559            2 
   38000    1.1916062   -6.5436006    12.292623  0.026957506  0.039285168            1 
   39000    1.1689916   -6.5362842    12.867293  0.027494216   0.03917842            1 
   40000    1.1825611   -6.6010334    13.226183  0.027554548  0.039085445            3 
   41000    1.2078692   -6.5871814    13.702182  0.027849964  0.038991359            2 
   42000    1.1879091   -6.6031302    14.216763  0.028207863  0.038929693            2 
   43000    1.2039581   -6.5424714    14.626473  0.028345877  0.038878629            1 
   44000    1.1999272   -6.5976068    15.091544  0.028582469  0.038842599            1 
   45000    1.1978552   -6.5964723    15.611098   0.02890944  0.038803547            4 
   46000    1.1808295   -6.5857989    16.011197  0.029005791  0.038778574            2 
   47000    1.2150697   -6.5898513    16.496677  0.029249428    0.0387427            6 
   48000    1.2100659    -6.602997    16.985497   0.02948871  0.038722834            4 
   49000    1.1935013   -6.6059559    17.436527  0.029653958  0.038706159            3 
   50000    1.2073077   -6.6406316    17.910747  0.029851245  0.038689639            3 
   51000    1.1814595   -6.6067397    18.437104  0.030125987  0.038696762            2 
   52000    1.1895695   -6.6080855    18.679408  0.029934949  0.038664663            1 
   53000    1.1781344   -6.6307843    18.999098  0.029872796  0.038591122            2 
   54000    1.1555618   -6.5621667    19.460409  0.030031496  0.038510751            1 
   55000    1.1652661   -6.6129829    19.922475  0.030185568  0.038423351            1 
   56000    1.1727772   -6.6141934    20.354472  0.030289393  0.038341363            3 
   57000    1.1645097   -6.6034205    20.658821  0.030202955  0.038243299            2 
   58000    1.1824566   -6.6231533     20.98338  0.030148534  0.038140839            1 
   59000    1.1802592   -6.6327866    21.408074  0.030237392  0.038027526            1 
   60000    1.1604097   -6.6527418    21.988025  0.030538924   0.03794529            2 
   61000     1.173608   -6.6483298    22.401785  0.030603531  0.037877815            1 
   62000    1.1960393     -6.62587    22.922482  0.030809788  0.037822486            4 
   63000    1.1609336    -6.637985    23.369592  0.030912159  0.037773265            2 
   64000    1.1822149   -6.6370966    23.973781   0.03121586   0.03774578            2 
   65000    1.1794386   -6.6513558    24.431774  0.031322788  0.037732166            2 
   66000    1.1360397   -6.6768124    24.826917  0.031347117  0.037715259            1 
   67000    1.1612478   -6.6653185    25.181469  0.031320235  0.037692811            4 
   68000    1.1588312   -6.6426866    25.577952   0.03134553  0.037662041            2 
   69000    1.1401304   -6.6693341    25.986813   0.03138504  0.037631559            2 
   70000    1.1760828   -6.6896972    26.465684  0.031506766  0.037597173            2 
   71000    1.1909566   -6.6831852    26.966898  0.031651288  0.037574172            2 
   72000    1.1615415    -6.668689     27.34224  0.031646111  0.037541271            3 
   73000    1.1584316   -6.6223372    27.785975   0.03171915  0.037509901            4 
   74000    1.1487025   -6.6828237    28.304466  0.031874399  0.037481431            3 
   75000    1.1284565   -6.6586609    28.662923  0.031847692  0.037460551            3 
   76000    1.1637664   -6.6638505    28.835602  0.031617985  0.037420831            2 
   77000    1.1640066     -6.69375     29.27181  0.031679448  0.037368316            2 
   78000     1.142446   -6.7018341    29.832583  0.031872418  0.037328064            2 
   79000    1.1392405   -6.7192043    30.312873  0.031975604  0.037295008            1 
   80000    1.1533211   -6.7118636    30.635709  0.031912197  0.037260696            2 
   81000    1.1759773   -6.6901448    31.098916  0.031994769  0.037220677            3 
   82000    1.1501713   -6.6996082    31.305892  0.031814931  0.037164991            2 
   83000    1.1291178   -6.6943032    31.411427  0.031537577  0.037093312            2 
   84000    1.1492332   -6.7212137    31.921852  0.031668504  0.037023183            3 
   85000    1.1415708   -6.7049346    32.209755  0.031578191  0.036948542            2 
   86000    1.1187287   -6.7560408    32.408922  0.031403994   0.03686316            3 
   87000    1.1320525   -6.6965483    32.845685  0.031461384  0.036774633            2 
   88000    1.1210227   -6.7097574    33.124422  0.031367824   0.03668405            2 
   89000    1.1445408    -6.715221    33.453869  0.031323847   0.03659398            5 
   90000    1.1411482   -6.7031585    33.925844  0.031412818  0.036504689            2 
   91000    1.1292724   -6.7438254    34.197781  0.031316649  0.036414377            3 
   92000    1.1370122   -6.7022432    34.616176  0.031355232  0.036320543            1 
   93000    1.1282882   -6.7518917    34.681725  0.031076815  0.036217799            4 
   94000    1.1322903   -6.7221546    35.278929  0.031275646  0.036119026            3 
   95000    1.0999974   -6.7390973    35.706295  0.031321311  0.036032748            4 
   96000    1.1142811   -6.7606975    35.961879  0.031216909  0.035950634            3 
   97000    1.1036543   -6.7526685    36.305925  0.031190657  0.035861616            7 
   98000    1.1038446   -6.6995733    36.596622  0.031119577  0.035765576            5 
   99000    1.1124896   -6.7608804    36.963267  0.031113861  0.035674226            4 
  100000    1.0975291   -6.7416802    37.536964  0.031280803  0.035591419            2 
  101000    1.0955955   -6.7666326    37.830625  0.031213387  0.035510765            1 
  102000    1.0804907   -6.7650241    38.142802   0.03116242  0.035426236            3 
  103000    1.0944637   -6.7618569    38.486169  0.031137677  0.035344716            2 
  104000    1.1290658   -6.7420251    38.971447  0.031227121  0.035269025            2 
  105000     1.090077   -6.8024332      39.3109  0.031199127    0.0351954            1 
  106000    1.0978845   -6.7876686    39.565967   0.03110532  0.035123416            3 
  107000    1.1076197   -6.8099484    40.165199  0.031281307  0.035056415            3 
  108000    1.0884972   -6.7971291    40.337014  0.031124239  0.034987587            2 
  109000    1.0836109   -6.8046922    40.738745  0.031145829  0.034921396            2 
  110000    1.0906665   -6.7899423    41.067372  0.031111646  0.034851982            2 
  111000    1.0938757   -6.8093215     41.27913  0.030990338  0.034778238            4 
  112000    1.0808009   -6.8525723    41.580532  0.030937896  0.034704515            3 
  113000    1.0769019   -6.7914642    41.829701  0.030847862  0.034626203            2 
  114000     1.084353   -6.8033072    42.003396  0.030704237  0.034542408            1 
  115000    1.0573559   -6.8080914    42.376654   0.03070772  0.034458212            2 
  116000    1.0605738    -6.829213    42.782711  0.030734706  0.034377876            2 
  117000    1.0772277   -6.8386264    42.856235  0.030524384  0.034295829            2 
  118000    1.0793345   -6.8164751    43.103544  0.030440356  0.034210105            3 
  119000     1.064482   -6.8277571    43.232486   0.03027485  0.034115609            3 
  120000    1.0599289   -6.8095994    43.599034  0.030277107  0.034019441            2 
  121000    1.0789827   -6.8820645    43.753666  0.030133379  0.033920774            2 
  122000    1.0593587    -6.801581    44.069895  0.030102387  0.033820456            2 
  123000    1.0796463   -6.8237848    44.254495   0.02998272  0.033717294            2 
  124000    1.0901253   -6.8435488    44.351458  0.029806087  0.033611924            3 
  125000    1.0825701   -6.8390642    44.770892  0.029847261   0.03350496            5 
  126000     1.057809   -6.8706122    45.043584   0.02979073  0.033397746            5 
  127000    1.0538838   -6.8539551    45.356505  0.029761486  0.033293968            2 
  128000     1.040014   -6.8147277    45.639182  0.029713009  0.033196869            2 
  129000    1.0426746    -6.864469    45.858129  0.029624114  0.033098497            2 
  130000    1.0503918   -6.9040427    46.184142  0.029605219  0.033003845            4 
  131000    1.0789664    -6.841392    46.556375  0.029616014  0.032909341            2 
  132000    1.0705071   -6.8584438    46.689943  0.029475974  0.032815578            3 
  133000    1.0408265    -6.851181    47.066676  0.029490399  0.032716892            1 
  134000    1.0440859   -6.8803799    47.235894  0.029375556  0.032618427            2 
  135000     1.059278   -6.8692469    47.489422  0.029314458   0.03251991            2 
  136000    1.0462036    -6.862447    47.791925  0.029284268  0.032424478            2 
  137000     1.043285   -6.8093131    48.062102  0.029234855  0.032328957            2 
  138000    1.0319335   -6.9059578     48.17174  0.029089215  0.032234599            3 
  139000    1.0661558   -6.8967889    48.703253  0.029198593  0.032141039            3 
  140000    1.0451438   -6.8954721    48.813185  0.029055467  0.032051339            1 
  141000    1.0408457   -6.9110317    49.260975  0.029114051  0.031962093            1 
  142000    1.0564961   -6.9023984    49.655617   0.02914062  0.031878901            2 
  143000    1.0430537   -6.8877051    50.023178  0.029151036  0.031797729            4 
  144000    1.0405303    -6.865638    50.500771  0.029224983  0.031720615            4 
  145000    1.0151916   -6.9068372    50.721795  0.029150457  0.031643007            3 
  146000    1.0329464   -6.9195881     51.03322   0.02912855  0.031568049            3 
  147000    1.0373947    -6.942766    51.304961  0.029084445  0.031492519            2 
  148000    1.0216548   -6.9406157     51.54538    0.0290233  0.031417217            2 
  149000    1.0447885   -6.8985829    52.055569  0.029113853  0.031344375            2 
  150000    1.0110422    -6.881659     52.23782  0.029021011   0.03127242            6 
  151000    0.9934155   -6.9235591    52.610438  0.029034458  0.031202559            2 
  152000    1.0393369   -6.9349389     52.63671  0.028857845   0.03113397            4 
  153000    1.0173378   -6.9750039    53.038235  0.028887927  0.031065964            2 
  154000    1.0127142   -6.8889919     53.41396  0.028903658   0.03099965            2 
  155000    1.0206421   -6.9630453    53.725114   0.02888447  0.030934619            5 
  156000    1.0132281   -6.9446675    53.806339  0.028742703   0.03086875            2 
  157000     1.016288   -6.8906787    54.106551  0.028718976  0.030802429            3 
  158000    1.0442222   -6.9308155     54.41858  0.028701783  0.030736593            3 
  159000     1.018389   -6.9656382    54.653327  0.028644302  0.030671966            2 
  160000    1.0213811   -6.9221571    54.802095  0.028542758  0.030603277            2 
  161000   0.99850303   -6.9511717     55.15567  0.028548483  0.030534027            2 
  162000    0.9964896   -6.9340249    55.507638  0.028553311   0.03046749            2 
  163000    1.0200513   -6.9467574    55.748932  0.028501499  0.030399816            2 
  164000     1.003947   -6.9545937    55.869004  0.028388721  0.030332724            2 
  165000    1.0149987   -6.9398922    56.108825   0.02833779  0.030266564            4 
  166000   0.99336804     -6.97104    56.355388  0.028290858  0.030199119            3 
  167000   0.98638802   -6.9978364    56.754307  0.028320513  0.030134994            3 
  168000    0.9967939    -6.969867    57.187246   0.02836669  0.030073821            2 
  169000    1.0073066   -7.0186102    57.388924  0.028298286  0.030012873            2 
  170000   0.99054609     -6.98622    57.636073  0.028252977  0.029952225            3 
  171000    1.0010151   -6.9633018    58.086649  0.028307334   0.02989274            2 
  172000   0.99583233   -6.9805101    58.381529  0.028285625   0.02983485            3 
  173000   0.99350608   -6.9594393    58.396672  0.028129418  0.029777147            2 
  174000   0.99802663   -6.9631027    58.688752   0.02810764  0.029717672            3 
  175000   0.98853911   -7.0004733    58.881329  0.028038728  0.029657584            8 
  176000   0.99322451   -7.0175859    58.916687  0.027896158  0.029597097            2 
  177000   0.99456693   -6.9908729    59.106508  0.027827923  0.029535032            3 
  178000   0.98301344   -6.9848079    59.487507  0.027849956  0.029471753            4 
  179000    1.0235816   -6.9738872    59.748001  0.027815643  0.029408758            5 
  180000    1.0031877   -7.0242862    60.133716  0.027839683  0.029348633            2 
  181000   0.98868544   -7.0235391    60.474756   0.02784289  0.029290786            1 
  182000    0.9887546   -7.0251521    60.512805  0.027707328  0.029231576            5 
  183000   0.96295101   -7.0186214    60.604118  0.027597504  0.029171721            3 
  184000   0.97531437    -6.995387    60.969856  0.027613159  0.029112848            2 
  185000   0.97426535   -6.9946125    61.319025  0.027621182  0.029054109            3 
  186000   0.98023499   -7.0805119    61.217397  0.027427149  0.028994162            2 
  187000   0.97594843    -7.061603    61.331813  0.027331468  0.028932241            4 
  188000   0.95522251   -7.0502766     61.67396  0.027337748  0.028868817            5 
  189000   0.97022019   -7.0476429    61.953896  0.027316533  0.028807395            4 
  190000   0.97387793   -7.0710751    62.426008  0.027379828  0.028747439            3 
  191000   0.94681044   -7.0920002    62.561415  0.027295556  0.028687373            3 
  192000   0.95369289   -7.0395905    62.834194  0.027271786  0.028625655            6 
  193000   0.97601285   -7.0674929    62.726091  0.027083804  0.028564887            3 
  194000    0.9719292   -7.0619254    62.940071  0.027036113  0.028503069            5 
  195000   0.98166828   -7.1037509    62.872245  0.026868481  0.028438941            2 
  196000   0.94856992   -7.0730959    63.296081  0.026911599  0.028375139            3 
  197000    0.9541573    -7.053218    63.486485  0.026855535  0.028311843            1 
  198000   0.96244239    -7.068003    63.752039  0.026831666  0.028248394            2 
  199000    0.9428162   -7.0794957    63.791069  0.026713178  0.028184058            3 
  200000   0.92562083   -7.0631557    64.124414  0.026718506  0.028119073            3 
  201000   0.92073061   -7.1128451    64.196855  0.026615611  0.028054458            4 
  202000   0.93240016   -7.0943267    64.294068  0.026523955  0.027989135            3 
  203000   0.96802873   -7.0897622    64.425094  0.026447083  0.027924094            3 
  204000    0.9358006   -7.1076691    64.680911  0.026421941  0.027857855            3 
  205000   0.95797258   -7.1272719    64.870169  0.026369987  0.027792307            1 
  206000    0.9464798   -7.1043622    65.281342   0.02640831  0.027728408            2 
  207000    0.9451512   -7.1077634    65.222146  0.026256902  0.027663807            4 
  208000   0.92243506   -7.0940576    65.314679   0.02616774  0.027598223            4 
  209000   0.91963739   -7.0980755     65.73251  0.026209135  0.027532859            3 
  210000   0.93818354   -7.1193353    65.835502  0.026125199  0.027468639            2 
  211000   0.94576306   -7.1002361    65.926522  0.026037331  0.027403018            2 
  212000   0.91312408   -7.0856804    66.289165  0.026057062  0.027337001            1 
  213000   0.92317615    -7.131621    66.277291  0.025930083  0.027271673            2 
  214000   0.90951758   -7.1063682    66.537723  0.025910328  0.027205487            3 
  215000   0.90962041   -7.1019359    66.518307  0.025782289  0.027138881            2 
  216000   0.92175794   -7.1315569    66.606651   0.02569701  0.027071778            3 
  217000   0.92028498   -7.1410421    66.852955  0.025673178  0.027005297            6 
  218000    0.9300437   -7.1346646    67.131477   0.02566188   0.02693993            2 
  219000   0.91510775   -7.1451833    67.264855  0.025595455  0.026874575            4 
  220000   0.92912221    -7.149234    67.442985  0.025546585  0.026809059            4 
  221000   0.91433974   -7.1628182    67.320372  0.025384756  0.026741991            2 
  222000   0.92025234   -7.1395351     67.83017  0.025461775  0.026676004            3 
  223000   0.89139606   -7.1615205    67.809642  0.025339926  0.026610536            3 
  224000   0.90391537   -7.1784824    67.923242  0.025269063  0.026544468            2 
  225000   0.90308704   -7.1470219    68.157363  0.025243468  0.026477959            4 
  226000   0.90526405   -7.1926675    68.037563  0.025087597  0.026410134            3 
  227000   0.88917409   -7.1510457    68.280687  0.025066331   0.02634159            4 
  228000   0.89259921   -7.1689711    68.354477  0.024983361  0.026272768            4 
  229000   0.91874993   -7.1793819    68.265844   0.02484201  0.026203096            4 
  230000   0.91373481   -7.2229544    68.374338  0.024773311  0.026131838            2 
  231000   0.91847504   -7.2104578    68.434388   0.02468773  0.026060692            7 
  232000   0.91043154   -7.2064389    68.556566  0.024625203  0.025988649            2 
  233000   0.89987008   -7.1935496    68.609707  0.024538522  0.025916863            4 
  234000   0.90431082   -7.1685748    68.945263  0.024553156  0.025845012            7 
  235000   0.89503778   -7.2097967     68.86682  0.024420858   0.02577242            2 
  236000   0.87299996   -7.2353729    68.857154  0.024313967  0.025699743            4 
  237000   0.85833859   -7.1975798    68.922806  0.024234461  0.025626237            5 
  238000   0.90390237   -7.2074752    69.130571  0.024205382  0.025553117            6 
  239000    0.8866996   -7.1923463    69.255391  0.024147626  0.025481154            4 
  240000   0.88450677   -7.2190505    69.500405  0.024132085  0.025410065            3 
  241000   0.89107227   -7.2255641    69.667014  0.024089562  0.025338736            6 
  242000   0.88732516   -7.2311664    69.805123  0.024037577  0.025267348            3 
  243000   0.87150564    -7.235953     70.20467  0.024075675  0.025197493            2 
  244000   0.87659461   -7.2284502    70.216571  0.023981069  0.025128333            5 
  245000   0.87319651   -7.2561574    70.299572  0.023911419  0.025059585            3 
  246000     0.869444   -7.2398806     70.58685  0.023911535  0.024991048            3 
  247000   0.88482482   -7.2844341    70.512018   0.02378948  0.024922776            6 
  248000    0.8646648   -7.2558457    70.574647  0.023714599  0.024855002            7 
  249000   0.88391872   -7.2315157    71.097296  0.023794276  0.024787196            5 
  250000   0.87801882   -7.2540191    70.620445  0.023540148  0.024718575            3 
  251000   0.85082108   -7.2946493     71.06097   0.02359262   0.02464935            6 
  252000     0.864361   -7.2663127    70.939204  0.023458732  0.024580279            3 
  253000   0.85994792   -7.3078272    71.066666  0.023407993  0.024510974            5 
  254000   0.86314393   -7.2726619    71.139336  0.023339677  0.024443025            5 
  255000   0.88396891   -7.2874517    71.517217  0.023371639  0.024375501            6 
  256000   0.85412295   -7.2662055    71.685627  0.023335165  0.024308877            3 
  257000   0.86639497   -7.2811221    71.798288  0.023280898  0.024242416            3 
  258000   0.86159809   -7.2904662    71.875137  0.023215483  0.024175937            3 
  259000   0.86523526   -7.2623966    72.114834  0.023202971  0.024110143            3 
  260000   0.85347212   -7.2690048    72.281004  0.023166988  0.024044934            3 
  261000   0.88136244   -7.3035911    72.243921  0.023066386  0.023979634            2 
  262000    0.8351518   -7.2726975     72.61075  0.023095022  0.023914595            3 
  263000   0.85980568   -7.3085101    72.540643  0.022984995  0.023850342            5 
  264000    0.8538291   -7.3116392     72.79167  0.022977168  0.023785746            7 
  265000   0.83811862   -7.2787237    72.977564  0.022948919  0.023721354            7 
  266000   0.83025475   -7.3030094    72.801325  0.022807433  0.023656706            3 
  267000   0.82950723    -7.326261    72.961087  0.022771875  0.023592095            4 
  268000   0.84686734   -7.3073962     73.09065  0.022727192  0.023527945            4 
  269000   0.83731525   -7.3357629    73.146822  0.022660106  0.023463344            6 
  270000   0.82663614   -7.3408441    73.150006  0.022577162   0.02339799            5 
  271000   0.84685845   -7.3201246    73.103864  0.022479663    0.0233332            7 
  272000   0.82809043   -7.3581472    73.241238  0.022439105   0.02326819            3 
  273000   0.84413898   -7.3779557    73.365418  0.022394816  0.023203376            9 
  274000   0.82836803   -7.3308153     73.77578  0.022437889  0.023138967            5 
  275000   0.82162504   -7.3467126    73.830149  0.022372772  0.023076222            4 
  276000   0.84315737   -7.3684602    73.726126  0.022260304  0.023013284            3 
  277000   0.82353392   -7.3119595    74.143691  0.022305563   0.02295049            6 
  278000   0.84564367   -7.2993742    74.168629  0.022232803  0.022888218            2 
  279000   0.82057076   -7.3456986    74.217124    0.0221676  0.022825966            3 
  280000   0.81949862   -7.3640966    74.346625  0.022126972  0.022763197            4 
  281000   0.80396477   -7.3577622    74.233542  0.022014692  0.022699963            6 
  282000   0.82420846   -7.3891693      74.5284  0.022023759  0.022637134            6 
  283000    0.8162024   -7.3675053    74.472554  0.021929492  0.022575198            6 
  284000   0.80491866   -7.3685029    74.536245  0.021870964  0.022512737            6 
  285000   0.80906111   -7.3557628    74.705408  0.021843687  0.022451474            9 
  286000   0.83810449   -7.3353777     74.82868  0.021803229  0.022390073            6 
  287000   0.81708756   -7.3774963    74.864834  0.021737757  0.022328139            3 
  288000   0.81691863   -7.3692503    74.839132  0.021654841  0.022265866            4 
  289000   0.80265625   -7.4025546    74.798831   0.02156829  0.022203603            4 
  290000   0.80953066   -7.3996931    75.132051   0.02158967  0.022141449            8 
  291000   0.80340438   -7.3680345    75.108495  0.021508733  0.022079506            7 
  292000   0.79988391   -7.4084526    74.990478  0.021401392  0.022017179            2 
  293000   0.80560063   -7.4136836    75.109664  0.021362248  0.021954589            4 
  294000   0.79807088   -7.4065403    75.001394  0.021258899  0.021891651            4 
  295000   0.78883287   -7.4126982    75.068091  0.021205675  0.021829031            5 
  296000   0.79895804   -7.4304041    75.236532  0.021181456  0.021766338            9 
  297000   0.78216496    -7.457228    75.183451  0.021095244  0.021703914            5 
  298000   0.80071786   -7.4036723    75.354059  0.021072164  0.021641571            4 
  299000   0.78465966   -7.3986082    75.496103  0.021041277  0.021579925            5 
  300000   0.79252742   -7.4243001    75.592775  0.020997993  0.021518451            6 
  301000   0.78832522   -7.4063741    75.669043  0.020949347  0.021456967            3 
  302000   0.78594519   -7.4417383     75.92848  0.020951567  0.021395632            4 
  303000   0.79860681   -7.4500228    75.776928  0.020840739  0.021334419            5 
  304000   0.78155087   -7.4480851    75.833822   0.02078778  0.021273751            4 
  305000   0.78628976   -7.4560484    75.909647  0.020740341  0.021213233            4 
  306000   0.80781719   -7.4318049    75.982242  0.020692332  0.021152669            8 
  307000   0.78439128   -7.3914535    76.323115  0.020717458  0.021092806            4 
  308000   0.77798637   -7.4592687    76.317496  0.020648673  0.021033232            4 
  309000   0.77692141   -7.4744266    76.182175  0.020545355  0.020973604            4 
  310000   0.77485337   -7.4583778    76.304666  0.020512007  0.020914122           10 
  311000    0.7735405   -7.4709081    76.305209  0.020446197  0.020854541            3 
  312000   0.78559537   -7.5156872    76.269834  0.020371216  0.020794664            3 
  313000    0.7511357   -7.4888455    76.516252  0.020371739  0.020734836            4 
  314000   0.76757765   -7.4956156     76.34634  0.020261768  0.020674709            5 
  315000   0.74578309   -7.4967795    76.486247  0.020234457  0.020614705            2 
  316000     0.762862   -7.5078482    76.340399  0.020131962  0.020555101            7 
  317000   0.76694332   -7.5158341    76.460116  0.020099925  0.020495735            4 
  318000    0.7766545    -7.504253    76.643111  0.020084673  0.020436764            7 
  319000   0.74255188   -7.5262072    76.722913  0.020042558  0.020377819            4 
  320000    0.7487351   -7.5032384    76.738699  0.019984036   0.02031878            5 
  321000    0.7558415   -7.5217936    76.727131  0.019918778  0.020259953            5 
  322000   0.73999704   -7.4967473    76.844248  0.019887228  0.020201391            5 
  323000   0.73249768   -7.4990633    77.061559  0.019881723   0.02014295            2 
  324000   0.74328707   -7.5378693    76.889183  0.019776024  0.020084348            5 
  325000   0.75859473   -7.5107536    77.118799  0.019774051  0.020025944            3 
  326000   0.75006204   -7.5231268    77.053974  0.019696824  0.019967699            5 
  327000   0.74871867   -7.5240541    77.076845  0.019642417  0.019909692            4 
  328000   0.74369769   -7.4980707    77.231119  0.019621727    0.0198519            6 
  329000   0.74195835   -7.5364604    77.150719  0.019541722  0.019794086            4 
  330000    0.7485538   -7.5419282    77.084369   0.01946575  0.019736434            6 
  331000   0.72586228   -7.5230771      77.2971  0.019460498  0.019678707            5 
  332000   0.73584101   -7.5148277     77.36936   0.01942002  0.019621213            5 
  333000   0.74140106   -7.5448296    77.361102  0.019359635   0.01956349            5 
  334000   0.73440372   -7.5302799    77.182582  0.019257131  0.019506134            2 
  335000   0.72925704   -7.5424873    77.430367  0.019261285  0.019449002            3 
  336000   0.73306701   -7.5476622    77.515174  0.019224993   0.01939197            6 
  337000   0.72469728   -7.5440515    77.627755  0.019195785  0.019335298            5 
  338000   0.71274522   -7.5391936    77.706885  0.019158502  0.019279129            4 
  339000   0.73494209    -7.591726    77.861644  0.019140031  0.019223279            7 
  340000   0.73167306   -7.5410202    77.923207  0.019098825  0.019167799            5 
  341000   0.72016531   -7.5819651    77.727732  0.018995047  0.019112025            4 
  342000   0.72558149   -7.5716944    77.774391  0.018950875  0.019055939           14 
  343000   0.71798325   -7.5487278    77.643758  0.018863887  0.018999964           12 
  344000   0.72511252    -7.589224    77.686193   0.01881933  0.018943879            5 
  345000    0.7141954   -7.5919791    77.839133  0.018801723  0.018887934           10 
  346000   0.72011436   -7.6165759    77.677138  0.018708367  0.018831886            9 
  347000   0.71091225   -7.5980598    77.813613  0.018687227  0.018776097            5 
  348000   0.71554013   -7.6009137    77.815026  0.018633866  0.018720489            5 
  349000    0.7035332   -7.6066993    77.796741  0.018576108  0.018664838            5 
  350000   0.71293442   -7.6006086    78.055926  0.018584744  0.018609564            2 
  351000   0.71040238   -7.6163866    77.799449  0.018470904  0.018554515            2 
  352000   0.69607797   -7.6060495    77.907248  0.018443951  0.018499576            6 
  353000   0.70455461   -7.5993897    77.906642  0.018391558  0.018444497            6 
  354000    0.7025046    -7.666557     77.86195  0.018329084  0.018389273           10 
  355000   0.69763818    -7.643303    77.941551  0.018296139  0.018334184            5 
  356000   0.70880378   -7.6456536    77.935196  0.018243257  0.018279266            5 
  357000   0.69386787   -7.6300836    77.827899   0.01816711  0.018224065            7 
  358000   0.70239745   -7.6384786    77.866729  0.018125402  0.018168869           17 
  359000   0.70344745   -7.6659311    77.799193  0.018059237  0.018113733            8 
  360000   0.67863514   -7.6465192    77.909068  0.018034506  0.018058889           13 
  361000   0.68691606   -7.6531851    78.025437  0.018011412  0.018004255            3 
  362000   0.68121693   -7.6601644    78.008171  0.017957682  0.017949343           10 
  363000   0.69190808   -7.6459859    78.050631  0.017917959  0.017894513            5 
  364000   0.68888688   -7.6749815    78.049555  0.017868488  0.017839825            3 
  365000   0.70198928   -7.6826733     77.83397  0.017770313  0.017785167            5 
  366000   0.68380853    -7.690041    77.732611  0.017698682  0.017730664           10 
  367000   0.69969064   -7.6758798    77.871909  0.017682087  0.017676132            3 
  368000   0.68120391   -7.6894464    77.897304  0.017639788  0.017621721            5 
  369000   0.68989139   -7.6536735    77.972768  0.017609026  0.017567536            4 
  370000   0.67473999   -7.6965279     77.89575  0.017544088  0.017513533            4 
  371000   0.67984683   -7.6757317    77.926957  0.017503809  0.017459768            3 
  372000     0.673724   -7.6725694    77.991202  0.017471147  0.017405868            8 
  373000   0.67812492   -7.6736173     78.09173  0.017446767  0.017352118            6 
  374000   0.67678361   -7.7147496    77.896654  0.017356652  0.017298694           12 
  375000   0.67250644   -7.6946945    78.041058  0.017342457  0.017245589            7 
  376000   0.67895959   -7.7239455    78.080615  0.017305101  0.017192648            4 
  377000   0.66776148   -7.6976665    77.985223  0.017238113   0.01713952            7 
  378000   0.66713644   -7.7092644    78.179641   0.01723537  0.017086771            6 
  379000   0.64890105   -7.7133702    78.053459   0.01716215    0.0170342            5 
  380000   0.66937203   -7.7121862    78.173223  0.017143251  0.016981685            4 
  381000   0.66243362   -7.7155149    78.119154  0.017086429  0.016929355            4 
  382000   0.65993623   -7.7427016    78.174243  0.017053718  0.016877062            6 
  383000   0.65832986    -7.723954    78.099781   0.01699299  0.016825117            6 
  384000   0.66104493   -7.7472259    78.119939  0.016953112  0.016773326           11 
  385000   0.65478066   -7.7324889    78.107499  0.016906385  0.016721488            3 
  386000   0.65598674   -7.7468437    78.181456  0.016878553  0.016669832            7 
  387000    0.6610966    -7.731846    78.134221  0.016824768  0.016618377            9 
  388000   0.65889694   -7.7355443    78.232465  0.016802505  0.016566949           10 
  389000   0.65053105   -7.7348593    78.137803  0.016739032   0.01651559            6 
  390000   0.62899454   -7.7301483    78.150457  0.016698816  0.016464496            7 
  391000   0.65433657   -7.7423171    77.983703  0.016620568  0.016413449            6 
  392000   0.65218029    -7.744126    78.026194  0.016587201  0.016362315           15 
  393000     0.639157   -7.7545029    78.146849  0.016570579   0.01631118            7 
  394000   0.64136964   -7.7717593    78.177493  0.016535003  0.016260239            7 
  395000   0.64706639   -7.7674841    78.067548  0.016469947  0.016209257            8 
  396000   0.63050695   -7.7882986    78.130384  0.016441579  0.016158424           11 
  397000   0.64908823    -7.765146    78.256133   0.01642656  0.016107726            6 
  398000   0.63249878   -7.7734444     78.12337  0.016357489  0.016057179            9 
  399000   0.63017069   -7.7965776    78.062107  0.016303698  0.016006709            8 
  400000   0.62500002   -7.7830084    78.172426  0.016285922  0.015956663            7 
  401000   0.63447537   -7.8119118     78.03939  0.016217662  0.015906831            5 
  402000   0.62765664   -7.7983331    78.183662  0.016207227  0.015856982           15 
  403000   0.62490914    -7.820071    78.167338  0.016163635  0.015807368            5 
  404000     0.628407   -7.8212731    78.115474  0.016112928  0.015757924           18 
  405000   0.63224704   -7.8067541    78.201308  0.016090804  0.015708623            6 
  406000   0.61249749   -7.8212814    78.083233  0.016026936  0.015659441           13 
  407000   0.62918491   -7.8090391    78.007191  0.015971988  0.015610409           16 
  408000   0.60877464   -7.8234403    78.046943  0.015940961  0.015561558            5 
  409000   0.60686754   -7.8230722    78.154726  0.015923946  0.015512964            5 
  410000   0.60984112    -7.805705    78.114617  0.015876955  0.015464456           12 
  411000   0.61716288   -7.8135498    78.139319  0.015843333  0.015416146            6 
  412000    0.6141611   -7.8275126     78.16293  0.015809654  0.015367984            9 
  413000   0.59532932    -7.828882    78.071593  0.015752944   0.01531989            7 
  414000   0.61367527   -7.8441188    78.067137  0.015713997  0.015271801            7 
  415000    0.6014169   -7.8384778    78.066122  0.015675928  0.015223859            6 
  416000   0.59969283   -7.8423741    78.081944  0.015641415  0.015176013            5 
  417000   0.60699182   -7.8583534    77.833417   0.01555424  0.015128291           13 
  418000   0.59272532   -7.8488024    78.072587   0.01556471  0.015080725            7 
  419000   0.59423621   -7.8638013    77.961205  0.015505411    0.0150334            5 
  420000   0.60661613   -7.8458905    78.218511  0.015519546  0.014986272            7 
  421000   0.59306533   -7.8745616    78.069592  0.015453205  0.014939237           10 
  422000   0.59682621   -7.8864204    77.855793  0.015374367  0.014892104           18 
  423000   0.58690132   -7.8501411    77.998194  0.015366074  0.014845313            6 
  424000   0.61466635   -7.8640037    77.962421  0.015322803   0.01479862           15 
  425000   0.58983016   -7.8977191     78.00762  0.015295612  0.014751992           13 
  426000   0.58832038   -7.8706186    77.990545  0.015256366  0.014705482           11 
  427000   0.58641443   -7.8823253    78.066081  0.015235379  0.014659036            5 
  428000   0.58067069   -7.8900528    78.022783  0.015191352  0.014612725           10 
  429000   0.58585963   -7.8851655    78.004536  0.015152396  0.014566622           11 
  430000   0.59325023   -7.8977135    78.100771  0.015135808  0.014520682            8 
  431000    0.5754743   -7.8973217    77.965499  0.015074536  0.014474875            9 
  432000   0.58806444   -7.9033067    77.891561  0.015025378  0.014429246            8 
  433000   0.58381831    -7.913807    78.009046  0.015013288  0.014383691           12 
  434000   0.55937954   -7.8926139    77.835656  0.014945402  0.014338217            9 
  435000   0.55768788   -7.9141194    78.012327   0.01494489  0.014292961           10 
  436000   0.57004351   -7.9150448    77.924063  0.014893743  0.014247916           15 
  437000   0.57693041   -7.9121249    77.865979  0.014848585  0.014202958           10 
  438000   0.56956919   -7.9505805    77.919795  0.014824923  0.014158056           10 
  439000    0.5768673   -7.9161781    78.057148  0.014817226  0.014113283            9 
  440000   0.56519525   -7.9248296    78.011421   0.01477489  0.014068664           15 
  441000   0.57062386   -7.9532501     77.94879  0.014729552  0.014024161           10 
  442000   0.55069827   -7.9265841    77.977241  0.014701591  0.013979748           11 
  443000   0.55206672   -7.9717571    77.935413  0.014660537  0.013935428            7 
  444000   0.55476432   -7.9253522    77.815921   0.01460509  0.013891315            7 
  445000   0.56031902   -7.9365624    77.746248  0.014559222  0.013847357            9 
  446000   0.54978715   -7.9483053    77.903849  0.014556026  0.013803624            8 
  447000   0.54718981    -7.946467    77.900522  0.014522842  0.013760057            5 
  448000   0.54777976   -7.9623097    77.782129  0.014468402    0.0137166           10 
  449000   0.55810542   -7.9463798    77.845527  0.014447945  0.013673272            8 
  450000   0.54107572   -7.9404103    77.810925  0.014409431  0.013630144            5 
  451000   0.54013904   -7.9336002    77.943519  0.014401981  0.013587165            5 
  452000   0.55373656   -7.9436404    77.862967  0.014355267  0.013544347            7 
  453000   0.54528448   -7.9530861     77.76119  0.014304855  0.013501634           11 
  454000   0.53969883    -7.953618    77.719739  0.014265738  0.013459061           10 
  455000   0.54239421   -7.9410272    77.915448  0.014270229  0.013416613           11 
  456000   0.52890044   -7.9730983    77.758365  0.014210228   0.01337441            6 
  457000   0.54245751   -7.9539756     77.83102  0.014192381  0.013332375            7 
  458000   0.54365812   -7.9795548    77.965532  0.014185868  0.013290426            7 
  459000   0.53531354   -7.9779414    77.815843  0.014127786  0.013248629            7 
  460000   0.52758507   -7.9823587    77.797248  0.014093704  0.013206985            7 
  461000   0.52312349   -7.9845594    77.674812     0.014041  0.013165494            8 
  462000   0.52416804   -7.9681322    77.655106  0.014007054  0.013124005            6 
  463000   0.52990321   -7.9959766    77.650054  0.013975892  0.013082662            7 
  464000   0.52770125   -7.9950185     77.77363  0.013967965  0.013041466            9 
  465000   0.53404224   -8.0015637    77.734932  0.013930991  0.013000396            7 
  466000   0.52570991   -7.9921555    77.674674  0.013890321  0.012959514            5 
  467000   0.52905942   -8.0041145    77.549115  0.013838172  0.012918667            8 
  468000   0.52249483   -7.9784523     77.73851  0.013842327  0.012878027           11 
  469000   0.50060027   -8.0072946    77.648296  0.013796783  0.012837445            9 
  470000   0.52203723   -8.0150092    77.615242  0.013761568   0.01279696           10 
  471000   0.51011631    -7.992539    77.741538  0.013754695  0.012756628           10 
  472000   0.52299692   -8.0022267    77.613726  0.013702988  0.012716496            8 
  473000     0.500976   -8.0130929    77.689104  0.013687298  0.012676532           11 
  474000   0.51675737   -8.0369462    77.662179  0.013653688  0.012636633           10 
  475000   0.51404548   -8.0219342      77.6551  0.013623702  0.012596927           13 
  476000    0.5047857   -8.0274616    77.533238  0.013573746  0.012557354           13 
  477000   0.50947396   -8.0075993     77.54235  0.013546882   0.01251788           14 
  478000   0.51215383   -8.0198277    77.611127  0.013530531   0.01247851            9 
  479000   0.49700659   -8.0174635    77.547853  0.013491276  0.012439346           10 
  480000   0.50235395    -8.034579    77.470967  0.013449821  0.012400383           12 
  481000   0.49746819   -8.0580236    77.593345   0.01344306   0.01236155            7 
  482000   0.49667027   -8.0363766    77.438176  0.013388343  0.012322823           10 
  483000    0.4931677   -8.0344371    77.514502  0.013373793  0.012284178            6 
  484000   0.49512692   -8.0341142    77.413328  0.013328741  0.012245711            9 
  485000   0.49409499   -8.0471185    77.505576  0.013317109  0.012207309            9 
  486000   0.49967448   -8.0448129    77.458868  0.013281699  0.012169022            5 
  487000   0.49326962   -8.0422196    77.493251   0.01326031  0.012130921            9 
  488000   0.48556187   -8.0609855    77.470532  0.013229257   0.01209298           13 
  489000   0.48841365   -8.0603055    77.370675  0.013185187  0.012055135           15 
  490000   0.47778783   -8.0571539     77.39654  0.013162677  0.012017458            7 
  491000   0.48149229   -8.0648457    77.406125  0.013137496   0.01197989           10 
  492000   0.48490065   -8.0730253    77.454608  0.013119005    0.0119425           11 
  493000   0.48037821   -8.0547425    77.445001  0.013090771  0.011905241           12 
  494000   0.48034111    -8.062366    77.292966  0.013038624  0.011868094           16 
  495000   0.49188587   -8.0668515    77.397655  0.013029908  0.011831077           16 
  496000   0.48320624   -8.0787135    77.433721  0.013009698  0.011794189           17 
  497000   0.47490518   -8.0734105    77.231446  0.012949605  0.011757375           12 
  498000   0.47474731   -8.0883917    77.330177  0.012940123  0.011720691           13 
  499000   0.46858961   -8.0881539    77.244407  0.012899868   0.01168415           12 
  500000   0.46675151   -8.0787233    77.288812  0.012881469  0.011647772           18 
  501000   0.47312471   -8.0719989    77.326144  0.012861967  0.011611571           13 
  502000   0.46292476   -8.0796872    77.221839   0.01281903  0.011575426           20 
  503000   0.46637705    -8.089237    77.263309  0.012800416  0.011539455           14 
  504000   0.47405356   -8.0838594    77.213059   0.01276671  0.011503578           14 
  505000   0.45600269   -8.1054454    77.243098  0.012746386  0.011467881           12 
  506000   0.45146398    -8.104866    77.232878  0.012719512  0.011432324           13 
  507000   0.45694129   -8.0897617    77.353324  0.012714222  0.011396941           14 
  508000   0.45299612   -8.0917665    77.287016  0.012678316  0.011361645           28 
  509000   0.46497241    -8.105138    77.231075  0.012644249  0.011326483           13 
  510000   0.45598114   -8.1001716    77.350968  0.012639047  0.011291444           12 
  511000    0.4528887   -8.0994259    77.129789  0.012578243  0.011256514            6 
  512000   0.45450582   -8.1099762    77.194256  0.012564169  0.011221771            8 
Loop time of 1127.85 on 48 procs for 500000 steps with 4000 atoms

Performance: 76606.170 tau/day, 443.323 timesteps/s
99.4% CPU use with 48 MPI tasks x no OpenMP threads

MPI task timing breakdown:
Section |  min time  |  avg time  |  max time  |%varavg| %total
---------------------------------------------------------------
Pair    | 69.949     | 74.049     | 82.532     |  30.4 |  6.57
Neigh   | 7.2397     | 7.47       | 7.8014     |   5.2 |  0.66
Comm    | 62.125     | 71.889     | 78.092     |  36.8 |  6.37
Output  | 0.86634    | 0.86676    | 0.87526    |   0.1 |  0.08
Modify  | 958.89     | 962.62     | 966.66     |   5.7 | 85.35
Other   |            | 10.95      |            |       |  0.97

Nlocal:        83.3333 ave          96 max          76 min
Histogram: 1 4 10 10 12 8 2 0 0 1
Nghost:        1908.12 ave        1928 max        1888 min
Histogram: 5 2 3 4 8 10 4 5 4 3
Neighs:        11962.0 ave       14502 max       10355 min
Histogram: 1 5 11 9 9 9 2 0 1 1
FullNghs:      23923.9 ave       28059 max       21804 min
Histogram: 3 8 11 9 9 6 1 0 0 1

Total # of neighbors = 1148346
Ave neighs/atom = 287.08650
Neighbor list builds = 26881
Dangerous builds = 0

#clear
#
#next RN
#
#jump SELF
Total wall time: 0:18:50
