
units lj                  # Use reduced LJ style units
atom_style atomic         # Uncharged point particles
atom_modify map hash      # Needed for indexing of clusters etc
                          # Used to be able to find where atoms are in relation to each other.

lattice fcc 1.0 spacing 1 1 1
Lattice spacing in x,y,z = 1.5874011 1.5874011 1.5874011
region box block 0 10 0 10 0 10 units lattice
create_box 2 box
Created orthogonal box = (0.0000000 0.0000000 0.0000000) to (15.874011 15.874011 15.874011)
  3 by 4 by 4 MPI processor grid
create_atoms 1 box
Created 4000 atoms
  using lattice units in orthogonal box = (0.0000000 0.0000000 0.0000000) to (15.874011 15.874011 15.874011)
  create_atoms CPU = 0.003 seconds
set type 1 type/fraction 2 0.0 78393
Setting atom values ...
  0 settings made for type/fraction
mass 1 1.0
mass 2 1.0
pair_style lj/cut  3.5
pair_modify tail  yes
pair_coeff 1  1  1.0  1.0   # Intearaction between 1 and 1 set with epsilon = 1 and sigma = 1
pair_coeff 1  2  1.5  0.8
pair_coeff 2  2  0.5  0.88

write_data data.0
System init for write_data ...
Neighbor list info ...
  update every 1 steps, delay 10 steps, check yes
  max neighbors/atom: 2000, page size: 100000
  master list distance cutoff = 3.8
  ghost atom cutoff = 3.8
  binsize = 1.9, bins = 9 9 9
  1 neighbor lists, perpetual/occasional/extra = 1 0 0
  (1) pair lj/cut, perpetual
      attributes: half, newton on
      pair build: half/bin/atomonly/newton
      stencil: half/bin/3d
      bin: standard
WARNING: Not all mixed pair coeffs generated from mixing. Use write_data with 'pair ij' option to store all pair coeffs. (../write_data.cpp:312)


#############################
#   M E L T   S Y S T E M   #
#############################

velocity all create 2.4 9622624 mom yes dist gaussian # Assign velocities
                                                    # Temperature 2.4, random number seed, zero linear momentum
                                                                                # Gaussian distribution

timestep 0.002   # simulation timestep
thermo 1000       # output thermodynamic data every 1000 steps bf 100

# Define a fix  in this case with index 1 applied to all
# particles in the simulation. This fix is for simulations
# in the anisotropic NPT ensemble. Note that we use the MTK
# correction.
fix 1 all npt temp 2.4 2.4 0.1 iso 5.68 5.68 0.5 mtk yes tchain 5 pchain 5 # Use NPT ensemble
                                                                         # Set temperature and pressure and damping
                                                                         # Numbers of thermostats in chain and in barostat
run 10000          # run for 10000 steps
Per MPI rank memory allocation (min/avg/max) = 3.642 | 3.644 | 3.648 Mbytes
Step Temp E_pair E_mol TotEng Press Volume 
       0          2.4   -8.3859253            0   -4.7868253   -2.2405722         4000 
    1000    2.3675277   -4.4709979            0  -0.92059417    5.6600046    5150.2326 
    2000    2.4336119   -4.2892403            0  -0.63973503    5.7448997     5271.009 
    3000    2.4221636   -4.3652249            0   -0.7328877    5.5099081    5254.0552 
    4000    2.3983974   -4.3336376            0  -0.73694089    5.6750417    5248.7793 
    5000    2.3320898   -4.4159053            0  -0.91864512     5.581946    5202.1746 
    6000    2.4562246   -4.4049906            0  -0.72157478     5.719624    5202.6175 
    7000    2.3653441   -4.3228655            0  -0.77573634    5.8518171    5233.3781 
    8000    2.4449065   -4.3960486            0  -0.72960567    5.5647709    5233.5808 
    9000    2.3987595    -4.388672            0  -0.79143233    5.5538781     5228.629 
   10000    2.3970126   -4.3427116            0  -0.74809154    5.8212141    5218.5767 
Loop time of 2.26216 on 48 procs for 10000 steps with 4000 atoms

Performance: 763871.759 tau/day, 4420.554 timesteps/s
99.3% CPU use with 48 MPI tasks x no OpenMP threads

MPI task timing breakdown:
Section |  min time  |  avg time  |  max time  |%varavg| %total
---------------------------------------------------------------
Pair    | 0.86113    | 0.90631    | 1.0509     |   3.7 | 40.06
Neigh   | 0.16698    | 0.17214    | 0.19591    |   1.2 |  7.61
Comm    | 0.57103    | 0.77618    | 0.84493    |   5.0 | 34.31
Output  | 0.0002694  | 0.00027411 | 0.00035126 |   0.0 |  0.01
Modify  | 0.35474    | 0.39294    | 0.43312    |   3.6 | 17.37
Other   |            | 0.01431    |            |       |  0.63

Nlocal:        83.3333 ave          92 max          76 min
Histogram: 2 5 5 8 5 9 9 2 2 1
Nghost:        1384.21 ave        1406 max        1366 min
Histogram: 3 2 8 7 9 3 7 3 4 2
Neighs:        7292.42 ave        8101 max        6418 min
Histogram: 2 2 4 8 7 7 6 4 4 4

Total # of neighbors = 350036
Ave neighs/atom = 87.509000
Neighbor list builds = 901
Dangerous builds = 199

# Equilibrate just above the melting temperature to avoid step fn in T

fix 1 all npt temp 1.25 1.25 0.1 iso 5.68 5.68 0.5 mtk yes tchain 5 pchain 5
run 2000
Per MPI rank memory allocation (min/avg/max) = 3.642 | 3.644 | 3.648 Mbytes
Step Temp E_pair E_mol TotEng Press Volume 
   10000    2.3970126   -4.3427116            0  -0.74809154    5.8212141    5218.5767 
   11000    1.2174592   -5.8421248            0   -4.0163926    5.6441685    4343.6787 
   12000    1.2464261   -5.8638633            0   -3.9946916    5.6023689    4339.0766 
Loop time of 0.475919 on 48 procs for 2000 steps with 4000 atoms

Performance: 726174.418 tau/day, 4202.398 timesteps/s
99.5% CPU use with 48 MPI tasks x no OpenMP threads

MPI task timing breakdown:
Section |  min time  |  avg time  |  max time  |%varavg| %total
---------------------------------------------------------------
Pair    | 0.1925     | 0.2054     | 0.22595    |   1.2 | 43.16
Neigh   | 0.030213   | 0.031109   | 0.033599   |   0.3 |  6.54
Comm    | 0.12825    | 0.15314    | 0.19389    |   2.6 | 32.18
Output  | 5.0955e-05 | 5.2363e-05 | 6.6596e-05 |   0.0 |  0.01
Modify  | 0.043949   | 0.081816   | 0.091791   |   3.0 | 17.19
Other   |            | 0.004407   |            |       |  0.93

Nlocal:        83.3333 ave          89 max          76 min
Histogram: 3 1 0 8 7 5 12 2 6 4
Nghost:        1550.15 ave        1571 max        1524 min
Histogram: 2 3 4 6 6 1 8 7 6 5
Neighs:        8756.54 ave        9450 max        7727 min
Histogram: 1 2 2 2 9 6 11 5 8 2

Total # of neighbors = 420314
Ave neighs/atom = 105.07850
Neighbor list builds = 141
Dangerous builds = 8

#############################
# L I N E A R  Q U E N C H  #
#############################

# Define solid atoms. This closely follows ten Wolde  Ruiz-Montero and Frenkel  Faraday Discuss  1996  104  93-110
# Compute components of the per-atom q6 vector
compute q6 all orientorder/atom degrees 1 6 components 6 nnn NULL cutoff 1.3 # compute the Q6 parameter.
                                                                             # Use all neighbours within 1.3 unit cell.

# get number of connections
compute coord_number all coord/atom orientorder q6 0.5

# An atom is solid if it has 8 or more connections (of a possible 14)
variable is_solid atom c_coord_number>=8
group solid dynamic all var is_solid    # Must be dynamic to update
dynamic group solid defined

# do clustering
compute cluster solid cluster/atom 1.3 # Create a cluster where all atoms within are solid and max 1.3 units from another member

# define chunks one chunk per cluster
compute clus_chunks solid chunk/atom c_cluster nchunk every compress yes  # Says which atoms are in which chunk

# count the size of each chunk
compute size_chunks solid property/chunk clus_chunks count


# Find the maximum entry in the vector of chunk sizes
variable max_n equal max(c_size_chunks)


# Thermo style which includes this variable
# thermo_style custom step temp pe vol v_max_n

thermo ${N}  # Print the thermo information every 100 steps
thermo 1000  

# Reset the npt fix at a lower temperature (below freezing)
fix 1  all npt temp  ${temp} ${temp}  0.1  iso  5.68  5.68  0.5  mtk yes tchain  5  pchain  5
fix 1  all npt temp  0.45 ${temp}  0.1  iso  5.68  5.68  0.5  mtk yes tchain  5  pchain  5
fix 1  all npt temp  0.45 0.45  0.1  iso  5.68  5.68  0.5  mtk yes tchain  5  pchain  5

dump dmp2 all dcd ${N} traj.dcd
dump dmp2 all dcd 1000 traj.dcd


compute msd all msd com yes
variable twopoint equal c_msd[4]/6/(step*dt+1.0e-6)
fix 9 all vector 10 c_msd[4]
variable fit equal slope(f_9)/6/(10*dt)
thermo_style custom step temp pe c_msd[4] v_twopoint v_fit v_max_n

fix 1 all npt temp 1.25 ${temp} 0.1 iso 5.68 5.68 0.5 mtk yes tchain 5 pchain 5
fix 1 all npt temp 1.25 0.45 0.1 iso 5.68 5.68 0.5 mtk yes tchain 5 pchain 5
run 500000 # 5000000  # Run for this many steps
Neighbor list info ...
  update every 1 steps, delay 10 steps, check yes
  max neighbors/atom: 2000, page size: 100000
  master list distance cutoff = 3.8
  ghost atom cutoff = 3.8
  binsize = 1.9, bins = 9 9 9
  4 neighbor lists, perpetual/occasional/extra = 1 3 0
  (1) pair lj/cut, perpetual
      attributes: half, newton on
      pair build: half/bin/atomonly/newton
      stencil: half/bin/3d
      bin: standard
  (2) compute orientorder/atom, occasional
      attributes: full, newton on
      pair build: full/bin/atomonly
      stencil: full/bin/3d
      bin: standard
  (3) compute coord/atom, occasional
      attributes: full, newton on
      pair build: full/bin/atomonly
      stencil: full/bin/3d
      bin: standard
  (4) compute cluster/atom, occasional
      attributes: full, newton on
      pair build: full/bin/atomonly
      stencil: full/bin/3d
      bin: standard
Per MPI rank memory allocation (min/avg/max) = 9.725 | 9.732 | 9.738 Mbytes
Step Temp PotEng c_msd[4] v_twopoint v_fit v_max_n 
   12000    1.2464261   -5.8638633 8.4072851e-31 5.8383922e-33 8.3333333e+20            6 
   13000    1.2374221   -5.8281225   0.53943941 0.0034579448  0.044006494            3 
   14000    1.2394236   -5.8326515    1.0375728 0.0061760284  0.042512093            2 
   15000    1.2351522   -5.8823914    1.5967848 0.0088710264  0.043426963            5 
   16000    1.2484188   -5.8946731    2.1255553    0.0110706  0.044182727            5 
   17000    1.2302589   -5.8820899    2.6798257    0.0131364  0.044589009            3 
   18000    1.2467869   -5.7989045    3.2389509  0.014995142  0.044760061            4 
   19000     1.251454   -5.8943367    3.8037458  0.016683095  0.044893193            1 
   20000    1.2356294    -5.888506    4.3318712  0.018049463  0.045299574            3 
   21000    1.2611428    -5.871592     4.947369  0.019632416  0.045475164            2 
   22000    1.2430036   -5.8248503    5.5052264   0.02085313  0.045769401            4 
   23000    1.2352425   -5.8592691    6.0766403  0.022016812  0.045967423            2 
   24000    1.2448753   -5.8609451    6.6711748  0.023163801  0.046238378            2 
   25000    1.2460102   -5.8862539     7.183968  0.023946559  0.046322273            7 
   26000    1.2258016   -5.8836771    7.7860896  0.024955415  0.046482649            4 
   27000    1.2292842   -5.8816571    8.2780962  0.025549679  0.046539818            3 
   28000    1.2389944   -5.9014917     8.734789  0.025996395  0.046384513            3 
   29000    1.2164405   -5.8527886    9.2938097  0.026706349   0.04615712            3 
   30000    1.1961981   -5.8770462    9.7807882  0.027168856  0.046042795            5 
   31000    1.2135628   -5.9279383    10.398373  0.027952615  0.045947441            4 
   32000    1.2016816   -5.9008848    10.945827  0.028504758  0.045924409            4 
   33000    1.2409902   -5.8585901    11.589058  0.029265297  0.045912831            4 
   34000     1.208222   -5.9364649    12.043795  0.029519106  0.045880788            3 
   35000    1.2102829   -5.8806826    12.493492   0.02974641  0.045804076            2 
   36000     1.224823   -5.8675951    13.064173   0.03024114  0.045700207            3 
   37000    1.2340222   -5.9274481     13.59154  0.030611576   0.04563623            5 
   38000    1.2079286   -5.9520547    14.029653  0.030766783  0.045559706            3 
   39000     1.214557   -5.9137268    14.609338  0.031216533   0.04543336            5 
   40000    1.2211809   -5.9234286    14.846972  0.030931191  0.045264505            4 
   41000    1.1888402    -5.917341     15.23003  0.030955344  0.045001999           12 
   42000     1.203894   -5.9452712    15.714564  0.031179689  0.044734857            3 
   43000    1.1786079   -5.9099727    16.225881  0.031445505  0.044492289            6 
   44000    1.2308762   -5.8851476    16.680647  0.031592134  0.044256327            7 
   45000    1.2065712   -5.9031568    17.261538  0.031965812  0.044046036            4 
   46000    1.1993409   -5.9400087     17.92094  0.032465471   0.04392545            6 
   47000    1.1966046   -5.9302414    18.600343  0.032979331  0.043871543            2 
   48000    1.1900145    -5.942244    19.040698  0.033056767  0.043842699            3 
   49000    1.1694694   -5.9718105    19.355316  0.032917204  0.043760464            4 
   50000    1.2016301   -5.9048961    19.882137  0.033136895  0.043667638            2 
   51000    1.1971416   -5.9350517    20.183532  0.032979628  0.043553097            3 
   52000    1.1913979   -5.9313609    20.782312  0.033304987  0.043430915            6 
   53000    1.1787765   -5.9762261    21.268861  0.033441604  0.043328457            3 
   54000    1.2044668   -5.9514105    21.684399  0.033463579  0.043220984            2 
   55000    1.1736773   -5.9737219     22.08803  0.033466711  0.043088151            6 
   56000    1.1638134   -5.9504615    22.409135  0.033346927  0.042934916            6 
   57000    1.1533312   -5.9541833    22.876937  0.033445814  0.042782998            4 
   58000    1.1606479   -5.9570275    23.241223  0.033392562  0.042629524            6 
   59000     1.160913   -5.9818974    23.647589   0.03340055  0.042463034           11 
   60000    1.1718115   -5.9449836    24.158913  0.033554046  0.042300655            3 
   61000    1.1745402   -5.9914799    24.415024  0.033353858  0.042136234            3 
   62000    1.1712108   -5.9688101    24.917917  0.033491823  0.041966312            5 
   63000    1.1581024    -5.991619    25.400371  0.033598374  0.041800994            2 
   64000    1.1693544   -5.9949275     25.85451  0.033664727  0.041653586            5 
   65000    1.1724763   -5.9749949    26.305072  0.033724451  0.041522986            3 
   66000     1.192395   -6.0144132    26.597385  0.033582557  0.041377441            5 
   67000    1.1756247    -5.997115    26.972868  0.033548343  0.041219613            7 
   68000    1.1550571   -5.9551943    27.460257  0.033652275  0.041077978            8 
   69000    1.1606016   -6.0024056    27.740079   0.03350251  0.040926478            5 
   70000    1.1640255   -5.9597124    28.251308  0.033632509  0.040768215            5 
   71000    1.1622378   -6.0138511    28.604969  0.033573907  0.040623095            3 
   72000    1.1520778   -5.9924172    29.019951  0.033587906  0.040475518            3 
   73000    1.1395765   -5.9966815     29.54145  0.033723116  0.040340305            3 
   74000    1.1401564   -6.0271875     30.05234  0.033842725  0.040227169            8 
   75000    1.1341762   -5.9905547    30.554349  0.033949276  0.040130718            5 
   76000    1.1586251   -6.0623365    30.768349  0.033737224  0.040026629            2 
   77000    1.1592307   -6.0408115    31.391323  0.033973293  0.039934174            4 
   78000     1.148849   -6.0261416    31.925683  0.034108636  0.039850574            7 
   79000     1.129874   -6.0047727     32.16671  0.033931128   0.03977143            5 
   80000    1.1539335   -6.0713698    32.549825  0.033906068  0.039684135            5 
   81000    1.1389759   -6.0933754    33.135982  0.034090517  0.039594889            5 
   82000     1.142904   -6.0369251    33.474937  0.034019244  0.039516431            6 
   83000    1.1359256   -6.0650586    33.661954  0.033797142  0.039425678            5 
   84000    1.1272405   -6.0261955     34.26344  0.033991508  0.039332781            3 
   85000     1.139591   -6.0411629    34.564982  0.033887237  0.039242017            3 
   86000    1.1084933   -6.0419465     35.05042  0.033963585  0.039152139            3 
   87000    1.1371164   -6.0442316     35.52359  0.034026427  0.039068196            8 
   88000    1.1284693   -6.0311406    36.054791  0.034142794  0.038988404            6 
   89000    1.0935032   -6.0329039    36.428767  0.034109332   0.03891188            4 
   90000    1.1253137    -6.062093    36.811393  0.034084623  0.038840306            7 
   91000    1.1350927   -6.0550186    37.171097  0.034039466  0.038769079            2 
   92000    1.1192037   -6.0455202    37.381594   0.03386014  0.038694937            5 
   93000    1.1355495   -6.0469999     37.80555  0.033875941  0.038608179            6 
   94000    1.1192072   -6.1170038    38.066425   0.03374683   0.03851996            4 
   95000    1.1261382   -6.0577232    38.612267  0.033870409  0.038436307            4 
   96000    1.1115834   -6.0713872    38.788379  0.033670468  0.038351503            4 
   97000    1.1429805   -6.0613679     39.05918  0.033555997  0.038256128            5 
   98000    1.0988696   -6.0587956     39.71274  0.033769337  0.038167534            9 
   99000    1.0877766    -6.073813    39.994337  0.033665267  0.038084595            2 
  100000    1.1221395   -6.0288041    40.428711  0.033690592  0.037994437            4 
  101000    1.1232324   -6.0714045    40.794557  0.033658875  0.037906914            4 
  102000    1.1002227   -6.0320354    41.005852  0.033501513  0.037816528            4 
  103000    1.1204548   -6.0883887    41.273597  0.033392877  0.037722631            5 
  104000    1.1090346    -6.087996    41.774153  0.033472879  0.037634179            6 
  105000    1.1252089   -6.1051318    41.919991  0.033269834  0.037541936           11 
  106000    1.0882818   -6.0992666    42.505153  0.033416001  0.037448718            7 
  107000    1.1149452   -6.1169231    42.645185  0.033212761  0.037355374           11 
  108000    1.1024342   -6.0958299    42.936118   0.03312972  0.037258211            4 
  109000    1.0947551   -6.1279373    43.432735  0.033205454  0.037159276            6 
  110000     1.100154   -6.0834173    43.823179  0.033199378  0.037067446            4 
  111000    1.0676146   -6.1267573    44.319783   0.03327311  0.036982077           11 
  112000    1.0760856   -6.1014431    44.861666  0.033379215  0.036902414            7 
  113000     1.091681    -6.103606    45.156938  0.033301576  0.036831679            4 
  114000     1.068468   -6.1387239    45.370638  0.033165671  0.036760066            4 
  115000     1.089219   -6.1247715    46.035351   0.03335895  0.036690114            3 
  116000    1.0765227   -6.0825477     46.59527  0.033473613  0.036626185            7 
  117000    1.0929384   -6.1293895    47.011598  0.033484044  0.036565661           12 
  118000    1.0710397   -6.1541694    47.087712  0.033254033     0.036504            5 
  119000    1.0767345   -6.1236388    47.579524  0.033318994  0.036443791            5 
  120000    1.0872865   -6.1412699    48.095679  0.033399777  0.036385081            4 
  121000     1.070553   -6.1762786    48.032918  0.033080522  0.036323586            7 
  122000    1.0835492   -6.1076827    48.586533  0.033187522  0.036254669            4 
  123000    1.0798523   -6.1199268    48.878824  0.033115735  0.036185769            7 
  124000    1.0680789   -6.1897791    49.054875  0.032966986  0.036115282            6 
  125000     1.069556   -6.1612514     49.30825  0.032872166  0.036041402            8 
  126000    1.0836985   -6.1753082    49.778302  0.032922158   0.03596937            6 
  127000    1.0374548   -6.1503108    50.224975   0.03295602  0.035900138            4 
  128000    1.0443477   -6.1931257    50.158461  0.032655248  0.035826357            9 
  129000    1.0576868   -6.1959086    50.539877  0.032648499  0.035744507            5 
  130000    1.0301659   -6.1296015    50.544475  0.032400304  0.035657099            5 
  131000    1.0580547   -6.1859668    50.754688  0.032286697  0.035567519            7 
  132000    1.0875261   -6.1382228    51.214202  0.032332198  0.035479561            4 
  133000    1.0684773   -6.1570713    51.612644  0.032338749   0.03539424           10 
  134000    1.0590483   -6.1766613    51.683649  0.032141573  0.035306275            9 
  135000     1.049912   -6.1528976    52.076169  0.032145783  0.035216455            6 
  136000    1.0557404   -6.1381631    52.514768  0.032178167  0.035129645           10 
  137000    1.0452576   -6.1519811    52.888356  0.032170533  0.035046778            8 
  138000    1.0309473   -6.1908917    52.983897  0.031995106   0.03496099            3 
  139000    1.0388698   -6.1878904      53.4406  0.032038729   0.03487768            8 
  140000    1.0508026   -6.1667245    53.700834  0.031964782  0.034795755            4 
  141000    1.0240734   -6.1742268    54.165058  0.032012446  0.034713053            5 
  142000    1.0299268   -6.2236009    54.057256  0.031723742  0.034627673           10 
  143000    1.0601407   -6.1598981    54.455388  0.031733909  0.034541786            3 
  144000    1.0418006   -6.1929725    54.426336  0.031496722   0.03445224            6 
  145000    1.0078745   -6.2012609    54.873005   0.03153621  0.034362456            8 
  146000    1.0355113   -6.2105849    55.346142  0.031590264  0.034274339            8 
  147000    1.0458414   -6.2122099    55.840782  0.031655772  0.034190675            3 
  148000    1.0480177   -6.2001124     55.86863  0.031457562  0.034106822            5 
  149000    1.0511755   -6.2019099    55.810946  0.031214176  0.034018785           10 
  150000    1.0414121   -6.2303518    56.002098  0.031112277  0.033926028            5 
  151000    1.0274973    -6.228047    56.469037  0.031163928  0.033833966           11 
  152000    1.0276553   -6.2073048    56.817383  0.031149881  0.033744813            6 
  153000    1.0242785   -6.2430994    56.986336  0.031038309  0.033657816            7 
  154000    1.0071575   -6.2215372    57.390389  0.031055405  0.033568084           11 
  155000    1.0203794   -6.2434666    57.646254   0.03099261  0.033481873            4 
  156000    1.0209983   -6.2006431    58.073732  0.031022292  0.033399834            3 
  157000    1.0270429   -6.2308634    58.454362  0.031026732  0.033321714            4 
  158000    1.0146008    -6.232341    58.687383  0.030953261  0.033243864            5 
  159000   0.99684848   -6.3054806    59.025007  0.030935538  0.033165418            5 
  160000    1.0077776   -6.2950129    59.152015  0.030808341   0.03308583            4 
  161000   0.99412793   -6.2662539    59.571009  0.030833856  0.033006836            7 
  162000    1.0251882   -6.2484377    59.880062  0.030802501  0.032930874            7 
  163000   0.99798308   -6.2573909    60.213813  0.030784158  0.032855392            2 
  164000   0.99130769   -6.2499788    60.407511  0.030694873  0.032780332            5 
  165000   0.99848031   -6.2673179    60.788704  0.030701366  0.032707255            5 
  166000   0.98275061   -6.2826041    61.163148  0.030704391  0.032634984            7 
  167000    1.0211656   -6.2790308    61.237799  0.030557784  0.032562579           10 
  168000    1.0080983   -6.2868661    61.423817  0.030468163  0.032487907            5 
  169000   0.99975069   -6.2485435    61.768194  0.030457689  0.032413162            2 
  170000    1.0056617   -6.2891033     61.94052     0.030363  0.032340457            6 
  171000   0.98367968   -6.3147076    62.128392  0.030276994  0.032268287            7 
  172000    1.0029175   -6.2550276    62.509444  0.030285583  0.032194457            6 
  173000   0.97744915   -6.2918106    62.722377  0.030213091  0.032121468            4 
  174000   0.99379424   -6.3159773     62.86954  0.030109933  0.032044836            5 
  175000   0.97442245   -6.3170431    63.003514  0.030001673  0.031966874           13 
  176000   0.99565905   -6.2927253    63.445879  0.030040662  0.031891809            6 
  177000    1.0076742     -6.31343    63.564651   0.02992686  0.031817519            5 
  178000   0.99547429   -6.3198495    64.040286  0.029981407  0.031742768           10 
  179000   0.98176532   -6.2895436    64.030202  0.029809219  0.031668698           10 
  180000   0.97964358    -6.317899    64.342301  0.029788102  0.031593258            8 
  181000   0.97928306   -6.3271401    64.694825  0.029785831  0.031518949            8 
  182000   0.96933671   -6.3230969    64.876061  0.029705156  0.031444794            9 
  183000   0.97895538   -6.3368689    65.005679  0.029601857  0.031369806           13 
  184000   0.97366239   -6.3051934    65.136901  0.029500408  0.031293189            4 
  185000   0.96225921   -6.3287682    65.396026  0.029457669  0.031218143            7 
  186000   0.97541294   -6.2951631    65.949017  0.029547051  0.031144643            7 
  187000   0.96781413   -6.3028548    66.273736  0.029533751  0.031073043            9 
  188000   0.99567219   -6.3351895    66.159959  0.029326223  0.031002049            7 
  189000   0.97186091   -6.3186807     66.46302  0.029304682  0.030930495            5 
  190000   0.94387447    -6.396046    66.649239  0.029232122  0.030858171            7 
  191000   0.99019821   -6.3638775    66.924868  0.029199331   0.03078486            8 
  192000   0.95309784   -6.3220822    67.507521  0.029300139  0.030713889            5 
  193000   0.96048498   -6.3603429    67.721399  0.029240673  0.030645201           13 
  194000   0.93433996   -6.3753156    67.897597  0.029165634  0.030576815            8 
  195000   0.95931251   -6.3457815    67.974984  0.029049139  0.030508274            6 
  196000   0.94478599   -6.3256281     68.23413   0.02901111  0.030441308            9 
  197000    0.9560237   -6.3701268    68.611512  0.029023482  0.030374843           14 
  198000   0.94851511   -6.3264341    68.749802  0.028935102   0.03030744            8 
  199000   0.95665361   -6.3406119    68.890483  0.028848611  0.030239722           18 
  200000   0.95512683    -6.340525    69.009623   0.02875401  0.030171644           13 
  201000   0.96201652   -6.3647971    69.268664  0.028718352  0.030102834            4 
  202000   0.92893922   -6.3728206     69.47488  0.028661254   0.03003513            6 
  203000   0.96243021   -6.3983918    69.660074  0.028596089  0.029966993            9 
  204000   0.92286316   -6.3802126    69.936668    0.0285689  0.029899334           11 
  205000   0.95345276   -6.3852508    69.992767  0.028452344  0.029830725            7 
  206000     0.942813   -6.3927056     70.17507  0.028387973  0.029762033            9 
  207000   0.94108705   -6.3801162    70.511295   0.02838619  0.029693802            6 
  208000   0.94281108   -6.4088126    70.776424  0.028355939  0.029625483           13 
  209000   0.92686508   -6.4059437    70.992455  0.028306401  0.029557477            8 
  210000   0.92863344   -6.3833287    71.197263  0.028252882  0.029488187            9 
  211000   0.91127916   -6.3876896    71.272219  0.028148586  0.029420044           11 
  212000   0.93293454   -6.4216483    71.271123  0.028015379  0.029351103            6 
  213000   0.92637301   -6.4166554    71.431891  0.027946749  0.029281425           16 
  214000    0.9379032   -6.4132396     71.73378  0.027933715  0.029211807           12 
  215000   0.91294121   -6.4119783    71.840628  0.027845204     0.029142            6 
  216000   0.93222734   -6.4199709    72.057495   0.02779996  0.029072209           16 
  217000   0.92248246   -6.4127042    72.552448  0.027861923  0.029002896            9 
  218000   0.91116413   -6.4011892    72.452344   0.02769585  0.028934957           10 
  219000   0.90955396   -6.4455007    72.740787  0.027679143  0.028866946           14 
  220000   0.92028179   -6.4149333    72.931047  0.027625396  0.028799882            6 
  221000   0.93200617   -6.4394551     73.17457  0.027592221  0.028732267           10 
  222000   0.90324786   -6.4243485    73.571466  0.027616917  0.028665912           14 
  223000   0.89445507   -6.4350115    73.463025   0.02745255   0.02859941           13 
  224000     0.896688   -6.4522666    73.740748  0.027433314  0.028532088           11 
  225000   0.91289963   -6.4629537    73.679645  0.027288757  0.028464692            6 
  226000   0.88846004   -6.4276795    74.103877  0.027324438  0.028396275            9 
  227000   0.88793626   -6.4284886    74.047121  0.027183231  0.028327957            5 
  228000   0.90454935   -6.4459118    74.225627   0.02712925  0.028259749           20 
  229000   0.87225885   -6.4407639    74.625806  0.027156407  0.028191721            7 
  230000   0.90633266   -6.4495934    74.673064  0.027055458  0.028123998           15 
  231000   0.87087963   -6.4698063    74.755443  0.026968053  0.028057153           13 
  232000   0.90108341   -6.4605053     75.20934  0.027014849  0.027990161           14 
  233000   0.89885474   -6.4551309    75.254677  0.026915121    0.0279232            7 
  234000   0.88280748   -6.4640875    75.495724  0.026885941  0.027856275            9 
  235000   0.88753999   -6.4746067    75.463695  0.026760175  0.027788752           13 
  236000   0.89736279   -6.4691005    75.853668  0.026784487   0.02772167           11 
  237000   0.88142385   -6.4874828    75.712639  0.026621884  0.027654843            9 
  238000   0.89602374   -6.4761533    76.105555  0.026647603  0.027588351           16 
  239000   0.88942045    -6.485699    75.996288  0.026498008     0.027522           15 
  240000   0.87100237   -6.4824102    76.405998   0.02652986  0.027455853           15 
  241000    0.8857808   -6.5072036    76.386346  0.026412983  0.027388697           21 
  242000   0.88018202   -6.5042132    76.567244  0.026366131  0.027320843           12 
  243000   0.89868362   -6.5090454    76.934879  0.026383703  0.027253594            9 
  244000   0.87691049   -6.4831203    76.960214  0.026284226  0.027186534           10 
  245000   0.87818008   -6.4910471    77.142681  0.026239007  0.027120089            4 
  246000   0.86138948   -6.4908591    77.021978  0.026091456  0.027053442            9 
  247000   0.85346621   -6.4951954     77.27018  0.026069561  0.026985568           10 
  248000   0.87363737   -6.4891542    77.403557   0.02600926  0.026918174           16 
  249000   0.87606899   -6.4958313    77.422733  0.025911223  0.026850756            9 
  250000   0.86474135   -6.5208964    77.680852  0.025893617  0.026783356           12 
  251000    0.8681784   -6.5348121    78.008159  0.025899123  0.026717206           11 
  252000   0.85511561   -6.5028088    78.244895  0.025874635  0.026652755            8 
  253000   0.86486951   -6.5130148    78.582271  0.025883488  0.026588387           11 
  254000   0.83316076   -6.5604696    78.452205  0.025738912  0.026523942            5 
  255000    0.8519367   -6.5217182    78.684799  0.025713987  0.026458344           19 
  256000   0.86520224   -6.5442413    78.579262  0.025579187  0.026392986            9 
  257000   0.85391194   -6.5519191     78.74781  0.025534309  0.026327896           10 
  258000   0.85774677   -6.5420253     78.87057   0.02547499  0.026263006           10 
  259000   0.84921895   -6.5417793    79.063846  0.025438818  0.026197477           20 
  260000    0.8648165   -6.5589014    79.058828  0.025339368  0.026132386           23 
  261000   0.85819612   -6.5381507     79.21851  0.025293266  0.026066207           22 
  262000   0.85182162   -6.5227422     79.46154  0.025274027  0.026001717           10 
  263000   0.86332783   -6.5579846    79.368072  0.025148312  0.025936728           16 
  264000    0.8505289   -6.5520897    79.580656  0.025120156  0.025871649           20 
  265000   0.83370758    -6.548434    79.733449  0.025073412  0.025806825            8 
  266000   0.84485051   -6.5324895    80.062711  0.025082303  0.025742665           38 
  267000   0.85458707   -6.5791518    80.049766  0.024984321  0.025678462           39 
  268000   0.84154173   -6.5612643    80.122592  0.024913741  0.025613879           46 
  269000   0.84881629   -6.5598871    80.385994  0.024902724  0.025550597           24 
  270000   0.83116933   -6.5525317    80.570458  0.024867425  0.025487753           30 
  271000   0.84579881   -6.5793059    80.762641   0.02483476  0.025424496           11 
  272000   0.82450367    -6.584742    80.791915  0.024752425  0.025359936           39 
  273000   0.81659536   -6.6038156    80.522268  0.024579447  0.025295419           70 
  274000    0.8130841   -6.5741841    80.932215  0.024614421   0.02523158           21 
  275000   0.83390433   -6.5800537    80.949226  0.024530069  0.025167667           36 
  276000   0.81910202   -6.6006679    81.431732  0.024586876  0.025104518           22 
  277000   0.83611529   -6.5821085    81.417337  0.024493784  0.025042221           12 
  278000   0.83055357   -6.5887888    81.636486  0.024471369  0.024979773            9 
  279000   0.83611711    -6.582327    81.716352  0.024407513  0.024917242           12 
  280000   0.82640542   -6.6119768    81.883049  0.024369955  0.024855076           10 
  281000   0.82745203   -6.6211359    81.456131  0.024156622  0.024792098           10 
  282000   0.84817888   -6.6107061    81.690461  0.024140207  0.024729021           13 
  283000   0.80688022   -6.5848028    81.706243  0.024059553  0.024665456           20 
  284000   0.82193114   -6.6250419    82.046489  0.024074674  0.024602333           21 
  285000   0.84174098   -6.6232503    82.050492  0.023991372  0.024539946           38 
  286000   0.79286229   -6.6363321    82.153544  0.023937513  0.024477436           29 
  287000   0.81175453   -6.6195461    82.464444   0.02394438  0.024414856           20 
  288000   0.79567224   -6.6316249    82.390634  0.023839882  0.024352404           20 
  289000   0.81615727   -6.6157011    82.397866  0.023759477  0.024289988           27 
  290000   0.80558834   -6.6366937    82.471898  0.023698821  0.024226866           17 
  291000   0.79967375   -6.6129917    82.461972  0.023614539  0.024163781           31 
  292000   0.78362514   -6.6470347    82.639889  0.023584443  0.024100933           26 
  293000   0.79775172   -6.6551109    82.676911   0.02351448  0.024037616           48 
  294000    0.7869082    -6.652822    82.748537  0.023454801  0.023974216          107 
  295000   0.80812187   -6.6629301    82.897425  0.023417352  0.023911426          115 
  296000    0.7888456    -6.677026    82.860509  0.023327846  0.023848087           39 
  297000   0.79994332   -6.6825832    83.032916  0.023297676  0.023784972           69 
  298000   0.76327722   -6.6897936    83.102787  0.023239034   0.02372172           74 
  299000   0.79467769   -6.6860664    83.095685  0.023159332  0.023658304           70 
  300000   0.78599968   -6.6730093    83.275057   0.02313196  0.023594977           48 
  301000   0.78084309   -6.6838675    83.404806  0.023091032  0.023532492           33 
  302000   0.77990988   -6.6880355    83.310589  0.022988573  0.023469953           27 
  303000   0.79875107   -6.6935338     83.49319  0.022962923  0.023407323           15 
  304000   0.78993545    -6.693377    83.372672  0.022854351  0.023344512           48 
  305000   0.76103611   -6.7049846    83.558251  0.022830123  0.023281493           66 
  306000   0.76697599    -6.725477    83.407208  0.022714381  0.023217807           31 
  307000   0.77299201   -6.6876994     83.41679  0.022642994  0.023153873           68 
  308000   0.78516303   -6.6791597    83.466302  0.022582874  0.023090127           69 
  309000   0.77680482   -6.7139505    83.505248  0.022520293  0.023026166           28 
  310000   0.77302403   -6.7218778    83.576776  0.022466875  0.022962924           24 
  311000    0.7649139   -6.7009526    84.026384  0.022515108  0.022899824           17 
  312000   0.76768444   -6.6634417    83.683501  0.022351363  0.022836568           32 
  313000   0.76974572   -6.7203369    84.011234  0.022367208  0.022773172           26 
  314000   0.76463256   -6.7364618    84.050146  0.022306302  0.022709869           42 
  315000   0.79299059   -6.6976748     84.18275  0.022270569  0.022647443           33 
  316000   0.77929277   -6.6934106    84.211389  0.022207645   0.02258513           24 
  317000     0.758902   -6.7134989    84.287846  0.022157688  0.022522793           33 
  318000   0.77472632   -6.7459459    84.193091  0.022063179  0.022460206           37 
  319000   0.78101817   -6.7254821    84.214673  0.021999653  0.022397312           28 
  320000   0.76231959   -6.7446096     84.10361  0.021901982  0.022333953           31 
  321000   0.75160674   -6.7225742    84.329383  0.021892363  0.022270914           27 
  322000   0.74414694    -6.724405    84.343965  0.021828148  0.022208049           58 
  323000   0.75141917   -6.7281966    84.333214  0.021757795  0.022145614           48 
  324000   0.72773447   -6.7578497    84.517401  0.021738015  0.022083048           59 
  325000   0.76507934   -6.7462483    84.396117   0.02164003  0.022020725           20 
  326000   0.74253144   -6.7657325    84.742819  0.021662275  0.021959014           17 
  327000   0.74218801   -6.7530135    84.775794  0.021604433  0.021897636           29 
  328000   0.75989415   -6.7698435    84.882172  0.021565592  0.021836561           28 
  329000   0.74721111   -6.7570693    84.981042  0.021525086  0.021775808           43 
  330000   0.73707243    -6.782035    84.981755  0.021460039  0.021715368           29 
  331000   0.74882663   -6.7917495    85.096731  0.021424152  0.021654598           46 
  332000   0.74730587   -6.7951199    85.116513  0.021364586  0.021594568           85 
  333000   0.73569915   -6.7681392     85.02097  0.021276519  0.021534437          100 
  334000    0.7234165   -6.7842811    85.182361  0.021253084  0.021474464          120 
  335000   0.73816632   -6.8172254    85.262359  0.021209542  0.021414762           99 
  336000   0.73638384   -6.7824739    85.267347  0.021147656  0.021355076           80 
  337000    0.7196035   -6.7867004    85.428767  0.021124819  0.021295512          235 
  338000   0.71979379   -6.7992734    85.319816  0.021035457   0.02123588          148 
  339000   0.75242379   -6.8204785    85.383796  0.020989134   0.02117617          152 
  340000   0.73409993   -6.7945581    85.446765  0.020942834  0.021116306          167 
  341000   0.71544689   -6.8156636     85.46041  0.020884753  0.021056286          144 
  342000   0.72248915   -6.8293867    85.585303  0.020854119  0.020996554          168 
  343000   0.70320183   -6.8014143    85.514994  0.020776238  0.020936938          187 
  344000   0.70406225   -6.8384896    85.776025  0.020779076  0.020877804          308 
  345000   0.71495223   -6.8247234    85.592773  0.020674583  0.020818533          368 
  346000   0.70221135   -6.8452151    85.793293  0.020663124  0.020759575          301 
  347000   0.72031683   -6.8394784    85.729084  0.020588157  0.020700704          248 
  348000   0.70781626    -6.847686    85.907753   0.02057178  0.020641953          257 
  349000   0.72028615   -6.8548405    85.818366  0.020491491  0.020582771          501 
  350000    0.6979317   -6.8658939    85.627679  0.020387543  0.020523408          570 
  351000   0.68329271   -6.8746462    85.500447  0.020299251  0.020463983          777 
  352000   0.72050602   -6.8946895    85.696611  0.020288023   0.02040456          823 
  353000   0.72781853   -6.8908344    85.623496   0.02021329  0.020345218          688 
  354000   0.70243486   -6.8705542     85.63458  0.020158799  0.020286089          730 
  355000   0.69894448   -6.8773398    85.761753  0.020131867  0.020226868          787 
  356000    0.7046618   -6.9004273    85.842953  0.020094324  0.020167826          859 
  357000    0.7014647   -6.9200016    85.766756  0.020020251  0.020108845          973 
  358000   0.70030328   -6.9410706    85.640049  0.019934834  0.020049793          931 
  359000   0.70191478   -6.9037208     85.58483  0.019866488  0.019991057          952 
  360000   0.68832909   -6.9310426      85.8082  0.019863009  0.019932354         1097 
  361000   0.69960181   -6.9175131    85.942199  0.019838919  0.019873829         1051 
  362000   0.68589735    -6.942583    85.864032  0.019766121  0.019815452         1255 
  363000   0.68169954   -6.9665561    85.832135  0.019704347  0.019756815         1380 
  364000   0.69469848   -6.9565264    85.711383  0.019622569  0.019698076         1447 
  365000   0.69890997   -6.9898477    85.628809  0.019549956  0.019639257         1450 
  366000    0.6834209    -6.976513    85.570881  0.019483352  0.019580218         1541 
  367000   0.68769655   -7.0034781    85.323388  0.019374066  0.019521017         1643 
  368000   0.69912832    -7.009034    85.540495  0.019370583  0.019461563         1773 
  369000    0.6666491   -6.9988406    85.644674  0.019341616  0.019401923         1798 
  370000   0.68147792   -7.0462197    85.204915  0.019190296  0.019342141         1974 
  371000   0.68115403   -7.0143467    85.294654  0.019158727   0.01928267         2117 
  372000   0.67011205   -7.0566027    85.313938  0.019111545  0.019223067         2293 
  373000   0.68608505   -7.0634608    85.362917  0.019071251  0.019163568         2302 
  374000   0.67615326   -7.0861886    85.273749   0.01900039  0.019103799         2420 
  375000   0.66781631   -7.0828178    84.970885  0.018882419  0.019044036         2526 
  376000   0.66029098    -7.117617    85.007728  0.018840365  0.018983905         2663 
  377000   0.67209403   -7.0967396    85.240131  0.018841762  0.018923895         2648 
  378000   0.66628924   -7.1040393    85.052066  0.018750455  0.018863952         2791 
  379000    0.6602603   -7.1378824    85.074492  0.018705913  0.018803877         2868 
  380000   0.65976997    -7.168557    84.840719  0.018605421  0.018743708         2909 
  381000    0.6710928   -7.1595756     84.94474  0.018579339  0.018683544         3024 
  382000   0.65874035   -7.1704179    84.749369  0.018488082   0.01862337         3079 
  383000   0.64245302   -7.1777993    84.766848  0.018443614  0.018563028         3184 
  384000   0.65593951   -7.2044207    84.732544  0.018388139  0.018502667         3250 
  385000    0.6454658   -7.2386187    84.899336   0.01837648  0.018442508         3333 
  386000   0.65662699   -7.2365194     84.58925  0.018261928  0.018382502         3376 
  387000   0.65942944   -7.2132237    84.569248  0.018210432  0.018322575         3385 
  388000   0.65718681   -7.2304198     84.53574  0.018156302  0.018262643         3407 
  389000    0.6364605   -7.2545266    84.710602  0.018147087  0.018202851         3390 
  390000   0.63523682   -7.2796448    84.672079  0.018092325  0.018143169         3403 
  391000   0.64613779   -7.3208404    84.501339  0.018009663  0.018083452         3454 
  392000   0.63140442   -7.3160667     84.43939  0.017950551  0.018023773         3489 
  393000   0.65126721   -7.3425942    84.500386  0.017917809  0.017964154         3592 
  394000   0.64464652   -7.3545635    84.278193  0.017825337  0.017904563         3639 
  395000   0.64716573   -7.3768175    84.253789  0.017775061  0.017845006         3741 
  396000   0.63686058   -7.3955151    84.292076  0.017738231  0.017785586         3731 
  397000   0.64189123   -7.3686433    84.308481  0.017696994  0.017726114         3752 
  398000   0.62954107   -7.4012181    84.103124  0.017609532  0.017666707         3777 
  399000   0.62846954   -7.4045369    84.197431  0.017585094  0.017607387         3802 
  400000   0.63804231   -7.4064799    84.177059  0.017536887  0.017548227         3813 
  401000   0.62360914   -7.4276193     84.15976  0.017489559  0.017489211         3811 
  402000   0.62623113   -7.4481987    84.150912  0.017444219  0.017430269         3839 
  403000   0.61569385   -7.4479492    83.994179  0.017368523  0.017371403         3864 
  404000   0.62938962   -7.4588386    84.094484  0.017346222  0.017312653         3876 
  405000      0.62083   -7.4524207    84.016722  0.017287391  0.017254133         3872 
  406000   0.60596655   -7.4520555    83.977748  0.017236812  0.017195748         3847 
  407000   0.59539095   -7.4380113    83.937532  0.017186227  0.017137537         3862 
  408000   0.62588736   -7.4407005     83.87857  0.017132061  0.017079494         3846 
  409000   0.61955869   -7.4861731      83.9297  0.017100591  0.017021515         3859 
  410000   0.60477489   -7.4724453    83.990932  0.017071328  0.016963714         3868 
  411000   0.61747112   -7.4720755    83.960261  0.017023573  0.016906141         3882 
  412000   0.60032447   -7.5247381    83.895258  0.016969106  0.016848529         3882 
  413000   0.59645242   -7.5048515    83.874637  0.016923857  0.016791118         3900 
  414000    0.6108397   -7.5353836     84.00896  0.016910016  0.016733995         3892 
  415000   0.60355023   -7.5295952    83.820345  0.016831394  0.016677113         3925 
  416000   0.61291551   -7.5428165    83.633188  0.016753443  0.016620451         3953 
  417000   0.60263227   -7.5518353    83.788515  0.016744308  0.016563965         3947 
  418000   0.60302382   -7.5638543    83.890764  0.016724634   0.01650764         3950 
  419000    0.6008643   -7.5765988    83.645042  0.016635848  0.016451395         3960 
  420000   0.60212765   -7.5888688    83.793781   0.01662575  0.016395367         3943 
  421000   0.60574383   -7.5818597    83.624087   0.01655267  0.016339508         3962 
  422000   0.58925628    -7.581124    83.695262    0.0165275   0.01628387         3965 
  423000    0.5826112   -7.6077719    83.659131   0.01648131  0.016228308         3981 
  424000   0.58318971   -7.6012762    83.684518  0.016447429  0.016173097         3965 
  425000   0.58116582   -7.5949134    83.653106   0.01640257  0.016118063         3978 
  426000   0.58570479   -7.5970475    83.552438  0.016344374  0.016063212         3979 
  427000   0.58093986   -7.6090708    83.698266  0.016334556  0.016008572         3972 
  428000   0.57887367   -7.6103196    83.739097  0.016304341  0.015954219         3979 
  429000   0.58955634   -7.5919261    83.693111  0.016257403  0.015900008         3988 
  430000   0.58124613   -7.6187851    83.499549  0.016182083  0.015845944         3982 
  431000   0.57410393   -7.6205135    83.632357  0.016170216  0.015791956         3979 
  432000   0.57189038   -7.6207761    83.569508  0.016120661  0.015738286         3974 
  433000   0.57397794    -7.631941     83.48626   0.01606741  0.015684783         3975 
  434000   0.57827695   -7.6142181    83.605272   0.01605324  0.015631453         3976 
  435000   0.56727179   -7.6447846    83.649893  0.016024884  0.015578384         3987 
  436000   0.56445479    -7.642338    83.552894   0.01596959  0.015525426         3976 
  437000    0.5707898   -7.6317381    83.492546  0.015921538  0.015472708         3979 
  438000   0.57521486   -7.6286571    83.535246  0.015893312  0.015420219         3977 
  439000    0.5693591   -7.6389313    83.486089  0.015847777   0.01536797         3981 
  440000   0.55540773   -7.6315153    83.506397  0.015815606  0.015315912         3988 
  441000    0.5692384   -7.6381258    83.630385  0.015803172  0.015264064         3985 
  442000   0.56010881   -7.6658329    83.524885  0.015747527  0.015212438         3985 
  443000   0.55375478   -7.6456533    83.459717  0.015699721     0.015161         3980 
  444000   0.55004544   -7.6515432    83.443156  0.015661253  0.015109743         3985 
  445000   0.55403802   -7.6510974     83.51228  0.015639004  0.015058704         3987 
  446000   0.54570027   -7.6709059    83.592439  0.015618916  0.015007929         3988 
  447000   0.55139747   -7.6628669    83.320759  0.015533326  0.014957238         3994 
  448000   0.55301466   -7.6767003    83.599257  0.015550457   0.01490679         3988 
  449000    0.5483486   -7.6640573    83.427641  0.015483972  0.014856536         3988 
  450000   0.56917836   -7.6722227    83.489623  0.015461041  0.014806492         3987 
  451000   0.54853007   -7.6735861    83.458695  0.015421045  0.014756554         3982 
  452000    0.5473836   -7.6369259    83.364164  0.015369499  0.014706946         3990 
  453000   0.54220213   -7.6600708    83.387719  0.015339904   0.01465745         3992 
  454000   0.54225327   -7.6690969    83.402284  0.015308789   0.01460813         3989 
  455000   0.55645384   -7.6929509    83.457341  0.015285227  0.014559047         3988 
  456000   0.54251398   -7.6703699    83.451378  0.015250617  0.014510213         3981 
  457000   0.54352899   -7.6661918    83.241583   0.01517899  0.014461471         3986 
  458000   0.53385122   -7.6888812    83.319144  0.015159961  0.014413003         3990 
  459000   0.53807689   -7.6834469    83.420705  0.015145371  0.014364673         3989 
  460000   0.52322099   -7.6739123     83.36515  0.015102382   0.01431653         3991 
  461000   0.51976806   -7.6965741    83.346046  0.015066169  0.014268621         3990 
  462000   0.52165767   -7.6797831    83.206813  0.015008444  0.014220908         3988 
  463000   0.53050465   -7.6866768    83.325018  0.014997303  0.014173364         3993 
  464000    0.5282339   -7.6850252    83.342723  0.014968161  0.014126011         3989 
  465000   0.52335493   -7.6927146    83.305958  0.014929383  0.014078862         3991 
  466000   0.51011857   -7.7002541    83.397451  0.014913707  0.014031909         3985 
  467000   0.51889828   -7.7052797     83.32802  0.014869383  0.013985133         3994 
  468000   0.52206092   -7.7103718    83.291412  0.014831092  0.013938553         3988 
  469000    0.5263407   -7.7190408    83.263042  0.014794428  0.013892118         3990 
  470000   0.52875406   -7.7134675    83.351918  0.014778709  0.013845871         3991 
  471000   0.52293891     -7.71196    83.205433  0.014721414  0.013799821         3991 
  472000   0.51382727   -7.6948461     83.24068  0.014696448  0.013753986         3985 
  473000   0.52302612    -7.732932    83.285977  0.014673357  0.013708324         3987 
  474000   0.51381713    -7.730043    83.232065  0.014632923  0.013662827         3990 
  475000   0.52230225   -7.7080305    83.124189  0.014583191  0.013617552         3981 
  476000   0.51120574   -7.7285944    83.163332  0.014559407  0.013572403         3986 
  477000   0.50610226   -7.7210424    83.160433  0.014528378  0.013527447         3988 
  478000    0.5024446   -7.7236292    83.175209  0.014500559  0.013482665         3993 
  479000   0.48807269   -7.7267431    83.280005  0.014488519  0.013438147         3992 
  480000   0.49788728   -7.7468584     83.12296  0.014431069  0.013393748         3989 
  481000   0.50245197   -7.7240026    83.161452  0.014407736  0.013349546         3995 
  482000   0.50660309   -7.7428919    83.142523  0.014374572  0.013305505         3990 
  483000   0.50609933   -7.7424192    83.095125  0.014336633  0.013261652         3995 
  484000   0.49488578   -7.7527153    83.147385   0.01431601  0.013218011         3994 
  485000     0.493869    -7.739903    83.178919   0.01429191  0.013174525         3983 
  486000   0.50419879   -7.7499197     83.18285  0.014263177  0.013131193         3976 
  487000   0.48678988   -7.7502472    83.137397  0.014226112  0.013088086         3983 
  488000   0.48113127   -7.7611127    83.163253  0.014201375  0.013045169         3994 
  489000   0.48360819   -7.7536122    83.018489  0.014147663  0.013002371         3992 
  490000   0.48455335   -7.7475917     83.13818  0.014139146   0.01295977         3990 
  491000   0.48898755   -7.7505185    83.111638  0.014105845  0.012917346         3989 
  492000   0.48823184   -7.7486047    83.011213  0.014060165  0.012875081         3990 
  493000   0.48103496    -7.758281    83.060976  0.014040057  0.012833017         3988 
  494000   0.47738672   -7.7599171    82.988502   0.01399941   0.01279114         3986 
  495000   0.46688671   -7.7781474    83.125214  0.013994144  0.012749358         3994 
  496000   0.46932541   -7.7417391    82.952173  0.013936857  0.012707828         3989 
  497000   0.47537396    -7.762833    83.060355  0.013926954  0.012666431         3995 
  498000   0.46863608   -7.7612311    83.147306  0.013913538  0.012625224         3991 
  499000   0.47077321   -7.7647583    83.006876  0.013862204  0.012584152         3984 
  500000   0.47493211   -7.7680009    82.968028  0.013828005  0.012543272         3989 
  501000   0.47649412   -7.7747222    83.075896  0.013818346  0.012502569         3986 
  502000   0.46393692   -7.7850013    83.096061  0.013794167  0.012461996         3992 
  503000   0.48143297   -7.7753261    82.928307  0.013738951   0.01242159         3989 
  504000   0.45847738   -7.7882319    83.060667  0.013733576  0.012381396         3988 
  505000   0.45887232   -7.7768748     82.84956  0.013671545  0.012341355         3988 
  506000   0.45883018   -7.7893304    82.906398  0.013653886  0.012301452         3992 
  507000   0.46224359   -7.7837417     82.82978  0.013614362  0.012261719         3992 
  508000   0.45777489   -7.7884896    82.841407   0.01358947  0.012222127         3981 
  509000    0.4593911   -7.8050833    82.995584  0.013588013  0.012182706         3992 
  510000   0.44936538   -7.7878053    82.812488  0.013531452    0.0121435         3994 
  511000   0.44987299   -7.7945152    82.943414  0.013526323  0.012104395         3995 
  512000   0.44593726   -7.7797726     82.83308  0.013481947  0.012065434         3990 
Loop time of 1065.39 on 48 procs for 500000 steps with 4000 atoms

Performance: 81096.860 tau/day, 469.311 timesteps/s
99.4% CPU use with 48 MPI tasks x no OpenMP threads

MPI task timing breakdown:
Section |  min time  |  avg time  |  max time  |%varavg| %total
---------------------------------------------------------------
Pair    | 64.525     | 66.55      | 69.398     |  14.7 |  6.25
Neigh   | 6.5754     | 6.7262     | 6.97       |   3.2 |  0.63
Comm    | 59.258     | 61.984     | 65.465     |  17.8 |  5.82
Output  | 1.0007     | 1.0013     | 1.0113     |   0.1 |  0.09
Modify  | 911.06     | 916.45     | 920.39     |   7.4 | 86.02
Other   |            | 12.68      |            |       |  1.19

Nlocal:        83.3333 ave          90 max          79 min
Histogram: 7 5 8 4 11 4 4 1 2 2
Nghost:        1747.85 ave        1762 max        1732 min
Histogram: 2 0 6 5 8 11 3 5 5 3
Neighs:        10455.1 ave       11584 max        9334 min
Histogram: 1 0 4 11 7 13 8 1 1 2
FullNghs:      20910.8 ave       22788 max       19606 min
Histogram: 4 6 8 4 9 9 3 3 0 2

Total # of neighbors = 1003719
Ave neighs/atom = 250.92975
Neighbor list builds = 27019
Dangerous builds = 0

#clear
#
#next RN
#
#jump SELF
Total wall time: 0:17:48
