
units lj                  # Use reduced LJ style units
atom_style atomic         # Uncharged point particles
atom_modify map hash      # Needed for indexing of clusters etc
                          # Used to be able to find where atoms are in relation to each other.

lattice fcc 1.0 spacing 1 1 1
Lattice spacing in x,y,z = 1.5874011 1.5874011 1.5874011
region box block 0 10 0 10 0 10 units lattice
create_box 2 box
Created orthogonal box = (0.0000000 0.0000000 0.0000000) to (15.874011 15.874011 15.874011)
  3 by 4 by 4 MPI processor grid
create_atoms 1 box
Created 4000 atoms
  using lattice units in orthogonal box = (0.0000000 0.0000000 0.0000000) to (15.874011 15.874011 15.874011)
  create_atoms CPU = 0.019 seconds
set type 1 type/fraction 2 0.27 78393
Setting atom values ...
  1113 settings made for type/fraction
mass 1 1.0
mass 2 1.0
pair_style lj/cut  3.5
pair_modify tail  yes
pair_coeff 1  1  1.0  1.0   # Intearaction between 1 and 1 set with epsilon = 1 and sigma = 1
pair_coeff 1  2  1.5  0.8
pair_coeff 2  2  0.5  0.88

write_data data.0
System init for write_data ...
Neighbor list info ...
  update every 1 steps, delay 10 steps, check yes
  max neighbors/atom: 2000, page size: 100000
  master list distance cutoff = 3.8
  ghost atom cutoff = 3.8
  binsize = 1.9, bins = 9 9 9
  1 neighbor lists, perpetual/occasional/extra = 1 0 0
  (1) pair lj/cut, perpetual
      attributes: half, newton on
      pair build: half/bin/atomonly/newton
      stencil: half/bin/3d
      bin: standard
WARNING: Not all mixed pair coeffs generated from mixing. Use write_data with 'pair ij' option to store all pair coeffs. (../write_data.cpp:312)


#############################
#   M E L T   S Y S T E M   #
#############################

velocity all create 2.4 5300450 mom yes dist gaussian # Assign velocities
                                                    # Temperature 2.4, random number seed, zero linear momentum
                                                                                # Gaussian distribution

timestep 0.002   # simulation timestep
thermo 1000       # output thermodynamic data every 1000 steps bf 100

# Define a fix  in this case with index 1 applied to all
# particles in the simulation. This fix is for simulations
# in the anisotropic NPT ensemble. Note that we use the MTK
# correction.
fix 1 all npt temp 2.4 2.4 0.1 iso 5.68 5.68 0.5 mtk yes tchain 5 pchain 5 # Use NPT ensemble
                                                                         # Set temperature and pressure and damping
                                                                         # Numbers of thermostats in chain and in barostat
run 10000          # run for 10000 steps
Per MPI rank memory allocation (min/avg/max) = 3.642 | 3.644 | 3.648 Mbytes
Step Temp E_pair E_mol TotEng Press Volume 
       0          2.4   -6.6079615            0   -3.0088615   -3.8965289         4000 
    1000    2.3923673   -4.9570027            0    -1.369349    5.3470123    4265.2755 
    2000    2.3758228   -4.9451542            0   -1.3823109    5.5644651    4251.3746 
    3000    2.3257676   -5.0300689            0   -1.5422897    5.4794474    4219.3947 
    4000    2.4291838   -4.9847228            0    -1.341858    5.8228679    4205.9772 
    5000    2.4504292   -4.9833118            0   -1.3085868    5.6171898    4233.6553 
    6000    2.3610338   -5.0136011            0   -1.4729357    5.5861581    4218.6278 
    7000    2.4387219   -4.9544332            0   -1.2972648    5.9549348    4222.2078 
    8000    2.4776182   -4.9216282            0     -1.20613    5.5988249    4260.1667 
    9000    2.3755553   -4.8897122            0   -1.3272701    5.9080579    4250.2239 
   10000    2.4267817   -4.9449448            0   -1.3056823    5.4967084    4265.9054 
Loop time of 2.43178 on 48 procs for 10000 steps with 4000 atoms

Performance: 710590.803 tau/day, 4112.215 timesteps/s
99.6% CPU use with 48 MPI tasks x no OpenMP threads

MPI task timing breakdown:
Section |  min time  |  avg time  |  max time  |%varavg| %total
---------------------------------------------------------------
Pair    | 0.99786    | 1.0913     | 1.3156     |   4.8 | 44.88
Neigh   | 0.20053    | 0.21067    | 0.24142    |   1.4 |  8.66
Comm    | 0.63909    | 0.85827    | 0.97416    |   7.8 | 35.29
Output  | 0.00024561 | 0.00024971 | 0.00031683 |   0.0 |  0.01
Modify  | 0.20053    | 0.25631    | 0.32373    |   7.5 | 10.54
Other   |            | 0.015      |            |       |  0.62

Nlocal:        83.3333 ave          95 max          76 min
Histogram: 6 3 8 7 9 9 2 3 0 1
Nghost:        1568.17 ave        1601 max        1541 min
Histogram: 3 4 4 8 10 5 6 1 5 2
Neighs:        8933.31 ave       10219 max        7697 min
Histogram: 4 2 4 5 9 8 8 3 4 1

Total # of neighbors = 428799
Ave neighs/atom = 107.19975
Neighbor list builds = 908
Dangerous builds = 215

# Equilibrate just above the melting temperature to avoid step fn in T

fix 1 all npt temp 1.25 1.25 0.1 iso 5.68 5.68 0.5 mtk yes tchain 5 pchain 5
run 2000
Per MPI rank memory allocation (min/avg/max) = 3.643 | 3.645 | 3.649 Mbytes
Step Temp E_pair E_mol TotEng Press Volume 
   10000    2.4267817   -4.9449448            0   -1.3056823    5.4967084    4265.9054 
   11000    1.2386701     -6.77171            0   -4.9141693    5.8585812    3420.1699 
   12000    1.2579887    -6.825692            0   -4.9391807    5.5818479    3414.2589 
Loop time of 0.577081 on 48 procs for 2000 steps with 4000 atoms

Performance: 598875.879 tau/day, 3465.717 timesteps/s
99.6% CPU use with 48 MPI tasks x no OpenMP threads

MPI task timing breakdown:
Section |  min time  |  avg time  |  max time  |%varavg| %total
---------------------------------------------------------------
Pair    | 0.24682    | 0.26646    | 0.32285    |   2.8 | 46.17
Neigh   | 0.037008   | 0.039248   | 0.045504   |   0.9 |  6.80
Comm    | 0.16066    | 0.21686    | 0.24172    |   3.9 | 37.58
Output  | 5.2906e-05 | 5.3964e-05 | 6.9368e-05 |   0.0 |  0.01
Modify  | 0.03947    | 0.049652   | 0.060396   |   3.3 |  8.60
Other   |            | 0.004805   |            |       |  0.83

Nlocal:        83.3333 ave          90 max          77 min
Histogram: 3 4 3 9 6 5 9 4 2 3
Nghost:        1823.60 ave        1845 max        1799 min
Histogram: 2 3 3 7 2 8 12 6 4 1
Neighs:        11200.4 ave       12654 max        9913 min
Histogram: 2 2 2 11 14 6 4 5 1 1

Total # of neighbors = 537619
Ave neighs/atom = 134.40475
Neighbor list builds = 143
Dangerous builds = 10

#############################
# L I N E A R  Q U E N C H  #
#############################

# Define solid atoms. This closely follows ten Wolde  Ruiz-Montero and Frenkel  Faraday Discuss  1996  104  93-110
# Compute components of the per-atom q6 vector
compute q6 all orientorder/atom degrees 1 6 components 6 nnn NULL cutoff 1.3 # compute the Q6 parameter.
                                                                             # Use all neighbours within 1.3 unit cell.

# get number of connections
compute coord_number all coord/atom orientorder q6 0.5

# An atom is solid if it has 8 or more connections (of a possible 14)
variable is_solid atom c_coord_number>=8
group solid dynamic all var is_solid    # Must be dynamic to update
dynamic group solid defined

# do clustering
compute cluster solid cluster/atom 1.3 # Create a cluster where all atoms within are solid and max 1.3 units from another member

# define chunks one chunk per cluster
compute clus_chunks solid chunk/atom c_cluster nchunk every compress yes  # Says which atoms are in which chunk

# count the size of each chunk
compute size_chunks solid property/chunk clus_chunks count


# Find the maximum entry in the vector of chunk sizes
variable max_n equal max(c_size_chunks)


# Thermo style which includes this variable
# thermo_style custom step temp pe vol v_max_n

thermo ${N}  # Print the thermo information every 100 steps
thermo 1000  

# Reset the npt fix at a lower temperature (below freezing)
fix 1  all npt temp  ${temp} ${temp}  0.1  iso  5.68  5.68  0.5  mtk yes tchain  5  pchain  5
fix 1  all npt temp  0.45 ${temp}  0.1  iso  5.68  5.68  0.5  mtk yes tchain  5  pchain  5
fix 1  all npt temp  0.45 0.45  0.1  iso  5.68  5.68  0.5  mtk yes tchain  5  pchain  5

dump dmp2 all dcd ${N} traj.dcd
dump dmp2 all dcd 1000 traj.dcd


compute msd all msd com yes
variable twopoint equal c_msd[4]/6/(step*dt+1.0e-6)
fix 9 all vector 10 c_msd[4]
variable fit equal slope(f_9)/6/(10*dt)
thermo_style custom step temp pe c_msd[4] v_twopoint v_fit v_max_n

fix 1 all npt temp 1.25 ${temp} 0.1 iso 5.68 5.68 0.5 mtk yes tchain 5 pchain 5
fix 1 all npt temp 1.25 0.45 0.1 iso 5.68 5.68 0.5 mtk yes tchain 5 pchain 5
run 5000000 # 5000000  # Run for this many steps
Neighbor list info ...
  update every 1 steps, delay 10 steps, check yes
  max neighbors/atom: 2000, page size: 100000
  master list distance cutoff = 3.8
  ghost atom cutoff = 3.8
  binsize = 1.9, bins = 8 8 8
  4 neighbor lists, perpetual/occasional/extra = 1 3 0
  (1) pair lj/cut, perpetual
      attributes: half, newton on
      pair build: half/bin/atomonly/newton
      stencil: half/bin/3d
      bin: standard
  (2) compute orientorder/atom, occasional
      attributes: full, newton on
      pair build: full/bin/atomonly
      stencil: full/bin/3d
      bin: standard
  (3) compute coord/atom, occasional
      attributes: full, newton on
      pair build: full/bin/atomonly
      stencil: full/bin/3d
      bin: standard
  (4) compute cluster/atom, occasional
      attributes: full, newton on
      pair build: full/bin/atomonly
      stencil: full/bin/3d
      bin: standard
Per MPI rank memory allocation (min/avg/max) = 9.804 | 9.811 | 9.816 Mbytes
Step Temp PotEng c_msd[4] v_twopoint v_fit v_max_n 
   12000    1.2579887    -6.825692 1.8469206e-30 1.2825837e-32 8.3333333e+20            2 
   13000     1.223364   -6.8421557   0.50081341 0.0032103422  0.040504702            2 
   14000    1.2237846   -6.7778563   0.95706696 0.0056968269  0.038474495            2 
   15000    1.1961114   -6.7740978    1.4802482 0.0082236009  0.040077762            1 
   16000    1.2525404   -6.8164576    2.0165654  0.010502945   0.04126588            2 
   17000    1.2461824    -6.780659    2.5159231  0.012332956  0.041815185            2 
   18000    1.2466536   -6.7975504    2.9807777  0.013799896  0.042037142            1 
   19000    1.2564912   -6.7691798     3.468543  0.015212908   0.04168485            2 
   20000    1.2497446   -6.7891258     3.909031  0.016287629  0.041396286            2 
   21000    1.2975415   -6.7913497    4.4567251  0.017685417  0.041160866            2 
   22000    1.2438198   -6.8364832    4.8441127  0.018348911  0.040954533            2 
   23000    1.2494616   -6.8344661    5.3053625  0.019222328  0.040587344            1 
   24000    1.2518339   -6.8127161    5.8074381  0.020164715  0.040307197            1 
   25000    1.2145519   -6.8074428    6.3386125  0.021128708   0.04026937            2 
   26000    1.2571772   -6.7945681    6.8099245  0.021826681  0.040234555            1 
   27000    1.2353279   -6.7645804    7.2309273  0.022317676  0.040172044            1 
   28000    1.2671231   -6.7874266    7.6788263  0.022853649  0.040019485            1 
   29000    1.2478618   -6.7532655    8.1538607  0.023430634  0.039894173            1 
   30000     1.252331   -6.8203713    8.6072544   0.02390904  0.039805069            1 
   31000    1.2623045   -6.8140923    9.0295892  0.024273089  0.039700417            2 
   32000    1.2369496   -6.8011412     9.558366  0.024891578   0.03963055            1 
   33000    1.2239917   -6.8303005    9.9481112  0.025121493  0.039544836            2 
   34000    1.2652496   -6.8103237    10.409612  0.025513754  0.039453241            2 
   35000    1.2707669   -6.7869374    10.880076  0.025904943  0.039388112            1 
   36000    1.2409851   -6.8132256    11.400017  0.026388928   0.03934889            1 
   37000    1.2114917    -6.783296     11.86051  0.026712859  0.039302119            2 
   38000    1.2491629   -6.8085286    12.358956  0.027102972  0.039275633            1 
   39000    1.2424696   -6.8274915    12.829738   0.02741397  0.039295154            3 
   40000    1.2489949   -6.7705046    13.387396  0.027890407  0.039305427            1 
   41000    1.2137643   -6.7679259    13.885772  0.028223113    0.0393273            1 
   42000    1.2239361    -6.791978    14.400764  0.028572944  0.039383401            2 
   43000    1.2414252   -6.7624172    14.899917  0.028875809  0.039454874            1 
   44000    1.2642959   -6.7921569     15.35332  0.029078258  0.039530673            1 
   45000    1.2431977   -6.7884766    15.842872  0.029338651  0.039562049            1 
   46000    1.2529734   -6.7399422    16.436704  0.029776637  0.039602479            1 
   47000    1.2546137   -6.8282505    16.793592  0.029775872  0.039653903            1 
   48000     1.223692    -6.768332    17.291756   0.03002041   0.03965758            2 
   49000    1.2548568   -6.8017737    17.772439  0.030225237  0.039688145            2 
   50000    1.2095525   -6.8063225     18.27326  0.030455433  0.039720341            2 
   51000    1.2490325   -6.8086787    18.753218  0.030642513  0.039749922            2 
   52000    1.2352718   -6.7999405    19.257716  0.030861725  0.039779788            1 
   53000     1.252036   -6.7952987       19.939  0.031350629  0.039838287            2 
   54000    1.2519185   -6.8472045    20.413043  0.031501609  0.039903185            1 
   55000    1.2093016   -6.8288328    20.858535  0.031603841  0.039957838            3 
   56000    1.2470222   -6.8620348    21.340902  0.031757294  0.040010529            2 
   57000    1.2682469   -6.8176155    21.878472   0.03198607  0.040079853            1 
   58000    1.2508556   -6.8259487    22.196426  0.031891416  0.040115383            2 
   59000    1.2519318   -6.8047287    22.884025  0.032322069  0.040145362            1 
   60000    1.2263628   -6.8485584    23.280478  0.032333996  0.040181235            1 
   61000    1.2643979   -6.7870488    23.692095   0.03236625  0.040202126            1 
   62000    1.2644737   -6.8082045    24.069871  0.032351976  0.040195582            2 
   63000    1.2503608   -6.7781439    24.660697  0.032619969  0.040193897            2 
   64000    1.2631696   -6.8178462    25.092869  0.032673007  0.040209331            6 
   65000    1.2185707   -6.7963833    25.689181  0.032934847  0.040230669            1 
   66000    1.2354867   -6.7818019    26.146344   0.03301306  0.040251612            3 
   67000    1.2342509   -6.8374094    26.541412  0.033011707  0.040247481            2 
   68000    1.2377425   -6.8311429    26.817223  0.032864243  0.040237182            1 
   69000    1.2228242   -6.7721793    27.373823  0.033060172  0.040216439            1 
   70000     1.218357   -6.7975067     27.78237   0.03307425  0.040192613            1 
   71000    1.2290948   -6.8012931    28.234357  0.033138916  0.040176561            1 
   72000    1.2296744    -6.820021    28.550236  0.033044254  0.040143534            3 
   73000    1.2201599   -6.7951894    29.110784  0.033231488  0.040106683            1 
   74000    1.2485642   -6.7857894     29.76067  0.033514268   0.04008245            2 
   75000    1.2372429   -6.8531461     29.94711  0.033274567  0.040054315            1 
   76000    1.2289698   -6.7808087       30.303  0.033226974  0.039994431            2 
   77000    1.2342159   -6.7775403     30.76844  0.033299177  0.039942612            1 
   78000    1.2234373   -6.8368182    31.200828  0.033334218  0.039889034            3 
   79000    1.2748203   -6.8057871    31.674413  0.033411828  0.039839736            2 
   80000    1.2079454   -6.7621011    32.231679  0.033574665  0.039788817            1 
   81000    1.2071426   -6.8339278    32.735242  0.033678232  0.039756006            1 
   82000    1.2600346   -6.8108597      33.1958  0.033735569  0.039719884            2 
   83000    1.2380311   -6.8110999    33.747166  0.033882697  0.039695875            2 
   84000    1.2573887   -6.8351578    34.357188  0.034084511  0.039677607            1 
   85000    1.2378752   -6.8205566    34.794668   0.03411242  0.039670129            2 
   86000    1.2378436   -6.8000533    35.278698  0.034184784  0.039666365            1 
   87000       1.2156   -6.8062084    35.698804  0.034194256  0.039658112            2 
   88000    1.2539079   -6.8007031    35.945213  0.034039027  0.039639011            3 
   89000    1.2445455   -6.8148066    36.418092  0.034099337  0.039607508            1 
   90000     1.242679   -6.8145362     37.10267  0.034354324  0.039587484            1 
   91000    1.2310189   -6.7926992     37.59006  0.034423131  0.039579495            1 
   92000    1.2241786   -6.8218537    38.097785  0.034508863  0.039569804            1 
   93000    1.2317843   -6.7848755    38.639508  0.034623215  0.039564875            2 
   94000    1.2285967   -6.8045211    38.801709  0.034398678  0.039555692            1 
   95000    1.2463492   -6.7994838    39.417111  0.034576413  0.039539753            1 
   96000    1.2193082   -6.8392897    39.852283  0.034593995  0.039526267            3 
   97000    1.2335586   -6.8352426    40.243838  0.034573743  0.039520531            3 
   98000    1.2242631   -6.8594626    40.644099  0.034561308  0.039512577            4 
   99000    1.2428014    -6.840035      41.3184  0.034779798  0.039502358            1 
  100000     1.252626   -6.8365561    41.589016  0.034657513  0.039489619            2 
  101000    1.2205765   -6.8039937    42.492897  0.035060146  0.039481358            2 
  102000    1.2460939   -6.8190127    43.149313  0.035252706  0.039488594            1 
  103000      1.25119   -6.8603303    43.310425  0.035040797  0.039495961            2 
  104000     1.217949   -6.7973993    44.004271  0.035259833  0.039501979            2 
  105000     1.241657   -6.8008841    44.745323  0.035512161  0.039515993            1 
  106000    1.2201073    -6.823887    44.918137  0.035313001   0.03953098            1 
  107000    1.2278433   -6.7740149    45.725831  0.035612018  0.039549538            1 
  108000    1.2087502    -6.839188    46.220477  0.035663948   0.03957115            4 
  109000     1.215275   -6.8150595    46.805449  0.035783982  0.039599745            2 
  110000     1.236656   -6.7978036    47.190107  0.035750081  0.039623002            2 
  111000     1.214501   -6.7947704    47.542268  0.035692393  0.039640263            1 
  112000    1.2213163   -6.8045906    48.071056  0.035767155  0.039654679            2 
  113000    1.2332068    -6.847362    48.404446  0.035696494  0.039668542            1 
  114000    1.2569057   -6.8176285    48.564019  0.035500014  0.039675956            2 
  115000    1.2296994   -6.8497493    49.299639  0.035724376  0.039683498            1 
  116000    1.2509692   -6.8218982    49.858774  0.035818084  0.039690885            4 
  117000    1.2459778   -6.7929035    50.347422  0.035859987  0.039704334            1 
  118000    1.2380643   -6.8733527    50.716569  0.035816786   0.03971535            3 
  119000    1.2369515   -6.8241757     51.33669  0.035950063  0.039725634            2 
  120000    1.2315565   -6.8307288    51.978169  0.036095951   0.03974068            2 
  121000    1.2549899   -6.8060777    52.456361   0.03612697  0.039759104            2 
  122000    1.2331489   -6.8442603      52.8441  0.036095697  0.039772378            1 
  123000    1.1950518   -6.8181875    53.546994  0.036278451  0.039785336            1 
  124000    1.2513033   -6.8189061     54.23671  0.036449402  0.039802558            1 
  125000    1.2639421   -6.8995765    54.555055  0.036370037   0.03983124            2 
  126000    1.2007217   -6.8171276    55.277762  0.036559366  0.039856505            1 
  127000    1.2266954   -6.8342295    55.322441  0.036300814  0.039877077            4 
  128000    1.2241474   -6.8311279    55.751271    0.0362964  0.039888001            2 
  129000    1.2396529   -6.8240535    56.076315   0.03622501  0.039896999            2 
  130000    1.2085075   -6.8187481    56.646523  0.036311874  0.039901533            4 
  131000    1.2428089   -6.8326663    57.213072  0.036395084  0.039904505            2 
  132000    1.2369519   -6.7906262    57.522414  0.036314655  0.039907604            2 
  133000    1.2446806    -6.801117    57.392627  0.035960293  0.039895255            1 
  134000    1.2362817    -6.829165    57.727416  0.035900134  0.039876909            1 
  135000    1.2462476   -6.8172652     58.22126  0.035939049  0.039856429            1 
  136000    1.2123892   -6.8470003    58.526206  0.035861646   0.03983659            2 
  137000    1.2287699   -6.8372502    59.100748   0.03594936  0.039818415            1 
  138000    1.2481477   -6.8341295    59.366698  0.035849455  0.039797707            1 
  139000    1.2332851   -6.8223046    59.843456  0.035877371  0.039771521            1 
  140000    1.2427367   -6.8188934    60.412218  0.035959653   0.03974928            2 
  141000    1.2133296   -6.8225156    60.908024   0.03599765  0.039730661            1 
  142000    1.2303806   -6.7991439    61.498466  0.036090649  0.039715072            1 
  143000    1.2604686   -6.8310964    62.084945  0.036180038  0.039701123            1 
  144000    1.2206187   -6.8251379    62.887802  0.036393404   0.03969461            3 
  145000    1.2205175   -6.8227909    63.363099  0.036415574  0.039694377            1 
  146000    1.2379572   -6.8775354    63.684973   0.03634987  0.039694346            2 
  147000    1.2498259   -6.8271174    64.458407  0.036541047  0.039692856            2 
  148000    1.2506485   -6.8330861    65.087216  0.036648207  0.039694768            1 
  149000     1.239118   -6.8900987    65.184683  0.036456758  0.039699559            1 
  150000    1.2145981   -6.8532171    65.833411  0.036574117  0.039699352            1 
  151000    1.2347271   -6.8432169    66.480402  0.036688963  0.039702427            2 
  152000     1.232175   -6.8353786    66.741234  0.036590589  0.039704037            1 
  153000    1.2213184    -6.805602    67.308484  0.036660394   0.03970446            1 
  154000    1.2168796   -6.8147678    67.559592   0.03655822  0.039702624            1 
  155000    1.2310342   -6.8466155     67.94467  0.036529392  0.039699131            3 
  156000    1.2308593   -6.8349754     68.66226  0.036678557  0.039693325            2 
  157000    1.2273657   -6.8367226     68.59638  0.036409968  0.039685796            3 
  158000    1.2202442   -6.8414684    69.059906  0.036424001  0.039673759            1 
  159000    1.2275717   -6.8446443    69.512747  0.036432257  0.039661052            1 
  160000    1.2447792    -6.791549    70.050611  0.036484693  0.039650314            1 
  161000    1.2318293   -6.8281232    70.395168  0.036436422  0.039636232            2 
  162000     1.216996   -6.8459656    71.072249  0.036559799   0.03962278            1 
  163000    1.2213171   -6.8713476    71.418557  0.036512554  0.039613708            1 
  164000    1.2300035   -6.8124181    71.930858  0.036550233  0.039605039            2 
  165000    1.2226919   -6.8366685    72.599798  0.036666565  0.039602706            4 
  166000    1.2179221   -6.8196691    73.337345  0.036815936  0.039595253            3 
  167000    1.2263234   -6.8041107    73.261709  0.036557739  0.039587173            1 
  168000    1.2262607   -6.8282774    73.684376   0.03654979  0.039578154            2 
  169000    1.2576509   -6.8071158     74.30751  0.036640784   0.03957051            2 
  170000     1.238424   -6.8287034    74.957926  0.036744081  0.039564421            2 
  171000    1.2186066   -6.8176016    75.596336   0.03684032   0.03955881            3 
  172000    1.2130441   -6.8155887    75.852889  0.036750431  0.039557137            2 
  173000    1.2107323   -6.8015419    76.557882  0.036877593  0.039555483            1 
  174000    1.2596916    -6.867906    76.781862  0.036772922  0.039555883            1 
  175000    1.2539651   -6.8599655    77.594431  0.036949729  0.039555011            2 
  176000    1.1990939   -6.8220282    78.295554  0.037071759  0.039557391            3 
  177000    1.1943385   -6.8251727    78.812512  0.037105702   0.03956178            1 
  178000     1.229012   -6.8004252    79.173459  0.037066226  0.039566923            1 
  179000    1.2254089   -6.8482789    79.287855  0.036912409  0.039566616            2 
  180000     1.225193   -6.8013426    79.741197  0.036917221   0.03956653            2 
  181000    1.2240594   -6.8401233    80.324835  0.036981968  0.039567766            2 
  182000    1.2411078   -6.8372995    80.590117  0.036900237  0.039563844            2 
  183000    1.2279898   -6.8697365    80.914071  0.036846116  0.039557693            2 
  184000    1.2359607   -6.8581978    81.395486  0.036863898  0.039553328            1 
  185000    1.2172097   -6.8640397    81.676937  0.036791413  0.039546112            2 
  186000    1.2459223   -6.8174932    82.170736  0.036814846  0.039538455            2 
  187000    1.2131467    -6.866115    82.384676  0.036713313  0.039526722            1 
  188000    1.2571795   -6.8340934    82.904722  0.036748547  0.039514849            1 
  189000    1.2347798   -6.8527749    83.157821  0.036665706  0.039501178            4 
  190000    1.2164664    -6.830694    83.580674   0.03665819  0.039485139            1 
  191000    1.2167848   -6.8971554    83.878277  0.036596107  0.039472578            4 
  192000    1.2358042   -6.8808776    84.358325  0.036613856  0.039456602            2 
  193000    1.2119606   -6.8437009    84.889576   0.03665353   0.03943892            2 
  194000    1.2241351   -6.8649505    85.040126  0.036529263  0.039420663            1 
  195000    1.2234893   -6.8469891      85.6236  0.036591282  0.039402591            1 
  196000    1.2402397   -6.8544109    86.446515   0.03675447  0.039386448            1 
  197000    1.2157345   -6.8747947    86.596528  0.036631357  0.039370362            1 
  198000    1.2044656   -6.8777013    86.963475  0.036600789  0.039355384            3 
  199000    1.2069597   -6.8705044    87.720611  0.036733924  0.039340232            1 
  200000    1.2285677   -6.8104388    88.434581  0.036847742  0.039328184            2 
  201000    1.2321353   -6.8505442    88.778634  0.036807062  0.039315564            1 
  202000    1.2231711   -6.8619163    89.071692  0.036745747  0.039303718            1 
  203000    1.1871349   -6.8468901    89.512377  0.036745639  0.039291242            1 
  204000    1.2203947   -6.8911282    90.050131  0.036785184  0.039280257            2 
  205000    1.2274038   -6.8725323    90.580716  0.036821429  0.039271218            1 
  206000    1.2384623   -6.8533998     91.02787  0.036823572  0.039264261            2 
  207000    1.2159295   -6.8698957    91.605136  0.036878074  0.039254756            2 
  208000    1.2158818    -6.856388     91.91812   0.03682617  0.039246232            1 
  209000    1.2382095   -6.8225022    92.621066   0.03693025  0.039237519            2 
  210000    1.2342834    -6.876142    92.805872  0.036827727  0.039226564            2 
  211000    1.2047453   -6.8576529    92.605048  0.036573874   0.03921161            1 
  212000    1.2192308   -6.8592419    93.442591  0.036730578  0.039196107            2 
  213000    1.1980204    -6.835715    93.623633  0.036628964  0.039179689            1 
  214000    1.1995364   -6.8394884    94.427491   0.03677083  0.039164096            1 
  215000    1.2232985   -6.8083663    94.661253  0.036690408  0.039148617            2 
  216000    1.2162523   -6.8544687     95.20829  0.036731593  0.039135127            2 
  217000    1.2175236   -6.8765995    95.476401  0.036665284  0.039120359            2 
  218000    1.2439002   -6.8381928    95.835036  0.036634188  0.039105891            1 
  219000    1.1998928   -6.8396393    96.318463  0.036650861  0.039089848            1 
  220000    1.1879699   -6.8490813    96.818174  0.036673551  0.039072959            1 
  221000    1.2436712   -6.8578024    96.822688  0.036509309  0.039053321            3 
  222000    1.2027083   -6.8260014    97.288796  0.036519818  0.039032173            1 
  223000    1.2123019   -6.8060679    97.991495  0.036618645  0.039012005            1 
  224000    1.2307128   -6.8729812    98.159102  0.036517523  0.038994523            2 
  225000    1.2039304   -6.8601262    98.691635  0.036552457  0.038976185            2 
  226000    1.1881358   -6.8019721    99.093459  0.036538886  0.038958502            1 
  227000    1.2108586   -6.9037271    99.544205  0.036543394   0.03894089            2 
  228000     1.189238   -6.8799401    99.767983  0.036464906  0.038921206            1 
  229000    1.2068285   -6.8618534    100.95512   0.03673767  0.038903742            2 
  230000    1.2098605   -6.8399407    100.98178  0.036587602  0.038888641            1 
  231000    1.2188638   -6.8944058    101.43322  0.036592072  0.038873355            3 
  232000    1.2077215    -6.887258    101.89665  0.036600809  0.038856851            3 
  233000    1.2017376   -6.8605343    102.25107  0.036570483  0.038842332            1 
  234000    1.2041465   -6.8774596    102.50053  0.036503036  0.038828073            2 
  235000    1.2216463   -6.8675701    103.16606  0.036583708  0.038811604            2 
  236000    1.2393345   -6.8310819    103.65825  0.036602491  0.038795707            1 
  237000    1.1950671   -6.8507491    104.02721  0.036577782  0.038779915            1 
  238000    1.2118485   -6.8695537    104.34872  0.036536668  0.038762897            1 
  239000    1.2098022   -6.8822803    104.56159  0.036458016  0.038747104            2 
  240000    1.2369235    -6.829739    104.98254   0.03645227   0.03872957            1 
  241000    1.2316531   -6.8819155    105.30308  0.036411854  0.038711917            1 
  242000    1.2319117   -6.9061938    105.78837  0.036428503  0.038694225            1 
  243000    1.1994645   -6.8921074    106.38783  0.036484166  0.038676972            2 
  244000    1.2119553   -6.8549832    106.62077  0.036414197  0.038660177            2 
  245000    1.1916778   -6.8501335    107.08225  0.036422533  0.038640735            2 
  246000    1.2398377   -6.8470874    107.46969   0.03640572  0.038622438            1 
  247000    1.2223487   -6.8841188    107.91203  0.036407568  0.038604724            1 
  248000    1.2045465   -6.8952536    107.95841  0.036276347  0.038584905            2 
  249000    1.1779035   -6.9249136    108.10337  0.036179174  0.038566016            1 
  250000    1.1828379   -6.8838362    109.09761   0.03636587  0.038547099            2 
  251000     1.209015   -6.9084652    109.47862  0.036347482  0.038529133            1 
  252000    1.2220553   -6.8807071    110.05674  0.036394425  0.038512486            1 
  253000    1.2105657   -6.8775277    111.01715  0.036566915  0.038498727            1 
  254000    1.2454784   -6.8902036    111.36262  0.036536293  0.038487807            2 
  255000    1.2137361   -6.8360324    112.70253  0.036830893  0.038479095            5 
  256000    1.2119665   -6.8774253    112.60523  0.036655349  0.038469805            5 
  257000    1.2335406    -6.877523    113.28577  0.036733388  0.038460792            2 
  258000    1.2004819   -6.8892519    113.61898  0.036698636  0.038453823            2 
  259000    1.2206971   -6.8857019    114.10438   0.03671312  0.038446644            1 
  260000     1.205779   -6.8936061    114.86663  0.036816229  0.038439742            1 
  261000    1.1981329   -6.9006656    115.15802  0.036768207  0.038434682            1 
  262000    1.2421206   -6.8934383    115.81877  0.036838031  0.038430535            2 
  263000    1.2252075   -6.8858411    116.11905  0.036793108  0.038425469            1 
  264000    1.1978605   -6.8723865    116.14522     0.036662  0.038420963            1 
  265000    1.2257068   -6.8650621    116.91343  0.036765229  0.038414415            2 
  266000    1.1833914   -6.9054536     117.0616  0.036673435  0.038405638            3 
  267000    1.2020696   -6.8805253    117.76892  0.036756843  0.038397165            2 
  268000    1.2052938   -6.8688202    117.89004   0.03665735  0.038390732            1 
  269000    1.2012363   -6.8814544    118.27469   0.03664024  0.038382368            2 
  270000     1.214752   -6.8512666    118.60239  0.036605674  0.038373735            2 
  271000    1.2139448   -6.9097172    119.08972  0.036620454  0.038363997            1 
  272000    1.1874054   -6.9186525    119.47862  0.036604968  0.038353774            2 
  273000    1.2247875   -6.8676951    120.26682  0.036711484  0.038345137            1 
  274000    1.2235026   -6.8685235    120.68967  0.036706104  0.038335727            1 
  275000     1.210621   -6.8758761    121.15384  0.036713285  0.038327313            1 
  276000    1.2334816   -6.8886328     121.5664   0.03670483  0.038320381            2 
  277000    1.1876841   -6.8353028    122.71397  0.036917561  0.038313256            2 
  278000    1.1868348    -6.871407     122.1562  0.036617565  0.038307193            2 
  279000    1.1855377   -6.8643421     123.4629  0.036876614  0.038300423            1 
  280000    1.1983924   -6.8847147    123.46748  0.036746273  0.038293153            1 
  281000    1.2088084    -6.895472    124.18846  0.036829319  0.038287443            4 
  282000     1.211264   -6.8526006     124.6401  0.036832181   0.03828248            2 
  283000    1.2035574   -6.9056984    125.34101  0.036908425  0.038276098            1 
  284000    1.2098344   -6.8821916    125.21856  0.036742534  0.038269182            2 
  285000    1.2101392   -6.8894242     125.9856  0.036837895  0.038263041            1 
  286000    1.2201247   -6.8611565    126.31476     0.036805  0.038257564            1 
  287000    1.1935723   -6.8579409    126.60019  0.036759638  0.038251799            1 
  288000    1.1803635   -6.8508707    127.36074  0.036852065  0.038245966            4 
  289000    1.1925166   -6.8779137    127.81126  0.036854457  0.038240399            1 
  290000    1.2211751   -6.8466243    128.27849  0.036861634  0.038234599            2 
  291000    1.1810551   -6.8669629    128.65042  0.036841471  0.038229582            1 
  292000    1.2200053   -6.8290559     129.6817  0.037009618  0.038226445            4 
  293000    1.2094126   -6.8325045    129.74788  0.036902128  0.038223396            2 
  294000    1.1908422   -6.9006274    129.54363  0.036718716  0.038218824            3 
  295000    1.2074763    -6.898603    130.53282  0.036873679  0.038214654            1 
  296000    1.1696448   -6.8877546    131.17035  0.036928588  0.038209938            1 
  297000    1.2150168    -6.858852    131.29794  0.036840052   0.03820523            1 
  298000    1.2087684   -6.8606003     131.6633  0.036818595   0.03819892            1 
  299000    1.2141306   -6.9082987    131.57491  0.036670823  0.038191749            1 
  300000    1.2003231   -6.8227442    132.47574  0.036798818  0.038184206            1 
  301000     1.224288   -6.8957769    132.10826  0.036574821  0.038175492            1 
  302000    1.2072949   -6.8554461    132.79198  0.036642379   0.03816591            2 
  303000    1.1956713   -6.8756512    133.59107  0.036741218  0.038157315            1 
  304000    1.2104112   -6.8372747      133.846  0.036690242  0.038148185            3 
  305000    1.2302771   -6.8922106    133.67054  0.036522007  0.038138568            1 
  306000    1.2187996   -6.9073684    133.69873  0.036410331   0.03812743            1 
  307000    1.1852983    -6.870551    134.50865  0.036511576  0.038115961            1 
  308000    1.1832652   -6.9231352    134.55546  0.036405698  0.038104359            2 
  309000    1.2025628   -6.8786754    134.93282  0.036389649  0.038093155            2 
  310000    1.1779557    -6.936237    135.70497  0.036479831  0.038081644            3 
  311000    1.1948045   -6.8978427    136.69843  0.036628734  0.038070222            3 
  312000    1.1917283   -6.9604691    136.34896  0.036417991   0.03805935            2 
  313000    1.1888177   -6.9011771    136.68561  0.036391269  0.038048985            3 
  314000    1.2151688   -6.8564615     137.7344  0.036553716  0.038038758            2 
  315000    1.1851976   -6.9111886    138.40073   0.03661395  0.038028688            1 
  316000    1.2252787   -6.8955172     138.6176  0.036555274   0.03801901            4 
  317000    1.2270031   -6.8979532    139.02826  0.036547912  0.038008964            3 
  318000    1.2158713    -6.915089    139.47139  0.036549106  0.038000311            2 
  319000    1.2121719   -6.8880048    139.58095  0.036463154  0.037992434            2 
  320000    1.2268283    -6.917954    139.78998  0.036403642  0.037983461            1 
  321000    1.1959124   -6.9281087      140.745  0.036538162  0.037973896            1 
  322000    1.2056407   -6.8541543    140.71183  0.036416104   0.03796309            1 
  323000    1.2205343   -6.9121833    141.55558  0.036521047  0.037952351            1 
  324000     1.200486   -6.8863569    141.22539  0.036323402  0.037941257            5 
  325000    1.1927431   -6.9057098    142.19247  0.036459609  0.037929707            1 
  326000    1.2181951   -6.8767893    142.41644  0.036405021  0.037919176            1 
  327000    1.1979151   -6.8662189    143.87692  0.036665882  0.037909441            3 
  328000    1.1931417   -6.8792151     144.1763  0.036630158  0.037902044            3 
  329000    1.1757679   -6.9119163    143.95918  0.036463824  0.037893425            2 
  330000    1.1916013   -6.9143923    144.24615  0.036425794  0.037884405            2 
  331000     1.174448   -6.8897538    144.89668  0.036479526  0.037875928            2 
  332000    1.1820088   -6.8387734    145.24594  0.036457313  0.037868121            2 
  333000    1.2021891    -6.919368    145.98813  0.036533566  0.037861067            2 
  334000    1.2129062   -6.9012986    146.54823   0.03656393  0.037854367            1 
  335000    1.2071592     -6.89291    146.76349  0.036508331  0.037846757            1 
  336000    1.1981584    -6.911549    147.73104  0.036639642  0.037839754            1 
  337000    1.2011322   -6.9401597    147.69647  0.036522373    0.0378326            1 
  338000    1.1920145   -6.8883339    148.30251  0.036563736  0.037824838            3 
  339000    1.1938355    -6.886112     148.8707  0.036595551  0.037817488            1 
  340000    1.2100063   -6.8919162    149.29253  0.036591307  0.037810288            2 
  341000    1.2238302   -6.8985411    149.02838  0.036419448   0.03780421            1 
  342000    1.1814605   -6.9187629    149.65611  0.036465913  0.037796575            2 
  343000    1.1920825   -6.8802701    150.54443   0.03657542  0.037788255            3 
  344000    1.1992218   -6.9109897    150.20861  0.036387744  0.037780574            3 
  345000    1.2075442   -6.8486508    151.20963  0.036524065  0.037772156            2 
  346000    1.2080218    -6.894819    151.70456  0.036537708   0.03776533            1 
  347000    1.2037078   -6.8615633    152.33432  0.036583651  0.037757735            3 
  348000    1.2033977   -6.9209726    152.59434   0.03654079  0.037751417            2 
  349000    1.2002187   -6.8710934    153.29294    0.0366029  0.037744924            2 
  350000    1.2061946   -6.8629913     153.9708  0.036659714  0.037738609            1 
  351000    1.1771795   -6.9436138    153.70711  0.036492667  0.037731833            1 
  352000     1.173402   -6.8793413    154.95997  0.036685599  0.037725824            1 
  353000    1.1988458   -6.9100024    154.93384  0.036575506  0.037719903            1 
  354000    1.1587568   -6.8783287    155.54834  0.036616841  0.037713725            2 
  355000    1.2181631   -6.9051641    155.84461  0.036583242  0.037707065            2 
  356000     1.190535   -6.8900212    156.37616  0.036604907  0.037700336            4 
  357000    1.2099482   -6.9205899    156.30318  0.036485335  0.037693986            2 
  358000    1.2281841   -6.8760918    157.59648   0.03668447   0.03768812            1 
  359000    1.1930922   -6.8567174    157.90727  0.036654428  0.037682374            1 
  360000    1.1912071   -6.8989279     157.8808  0.036546481  0.037676771            1 
  361000    1.1941499   -6.8533243    158.91286  0.036683487  0.037670462            6 
  362000    1.2040066   -6.9139333     158.3551  0.036453752  0.037663664            1 
  363000    1.1797682   -6.8872272     159.4177  0.036597268  0.037657818            1 
  364000    1.1810762   -6.9270055    159.48731  0.036512662  0.037651828            3 
  365000    1.1793307   -6.9486052    159.59662  0.036437585  0.037646124            1 
  366000    1.1664051   -6.9176358    160.68175  0.036585097  0.037640297            1 
  367000    1.2018318    -6.884485    161.41232  0.036651299  0.037635891            1 
  368000    1.1970518   -6.8988218    162.06793  0.036700166  0.037631033            2 
  369000    1.2003074   -6.9120986    162.14914  0.036619047  0.037625812            1 
  370000    1.1648279   -6.9025317    162.48366  0.036595419  0.037621101            1 
  371000    1.1879001   -6.9091183    162.56936  0.036516028  0.037616058            1 
  372000    1.1863379   -6.8962397    163.13941  0.036545567  0.037610784            1 
  373000    1.1896046   -6.8840869    163.66181  0.036564301  0.037605283            4 
  374000    1.2125361   -6.9496212    164.21874  0.036590629  0.037599466            1 
  375000    1.2259164   -6.8628709    164.73789  0.036608421  0.037593707            2 
  376000    1.2056917   -6.9184758    165.07794  0.036586423  0.037589229            1 
  377000    1.1977707   -6.8749098    164.80833   0.03642978  0.037583272            2 
  378000    1.1751846   -6.9222215    165.21006   0.03642197  0.037576654            3 
  379000    1.2092623   -6.8517986    165.88112  0.036473422  0.037570065            2 
  380000     1.174232   -6.9014375    166.68016  0.036552666  0.037564389            1 
  381000    1.2205361   -6.9092798    166.82919  0.036489324  0.037558209            4 
  382000    1.1951991   -6.9510948    166.42954  0.036306619  0.037551222            1 
  383000    1.2204444   -6.9423287    167.22072  0.036383969  0.037542964            3 
  384000    1.1870643   -6.9257027     167.4336  0.036335416  0.037534792            3 
  385000    1.1895775   -6.9201359    168.29795  0.036428128  0.037527037            2 
  386000    1.1803027   -6.9120304    168.28251  0.036330421  0.037519195            1 
  387000    1.1913691   -6.9624875    168.71292  0.036329224   0.03751167            2 
  388000    1.2128329   -6.9147174    169.20975    0.0363423  0.037503117            3 
  389000    1.1964081   -6.8913769    169.93903  0.036405104   0.03749554            3 
  390000    1.1898206   -6.9113838    170.07809  0.036341472  0.037487974            1 
  391000    1.1759708   -6.9090414    171.07489  0.036460974  0.037481346            2 
  392000    1.1945178   -6.8776253    171.25622   0.03640651  0.037475278            3 
  393000    1.1882826    -6.915257    171.51474  0.036368689  0.037468006            1 
  394000    1.1505948   -6.8852558    172.57935  0.036501553  0.037462257            1 
  395000    1.1730763   -6.9700511    172.40023  0.036371356  0.037456727            2 
  396000    1.1951027   -6.9441066    173.07997  0.036422552    0.0374504            2 
  397000    1.1828579   -6.9302997    173.47186  0.036413069  0.037444677            1 
  398000    1.1820348    -6.930384    174.23799   0.03648199  0.037439712            2 
  399000    1.1901033   -6.9404856     174.7665   0.03650094  0.037434932            1 
  400000    1.1527427   -6.9438784    175.17583  0.036494964  0.037430079            1 
  401000    1.1834223   -6.9335423     174.9078  0.036348254  0.037424705            1 
  402000    1.1996267   -6.9399986    174.95356  0.036267322  0.037418355            1 
  403000    1.1990157   -6.9162831    176.47211  0.036491338  0.037411968            3 
  404000    1.1938181   -6.9471428    176.10806   0.03632592  0.037405721            1 
  405000    1.1665822   -6.9036713    177.10768   0.03644191  0.037399311            1 
  406000     1.198731   -6.8990518    177.38584  0.036409245  0.037392882            2 
  407000    1.1782475   -6.9071679    177.51098   0.03634541  0.037385944            2 
  408000    1.1826151   -6.9157424    177.18867  0.036190495   0.03737825            1 
  409000    1.1771633   -6.9232045    178.55153  0.036379692  0.037370917            2 
  410000    1.1869512   -6.8954425    179.19366  0.036421476  0.037364535            1 
  411000     1.188317    -6.934131    178.72314  0.036237457  0.037356915            1 
  412000    1.1758709   -6.9121745    179.35834  0.036277982  0.037348757            1 
  413000    1.1690673   -6.8989265    179.88402  0.036296212  0.037340621            1 
  414000    1.1653695    -6.937871    179.84953  0.036201596  0.037332626            2 
  415000    1.1721299   -6.9387374     181.0088  0.036347148   0.03732395            1 
  416000    1.1901963   -6.8679146    181.39343  0.036336825  0.037317085            1 
  417000    1.1713671   -6.8822981    181.73774  0.036318492  0.037308806            1 
  418000    1.1802615   -6.9201914    181.39485  0.036163247  0.037300503            1 
  419000    1.1937416   -6.9041185    182.55989  0.036308649  0.037292162            2 
  420000    1.1580733    -6.904291    182.86942  0.036283616  0.037284677            1 
  421000    1.1804893   -6.9076076    183.43493  0.036309368    0.0372777            1 
  422000    1.1858671   -6.8866334    184.94862  0.036522239  0.037270725            3 
  423000    1.1655589   -6.9088903    184.34364  0.036316714  0.037264673            1 
  424000    1.1925598   -6.9189922    184.36905  0.036236055  0.037257835            1 
  425000    1.1928363   -6.9185265    185.91869  0.036454646  0.037252052            1 
  426000     1.164324   -6.9425556    185.37048   0.03626183  0.037246908            2 
  427000    1.1831479   -6.9166936    186.10311  0.036319889  0.037241498            2 
  428000    1.1690595   -6.9235204    186.75284  0.036361533  0.037236575            2 
  429000    1.1618447   -6.9765281    186.58592  0.036244352  0.037230871            1 
  430000    1.1725965   -6.9742958    187.78364  0.036392179  0.037225337            1 
  431000    1.1686852   -6.9361415     188.2157   0.03639128  0.037219931            2 
  432000    1.1878984   -6.9628575     188.3354  0.036330131   0.03721534            2 
  433000    1.1800201   -6.9337845     189.6247  0.036494361  0.037210667            2 
  434000    1.1670425   -6.9612154    189.93747  0.036470328  0.037207613            1 
  435000    1.1925424    -6.932777    190.60745  0.036514837  0.037204451            5 
  436000    1.1795068     -6.93716    191.17863  0.036540258  0.037201948            3 
  437000    1.1625842   -6.9590403    191.31948  0.036483502  0.037198748            1 
  438000    1.1633075   -6.9383866    191.10151  0.036358735  0.037195076            1 
  439000    1.1986903   -6.9006828    191.67187  0.036384181  0.037191687            1 
  440000     1.176913   -6.9667301    193.01291  0.036555475  0.037188678            1 
  441000     1.171555   -6.8903325    193.81897  0.036624899  0.037185861            1 
  442000    1.1805714   -6.9052301    193.39436  0.036461984   0.03718334            2 
  443000    1.1875176   -6.9287337    193.38551  0.036378013  0.037179761            1 
  444000    1.1882494   -6.9251866    193.92016  0.036396427  0.037176261            3 
  445000    1.1804582   -6.9470145    193.88225  0.036307538  0.037172377            2 
  446000    1.1609091   -6.9271044    194.24461  0.036293836  0.037168005            1 
  447000    1.1654586   -6.9796154    194.82063  0.036320027   0.03716401            1 
  448000    1.1760848   -6.9480373    195.91278  0.036442109  0.037159832            1 
  449000    1.1544464   -6.9361914    197.15559  0.036591609  0.037156689            1 
  450000     1.191968    -6.955145    196.10477  0.036315699  0.037153406            1 
  451000    1.1747062   -6.9421007    196.58772  0.036324412  0.037149326            1 
  452000    1.1534714   -6.9471026    196.99376  0.036318908  0.037145763            1 
  453000    1.1730489    -6.911203    198.08255  0.036439027  0.037141703            3 
  454000     1.144903   -6.9478081    197.97633  0.036339267  0.037137671            2 
  455000    1.1452757   -6.9484197    198.97294  0.036441931  0.037133741            2 
  456000    1.1646511   -6.9219517    199.59209  0.036475163  0.037130113            5 
  457000    1.1831987   -6.9402065    198.94881  0.036278048   0.03712609            1 
  458000    1.1766921   -6.9758259    199.20639  0.036245704   0.03712111            1 
  459000    1.2005865   -6.9378185    199.16926  0.036159996  0.037114753            2 
  460000    1.1606842   -6.9026872    199.49267  0.036139976  0.037108394            1 
  461000    1.1789738   -6.9314477    200.05661  0.036163523  0.037100964            1 
  462000    1.1839134    -6.940381    200.70431  0.036202075  0.037094007            1 
  463000    1.1841824   -6.9231594    200.83979   0.03614827  0.037086745            2 
  464000    1.1969879   -6.9913327    200.47143  0.036004208  0.037078875            2 
  465000    1.1657819   -6.9278942    201.71199  0.036149103  0.037071444            1 
  466000    1.1564101   -6.9817172    201.43933  0.036022771  0.037063931            1 
  467000    1.1698657   -6.9617717    201.43274  0.035944458   0.03705575            2 
  468000    1.1688928    -6.981657    202.14463  0.035994414  0.037047008            2 
  469000    1.1817868   -6.9600584     202.1025  0.035910181  0.037038069            1 
  470000    1.1842484   -6.9132869    203.98071  0.036166792  0.037029728            2 
  471000    1.1593935   -6.9194216    203.85034  0.036066938  0.037022023            1 
  472000    1.1750898   -6.9710259    204.06874  0.036029086  0.037014493            2 
  473000    1.1790811   -6.9234552    205.14172  0.036141952  0.037007267            1 
  474000    1.1886129   -6.9122569    205.82201  0.036185305  0.037000111            2 
  475000    1.1633091   -6.9324296     204.7981  0.035929492  0.036993151            2 
  476000    1.2100446   -6.9102267    205.66431  0.036005656  0.036985754            3 
  477000    1.1726791   -6.9935455    205.87781  0.035967473  0.036978073            3 
  478000     1.204162   -6.9432146    206.71627  0.036038401  0.036970764            2 
  479000    1.1780922   -7.0013371    206.69251   0.03595903  0.036964225            2 
  480000    1.2069334   -6.8903803    208.99763   0.03628431  0.036958399            5 
  481000    1.1825693   -6.9203436    208.87401  0.036187459  0.036952783            3 
  482000    1.1876897    -6.930443    208.33986  0.036020032  0.036946849            2 
  483000    1.1695268   -6.9790529    208.54998  0.035981708  0.036940613            2 
  484000    1.1659784   -6.9460983    209.89656  0.036139215  0.036933896            2 
  485000     1.163172   -6.9341467    209.85328  0.036057264  0.036927398            2 
  486000    1.1337332   -6.9936009    210.42022  0.036080284  0.036920896            1 
  487000    1.1735827    -6.949764    210.19065  0.035966914  0.036914224            1 
  488000    1.1549645   -6.9305625    211.07037  0.036043438  0.036906976            2 
  489000    1.1814684   -6.9300225    210.76294  0.035917338  0.036899547            1 
  490000    1.1543831   -6.9418191    211.88799  0.036035372  0.036891665            4 
  491000    1.1873771    -6.938209     212.3919  0.036047505  0.036884858            2 
  492000     1.174975   -6.9562106    211.64042  0.035846954   0.03687728            1 
  493000    1.1614488   -6.9320777    211.68181  0.035781238  0.036868048            1 
  494000    1.1688845   -6.9736681    212.97009  0.035926129  0.036859151            1 
  495000    1.1603268   -6.9360419    212.49735  0.035773965  0.036850467            1 
  496000    1.1758262    -6.949989    213.42336  0.035857419  0.036842022            1 
  497000    1.1840184   -6.9644853    213.86924  0.035860033  0.036833459            1 
  498000    1.1714641   -6.9365808    214.33496  0.035865957  0.036825454            2 
  499000    1.1702321    -6.982969    214.15525  0.035764069  0.036817011            2 
  500000    1.1719677   -6.9345649    215.50402  0.035917337  0.036808853            1 
  501000     1.193529   -6.9410302    215.68506  0.035875759  0.036801344            2 
  502000    1.1738226   -6.9459682    215.73054  0.035811842  0.036793645            1 
  503000    1.1670479   -6.9759089    215.77623  0.035748216  0.036784956            1 
  504000    1.1500886   -6.9911919    216.58549  0.035811093  0.036776714            2 
  505000    1.1723507   -6.9729584    216.59491  0.035741734  0.036769098            2 
  506000    1.1929239   -6.9397398    217.97094  0.035897717  0.036761132            1 
  507000    1.1923093   -6.9810781    217.43901  0.035739482  0.036753092            2 
  508000    1.1681481   -6.9371001    218.33561   0.03581621  0.036745085            1 
  509000    1.1835027   -6.9497691    218.61906   0.03579225  0.036736963            1 
  510000    1.1871733   -6.9546815    219.25862  0.035826572  0.036728788            2 
  511000    1.1608512   -6.9270345    219.26224  0.035757052  0.036720017            1 
  512000    1.1575413   -6.9777358    218.54688  0.035570782  0.036711068            1 
  513000    1.1647836   -6.9248007    220.33785  0.035792373  0.036702255            1 
  514000    1.1719272   -6.9672023    219.99676  0.035667439  0.036693526            2 
  515000    1.1712937   -6.9641496    220.41925  0.035666545  0.036684778            4 
  516000     1.161654   -6.9359673    221.61777  0.035790983  0.036676582            1 
  517000    1.1609414   -6.9423304    222.69544   0.03589546  0.036668286            2 
  518000    1.1823878   -6.9516362    221.51293  0.035635928  0.036659986            2 
  519000    1.1644906   -6.9201819    222.59198  0.035740523  0.036651496            2 
  520000    1.1824012   -6.9641265    221.85152  0.035553129  0.036642876            2 
  521000    1.1434194   -6.9235283    223.20649  0.035701615  0.036633998            2 
  522000    1.1540605   -6.9050735     224.1058  0.035776788  0.036625857            2 
  523000    1.1693416   -6.9234001    224.26372  0.035733543  0.036617829            1 
  524000    1.1498067   -6.9355637    225.05639  0.035791411  0.036609452            1 
  525000    1.1658338   -6.9501273    224.22126  0.035590676  0.036601247            1 
  526000    1.1631452   -6.9609774    224.97397  0.035642265  0.036592543            3 
  527000    1.1653989    -6.952581    225.73829  0.035695492   0.03658352            1 
  528000    1.1678757   -6.9225599    225.67224  0.035617462   0.03657468            3 
  529000    1.1569924   -6.9684155    225.82421  0.035574072   0.03656536            2 
  530000    1.1775783   -6.9734576    226.19517  0.035565278  0.036556006            4 
  531000    1.1335579   -7.0006134    226.26853  0.035509813  0.036546909            1 
  532000    1.1401719   -6.9146307    227.06068  0.035567148  0.036538544            2 
  533000    1.2091569   -6.9826475    227.98921  0.035645592   0.03653019            3 
  534000    1.1707515   -6.9366256    228.59448  0.035673296  0.036522163            1 
  535000    1.1672974   -6.9676306    228.83442  0.035643991  0.036514471            2 
  536000    1.1552153   -6.9637514    229.96578  0.035753386  0.036507017            2 
  537000    1.1670222   -6.9563652    230.06127  0.035701625  0.036499642            1 
  538000    1.1783715   -6.9689525    229.98524  0.035623487  0.036491883            1 
  539000    1.1437549   -6.9422753    230.16135  0.035584624  0.036484041            2 
  540000    1.1675965   -7.0072935    231.17498  0.035675152  0.036476035            1 
  541000    1.1365356   -6.9731234    231.20087  0.035613196  0.036468117            3 
  542000     1.168937   -6.9968179    232.08438   0.03568333  0.036460268            2 
  543000    1.1791613   -6.9535749    233.24806  0.035796203  0.036452768            1 
  544000    1.1753064   -6.9316296    233.80558  0.035815806  0.036446692            1 
  545000    1.1369317   -6.9712264    233.10633   0.03564317  0.036440927            1 
  546000    1.1420274   -6.9473728    234.35551  0.035768546  0.036434563            2 
  547000    1.1693519   -6.9608145    235.27859  0.035843783  0.036428616            1 
  548000    1.1433291   -6.9407354     234.4943   0.03565911  0.036422227            1 
  549000    1.1618262   -6.9839685    235.22547  0.035705141  0.036415917            1 
  550000    1.1590363   -7.0117061    234.83115  0.035580477  0.036409465            3 
  551000     1.171276   -6.9680231    236.11469  0.035710026  0.036402667            4 
  552000    1.1640669   -7.0031099    236.63917  0.035724513  0.036396431            5 
  553000     1.174035   -6.9720704    237.11485  0.035731592  0.036390777            3 
  554000    1.1716122   -6.9943178    236.91862  0.035637578  0.036384693            1 
  555000    1.1723126   -6.9823898    238.04878  0.035743061  0.036378959            4 
  556000    1.1596274   -6.9568803    238.06459  0.035681144  0.036372997            1 
  557000    1.1472197   -6.9478197    238.71551  0.035714469  0.036367152            1 
  558000     1.157681   -6.9712667    238.64393  0.035639775  0.036360492            1 
  559000    1.1439982   -7.0151467     238.0408  0.035486106  0.036353202            3 
  560000    1.1737796   -7.0035259    239.21133  0.035596924  0.036345492            1 
  561000    1.1443058   -6.9217234    240.20426  0.035680965  0.036338685            1 
  562000    1.1639011   -7.0179806    239.87829  0.035569141  0.036331916            1 
  563000     1.167752   -6.9760269    240.25563  0.035561816  0.036324492            1 
  564000     1.176439   -6.9660427    240.62606  0.035553495  0.036317229            2 
  565000    1.1722925   -6.9821757    241.48816  0.035617723  0.036309769            1 
  566000    1.1593475   -6.9861772    242.07164  0.035640701  0.036302867            3 
  567000    1.1660187   -6.9849448    241.70178  0.035523483  0.036295867            2 
  568000    1.1759509   -6.9842139    242.29738  0.035548324  0.036288609            1 
  569000    1.1655538   -6.9759911    243.26102  0.035626981  0.036281494            1 
  570000    1.1752194   -7.0043485    242.22046  0.035412348  0.036274028            2 
  571000    1.1564562   -6.9851609    242.87543  0.035445918  0.036266389            2 
  572000    1.1465909   -6.9438417    243.58824  0.035487798   0.03625868            1 
  573000    1.1538144   -6.9757848    244.45103  0.035551342   0.03625114            2 
  574000    1.1622853   -6.9820074    244.43271  0.035486746  0.036243751            1 
  575000    1.1588721   -6.9882222    243.62198  0.035307533  0.036236757            2 
  576000     1.145137   -6.9774734    244.98512  0.035443449  0.036229368            2 
  577000    1.1425227   -6.9691471    245.78692  0.035497822  0.036222188            1 
  578000    1.1391233   -6.9753001    246.12894  0.035485718  0.036214792            2 
  579000    1.1182331   -6.9701566     246.7771  0.035517717   0.03620742            3 
  580000    1.1526185   -7.0102054    246.11714  0.035361658  0.036199878            1 
  581000    1.1630059   -6.9736096     246.9793  0.035424454  0.036192613            1 
  582000    1.1618924   -6.9646205    247.93947   0.03550107  0.036185458            2 
  583000    1.1748388   -6.9826798    248.06157  0.035457628  0.036178018            1 
  584000    1.1401974   -6.9572759    248.32777  0.035434898  0.036170534            1 
  585000    1.1840568   -6.9467776    248.84435  0.035447913  0.036163064            2 
  586000    1.1598881   -6.9511344    248.78246   0.03537862  0.036155636            4 
  587000    1.1575996    -6.965752    249.40387  0.035406568  0.036148175            2 
  588000    1.1609126   -6.9814759    250.03234  0.035435422  0.036140723            2 
  589000    1.1672064   -7.0035991    249.85528   0.03535021  0.036133214            2 
  590000    1.1383741   -6.9743252     249.9114   0.03529822  0.036125268            1 
  591000    1.1570373   -6.9643152    250.40297  0.035307808  0.036117063            1 
  592000    1.1412612   -6.9954499    250.45353  0.035255284     0.036109            1 
  593000    1.1524977   -6.9878288    250.73244  0.035235025  0.036100945            3 
  594000    1.1689965   -6.9596668    250.59954  0.035157062  0.036092493            1 
  595000    1.1513829   -6.9746862    252.37833  0.035347106  0.036083429            1 
  596000    1.1385216   -6.9672674    252.28819  0.035275195  0.036075147            2 
  597000    1.1482958   -6.9505652    252.38158  0.035229142  0.036066526            1 
  598000    1.2117554   -6.9816189    253.04553  0.035262755  0.036057837            5 
  599000    1.1605451   -6.9795978    253.04699  0.035204089  0.036049144            1 
  600000    1.1628005   -6.9492138    253.15817  0.035160856  0.036039942            2 
  601000    1.1663756   -6.9692244    253.18427  0.035105972  0.036030858            4 
  602000    1.1365922   -6.9791347    254.32984  0.035206235     0.036022            3 
  603000    1.1596892   -6.9779231    254.58719  0.035183415  0.036012703            1 
  604000    1.1683445   -6.9743249     255.0677   0.03519146  0.036003601            1 
  605000    1.1590751    -6.964677    254.73127  0.035086952  0.035994523            5 
  606000     1.163935   -7.0021059    254.32056  0.034972574  0.035985064            3 
  607000    1.1842739   -6.9913838    255.99891  0.035145375   0.03597543            2 
  608000    1.1597307    -6.980687    255.06826  0.034960013  0.035966247            1 
  609000    1.1648911   -6.9693537    255.48431  0.034959539  0.035956651            2 
  610000    1.1353609   -6.9568809     256.7341  0.035072964  0.035947135            1 
  611000    1.1753655   -6.9808233    256.18111   0.03494014  0.035937473            2 
  612000    1.1760095   -6.9985116     256.3386  0.034904493  0.035927323            2 
  613000    1.1504237   -6.9897863    256.36981  0.034851796  0.035916923            2 
  614000     1.159592   -7.0074673    256.79397  0.034852602    0.0359061            2 
  615000    1.1467259   -6.9505898    257.00906  0.034825076  0.035894713            2 
  616000     1.136212   -7.0510374    257.41947  0.034824062  0.035883502            2 
  617000    1.1473968   -6.9944266    258.08997   0.03485818  0.035872535            2 
  618000    1.1453149   -7.0134327    258.15286  0.034810256  0.035861835            2 
  619000    1.1337552   -7.0270989    257.81599  0.034708668   0.03585054            2 
  620000    1.1747713   -6.9458379    259.34681  0.034858442  0.035839422            3 
  621000    1.1561718   -7.0314915    258.47133  0.034684827  0.035828095            1 
  622000    1.1497234   -6.9808531    259.30155  0.034740294  0.035817046            1 
  623000    1.1592967   -6.9663205     260.1202  0.034794034  0.035805882            2 
  624000    1.1231284   -6.9890073    260.83461  0.034833682  0.035795015            1 
  625000    1.1577679   -6.9811189    261.03175  0.034804233  0.035784359            2 
  626000    1.1469859   -6.9844151    261.89995  0.034864211  0.035774129            3 
  627000    1.1400107   -6.9937141     262.6977  0.034914633  0.035764071            3 
  628000    1.1376514   -6.9695891    262.88191   0.03488348  0.035753742            2 
  629000    1.1326607   -7.0166562    262.85183  0.034824037  0.035743023            2 
  630000    1.1684533   -6.9823828    263.26078  0.034822854  0.035732877            1 
  631000    1.1628579    -6.992957    263.46646  0.034794831  0.035722842            2 
  632000    1.1840658   -6.9969933    264.07732  0.034820322  0.035712512            1 
  633000    1.1407981   -7.0102515     264.4245  0.034811018  0.035702302            1 
  634000    1.1310765   -6.9706583    265.30454  0.034871786  0.035692596            1 
  635000    1.1621639   -6.9868001    265.57815  0.034852776  0.035682823            3 
  636000    1.1507593   -7.0108345    266.19977  0.034879425  0.035672866            1 
  637000    1.1481576   -6.9859329    265.88086  0.034782949  0.035662397            8 
  638000    1.1372922   -6.9954643    266.41663  0.034798411  0.035652144            1 
  639000    1.1741518   -7.0036863    266.64023  0.034773113  0.035642146            1 
  640000    1.1532428   -7.0001263     266.9769  0.034762617  0.035632136            1 
  641000    1.1668411   -7.0141365    267.58344  0.034787239  0.035622047            2 
  642000    1.1320622   -6.9804951    267.69568  0.034747622  0.035611828            1 
  643000    1.1226426   -6.9929736    267.84974  0.034713548  0.035602053            3 
  644000    1.1362293   -6.9615106    268.94718  0.034801654  0.035592481            1 
  645000    1.1432738   -6.9928293    269.40189  0.034806446  0.035583001            2 
  646000    1.1223435   -7.0119835     269.3453  0.034745266  0.035572732            3 
  647000    1.1663064   -7.0256235    268.53735    0.0345875  0.035562405            1 
  648000    1.1452785    -7.003676    269.04032  0.034598806  0.035551884            1 
  649000    1.1597869   -6.9755943     269.7601  0.034637917  0.035541585            1 
  650000    1.1473655   -6.9899955    270.08802  0.034626669  0.035531381            2 
  651000    1.1319744    -6.968999    270.33308  0.034604849  0.035521039            2 
  652000    1.1431892   -7.0142564    270.46257  0.034568324  0.035510129            2 
  653000    1.1579589   -7.0110793    270.74246  0.034551105  0.035499218            1 
  654000    1.1547323   -6.9779325    271.18009  0.034554038  0.035488289            1 
  655000    1.1542787   -7.0031294     271.0222  0.034481196  0.035477665            3 
  656000    1.1330117   -6.9826083    272.16407  0.034573688  0.035467155            2 
  657000    1.1412983   -7.0345434    271.90355   0.03448802  0.035455986            1 
  658000    1.1678459   -7.0301697    272.09339  0.034459649  0.035444503            1 
  659000    1.1597118   -7.0184204    272.46893  0.034454847  0.035433443            1 
  660000      1.12287   -7.0229962    273.63106  0.034549377  0.035422506            2 
  661000    1.1487393   -6.9723747    273.23539  0.034447225  0.035411721            1 
  662000    1.1540753   -7.0171906    274.17619  0.034513619   0.03540098            2 
  663000    1.1770827   -7.0007784    274.25884  0.034471951  0.035390302            1 
  664000     1.148712   -6.9878936    273.96996   0.03438378  0.035379408            4 
  665000    1.1541463   -7.0169677    274.27642  0.034370479  0.035368289            2 
  666000    1.1455616   -6.9654578    275.39121   0.03445836  0.035357061            4 
  667000     1.148968   -7.0206292    274.87049   0.03434164  0.035345558            3 
  668000    1.1317119   -7.0464158    275.13609  0.034323365  0.035334728            1 
  669000    1.1268646   -6.9730277     277.0029  0.034504597  0.035324191            3 
  670000    1.1326512    -7.032067    276.44809  0.034384091  0.035313719            2 
  671000    1.1377144   -6.9773253    278.09435  0.034537301  0.035303043            1 
  672000    1.1353023   -7.0026516    276.61373  0.034302298  0.035292613            2 
  673000    1.1413486   -6.9770459    277.98976  0.034421713  0.035281882            1 
  674000    1.1530829   -6.9941638    277.52145  0.034312741  0.035270965            2 
  675000    1.1455339   -6.9821875    278.02679  0.034324295  0.035259513            1 
  676000     1.167531   -7.0085772    277.84771  0.034251444  0.035248363            2 
  677000    1.1364539   -7.0101047    278.66177  0.034301055  0.035236938            1 
  678000     1.157042   -7.0390705     278.1831  0.034191629  0.035225636            3 
  679000    1.1256837   -7.0323973    278.77209   0.03421356  0.035213703            3 
  680000    1.1264994   -6.9871747    279.72261  0.034279732  0.035202451            2 
  681000    1.1630559   -7.0335902    279.69453  0.034225958  0.035191393            1 
  682000    1.1844718   -7.0481415     279.8475  0.034194465  0.035180342            1 
  683000    1.0929634    -6.991872    281.81265  0.034384169  0.035169647            1 
  684000    1.1371609   -7.0312596    280.94583  0.034228293  0.035159035            2 
  685000    1.1390847   -7.0404326    280.53771  0.034128676  0.035148091            2 
  686000    1.1368409   -7.0484272    280.35688  0.034056958  0.035136674            1 
  687000    1.1395135   -6.9965527    282.09948  0.034218763  0.035125751            1 
  688000    1.1230834   -7.0184592     282.5924   0.03422873  0.035114812            2 
  689000    1.1462205   -6.9928434    282.85438  0.034210737  0.035103827            2 
  690000    1.1554163   -7.0331437       282.43  0.034109903  0.035092494            1 
  691000    1.1347654    -7.001361    283.60536  0.034202287  0.035081364            3 
  692000    1.1263404   -7.0308263      282.699  0.034043714  0.035069881            2 
  693000    1.1087535   -7.0194371    282.88319  0.034016737  0.035058456            3 
  694000    1.1260652   -7.0214512    283.16445  0.034001495  0.035046625            2 
  695000     1.166912   -6.9994084    283.80003  0.034028781  0.035035062            2 
  696000    1.1461635   -7.0261672    284.61215  0.034077125  0.035023356            1 
  697000    1.1059533   -7.0324583    285.25648   0.03410527  0.035011284            1 
  698000    1.1127238   -7.0266188    284.20064  0.033930353  0.034999462            2 
  699000    1.1408209   -7.0225995    285.24775  0.034006647  0.034987532            2 
  700000    1.1492628   -7.0489972     285.8586  0.034030785  0.034975717            3 
  701000    1.1523849   -7.0038229    286.25031  0.034028805   0.03496443            1 
  702000    1.1257537   -7.0268487    286.79871  0.034045431    0.0349531            1 
  703000    1.1418529   -6.9793552    287.58116  0.034089753    0.0349418            3 
  704000    1.1360064   -7.0438402    287.81386  0.034068876  0.034931093            1 
  705000    1.1380903   -7.0395554      287.712  0.034008511  0.034920443            2 
  706000     1.136152   -7.0384822    287.23805  0.033904396  0.034909482            1 
  707000    1.1359952    -7.014288    288.42467  0.033996307  0.034898361            2 
  708000    1.1391713   -7.0357812    288.36974  0.033941825  0.034886945            2 
  709000    1.1499066   -7.0211562    289.31872  0.034005492  0.034875379            1 
  710000    1.1436009   -6.9896598    290.04937  0.034043353  0.034864442            1 
  711000    1.1474533   -7.0481242    289.48133  0.033928895   0.03485296            3 
  712000    1.1290785   -7.0068358    290.83778  0.034040003  0.034841876            2 
  713000    1.1293589   -7.0335253     290.9717  0.034007913  0.034831065            1 
  714000    1.1623848    -7.037529    290.56615   0.03391295  0.034820342            3 
  715000    1.1377145   -7.0675339    290.33299  0.033838343  0.034809026            2 
  716000    1.1597264   -7.0288002    291.49048  0.033925801  0.034798156            2 
  717000    1.1452571   -7.0058616    292.53095  0.033999413  0.034787297            3 
  718000    1.1524301   -6.9697301    293.35626  0.034047848  0.034776944            4 
  719000    1.1380177   -7.0143386    292.24807  0.033872053  0.034766254            1 
  720000    1.1303276   -7.0068257    293.89484  0.034015606  0.034755347            1 
  721000    1.1624337    -7.027327    292.87926  0.033851047  0.034744405            3 
  722000    1.1345121   -7.0176352     293.7566  0.033905425  0.034733339            1 
  723000    1.1470267   -7.0438321    293.92904  0.033878405  0.034722397            1 
  724000    1.1420816   -7.0546845    293.58358  0.033791849   0.03471076            1 
  725000    1.1015627   -7.0319415    292.88046  0.033664421  0.034699327            2 
  726000    1.1298564    -7.040356    294.57674  0.033812758  0.034687705            1 
  727000    1.1384316   -6.9888641    294.03449  0.033704091  0.034676482            1 
  728000    1.1338149   -7.0252045    295.91594  0.033873162  0.034665371            2 
  729000    1.1142531   -7.0228282    295.63992  0.033795144  0.034654465            3 
  730000    1.1418293   -7.0437293    296.09895   0.03380125  0.034643188            1 
  731000    1.1599505   -7.0326217    295.77402  0.033717968  0.034632401            2 
  732000    1.1466503   -7.0313721    296.23803   0.03372473  0.034621125            2 
  733000    1.1525367   -6.9836254    298.15434  0.033896583  0.034610401            2 
  734000    1.1198375   -7.0451065    297.14953  0.033736323  0.034599587            1 
  735000    1.1582049   -7.0613751     297.2718  0.033704286  0.034589022            1 
  736000    1.1076236   -7.0431737    297.86156  0.033725267  0.034578105            1 
  737000    1.1077891   -7.0414035     298.4845  0.033749943  0.034566762            2 
  738000    1.1402212   -7.0267468    298.63108  0.033720763   0.03455573            1 
  739000    1.1608575     -7.01299    299.13441  0.033731891   0.03454516            2 
  740000    1.1734638   -7.0228818     300.1562  0.033801374  0.034534414            2 
  741000    1.1393862    -7.018132     299.9087  0.033727924  0.034523304            2 
  742000    1.0899636   -7.0386132    298.65862  0.033542073  0.034511907            2 
  743000    1.1333817   -7.0409087    300.06137  0.033654259  0.034500663            1 
  744000     1.147763    -7.021698    302.08001  0.033835127  0.034489641            2 
  745000    1.1497183   -7.0347182    301.48873  0.033723571  0.034479087            2 
  746000    1.1411482   -7.0458453    301.13377  0.033638714    0.0344688            3 
  747000    1.1407888   -6.9927749    301.49559  0.033634046  0.034458434            1 
  748000    1.1418673   -7.0060511    303.05105  0.033762372  0.034447958            1 
  749000    1.1254471   -7.0173402    302.58579  0.033665531   0.03443767            1 
  750000    1.1268105   -7.0012083    303.95551  0.033772834  0.034427283            3 
  751000     1.121379   -7.0313364    303.55539  0.033683465  0.034416701            2 
  752000    1.1386091   -7.0608759    303.17837  0.033596894   0.03440645            2 
  753000    1.1288492   -6.9904695    305.42505  0.033800913   0.03439656            2 
  754000    1.1571395   -7.0110804    305.68778  0.033785122  0.034386488            2 
  755000    1.1395125   -7.0213067     304.9307   0.03365681  0.034376651            2 
  756000    1.1285904   -7.0796934    304.48107  0.033562728  0.034366116            1 
  757000    1.1301214   -7.0643394    305.40718  0.033620341  0.034355751            2 
  758000    1.1391047   -7.0221741    305.52594  0.033589044  0.034345424            2 
  759000    1.1317843   -7.0427911    306.28741  0.033628394   0.03433525            2 
  760000    1.1369457   -7.0509444    306.22728  0.033577553  0.034324604            1 
  761000     1.101316   -7.0367735    306.71117  0.033586418  0.034313852            3 
  762000    1.1448389   -7.0119754    306.86241  0.033558881  0.034303601            1 
  763000    1.1131523     -7.03796    307.25331  0.033557592  0.034292932            2 
  764000    1.1394189   -7.0008944    307.40327  0.033530025  0.034282526            3 
  765000    1.1486925   -7.0720509    307.28825  0.033473666  0.034271517            1 
  766000     1.121999   -7.0584712    307.47991  0.033450817  0.034260646            3 
  767000    1.1523034   -7.0366103    307.50145  0.033409544  0.034249728            1 
  768000     1.139325   -7.0299764    308.26092  0.033448451   0.03423896            2 
  769000    1.1225714   -6.9919591    308.98409  0.033483322  0.034228129            1 
  770000    1.1508134   -7.0459981    308.40221  0.033376862  0.034217495            2 
  771000    1.1389313   -7.0370244    308.80466  0.033377071  0.034206465            1 
  772000    1.1252126   -7.0472456    309.30031  0.033387339  0.034195515            1 
  773000    1.1254549     -7.05534    310.44267    0.0334673   0.03418488            1 
  774000    1.1460727   -7.0075952     310.8872   0.03347192  0.034174169            2 
  775000    1.1485486   -6.9993623     310.3168  0.033367398  0.034163294            1 
  776000    1.1196343   -7.0513966     310.6086  0.033355735  0.034152094            1 
  777000    1.0993596   -7.0378556    311.07088  0.033362385  0.034140874            1 
  778000    1.0888414   -7.0337552    311.45778  0.033360945  0.034129909            1 
  779000    1.1272615   -7.0113724    312.46075  0.033425411  0.034119067            1 
  780000    1.1339294   -7.0598254    311.63036  0.033293842   0.03410802            3 
  781000    1.1249196   -7.0437335    312.75852  0.033371588  0.034097183            2 
  782000    1.1414925   -7.0571018    312.52351   0.03330387  0.034086405            2 
  783000    1.1147511   -7.0545828    312.81249  0.033292091  0.034075383            2 
  784000    1.1451666   -7.0837401    313.35363  0.033307146  0.034064632            1 
  785000    1.1080801   -7.0710245    313.21439  0.033249935  0.034053874            2 
  786000    1.0894788   -7.0363557    315.23638  0.033422008  0.034043539            1 
  787000    1.1387704   -7.0423455    315.11033  0.033366193  0.034033058            2 
  788000    1.1257088   -7.0421541     314.7765  0.033288547  0.034022847            1 
  789000    1.1432038   -7.0133416    317.02015  0.033483328  0.034012864            2 
  790000    1.1406786   -7.0478169    316.00131  0.033333471  0.034002873            2 
  791000     1.133915   -7.0606399    316.93476  0.033389671  0.033992956            3 
  792000    1.1136079   -7.0837869    316.15636   0.03326561  0.033982869            2 
  793000     1.113118   -7.0515628    316.56514  0.033266618  0.033972515            2 
  794000    1.1509297   -7.0357322     316.7918   0.03324851  0.033962279            3 
  795000    1.1344695   -7.0611156    317.68735  0.033300561  0.033952154            1 
  796000    1.1318325   -7.0468557     317.4784  0.033236851  0.033941919            3 
  797000    1.1256341   -7.0595684    318.10585  0.033260754  0.033931345            2 
  798000     1.147041   -7.0555874    318.49233  0.033259433  0.033920958            3 
  799000    1.0947361   -7.0183427    318.18499  0.033185752  0.033910268            1 
  800000    1.1215747   -7.0347278     319.0733  0.033236802  0.033900048            1 
  801000     1.110492   -7.0196949    319.41642  0.033231005  0.033889535            1 
  802000    1.1235343   -7.0835861     318.5022  0.033094576   0.03387897            1 
  803000    1.1226878   -7.0717632    320.05996  0.033215023  0.033867976            1 
  804000    1.1387272   -7.0444833     319.4844  0.033114055  0.033856846            2 
  805000    1.1272771   -7.0644863    319.80397  0.033106001   0.03384607            1 
  806000    1.1245462   -7.0690935    320.32144  0.033118428  0.033835514            3 
  807000    1.1300606   -7.0500475    321.82594  0.033232749  0.033824676            3 
  808000    1.1155004   -7.0384151    322.10669  0.033220574  0.033814149            2 
  809000    1.1295573    -7.027184    322.22917  0.033192127  0.033804375            1 
  810000    1.1160109   -7.0488334     321.6254  0.033089033  0.033794661            1 
  811000    1.1176834   -7.0376944    323.60963   0.03325212  0.033784912            3 
  812000    1.1196856   -7.0365684     323.3726  0.033186843  0.033775368            2 
  813000    1.1336237   -7.0278473    324.44598  0.033256045  0.033765879            4 
  814000    1.1299516   -7.0802453    324.74715  0.033246023   0.03375656            2 
  815000    1.1459911    -7.085769     324.1094  0.033140021  0.033747041            1 
  816000    1.1256049   -7.0530593    324.78769  0.033168677  0.033737833            3 
  817000    1.1102007   -7.0357385    326.24124   0.03327634   0.03372845            1 
  818000     1.096444   -7.0667997    325.22735  0.033132371  0.033719298            1 
  819000    1.1115773   -7.0529958    326.71846  0.033243636  0.033709741            1 
  820000    1.1454917   -7.0999751    326.28246  0.033158787   0.03370051            3 
  821000    1.1219646   -7.0438403    326.74163  0.033165005  0.033691308            2 
  822000    1.1205261   -7.0370803    327.60264  0.033211947   0.03368222            1 
  823000    1.1026818   -7.0787424    326.81362  0.033091699  0.033672716            2 
  824000    1.1180244   -7.0426608    327.91754  0.033163181  0.033663666            2 
  825000    1.1018617   -7.0802051     327.2057  0.033051081  0.033654633            2 
  826000    1.1104983   -7.0396267    328.56644  0.033148349  0.033645609            1 
  827000    1.1342254    -7.038588    329.50955    0.0332033  0.033636594            4 
  828000    1.1029817   -7.0538237    328.52617  0.033064228   0.03362768            1 
  829000    1.1455894   -7.0514199    330.67601  0.033240452  0.033619263            2 
  830000    1.1252856   -7.0798246    330.26524  0.033159161  0.033610564            2 
  831000    1.1001803   -7.0462427    330.98147  0.033191082  0.033601758            2 
  832000     1.113701   -7.0674121     330.1923  0.033072146  0.033592979            2 
  833000    1.1378153   -7.0765237    331.19306  0.033132559  0.033584128            1 
  834000    1.1366891    -7.067426    331.29806  0.033103324  0.033575135            1 
  835000    1.1086874   -7.0458345       332.02  0.033135729   0.03356633            1 
  836000     1.113107   -7.0702907    332.23493  0.033117517  0.033557404            2 
  837000    1.1006179   -7.0711269      332.647  0.033118977  0.033548328            2 
  838000    1.0934369   -7.0558984    331.96531  0.033011666  0.033539539            2 
  839000    1.1300968    -7.038091    333.36004   0.03311085  0.033530578            1 
  840000    1.1218818   -7.0827911    333.35345  0.033070779  0.033521627            2 
  841000    1.0999264   -7.0851357    332.96874  0.032993335  0.033512434            4 
  842000    1.1024995   -7.0574278    332.40037  0.032897898  0.033503127            3 
  843000    1.1375199   -7.0811585    333.26066  0.032943917  0.033493653            3 
  844000    1.1087239   -7.0861127    333.40029   0.03291867  0.033484055            2 
  845000    1.1028238   -7.0753722    333.68627  0.032907916  0.033474708            2 
  846000    1.1222299   -7.0819815    334.49999  0.032949171  0.033465474            2 
  847000    1.0983453   -7.0559069    334.24915  0.032885591  0.033455843            4 
  848000    1.1141724   -7.0556182    334.79167  0.032900125  0.033446148            2 
  849000    1.1443606   -7.1252739    334.59329  0.032841901  0.033436671            2 
  850000    1.1263371   -7.0334308    335.98456  0.032939662  0.033427058            2 
  851000     1.102173   -7.0688118    335.95455  0.032898017  0.033417459            1 
  852000    1.1238106   -7.0463046    335.40457  0.032805611  0.033407734            1 
  853000     1.121303   -7.0591123    336.29075  0.032853727  0.033398275            1 
  854000    1.1061033    -7.067002    337.46451  0.032929792  0.033388865            1 
  855000    1.1104104   -7.0581179    337.16278  0.032861869  0.033379497            2 
  856000    1.1177313   -7.0274256    338.11834  0.032916505  0.033369919            2 
  857000    1.1021064   -7.0513364    337.99346  0.032865953  0.033360711            3 
  858000    1.1052381   -7.0408583    339.68944   0.03299237  0.033351139            1 
  859000    1.1177785   -7.1433454    337.77051  0.032767802  0.033341633            1 
  860000    1.0984123     -7.08106    338.33235  0.032784143  0.033332025            1 
  861000    1.0864291   -7.0638187    337.88395  0.032702667  0.033322208            1 
  862000    1.0915289   -7.0738902    337.92479  0.032668677   0.03331239            3 
  863000    1.1158727    -7.069854    338.83066  0.032718295  0.033302611            1 
  864000    1.1023802   -7.0651894    339.27889  0.032723659  0.033292991            3 
  865000    1.0992484   -7.0394718    339.45605  0.032702895  0.033283467            1 
  866000    1.1185437   -7.0897827    339.70551  0.032689137   0.03327433            2 
  867000     1.125404   -7.0879209    338.75309   0.03255989  0.033264482            2 
  868000    1.0911991   -7.0870837    340.94399  0.032732718  0.033254898            2 
  869000    1.1258349   -7.0915412     341.0019  0.032700604  0.033245141            2 
  870000     1.105062   -7.0821244    342.43728  0.032800506  0.033235663            4 
  871000     1.120294   -7.0815037    342.83066  0.032800484   0.03322634            2 
  872000    1.1087669   -7.0944243    342.09493  0.032692558  0.033216869            3 
  873000    1.1177801   -7.1019245    342.00714   0.03264673   0.03320757            2 
  874000    1.0870038   -7.0918024    343.57556  0.032758921  0.033198246            2 
  875000    1.1359809   -7.0453942    343.12278   0.03267836  0.033189035            1 
  876000    1.1336633   -7.1076089     342.9912  0.032628539   0.03317935            2 
  877000    1.1003366   -7.0510562    344.17699  0.032704009  0.033169742            2 
  878000    1.1119291    -7.100787    343.22613  0.032576512  0.033159888            1 
  879000    1.1063077    -7.066209     343.7356  0.032587751  0.033149976            1 
  880000     1.125885    -7.079052    343.21972  0.032501867  0.033140202            1 
  881000    1.1121161   -7.0997765    344.33575   0.03257054  0.033130078            1 
  882000    1.0921709   -7.0803205    343.78532  0.032481606   0.03311996            1 
  883000    1.1010509   -7.0931733    344.60043  0.032521747  0.033109909            2 
  884000    1.1044387   -7.0585674    346.37732  0.032652463  0.033099916            2 
  885000    1.1053725   -7.0531754    345.71606  0.032553302  0.033090094            2 
  886000    1.1153218   -7.1116109    345.05002  0.032453914  0.033080199            1 
  887000    1.0997937   -7.0680409    346.21153  0.032526449  0.033070558            4 
  888000     1.121855   -7.1051389    345.96904  0.032467065  0.033060724            3 
  889000    1.0922262   -7.0663757    347.19168  0.032545152  0.033051114            1 
  890000    1.1016506   -7.0977142    347.82235  0.032567636  0.033041816            2 
  891000    1.1217216   -7.0954052    346.81151  0.032436542  0.033032763            3 
  892000    1.1124062   -7.1151146    348.45858  0.032554053   0.03302359            1 
  893000    1.1220975    -7.082913    348.14661  0.032488486  0.033014566            6 
  894000    1.0914782   -7.0695266    349.82217  0.032608331  0.033005497            2 
  895000      1.12736    -7.020609     351.1493  0.032695465  0.032996602            3 
  896000    1.1068157   -7.0699729    350.15741  0.032566723  0.032987916            1 
  897000    1.1219726   -7.0763933    352.03922  0.032705241  0.032979036            1 
  898000    1.1179429   -7.1006173    349.36116  0.032420301  0.032969694            1 
  899000    1.1026234    -7.062189    350.73612  0.032511691  0.032960488            2 
  900000    1.1136333   -7.0710701    351.24172  0.032522382  0.032951304            1 
  901000    1.1248736   -7.1029192    350.89163  0.032453905  0.032942129            3 
  902000    1.1060026   -7.1246716    350.67441  0.032397858  0.032932545            1 
  903000    1.1079863   -7.0929234    351.75784  0.032461963   0.03292314            2 
  904000    1.1008343   -7.1009663    351.33209  0.032386808  0.032913631            3 
  905000    1.1015138   -7.0638502    351.92585  0.032405695  0.032904453            1 
  906000     1.113378   -7.0209264    352.79737  0.032450089  0.032895209            1 
  907000    1.1465247   -7.0757502    353.33451  0.032463663  0.032886159            1 
  908000    1.1145358    -7.088515    353.72726  0.032463956  0.032876852            1 
  909000    1.1065239   -7.0770587    354.64055  0.032511969  0.032867859            3 
  910000    1.0963972   -7.0897358    354.55353  0.032468272  0.032858997            4 
  911000    1.1012286   -7.0953977    354.22348  0.032402441  0.032850177            1 
  912000    1.1112814    -7.079826    355.44267  0.032478314  0.032841542            1 
  913000    1.1014117   -7.0907115     355.8455  0.032479509  0.032833223            3 
  914000    1.1096831   -7.1070287     355.9252   0.03245124  0.032824954            1 
  915000    1.1261443   -7.1038918    356.55444  0.032473082  0.032816414            2 
  916000    1.0848635   -7.0760468     356.4887   0.03243165  0.032807951            1 
  917000    1.0951186   -7.0973153    357.77824  0.032513471  0.032799619            1 
  918000    1.1314191   -7.0979969    357.53895  0.032456332  0.032791343            2 
  919000    1.1300168   -7.0842778    357.42693  0.032410857  0.032783117            1 
  920000    1.0891693   -7.1070352    358.65102  0.032486506  0.032774919            3 
  921000    1.1094405   -7.0911908    358.79511   0.03246427  0.032766709            1 
  922000    1.0960044   -7.0551911    360.20068  0.032556099   0.03275856            2 
  923000    1.0940525   -7.0721474    360.21097  0.032521756  0.032750851            3 
  924000    1.1266903   -7.0953585    360.62843  0.032524209  0.032742879            1 
  925000    1.1010318   -7.0793514    359.59446  0.032395897  0.032734898            3 
  926000    1.1164855   -7.0998027    360.80119  0.032469509    0.0327274            2 
  927000    1.0985462   -7.1043176    361.69144  0.032514513  0.032719563            1 
  928000    1.0980692   -7.0718068    361.83261  0.032492153   0.03271182            1 
  929000    1.1091034   -7.1089024    361.43034  0.032421093  0.032704201            3 
  930000    1.0839253   -7.1028202    362.63182   0.03249389  0.032696197            1 
  931000    1.0757036   -7.1043462    363.75879  0.032559863  0.032688288            1 
  932000    1.1263648   -7.1152954    362.52869   0.03241494  0.032680205            3 
  933000    1.1184151   -7.1297039    362.98895  0.032421307  0.032672234            1 
  934000    1.1138408   -7.0417581     364.6851  0.032537929  0.032664549            1 
  935000    1.0823007    -7.068372    364.56737  0.032492635  0.032656938            1 
  936000    1.1283484   -7.0590519    365.06061  0.032501835  0.032649234            1 
  937000     1.119473   -7.1002148    364.37756  0.032406399  0.032641661            2 
  938000    1.1280722   -7.1195075    364.86816  0.032415437  0.032633923            1 
  939000    1.1358436   -7.0896736    366.01968   0.03248311  0.032626441            1 
  940000    1.0942592   -7.0944791    364.98462  0.032356793  0.032619052            1 
  941000    1.0781319   -7.0941869    366.87586  0.032489892  0.032611801            2 
  942000     1.113319    -7.089198    365.97778  0.032375953  0.032604566            1 
  943000    1.1120862   -7.0866218    366.57005   0.03239396  0.032597031            3 
  944000    1.0659312   -7.0786999     367.4338  0.032435894  0.032589561            2 
  945000    1.1007224   -7.1148306     368.6423   0.03250814  0.032581672            2 
  946000    1.0894154   -7.1249229    367.15377  0.032342651  0.032574133            1 
  947000    1.0845383   -7.0955641    368.92325  0.032464207  0.032566826            1 
  948000    1.0842938   -7.0871062    368.91475  0.032429215  0.032559493            2 
  949000    1.1212383   -7.0936675    368.68625  0.032374978  0.032552185            2 
  950000    1.1037616   -7.0882109    369.67804  0.032427898  0.032545009            1 
  951000    1.1145193   -7.1184906    367.69274  0.032219833  0.032537395            2 
  952000    1.0813835   -7.1032399    369.85658  0.032375401  0.032529783            2 
  953000    1.1068632   -7.0966232    369.62663  0.032321322  0.032522478            1 
  954000    1.0954191   -7.0909224    369.66155  0.032290492  0.032515006            3 
  955000    1.0994645   -7.0903992    368.43663  0.032149793  0.032507345            1 
  956000     1.096818   -7.1122338    370.43417  0.032290287  0.032499767            1 
  957000    1.0864782    -7.102048    370.30731  0.032245499  0.032492004            1 
  958000    1.1038811   -7.0859542    371.23348  0.032292404  0.032484646            3 
  959000    1.1027184   -7.0952977    372.15064  0.032338429  0.032477471            2 
  960000    1.0686812   -7.0658125    372.11543  0.032301687  0.032469969            4 
  961000    1.1230606   -7.1056089    372.08044   0.03226504  0.032462333            2 
  962000    1.1163982   -7.1085719    371.64496  0.032193777  0.032454501            3 
  963000    1.0904062    -7.118187    372.11832  0.032201308  0.032446417            1 
  964000    1.0979195   -7.0602498    372.88769  0.032234413  0.032438354            2 
  965000    1.0919719    -7.109907    372.77139  0.032190967  0.032430347            2 
  966000    1.1098276    -7.128073    371.98733  0.032090005  0.032422208            3 
  967000    1.0889511   -7.1156398    372.17697  0.032073162  0.032414127            2 
  968000     1.114796   -7.1319041    373.44225  0.032148954  0.032406172            2 
  969000    1.0993312   -7.0827632    373.43811  0.032115421   0.03239796            3 
  970000    1.1017413    -7.101494    373.08079  0.032051615  0.032389824            3 
  971000    1.0918351   -7.0971125    373.24845  0.032032994  0.032381494            3 
  972000    1.0704331   -7.0746616    373.76395  0.032044235  0.032373182            1 
  973000    1.0717742   -7.1434587    373.03705  0.031949045   0.03236463            2 
  974000    1.0816752    -7.115487    373.65981  0.031969525  0.032356178            3 
  975000    1.1154056   -7.1013277    374.93078  0.032045366  0.032347775            2 
  976000    1.0844717    -7.096986     375.2755  0.032041965  0.032339536            1 
  977000    1.0687603   -7.1032161    375.25097  0.032007077  0.032331613            3 
  978000    1.0706402   -7.1352881    376.19476  0.032054768  0.032323389            2 
  979000      1.09116   -7.1149172     376.2206  0.032024225  0.032315265            1 
  980000    1.1306671   -7.0991684    377.06202  0.032063097  0.032307278            1 
  981000    1.1003828   -7.1396443    376.36815   0.03197147  0.032299426            1 
  982000     1.102423   -7.0814215    377.40874  0.032027218  0.032291362            3 
  983000    1.0893696    -7.105558    377.02911  0.031962454  0.032283458            2 
  984000    1.0804576   -7.1240069    378.27663  0.032035622  0.032275593            3 
  985000    1.1148204   -7.1063228    378.00513  0.031980129  0.032267404            2 
  986000    1.0892258   -7.0829606    378.16832  0.031961487  0.032259431            2 
  987000    1.1095226   -7.1191287    378.59103  0.031964795  0.032251114            1 
  988000    1.0671721   -7.1320363    378.57159  0.031930802  0.032243024            3 
  989000    1.0748306   -7.1262914    380.04319  0.032022513  0.032235217            1 
  990000    1.0945633   -7.1374568    380.57708  0.032035107  0.032227563            2 
  991000    1.0709515    -7.123327    380.19247   0.03197044   0.03221982            3 
  992000    1.0904907     -7.10569    379.96884  0.031919425   0.03221194            1 
  993000    1.1037637   -7.0499232    382.36744  0.032088574  0.032204522            3 
  994000    1.1101266   -7.1283685    381.75623   0.03200505   0.03219697            6 
  995000     1.079546   -7.0933341    381.94041  0.031988309  0.032189272            2 
  996000    1.0780998   -7.1269324    381.78949  0.031943565  0.032181965            1 
  997000    1.0784613   -7.1212104    383.05949  0.032017677    0.0321746            1 
  998000    1.0863346   -7.1340716     384.2631  0.032086097  0.032167403            1 
  999000    1.0957778   -7.1384791    383.98782  0.032031016  0.032160362            5 
 1000000    1.1243257   -7.0973183    385.11788  0.032093156  0.032153502            1 
 1001000    1.0898406   -7.1277443    385.18924  0.032067037  0.032146507            2 
 1002000    1.0830981    -7.165192    384.68768   0.03199332  0.032139497            2 
 1003000    1.0904371   -7.1068435    384.84261  0.031974295  0.032132488            2 
 1004000    1.0955254   -7.1014607    386.98667  0.032120407  0.032125528            3 
 1005000    1.1118333   -7.1032151    387.09136  0.032097127  0.032118689            2 
 1006000    1.0840806   -7.1178117    386.98776   0.03205664  0.032111669            2 
 1007000    1.1006292   -7.0781799    387.84748  0.032095952  0.032104576            2 
 1008000    1.1145276   -7.1132169    386.39665  0.031944168  0.032097303            1 
 1009000    1.0775506   -7.1267814    387.31941  0.031988719    0.0320904            1 
 1010000    1.0855197   -7.1014311    387.69644  0.031988155  0.032083422            1 
 1011000     1.093109   -7.1145228    387.48051  0.031938716  0.032076497            1 
 1012000    1.1107414   -7.1174663    388.49142    0.0319904  0.032069577            2 
 1013000    1.0877768   -7.1503099     388.3253  0.031945155   0.03206236            2 
 1014000    1.0727274   -7.1464482    388.40277  0.031920017  0.032054972            2 
 1015000    1.0834298   -7.1292726    389.39949  0.031970402  0.032047575            3 
 1016000    1.0863516   -7.1359577    389.02411  0.031908145  0.032040511            1 
 1017000    1.0778388   -7.1171597    388.09503  0.031800642  0.032033258            2 
 1018000     1.083138   -7.1268065    390.11538  0.031934789  0.032026138            3 
 1019000    1.0904602   -7.0908357    390.87081  0.031965228  0.032019178            1 
 1020000    1.0792138   -7.1483094    391.16682  0.031958073  0.032012058            2 
 1021000    1.0723923   -7.1271002    391.42135  0.031947547  0.032005105            2 
 1022000    1.0949975   -7.1305884    390.93552  0.031876674   0.03199823            1 
 1023000    1.0654721   -7.1231727      391.443  0.031886852  0.031991158            2 
 1024000    1.1004364   -7.1681458    391.44568  0.031855931  0.031983967            2 
 1025000    1.0735982   -7.1382515    390.55963  0.031752815  0.031976875            3 
 1026000    1.0992209   -7.1267957    391.63922  0.031809553  0.031969799            2 
 1027000    1.0851677   -7.1331562    392.81029  0.031873603  0.031962826            1 
 1028000    1.0889216    -7.146366    392.03086  0.031779415    0.0319557            1 
 1029000    1.0878619   -7.1433997    392.86463  0.031816054  0.031948555            3 
 1030000    1.0797337   -7.1415098    394.12901   0.03188746  0.031941472            3 
 1031000    1.0975624   -7.1364114    393.80857  0.031830631  0.031934044            2 
 1032000     1.082976   -7.1295147    393.60968  0.031783728  0.031926672            1 
 1033000    1.0878526   -7.1612943    393.92869  0.031778694    0.0319194            4 
 1034000    1.0745474   -7.1130413    393.70749  0.031730133   0.03191213            1 
 1035000    1.0894672    -7.078899    395.54807  0.031847671  0.031905019            3 
 1036000    1.0946293   -7.1347936    394.59473  0.031740246  0.031897914            2 
 1037000    1.0917587   -7.1032047     395.6465  0.031794158   0.03189068            2 
 1038000    1.1032772   -7.1350371    394.82102  0.031697256  0.031883278            1 
 1039000    1.0923259    -7.120434    393.85705  0.031589433  0.031875647            4 
 1040000    1.0670587   -7.1529253    395.12119  0.031660352  0.031867855            3 
 1041000    1.0840711   -7.0959946     396.2645  0.031721461  0.031860292            2 
 1042000    1.0895825   -7.1045687    397.02896  0.031752156  0.031852929            1 
 1043000    1.0700606   -7.1062183     395.4475  0.031595358  0.031845564            1 
 1044000    1.0841679   -7.1238456    396.24635  0.031628859  0.031838101            2 
 1045000    1.0620693    -7.148422    397.62234  0.031708321  0.031830512            1 
 1046000    1.0910555     -7.10773    397.49007  0.031667469  0.031823075            2 
 1047000    1.1215563   -7.1331962    397.85136  0.031665979  0.031815562            3 
 1048000    1.0849228   -7.1398592    397.48759  0.031606838  0.031807965            1 
 1049000    1.0831992   -7.1423366    396.86702  0.031527409  0.031800446            2 
 1050000    1.0658867   -7.1457412     397.7407  0.031566722  0.031792989            1 
 1051000    1.0961446   -7.1294226    400.19719  0.031731461  0.031785707            2 
 1052000    1.0477019   -7.1124319    398.76861  0.031588134  0.031778178            2 
 1053000    1.1026745    -7.132693    398.65795  0.031549379   0.03177035            2 
 1054000    1.0931125    -7.144179    398.45843  0.031503671  0.031762382            1 
 1055000    1.1022334   -7.1216741    399.08795  0.031523535  0.031754424            3 
 1056000    1.0951957   -7.1454951     399.4728  0.031524053  0.031746616            2 
 1057000    1.0727377   -7.1566114    400.29864  0.031559337  0.031738784            1 
 1058000    1.0925763   -7.1192002    399.92223  0.031499861   0.03173093            9 
 1059000    1.0891529   -7.1521643    400.22287  0.031493773  0.031723069            1 
 1060000    1.0852491   -7.1402106    401.99944  0.031603729  0.031715427            1 
 1061000    1.0846287   -7.1527233    401.28794   0.03151806  0.031707733            2 
 1062000    1.0915593   -7.1646727    400.89094   0.03145723  0.031700036            3 
 1063000     1.081605   -7.1512442    402.00085  0.031514648  0.031692489            2 
 1064000    1.0885046   -7.1238103    402.31931  0.031509971   0.03168483            1 
 1065000    1.0813298   -7.1608969    402.04792  0.031459149  0.031677205            1 
 1066000    1.0817334   -7.1151772    402.25992   0.03144621  0.031669688            1 
 1067000    1.0765676   -7.1335619    402.85179  0.031462964  0.031662095            1 
 1068000    1.0953075   -7.1437176    404.07185  0.031528703  0.031654286            2 
 1069000    1.0908472   -7.1214303    404.48072  0.031531082  0.031646836            2 
 1070000    1.0894691   -7.1610554    402.88324  0.031377199  0.031639098            2 
 1071000    1.1015487   -7.1668912    404.15581   0.03144692  0.031631508            2 
 1072000     1.083644   -7.1138394    404.15541  0.031417554  0.031623671            2 
 1073000     1.081618   -7.1556336     404.1596  0.031388599  0.031615833            3 
 1074000    1.0768262   -7.1255203    404.50403  0.031386098   0.03160781            1 
 1075000    1.0910048   -7.1524303    404.08843  0.031324685  0.031599952            2 
 1076000    1.0671302   -7.1656739     405.6969  0.031420144  0.031592092            4 
 1077000     1.090647   -7.0816085    405.42318  0.031369791  0.031584354            2 
 1078000    1.0586328   -7.1918766    405.07014    0.0313134   0.03157641            2 
 1079000    1.0841488   -7.1616243    405.68604  0.031331946  0.031568453            1 
 1080000    1.0897857   -7.1390336    405.58931  0.031295471  0.031560485            2 
 1081000     1.074759   -7.1363555    406.40776  0.031329614  0.031552362            1 
 1082000    1.0941412    -7.167471    404.99873  0.031192138   0.03154404            2 
 1083000    1.1061153   -7.1798286    404.94957  0.031159555  0.031535678            5 
 1084000    1.0878871   -7.1431646    405.78993  0.031195413  0.031527331            1 
 1085000    1.0740543   -7.0938721    406.56714  0.031226354  0.031519155            1 
 1086000    1.0945007   -7.1388845    406.45366  0.031188894  0.031510904            1 
 1087000     1.072438   -7.1701589    406.17137  0.031138559  0.031502557            3 
 1088000    1.0764579   -7.1362752    407.39286  0.031203497  0.031494055            3 
 1089000    1.0882434   -7.1469966    407.43986   0.03117844  0.031485796            2 
 1090000    1.0803346    -7.114038    408.35068  0.031219471   0.03147756            1 
 1091000    1.0842528   -7.1667252     407.4192  0.031119707  0.031469218            2 
 1092000    1.0738921   -7.1356354    407.25205  0.031078453   0.03146063            2 
 1093000    1.0791996   -7.1635734    407.63661  0.031079339  0.031451882            2 
 1094000    1.0761519    -7.147902    408.22097  0.031095443  0.031443417            2 
 1095000    1.0765192   -7.1499859    408.13362  0.031060397  0.031434785            4 
 1096000    1.0881071   -7.1617058    408.63997  0.031070558  0.031426184            4 
 1097000    1.0856596   -7.1750841    408.65212  0.031043157  0.031417718            2 
 1098000    1.0745565   -7.1718499    408.92363  0.031035491  0.031409027            1 
 1099000     1.084901   -7.1488587    409.15379  0.031024704  0.031400198            2 
 1100000    1.0854624   -7.1940244     409.0517  0.030988765  0.031391457            1 
 1101000    1.0615383   -7.1732478    408.91003  0.030949896   0.03138262            1 
 1102000    1.1004776   -7.1249214     411.3943  0.031109672   0.03137394            1 
 1103000    1.0776532   -7.1862478    408.92129  0.030894628  0.031365281            2 
 1104000     1.087867    -7.112341    411.67919  0.031074818  0.031356696            1 
 1105000    1.1012299   -7.1221537    412.44712  0.031104609  0.031348356            3 
 1106000     1.053199   -7.1214098    412.76789  0.031100655  0.031340145            2 
 1107000    1.0922807     -7.15623    412.28403  0.031036136  0.031331833            3 
 1108000    1.0667798   -7.1486076    413.52394  0.031101379  0.031323706            1 
 1109000    1.0895115   -7.1620872    412.89638  0.031026178  0.031315636            1 
 1110000    1.1018999   -7.1338272    413.82216   0.03106773  0.031307471            2 
 1111000     1.078027    -7.195009    413.08383  0.030984385   0.03129929            1 
 1112000    1.0624043   -7.1749266    413.40146  0.030980325  0.031290894            1 
 1113000    1.0725276   -7.1282086    413.56877  0.030965018  0.031282497            2 
 1114000    1.0871933   -7.1416007    413.87404  0.030960057   0.03127415            1 
 1115000    1.0678353   -7.1174801    415.17382  0.031029434  0.031265879            1 
 1116000    1.0737687   -7.1340586    415.10509  0.030996497  0.031257681            4 
 1117000    1.0645862   -7.1240624    416.90943  0.031103359  0.031249569            2 
 1118000    1.0612197   -7.1788736    415.76851  0.030990497  0.031241302            4 
 1119000    1.0758219   -7.1468384    415.52929  0.030944987  0.031232903            3 
 1120000    1.0844891    -7.168579    415.19293  0.030892331  0.031224476            4 
 1121000     1.054351   -7.1108885     417.4427  0.031032018  0.031215965            1 
 1122000    1.0697849    -7.177394    415.43361   0.03085514  0.031207646            2 
 1123000    1.0702005    -7.129462    416.27252  0.030889917  0.031199053            2 
 1124000    1.0794462   -7.2153299    416.16013  0.030854102  0.031190567            1 
 1125000    1.0817644   -7.1214217    418.23832  0.030980616  0.031182075            1 
 1126000     1.085958   -7.1683404    416.76275  0.030843898  0.031173431            1 
 1127000    1.0720469   -7.1464788    416.42058  0.030791229  0.031164783            3 
 1128000    1.0816485   -7.1329762    417.99209   0.03088003   0.03115624            2 
 1129000    1.0762244   -7.1662061    417.50967  0.030817071  0.031147653            2 
 1130000    1.0659051   -7.1695373    417.73838  0.030806665  0.031139074            1 
 1131000    1.0601205   -7.1621115    419.14822  0.030883305  0.031130446            2 
 1132000    1.0801652    -7.146994    419.34939  0.030870832  0.031121936            2 
 1133000     1.059401   -7.1617327    419.92954  0.030886256  0.031113521            2 
 1134000    1.0725534   -7.1773868    419.37098  0.030817973   0.03110496            1 
 1135000    1.0862219   -7.1279823    420.54214  0.030876809  0.031096606            1 
 1136000    1.0787544   -7.1544569    420.17775  0.030822898  0.031088125            2 
 1137000    1.0476544   -7.2025046    419.61534  0.030754569  0.031079671            3 
 1138000    1.0327344   -7.1290843    419.95623  0.030752506  0.031071401            2 
 1139000    1.0761966    -7.160342    420.13295  0.030738436  0.031063111            2 
 1140000    1.0488204   -7.1831378    421.36118  0.030801256  0.031054871            2 
 1141000    1.0610015   -7.1852516    420.77548  0.030731484  0.031046393            2 
 1142000    1.0800092   -7.1782882    421.45522  0.030754175  0.031038196            2 
 1143000    1.0632039   -7.2024096    421.70508  0.030745485  0.031029805            2 
 1144000    1.0542695   -7.1888499    422.09107  0.030746727   0.03102164            2 
 1145000    1.0826912   -7.1554641    423.94948  0.030855129  0.031013375            2 
 1146000    1.0760768   -7.1677934    422.51155  0.030723644  0.031005293            3 
 1147000     1.071477   -7.1920747    424.45466  0.030838031  0.030997216            2 
 1148000    1.0482603   -7.1912378    423.68168  0.030755058   0.03098912            2 
 1149000     1.072632   -7.1667475    422.81136  0.030665169  0.030981112            1 
 1150000    1.0709772    -7.150519    424.43763   0.03075635  0.030972952            2 
 1151000      1.07621   -7.1631652     425.1855  0.030783775  0.030964772            2 
 1152000    1.0715902   -7.1989663    424.74998  0.030725548  0.030956607            4 
 1153000     1.058913   -7.1522027    425.39883  0.030745796  0.030948363            1 
 1154000    1.0787281    -7.168566    424.57102  0.030659375  0.030940089            2 
 1155000    1.0831258    -7.140311    424.69007  0.030641419  0.030931928            2 
 1156000    1.0529209   -7.2132783    424.38788  0.030593129  0.030923704            3 
 1157000    1.0390513   -7.1512689    427.26593  0.030773979  0.030915594            3 
 1158000    1.0800879   -7.1592669    428.35301  0.030825634  0.030907792            2 
 1159000    1.0798042   -7.1872696    427.27154  0.030721278  0.030899941            2 
 1160000     1.092574   -7.1575008    427.27003  0.030694686  0.030892152            1 
 1161000    1.0654454   -7.1633006    428.04262  0.030723702  0.030884576            2 
 1162000    1.0547041   -7.1679548    429.73398  0.030818558  0.030876974            2 
 1163000    1.0467421   -7.1720054    429.61095  0.030783244  0.030869485            2 
 1164000    1.0822031   -7.1856624    428.74861  0.030695061  0.030862002            1 
 1165000    1.0640462   -7.1440498    430.07924  0.030763894  0.030854535            2 
 1166000    1.0533058   -7.1376268    430.78572  0.030788002   0.03084722            1 
 1167000     1.058061   -7.2338804    430.20343  0.030720039  0.030839725            2 
 1168000    1.0796081   -7.1713421    429.95626  0.030676103  0.030832175            1 
 1169000    1.0521709   -7.1691212    431.44442  0.030755946  0.030824569            2 
 1170000    1.0632059   -7.1930085      430.306  0.030648575  0.030816864            1 
 1171000    1.0675926    -7.136445    432.29931  0.030764255  0.030809532            1 
 1172000    1.0726464   -7.1714202     430.3622   0.03060027  0.030801798            2 
 1173000    1.0389574   -7.1572398    431.52304  0.030656653  0.030794055            1 
 1174000    1.0549784   -7.1706634    431.07944  0.030599051  0.030786344            2 
 1175000    1.0491721   -7.1702843     431.8159  0.030625241  0.030778597            2 
 1176000    1.0746052    -7.152355    432.53877  0.030650423  0.030770861            2 
 1177000    1.0504223    -7.179553    432.79517  0.030642536  0.030763043            2 
 1178000    1.0645617   -7.1591169    432.67314   0.03060789  0.030755304            2 
 1179000    1.0729003   -7.1760666    433.39845  0.030633196   0.03074742            1 
 1180000    1.0913271   -7.1699324    433.39558  0.030607033  0.030739827            3 
 1181000    1.0549242   -7.1882377    434.84366  0.030683295  0.030732172            1 
 1182000     1.078204   -7.1529322    434.02367  0.030599526  0.030724528            3 
 1183000    1.0532803   -7.1716101    434.16712  0.030583764  0.030716738            3 
 1184000    1.0423643   -7.1817259    433.00199  0.030475928   0.03070888            2 
 1185000    1.0629523   -7.1551476    434.67432  0.030567814  0.030700922            2 
 1186000    1.0673542   -7.1844945    433.26896  0.030443294  0.030692922            3 
 1187000    1.0458283   -7.1554379    434.62138  0.030512593  0.030685124            2 
 1188000    1.0492119   -7.1643401    434.91189  0.030507287  0.030677236            2 
 1189000    1.0496473   -7.2071276     435.3157  0.030509931  0.030669317            2 
 1190000    1.0428593   -7.1822217    434.44662  0.030423433  0.030661277            1 
 1191000    1.0805147   -7.2027923    433.77905  0.030351179  0.030653171            1 
 1192000    1.0550368   -7.1775898    435.23517  0.030427514  0.030644997            1 
 1193000    1.0606085   -7.1739458    434.94463  0.030381715  0.030636786            1 
 1194000    1.0814718   -7.2047988     434.2249  0.030306037  0.030628548            4 
 1195000    1.0522209   -7.2360354    434.58331   0.03030567   0.03062044            1 
 1196000     1.080183   -7.2142025    436.90151  0.030441855  0.030612279            2 
 1197000    1.0519366   -7.1935036    438.19217  0.030506278  0.030604278            1 
 1198000    1.0820635   -7.1923185    435.47318  0.030291679  0.030596137            4 
 1199000    1.0584024   -7.1806418    435.57515  0.030273502  0.030587995            3 
 1200000    1.0587568   -7.1789317    437.01258  0.030348096  0.030579811            1 
 1201000    1.0692877   -7.1899864    438.28646  0.030411217  0.030571662            2 
 1202000    1.0404321    -7.194452     438.2601  0.030384089   0.03056373            2 
 1203000    1.0720891   -7.2030368    437.56096  0.030310402  0.030555803            2 
 1204000    1.0574208   -7.1553156    439.48185  0.030418179  0.030547887            2 
 1205000    1.0649151   -7.2240515    438.11008  0.030298069  0.030540044            3 
 1206000    1.0502338   -7.1915613    438.85769  0.030324605  0.030532206            1 
 1207000    1.0771915   -7.2229088     438.7817  0.030294235  0.030524439            1 
 1208000    1.0498283   -7.2239727    439.53045  0.030320809  0.030516582            2 
 1209000    1.0809422   -7.1709557    440.68904  0.030375588  0.030508718            1 
 1210000    1.0516526   -7.1985833    440.04848  0.030306369   0.03050097            4 
 1211000    1.0702095   -7.1697707    440.63375  0.030321618  0.030493227            3 
 1212000    1.0605956   -7.1680752    440.25598  0.030270625  0.030485435            2 
 1213000    1.0419763   -7.1810876    440.43743  0.030258136  0.030477462            1 
 1214000    1.0487741   -7.2103534     442.4262  0.030369728   0.03046968            2 
 1215000    1.0616959   -7.2034148    442.22056  0.030330628  0.030461903            2 
 1216000    1.0588848   -7.1991636    441.97131  0.030288604  0.030454131            4 
 1217000    1.0599687   -7.2046835     441.6346   0.03024066  0.030446283            2 
 1218000    1.0566939   -7.2110476    442.50109  0.030275115  0.030438446            1 
 1219000    1.0637901   -7.2001558    442.22497  0.030231404  0.030430518            2 
 1220000    1.0477045   -7.1877763    443.34479  0.030283114  0.030422496            2 
 1221000    1.0593416   -7.2040062     442.4509  0.030197304  0.030414428            2 
 1222000    1.0637238   -7.1834186    443.27455  0.030228761  0.030406171            2 
 1223000    1.0511339   -7.2277278     442.3554  0.030141415   0.03039808            2 
 1224000    1.0615897   -7.1759693    443.46509   0.03019234  0.030389875            1 
 1225000    1.0412263   -7.1650888    444.44898  0.030234624  0.030381756            2 
 1226000    1.0536296   -7.1890321    443.81745  0.030167037  0.030373816            4 
 1227000    1.0544139    -7.242174    443.46857  0.030118757  0.030365704            2 
 1228000    1.0638274   -7.2258194    445.32496  0.030220206  0.030357648            2 
 1229000    1.0580271   -7.2289511    445.72991  0.030223075  0.030349787            4 
 1230000     1.078002   -7.1626744    446.19585  0.030230071  0.030341879            2 
 1231000    1.0831411   -7.2400882    443.69016   0.03003589  0.030333795            3 
 1232000    1.0639809   -7.2314855    445.48868  0.030133163  0.030325798            3 
 1233000     1.029992   -7.1977654    445.53025  0.030111533  0.030317631            2 
 1234000     1.052853   -7.2020322      445.342  0.030074419  0.030309659            1 
 1235000    1.0793871   -7.1914975    446.10424  0.030101501   0.03030163            2 
 1236000    1.0474593   -7.1879596    447.32834  0.030159678   0.03029354            2 
 1237000    1.0651752   -7.2114185    445.70637  0.030026029  0.030285283            2 
 1238000     1.057906   -7.2268186    444.65599  0.029931071  0.030276939            1 
 1239000    1.0313321   -7.1884759    446.34314  0.030020389  0.030268674            4 
 1240000    1.0724693   -7.2107102    445.73442   0.02995527  0.030260492            2 
 1241000     1.053536   -7.1797676    447.29756  0.030036097  0.030252318            1 
 1242000    1.0560814   -7.2067032    447.75079  0.030042323  0.030244151            4 
 1243000    1.0270236   -7.2086488    448.24942  0.030051584   0.03023594            2 
 1244000    1.0488312   -7.2448306    447.60475  0.029984241  0.030227764            1 
 1245000    1.0252502   -7.2200197     448.8421  0.030042979  0.030219572            2 
 1246000    1.0387053    -7.192297    449.41448  0.030057148  0.030211525            1 
 1247000    1.0496577    -7.195442    449.56909  0.030043377  0.030203459            2 
 1248000     1.051279   -7.2210711    448.68396  0.029960201  0.030195499            1 
 1249000    1.0669677   -7.2351183    450.12422  0.030032307  0.030187429            1 
 1250000    1.0694927   -7.2210988    449.43274  0.029962183   0.03017934            2 
 1251000    1.0625454   -7.2006847    450.02089   0.02997741  0.030171262            2 
 1252000    1.0264363   -7.2147328    448.60302  0.029859093  0.030163176            3 
 1253000    1.0382644   -7.1894919    450.94003  0.029990691  0.030154948            3 
 1254000    1.0489314   -7.1925119    450.92032  0.029965465  0.030146819            2 
 1255000    1.0592325   -7.2159687    450.75426  0.029930562   0.03013855            3 
 1256000     1.074114   -7.2460639    449.03132  0.029792418  0.030130139            2 
 1257000    1.0410474   -7.2141923     450.3266  0.029854588  0.030121718            2 
 1258000    1.0528534   -7.2019101    449.33785  0.029765358  0.030113176            1 
 1259000    1.0446813   -7.1734357    450.80142   0.02983859  0.030104947            2 
 1260000    1.0429402   -7.1817722    450.45227  0.029791817  0.030096758            1 
 1261000    1.0790526   -7.2084905     452.5542  0.029907097  0.030088524            2 
 1262000    1.0334923   -7.1986814    452.19189  0.029859475  0.030080259            3 
 1263000    1.0612092   -7.2097155    451.55036  0.029793505  0.030071966            2 
 1264000    1.0321979   -7.2273676    451.81838  0.029787604  0.030063634            3 
 1265000    1.0454853   -7.1998989    452.41619  0.029803438  0.030055341            4 
 1266000    1.0436777   -7.2000443    453.45873  0.029848521  0.030047325            1 
 1267000    1.0351816   -7.2266387    452.90386  0.029788468  0.030039087            3 
 1268000    1.0397816   -7.2267012    452.84187  0.029760901  0.030030657            3 
 1269000    1.0542196    -7.227298    452.31147  0.029702618  0.030022311            6 
 1270000    1.0586881   -7.2406714     452.3609  0.029682473  0.030013916            2 
 1271000    1.0512215   -7.2296444    453.79126  0.029752902  0.030005656            3 
 1272000    1.0286452   -7.2375246    453.91805  0.029737818  0.029997354            1 
 1273000    1.0337496   -7.1968231    453.94759  0.029716391  0.029988776            3 
 1274000      1.02633   -7.1833789    454.77841  0.029747411  0.029980474            3 
 1275000    1.0425456   -7.1975801    455.53086  0.029773259  0.029972321            2 
 1276000    1.0538238   -7.2308953     455.0011  0.029715328  0.029963999            5 
 1277000    1.0417159   -7.2237288    456.37592  0.029781775  0.029955681            2 
 1278000     1.039233   -7.2300479     454.6539  0.029646185  0.029947404            2 
 1279000    1.0310934    -7.213315    456.63262   0.02975193  0.029939103            2 
 1280000    1.0500445   -7.2389662    455.87231  0.029679187  0.029930911            1 
 1281000    1.0414636   -7.2051868    456.55578   0.02970048  0.029922739            3 
 1282000    1.0229936   -7.2005034    456.76442  0.029690875  0.029914656            2 
 1283000    1.0262105   -7.2087555    456.56027  0.029654473  0.029906614            2 
 1284000    1.0388743   -7.2359617    457.16434  0.029670583  0.029898583            2 
 1285000    1.0591395   -7.2021646    459.65678   0.02980913  0.029890714            2 
 1286000    1.0570106   -7.1821321    458.76945  0.029728451   0.02988276            2 
 1287000    1.0333667    -7.213691    459.36161  0.029743694  0.029874896            2 
 1288000    1.0475359   -7.2026101     459.0484  0.029700337   0.02986688            1 
 1289000    1.0564948   -7.2038649    459.55083  0.029709777  0.029858957            3 
 1290000     1.052183   -7.2500555    458.20669  0.029599915  0.029850903            3 
 1291000    1.0374018   -7.2339794    459.14132  0.029637317  0.029842674            2 
 1292000    1.0734835   -7.1767662    459.41358  0.029631939  0.029834538            1 
 1293000    1.0619899    -7.179941    460.45695  0.029676266  0.029826496            5 
 1294000    1.0333009   -7.1528788    459.93915  0.029619986  0.029818374            3 
 1295000    1.0533357   -7.1898086    460.32253  0.029621785  0.029810332            2 
 1296000    1.0320969   -7.2494156    460.85788  0.029633351  0.029802415            4 
 1297000    1.0553974   -7.1805591    461.08949  0.029625385  0.029794418            1 
 1298000    1.0318915   -7.2028084    460.45136  0.029561592   0.02978648            4 
 1299000    1.0473299   -7.2197107    461.19757  0.029586706  0.029778325            2 
 1300000    1.0446934   -7.2276528    461.39725  0.029576747  0.029770189            2 
 1301000    1.0463132    -7.252801    461.95755  0.029589902  0.029762219            3 
 1302000    1.0450379   -7.1904847    464.05044  0.029701129  0.029754209            4 
 1303000    1.0448222   -7.2155841    464.23832  0.029690351  0.029746339            2 
 1304000    1.0415122   -7.2224531    462.63151  0.029564897  0.029738434            1 
 1305000    1.0196399   -7.1675122    465.04866  0.029696594  0.029730677            1 
 1306000    1.0690706   -7.2154028    463.95081  0.029603803   0.02972285            3 
 1307000     1.043155   -7.1943659    463.54243  0.029555115  0.029715055            2 
 1308000    1.0443318   -7.2089685     464.6799  0.029604989  0.029707171            1 
 1309000    1.0453425   -7.2243355    464.85181  0.029593316  0.029699368            2 
 1310000    1.0498171   -7.1917496    463.79393  0.029503431  0.029691684            3 
 1311000    1.0429473   -7.2687189    463.73826  0.029477388  0.029683748            4 
 1312000    1.0359814   -7.2715885    464.20182  0.029484364  0.029675699            1 
 1313000     1.018898   -7.2661485    464.01617  0.029450125  0.029667641            2 
 1314000    1.0616251   -7.2486507      464.003  0.029426877  0.029659738            2 
 1315000    1.0470054   -7.2425269    465.74693  0.029515014  0.029651907            2 
 1316000    1.0445521   -7.1886191      466.484   0.02953926  0.029644094            2 
 1317000     1.028881   -7.2080339    466.48185  0.029516695   0.02963632            1 
 1318000    1.0385827   -7.2695099    465.84434  0.029453992  0.029628442            2 
 1319000     1.022468   -7.2269944     466.2823  0.029459331  0.029620467            2 
 1320000    1.0342263   -7.2457394    465.83647  0.029408868  0.029612658            2 
 1321000    1.0469364   -7.2236329    468.85653  0.029577121  0.029604999            2 
 1322000    1.0164201   -7.2672074    467.11277  0.029444829  0.029597229            2 
 1323000    1.0340642   -7.2394344    468.07796  0.029483368  0.029589603            2 
 1324000    1.0515611   -7.2309618    467.62582  0.029432642  0.029581868            2 
 1325000     1.036799   -7.2507889    467.38195  0.029395091  0.029574255            7 
 1326000    1.0417363   -7.2413206    468.96971  0.029472706  0.029566693            1 
 1327000    1.0213642   -7.2407106    468.97906  0.029451084  0.029559044            1 
 1328000    1.0460814   -7.2258055    470.34642   0.02951471  0.029551463            2 
 1329000    1.0364927    -7.219754    469.73344  0.029454066  0.029544122            2 
 1330000    1.0297384   -7.2082811    469.65432  0.029426963  0.029536563            1 
 1331000    1.0476386   -7.2181223    471.95032  0.029548605   0.02952913            1 
 1332000    1.0422245   -7.2275239    471.63148  0.029506474    0.0295217            1 
 1333000    1.0348009   -7.2057455    470.84039  0.029434883  0.029514269            2 
 1334000    1.0281601    -7.251107    471.18569  0.029434388   0.02950682            2 
 1335000     1.031526   -7.2627208    472.79824  0.029512999  0.029499378            1 
 1336000    1.0439738   -7.2740533    471.30896  0.029398014  0.029491987            1 
 1337000    1.0176969    -7.237848    472.67476  0.029461155  0.029484367            2 
 1338000    1.0617072   -7.2177135    471.15118  0.029344244  0.029476801            2 
 1339000    1.0421309   -7.2664845    472.26733  0.029391793  0.029469285            1 
 1340000    1.0600078   -7.2601322    471.41059  0.029316579  0.029461679            4 
 1341000    1.0248933   -7.2245334    472.25205  0.029347008  0.029454219            2 
 1342000    1.0212341      -7.2803    472.04987  0.029312585  0.029446601            2 
 1343000    1.0206586   -7.2340572    474.17947  0.029422901  0.029439013            2 
 1344000    1.0421109   -7.2242652    474.27783  0.029407107  0.029431567            2 
 1345000    1.0265225   -7.2267369    473.79985  0.029355629  0.029424207            1 
 1346000    1.0120975   -7.2565526    473.04052  0.029286808  0.029416564            3 
 1347000    1.0313138   -7.2091774    474.16652  0.029334727  0.029408999            2 
 1348000     1.043478   -7.2777993    474.72953   0.02934777  0.029401526            2 
 1349000    1.0436515   -7.2514389    475.39292  0.029366995  0.029393974            1 
 1350000    1.0339413    -7.244199    475.54139  0.029354407  0.029386475            2 
 1351000    1.0365738   -7.2564314    474.17918  0.029248654  0.029378905            3 
 1352000    1.0423612   -7.2525511    476.05429  0.029342597  0.029371439            1 
 1353000    1.0228821    -7.253757    475.55955  0.029290438  0.029363854            1 
 1354000    1.0226836   -7.2302048    474.96503  0.029232215  0.029356112            1 
 1355000    1.0345491   -7.2421557    475.33961  0.029233678  0.029348402            3 
 1356000    1.0277157   -7.2631505     475.0127  0.029192029   0.02934055            3 
 1357000    1.0449407   -7.2070959    477.16437  0.029302651  0.029332913            2 
 1358000    1.0498604   -7.2587966    476.25176  0.029225071  0.029325397            2 
 1359000     1.025169   -7.2444688    475.54508  0.029160233  0.029317817            3 
 1360000    1.0440309   -7.1924726    477.67184  0.029269108  0.029310245            2 
 1361000    1.0406429   -7.2892532    476.28889  0.029162925   0.02930254            2 
 1362000    1.0376215   -7.2408038    477.44611  0.029212317  0.029294808            2 
 1363000    1.0330575   -7.2472356    477.28827  0.029181234  0.029287154            2 
 1364000    1.0175883   -7.2366598    477.99837  0.029203224  0.029279623            1 
 1365000    1.0072359   -7.2518323    477.92898  0.029177593  0.029272035            1 
 1366000    1.0137929   -7.2276864    478.99727  0.029221405  0.029264409            3 
 1367000    1.0460307   -7.2636896    478.06623  0.029143272  0.029256877            4 
 1368000    1.0333302   -7.2619951    477.80272  0.029105916  0.029249157            1 
 1369000    1.0207127   -7.2528179    480.94968  0.029276216  0.029241525            2 
 1370000    1.0447493   -7.2516167    480.93729  0.029254093  0.029233954            1 
 1371000     1.048031   -7.2170379    480.14355  0.029184509  0.029226382            3 
 1372000    1.0425667   -7.2907246    478.13416   0.02904119  0.029218743            1 
 1373000    1.0491635   -7.2354079    480.22618  0.029147013  0.029211249            2 
 1374000    1.0507679   -7.2698198    478.76045  0.029036903  0.029203563            2 
 1375000    1.0409048   -7.2463684    480.51424  0.029122075  0.029195816            3 
 1376000    1.0241652   -7.2208666    480.67547  0.029110675  0.029188148            4 
 1377000    1.0487871   -7.1932083    480.01092  0.029049318  0.029180442            2 
 1378000     1.036464   -7.2593162    480.67169  0.029068196  0.029172707            2 
 1379000    1.0356702   -7.2642977     481.3767  0.029089721  0.029165009            6 
 1380000     1.023472   -7.2637013    480.72111  0.029029053  0.029157304            5 
 1381000    1.0178908   -7.2294869    481.91712  0.029080203   0.02914948            3 
 1382000    1.0408626   -7.3045663    480.24628   0.02895841  0.029141695            2 
 1383000    1.0305947   -7.2926497    480.41277  0.028947504  0.029133782            4 
 1384000    1.0310469   -7.2698213    481.72298  0.029005478  0.029126009            1 
 1385000    1.0228147   -7.2561006     482.5851  0.029036408  0.029118366            2 
 1386000    1.0262328   -7.2014352    483.47435  0.029068924  0.029110852            2 
 1387000    1.0293268   -7.2468092    482.79189  0.029006963  0.029103154            6 
 1388000     1.066781   -7.2447475      483.374  0.029021014  0.029095441            1 
 1389000    1.0321274   -7.2528171    484.25456  0.029052949  0.029087654            2 
 1390000    1.0246394   -7.2239531    483.90145  0.029010878  0.029079834            2 
 1391000    1.0265712   -7.2581422    483.13288  0.028943978   0.02907202            4 
 1392000    1.0221036   -7.2407503    483.74631  0.028959909  0.029064285            3 
 1393000    1.0000301    -7.241122    484.48067   0.02898305  0.029056446            7 
 1394000    1.0185312   -7.2733618    483.31449  0.028892545  0.029048601            3 
 1395000    1.0380099   -7.2670433    485.57189  0.029006684  0.029040741            3 
 1396000    1.0417419   -7.1978221    485.73614   0.02899571  0.029033079            2 
 1397000    1.0348067   -7.2495234    484.48373  0.028900246  0.029025477            1 
 1398000    1.0350904   -7.2936356    483.90083  0.028844828  0.029017861            2 
 1399000    1.0330322   -7.2426722    485.45012  0.028916495  0.029010215            1 
 1400000    1.0244899    -7.251606    486.73233  0.028972163  0.029002581            2 
 1401000    1.0255432   -7.2846245    485.21249  0.028861081  0.028995112            1 
 1402000    1.0310902   -7.2489375    487.44396  0.028973131  0.028987501            3 
 1403000    1.0173763   -7.2460604    487.67949   0.02896647  0.028979932            3 
 1404000    1.0211831   -7.2493882      487.241  0.028919812  0.028972318            1 
 1405000    1.0282964   -7.2211291    486.92453  0.028880458  0.028964801            1 
 1406000    1.0150234   -7.2159725    489.19055  0.028994224  0.028957241            1 
 1407000    1.0154084   -7.2656486    488.15782  0.028912451  0.028949841            3 
 1408000     1.052615    -7.219018    488.52555  0.028913681  0.028942362            3 
 1409000    1.0120726   -7.2279347    489.12062  0.028928354  0.028934815            2 
 1410000    1.0327265   -7.2420271    488.45346  0.028868408  0.028927259            4 
 1411000    1.0190461   -7.2769344    487.03257  0.028764031  0.028919751            2 
 1412000    1.0369536   -7.2281988    488.70571  0.028842405  0.028912122            2 
 1413000    1.0257654   -7.2034215    488.91377  0.028834264   0.02890456            1 
 1414000    1.0051981   -7.2607639    489.03934  0.028821272  0.028897065            1 
 1415000    1.0224307   -7.2077557    490.84828  0.028907437  0.028889544            2 
 1416000    1.0137476   -7.2666435    490.16272  0.028846676  0.028882107            2 
 1417000    1.0427032   -7.2714234    491.03349  0.028877528  0.028874717            3 
 1418000    1.0408266   -7.2755615    490.92425  0.028850744  0.028867467            2 
 1419000    1.0266414   -7.2270578    493.18721  0.028963308  0.028860185            1 
 1420000    1.0253703   -7.2591632    491.17139  0.028824612  0.028852813            1 
 1421000    1.0171937   -7.2157186    491.78434  0.028840273  0.028845555            4 
 1422000    1.0328756   -7.2704557    491.71443  0.028815895  0.028838248            2 
 1423000    1.0403398   -7.2986714    491.67103  0.028793103  0.028830892            2 
 1424000    1.0206639   -7.2818626    493.01673  0.028851634  0.028823567            2 
 1425000    1.0413311   -7.2441558    492.69845  0.028812775  0.028816344            1 
 1426000    1.0062775   -7.2796273    492.25646   0.02876674  0.028809044            3 
 1427000    1.0346789   -7.2411942    494.64243  0.028885916  0.028801859            1 
 1428000    1.0296058   -7.2610474    493.23519  0.028783566   0.02879457            2 
 1429000    1.0231341   -7.2721683    494.25845  0.028823096  0.028787265            1 
 1430000    1.0324221   -7.2809916    494.20235  0.028799671   0.02877996            1 
 1431000    1.0484833   -7.3061444     493.2796   0.02872581  0.028772671            2 
 1432000    1.0311392   -7.2547186    494.08692   0.02875273  0.028765462            2 
 1433000    1.0245937   -7.2187107    496.22834  0.028857196  0.028758381            1 
 1434000    1.0333763   -7.2689787    495.48451  0.028793846  0.028751293            2 
 1435000    1.0120087   -7.2485774     495.6753  0.028784861  0.028744222            2 
 1436000   0.99715556   -7.3060357    494.43022  0.028692562  0.028737106            1 
 1437000    1.0294098   -7.2902246    495.54808  0.028737421  0.028730087            2 
 1438000    1.0275107   -7.2938289    495.79941  0.028732001  0.028723026            3 
 1439000    1.0137991   -7.2671347    498.18012  0.028849903  0.028715987            2 
 1440000     1.009107   -7.2603836    497.54699  0.028793228  0.028708817            1 
 1441000    1.0031187   -7.2657997    498.34724  0.028819526  0.028701768            2 
 1442000    1.0039481    -7.278451     499.2034  0.028849018  0.028694603            2 
 1443000    1.0426091   -7.2555586    497.26161  0.028716887  0.028687492            2 
 1444000   0.99323508   -7.2500752      497.803  0.028728244  0.028680404            3 
 1445000    1.0124628   -7.2841143    497.57596  0.028695268  0.028673272            2 
 1446000    1.0165594   -7.2759399    498.06688  0.028703716  0.028666073            1 
 1447000    1.0020261   -7.2601489    498.50001  0.028708823  0.028658914            1 
 1448000    1.0072108   -7.2755675     498.4974  0.028688847  0.028651901            5 
 1449000    1.0354797   -7.2952843    497.57669  0.028616097  0.028644672            2 
 1450000    1.0075284   -7.3204338     498.2726  0.028636356  0.028637324            1 
 1451000    1.0219845   -7.2784502    498.26001  0.028615898  0.028630014            2 
 1452000    1.0022855   -7.2594466    499.44398   0.02866414  0.028622741            2 
 1453000    1.0223263   -7.2911832    498.31159  0.028579467  0.028615525            3 
 1454000   0.99809059    -7.275141     499.1077  0.028605439  0.028608237            4 
 1455000    1.0221496   -7.2858266    498.07663  0.028526726  0.028600787            1 
 1456000    1.0258378   -7.2684069    499.73115  0.028601829  0.028593312            1 
 1457000    1.0441104   -7.2810348    500.16759   0.02860716  0.028586057            3 
 1458000    1.0334351   -7.2675474    501.27795  0.028651003  0.028578865            1 
 1459000    1.0402123   -7.2720901    499.58683  0.028534774  0.028571689            5 
 1460000    1.0230272    -7.276257    501.70008  0.028635849  0.028564568            1 
 1461000    1.0219358   -7.2898889    500.54428  0.028550324  0.028557401            1 
 1462000    1.0160748   -7.2602043    503.38211  0.028692551  0.028550411            3 
 1463000    1.0204164   -7.2759131    502.17489  0.028604174  0.028543328            1 
 1464000    1.0269969   -7.2872776    503.74004  0.028673727  0.028536287            2 
 1465000     1.020761    -7.236375    501.92797  0.028551079  0.028529141            3 
 1466000    1.0298703    -7.258366    502.32817  0.028554353  0.028522036            1 
 1467000    1.0242288   -7.2662107    502.38838  0.028538308  0.028514943            3 
 1468000    1.0259048   -7.2822623    503.24465  0.028567476  0.028507807            1 
 1469000    1.0402591   -7.2795144    501.98379  0.028476503  0.028500683       -1e+20 
 1470000    1.0423522   -7.2848839    504.07028  0.028575412  0.028493507            1 
 1471000    1.0134531   -7.2641827     502.6891  0.028477742  0.028486282            5 
 1472000    1.0219349   -7.2791388    503.48503  0.028503455  0.028479207            2 
 1473000    1.0007743   -7.2661698    504.12419  0.028520264   0.02847207            4 
 1474000    1.0240628   -7.2588883    503.95847  0.028491546  0.028464858            2 
 1475000    1.0165562   -7.2571502    504.86185  0.028523268  0.028457654            2 
 1476000    1.0061269   -7.3084042    502.31563  0.028360187  0.028450487            1 
 1477000   0.99707206   -7.3019116    503.57581  0.028412086  0.028443153            2 
 1478000    1.0014571   -7.3190227    503.83341  0.028407387  0.028435856            3 
 1479000    1.0280123   -7.2885675    504.44701  0.028422752  0.028428638            1 
 1480000    1.0057026   -7.2615913    505.17715  0.028444659  0.028421488            2 
 1481000    1.0318608   -7.2857255    506.53593  0.028501909  0.028414427            1 
 1482000    1.0237412   -7.2590832    505.82643  0.028442782  0.028407233            6 
 1483000   0.99502452   -7.2956836    506.09458   0.02843867  0.028400023            3 
 1484000    1.0033093   -7.2557364    505.82433  0.028404331  0.028392898            2 
 1485000    1.0150825   -7.2786134    506.51981  0.028424232  0.028385863            1 
 1486000    1.0337491   -7.2874478    507.02235  0.028433285  0.028378716            1 
 1487000    1.0211691   -7.2779588    507.92577  0.028464793  0.028371572            2 
 1488000    1.0161807   -7.2925539    507.23724  0.028407104  0.028364494            1 
 1489000   0.99741341   -7.2620564    509.41322  0.028509806  0.028357489            1 
 1490000    1.0208976   -7.2823366    507.69065  0.028394332  0.028350471            1 
 1491000    1.0095998   -7.2983936    508.53602  0.028422537  0.028343508            2 
 1492000    1.0057848   -7.3118538    507.67651   0.02835548  0.028336467            1 
 1493000     1.025088   -7.2848945     507.6905  0.028337268  0.028329546            3 
 1494000    1.0038881   -7.2974252    508.11708  0.028342095  0.028322499            1 
 1495000    1.0100879   -7.2829942    509.30219  0.028389197  0.028315511            3 
 1496000    1.0153621   -7.3163889     509.4368  0.028377719  0.028308449            1 
 1497000    1.0356955   -7.2781159    509.42625  0.028358174  0.028301521            1 
 1498000   0.99463682   -7.2993832     511.4541  0.028452053  0.028294496            2 
 1499000     1.015052    -7.267091    509.78262   0.02834015  0.028287401            1 
 1500000    1.0143236    -7.284778    510.41973  0.028356652  0.028280371            2 
 1501000    1.0395152   -7.2804296    511.80235  0.028414521  0.028273533            2 
 1502000   0.99650471   -7.2722208    512.04157  0.028408875  0.028266664            2 
 1503000    1.0233561   -7.3182817       511.92  0.028383234  0.028259778            1 
 1504000    1.0077518   -7.2996085    511.95009  0.028366029   0.02825289            1 
 1505000    1.0294421   -7.2902949    512.08035  0.028354394  0.028246013            2 
 1506000    0.9889637   -7.2776115    512.61559  0.028365183  0.028239123            1 
 1507000    1.0021732   -7.2938759    512.09699  0.028317684  0.028232181            3 
 1508000     1.008232   -7.2962141    512.88291  0.028342336  0.028225321            5 
 1509000    1.0050602   -7.2756857    512.35214  0.028294242  0.028218465            3 
 1510000    1.0096355   -7.2779794     513.4366  0.028335353  0.028211615            2 
 1511000   0.99938159   -7.2852228    513.46678  0.028318265  0.028204761            2 
 1512000   0.98995778   -7.2899007    515.23112  0.028396777  0.028197897            1 
 1513000   0.98932196   -7.2893146    514.62162  0.028344438  0.028191189            2 
 1514000    1.0079749   -7.2746291    515.90973  0.028396617  0.028184477            1 
 1515000    1.0223591    -7.293631    514.84457  0.028319283  0.028177705            2 
 1516000    1.0007055   -7.3196467    515.32563  0.028327047  0.028171003            3 
 1517000   0.98242668   -7.2731368    515.50788  0.028318385  0.028164431            2 
 1518000   0.99007146   -7.3138444    514.74979  0.028258113  0.028157582            1 
 1519000    1.0158281   -7.3491943    513.57337  0.028174971  0.028150666            2 
 1520000    1.0178577   -7.3177369    515.16636   0.02824377  0.028143719            2 
 1521000    1.0074596   -7.3111624    516.65912  0.028306986  0.028136827            2 
 1522000    0.9950812    -7.262494    515.30701  0.028214357  0.028129978            3 
 1523000   0.97238061    -7.260331     518.2971  0.028359438  0.028123176            2 
 1524000    1.0274737   -7.3200065    515.21427  0.028172259  0.028116296            2 
 1525000    1.0156928   -7.2893278    516.86986  0.028244255  0.028109412            1 
 1526000    1.0311912   -7.3045381    518.19599  0.028298165  0.028102571            2 
 1527000    1.0205806    -7.298249    516.16894   0.02816901  0.028095767            2 
 1528000    1.0031583   -7.2856097    518.79218   0.02829364  0.028089077            3 
 1529000    1.0144006   -7.2881473    519.85374  0.028332992  0.028082396            2 
 1530000    1.0182504   -7.2861742    519.14398  0.028275816  0.028075708            2 
 1531000   0.99213519   -7.3075299    517.57715  0.028172063   0.02806898            1 
 1532000   0.98723653   -7.3142681    518.04409  0.028179073  0.028062263            1 
 1533000   0.99116416   -7.3065529    517.55487  0.028134098  0.028055598            1 
 1534000    1.0165622   -7.3245066    517.74892    0.0281263  0.028048957            2 
 1535000   0.99108903   -7.3245527    518.80257  0.028165178  0.028042327            2 
 1536000    1.0000718   -7.3118048    518.86812  0.028150397  0.028035507            2 
 1537000    1.0022994   -7.3437537    517.88619  0.028078844  0.028028701            4 
 1538000    0.9984328   -7.2766788    520.40738  0.028197192  0.028021932            3 
 1539000     1.003953   -7.2983606     520.7566   0.02819778  0.028015182            1 
 1540000    1.0268909   -7.3255098    519.28939  0.028100075  0.028008402            1 
 1541000    1.0123624   -7.3008819    521.56757  0.028205038  0.028001725            2 
 1542000     1.007877   -7.2864978    521.14425   0.02816387  0.027994958            2 
 1543000    1.0041035   -7.2970035    521.71422    0.0281764  0.027988256            4 
 1544000    1.0071066   -7.3309845    520.60475   0.02809827  0.027981494            2 
 1545000    1.0119396   -7.3109559    520.34675  0.028066168  0.027974704            3 
 1546000   0.98255554   -7.3231123    519.89315  0.028023563  0.027967892            2 
 1547000    1.0142151   -7.3377708    521.19107  0.028075364    0.0279611            2 
 1548000    1.0185821   -7.3442573    520.98905  0.028046353  0.027954256            4 
 1549000    1.0015703   -7.3384085    519.63667  0.027955491  0.027947386            4 
 1550000   0.99456743    -7.283349    523.21118  0.028129634   0.02794059            3 
 1551000    1.0329955   -7.3332649    521.21264  0.028004118  0.027933912            1 
 1552000    1.0010984   -7.3129451    521.99423  0.028028041  0.027927123            4 
 1553000    1.0166181    -7.340394    523.44776  0.028087989   0.02792049            2 
 1554000    1.0068057   -7.3394206    522.11948  0.027998685    0.0279138            2 
 1555000   0.99358156   -7.3284724    522.61082  0.028007011  0.027907105            2 
 1556000   0.98540539   -7.3501313     522.1969  0.027966844  0.027900256            1 
 1557000    1.0135282   -7.3064376    522.68742  0.027975135  0.027893307            1 
 1558000    1.0229581    -7.319708    523.40031   0.02799531  0.027886447            3 
 1559000   0.99583514   -7.3110888     523.7736  0.027997306   0.02787968            2 
 1560000    1.0109833   -7.3229275    523.14668   0.02794587   0.02787289            1 
 1561000    1.0163128   -7.3012551     523.7609  0.027960757  0.027866078            2 
 1562000   0.98970369   -7.2830383    524.95691  0.028006664  0.027859431            2 
 1563000    1.0063811   -7.3204214    524.33523    0.0279556  0.027852677            2 
 1564000     1.018987   -7.3567479    524.61055  0.027952395  0.027845987            1 
 1565000    1.0011373   -7.3154509    524.89802  0.027949842  0.027839279            3 
 1566000   0.99814587   -7.2974364    527.46183  0.028068424  0.027832648            3 
 1567000    1.0121443   -7.3151934    527.52779   0.02805402   0.02782597            1 
 1568000   0.99999479    -7.341223    526.11237  0.027960904  0.027819342            1 
 1569000   0.99720354    -7.369732    526.86492  0.027983053  0.027812666            3 
 1570000   0.99294753   -7.2954146    528.07858  0.028029649   0.02780605            1 
 1571000    1.0114236   -7.3015426    527.98398  0.028006789  0.027799399            3 
 1572000    1.0154131   -7.3291977    526.51318  0.027911004  0.027792804            3 
 1573000    1.0001272    -7.346945    527.06891  0.027922701  0.027786239            6 
 1574000    1.0049436   -7.3225531    527.51718  0.027928694  0.027779671            4 
 1575000    1.0052001   -7.3253386    529.40108  0.028010639  0.027773231            1 
 1576000    1.0211694   -7.3450989    529.41206  0.027993447  0.027766735            2 
 1577000   0.98847564   -7.3106872    527.90735  0.027896182  0.027760334            1 
 1578000     1.000071    -7.314763    529.19258  0.027946376  0.027753897            4 
 1579000   0.98667071   -7.3379262    527.92937   0.02786201  0.027747451            3 
 1580000   0.99099319   -7.3263128    528.35022  0.027866573  0.027740965            2 
 1581000    1.0091222   -7.2858862    530.79425   0.02797777  0.027734533            3 
 1582000   0.98362782   -7.3309062    530.32991  0.027935625  0.027728058            2 
 1583000     0.975961   -7.3517353     529.7185  0.027885792  0.027721484            3 
 1584000   0.99496462   -7.3065468    530.56278  0.027912604  0.027715042            1 
 1585000   0.97585271   -7.3402431    530.78541  0.027906699  0.027708566            2 
 1586000   0.98850275   -7.3455179    530.07685  0.027851873  0.027702014            3 
 1587000    0.9766804    -7.323113    532.11391  0.027941289   0.02769546            4 
 1588000    1.0048322   -7.3390132    530.87095  0.027858467  0.027688982            4 
 1589000    1.0144634   -7.3589718    530.54893  0.027824047  0.027682436            2 
 1590000   0.98645979   -7.3192037    530.69126  0.027814007  0.027675872            4 
 1591000    1.0138914   -7.3301461    532.00127  0.027865141  0.027669346            1 
 1592000   0.98412127   -7.3508526     530.7079  0.027779936  0.027662769            3 
 1593000    1.0013688   -7.3492984    530.23275  0.027737641  0.027656245            2 
 1594000   0.98387282   -7.3032201    532.60083  0.027844041  0.027649606            1 
 1595000    1.0009367   -7.2969146    534.05393  0.027902504  0.027643159            2 
 1596000   0.98501918   -7.3349452    532.38244  0.027797746  0.027636582            2 
 1597000   0.95524089   -7.3408498    533.44554  0.027835814   0.02763014            2 
 1598000   0.98068159   -7.3552744    532.19941  0.027753411  0.027623623            8 
 1599000   0.99487939   -7.3025322    533.38668   0.02779793  0.027617164            2 
 1600000   0.99060659   -7.2994192    536.09516  0.027921623  0.027610926            1 
 1601000    1.0006733   -7.3470306    534.21934  0.027806545  0.027604649            1 
 1602000    1.0106552   -7.3518835    535.61005   0.02786153  0.027598255            2 
 1603000   0.97260591   -7.3448322    535.87035  0.027857681  0.027591962            3 
 1604000   0.97880027   -7.3291491    535.88385  0.027841015  0.027585624            1 
 1605000   0.99069529   -7.3238202    536.35167  0.027847958  0.027579239            2 
 1606000   0.98996557   -7.3098633    536.84397  0.027856163  0.027573003            2 
 1607000    0.9831205   -7.3017043    536.71393  0.027832085  0.027566731            1 
 1608000   0.99640839   -7.3121293    537.00403  0.027829811  0.027560442            1 
 1609000    1.0156035   -7.3379144    537.38346  0.027832166  0.027554081            2 
 1610000     0.984408   -7.3381433    536.10526  0.027748719  0.027547762            3 
 1611000   0.96489669   -7.3308514    536.13083  0.027732818   0.02754158            1 
 1612000      1.00327   -7.3117273    537.97209  0.027810799  0.027535307            3 
 1613000    1.0012196   -7.3578686    539.09131   0.02785138   0.02752907            1 
 1614000   0.98363355   -7.3487713    540.37587  0.027900448  0.027522789            1 
 1615000   0.99025206   -7.3224876    538.57821  0.027790413  0.027516602            2 
 1616000     1.015129   -7.3217131    539.55386  0.027823528  0.027510509            4 
 1617000   0.99503673   -7.3072331    538.53432  0.027753779  0.027504478            1 
 1618000   0.97982998   -7.3222848    540.21613  0.027823245  0.027498428            1 
 1619000    1.0039639   -7.3503826    538.35643  0.027710337  0.027492366            2 
 1620000   0.98886332   -7.3329489    541.75032  0.027867815  0.027486265            2 
 1621000   0.98182588   -7.3503778    539.56274  0.027738163  0.027480079            2 
 1622000   0.99932306   -7.3720575    539.22793   0.02770386  0.027473986            1 
 1623000   0.97081467   -7.3246371    541.49763  0.027803329  0.027467881            5 
 1624000   0.99777958   -7.3193109    540.99312   0.02776032  0.027461853            3 
 1625000   0.98943312   -7.3449638    541.13569  0.027750548  0.027455812            1 
 1626000   0.99688882   -7.3297354    542.60769  0.027808922  0.027449802            1 
 1627000   0.99903851   -7.3216241    541.03158  0.027711103  0.027443773            1 
 1628000   0.99199862   -7.3282579    541.62968  0.027724697  0.027437719            2 
 1629000    0.9846487   -7.3745084     542.1819  0.027735927  0.027431609            3 
 1630000   0.97843129   -7.3849648    541.49868  0.027683982  0.027425521            2 
 1631000   0.99989632    -7.301721    542.72269  0.027729547   0.02741941            2 
 1632000    1.0044639   -7.3359885     541.6398  0.027657261  0.027413383            2 
 1633000   0.98616368   -7.3474717    542.37722  0.027677956   0.02740732            6 
 1634000    1.0040563   -7.3260758    543.62488  0.027724647  0.027401329            3 
 1635000   0.97824323   -7.3685961    542.82243  0.027666791   0.02739525            3 
 1636000   0.99440895   -7.3325113    543.45587  0.027682145  0.027389112            1 
 1637000   0.97601178   -7.3559764      543.591  0.027672114  0.027383047            5 
 1638000   0.99470254   -7.3489763    542.78432   0.02761418  0.027376993            2 
 1639000   0.98615151   -7.3798047     543.3801  0.027627623  0.027371015            2 
 1640000     0.980145   -7.3230872    544.05479  0.027645061  0.027364897            3 
 1641000   0.99966225   -7.3247464    546.23076  0.027738714  0.027358844            3 
 1642000   0.98700094   -7.3588914    544.06459  0.027611885  0.027352718            1 
 1643000   0.99109039   -7.3341632     544.5014  0.027617235  0.027346639            2 
 1644000   0.99274406   -7.3198746    545.56199  0.027654197  0.027340509            1 
 1645000    0.9961708   -7.3462433    546.24905  0.027672191  0.027334424            4 
 1646000   0.99374046   -7.3109581    546.15304  0.027650519  0.027328472            3 
 1647000   0.99205865   -7.3512869    545.63784  0.027607662  0.027322461            1 
 1648000   0.97466056   -7.3431362    546.14185  0.027616396  0.027316355            1 
 1649000   0.95609467   -7.3356278    546.45484  0.027615466  0.027310375            2 
 1650000   0.97942645   -7.3617046    545.42189   0.02754656  0.027304452            3 
 1651000   0.98904538   -7.3428683     547.3241  0.027625888   0.02729845            2 
 1652000   0.99885904   -7.4064428    547.18111  0.027601953   0.02729243            3 
 1653000   0.98299095   -7.3491728     547.8776  0.027620367  0.027286408            1 
 1654000     1.001315   -7.3541076    548.92831  0.027656606  0.027280404            2 
 1655000     1.002705   -7.3694475    548.67503  0.027627142  0.027274337            2 
 1656000    1.0071401   -7.3811327    546.17284  0.027484543  0.027268267            3 
 1657000   0.96366995   -7.3638596    548.65302  0.027592688  0.027262054            2 
 1658000   0.98674737   -7.3737163    547.39425  0.027512779  0.027255907            1 
 1659000   0.98752394   -7.3503323    549.07316  0.027580528  0.027249796            6 
 1660000   0.97266242   -7.3654406     548.7638  0.027548383  0.027243712            4 
 1661000   0.97781824    -7.342797      549.952  0.027591411  0.027237589            2 
 1662000   0.97350807   -7.3515445    549.13603  0.027533896  0.027231606            2 
 1663000   0.99800164    -7.383109     549.9542  0.027558338  0.027225474            2 
 1664000   0.97445964   -7.3479595    551.06645  0.027597478  0.027219542            2 
 1665000   0.99469816   -7.3218995    550.23426  0.027539252  0.027213572            2 
 1666000   0.99280179    -7.337766    551.52986  0.027587528  0.027207669            3 
 1667000   0.98850857   -7.3990573    550.93775  0.027541379    0.0272017            1 
 1668000   0.98977875   -7.3511703     550.7368  0.027514828  0.027195704            2 
 1669000   0.98917359   -7.3196304    551.65587  0.027544231  0.027189807            2 
 1670000   0.97356251   -7.3635146    551.65488  0.027527689  0.027183952            3 
 1671000   0.98584607   -7.4050682    549.85207  0.027421308  0.027178079            1 
 1672000   0.99642552   -7.3646953    552.30994  0.027527409  0.027172159            1 
 1673000   0.95221932   -7.3369484    551.87174  0.027489128  0.027166266            4 
 1674000   0.97611647   -7.3482919    553.16967  0.027537319  0.027160501            3 
 1675000   0.98243646   -7.3543204    553.78698  0.027551591  0.027154674            2 
 1676000   0.98350429   -7.3484605    553.81212  0.027536402   0.02714889            1 
 1677000   0.99569156    -7.370709    554.92197  0.027575132  0.027143089            1 
 1678000    1.0159887   -7.3719163    553.64026  0.027495047  0.027137227            2 
 1679000   0.98459844   -7.3761198    552.87286  0.027440583  0.027131342            1 
 1680000    1.0097205   -7.3557366    553.54777  0.027457727  0.027125453            1 
 1681000   0.98592795   -7.3860074    552.88632  0.027408602  0.027119467            1 
 1682000   0.97971521   -7.3750592    553.96159   0.02744558  0.027113513            3 
 1683000   0.98297465   -7.3696863    554.70194  0.027465931  0.027107521            4 
 1684000   0.99351881   -7.3391582      555.667  0.027497377  0.027101725            2 
 1685000   0.98326668   -7.3300704    555.33945  0.027464859  0.027095934            2 
 1686000   0.96790322    -7.370645    555.68182  0.027465491  0.027090002            1 
 1687000   0.97311236   -7.4049984    554.63902  0.027397699  0.027084092            1 
 1688000   0.97610514   -7.3744745    554.86533   0.02739264   0.02707806            1 
 1689000    1.0035198   -7.3491456     555.7924  0.027422163  0.027072055            4 
 1690000   0.96554362   -7.3614886    554.45162  0.027339823  0.027066125            3 
 1691000   0.99747545   -7.3605445    554.05494  0.027304107  0.027060234            1 
 1692000    0.9897111    -7.393906    556.02314  0.027384906  0.027054366            2 
 1693000   0.97789032   -7.3563566    555.75178  0.027355374  0.027048434            4 
 1694000    0.9651491    -7.379159    556.30174   0.02736628   0.02704248            8 
 1695000   0.98397205   -7.3791848    555.46811   0.02730915  0.027036493            1 
 1696000   0.96712501   -7.3434096    556.93789  0.027365266  0.027030523            2 
 1697000   0.96913748   -7.3609935    556.73795  0.027339322  0.027024599            2 
 1698000   0.98654245   -7.3389977    557.90432  0.027380463  0.027018737            2 
 1699000   0.95870881   -7.3407398    556.98754  0.027319381  0.027012837            2 
 1700000   0.98943239   -7.3446306        557.9  0.027348039  0.027006881            1 
 1701000   0.98010529   -7.3731265    558.27821   0.02735049  0.027001018            1 
 1702000   0.95958239   -7.3821294    557.14457  0.027278916  0.026995012            4 
 1703000   0.98135583   -7.3430239    558.52382  0.027330389   0.02698904            2 
 1704000   0.98082236   -7.4105362    557.97613  0.027287565  0.026982911            2 
 1705000   0.97743107   -7.3639321    558.97195  0.027320232  0.026976894            1 
 1706000   0.99628314   -7.3350767    558.39423  0.027275998  0.026970965            3 
 1707000   0.99425069   -7.3443174    558.84277  0.027281916  0.026964951            2 
 1708000   0.97297087   -7.3864886    559.30203   0.02728835  0.026959053            1 
 1709000    0.9738089   -7.2983478    559.27521  0.027271075   0.02695321            2 
 1710000   0.99357154   -7.3389877      560.164  0.027298441  0.026947201            4 
 1711000   0.97661933   -7.3626518    557.93093  0.027173725  0.026941227            2 
 1712000   0.98116657   -7.3313252    559.85961  0.027251733  0.026935135            1 
 1713000   0.96605198   -7.3601266     558.9086   0.02718956  0.026929182            2 
 1714000   0.98195835    -7.356546    559.38703  0.027196958  0.026923055            2 
 1715000   0.97090859    -7.377906    559.83847  0.027203035   0.02691704            1 
 1716000   0.96635714    -7.406126    558.57069  0.027125616   0.02691093            1 
 1717000    0.9989327    -7.388028    559.92595  0.027175595  0.026904803            2 
 1718000   0.98161373   -7.3260006     561.4976  0.027236011  0.026898851            2 
 1719000   0.97026316   -7.3582251    560.87957  0.027190206  0.026892976            2 
 1720000    0.9670201   -7.3500465    561.70729  0.027214501  0.026886977            1 
 1721000   0.97602087   -7.3679259    562.83256  0.027253175  0.026881002            2 
 1722000   0.98635221   -7.3571271    560.95197   0.02714634  0.026875111            2 
 1723000   0.96187347   -7.3636474    562.02026  0.027182253  0.026869247            2 
 1724000   0.97839501   -7.3806855    561.58869  0.027145625  0.026863263            1 
 1725000    0.9695183   -7.3474935    562.52071  0.027174914  0.026857379            3 
 1726000     0.990441   -7.3889963    560.85619  0.027078804  0.026851421            2 
 1727000   0.98633301    -7.345794    563.14911  0.027173765  0.026845462            1 
 1728000   0.95598895   -7.3762964    561.07728  0.027058125  0.026839429            2 
 1729000   0.99912505   -7.3516862    563.13845  0.027141818  0.026833371            2 
 1730000   0.97489211   -7.3800745    563.36203    0.0271369  0.026827359            2 
 1731000   0.96642264   -7.3784213     565.5205  0.027225135  0.026821443            2 
 1732000   0.97392325   -7.3675411    564.11829   0.02714195   0.02681548            2 
 1733000    0.9791971   -7.3748152    563.38953  0.027091245  0.026809436            2 
 1734000   0.99566986   -7.4055059    563.37079  0.027074721  0.026803409            1 
 1735000   0.96718103   -7.3955963    563.98648  0.027088688  0.026797463            3 
 1736000   0.97883903   -7.3902096    564.12248  0.027079612  0.026791449            3 
 1737000   0.96247812   -7.3731021     563.3601  0.027027447  0.026785441            2 
 1738000   0.97629305   -7.3392176    565.11529  0.027096053  0.026779471            2 
 1739000   0.97493672   -7.3856827    566.27823    0.0271362  0.026773465            2 
 1740000   0.95525819   -7.3429012    564.88708  0.027053979  0.026767534            1 
 1741000   0.97150221   -7.3973624    563.23969  0.026959587  0.026761497            2 
 1742000   0.97122861   -7.3530902    566.34896  0.027092851  0.026755554            3 
 1743000   0.98702373   -7.3690999    566.91503  0.027104371  0.026749633            1 
 1744000   0.99255356   -7.3881568    565.77752  0.027034476   0.02674366            2 
 1745000   0.97069808   -7.3742215    567.60981  0.027106486  0.026737565            2 
 1746000   0.97471609   -7.3628189    566.58141  0.027041877  0.026731432            3 
 1747000   0.96072863   -7.4038198    566.47018  0.027021092  0.026725444            7 
 1748000   0.96152257    -7.382873    566.91173  0.027026684  0.026719496            5 
 1749000   0.96407694   -7.3957043    567.83118   0.02705504  0.026713646            2 
 1750000   0.96391601   -7.4002059    565.32463   0.02692022  0.026707662            1 
 1751000    0.9570319    -7.390902    567.73321  0.027019475  0.026701672            1 
 1752000   0.98303695   -7.3903647    566.64958   0.02695251  0.026695602            2 
 1753000    1.0007835   -7.3557828    568.11086  0.027006601  0.026689504            4 
 1754000   0.96543919    -7.395576    567.85732  0.026979158  0.026683508            2 
 1755000   0.96604903   -7.3539074     567.4064  0.026942374  0.026677485            2 
 1756000   0.95373331   -7.3868428    568.47485  0.026977736   0.02667137            2 
 1757000   0.95656826   -7.3865104    568.71204  0.026973631  0.026665229            2 
 1758000    0.9617289     -7.40541    566.51825  0.026854297  0.026659056            3 
 1759000   0.95004386   -7.3771657    568.19819  0.026918618  0.026652857            2 
 1760000   0.94642605   -7.3851035    568.91738  0.026937376  0.026646665            6 
 1761000   0.96648075   -7.3612787    569.47567  0.026948499  0.026640536       -1e+20 
 1762000   0.98353721   -7.4225074    567.00728  0.026816462  0.026634279            3 
 1763000   0.98371832   -7.3956386    567.71979   0.02683493  0.026628064            2 
 1764000   0.99622238   -7.3647611    570.24378  0.026938954  0.026621946            2 
 1765000    0.9844986   -7.3752939    570.78339  0.026949169  0.026615918            1 
 1766000   0.99495626   -7.4139243    569.86622  0.026890629  0.026609749            2 
 1767000    0.9501945   -7.3773465    571.47031  0.026951061  0.026603645            2 
 1768000   0.96358168   -7.3668009    569.52855  0.026844294  0.026597584            1 
 1769000   0.95702249   -7.3825762    569.79877  0.026841849  0.026591446            2 
 1770000   0.94378638   -7.3963524    569.45892  0.026810683    0.0265853            1 
 1771000   0.98171659    -7.392237     568.7686  0.026763062  0.026579048            1 
 1772000   0.97238642   -7.3971807     570.0886  0.026810036  0.026572838            1 
 1773000   0.97135764   -7.4020493     568.4232  0.026716638  0.026566625            4 
 1774000   0.97159724   -7.4053746    571.49563  0.026845905  0.026560532            3 
 1775000   0.98252994   -7.4193873    570.74786  0.026795674  0.026554305            2 
 1776000   0.97920362   -7.4148136    572.20629  0.026849019  0.026548101            2 
 1777000   0.98429253   -7.3570688    571.94955   0.02682187  0.026541926            3 
 1778000   0.98737256   -7.3751734    573.00428  0.026856219   0.02653585            1 
 1779000   0.97776886   -7.3814306    571.66069  0.026778185  0.026529693            4 
 1780000   0.98475012   -7.3854467    571.23372  0.026743152  0.026523622            3 
 1781000   0.96605604   -7.3722273    572.47428  0.026786182  0.026517553            4 
 1782000   0.95895611   -7.4200168    572.88199  0.026790217  0.026511441            2 
 1783000   0.96458897    -7.402629    572.69085  0.026766258  0.026505382            2 
 1784000   0.95613887   -7.3889602    574.05308  0.026814886  0.026499371            2 
 1785000   0.94874582   -7.4201059    573.94231  0.026794692  0.026493372            2 
 1786000    0.9660817   -7.4234449    572.62955  0.026718437  0.026487315            1 
 1787000   0.99017335   -7.3783291    573.82565  0.026759264  0.026481253            3 
 1788000    0.9519669   -7.4007812    574.34118  0.026768325  0.026475186            3 
 1789000   0.95876831   -7.3701699    575.07639  0.026787609  0.026469225            1 
 1790000   0.97129452   -7.3861602     574.7626  0.026758035   0.02646322            3 
 1791000   0.97604447   -7.4485796    571.96824  0.026613076  0.026457095            5 
 1792000   0.96900598   -7.3835905    576.35401  0.026802177  0.026450986            3 
 1793000    0.9659167   -7.3741553    574.27458  0.026690583  0.026444907            3 
 1794000   0.95984582   -7.4018764    573.18884  0.026625271  0.026438764            1 
 1795000   0.95603263   -7.4074591    575.08873  0.026698641  0.026432547            2 
 1796000   0.96701871    -7.404943    575.10066  0.026684329  0.026426377            2 
 1797000   0.96608375   -7.4150787    574.34063  0.026634234   0.02642023            4 
 1798000   0.95499743   -7.4121561     575.3289  0.026665225  0.026414061            1 
 1799000   0.97356887   -7.3997761    576.41644   0.02670078  0.026407844            2 
 1800000   0.95923639   -7.3846487    575.09301  0.026624676  0.026401704            2 
 1801000    0.9819644   -7.4132299    575.24774  0.026617052  0.026395421            2 
 1802000   0.95789068   -7.4186748    573.16467   0.02650595  0.026389155            1 
 1803000    0.9711399    -7.391372    576.28871   0.02663564  0.026382937            2 
 1804000   0.96565448   -7.3875266    574.78523  0.026551424  0.026376742            2 
 1805000   0.97341789   -7.3871397    575.18051  0.026554964  0.026370433            3 
 1806000   0.92836665    -7.441078    575.46269   0.02655328  0.026364059            4 
 1807000   0.96323101   -7.3947938      575.074  0.026520661  0.026357788            4 
 1808000   0.96350204   -7.4093558    576.70944  0.026581372  0.026351437            3 
 1809000   0.95045138   -7.4262167    574.91297  0.026483922  0.026344975            1 
 1810000   0.97229482    -7.430063    573.39497    0.0263994  0.026338501            2 
 1811000   0.95774272   -7.4399765    575.84085   0.02649737  0.026332134            5 
 1812000   0.95351711   -7.4353515    576.09031   0.02649422  0.026325779            1 
 1813000   0.94852799   -7.4034795    576.65474   0.02650555  0.026319504            2 
 1814000    0.9681578   -7.4201142    576.79624  0.026497438  0.026313253            1 
 1815000   0.95588595   -7.3932162    578.20438  0.026547492  0.026306985            2 
 1816000   0.94794296   -7.3877869    577.91534   0.02651961  0.026300752            1 
 1817000   0.97839557   -7.4047242    578.85842  0.026548267  0.026294559            3 
 1818000   0.97450242   -7.4298937     577.4265  0.026468028  0.026288281            2 
 1819000   0.96363088   -7.4063057    578.52163  0.026503648  0.026281934            2 
 1820000   0.95542714   -7.4356117    579.06065  0.026513766   0.02627568            3 
 1821000   0.97204222   -7.3840652     579.7022  0.026528565  0.026269333            2 
 1822000   0.96710314   -7.3882944    580.42647  0.026547131   0.02626314            2 
 1823000   0.96925264   -7.3997316    579.57262  0.026493537  0.026256961            3 
 1824000   0.95216797    -7.365973    580.60105  0.026525998  0.026250798            1 
 1825000   0.95191861   -7.4135634    579.39558  0.026456419   0.02624453            8 
 1826000   0.95433642    -7.392258    578.97795  0.026422871  0.026238307            2 
 1827000   0.95577126   -7.4141577    579.46208  0.026430491  0.026232094            2 
 1828000   0.96595536   -7.4033969    579.44695  0.026415342  0.026225821            2 
 1829000   0.98113267   -7.4136721    581.06961  0.026474832   0.02621957            2 
 1830000   0.97752308   -7.4270288    580.94212  0.026454559  0.026213353            2 
 1831000   0.97149314   -7.4142663    580.87731  0.026437162  0.026207112            4 
 1832000   0.96747177   -7.4104903    582.89438  0.026514482  0.026200966            2 
 1833000   0.96224883   -7.3733885    581.99823  0.026459276  0.026194803            1 
 1834000   0.95728779   -7.4456635    580.52932  0.026378104  0.026188579            2 
 1835000   0.95757521   -7.3893504    582.38648  0.026448069   0.02618233            5 
 1836000     0.977825    -7.397912    581.19023  0.026379368  0.026176114            4 
 1837000   0.95414288   -7.4236431    581.74129  0.026390006  0.026169858            2 
 1838000   0.96292225   -7.4011801    580.91342  0.026338113  0.026163569            4 
 1839000   0.95478855   -7.4428749    582.11681  0.026378322  0.026157387            2 
 1840000   0.95191054   -7.3917307     584.6065  0.026476744  0.026151203            2 
 1841000   0.94812849   -7.3916793    584.60053  0.026462092  0.026145028            2 
 1842000    0.9535256   -7.4369906    582.78812  0.026365731  0.026138849            3 
 1843000   0.96710016   -7.4143408    582.34727  0.026331492  0.026132672            3 
 1844000   0.96522499   -7.4197151    583.45754  0.026367387  0.026126485            2 
 1845000   0.96185151   -7.4345436    583.26837  0.026344551  0.026120209            1 
 1846000    0.9574638   -7.4300719    582.72153  0.026305595  0.026113979            2 
 1847000   0.95617338   -7.4243494    585.37083  0.026410884  0.026107725            1 
 1848000   0.95983068   -7.4173787    582.88881  0.026284669  0.026101414            2 
 1849000   0.95185641   -7.4414731    583.54224  0.026299903  0.026095177            2 
 1850000   0.95153136   -7.4187137    583.75196  0.026295133  0.026088953            2 
 1851000   0.97750192   -7.4451421    583.19806   0.02625599  0.026082718            4 
 1852000   0.93170124   -7.4190252     585.1501  0.026329648  0.026076368            1 
 1853000   0.93851835   -7.4688571    583.00384  0.026218917  0.026069987            1 
 1854000    0.9580437   -7.4463155    582.38569  0.026176991  0.026063564            2 
 1855000    0.9452406   -7.4504286     583.5805  0.026216554   0.02605719            4 
 1856000   0.96689791   -7.4418223    584.43147  0.026240637  0.026050851            2 
 1857000   0.95006832    -7.442171    583.83417  0.026199702  0.026044478            3 
 1858000   0.95980849   -7.4422935    583.63278  0.026176569   0.02603805            2 
 1859000   0.95696304   -7.4217567    587.11177   0.02631844  0.026031668            2 
 1860000    0.9515909    -7.454012    584.49308  0.026186966  0.026025328            2 
 1861000   0.94206687   -7.4397402    585.70248   0.02622705  0.026018972            1 
 1862000   0.95097105   -7.4016088    586.12561  0.026231902  0.026012722            2 
 1863000   0.97094466   -7.4196521    586.71774  0.026244308  0.026006457            4 
 1864000   0.97289762   -7.4034151    586.81291  0.026234483  0.026000183            2 
 1865000   0.94232526   -7.3929244    585.84169  0.026177019  0.025993796            1 
 1866000   0.93221524   -7.4387937    585.66372  0.026155043  0.025987333            2 
 1867000   0.94280611   -7.4575331    586.25728  0.026167527  0.025980853            2 
 1868000     0.956042   -7.3654178    586.48619  0.026163731   0.02597443            2 
 1869000   0.96910321   -7.4453446    586.61432  0.026155445   0.02596803            3 
 1870000   0.97296271   -7.3881046    587.48761  0.026180375  0.025961659            3 
 1871000    0.9393458    -7.431081    586.47793  0.026121411  0.025955303            3 
 1872000   0.94847953   -7.4378452    586.25099  0.026097355   0.02594888            2 
 1873000   0.97574057   -7.4565392    586.59908  0.026098909    0.0259425            3 
 1874000   0.94538585   -7.4479577    587.56838  0.026128085  0.025936052            1 
 1875000   0.95573234   -7.4469424    587.35972  0.026104876  0.025929651            1 
 1876000   0.96778389   -7.4442619    587.01055  0.026075451  0.025923152            1 
 1877000   0.94114023   -7.3888604    589.32276  0.026164214    0.0259168            2 
 1878000    0.9504228    -7.439853    589.11661  0.026141135  0.025910498            7 
 1879000   0.94983953   -7.4568062    588.24851  0.026088722  0.025904028            3 
 1880000   0.95149994   -7.4395256    588.16184  0.026071003  0.025897561            3 
 1881000   0.97019148     -7.43401    587.12874  0.026011374  0.025891151            2 
 1882000   0.92965119   -7.4117609    587.32918  0.026006428  0.025884717            2 
 1883000   0.96407002    -7.430079    588.43008  0.026041338   0.02587818            3 
 1884000   0.95434752   -7.4596452    587.60299  0.025990932  0.025871673            1 
 1885000   0.95485847   -7.4316168    587.57194  0.025975771  0.025865123            2 
 1886000   0.96713403   -7.4342365    588.97448   0.02602397  0.025858593            1 
 1887000   0.94619261   -7.4331878    589.46719  0.026031938  0.025852089            2 
 1888000   0.97051418   -7.4204814    588.42576  0.025972182  0.025845604            3 
 1889000   0.94348254   -7.4036288    590.66912  0.026057399  0.025839154            2 
 1890000   0.95263095   -7.3906836    590.41468  0.026032393  0.025832821            2 
 1891000   0.95888574   -7.3853214    590.65322  0.026029139  0.025826376            3 
 1892000   0.95888306   -7.4294165     589.1692  0.025950018  0.025819885            4 
 1893000   0.97887322   -7.4032617     590.7026  0.026003812  0.025813386            2 
 1894000    0.9421829   -7.4329134    591.01577  0.026003862  0.025807009            2 
 1895000    0.9439626    -7.455524    589.72668  0.025933451  0.025800489            3 
 1896000   0.93951462   -7.4391137    590.01704  0.025932535  0.025793952            2 
 1897000   0.94011814    -7.435652     590.7078  0.025949209   0.02578745            2 
 1898000    0.9513794   -7.4493241    589.93019  0.025901396  0.025780959            2 
 1899000    0.9527705   -7.4195077    590.13669  0.025896818  0.025774507            3 
 1900000   0.96238184   -7.4463039    591.19759  0.025929719  0.025768058            1 
 1901000   0.96329859   -7.4314137    592.02053  0.025952154  0.025761656            2 
 1902000   0.92495122   -7.4535451    592.32663   0.02595192  0.025755235            3 
 1903000   0.94100076   -7.4416308    592.56667  0.025948794  0.025748836            1 
 1904000   0.93272056   -7.4448917    590.97019  0.025865292  0.025742409            2 
 1905000   0.93791927   -7.4805926    590.92889  0.025849908  0.025735917            2 
 1906000   0.93296721   -7.4489183    593.19943  0.025935617  0.025729478            3 
 1907000   0.94279373   -7.4319571    592.19399   0.02587808  0.025723069            2 
 1908000   0.95057825   -7.4807953    592.21159  0.025865286  0.025716589            2 
 1909000   0.95992061   -7.4581781    593.01468  0.025886794   0.02571002            3 
 1910000   0.93675157    -7.443464      593.863  0.025910253  0.025703526            1 
 1911000   0.95387449   -7.4329799    594.62518  0.025929931  0.025697086            2 
 1912000   0.94804413   -7.4610205    592.51983  0.025824609  0.025690571            2 
 1913000   0.95064169   -7.4376293    592.57456  0.025813494   0.02568405            3 
 1914000   0.92959503   -7.4378853    591.74323  0.025763812  0.025677536            3 
 1915000   0.95655686   -7.4539769    591.74001  0.025750218   0.02567097            1 
 1916000   0.95051704   -7.4457175     592.1834  0.025756063  0.025664363            1 
 1917000   0.96039845   -7.4532467    592.29704  0.025747567  0.025657798            4 
 1918000   0.93295121   -7.4280112    592.99349  0.025764403  0.025651202            2 
 1919000   0.92310576   -7.4152585    594.75643  0.025827533  0.025644589            5 
 1920000   0.95011123   -7.4674458    591.37529   0.02566733   0.02563795            1 
 1921000   0.93642259   -7.4343262    591.74947  0.025670201  0.025631351            3 
 1922000   0.93960347   -7.4461415    593.10101  0.025715444  0.025624693            2 
 1923000   0.92429277   -7.4387369    593.69015  0.025727602  0.025618121            5 
 1924000   0.93889405    -7.424845    594.11765  0.025732746  0.025611498            3 
 1925000   0.94554198    -7.480048    594.23416  0.025724423  0.025604779            8 
 1926000   0.93312468   -7.4652716    592.88286  0.025652599  0.025598149            6 
 1927000   0.93496492   -7.4165114    594.80052  0.025722216  0.025591455            2 
 1928000   0.94698701   -7.4198287     594.1326  0.025680005   0.02558478            2 
 1929000   0.93838366     -7.46803     591.8674  0.025568835  0.025578004            1 
 1930000   0.92604694   -7.4581907    594.08889  0.025651507  0.025571181            2 
 1931000   0.94799945   -7.4664108    593.79322  0.025625462   0.02556453            2 
 1932000   0.97072781    -7.448213    595.25805  0.025675382  0.025557894            2 
 1933000   0.95736925    -7.461694    594.60188  0.025633811  0.025551358            1 
 1934000   0.93745888    -7.443878    594.95786  0.025635895  0.025544636            2 
 1935000   0.95517603   -7.4731748    594.80084  0.025615884  0.025537966            4 
 1936000   0.93764627   -7.4610909    594.31818  0.025581878  0.025531254            3 
 1937000   0.92911479   -7.4307738    595.78429  0.025631745  0.025524573            2 
 1938000   0.93628375   -7.4557196     595.4326  0.025603397  0.025517928            3 
 1939000   0.93039698   -7.4677124    593.98259  0.025527875  0.025511217            2 
 1940000    0.9472474   -7.4604293    595.81635  0.025593486  0.025504509            2 
 1941000   0.95581053   -7.4640545    595.15973  0.025552109   0.02549788            1 
 1942000   0.93580722   -7.4573683    594.86272  0.025526206  0.025491267            2 
 1943000   0.97932205     -7.44018    597.36396  0.025620345  0.025484581            4 
 1944000   0.95838451   -7.4898141    595.50021  0.025527272  0.025477917            3 
 1945000   0.95464759   -7.4487444    596.14655   0.02554184    0.0254712            2 
 1946000   0.94524878   -7.4743478    597.75122  0.025597432  0.025464496            3 
 1947000   0.92170453   -7.4585847    597.69269  0.025581779  0.025457817            1 
 1948000   0.94615264   -7.4617339    595.43221  0.025471946   0.02545109            3 
 1949000   0.95128725   -7.4622549    596.04003  0.025484865   0.02544425            2 
 1950000   0.94717431   -7.4722976    596.07043  0.025473095  0.025437394            1 
 1951000    0.9412993   -7.4627023     596.0448  0.025458944  0.025430568            2 
 1952000   0.93331676   -7.4471027    594.93898  0.025398693  0.025423749            3 
 1953000   0.95228412   -7.4796662    593.93705  0.025342936  0.025416839            5 
 1954000   0.94608916   -7.4711196    594.61364  0.025358821  0.025409922            2 
 1955000   0.92980878   -7.4572437    596.28293  0.025417005  0.025402965            2 
 1956000   0.94146738   -7.4451188    596.50856  0.025413623  0.025396065            1 
 1957000   0.92885019   -7.4437669    598.07716  0.025467431  0.025389295            2 
 1958000    0.9192933   -7.4876821    596.52896  0.025388533  0.025382474            1 
 1959000   0.95622204   -7.4443161    596.47873  0.025373436  0.025375565            2 
 1960000   0.93742709   -7.4851502    595.58124  0.025322332  0.025368614            2 
 1961000   0.93420094    -7.481193    598.19428  0.025420461  0.025361677            2 
 1962000   0.92579143   -7.4861209    597.03913  0.025358441  0.025354675            3 
 1963000   0.92538204   -7.4631488    596.81399  0.025335965  0.025347758            3 
 1964000   0.95710022   -7.4849995    598.29653  0.025385969   0.02534088            3 
 1965000   0.93833259   -7.4767896    598.83873  0.025396045  0.025334036            2 
 1966000   0.93540863   -7.4738694    597.75323  0.025337115  0.025327163            1 
 1967000   0.93775761   -7.4457751    598.84263  0.025370388  0.025320303            2 
 1968000   0.93784225   -7.4489462     598.8912  0.025359553   0.02531346            2 
 1969000   0.92891907   -7.4659384    598.43718  0.025327458   0.02530657            5 
 1970000   0.94991553   -7.4923492    598.98948  0.025337965  0.025299652            2 
 1971000   0.96115009   -7.4810954    600.02205  0.025368766  0.025292768            1 
 1972000    0.9402284   -7.4947191     598.3102  0.025283562   0.02528589            3 
 1973000   0.93957819   -7.4741742    599.18303  0.025307612  0.025278973            1 
 1974000   0.92773582   -7.4492989    600.91573  0.025367938   0.02527223            3 
 1975000    0.9290834   -7.4622381    601.35512  0.025373634   0.02526547            2 
 1976000   0.93958054   -7.4460927    600.94769   0.02534361  0.025258735            4 
 1977000   0.94322098   -7.4809146    601.12298   0.02533818   0.02525203            4 
 1978000   0.95804303   -7.4668928    601.72503  0.025350734  0.025245299            2 
 1979000   0.94919785   -7.4616244    600.83889   0.02530061  0.025238591            2 
 1980000    0.9525633   -7.4444393    602.29976  0.025349317  0.025231921            3 
 1981000   0.94535203   -7.4661331    602.72435  0.025354381  0.025225271            3 
 1982000   0.92830588   -7.4596453    601.95391  0.025309196  0.025218638            2 
 1983000    0.9353813   -7.4780034    601.76625  0.025288546  0.025211887            4 
 1984000   0.92924959   -7.4981752    600.92912  0.025240639  0.025205151            4 
 1985000   0.94046321    -7.493625    601.74248  0.025262069  0.025198448            2 
 1986000   0.94106074   -7.4625915    603.85808   0.02533812   0.02519181            2 
 1987000   0.92438119   -7.4740858    603.42674  0.025307278  0.025185262            3 
 1988000   0.92516773   -7.4450937    604.50582  0.025339781  0.025178689            2 
 1989000   0.94552628   -7.4797181    602.02856  0.025223251  0.025172052            3 
 1990000   0.93488042   -7.4759157     602.5642  0.025233007  0.025165387            1 
 1991000   0.93685925   -7.4680168    603.69824  0.025267799  0.025158758            1 
 1992000   0.93443795   -7.4579846    602.69628  0.025213198  0.025152158            1 
 1993000     0.935203   -7.4814593    603.93266  0.025252244  0.025145545            1 
 1994000   0.93834005   -7.4405221    603.85525  0.025236344  0.025138934            4 
 1995000   0.94210004   -7.4546673    603.36665  0.025203285  0.025132366            3 
 1996000   0.92047838   -7.5017349    603.00663  0.025175628  0.025125662            2 
 1997000   0.90985393   -7.4842679    604.29905  0.025216953  0.025118938            5 
 1998000   0.95210311   -7.5096781    604.30773  0.025204693  0.025112248            3 
 1999000   0.92531052   -7.5013034    603.70578  0.025166991  0.025105542            2 
 2000000   0.92776422   -7.4858173    604.23304  0.025176377   0.02509889            2 
 2001000   0.93633829    -7.464076      605.369  0.025211103  0.025092135            3 
 2002000   0.94764711   -7.4409014    604.79963   0.02517481  0.025085502            2 
 2003000   0.92669381   -7.4811255    604.01357  0.025129538  0.025078889            1 
 2004000   0.93253769   -7.4927812    604.65086  0.025143499   0.02507217            4 
 2005000   0.93230068    -7.478099    603.83327  0.025096977  0.025065408            5 
 2006000   0.94499906   -7.4653175     605.0706  0.025135868  0.025058697            1 
 2007000   0.92267062   -7.5013309    605.09249  0.025124252  0.025051936            3 
 2008000   0.94161188   -7.4642657    604.94615  0.025105667  0.025045185            2 
 2009000   0.94275242    -7.488088    606.96882  0.025177071  0.025038477            2 
 2010000   0.92896052   -7.4687742    604.40485  0.025058244  0.025031757            1 
 2011000   0.91728678    -7.464827    605.94932  0.025109785  0.025025078            2 
 2012000   0.92394892   -7.5193489    605.38095  0.025073763  0.025018427            2 
 2013000   0.94492726    -7.467571    605.11142   0.02505015  0.025011674            2 
 2014000   0.90725702   -7.4475356    607.36116    0.0251308  0.025005012            2 
 2015000   0.92745521    -7.475758    606.82383  0.025096106  0.024998363            2 
 2016000    0.9393775   -7.4646947    606.28008   0.02506118  0.024991617            2 
 2017000   0.94216743   -7.4519457    605.89063  0.025032665  0.024984892            2 
 2018000   0.94544441   -7.4919768    606.41291  0.025041828   0.02497818            3 
 2019000   0.93234746   -7.5181214    606.05071  0.025014475  0.024971481            3 
 2020000   0.89473692   -7.4798685    608.06823  0.025085323  0.024964817            1 
 2021000   0.91597215   -7.4959107    605.88254  0.024982787  0.024958034            1 
 2022000   0.91116864   -7.5159517    607.59298  0.025040924  0.024951334            5 
 2023000   0.92802462   -7.4951364    606.21217  0.024971666   0.02494458            5 
 2024000   0.92567879   -7.4688636    607.82782  0.025025849  0.024937852            6 
 2025000   0.91099282   -7.5136425    608.29807  0.025032842  0.024931134            1 
 2026000    0.9364066   -7.5038355    607.83411  0.025001403  0.024924412            4 
 2027000   0.91307763    -7.467439    609.04061   0.02503867  0.024917702            3 
 2028000   0.94454717   -7.4713377    608.53473  0.025005536   0.02491101            2 
 2029000   0.93753784   -7.4790925    607.69107  0.024958562  0.024904274            1 
 2030000   0.93949102   -7.5151662    606.60169  0.024901547  0.024897495            1 
 2031000   0.92921591   -7.4849801    609.22954  0.024997109  0.024890775            3 
 2032000    0.9113991    -7.477134    609.29567  0.024987519  0.024884093            1 
 2033000   0.92733034    -7.474129    609.89562   0.02499982   0.02487744            4 
 2034000   0.92727506   -7.4798006     608.1459  0.024915843  0.024870743            1 
 2035000   0.93240126    -7.469608    609.29714  0.024950743  0.024864048            3 
 2036000   0.93146731   -7.5069343    609.01641  0.024926998  0.024857349            2 
 2037000   0.95472327    -7.477344    610.72032  0.024984467  0.024850744            2 
 2038000   0.91838963   -7.4914817    609.40099  0.024918261  0.024844116            2 
 2039000   0.91108691   -7.4933359    608.38825   0.02486465  0.024837407            6 
 2040000    0.9223041   -7.5081055     610.7268   0.02494799  0.024830722            1 
 2041000   0.93519475   -7.4925377     608.5977  0.024848837  0.024823969            1 
 2042000   0.93112026   -7.5129138     608.6971  0.024840724  0.024817191            2 
 2043000   0.91201172   -7.4948968    609.78648     0.024873    0.0248105            2 
 2044000   0.91061132   -7.5092949    609.25113  0.024839006  0.024803768            3 
 2045000   0.94042274   -7.4830467    610.74643  0.024887793  0.024797081            1 
 2046000    0.9351171    -7.497736    609.67534  0.024832003  0.024790392            1 
 2047000   0.93832031   -7.4895428    610.14778  0.024839105  0.024783646            1 
 2048000   0.94019523   -7.4741539    612.65895  0.024929156    0.0247769            3 
 2049000    0.9169269   -7.5334066    610.11536  0.024813542  0.024770164            7 
 2050000   0.91655572   -7.4933875    609.56979   0.02477926  0.024763408            2 
 2051000   0.92266034   -7.5074243    610.54301  0.024806721  0.024756626            1 
 2052000   0.93026346   -7.4763651    611.86593  0.024848356  0.024749937            2 
 2053000   0.91481219   -7.5126569    611.81225  0.024834074  0.024743251            2 
 2054000   0.93536753   -7.4995243    611.05439  0.024791236  0.024736505            2 
 2055000   0.92253686   -7.5070102    609.89869  0.024732307  0.024729729            3 
 2056000   0.90681329   -7.4842499    614.20947  0.024895001  0.024722986            3 
 2057000   0.92287838   -7.4841638    612.73532  0.024823178  0.024716296            2 
 2058000   0.91505807   -7.4949436     611.2884  0.024752527  0.024709549            1 
 2059000   0.91630551   -7.5141131    611.18589  0.024736356  0.024702847            1 
 2060000   0.92758596   -7.5172874    611.35422  0.024731158  0.024696069            5 
 2061000   0.92974836   -7.5047903    611.28229   0.02471625  0.024689335            2 
 2062000   0.90842307   -7.5042398     613.4015  0.024789909  0.024682628            2 
 2063000   0.90679006   -7.4841745    612.62748  0.024746626  0.024675954            2 
 2064000   0.92758605   -7.4619372     614.1553  0.024796322  0.024669283            4 
 2065000   0.92868144   -7.4889911    610.52449  0.024637792  0.024662532            1 
 2066000   0.92921571   -7.4702217    614.45285   0.02478432  0.024655796            4 
 2067000   0.91464138   -7.5289579    612.23005  0.024682714  0.024649029            3 
 2068000   0.92923117    -7.512245    612.55591   0.02468391  0.024642193            6 
 2069000   0.94352436   -7.5164929    613.46474  0.024708585  0.024635436            1 
 2070000   0.93034584   -7.5094583     614.5127  0.024738837  0.024628694            4 
 2071000   0.92070502   -7.4990121      613.936  0.024703686  0.024621972            2 
 2072000   0.93578382   -7.5224666    613.14304  0.024659871  0.024615191            2 
 2073000    0.9274815   -7.5131519    614.13083  0.024687684  0.024608497            2 
 2074000   0.92846589   -7.5338951    613.74204  0.024660159  0.024601741            2 
 2075000   0.92763267   -7.5004284     614.8611  0.024693217  0.024594986            2 
 2076000   0.92072971   -7.5049517    614.21027  0.024655197  0.024588316            4 
 2077000   0.93886578   -7.5361681     613.5917  0.024618508  0.024581613            3 
 2078000   0.92189755   -7.5154099      615.046  0.024664982  0.024574875            3 
 2079000   0.92327046   -7.4825387    614.98736  0.024650768  0.024568164            2 
 2080000   0.91912683   -7.5013497    614.55944  0.024621772  0.024561475            2 
 2081000   0.90437252   -7.4818621     617.4296  0.024724876  0.024554741            3 
 2082000   0.90487291   -7.4934732    615.47248  0.024634665  0.024547967            2 
 2083000   0.89858911   -7.5048479    613.51569  0.024544555  0.024541215            3 
 2084000   0.90903724    -7.529718    614.01972  0.024552932   0.02453441            4 
 2085000   0.90949801   -7.4829863    615.34866  0.024594271    0.0245277            1 
 2086000   0.93252136   -7.4999624    615.17537  0.024575558  0.024521013            2 
 2087000    0.9065071   -7.5076253    615.22514   0.02456577  0.024514293            1 
 2088000   0.90523575   -7.5224781    615.83333  0.024578278   0.02450756            2 
 2089000   0.90873201   -7.5332115    615.96604  0.024571806  0.024500849            1 
 2090000   0.91620327   -7.5108929    615.39215  0.024537167  0.024494182            2 
 2091000   0.95114151    -7.499372    615.06363   0.02451234  0.024487582            1 
 2092000   0.91317539   -7.5136212    617.14806  0.024583654  0.024480959            2 
 2093000   0.89863409   -7.4878068    617.57052  0.024588729  0.024474305            1 
 2094000   0.92562665   -7.5005263    620.46502  0.024692177  0.024467655            5 
 2095000   0.93191361   -7.5026041    617.27191  0.024553378  0.024461028            3 
 2096000   0.92625651   -7.4967659    616.34134  0.024504665  0.024454417            1 
 2097000   0.90488779   -7.4477098    618.40763  0.024575093  0.024447812            4 
 2098000   0.91475279   -7.5115884    617.17556  0.024514441   0.02444119            2 
 2099000   0.92997996   -7.5438622    617.48744  0.024515144  0.024434592            2 
 2100000   0.93140983   -7.5023854    618.90363  0.024559668  0.024428081            4 
 2101000   0.91490301   -7.5111836    618.53193  0.024533235  0.024421545            1 
 2102000   0.90384736   -7.5282247    617.86796  0.024495241  0.024414966            1 
 2103000   0.91115365   -7.5187569    618.71162  0.024517024  0.024408345            2 
 2104000   0.91668409   -7.4639453    619.69327  0.024544252  0.024401786            2 
 2105000   0.93112443   -7.5003592    618.94368  0.024502917  0.024395355            2 
 2106000   0.89579228   -7.5134843    619.93366  0.024530455  0.024388867            1 
 2107000    0.9360299   -7.5267084    620.17899  0.024528516   0.02438226            2 
 2108000   0.90632241   -7.4941653    619.64046  0.024495591  0.024375631            3 
 2109000   0.91479792    -7.543467    618.80162  0.024450831  0.024369074            3 
 2110000    0.9255386   -7.5484013    620.91121  0.024522559  0.024362494            2 
 2111000   0.94119991   -7.4988494    621.40475  0.024530426  0.024355981            4 
 2112000   0.92797318   -7.5337804    620.92731  0.024499973  0.024349451            2 
 2113000   0.90783039   -7.5076139     620.6044  0.024475643  0.024342882            1 
 2114000   0.88843104   -7.5368273    620.34336  0.024453775   0.02433628            6 
 2115000   0.93010679   -7.5488097    620.70756  0.024456563  0.024329722            3 
 2116000   0.92462194   -7.4899246    621.80776  0.024488333   0.02432318            2 
 2117000   0.90802803   -7.5621298    619.46665  0.024384611  0.024316571            2 
 2118000   0.91964404   -7.5412644    621.21207  0.024441772  0.024309969            3 
 2119000   0.90590357   -7.5398854    619.01021  0.024343645  0.024303392            2 
 2120000   0.94170417   -7.5512012    621.84674  0.024443661  0.024296782            3 
 2121000   0.89371764   -7.5038867    622.89177  0.024473195  0.024290248            3 
 2122000   0.91857686   -7.5122582    620.59955  0.024371644   0.02428373            4 
 2123000   0.90455828   -7.5246562    621.46543  0.024394153  0.024277218            4 
 2124000   0.89748055   -7.5196305    621.75446  0.024394007  0.024270673            1 
 2125000   0.91546861   -7.5154247    623.24065   0.02444081  0.024264137            1 
 2126000   0.90665464   -7.5208762    621.25751   0.02435158   0.02425764            2 
 2127000   0.90296546   -7.5456375    623.63456  0.024433261  0.024251103            2 
 2128000   0.89688546   -7.5071254    622.86046  0.024391465  0.024244594            3 
 2129000   0.92036296   -7.4822661    624.09344   0.02442827  0.024238202            3 
 2130000   0.91359307   -7.5279757    623.35835  0.024388042  0.024231745            3 
 2131000   0.92434923    -7.516621    623.82583  0.024394878  0.024225291            2 
 2132000   0.92159644   -7.5408105    622.15901  0.024318285   0.02421874            1 
 2133000   0.91293519   -7.5076975    625.11106  0.024422217   0.02421221            2 
 2134000    0.9085681   -7.5062623    622.58425    0.0243121  0.024205717            2 
 2135000   0.90609101   -7.5273794    623.46412  0.024335055  0.024199138            1 
 2136000   0.90833799   -7.5010447    624.02246  0.024345446  0.024192659            2 
 2137000   0.89395529   -7.4978025    625.05467  0.024374305  0.024186116            2 
 2138000   0.92639263   -7.5340711    622.96512  0.024281459  0.024179478            3 
 2139000   0.89721601   -7.5485886    622.45198  0.024250116  0.024172826            3 
 2140000   0.92335658   -7.5096652    624.25894  0.024309149  0.024166249            3 
 2141000   0.91091403   -7.5324486    622.52109  0.024230153  0.024159625            3 
 2142000   0.91376759    -7.517108    622.17279  0.024205291     0.024153            3 
 2143000   0.91640887   -7.5129198    622.91883  0.024223006  0.024146356            6 
 2144000    0.9202373   -7.5281794    621.61766  0.024161134  0.024139691            3 
 2145000   0.90615835   -7.5798584    621.49377  0.024145057  0.024133015            2 
 2146000   0.91760995   -7.5198805    624.08991  0.024234619  0.024126332            2 
 2147000   0.90455839   -7.5229564    622.46097  0.024160106  0.024119629            3 
 2148000   0.89865347   -7.5435905    623.85601   0.02420298  0.024112959            1 
 2149000    0.8971224   -7.5057885    624.05948  0.024199608   0.02410621            4 
 2150000   0.89393825   -7.5234782     625.0066  0.024225062    0.0240995            4 
 2151000   0.90766622   -7.5618266    623.34997  0.024149619  0.024092839            2 
 2152000    0.9026126   -7.5127413      625.211  0.024210463  0.024086167            1 
 2153000    0.9071883   -7.5218138    623.96019  0.024150805  0.024079476            2 
 2154000   0.91057664   -7.5143534     624.8763  0.024175035  0.024072825            3 
 2155000   0.88815018   -7.4991379    625.87744  0.024202531  0.024066226            3 
 2156000   0.90916637   -7.4832443    626.67118  0.024221985  0.024059667            2 
 2157000   0.90886271   -7.5471669    624.86202   0.02414086  0.024053118            2 
 2158000   0.90746192   -7.5818769    624.60255  0.024119654  0.024046503            1 
 2159000   0.91309624   -7.5492601    626.06215   0.02416482  0.024039954            2 
 2160000   0.90689446   -7.5701424    626.00994  0.024151618  0.024033437            4 
 2161000   0.87796122    -7.527644    627.15197  0.024184481   0.02402692            1 
 2162000   0.89820911   -7.5343109     627.0971   0.02417118  0.024020397            2 
 2163000   0.90580123      -7.5651    625.42687  0.024095657  0.024013865            4 
 2164000   0.91051827   -7.5233829    626.98492  0.024144521  0.024007341            4 
 2165000    0.9146372   -7.5893606    625.32787  0.024069587  0.024000738            1 
 2166000   0.90408048   -7.5176015    626.50888  0.024103912   0.02399413            2 
 2167000   0.90881414   -7.5500036    626.25717  0.024083109  0.023987546            3 
 2168000   0.92627544   -7.5564309    625.64444  0.024048449   0.02398087            5 
 2169000   0.90341135   -7.5546068    624.96957  0.024011433  0.023974201            6 
 2170000   0.90112855   -7.5517935     624.6377  0.023987623  0.023967468            1 
 2171000   0.90437663   -7.5502204    625.73214  0.024018584  0.023960768            2 
 2172000   0.89993663   -7.5549754    626.95587  0.024054476  0.023954081            3 
 2173000   0.90032817   -7.5481597    625.95886  0.024005172   0.02394743            1 
 2174000   0.92141351   -7.5149238    627.29242  0.024045248  0.023940796            3 
 2175000   0.89384582   -7.5152953    628.33538  0.024074153  0.023934201            4 
 2176000   0.91897306   -7.5124827    627.94276  0.024048053  0.023927612            3 
 2177000   0.91035394   -7.5148299    626.81746  0.023993931  0.023921014            3 
 2178000   0.90279689   -7.5047042    629.93869  0.024102337  0.023914498            3 
 2179000   0.91814889   -7.5480318    626.61113  0.023964017  0.023907949            1 
 2180000   0.90712611   -7.5224318    628.56638  0.024027767  0.023901392            2 
 2181000   0.91770383   -7.5507618    627.05372  0.023958953  0.023894783            3 
 2182000   0.93468507   -7.5405639    629.33971  0.024035278  0.023888177            3 
 2183000   0.89743183   -7.5182455    627.50488  0.023954225  0.023881595            2 
 2184000   0.92073268   -7.5622488    628.61358  0.023985561  0.023875001            3 
 2185000    0.8912988   -7.5207822    630.97898  0.024064797   0.02386842            2 
 2186000   0.90907563   -7.5439661    629.68137  0.024004322  0.023861846            2 
 2187000    0.9166305   -7.5311454    628.61386  0.023952669  0.023855211            3 
 2188000   0.89875691   -7.5817378    628.14121  0.023923721    0.0238486            3 
 2189000   0.89977616   -7.5486767    628.87264  0.023940636  0.023841953            1 
 2190000   0.90133188   -7.5325483    630.44061  0.023989369  0.023835353            1 
 2191000   0.90767042   -7.5491683     629.6843  0.023949654  0.023828661            2 
 2192000   0.87988741   -7.5784975    629.89303  0.023946663  0.023822009            2 
 2193000   0.89288876    -7.575879    629.69039  0.023928044  0.023815413            3 
 2194000   0.90592421   -7.5677477    630.79479  0.023959085  0.023808868            2 
 2195000   0.89656519   -7.5677074    630.62323  0.023941656  0.023802328            2 
 2196000   0.90679203   -7.5460164    631.62512  0.023968773  0.023795772            5 
 2197000    0.9051419   -7.5314511    629.64265  0.023882668   0.02378927            5 
 2198000   0.88928465       -7.514    631.09544  0.023926882  0.023782789            1 
 2199000   0.91930894   -7.5279254    631.64848  0.023936959  0.023776324            3 
 2200000   0.88282155   -7.5713203    630.54592  0.023884315  0.023769784            3 
 2201000   0.91462516   -7.5425692    630.69238  0.023879009  0.023763267            2 
 2202000   0.88318216   -7.5517267    630.61516  0.023865242  0.023756723            2 
 2203000   0.89494662   -7.5411898    630.91595  0.023865787  0.023750121            2 
 2204000   0.88647257   -7.5529587    630.37494  0.023834503  0.023743521            1 
 2205000   0.89232771    -7.509887    631.04025  0.023848838  0.023736908            3 
 2206000   0.89837931   -7.5127452    632.17052  0.023880724  0.023730258            2 
 2207000   0.89052452   -7.5535466    630.62722   0.02381163  0.023723676            2 
 2208000   0.91626072   -7.5557039    631.58949  0.023837164  0.023717035            5 
 2209000   0.90153892   -7.5729114    629.64699  0.023753093  0.023710418            2 
 2210000   0.90930318   -7.5531579    632.31758  0.023843046   0.02370385            3 
 2211000   0.88296125   -7.5136882    632.26538  0.023830295  0.023697304            2 
 2212000   0.89138578    -7.568189    632.90767  0.023843719  0.023690741            3 
 2213000   0.89097172   -7.5805737    632.23095  0.023807461  0.023684197            4 
 2214000   0.89798915   -7.5328976    631.69205  0.023776425  0.023677642            5 
 2215000   0.90502117   -7.5384854     631.5878  0.023761768  0.023671026            2 
 2216000   0.89988428   -7.5375773    631.15913  0.023734925  0.023664426            3 
 2217000   0.90764497   -7.5330693    633.86331  0.023825865  0.023657896            2 
 2218000   0.89304694   -7.5520632    633.28828  0.023793518  0.023651338            2 
 2219000   0.90122836   -7.5499323    633.41097  0.023787403   0.02364482            3 
 2220000   0.86003899   -7.5710983    632.05868  0.023725927  0.023638244            3 
 2221000     0.904397   -7.5544509    633.02814  0.023751619  0.023631637            2 
 2222000   0.89557791   -7.5492303    633.51848  0.023759319  0.023625002            1 
 2223000   0.91009771   -7.5789006    631.15403  0.023659995  0.023618383            2 
 2224000   0.90229323   -7.5806425    633.73916  0.023746221  0.023611793            2 
 2225000   0.89131463   -7.5776493    633.52739  0.023727618  0.023605185            4 
 2226000   0.89655405   -7.5697426    632.33643  0.023672373  0.023598542            3 
 2227000   0.88135827   -7.5560729    634.02461  0.023724914  0.023591891            2 
 2228000   0.90045433   -7.5836548    631.93013  0.023635927  0.023585226            5 
 2229000   0.89827092   -7.5374321    634.63719  0.023726529  0.023578613            2 
 2230000   0.88768543    -7.602335    633.64278  0.023678729  0.023571937            1 
 2231000   0.89480798   -7.5610918     632.5924  0.023628881  0.023565298            3 
 2232000   0.88283953   -7.5880188    634.07363  0.023673597  0.023558661            2 
 2233000   0.87928122    -7.585247    634.06987  0.023662855  0.023552053            6 
 2234000   0.89512418   -7.5749487     634.2385  0.023658554  0.023545422            2 
 2235000   0.89643446   -7.5816513    635.52042  0.023695765  0.023538808            4 
 2236000   0.88755946   -7.5797027    633.96291  0.023627121  0.023532201            2 
 2237000   0.88359195   -7.5639473    636.16184  0.023698474  0.023525582            1 
 2238000   0.89865118   -7.5584894    635.71551  0.023671266   0.02351897            3 
 2239000   0.89363398   -7.5858899    632.98135  0.023558931  0.023512416            2 
 2240000   0.90220532   -7.5435783    634.78056  0.023615348  0.023505796            2 
 2241000   0.91273565    -7.572948    635.60969  0.023635642  0.023499195            3 
 2242000    0.8923808   -7.5530317    636.05654  0.023641709  0.023492516            4 
 2243000    0.8899937   -7.5385504    635.66918  0.023616777  0.023485943            2 
 2244000    0.8837209   -7.5885048    635.17755  0.023587996  0.023479323            3 
 2245000   0.91310583   -7.5513204    635.50071  0.023589485  0.023472692            2 
 2246000   0.88795295   -7.5899972    634.67829  0.023548467  0.023466041            1 
 2247000   0.89846171    -7.570041     635.0845  0.023553052  0.023459427            3 
 2248000    0.8773855   -7.5763264    635.53184  0.023559158  0.023452748            1 
 2249000    0.8976826   -7.5902272    635.04427  0.023530616  0.023446115            4 
 2250000   0.87236062   -7.5916482     635.2719  0.023528589  0.023439518            4 
 2251000   0.89848802   -7.5974425    636.43774  0.023561296  0.023432885            3 
 2252000   0.89761298   -7.5621221     635.9054  0.023531135  0.023426281            1 
 2253000   0.89985099   -7.5462078    635.05196  0.023489124  0.023419674            2 
 2254000   0.89033488   -7.5756905    635.77556  0.023505455  0.023413053            1 
 2255000   0.88743432   -7.5578306    636.20251   0.02351081  0.023406478            3 
 2256000   0.88997149   -7.5671821    636.82829  0.023523504  0.023399865            2 
 2257000   0.89666698   -7.5705908    636.73837  0.023509761  0.023393286            2 
 2258000   0.87949088   -7.5461272    639.37912  0.023596808  0.023386715            3 
 2259000   0.87972141   -7.5751347    636.79541  0.023491051  0.023380216            2 
 2260000   0.88921275   -7.5458512    636.99601  0.023488054  0.023373655            4 
 2261000   0.87782726   -7.5477723    639.55505  0.023571983  0.023367102            3 
 2262000   0.88354126   -7.5349046    637.04679  0.023469157  0.023360525            2 
 2263000   0.88704212   -7.5779153    637.02197  0.023457872  0.023353918            5 
 2264000   0.89042001   -7.6240684    635.69662  0.023398727  0.023347274            3 
 2265000   0.89436318   -7.5621421     638.3851  0.023487311  0.023340648            2 
 2266000   0.89839993   -7.5329293    638.35274  0.023475755  0.023334088            3 
 2267000   0.87653738   -7.5857777    638.35935  0.023465643  0.023327498            4 
 2268000    0.8932441   -7.5888831    636.02471  0.023369514  0.023320847            2 
 2269000   0.90814722    -7.590976    638.44947  0.023448269  0.023314246            3 
 2270000   0.87755479   -7.5821213    638.78634  0.023450306  0.023307627            3 
 2271000   0.88252503   -7.5528148      636.542  0.023357625  0.023301008            1 
 2272000   0.86757958   -7.5586922    637.72212   0.02339063  0.023294418            1 
 2273000   0.88668734   -7.5930026     638.1607  0.023396418  0.023287805            2 
 2274000    0.8899506   -7.5976025    637.50401  0.023362064  0.023281195            3 
 2275000   0.88497435    -7.560846    638.24966  0.023379108  0.023274586            3 
 2276000   0.87750089   -7.5705029    638.26179   0.02336928  0.023268001            2 
 2277000   0.88083688   -7.5913897    639.12149  0.023390481  0.023261389            3 
 2278000   0.84901637   -7.6052192    637.67413  0.023327265  0.023254727            4 
 2279000   0.88386328   -7.5630255    639.06425   0.02336786  0.023248015            2 
 2280000   0.88728131   -7.5930849    637.09718  0.023285716  0.023241347            4 
 2281000   0.88090687   -7.5991391    639.33065  0.023357104  0.023234677            2 
 2282000    0.8949627   -7.5927425    637.84331  0.023292554  0.023228025            3 
 2283000   0.90915406   -7.5573751    638.47647  0.023305463  0.023221381            2 
 2284000   0.88640363   -7.5804191    639.45703  0.023331036  0.023214737            1 
 2285000    0.8812663   -7.5740811    639.19322  0.023311204  0.023208131            1 
 2286000   0.89657849   -7.5819813    639.65785  0.023317944  0.023201492            2 
 2287000    0.8886079   -7.5936557    640.76288  0.023348013  0.023194846            3 
 2288000   0.88790218   -7.5782978    639.20585  0.023281099   0.02318826            4 
 2289000   0.88295324   -7.5787208    639.79117  0.023292237  0.023181691            1 
 2290000     0.896141   -7.5652553    641.68613  0.023351024  0.023175127            2 
 2291000   0.86996309   -7.5803278    639.11853  0.023247437  0.023168521            2 
 2292000    0.8848493   -7.5795263    639.99453  0.023269144  0.023161952            5 
 2293000   0.88036008   -7.5966742    641.13791  0.023300549  0.023155417            2 
 2294000   0.87166508   -7.5955242    640.18637  0.023255826   0.02314883            2 
 2295000   0.88667561   -7.5703012     640.3533  0.023251754  0.023142219            3 
 2296000   0.88562886   -7.5992714    640.81978  0.023258558  0.023135686            2 
 2297000   0.88965081   -7.6220618    639.89017  0.023214707  0.023129094            2 
 2298000   0.89101578   -7.5487006    641.28052  0.023255023  0.023122516            2 
 2299000   0.88856072   -7.5901381    642.76201  0.023298608  0.023115924            3 
 2300000   0.86145286   -7.5789527    640.70507  0.023213952  0.023109361            3 
 2301000   0.89709589   -7.6040515    640.81696  0.023207916  0.023102789            3 
 2302000   0.87714901   -7.6139747    639.96138  0.023166861  0.023096159            2 
 2303000   0.88632702   -7.5819982     640.4832  0.023175684  0.023089526            2 
 2304000   0.88503846   -7.5694984    642.35006  0.023233147  0.023082927            2 
 2305000   0.88624657   -7.6056426    642.32531  0.023222173  0.023076346            2 
 2306000   0.87410531   -7.6234315    639.99899  0.023128035  0.023069712            2 
 2307000   0.88452824    -7.596474    639.82813  0.023111838  0.023063056            2 
 2308000   0.88648923    -7.571683    641.16622  0.023150138  0.023056417            2 
 2309000   0.88677412   -7.5650512    643.73449  0.023232803  0.023049832            3 
 2310000   0.87491607   -7.6001882    641.47648  0.023141287  0.023043237            5 
 2311000   0.89860386   -7.5745248    641.86081  0.023145132  0.023036673            3 
 2312000   0.87556219   -7.5849075    640.97828  0.023103312  0.023030086            2 
 2313000   0.88817104   -7.5689547    643.79682   0.02319487  0.023023543            3 
 2314000   0.89464412   -7.5821911    642.66648   0.02314414  0.023016969            2 
 2315000   0.89406705   -7.5818318    643.37785   0.02315975  0.023010401            1 
 2316000   0.88100498    -7.575792    643.01125  0.023136559  0.023003868            3 
 2317000   0.87055754   -7.5814512    644.12935  0.023166787  0.022997305            1 
 2318000   0.88514826   -7.5892285    642.96784  0.023115036  0.022990752            2 
 2319000   0.87714891   -7.5909821    643.60473  0.023127955  0.022984254            2 
 2320000   0.88873334   -7.5606047    644.69038  0.023156982  0.022977744            2 
 2321000    0.8880644   -7.6007736    643.38519  0.023100143  0.022971201            1 
 2322000   0.88335527   -7.5848122    643.87134  0.023107642  0.022964706            3 
 2323000   0.87461726   -7.5709495    644.74927  0.023129189  0.022958234            2 
 2324000   0.87634225   -7.5717355    645.99496  0.023163904  0.022951802            1 
 2325000   0.87185261   -7.5801701    643.59068  0.023067766   0.02294538            2 
 2326000   0.87364904   -7.5867048    645.27541  0.023118207  0.022938918            1 
 2327000   0.87487787   -7.6121634    643.32378  0.023038382  0.022932381            1 
 2328000   0.89517994   -7.6019866    645.35322  0.023101132  0.022925842            5 
 2329000   0.87774036   -7.5705336    645.02934  0.023079624  0.022919319            1 
 2330000   0.88316133    -7.586671    645.49562  0.023086395  0.022912835            2 
 2331000   0.89492655   -7.6490805    643.11304  0.022991314  0.022906274            2 
 2332000   0.88740594   -7.6029788      642.594  0.022962908  0.022899676            1 
 2333000   0.86456363   -7.6366789    643.93741   0.02300105  0.022893075            2 
 2334000   0.91144044   -7.5864859    643.86667   0.02298867  0.022886557            4 
 2335000   0.88769479   -7.5786954    645.15787  0.023024906  0.022880036            2 
 2336000   0.86233392     -7.59258    645.87616  0.023040673  0.022873519            2 
 2337000   0.87455193   -7.6119165    643.86788  0.022959203   0.02286698            1 
 2338000   0.89128743   -7.5991577    645.08638  0.022992814  0.022860453            2 
 2339000   0.88804847   -7.6095967    644.21103  0.022951797   0.02285394            3 
 2340000   0.86333698   -7.5798311    645.93171  0.023003266  0.022847392            4 
 2341000   0.87918525   -7.6009603    644.35624  0.022937357  0.022840916            3 
 2342000   0.89132178   -7.6001185    647.17019   0.02302769  0.022834401            2 
 2343000   0.87510524   -7.5791065     646.4607  0.022992627  0.022827932            5 
 2344000   0.88358453   -7.6379514    645.51947  0.022949355  0.022821404            3 
 2345000   0.88724796   -7.6036901    646.36663  0.022969674  0.022814872            3 
 2346000   0.87865334   -7.5753743     647.4825  0.022999521  0.022808403            2 
 2347000   0.88013298   -7.6167864    646.49299  0.022954587  0.022801917            3 
 2348000   0.87902911    -7.574016    646.95446  0.022961189    0.0227954            1 
 2349000   0.87848317   -7.5986328    646.56367   0.02293755  0.022788898            1 
 2350000    0.8703208   -7.6309032    647.21749  0.022950975  0.022782388            4 
 2351000   0.87152183   -7.6252534    647.18297  0.022939989  0.022775826            5 
 2352000   0.85649378   -7.6015547     645.6541  0.022876066  0.022769278            2 
 2353000   0.86714917   -7.5868513    648.88686  0.022980835  0.022762773            1 
 2354000   0.86968356   -7.5738951     648.2538  0.022948662  0.022756297            2 
 2355000   0.88076127   -7.6289353    646.22685  0.022867192  0.022749801            3 
 2356000   0.87336396   -7.6078489    647.28887  0.022895051   0.02274325            2 
 2357000   0.87810002   -7.6052342    646.18244  0.022846218  0.022736713            1 
 2358000   0.85987051   -7.6201801    644.91279  0.022791659  0.022730154            4 
 2359000   0.88672151   -7.6112282    647.76511  0.022882758  0.022723566            2 
 2360000   0.89381216   -7.6169663    647.03301  0.022847211   0.02271706            4 
 2361000   0.87371388   -7.6200196    646.43723  0.022816505  0.022710588            2 
 2362000   0.88348917   -7.5821379    648.75299  0.022888547  0.022704117            2 
 2363000   0.87094379   -7.6200717    647.55493   0.02283661   0.02269761            2 
 2364000    0.8916483   -7.5997114    648.78803  0.022870418  0.022691164            1 
 2365000   0.86712359   -7.5991652    647.77194  0.022824945  0.022684662            2 
 2366000   0.87653431    -7.628299    649.07543  0.022861208  0.022678147            3 
 2367000   0.87663764   -7.6273809    648.31799  0.022824884  0.022671689            2 
 2368000   0.86319501   -7.6154142    648.04426  0.022805612  0.022665232            3 
 2369000   0.86244349   -7.5800077    648.76886  0.022821474  0.022658787            2 
 2370000   0.87922553   -7.6112723    648.27284  0.022794404  0.022652341            4 
 2371000   0.87597875   -7.6303913    647.90157  0.022771741  0.022645922            2 
 2372000   0.87221778   -7.6162372    647.50992  0.022748381  0.022639506            2 
 2373000   0.87317161   -7.6114866    648.80477  0.022784266  0.022633056            1 
 2374000   0.86928125    -7.610735    650.01677  0.022817213  0.022626629            2 
 2375000   0.86645119   -7.6035634    651.79195  0.022869893  0.022620251            3 
 2376000   0.88702504   -7.5985508    651.79055  0.022860218  0.022613907            1 
 2377000   0.87186874   -7.6398595    650.28093  0.022797677  0.022607516            2 
 2378000   0.87152939   -7.6080387    650.27769  0.022787976  0.022601139            4 
 2379000   0.87621233   -7.6050668    650.48598  0.022785693  0.022594768            2 
 2380000   0.86122534   -7.6065082    649.60963  0.022745435   0.02258844            2 
 2381000   0.88586566   -7.6302386    651.71503   0.02280957  0.022582073            4 
 2382000   0.85564701   -7.6481354    649.40055  0.022719023  0.022575711            1 
 2383000   0.87028404   -7.6135113    651.06201   0.02276759  0.022569318            1 
 2384000    0.8521256   -7.6640833    649.36679  0.022698783  0.022562902            4 
 2385000   0.87632035    -7.630251    651.44194  0.022761773  0.022556464            2 
 2386000    0.8582893   -7.6401666     651.6154  0.022758291  0.022550059            2 
 2387000   0.86476675    -7.610947    653.38996  0.022810709  0.022543689            3 
 2388000   0.85703164   -7.6030634    650.78339  0.022710196  0.022537367            2 
 2389000   0.89151804    -7.620057    650.12524  0.022677733  0.022531016            2 
 2390000   0.85170711    -7.614781    651.66718  0.022722008  0.022524629            2 
 2391000   0.86571043   -7.6564415    653.15698  0.022764428  0.022518256            2 
 2392000   0.84694801   -7.6027582     650.9181  0.022676912  0.022511907            3 
 2393000   0.87314331   -7.6173844    652.22767   0.02271304  0.022505608            2 
 2394000   0.87472101   -7.6272648    652.07977  0.022698405  0.022499297            2 
 2395000   0.86584881    -7.654481    650.86611  0.022646698  0.022492929            3 
 2396000   0.86666238   -7.5805138    652.15472  0.022682064  0.022486551            1 
 2397000   0.87561543   -7.6425428    652.85037  0.022696787  0.022480179            2 
 2398000   0.85335963   -7.5955171    653.35038  0.022704698  0.022473825            2 
 2399000    0.8688489   -7.6297396     652.6448  0.022670724  0.022467493            4 
 2400000   0.88063622   -7.6365762    652.13338   0.02264352  0.022461155            4 
 2401000   0.86634645   -7.6144893    652.62062     0.022651  0.022454824            3 
 2402000   0.88177123    -7.644457    651.41046  0.022599586   0.02244849            3 
 2403000   0.86697397   -7.6231143    652.06002  0.022612707  0.022442152            2 
 2404000   0.84878421   -7.6317058    652.79355  0.022628728  0.022435806            3 
 2405000   0.86795956   -7.6316347    652.80503  0.022619717  0.022429418            3 
 2406000   0.86442496   -7.6212521    653.07871  0.022619795  0.022423031            2 
 2407000   0.85356923   -7.6347777    651.45489  0.022554179  0.022416597            1 
 2408000   0.87212988   -7.6403294    650.27716  0.022504054  0.022410155            1 
 2409000   0.86683167   -7.5973537    652.19198  0.022560951  0.022403737            2 
 2410000   0.86326538   -7.6423657    651.27305  0.022519815  0.022397314            3 
 2411000   0.87497803   -7.6168295    653.17489  0.022576209  0.022390858            4 
 2412000   0.86152012   -7.6430007    654.04314  0.022596847   0.02238445            3 
 2413000   0.85203017   -7.6147623    651.65134  0.022504881  0.022378048            1 
 2414000   0.85185607   -7.6351522    653.42521  0.022556794  0.022371623            3 
 2415000   0.86972647   -7.6352285     652.4441  0.022513599  0.022365171            1 
 2416000   0.83758958   -7.6124892    654.08374  0.022560835  0.022358789            4 
 2417000   0.83957711   -7.6338652    653.62267  0.022535604  0.022352402            3 
 2418000   0.84762798   -7.6338306    653.77249  0.022531448  0.022345959            2 
 2419000   0.87495316   -7.6384732    653.93628  0.022527776  0.022339513            1 
 2420000   0.87448207   -7.6608809    654.19272  0.022527298  0.022333088            1 
 2421000   0.87792479   -7.6807239    653.04902  0.022478625   0.02232663            1 
 2422000   0.86444677   -7.6550644     652.6977  0.022457256  0.022320119            6 
 2423000   0.85268313   -7.6634615    652.10719  0.022427679  0.022313606            3 
 2424000   0.84793458   -7.6676147    652.37134  0.022427508  0.022307124            1 
 2425000   0.87045757   -7.6645758    652.80948  0.022433316  0.022300621            2 
 2426000   0.85221236   -7.6171336    653.76527    0.0224569  0.022294136            6 
 2427000    0.8728404   -7.6457254    653.20858  0.022428532  0.022287668            3 
 2428000   0.85869237   -7.6586646    653.82839  0.022440568  0.022281201            1 
 2429000   0.85642325   -7.6049825    654.68152  0.022460598  0.022274779            2 
 2430000   0.84242629   -7.5794741    654.56823   0.02244747  0.022268361            2 
 2431000   0.86776687   -7.6478889    654.81015  0.022446529  0.022261957            3 
 2432000   0.85545838   -7.6345181    654.95462   0.02244225  0.022255475            5 
 2433000   0.86284709   -7.6239427    655.05681  0.022436526  0.022249038            7 
 2434000   0.84764429   -7.6443734    655.64178  0.022447336  0.022242616            3 
 2435000   0.82442538   -7.6325239     654.1126  0.022385784  0.022236182            3 
 2436000   0.85381619   -7.6604936    655.00536  0.022407135  0.022229738            3 
 2437000   0.85212028   -7.6755845    654.96118  0.022396429  0.022223258            2 
 2438000   0.84966052   -7.6158532    654.61901  0.022375547  0.022216773            2 
 2439000   0.87044299   -7.6382932    654.85288  0.022374364   0.02221031            2 
 2440000   0.85806004    -7.669401    654.95906   0.02236882  0.022203837            5 
 2441000   0.85266822   -7.6231301    654.54296  0.022345451  0.022197313            3 
 2442000   0.87205925   -7.6469886    655.13791  0.022356603  0.022190866            4 
 2443000   0.83808388   -7.6372166    655.81568  0.022370572    0.0221844            3 
 2444000   0.86432316   -7.6258011    654.89328  0.022329967  0.022177985            3 
 2445000    0.8597452   -7.6443986    654.44545  0.022305571  0.022171612            5 
 2446000    0.8572484   -7.6359768    655.17985  0.022321472  0.022165222            4 
 2447000   0.85130908   -7.6613064    655.78742  0.022333041   0.02215882            4 
 2448000   0.84386045    -7.622068    657.89721  0.022395738  0.022152438            3 
 2449000   0.86280187   -7.6454109     655.8094  0.022315551  0.022146067            3 
 2450000   0.84260686   -7.6446891    656.03315  0.022314053  0.022139704            1 
 2451000   0.86669511   -7.6300682     655.8615  0.022299113   0.02213331            3 
 2452000   0.85925795   -7.6279111     658.1199  0.022366772  0.022126886            4 
 2453000   0.86529808   -7.6264701    658.24062  0.022361755  0.022120538            2 
 2454000   0.85968937   -7.6302552    657.51204  0.022327902   0.02211418            3 
 2455000   0.84515054   -7.6310786    656.99557  0.022301275  0.022107827            3 
 2456000   0.84924987   -7.6369018    657.36199  0.022304628   0.02210148            2 
 2457000   0.86253834   -7.6571874    657.31968  0.022294115  0.022095123            2 
 2458000   0.86568409   -7.6698299    657.92045  0.022305413  0.022088756            2 
 2459000   0.85709969   -7.6511934    659.59877  0.022353218  0.022082371            2 
 2460000   0.85416077   -7.6168725    657.94174  0.022287999  0.022076004            1 
 2461000   0.86745689   -7.6882089    656.91841  0.022244291  0.022069677            3 
 2462000    0.8603084   -7.6393492    659.91797  0.022336785  0.022063394            2 
 2463000    0.8576144   -7.6645615     657.9971  0.022262725   0.02205711            2 
 2464000   0.87549168   -7.6037277    661.61008  0.022375882  0.022050878            5 
 2465000   0.85490029   -7.6236596    659.15554  0.022283825  0.022044681            4 
 2466000   0.83913817   -7.6609265    660.13921  0.022308029  0.022038443            4 
 2467000   0.86463248   -7.6614877    658.92632  0.022258017   0.02203222            3 
 2468000   0.84721601   -7.6599522    659.87467  0.022281019  0.022026007            2 
 2469000   0.86714837   -7.6304035    660.60414  0.022296616  0.022019785            3 
 2470000   0.85170514   -7.6567278    660.13109  0.022271629  0.022013551            2 
 2471000   0.84911486   -7.6526286    659.47031  0.022240332  0.022007354            2 
 2472000   0.85201587   -7.6282397    659.18189  0.022221612  0.022001121            2 
 2473000   0.86864697   -7.6384988    660.17519  0.022246098  0.021994872            2 
 2474000   0.86249293   -7.6650444    659.17955  0.022203569  0.021988675            1 
 2475000   0.85465887   -7.6728989    658.86255  0.022183924  0.021982399            2 
 2476000   0.84766777   -7.6948059    660.64237  0.022234867  0.021976105            2 
 2477000   0.86259675   -7.6723366     660.0104  0.022204629  0.021969842            4 
 2478000   0.84800564   -7.6691268     661.1387  0.022233612  0.021963606            2 
 2479000   0.84293801   -7.6694562    662.08892  0.022256586   0.02195739            3 
 2480000   0.85595486   -7.6436575    662.04081  0.022245995  0.021951215            3 
 2481000   0.84802274   -7.6626791    661.40253   0.02221559  0.021945022            1 
 2482000   0.85383938   -7.6681184    662.63692  0.022248083  0.021938815            4 
 2483000   0.84111671   -7.6546075    661.11874  0.022188171  0.021932646            3 
 2484000   0.84777231   -7.6884903    659.84322  0.022136447  0.021926427            8 
 2485000   0.85381833   -7.6683815    661.26235  0.022175129  0.021920199            8 
 2486000   0.85790731   -7.6922423    662.27919  0.022200295   0.02191399            6 
 2487000   0.87081118    -7.649991    661.02151  0.022149226  0.021907771            5 
 2488000   0.85352476   -7.6736634    662.76523  0.022198728  0.021901595            2 
 2489000    0.8557913   -7.6537724    662.40084  0.022177609  0.021895464            3 
 2490000   0.85967972   -7.6237407     662.9504  0.022187095  0.021889346            5 
 2491000    0.8398577    -7.646717    661.35881  0.022124943  0.021883227            8 
 2492000      0.85205   -7.6712354    662.45805  0.022152824  0.021877054            3 
 2493000   0.85703753   -7.6795364    663.18178   0.02216813  0.021870851            4 
 2494000   0.84607079   -7.6876616    661.98268  0.022119175  0.021864727            3 
 2495000   0.85118141   -7.6433189    663.86343  0.022173127  0.021858599            1 
 2496000   0.85336515   -7.6945882    662.93671  0.022133304  0.021852456            2 
 2497000    0.8357678   -7.6842317    662.34898  0.022104825  0.021846296            2 
 2498000   0.86452609   -7.6559766    664.34541  0.022162577   0.02184013            3 
 2499000    0.8520762   -7.6699235    664.54761  0.022160451  0.021833971            4 
 2500000    0.8365687   -7.6653447    663.87831  0.022129277  0.021827805            1 
 2501000   0.86262553   -7.6487119    663.81505  0.022118321  0.021821667            2 
 2502000   0.84846059   -7.6602609     663.1241  0.022086467  0.021815577            6 
 2503000    0.8500087   -7.6878092    663.64488  0.022094982   0.02180948            2 
 2504000   0.85439048   -7.6727604    663.52529  0.022082178  0.021803403            3 
 2505000   0.84100684    -7.650024    664.35913  0.022101102  0.021797309            5 
 2506000   0.83223962   -7.7114073    663.99194  0.022080073  0.021791196            1 
 2507000   0.86177895   -7.6661725    665.05508  0.022106604  0.021785074            4 
 2508000     0.874853    -7.687723    664.86743  0.022091555   0.02177897            1 
 2509000   0.83732535   -7.6614782    664.61839  0.022074478  0.021772863            2 
 2510000   0.83539127   -7.6668969    665.57138  0.022097323  0.021766796            2 
 2511000   0.86250986   -7.6423702    665.53605  0.022087351  0.021760715            2 
 2512000   0.85143645   -7.6840258    665.79456  0.022087134  0.021754645            2 
 2513000   0.86096521   -7.6825153    664.57545  0.022037918  0.021748562            4 
 2514000   0.86500307   -7.6501326    665.70707  0.022066662  0.021742503            4 
 2515000   0.83656079   -7.6581244    665.13994  0.022039097  0.021736423            2 
 2516000   0.84364564   -7.6415297     667.3501  0.022103541  0.021730406            2 
 2517000   0.86669461   -7.6564579    665.45359  0.022031969  0.021724391            2 
 2518000   0.82356157   -7.6593884    667.43681  0.022088854  0.021718365            1 
 2519000   0.84142886   -7.6703556    666.23372  0.022040284  0.021712315            1 
 2520000   0.85854466   -7.6705094    666.71819  0.022047559  0.021706248            2 
 2521000   0.84329859   -7.6731031    665.10644  0.021985536  0.021700151            2 
 2522000   0.85641855   -7.6821148    667.29885  0.022049261  0.021694098            3 
 2523000   0.85509121   -7.6750523    665.76533  0.021989871   0.02168803            2 
 2524000    0.8488409   -7.6917401    666.20287  0.021995604  0.021681944            2 
 2525000   0.84884977   -7.6773184    665.97932  0.021979516  0.021675847            2 
 2526000   0.83133642   -7.6403871    667.04981   0.02200613  0.021669752            4 
 2527000   0.84341598   -7.6440059    666.77349  0.021988309  0.021663718            2 
 2528000   0.83949234   -7.7018803    665.96884  0.021953087   0.02165767            3 
 2529000   0.84406377   -7.6822341    666.13581  0.021949908  0.021651625            2 
 2530000   0.83376029   -7.6839161     665.2347  0.021911551  0.021645562            1 
 2531000   0.86390157   -7.6554326    668.77093  0.022019325  0.021639498            5 
 2532000   0.85595182   -7.6622218    667.96921  0.021984242  0.021633442            4 
 2533000   0.86890854   -7.7117842    666.52531   0.02192806  0.021627334            8 
 2534000    0.8414831   -7.6763439    667.34689  0.021946425   0.02162125            2 
 2535000    0.8503875   -7.7078565    666.46468  0.021908767  0.021615143            1 
 2536000   0.84831115    -7.648074     668.7185  0.021974188  0.021609064            3 
 2537000   0.83216949   -7.6695148    666.77137  0.021901569  0.021602938            2 
 2538000   0.86589053   -7.6819208    667.47569  0.021916066  0.021596798            2 
 2539000   0.86256234   -7.6493039    666.45854  0.021874049    0.0215907            4 
 2540000   0.83791116   -7.6691693    665.70735  0.021840792  0.021584639            4 
 2541000   0.84228146   -7.6759299    667.34713  0.021885974  0.021578554            6 
 2542000   0.83301756   -7.6742208    667.00342  0.021866097  0.021572429            3 
 2543000   0.85296127   -7.6761659    666.14574  0.021829392   0.02156633            2 
 2544000   0.81160588   -7.7080446    667.77187  0.021874079  0.021560207            2 
 2545000   0.85343837   -7.6764741    668.69682   0.02189577  0.021554085            1 
 2546000   0.83321641   -7.6897763    666.38725  0.021811575  0.021547953            2 
 2547000   0.83890775   -7.6903732    665.80726  0.021784035  0.021541823            1 
 2548000    0.8340427   -7.6704643    666.85311  0.021809691  0.021535723            2 
 2549000   0.86502278    -7.721964    666.70271  0.021796218  0.021529625            1 
 2550000   0.83496034   -7.6743427    666.96095   0.02179611  0.021523521            6 
 2551000   0.84621237     -7.67518    667.36837  0.021800875  0.021517413            2 
 2552000   0.84894109   -7.6977651    667.44116  0.021794709  0.021511311            1 
 2553000   0.83955874   -7.6754366    669.00582  0.021837244  0.021505196            3 
 2554000     0.840915   -7.6517349    668.00198   0.02179594  0.021499119            3 
 2555000   0.83165258   -7.6834097    667.96638  0.021786249   0.02149299            1 
 2556000   0.84459029   -7.6745473    669.35133  0.021822878  0.021486873            5 
 2557000   0.83883407   -7.6981716    667.18653  0.021743793  0.021480764            2 
 2558000   0.82085358   -7.7030596    668.76049  0.021786568  0.021474644            2 
 2559000   0.84143641   -7.7047986      668.213  0.021760225  0.021468511            5 
 2560000    0.8250667   -7.7142338    666.92503  0.021709799  0.021462379            4 
 2561000   0.86409795   -7.7052283     667.7115  0.021726913  0.021456194            2 
 2562000   0.83957616    -7.681323    667.37253  0.021707407  0.021450043            2 
 2563000   0.84138582   -7.6919435    665.94154   0.02165241  0.021443864            6 
 2564000   0.84215942    -7.700832    667.53246  0.021695673   0.02143773            1 
 2565000   0.84796345    -7.669428    667.03685  0.021671113  0.021431605            2 
 2566000   0.83351977   -7.6627943    668.88865  0.021722806  0.021425543            2 
 2567000   0.83706829   -7.6716062    670.26835  0.021759134   0.02141946            1 
 2568000   0.83487289   -7.6826514    669.71363  0.021732659  0.021413415            4 
 2569000   0.83822639    -7.692767    668.52065  0.021685502  0.021407367            1 
 2570000   0.84437515   -7.6694347    671.10588  0.021760891  0.021401276            2 
 2571000   0.82721337    -7.693917    668.30162  0.021661533  0.021395144            1 
 2572000    0.8441651   -7.6739096    669.04838  0.021677306  0.021389022            6 
 2573000   0.86051212   -7.6820514    670.12123  0.021703628  0.021382899            2 
 2574000   0.85760795   -7.6928069    667.87933  0.021622615  0.021376803            1 
 2575000   0.83584434   -7.6918128     671.1081  0.021718709  0.021370726            2 
 2576000   0.84732267   -7.7204597    669.86931  0.021670203  0.021364641            2 
 2577000   0.84281684   -7.7054396    670.39703  0.021678859  0.021358533            7 
 2578000   0.84467954   -7.6904275    669.23268  0.021632812  0.021352422            3 
 2579000   0.84804934   -7.6897703     670.5193  0.021665998   0.02134633            1 
 2580000   0.83234209   -7.7187543    668.98758  0.021608126  0.021340238            4 
 2581000   0.83429494   -7.7129062    669.93495  0.021630342  0.021334148            3 
 2582000   0.83998482   -7.6593738     670.2727  0.021632865  0.021328059            3 
 2583000   0.85942191   -7.6640438     671.7372  0.021671738   0.02132201            5 
 2584000   0.82940577   -7.6841035    670.75166  0.021631568  0.021315974            1 
 2585000   0.83454304   -7.7018549    672.93863  0.021693702  0.021309961            1 
 2586000   0.86001233   -7.6637153    672.71244  0.021678024  0.021303966            2 
 2587000   0.82696019   -7.6803596    671.20944  0.021621229  0.021297987            1 
 2588000   0.84215941   -7.6934043    670.27294   0.02158272  0.021291988            8 
 2589000   0.85425001   -7.6945399    672.80189  0.021655784   0.02128595            1 
 2590000    0.8267524   -7.6980068    673.83643  0.021680709  0.021279934            5 
 2591000   0.84445019   -7.7013295    671.04837   0.02158267  0.021273907            3 
 2592000   0.85632006   -7.6988746     671.0546  0.021574543  0.021267865            3 
 2593000   0.83427465   -7.7088154    671.71901  0.021587576  0.021261813            3 
 2594000   0.83333572   -7.6914008    671.72455  0.021579432  0.021255805            3 
 2595000   0.83841937   -7.7013417    670.94309  0.021546021  0.021249781            3 
 2596000   0.83762518    -7.701134    672.00906   0.02157194  0.021243729            1 
 2597000   0.83687249   -7.7020578    672.70554  0.021585982  0.021237718            4 
 2598000   0.82446964   -7.7241769    671.40618  0.021535995  0.021231684            3 
 2599000   0.83903547   -7.7351708    672.54449  0.021564207  0.021225631            1 
 2600000   0.84625715   -7.6949702    671.77019  0.021531096  0.021219577            2 
 2601000    0.8373569   -7.6977955    672.72812  0.021553509  0.021213511            2 
 2602000   0.83549587   -7.7442564    670.16451  0.021463122  0.021207438            5 
 2603000   0.83717402    -7.706483    672.99948  0.021545636   0.02120137            1 
 2604000   0.83402045   -7.7249898    672.25405  0.021513506  0.021195301            2 
 2605000   0.84666955   -7.7075088    672.61747  0.021516874  0.021189226            2 
 2606000   0.86217277   -7.7275229    671.97802  0.021488169  0.021183175            2 
 2607000   0.80742338   -7.6774183    674.09554  0.021547614  0.021177154            3 
 2608000    0.8254667   -7.7106001    673.43396  0.021518212  0.021171176            5 
 2609000   0.83865118   -7.7186472    672.95771  0.021494752  0.021165149            2 
 2610000   0.83346699   -7.7126204    673.02939  0.021488805   0.02115909            2 
 2611000    0.8257546   -7.7140561    670.32751  0.021394341  0.021153037            3 
 2612000   0.81964928   -7.7034412    672.78001  0.021464395  0.021146988            2 
 2613000   0.82471737   -7.7304089    672.81006  0.021457139   0.02114096            2 
 2614000   0.83951959   -7.6967918    673.60839  0.021474381  0.021134929            9 
 2615000    0.8321169   -7.7089405    673.62512  0.021466702  0.021128909            3 
 2616000   0.84179516   -7.7352579     671.3792  0.021386952  0.021122893            2 
 2617000   0.82142122   -7.6841644    674.76181  0.021486493  0.021116879            5 
 2618000   0.83239122   -7.7345977    671.91843  0.021387778  0.021110866            2 
 2619000   0.82951011   -7.6788728    673.50384  0.021430057  0.021104868            5 
 2620000   0.82004022   -7.7025048    676.30558  0.021510992  0.021098942            3 
 2621000   0.83833103   -7.7091745    674.53578  0.021446515  0.021093047            3 
 2622000   0.81630904    -7.676626    675.32232  0.021463333  0.021087115            2 
 2623000   0.82982942   -7.7085502    676.57127   0.02149483  0.021081148            1 
 2624000   0.84205053   -7.6798965    674.45054  0.021419288  0.021075164            4 
 2625000   0.81917146   -7.7058883    676.66969  0.021481578  0.021069173            4 
 2626000   0.83875129   -7.7322203    672.33724  0.021335911  0.021063171            3 
 2627000   0.83203063   -7.7097915     674.7444  0.021404149  0.021057177            3 
 2628000   0.83297582   -7.7384638    673.92865  0.021370137  0.021051152            2 
 2629000   0.85670498   -7.7177509     673.1909  0.021338624  0.021045138            9 
 2630000   0.83180397    -7.696138    673.26674  0.021332913  0.021039126            1 
 2631000   0.83756084   -7.7195582    673.87967  0.021344219  0.021033145            3 
 2632000   0.83455729   -7.6892903    676.64038  0.021423518   0.02102717            2 
 2633000   0.85433273   -7.7048246    674.85614  0.021358911  0.021021203            2 
 2634000   0.81983798   -7.6954124    675.86356  0.021382674  0.021015244            2 
 2635000   0.84205716   -7.7192421    673.49593  0.021299681  0.021009223            4 
 2636000    0.8402826   -7.7234107    675.78817  0.021364067  0.021003178            2 
 2637000   0.82215326   -7.7215551    674.43183  0.021313103  0.020997103            3 
 2638000   0.82369327    -7.724347    673.11692  0.021263486  0.020991052            2 
 2639000   0.83953392   -7.7097168    674.37782  0.021295245  0.020984997            1 
 2640000   0.83996266   -7.7276937    674.48938    0.0212907  0.020978956            4 
 2641000   0.83830159   -7.7229601    675.65401  0.021319387  0.020972916            7 
 2642000   0.85531577   -7.7322031    674.05968   0.02126103  0.020966896            2 
 2643000   0.84239829   -7.7073475    675.50177  0.021298454  0.020960901            1 
 2644000   0.83840932   -7.7467929    676.97708  0.021336897  0.020954937            2 
 2645000   0.82984837   -7.7476336    674.84706  0.021261722  0.020948977            3 
 2646000    0.8347019   -7.7179518    675.58028  0.021276779  0.020942979            2 
 2647000   0.85149014   -7.7007176    676.98567  0.021312986  0.020937029            2 
 2648000   0.84507872   -7.7182726    677.30137  0.021314872  0.020931095            3 
 2649000   0.81546292   -7.7234057    676.48633  0.021281186  0.020925151            1 
 2650000   0.82116123   -7.7283926    675.08257  0.021229012  0.020919208            2 
 2651000   0.81423182   -7.7214997    678.02139  0.021313385  0.020913246            4 
 2652000   0.83524379   -7.6918141    677.25223  0.021281179  0.020907288            2 
 2653000   0.81806476   -7.7197641    675.98508  0.021233355  0.020901339            3 
 2654000   0.83707788    -7.732481    675.45912  0.021208839  0.020895388            2 
 2655000   0.83412519   -7.7160096    677.24249  0.021256826  0.020889413            2 
 2656000   0.81756398   -7.7279098    677.47833  0.021256223  0.020883451            4 
 2657000   0.81386862    -7.691359    677.86971  0.021260498  0.020877552            3 
 2658000   0.83514709   -7.7047444    678.05397  0.021258276  0.020871644            2 
 2659000   0.81921763   -7.7075135    678.72169  0.021271207   0.02086573            3 
 2660000   0.82769996   -7.7246433    678.67679  0.021261804   0.02085981            1 
 2661000   0.82874228   -7.6985337    677.72225  0.021223921  0.020853888            3 
 2662000   0.81080034   -7.6929846    677.44004  0.021207114  0.020847944            1 
 2663000   0.80811304   -7.7137989    678.57178  0.021234566  0.020842031            2 
 2664000    0.8259588   -7.7149046     677.0262  0.021178247    0.0208361            2 
 2665000   0.82481735   -7.7472092    678.42878  0.021214158  0.020830167            8 
 2666000   0.81476171   -7.7456118    676.97387  0.021160724  0.020824221            1 
 2667000    0.8187139   -7.7180183    678.04564  0.021186278  0.020818255            2 
 2668000   0.82165449   -7.7372831    678.70846   0.02119904  0.020812331            4 
 2669000   0.82721381   -7.7286042    679.19711  0.021206354  0.020806435            4 
 2670000    0.8335436   -7.7255058     678.2726  0.021169557  0.020800555            1 
 2671000   0.84331732   -7.7286727    679.05612  0.021186076  0.020794662            2 
 2672000     0.836793   -7.7041589    678.89643  0.021173167  0.020788775            4 
 2673000   0.82355746   -7.7420834     678.1057  0.021140594  0.020782875            3 
 2674000   0.84026068   -7.7258201    677.40375  0.021110812  0.020776973            2 
 2675000   0.83234075     -7.75512    679.00687  0.021152862  0.020771044            4 
 2676000   0.82532334   -7.7340588    678.56981  0.021131347   0.02076516            2 
 2677000   0.82595495   -7.7253848    678.43337  0.021119206  0.020759251            3 
 2678000     0.809104   -7.7482832    680.44639   0.02117396  0.020753337            1 
 2679000   0.80159185   -7.7357331    678.42119  0.021103061  0.020747414            3 
 2680000   0.82367109   -7.7162147    679.23408  0.021120463   0.02074153            2 
 2681000   0.82257931   -7.7031476    679.26015  0.021113395  0.020735661            3 
 2682000   0.81870799   -7.7192313    679.87906  0.021124753  0.020729802            4 
 2683000   0.81314811    -7.713898    678.92073  0.021087114  0.020723955            3 
 2684000   0.81314577   -7.7458773    680.68683  0.021134092  0.020718068            4 
 2685000    0.8381323   -7.7193231    679.20687  0.021080288  0.020712169            2 
 2686000   0.81041905   -7.6939603    681.17629  0.021133541  0.020706306            1 
 2687000   0.82801463   -7.7291671    679.91457  0.021086545  0.020700464            2 
 2688000   0.81746285   -7.6935852    680.93674   0.02111039    0.0206946            3 
 2689000   0.83249516   -7.7213764    680.72223  0.021095892   0.02068875            1 
 2690000   0.81755254   -7.7411744    680.58997  0.021083952  0.020682888            2 
 2691000   0.82027973   -7.7127332      679.823  0.021052366  0.020677052            5 
 2692000   0.81640871   -7.7336352    679.22999  0.021026188   0.02067116            7 
 2693000   0.81289255   -7.7242179    680.60864  0.021061042  0.020665286            2 
 2694000   0.80573514    -7.728527    679.93509   0.02103239  0.020659407            4 
 2695000   0.84273195   -7.7203107    680.22359  0.021033506  0.020653506            1 
 2696000     0.808149   -7.7309253    680.01753  0.021019335  0.020647579            1 
 2697000   0.81979748   -7.7582656    680.67444  0.021031839  0.020641618            3 
 2698000   0.80027551   -7.7919458    678.30048  0.020950719   0.02063563            2 
 2699000   0.81127091   -7.7495108    679.91667  0.020992858  0.020629673            1 
 2700000   0.83111181   -7.7619084    679.63724  0.020976458  0.020623761            3 
 2701000   0.81763336   -7.7698223    678.77447  0.020942073  0.020617838            2 
 2702000   0.81348142   -7.7564468     681.1149  0.021006504  0.020611912            2 
 2703000   0.82066436   -7.7599226    681.70812  0.021017022  0.020606021            3 
 2704000   0.84195614   -7.7590156    679.22758  0.020932803  0.020600118            2 
 2705000   0.82070098   -7.7219527    681.76607  0.021003268  0.020594243            2 
 2706000   0.82037297   -7.7403535    680.64505  0.020960983  0.020588373            4 
 2707000   0.82130264   -7.7489312    680.35949  0.020944449  0.020582496            4 
 2708000   0.81674068   -7.7154501     682.2043  0.020993485  0.020576622            4 
 2709000   0.82810483    -7.743186    681.74793  0.020971697  0.020570751            2 
 2710000    0.8381636   -7.6991281    681.83864  0.020966748  0.020564897            2 
 2711000    0.8239899   -7.7404934    681.02803  0.020934096  0.020559044            4 
 2712000   0.82147162     -7.75598    681.26572  0.020933681  0.020553171            2 
 2713000   0.81004968   -7.7322358    682.38854  0.020960454  0.020547334            2 
 2714000   0.83003628   -7.7349587    681.91883  0.020938308  0.020541488            2 
 2715000    0.8037637   -7.7249565    681.57379  0.020920006  0.020535636            4 
 2716000   0.82355404     -7.71837     682.4678  0.020939734  0.020529754            2 
 2717000   0.80275627   -7.7582774    682.52261  0.020933708  0.020523913            2 
 2718000   0.81858151    -7.731774    682.49956  0.020925299   0.02051814            2 
 2719000   0.81109683   -7.7284194    681.72881  0.020893981  0.020512332            4 
 2720000   0.81692406   -7.7253958    683.73564  0.020947783  0.020506504            2 
 2721000   0.80743871   -7.7520356    683.41177  0.020930166  0.020500716            4 
 2722000   0.83376854   -7.7549213       682.89  0.020906503  0.020494904            3 
 2723000   0.82380651   -7.7401696    682.62369  0.020890675  0.020489067            1 
 2724000   0.81458802   -7.7479467    680.64749  0.020822549  0.020483205            4 
 2725000   0.82517227   -7.7685081    681.39298  0.020837706  0.020477304            5 
 2726000   0.83265346   -7.7617112    681.08939  0.020820781  0.020471425            5 
 2727000   0.81319368   -7.7102245    684.65386  0.020922071   0.02046558            4 
 2728000   0.80142021   -7.7463326    681.95091  0.020831834  0.020459739            1 
 2729000   0.80509524   -7.7358988    682.61404   0.02084445  0.020453877            2 
 2730000   0.82504622   -7.7598087    681.30919  0.020796984  0.020448016            4 
 2731000   0.81418467   -7.7406748    682.64571  0.020830151  0.020442176            2 
 2732000   0.82044975    -7.767237    682.85858   0.02082902  0.020436302            2 
 2733000   0.81524644   -7.7467196    683.12015  0.020829374  0.020430434            2 
 2734000   0.81043315   -7.7724172    683.17511  0.020823431  0.020424617            3 
 2735000   0.83767816   -7.7380129    683.77073  0.020833965  0.020418793            4 
 2736000   0.81370384   -7.7409568    682.72711  0.020794563  0.020412989            2 
 2737000   0.81714657   -7.7463337     683.6379  0.020814697  0.020407165            3 
 2738000   0.81203593    -7.744333    683.57674  0.020805233  0.020401338            2 
 2739000   0.81744606    -7.718088     684.6022  0.020828836  0.020395565            2 
 2740000   0.81131353   -7.7244443    685.15904   0.02083817  0.020389778            2 
 2741000   0.82303117   -7.7465645    683.58044  0.020782575  0.020383995            3 
 2742000   0.81571297   -7.7614399    683.65988  0.020777409  0.020378177            3 
 2743000    0.8220185   -7.7456768    684.19319  0.020786037  0.020372357            4 
 2744000   0.79708137    -7.742033    684.77181  0.020796034  0.020366503            2 
 2745000   0.81616427   -7.7740125    683.49834  0.020749798  0.020360653            4 
 2746000   0.81727364   -7.7531263    684.24785  0.020764987  0.020354798            4 
 2747000    0.8073126   -7.7314278    684.30623  0.020759199  0.020349008            2 
 2748000   0.80280622   -7.7418727     683.8073  0.020736514  0.020343175            2 
 2749000   0.81018151   -7.7489902    683.09274   0.02070731  0.020337322            3 
 2750000    0.7975464   -7.7666363    683.23423  0.020704068  0.020331457            2 
 2751000   0.83015184   -7.7218148    684.00091  0.020719766  0.020325612            1 
 2752000    0.8050536   -7.7295682    685.86422   0.02076866  0.020319807            5 
 2753000   0.80236168   -7.7465207    684.47426  0.020719042  0.020314031            3 
 2754000    0.8193754    -7.766999    684.79469  0.020721214    0.0203082            2 
 2755000   0.82516411   -7.7744486    684.01349  0.020690063  0.020302383            1 
 2756000   0.81734586   -7.7850078    685.67744  0.020732869  0.020296517            2 
 2757000   0.81225796   -7.7602253    684.94564  0.020703229  0.020290661            3 
 2758000   0.79930212   -7.7620537    684.90773  0.020694577  0.020284826            3 
 2759000   0.79985767   -7.7876643    684.77588  0.020683094   0.02027895            3 
 2760000   0.79671027   -7.7518725    683.36732  0.020633071  0.020273072            5 
 2761000   0.81261211   -7.7733048    683.67555  0.020634901  0.020267179            3 
 2762000   0.81493231   -7.7617234    684.47378  0.020651514  0.020261321            1 
 2763000   0.81099165   -7.7854621    682.82862  0.020594421  0.020255462            4 
 2764000    0.8113465   -7.7674222    683.09615  0.020595036  0.020249587            3 
 2765000   0.79811096   -7.7557292    685.62207  0.020663715   0.02024374            2 
 2766000   0.80693038   -7.7691834    683.47969  0.020591699  0.020237909            2 
 2767000    0.8235222   -7.7574973    684.74762  0.020622444  0.020232048            1 
 2768000   0.78922975   -7.7378875    686.65997  0.020672566  0.020226217            2 
 2769000   0.81080942   -7.7556926    686.83109  0.020670251  0.020220408            4 
 2770000   0.81419147   -7.7379945    684.90698  0.020604903  0.020214569            2 
 2771000     0.810042   -7.7393836    685.15199  0.020604836  0.020208761            3 
 2772000   0.80243467   -7.7779758    684.32425  0.020572518  0.020202919            4 
 2773000   0.81170524    -7.773867    687.06982  0.020647609  0.020197063            5 
 2774000   0.82470748   -7.7451123    684.98014  0.020577389  0.020191207            6 
 2775000   0.80349049   -7.7756451     685.0827  0.020573054   0.02018534            1 
 2776000   0.80832646   -7.7640304    685.18485   0.02056871  0.020179476            5 
 2777000   0.80268568   -7.7697844    684.60081  0.020543777  0.020173619            4 
 2778000   0.79084344   -7.7928816    683.71881  0.020509924  0.020167728            4 
 2779000   0.79673675   -7.7555011    685.58087   0.02055838  0.020161818            4 
 2780000   0.80304947   -7.7901648    686.06345  0.020565451  0.020155906            2 
 2781000   0.81872889   -7.7576264    685.10187  0.020529242  0.020150066            3 
 2782000   0.81713361   -7.7497499    686.75092  0.020571259  0.020144258            3 
 2783000   0.80625489   -7.7827577    684.46565  0.020495438   0.02013845            2 
 2784000   0.79862671   -7.7469311    686.80389  0.020558067  0.020132642            1 
 2785000   0.80450837   -7.7865817    685.77108  0.020519781  0.020126851            2 
 2786000   0.79303137   -7.7881957    685.18481   0.02049488  0.020121014            2 
 2787000   0.79214802   -7.7772068    685.22785  0.020488813  0.020115205            2 
 2788000   0.80788453   -7.7562631    686.14997  0.020509026  0.020109378            2 
 2789000    0.8126128   -7.7575686    685.97943  0.020496577   0.02010356            1 
 2790000   0.81055772   -7.7828573    686.13891  0.020493994   0.02009777            4 
 2791000   0.81357188   -7.7795541     687.0459  0.020513732  0.020091945            2 
 2792000    0.7970983   -7.7699398    687.32369  0.020514676  0.020086118            2 
 2793000   0.81748081   -7.7756727    685.91092  0.020465178  0.020080313            3 
 2794000   0.80903559   -7.7482208    686.53098  0.020476347  0.020074526            2 
 2795000   0.80652435   -7.7883759    685.54545  0.020439638   0.02006874            2 
 2796000   0.80312584   -7.7379883    685.98895  0.020445546  0.020062938            6 
 2797000   0.81443847   -7.7436772    687.58376  0.020485751  0.020057126            2 
 2798000   0.79239177   -7.7813286     686.3863  0.020442766  0.020051309            1 
 2799000   0.80399086   -7.8074125    686.31976  0.020433481  0.020045497            2 
 2800000   0.81358907   -7.7696519    687.92183  0.020473864  0.020039678            1 
 2801000    0.7908553   -7.7995707    686.20377   0.02041544  0.020033885            3 
 2802000     0.810588   -7.7878526    686.85281  0.020427457  0.020028074            3 
 2803000   0.81531701   -7.8070988     687.4022  0.020436503  0.020022275            3 
 2804000   0.80840961   -7.7787487    687.04872  0.020418709  0.020016467            3 
 2805000   0.80509362   -7.7477273    686.57735  0.020397426  0.020010678            2 
 2806000   0.79190616   -7.7952063    687.52535   0.02041831  0.020004881            1 
 2807000   0.79013644   -7.7829226    685.57279  0.020353069  0.019999027            3 
 2808000   0.80998025   -7.7923097    686.77636   0.02038154  0.019993215            5 
 2809000   0.79417493   -7.7741891    685.93943  0.020349455  0.019987418            2 
 2810000   0.82234987   -7.7914121     687.6212  0.020392088  0.019981592            2 
 2811000   0.80056655   -7.7752657    685.98273   0.02033626  0.019975799            5 
 2812000   0.80123744   -7.7857908    687.98361  0.020388324  0.019970008            2 
 2813000   0.81009962   -7.7980288    687.41583  0.020364256  0.019964217            3 
 2814000   0.81536524   -7.7663517    687.88739  0.020370984  0.019958432            2 
 2815000   0.79987971    -7.788763    688.38633  0.020378518  0.019952657            3 
 2816000   0.81223781   -7.7521391    689.13492  0.020393434   0.01994687            1 
 2817000   0.78888304   -7.7923906    687.45851  0.020336603  0.019941068            2 
 2818000   0.79783873   -7.7793409    687.87803  0.020341792  0.019935267            3 
 2819000   0.81995462   -7.7729404    687.84527  0.020333607  0.019929446            6 
 2820000    0.8168569   -7.7981536    687.90587  0.020328188  0.019923645            4 
 2821000   0.81441526   -7.7867875    687.21101  0.020300455  0.019917832            1 
 2822000   0.79328254   -7.7671392    686.35879  0.020268095   0.01991203            1 
 2823000   0.79716669   -7.7807978    687.00313  0.020279937   0.01990626            3 
 2824000   0.79440095   -7.7727235    689.35817   0.02034225  0.019900489            3 
 2825000   0.80640879   -7.7963881    688.74202  0.020316874  0.019894721            2 
 2826000   0.80873563   -7.7908065    689.12806  0.020321068  0.019888944            2 
 2827000   0.80158843   -7.7888239     689.3325  0.020319906  0.019883193            4 
 2828000   0.80503686   -7.8034898    685.93943  0.020212737  0.019877421            5 
 2829000   0.79625352   -7.7795919    687.21589  0.020243192  0.019871618            2 
 2830000   0.79385048   -7.7732784    687.84591  0.020254591  0.019865854            2 
 2831000   0.79482842   -7.8192397    687.43832  0.020235439  0.019860061            5 
 2832000   0.79180974   -7.7728491    690.45124   0.02031695  0.019854268            2 
 2833000   0.82166839    -7.795456    688.54349  0.020253662   0.01984849            1 
 2834000   0.78938247   -7.8189556     688.4863  0.020244834  0.019842724            2 
 2835000   0.79275164   -7.8066306    688.34736  0.020233609  0.019836953            2 
 2836000   0.79337495   -7.8018447    689.72024  0.020266815   0.01983119            1 
 2837000   0.78717649   -7.8208266    690.38351  0.020279154  0.019825442            3 
 2838000   0.79917085   -7.7912396    687.54915  0.020188782  0.019819697            4 
 2839000    0.7969387   -7.7471443    690.29667  0.020262319  0.019813981            3 
 2840000   0.79800326   -7.7953069    690.77634  0.020269259   0.01980825            2 
 2841000   0.80719583   -7.7869394    688.89718  0.020207004  0.019802541            2 
 2842000   0.78899039   -7.7956945    690.73273  0.020253716   0.01979685            3 
 2843000   0.78994914   -7.7950638    690.37148  0.020236003  0.019791135            2 
 2844000   0.80963925   -7.8289732    688.15303  0.020163884  0.019785402            3 
 2845000   0.79245689   -7.8156016     690.2721  0.020218866  0.019779629            1 
 2846000   0.78181841   -7.8265821    690.58137  0.020220818  0.019773884            1 
 2847000   0.79197334   -7.7994494    689.31097   0.02017653  0.019768148            3 
 2848000   0.80020936    -7.776803    689.72913  0.020181681  0.019762428            2 
 2849000   0.80301783   -7.7965573    690.71876  0.020203544  0.019756707            3 
 2850000    0.7778869   -7.7833957    689.56095  0.020162601  0.019750994            3 
 2851000   0.79888959   -7.7832829    691.31518  0.020206804  0.019745299            5 
 2852000   0.78153244   -7.8197444    690.05314  0.020162843  0.019739564            4 
 2853000   0.79246994   -7.7903439    689.07829  0.020127301  0.019733833            2 
 2854000   0.79321733   -7.7890223    690.02674  0.020147943  0.019728096            2 
 2855000   0.78032957   -7.7926828    692.94311   0.02022601  0.019722367            2 
 2856000   0.80282476   -7.8271602    690.62927  0.020151414  0.019716658            2 
 2857000   0.81011478   -7.7958248    690.92457  0.020152974  0.019710924            4 
 2858000   0.79942928   -7.7878688    689.99388  0.020118786  0.019705214            3 
 2859000   0.78997131   -7.8170323    689.53145   0.02009827   0.01969946            4 
 2860000   0.78246362   -7.7826357    690.43735  0.020117639  0.019693692            2 
 2861000   0.79918908   -7.8021304    690.59088  0.020115079  0.019687946            1 
 2862000   0.80969017   -7.8140182    690.03548  0.020091879    0.0196822            4 
 2863000   0.80555863   -7.7743281    691.22253  0.020119412  0.019676505            2 
 2864000   0.80038386   -7.7928838    689.85375   0.02007256  0.019670793            2 
 2865000   0.79537772    -7.808302    692.05916  0.020129702  0.019665076            5 
 2866000   0.79769849   -7.7991427    691.56091  0.020108191  0.019659376            1 
 2867000   0.79324503   -7.8162327    691.44152  0.020097707  0.019653668            3 
 2868000   0.79697789   -7.8382352    689.79444  0.020042842  0.019647927            3 
 2869000   0.76962487   -7.8353901    690.96291  0.020069795  0.019642144            2 
 2870000   0.79445991   -7.8419967    691.61749  0.020081809  0.019636372            2 
 2871000   0.79608956   -7.7903428    691.51197  0.020071751  0.019630628            4 
 2872000   0.79174737   -7.8248578    691.97627  0.020078234  0.019624913            2 
 2873000   0.79502419   -7.8377314    690.05659  0.020015564  0.019619171            3 
 2874000   0.79131235    -7.819905    691.35949  0.020046378  0.019613418            3 
 2875000   0.80240448   -7.8313368    691.15533  0.020033488  0.019607699            4 
 2876000   0.78068451   -7.8173888    692.14099  0.020055082   0.01960198            5 
 2877000   0.79378826   -7.8109464    691.13445  0.020018956  0.019596258            2 
 2878000   0.78915186   -7.8212323    691.77181  0.020030456  0.019590551            3 
 2879000   0.80250505   -7.7979901    692.90898  0.020056414   0.01958484            1 
 2880000   0.78305283   -7.8349724    690.50434  0.019979871  0.019579139            2 
 2881000   0.78578193   -7.8160035    691.96526  0.020015193  0.019573395            4 
 2882000   0.78757361   -7.8485284    690.65124  0.019970253  0.019567657            4 
 2883000   0.78596608    -7.826096    691.29662  0.019981981    0.0195619            2 
 2884000   0.78485621   -7.8050902    691.67969  0.019986121  0.019556187            4 
 2885000   0.79776955   -7.8247317    691.92222  0.019986199  0.019550465            3 
 2886000   0.79866432   -7.8337826    691.71475  0.019973283   0.01954477            3 
 2887000   0.79735445   -7.7983876    692.76121  0.019996571  0.019539048            3 
 2888000    0.8010467   -7.8270779    689.92929  0.019907932  0.019533322            3 
 2889000   0.78655585   -7.8233992    691.78772  0.019954647   0.01952755            2 
 2890000   0.78723908   -7.8442998    691.61462  0.019942751  0.019521809            3 
 2891000   0.79106204   -7.8293152    692.51584  0.019961831   0.01951606            2 
 2892000   0.78395741   -7.8149511    692.63069  0.019958238  0.019510371            3 
 2893000   0.79418049    -7.812851    692.50739  0.019947787  0.019504701            3 
 2894000   0.78231934   -7.8389793    691.68613  0.019917246  0.019498994            2 
 2895000   0.78997288   -7.8262166    692.72015  0.019940131  0.019493274            4 
 2896000   0.79082334    -7.825234    692.32635  0.019921914  0.019487559            3 
 2897000   0.76955618   -7.8477171    692.58661  0.019922524  0.019481847            3 
 2898000   0.78629847   -7.8214419    693.09249  0.019930196  0.019476128            2 
 2899000    0.7880611   -7.8398193    693.09129  0.019923287  0.019470425            2 
 2900000   0.78578914   -7.8231962    692.64623  0.019903627  0.019464744            2 
 2901000   0.79377113   -7.8205492     693.3167  0.019916026  0.019459042            7 
 2902000   0.81465604   -7.8281387    692.54826  0.019887097  0.019453346            1 
 2903000   0.79454981   -7.8260376    692.24333  0.019871493  0.019447648            5 
 2904000   0.78180358   -7.8403391     691.9675  0.019856735  0.019441949            2 
 2905000   0.79786627   -7.7848848    693.73405  0.019900575  0.019436282            4 
 2906000   0.79051153   -7.8155665    694.00615   0.01990153  0.019430611            1 
 2907000   0.79542288   -7.8470651    693.17856   0.01987096  0.019424942            4 
 2908000   0.79185384   -7.7986703    694.08872  0.019890209  0.019419301            2 
 2909000   0.77605888   -7.8323628    694.25011  0.019887994   0.01941363            3 
 2910000   0.79673006   -7.8258807    693.99806  0.019873942  0.019407938            2 
 2911000   0.77629851   -7.8118171    694.90994  0.019893219  0.019402257            2 
 2912000   0.78071108   -7.8390662    692.00069  0.019803133  0.019396568            2 
 2913000   0.78491469   -7.8252682     692.7854  0.019818783  0.019390863            1 
 2914000   0.78831239   -7.8353378    693.90968  0.019844134  0.019385154            3 
 2915000   0.80057157   -7.8370299     692.5187  0.019797561  0.019379439            4 
 2916000   0.79303704   -7.8626525    692.54582  0.019791547   0.01937373            3 
 2917000    0.7783971   -7.8252303    692.31861  0.019778271  0.019368004            2 
 2918000   0.78364481   -7.8478112    693.37894  0.019801775  0.019362307            2 
 2919000   0.79423505   -7.8456948    693.62973  0.019802151  0.019356603            1 
 2920000   0.79897537   -7.8386806    692.22564  0.019755298  0.019350886            2 
 2921000   0.78526116   -7.8300644    692.55767  0.019758007  0.019345163            2 
 2922000   0.78192879   -7.8224837    694.09279  0.019795026  0.019339437            2 
 2923000   0.78556611   -7.8080445    693.20325  0.019762893  0.019333726            2 
 2924000   0.78273502   -7.8541839    692.40692  0.019733439  0.019328026            2 
 2925000   0.80211828   -7.8159322    693.07534  0.019745736  0.019322325            2 
 2926000   0.76543067   -7.8398772    693.74065  0.019757936  0.019316628            2 
 2927000   0.77119175   -7.8631003    690.88858  0.019669986  0.019310907            1 
 2928000   0.77871069   -7.8499718    693.68569  0.019742876  0.019305196            2 
 2929000   0.77929492   -7.8633519     695.3965   0.01978481  0.019299462            2 
 2930000    0.7886962   -7.8740025    692.35215  0.019691472   0.01929375            2 
 2931000   0.77471024   -7.8525854    694.21529  0.019737726  0.019288048            4 
 2932000   0.78417704   -7.8543889    693.60101  0.019713535   0.01928238            4 
 2933000   0.77680208   -7.8869389    693.67715  0.019708977    0.0192767            2 
 2934000   0.77352576   -7.8381309     695.9743  0.019767504  0.019271008            3 
 2935000   0.78628221   -7.8409759    695.28448  0.019741183  0.019265372            3 
 2936000   0.78381242   -7.8239343    694.96533  0.019725401  0.019259733            3 
 2937000   0.77845978   -7.8655044    694.57316  0.019707558  0.019254056            2 
 2938000   0.77738197   -7.8537379    693.87099  0.019680934  0.019248379            3 
 2939000   0.77415848   -7.8287361    695.98222  0.019734099  0.019242729            3 
 2940000   0.79071267    -7.830518     694.5636  0.019687177  0.019237084            2 
 2941000   0.79675119   -7.8509304    695.88775  0.019718003  0.019231441            3 
 2942000     0.785749   -7.8450837    694.36406  0.019668141  0.019225828            4 
 2943000   0.77410247   -7.8539167    694.93641  0.019677665  0.019220198            2 
 2944000   0.77916124    -7.829544    694.64545  0.019662745  0.019214538            1 
 2945000    0.7969192   -7.8415523    693.93558  0.019635981  0.019208891            3 
 2946000   0.78573986   -7.8472263    695.19919   0.01966506  0.019203243            1 
 2947000   0.77731817   -7.8350349    694.21161  0.019630461  0.019197629            1 
 2948000   0.77570504    -7.806008    696.37663  0.019685002  0.019192004            2 
 2949000   0.77080403   -7.8374652    695.34027  0.019649041  0.019186368            5 
 2950000   0.77711299   -7.8547114    694.14729  0.019608681  0.019180737            4 
 2951000   0.78229256   -7.8540834    693.80675  0.019592419  0.019175093            4 
 2952000   0.76846914   -7.8403396    695.52763  0.019634362  0.019169477            2 
 2953000   0.77116129   -7.8700628    696.40071  0.019652351  0.019163839            4 
 2954000   0.77793965   -7.8218816    694.80377  0.019600648  0.019158196            2 
 2955000   0.79347511   -7.8249527    694.94625  0.019598033  0.019152551            1 
 2956000   0.79044144   -7.8280215    694.38045  0.019575452   0.01914691            2 
 2957000    0.7709925   -7.8447149    694.61647  0.019575484   0.01914128            2 
 2958000   0.79312523   -7.8767072    694.50504  0.019565727  0.019135631            1 
 2959000   0.78804695   -7.8881622    693.80783  0.019539479  0.019129969            3 
 2960000   0.76349112   -7.8454206    696.93567  0.019620937  0.019124307            3 
 2961000   0.76004262   -7.8428213    695.16469  0.019564468  0.019118651            4 
 2962000   0.78190535   -7.8202083    696.45979    0.0195943  0.019113038            1 
 2963000   0.77396752   -7.8563785    695.47718  0.019560051  0.019107394            4 
 2964000   0.77433055   -7.8460775    697.23234  0.019602799  0.019101775            2 
 2965000   0.77470414   -7.8369996    696.13912  0.019565461  0.019096133            2 
 2966000   0.74312508   -7.8516278    695.73155  0.019547414  0.019090481            4 
 2967000   0.78851281   -7.8552263    696.11025  0.019551462  0.019084841            1 
 2968000   0.76471168    -7.855647    696.66634  0.019560488  0.019079183            3 
 2969000   0.78050964   -7.8638702    696.09013  0.019537727  0.019073505            2 
 2970000   0.78753425   -7.8805844    695.67248   0.01951943  0.019067814            4 
 2971000   0.76474687   -7.8474045    694.47149  0.019479173  0.019062156            2 
 2972000   0.77464144   -7.8895111    694.75487  0.019480565  0.019056509            2 
 2973000   0.78314787   -7.8486062    695.35142  0.019490734  0.019050864            2 
 2974000   0.76487467   -7.8320618    694.65823  0.019464757  0.019045193            2 
 2975000   0.76840072    -7.871824    694.71953  0.019459931    0.0190395            2 
 2976000   0.76566835   -7.8543738    695.31176  0.019469975   0.01903384            3 
 2977000    0.7850754   -7.8678177    696.94822  0.019509244  0.019028178            1 
 2978000   0.76303786   -7.8470007    695.76348   0.01946954  0.019022517            4 
 2979000    0.7844411   -7.8498301    695.79194    0.0194638  0.019016871            1 
 2980000    0.7619664   -7.8517535    695.98245  0.019462596   0.01901121            2 
 2981000    0.7667804   -7.8557717    695.75846  0.019449806  0.019005545            2 
 2982000   0.77905989   -7.8928843    694.45672  0.019406906  0.018999858            1 
 2983000   0.76172408   -7.8788064    696.43992  0.019455803  0.018994155            1 
 2984000   0.76944297   -7.8372919    695.49249  0.019422824  0.018988463            2 
 2985000   0.77015923   -7.8410217    696.45021  0.019443054  0.018982806            4 
 2986000   0.78054381     -7.87025     695.1601  0.019400539  0.018977136            3 
 2987000   0.75688568   -7.8369741    696.86554  0.019441623  0.018971452            2 
 2988000   0.78054128   -7.8726204    695.55782  0.019398645  0.018965808            4 
 2989000   0.76530037   -7.8468694    697.75871  0.019453516  0.018960174            3 
 2990000   0.77276548   -7.8507166    695.84683  0.019393724  0.018954534            5 
 2991000   0.77759794   -7.8558267    696.00575  0.019391668  0.018948868            1 
 2992000   0.77740887   -7.8672594    696.14459  0.019389054  0.018943194            2 
 2993000   0.77327244   -7.8543953    696.37261  0.019388924  0.018937505            2 
 2994000    0.7706442    -7.845903    696.67912   0.01939098  0.018931833            2 
 2995000   0.78941701   -7.8526788    698.11697  0.019424512  0.018926175            3 
 2996000   0.75118186   -7.8674706    694.42789  0.019315418  0.018920506            2 
 2997000   0.76346376   -7.8374075    695.74704  0.019345652  0.018914793            2 
 2998000   0.77164766    -7.869623    695.76923  0.019339816  0.018909133            2 
 2999000   0.77301351   -7.8297169    696.58102  0.019355925  0.018903476            3 
 3000000   0.76869966    -7.889385    696.98025  0.019360562  0.018897806            3 
 3001000   0.78143017   -7.8554038    696.76778  0.019348211  0.018892123            2 
 3002000   0.77280221   -7.8622395    698.31155   0.01938462  0.018886459            2 
 3003000   0.78143522   -7.8583927    697.03686  0.019342792  0.018880801            2 
 3004000    0.7830529   -7.8912848    696.27782  0.019315297  0.018875148            1 
 3005000   0.77887252   -7.9009265    698.11669  0.019359864  0.018869462            3 
 3006000   0.78353696   -7.8809118    697.30209  0.019330841  0.018863792            3 
 3007000   0.76771878   -7.8540896    697.78413  0.019337771  0.018858166            3 
 3008000    0.7747155   -7.8503376    696.59914  0.019298513  0.018852527            3 
 3009000   0.79082526   -7.8419679    699.35357  0.019368383  0.018846922            3 
 3010000   0.75128163   -7.8215625    699.07386  0.019354204  0.018841331            3 
 3011000   0.77920834   -7.8713832    697.24942  0.019297283  0.018835715            4 
 3012000   0.76989493   -7.8529301    698.36023  0.019321609   0.01883011            3 
 3013000   0.75584329   -7.8603909    697.76553  0.019298748  0.018824494            1 
 3014000   0.77785167   -7.8456481    696.92342  0.019269062  0.018818881            1 
 3015000   0.77189505   -7.8818371    696.81917  0.019259789  0.018813265            3 
 3016000   0.75068361   -7.8986172    697.22052  0.019264493  0.018807626            2 
 3017000   0.77726767   -7.8669302    696.81224   0.01924683  0.018801982            2 
 3018000   0.77866274   -7.8772588    697.41488  0.019257093  0.018796372            3 
 3019000   0.74402034   -7.8824217    698.23385   0.01927332  0.018790738            3 
 3020000    0.7712219   -7.8589607    696.45361  0.019217815  0.018785095            3 
 3021000   0.77862247   -7.8495066    697.71409  0.019246223  0.018779459            2 
 3022000   0.78417227   -7.8817324     696.6881  0.019211562  0.018773843            3 
 3023000   0.76595628   -7.8543381    698.08906  0.019243827  0.018768227            2 
 3024000   0.76792599   -7.8543158    696.56963  0.019195592  0.018762609            2 
 3025000   0.75986017   -7.8766186     696.8026  0.019195664  0.018756985            2 
 3026000   0.75869445   -7.8632882    698.84481  0.019245561  0.018751359            3 
 3027000   0.78059819   -7.8606455    698.94326  0.019241913  0.018745759            3 
 3028000   0.76091188   -7.8669807    697.59044  0.019198328  0.018740167            4 
 3029000   0.76255644   -7.8827717    696.66332  0.019166483  0.018734551            4 
 3030000   0.77241358   -7.8833405    696.61845  0.019158923  0.018728929            3 
 3031000   0.77024312   -7.8853806    698.15779  0.019194924  0.018723323            2 
 3032000   0.77132955   -7.8582241    698.08124   0.01918649  0.018717696            2 
 3033000   0.75962785   -7.8817284    697.82037  0.019172996  0.018712096            3 
 3034000   0.77924687   -7.8581978    699.74792   0.01921962   0.01870649            2 
 3035000   0.78718883   -7.8422644    698.02646   0.01916602  0.018700929            2 
 3036000   0.77091927   -7.8564545    699.20127  0.019191954  0.018695356            3 
 3037000    0.7884373   -7.8842175    696.87341   0.01912176  0.018689767            4 
 3038000   0.76015729   -7.8845362    696.81355  0.019113823   0.01868418            4 
 3039000   0.75742212   -7.8519258    699.00821  0.019167714  0.018678588            3 
 3040000   0.77144801   -7.8818358    698.60005  0.019150221   0.01867298            4 
 3041000   0.74664929   -7.8804956    698.97884  0.019154303  0.018667379            3 
 3042000   0.76689169   -7.8774768    699.10196   0.01915138  0.018661769            2 
 3043000   0.77634596   -7.8711143    697.83719   0.01911045   0.01865616            3 
 3044000   0.76230228   -7.8818995    698.06583  0.019110431  0.018650548            3 
 3045000   0.76122465   -7.8827488    699.13722  0.019133476  0.018644935            3 
 3046000   0.76602749   -7.8692358    698.83079  0.019118811  0.018639323            5 
 3047000   0.75634599   -7.8950189    698.55526  0.019105001  0.018633712            3 
 3048000   0.75831358   -7.8869896    699.28414  0.019118661  0.018628099            2 
 3049000   0.78332819   -7.8670004    698.07409  0.019079318  0.018622474            2 
 3050000   0.76845712   -7.8664739    697.55902   0.01905899  0.018616855            2 
 3051000   0.77034991    -7.895426    698.42862  0.019076495  0.018611234            4 
 3052000   0.77314772   -7.9291192    698.72601  0.019078364  0.018605579            3 
 3053000    0.7907731   -7.9436968    697.74087  0.019045225   0.01859991            2 
 3054000   0.75268911   -7.8875227    699.30439  0.019081652  0.018594256            3 
 3055000   0.74423952   -7.8903297    700.55349  0.019109479  0.018588648            1 
 3056000    0.7497048    -7.872799    697.97363  0.019032876  0.018583056            3 
 3057000    0.7675107   -7.8538774    699.32284  0.019063429  0.018577463            2 
 3058000   0.74984403   -7.8572161    700.00747  0.019075852  0.018571887            5 
 3059000    0.7452368   -7.8734696    699.33455  0.019051284  0.018566303            2 
 3060000   0.76123032   -7.8776755    698.25747  0.019015726  0.018560718            3 
 3061000    0.7573831   -7.8737632    699.71049  0.019049071  0.018555126            2 
 3062000   0.75681375   -7.8566583    698.49424   0.01900975   0.01854954            2 
 3063000   0.76395859   -7.9017248    698.15671   0.01899436  0.018543954            2 
 3064000   0.76838263   -7.8942416    699.32877  0.019020038   0.01853836            4 
 3065000   0.74849762   -7.8927768    698.47461  0.018990609  0.018532764            2 
 3066000   0.77327764    -7.875191     699.9312  0.019024005  0.018527182            2 
 3067000   0.76805404   -7.8782372     698.5196  0.018979448  0.018521613            2 
 3068000   0.76347587   -7.8859972    697.47142  0.018944791  0.018516049            2 
 3069000   0.74750386   -7.8717043    698.65429  0.018970737  0.018510466            3 
 3070000   0.76788647    -7.907392    698.37891  0.018957082  0.018504895            2 
 3071000   0.76253196   -7.9036337    697.83173  0.018936061  0.018499328            1 
 3072000   0.74902894   -7.9029516    699.20667  0.018967195  0.018493746            3 
 3073000   0.76977545   -7.8644204    700.31445  0.018991063  0.018488181            1 
 3074000   0.74821013    -7.887249    698.10174  0.018924901  0.018482637            2 
 3075000   0.74739098   -7.8995901    698.78789  0.018937341  0.018477071            2 
 3076000    0.7459804    -7.886602    698.59517  0.018925964  0.018471493            4 
 3077000   0.75025341   -7.9117438    698.81573  0.018925786  0.018465933            4 
 3078000   0.75868225   -7.8832139    699.77031  0.018945482  0.018460341            3 
 3079000   0.74906865   -7.8725843      698.828  0.018913825  0.018454761            3 
 3080000   0.74579147   -7.8737412    699.80761  0.018934189  0.018449195            3 
 3081000   0.77145886   -7.8976879    699.52341  0.018920356  0.018443639            2 
 3082000   0.75372988   -7.8768357    699.24155  0.018906596  0.018438067            5 
 3083000   0.78221779   -7.9020235    697.36691  0.018849792  0.018432476            2 
 3084000   0.77255952   -7.9046338    698.58425  0.018876574  0.018426882            3 
 3085000   0.76854701   -7.9111861    699.15905  0.018885982  0.018421306            6 
 3086000   0.75695006   -7.8951037    701.17688  0.018934351  0.018415765            2 
 3087000   0.75695426   -7.8954991    699.91063  0.018894035  0.018410214            4 
 3088000   0.75236658   -7.8840156    700.83706  0.018912917  0.018404669            1 
 3089000   0.75659648   -7.8716303    700.21347  0.018889972  0.018399127            4 
 3090000   0.75497206   -7.8931345    699.57479  0.018866634  0.018393592            3 
 3091000   0.76818316   -7.8860128    701.38245  0.018909265  0.018388042            2 
 3092000   0.76788662   -7.8872705     701.0872  0.018895192  0.018382493            2 
 3093000   0.75160804   -7.9039855    699.72572  0.018852401  0.018376962            1 
 3094000   0.74744327   -7.8992232    701.89148   0.01890464  0.018371404            3 
 3095000   0.75906504   -7.9259174    700.38646  0.018858009  0.018365856            2 
 3096000    0.7670525    -7.909214    699.50495  0.018828191  0.018360283            4 
 3097000   0.74917128   -7.8986108     700.5358  0.018849849  0.018354734            3 
 3098000   0.76066489   -7.8948122    701.47735  0.018869092  0.018349177            3 
 3099000   0.75736278   -7.8919634    701.14583  0.018854088  0.018343633            2 
 3100000   0.75509986    -7.921006    700.57993  0.018832794  0.018338093            2 
 3101000   0.75161906   -7.9136316    700.04617  0.018812377  0.018332556            4 
 3102000   0.76803169   -7.9177488    701.04986  0.018833276  0.018326994            1 
 3103000   0.76931904   -7.8782367    699.83504  0.018794582  0.018321428            4 
 3104000   0.75843614   -7.9112508    701.02852  0.018820568  0.018315882            4 
 3105000   0.74253169   -7.9195981    700.75564  0.018807183  0.018310321            2 
 3106000   0.76436399   -7.9204126    699.73742  0.018773809  0.018304745            3 
 3107000   0.76633772   -7.9216244     701.0595  0.018803226  0.018299194            2 
 3108000   0.76308739   -7.9085276    702.02957  0.018823187  0.018293657            2 
 3109000   0.75740385    -7.883497    699.83291  0.018758253  0.018288129            3 
 3110000   0.75995976   -7.9015805    702.05732  0.018811825  0.018282625            3 
 3111000   0.77466134   -7.8823059    700.69686  0.018769336  0.018277157            3 
 3112000   0.75051345    -7.896417    701.08385  0.018773668  0.018271653            7 
 3113000   0.75205047   -7.8881624    701.60621   0.01878162  0.018266141            3 
 3114000   0.75602631   -7.9270484    699.49887  0.018719195  0.018260617            1 
 3115000   0.75496359   -7.9184912    700.06671  0.018728376  0.018255046            2 
 3116000   0.76503318   -7.8984138    701.40542  0.018758168  0.018249497            2 
 3117000   0.75587582   -7.9255233     699.7024   0.01870662   0.01824396            3 
 3118000   0.75990238   -7.8868283    701.78338  0.018756237   0.01823843            7 
 3119000   0.76193274   -7.8924221    702.15933  0.018760268  0.018232913            2 
 3120000   0.75716366   -7.8916238    701.00853  0.018723518  0.018227387            3 
 3121000   0.77561254   -7.9057789    700.94267  0.018715761   0.01822185            2 
 3122000    0.7353736    -7.889056    701.39107  0.018721735  0.018216341            3 
 3123000   0.74316543   -7.9151442    700.12358  0.018681918  0.018210811            1 
 3124000   0.74858399   -7.8935717    702.24769    0.0187326  0.018205279            1 
 3125000   0.73985961   -7.9436215    699.42602   0.01865136  0.018199736            1 
 3126000   0.76275454   -7.8925648    702.13579  0.018717632  0.018194203            2 
 3127000   0.74786415   -7.9231765    701.88389  0.018704933  0.018188672            5 
 3128000   0.75248244   -7.9151381    701.41478  0.018686455  0.018183154            4 
 3129000    0.7470176   -7.9268502    701.47364  0.018682051  0.018177625            2 
 3130000   0.73977344   -7.9391512    700.10854  0.018639737  0.018172082            6 
 3131000   0.74645283   -7.9172451    701.78113  0.018678301  0.018166555            3 
 3132000   0.76211945   -7.8917652    701.40744  0.018662395  0.018161027            2 
 3133000   0.75187462   -7.9184902    700.89575  0.018642828  0.018155492            1 
 3134000   0.74219479   -7.8843762    701.77977  0.018660385  0.018149973            3 
 3135000    0.7522903   -7.9022091    701.87803  0.018657045   0.01814445            4 
 3136000   0.75780466   -7.9279555    701.43573  0.018639342  0.018138916            2 
 3137000   0.74554139   -7.9126094    701.83305  0.018643955  0.018133378            3 
 3138000   0.75894533   -7.9356732    701.01363  0.018616253  0.018127842            2 
 3139000   0.75229963   -7.9134469     701.2482   0.01861655  0.018122312            2 
 3140000   0.74231506    -7.934788    701.95956    0.0186295  0.018116759            2 
 3141000   0.75630941   -7.9105321    701.48632  0.018611014  0.018111223            3 
 3142000   0.76082149   -7.9050857    699.52731  0.018553132  0.018105667            4 
 3143000   0.74353907   -7.9323068    700.11219  0.018562737  0.018100097            2 
 3144000   0.75002264   -7.9039476    701.29144   0.01858809  0.018094527            2 
 3145000   0.73512935   -7.9394107    699.67284  0.018539291  0.018088948            3 
 3146000    0.7517315   -7.9451433    699.89429  0.018539264  0.018083402            2 
 3147000   0.74774902    -7.931489    701.71879  0.018581686   0.01807786            2 
 3148000     0.754012    -7.893684    701.81604  0.018578358  0.018072316            4 
 3149000   0.74142881   -7.8734312    700.88866  0.018547916  0.018066798            1 
 3150000   0.76351157   -7.9010122    701.21817  0.018550745  0.018061282            2 
 3151000   0.74713213   -7.8731037     701.6012  0.018554988  0.018055747            4 
 3152000    0.7403441   -7.8980917    700.66527  0.018524357  0.018050207            3 
 3153000   0.75899091   -7.8846717    701.32774  0.018535991   0.01804465            1 
 3154000   0.72199619   -7.9288885    700.94935  0.018520116  0.018039088            2 
 3155000   0.74181975   -7.9072227    698.73215  0.018455683  0.018033521            2 
 3156000   0.73940078   -7.9289466    699.00597  0.018457065  0.018027938            2 
 3157000   0.74812085   -7.9039182    700.71149  0.018496238  0.018022361            2 
 3158000   0.75069438   -7.9126694    700.18001  0.018476357  0.018016791            2 
 3159000   0.75736407   -7.9224766    701.15631  0.018496262  0.018011203            3 
 3160000   0.72685263   -7.9044649    700.49341  0.018472927   0.01800565            2 
 3161000   0.75190999   -7.9443547    700.10866   0.01845694  0.018000091            4 
 3162000   0.76414737   -7.9255812    699.91262  0.018445937  0.017994514            3 
 3163000   0.74984187   -7.9339319    699.86423   0.01843883   0.01798895            1 
 3164000    0.7276423   -7.9822357      700.526  0.018450432  0.017983387            2 
 3165000   0.73435407   -7.9416264    701.53103  0.018471065  0.017977815            2 
 3166000   0.73204334   -7.9190818    702.45045  0.018489431  0.017972264            3 
 3167000   0.73888729   -7.9303039     701.2797  0.018452786  0.017966724            4 
 3168000   0.76062207    -7.910208    700.08742  0.018415599  0.017961173            2 
 3169000    0.7404001   -7.9463572    700.27191  0.018414639  0.017955614            3 
 3170000   0.76249026   -7.9258576    699.72861  0.018394548  0.017950045            3 
 3171000   0.73731918   -7.9361836    700.40444  0.018406508  0.017944467            4 
 3172000   0.75132567   -7.9383108    700.09408  0.018392552  0.017938907            4 
 3173000   0.74691877   -7.9180534    700.72662  0.018403368  0.017933332            2 
 3174000   0.74510787   -7.9772494    699.92998  0.018376653   0.01792777            5 
 3175000   0.73370224   -7.9322013    701.69086  0.018417083  0.017922193            4 
 3176000   0.73323859   -7.9468546    699.15733  0.018344808  0.017916607            3 
 3177000   0.72750459   -7.9464454    699.42457  0.018346044  0.017911014            4 
 3178000   0.75377898   -7.9701212    700.53037  0.018369267  0.017905431            3 
 3179000    0.7498209   -7.9570367    698.83303  0.018318995  0.017899848            2 
 3180000   0.74909854   -7.9512825    700.84279  0.018365901  0.017894262            3 
 3181000   0.74428342   -7.9641235    701.69314  0.018382404  0.017888684            2 
 3182000   0.73913117   -7.9150959    701.52039  0.018372103  0.017883126            1 
 3183000   0.77203344   -7.9277805    701.55078  0.018367127  0.017877606            2 
 3184000   0.75931858   -7.9186773     703.2455  0.018405714  0.017872073            3 
 3185000    0.7391146    -7.924694    699.74354  0.018308308  0.017866546            3 
 3186000    0.7415204   -7.9513477    700.51438  0.018322724  0.017861019            5 
 3187000   0.76098697   -7.9395784     700.9124  0.018327382  0.017855494            3 
 3188000   0.73092462   -7.9148336    701.40694   0.01833456  0.017849992            3 
 3189000   0.74947435   -7.9424972    701.95861  0.018343227  0.017844458            4 
 3190000   0.73823003   -7.9181945    703.12337  0.018367904  0.017838947            2 
 3191000     0.759946    -7.939753    701.37615  0.018316519  0.017833446            2 
 3192000   0.73851924   -7.9202352    702.31054  0.018335175  0.017827942            5 
 3193000   0.75392814   -7.9410433    703.23784  0.018353634  0.017822436            3 
 3194000   0.74095896   -7.9239543     702.3073  0.018323609  0.017816938            2 
 3195000   0.74437534   -7.9418642    702.17283  0.018314367  0.017811451            2 
 3196000    0.7359965    -7.909424    703.58327  0.018345413  0.017805963            2 
 3197000   0.74689495   -7.9139546    704.07928  0.018352603  0.017800497            4 
 3198000   0.73659666   -7.9130363    703.65084    0.0183357  0.017795037            7 
 3199000   0.73148211   -7.9299721    702.03572  0.018287895  0.017789562            2 
 3200000   0.72953721   -7.9370167    702.93284  0.018305543  0.017784088            3 
 3201000   0.72722182   -7.9245359     701.3959  0.018259812  0.017778581            3 
 3202000   0.72699601   -7.9056869    702.82562  0.018291318  0.017773093            2 
 3203000   0.73084569    -7.924366    702.10638  0.018266895  0.017767608            5 
 3204000   0.74916008   -7.9501049    701.79555  0.018253109  0.017762112            3 
 3205000   0.73843923   -7.9337365    702.86544  0.018275233  0.017756599            4 
 3206000    0.7165775   -7.9407497    701.05214  0.018222399  0.017751092            2 
 3207000   0.73012416   -7.9456045    702.30123  0.018249174  0.017745593            3 
 3208000   0.73960009   -7.9460343     700.6231  0.018199893  0.017740072            2 
 3209000   0.74205126   -7.9276942    700.79411  0.018198663  0.017734553            2 
 3210000   0.73122008   -7.9660042    701.27575  0.018205497  0.017729022            2 
 3211000   0.74196078   -7.9602442    702.03564  0.018219548  0.017723499            1 
 3212000   0.76114525   -7.9503714    700.02261  0.018161649  0.017717984            3 
 3213000   0.74152056   -7.9368238    701.33672   0.01819008  0.017712453            3 
 3214000   0.75330128   -7.9183545     701.2735  0.018182781  0.017706947            2 
 3215000   0.75586563   -7.9264026    700.62796  0.018160393  0.017701447            4 
 3216000   0.74077472   -7.9548073    701.55765  0.018178836  0.017695937            3 
 3217000      0.74875   -7.9654884    701.67752  0.018176291  0.017690427            2 
 3218000   0.71854607   -7.9364888    701.61975  0.018169146  0.017684924            3 
 3219000   0.73472752   -7.9264963    702.47384  0.018185612  0.017679432            2 
 3220000   0.74100125   -7.9452129    701.71258  0.018160264  0.017673943            2 
 3221000   0.74120204   -7.9698709     702.1161  0.018165065  0.017668465            5 
 3222000   0.74598268   -7.9228169    703.27489  0.018189398  0.017663002            3 
 3223000   0.74354272   -7.9432315    702.19009  0.018155706  0.017657536            4 
 3224000   0.74131237   -7.9373078    702.49355  0.018157919  0.017652053            4 
 3225000   0.71667452    -7.947966     701.7522  0.018133132  0.017646545            2 
 3226000   0.73382042   -7.9433195    702.93253  0.018158001  0.017641028            3 
 3227000   0.73733469   -7.9503245    702.81165  0.018149252  0.017635551            2 
 3228000   0.74286574   -7.9621708    701.21212  0.018102337   0.01763007            2 
 3229000   0.73610785   -7.9716019    702.76174  0.018136723  0.017624611            5 
 3230000   0.73081694   -7.9448831    702.82741  0.018132802  0.017619143            5 
 3231000   0.74243196   -7.9563303    701.35207  0.018089138  0.017613645            2 
 3232000   0.74227805   -7.9317959    703.53475  0.018139819  0.017608155            2 
 3233000   0.72851448   -7.9751316    701.33353   0.01807747  0.017602636            3 
 3234000   0.72487243   -7.9662526     702.2954  0.018096666  0.017597127            2 
 3235000   0.73849243   -7.9409623    702.16789  0.018087787  0.017591623            2 
 3236000   0.72463444   -7.9397922    703.52815  0.018117227  0.017586137            1 
 3237000   0.72556519   -7.9584306    701.75273  0.018065923  0.017580649            3 
 3238000   0.74368135   -7.9551398    701.36186  0.018050285  0.017575149            4 
 3239000   0.71625092   -7.9586154    701.02176  0.018035962  0.017569647            2 
 3240000   0.71765182   -7.9567986    701.76362  0.018049476  0.017564143            3 
 3241000   0.73086912   -7.9756067     702.6142  0.018065777  0.017558643            3 
 3242000     0.734426   -7.9565901    703.30341   0.01807792  0.017553133            3 
 3243000   0.72642741   -7.9388908    702.67706  0.018056251  0.017547642            2 
 3244000    0.7339757   -7.9735631    702.45678  0.018045026  0.017542168            3 
 3245000   0.73872336   -7.9732474    704.18105  0.018083746  0.017536704            4 
 3246000   0.73427667   -7.9401944    704.42503  0.018084438  0.017531252            2 
 3247000   0.73309019   -7.9334559    703.22085  0.018047963  0.017525821            2 
 3248000   0.73032464   -7.9582368    703.14108   0.01804036  0.017520363            2 
 3249000   0.72112023   -7.9525298    704.37379  0.018066425  0.017514903            2 
 3250000   0.72689487   -7.9954103    700.37872  0.017958429  0.017509418            2 
 3251000   0.72234969   -7.9782914    700.91531  0.017966659   0.01750392            4 
 3252000   0.72894383   -7.9854667    701.79581  0.017983697   0.01749844            4 
 3253000   0.74340745   -7.9568349    703.72385   0.01802756  0.017493003            4 
 3254000   0.73631557   -7.9618262    701.63689  0.017968574  0.017487552            4 
 3255000   0.71843731    -7.962448     704.0838  0.018025699  0.017482117            2 
 3256000   0.72943154   -7.9614765    703.93125  0.018016258  0.017476688            3 
 3257000   0.71902204   -7.9533259    704.33722  0.018021114  0.017471272            4 
 3258000    0.7226782   -7.9686667    704.48465  0.018019354  0.017465856            3 
 3259000   0.71356937   -7.9644755    703.93705  0.017999822  0.017460441            4 
 3260000   0.71822711   -7.9921817     703.6341  0.017986557  0.017455016            5 
 3261000   0.74091867   -7.9610244     704.5689  0.018004929  0.017449594            1 
 3262000   0.73723836   -7.9783559    703.08671  0.017961545  0.017444181            5 
 3263000   0.72111434    -7.964923    703.10309  0.017956459  0.017438762            1 
 3264000   0.72544075   -7.9816892      704.454  0.017985447  0.017433358            3 
 3265000   0.70772575   -7.9473404    704.26968  0.017975234  0.017427959            3 
 3266000   0.71773872   -7.9816698     704.3988  0.017973025  0.017422574            4 
 3267000   0.72845124   -7.9548047     706.1313  0.018011716   0.01741718            3 
 3268000   0.72654816   -7.9591453    703.43067  0.017937339  0.017411786            5 
 3269000   0.72394104   -7.9630539    705.62871  0.017987884  0.017406411            6 
 3270000   0.72839759   -7.9530386    705.27288  0.017973315  0.017401035            1 
 3271000   0.72565768   -7.9220763    704.39378  0.017945424  0.017395661            4 
 3272000   0.72550953   -7.9406106    705.29537  0.017962902  0.017390304            3 
 3273000   0.73550758   -7.9355787    705.55271  0.017963965  0.017384957            4 
 3274000    0.7302853   -7.9524817    705.18052  0.017949005  0.017379604            2 
 3275000   0.73091535   -7.9418681    706.01774  0.017964828  0.017374244            2 
 3276000   0.72686336   -7.9577113    705.33233  0.017941909  0.017368891            4 
 3277000   0.72782051   -7.9564748    704.24493  0.017908782  0.017363532            4 
 3278000   0.71563594   -7.9654639    704.63097  0.017913132  0.017358155            2 
 3279000   0.72783569    -7.967356    704.34688  0.017900449   0.01735278            3 
 3280000   0.73417473   -7.9700255    703.39387  0.017870779   0.01734739            4 
 3281000   0.72800463   -7.9382532    702.85793   0.01785172  0.017342016            2 
 3282000   0.72380034   -7.9737664    703.60011  0.017865126  0.017336639            1 
 3283000   0.74246638   -7.9612079    705.25008  0.017901566  0.017331257            1 
 3284000   0.72577358   -7.9775836    704.03407  0.017865257  0.017325861            2 
 3285000   0.72663872   -7.9962048    704.84607  0.017880418  0.017320453            3 
 3286000   0.71637875   -7.9614308    704.65787  0.017870204  0.017315051            5 
 3287000   0.71505326   -7.9826731    702.62114  0.017813131  0.017309635            1 
 3288000   0.71996772   -7.9797122    704.30706  0.017850442  0.017304223            2 
 3289000   0.71774063   -7.9435711    705.08205  0.017864651  0.017298832            3 
 3290000   0.73125923   -7.9615431    705.52727  0.017870498  0.017293468            3 
 3291000   0.74087755   -7.9731252    704.94737  0.017850384  0.017288085            4 
 3292000   0.71745068   -7.9755649    704.22943  0.017826788  0.017282699            5 
 3293000   0.72960563   -7.9640919    704.48834  0.017827926  0.017277326            2 
 3294000   0.72796077   -7.9620894     706.3816  0.017870411  0.017271953            2 
 3295000   0.73238988   -7.9682956    703.51508  0.017792491  0.017266582            2 
 3296000   0.71498189    -7.965057    705.05849  0.017826115  0.017261208            2 
 3297000   0.72761025   -7.9817146    704.60352  0.017809208  0.017255821            1 
 3298000   0.72433628   -8.0087817    704.94082  0.017812331  0.017250442            3 
 3299000   0.72322658   -7.9790488    704.39815  0.017793224  0.017245052            4 
 3300000   0.71181378   -7.9909236    703.16905  0.017756794  0.017239652            2 
 3301000   0.73129121   -7.9797219    703.07859  0.017749131  0.017234267            1 
 3302000    0.7216574   -7.9871175    704.80695  0.017787375    0.0172289            3 
 3303000    0.7143215   -7.9575412    704.93933   0.01778533  0.017223507            1 
 3304000   0.72617192   -7.9667543    705.30855  0.017789259  0.017218143            2 
 3305000   0.72421277   -7.9556458    705.09706  0.017778544  0.017212781            3 
 3306000   0.72678386   -7.9694518    706.19079  0.017800736  0.017207455            4 
 3307000   0.72286734   -7.9693227    705.38469   0.01777504  0.017202104            4 
 3308000   0.73974062   -7.9705324    705.42649   0.01777072  0.017196758            2 
 3309000   0.73639296   -7.9554909    705.50086  0.017767222  0.017191421            2 
 3310000   0.72111237   -7.9680245    705.63825  0.017765313  0.017186079            5 
 3311000   0.71584136   -7.9989823    704.89333  0.017741199  0.017180722            4 
 3312000   0.72476862   -7.9621582    705.65932  0.017755116  0.017175361            3 
 3313000   0.73643554   -8.0067068    703.44122  0.017693964  0.017170001            5 
 3314000   0.73774328   -7.9846758    706.16481  0.017757112  0.017164622            3 
 3315000   0.72756913   -8.0095322    703.98221  0.017696888  0.017159252            2 
 3316000   0.73815319   -7.9920688    704.59147  0.017706863  0.017153865            2 
 3317000    0.7316553   -8.0005797    703.69987  0.017679124  0.017148501            3 
 3318000   0.71055418    -8.017697    704.29134  0.017688651  0.017143131            3 
 3319000   0.72171093   -8.0011278     706.3813  0.017735796  0.017137745            3 
 3320000   0.71872957   -8.0162762    705.48796  0.017708031  0.017132368            2 
 3321000   0.73094876   -7.9964316     704.0582  0.017666822  0.017126986            2 
 3322000   0.73064773   -8.0050949     704.8439  0.017681214  0.017121605            2 
 3323000   0.72829429    -8.006823    703.89327  0.017652053  0.017116226            3 
 3324000   0.73659913   -8.0154335    703.47801  0.017636332  0.017110858            3 
 3325000   0.72474662    -7.992612    704.57064  0.017658412   0.01710548            3 
 3326000   0.73209328   -8.0288296    703.07814  0.017615708   0.01710008            1 
 3327000   0.71902628   -7.9988136    704.83365  0.017654385  0.017094669            6 
 3328000   0.71840367   -8.0325613    703.75019   0.01762195  0.017089261            3 
 3329000   0.73308184   -8.0115434    705.55381  0.017661805  0.017083854            2 
 3330000    0.7262955   -7.9860545    703.90154  0.017615154  0.017078447            5 
 3331000    0.7222431   -7.9917308    703.24478  0.017593435  0.017073056            2 
 3332000    0.7123006   -8.0266059    702.84639  0.017578191  0.017067653            1 
 3333000    0.7193046   -8.0473178    704.56627  0.017615918  0.017062248            4 
 3334000   0.71512956   -7.9602233    704.76656  0.017615641  0.017056875            2 
 3335000   0.71661676   -8.0283197    703.80769  0.017586399  0.017051511            3 
 3336000   0.71415283   -7.9983949    706.32986  0.017644131  0.017046153            2 
 3337000   0.73216966   -8.0040223    705.21254  0.017610941  0.017040795            5 
 3338000   0.72320905   -7.9971163    705.28367  0.017607441  0.017035434            2 
 3339000   0.70552506   -8.0278387    704.79367  0.017589939  0.017030076            1 
 3340000   0.71813824   -7.9888047    704.89186  0.017587122  0.017024717            2 
 3341000   0.72647535   -8.0014442    705.51306  0.017597353   0.01701937            3 
 3342000   0.72405765   -8.0307835     704.0634  0.017555939  0.017014029            3 
 3343000   0.71346368   -8.0154886    705.33319  0.017582341  0.017008664            3 
 3344000   0.70925812   -7.9988383    706.38392  0.017603268  0.017003331            2 
 3345000   0.73636901     -8.01727    705.19893  0.017568483  0.016998012            2 
 3346000   0.71072265   -8.0050807    705.94311  0.017581767  0.016992685            2 
 3347000   0.72265792   -8.0096462    704.72912  0.017546288  0.016987355            3 
 3348000   0.73485088   -7.9875731    704.87156  0.017544593  0.016982035            3 
 3349000   0.72777061   -7.9888011    706.73399  0.017585697  0.016976713            2 
 3350000   0.71049611   -7.9873401    705.67078     0.017554  0.016971401            5 
 3351000   0.72078851   -7.9954178    705.75921   0.01755096    0.0169661            4 
 3352000   0.70581404   -7.9955509     703.7991  0.017496994  0.016960802            2 
 3353000   0.71939623   -8.0193689    705.24727  0.017527768  0.016955484            2 
 3354000   0.71478264   -8.0378448    706.49444  0.017553529  0.016950149            2 
 3355000   0.71188419   -8.0225862    705.99992  0.017536014  0.016944818            2 
 3356000   0.72424054   -8.0227084    705.33434  0.017514261  0.016939492            2 
 3357000   0.71986764   -7.9997739     705.3896  0.017510416  0.016934164            3 
 3358000   0.72164912   -8.0107969      705.368  0.017504665  0.016928839            2 
 3359000   0.70606326    -7.985685     706.1211  0.017518138  0.016923529            5 
 3360000    0.7184695   -8.0142114    705.75003  0.017503721  0.016918204            3 
 3361000   0.71194306   -8.0029485    703.65192  0.017446492  0.016912875            7 
 3362000   0.72047367   -8.0046993    705.39134  0.017484417  0.016907562            2 
 3363000   0.72216624   -8.0055206    704.96662  0.017468694  0.016902237            2 
 3364000   0.72265178   -7.9728532    705.64255  0.017480246  0.016896931            4 
 3365000   0.71902507   -8.0071365    704.10044  0.017436861  0.016891636            3 
 3366000   0.69988429   -8.0088024    704.70793   0.01744672  0.016886322            2 
 3367000   0.70048556   -7.9903265    704.08925  0.017426226   0.01688101            1 
 3368000    0.7061282    -8.019238    705.64934  0.017459653  0.016875675            2 
 3369000   0.71391346   -8.0060059    706.65795  0.017479419  0.016870348            2 
 3370000    0.7169215   -8.0406616    704.21709  0.017413875   0.01686503            3 
 3371000   0.70612447   -7.9953514    704.89009  0.017425346  0.016859703            4 
 3372000   0.71894399   -7.9944441    705.35683  0.017431713  0.016854393            4 
 3373000   0.71835029   -8.0360827    702.60894  0.017358655  0.016849072            1 
 3374000   0.71044299   -8.0074396    704.33891  0.017396239  0.016843768            1 
 3375000   0.70644901   -8.0137299    704.88515  0.017404572  0.016838469            2 
 3376000   0.72388656   -8.0091712    705.65773  0.017418487   0.01683318            4 
 3377000    0.7177493   -7.9768741    706.72704  0.017439716  0.016827904            4 
 3378000   0.71965977   -7.9886455    706.95435  0.017440161  0.016822626            2 
 3379000   0.70596628   -8.0204678    705.97105  0.017410749  0.016817347            2 
 3380000   0.72692002   -8.0084967    707.02135  0.017431493  0.016812067            3 
 3381000   0.72661732   -8.0055802    707.30281  0.017433274  0.016806795            1 
 3382000   0.69840341    -8.010569    706.48434  0.017407952   0.01680152            2 
 3383000   0.70716548   -8.0124842    706.20262  0.017395867   0.01679625            5 
 3384000   0.71630421   -8.0215617    705.54763  0.017374597  0.016790962            2 
 3385000   0.69937317   -8.0058459     705.9982  0.017380556  0.016785675            2 
 3386000   0.69422362   -8.0000131    707.23436  0.017405847  0.016780406            1 
 3387000   0.70861061   -8.0448214    705.98665  0.017370009  0.016775126            4 
 3388000   0.71187786   -8.0113071    705.65084  0.017356622  0.016769865            3 
 3389000   0.70469843   -8.0096909    706.06464  0.017361676  0.016764615            1 
 3390000    0.7203756   -8.0147278    706.14607  0.017358556  0.016759382            2 
 3391000   0.70456771   -8.0124099    706.26701  0.017356409   0.01675413            2 
 3392000   0.71200535   -8.0226385    705.65919   0.01733636  0.016748886            3 
 3393000   0.71964041   -8.0199497     706.3932  0.017349278  0.016743643            2 
 3394000   0.68926004   -8.0185747    705.74774  0.017328318  0.016738386            3 
 3395000   0.71720229   -8.0186674     706.2951   0.01733665   0.01673313            2 
 3396000   0.71589043   -8.0235645    706.92927  0.017347106  0.016727888            3 
 3397000   0.70551894   -8.0355427    705.70147   0.01731188  0.016722626            2 
 3398000    0.7132208   -8.0396541    704.82465  0.017285282  0.016717349            2 
 3399000   0.71317762   -8.0278372    707.33356  0.017341707  0.016712083            1 
 3400000   0.70888878   -8.0313473    705.37909  0.017288703  0.016706813            3 
 3401000   0.69938835   -8.0295704    706.35215  0.017307462  0.016701528            5 
 3402000   0.70109339   -8.0610093     705.4153  0.017279426  0.016696253            5 
 3403000   0.70549493   -8.0425711    705.87989  0.017285726  0.016690991            3 
 3404000   0.70474129   -8.0108604    706.37691  0.017292815   0.01668572            3 
 3405000   0.69982161   -8.0434705    706.74152   0.01729666  0.016680445            3 
 3406000   0.69908567   -8.0357339    706.05305  0.017274737  0.016675172            3 
 3407000   0.71135796   -8.0128553    706.26226  0.017274784  0.016669912            1 
 3408000    0.7078143   -8.0263734    706.73843  0.017281358  0.016664648            4 
 3409000   0.70999847   -8.0396876    706.07269  0.017260015  0.016659367            2 
 3410000   0.70365567   -8.0150766     707.3584  0.017286373  0.016654115            2 
 3411000   0.70343185    -8.025007    706.35725  0.017256847  0.016648856            3 
 3412000   0.70975932   -8.0272319    706.32405  0.017250978  0.016643609            2 
 3413000   0.71805132   -8.0421835    705.49801  0.017225755  0.016638353            4 
 3414000   0.68513916     -8.02042    707.47207  0.017268895  0.016633105            4 
 3415000   0.71492749   -8.0386774     705.3468  0.017211977  0.016627863            4 
 3416000   0.71708722   -8.0377133    706.25193  0.017229019  0.016622605            3 
 3417000   0.70826645   -8.0506929    704.92527  0.017191622  0.016617352            3 
 3418000   0.70148776   -8.0242012    706.97208  0.017236495  0.016612094            2 
 3419000   0.71729436   -8.0293936     706.8061  0.017227408  0.016606842            4 
 3420000   0.70734707   -8.0766832    704.86725  0.017175128  0.016601583            4 
 3421000   0.69250761   -8.0323735    705.00133  0.017173374  0.016596307            2 
 3422000   0.70475392   -8.0035319    706.41341  0.017202742  0.016591056            5 
 3423000   0.70551953   -8.0347135    705.68169  0.017179903  0.016585801            2 
 3424000   0.71617844   -8.0368832    706.26166  0.017189001  0.016580571            2 
 3425000   0.69733737   -8.0491068    706.78095  0.017196617  0.016575325            3 
 3426000   0.70057995   -8.0213142    707.35514  0.017205564  0.016570104            3 
 3427000   0.70628892   -8.0419733    706.11737  0.017170445  0.016564875            3 
 3428000   0.69750399   -8.0469765    705.08309  0.017140293  0.016559643            2 
 3429000   0.70736694   -8.0407872    705.84881  0.017153903  0.016554412            3 
 3430000   0.69233753   -8.0172688    706.94936   0.01717564  0.016549182            1 
 3431000   0.69853902   -8.0360098    707.20055  0.017176735  0.016543964            2 
 3432000   0.70888559   -8.0382452    705.96889  0.017141824  0.016538748            2 
 3433000   0.72369152   -8.0369621    707.12019  0.017164778  0.016533534            2 
 3434000   0.71438148   -8.0151902    706.91956  0.017154911  0.016528315            3 
 3435000    0.6931978   -8.0195171    708.68979  0.017192863  0.016523103            4 
 3436000   0.69875058   -8.0091609    707.49869  0.017158971   0.01651789            3 
 3437000   0.71866092   -8.0367277    707.44217  0.017152608  0.016512669            2 
 3438000   0.71464305   -8.0568107    707.15081  0.017140557  0.016507439            3 
 3439000   0.71403846   -8.0424287    707.02279   0.01713247  0.016502204            1 
 3440000   0.69589449   -8.0469383    708.67921  0.017167616  0.016496979            1 
 3441000   0.68942326   -8.0345835    707.87515  0.017143155  0.016491765            4 
 3442000   0.71045415   -8.0283833     706.3645    0.0171016   0.01648654            2 
 3443000    0.7090048   -8.0444989    706.27559  0.017094481  0.016481322            2 
 3444000   0.68707045   -8.0530135    706.50397  0.017095044  0.016476093            2 
 3445000   0.70903383   -8.0668083    705.76304  0.017072159  0.016470863            6 
 3446000   0.69553864   -8.0568743    705.73562  0.017066541   0.01646562            2 
 3447000   0.69773851   -8.0445803    707.90621  0.017114066  0.016460388            2 
 3448000   0.69923863   -8.0522263    706.42262  0.017073246  0.016455167            4 
 3449000   0.70144943   -8.0646788    705.73615   0.01705171   0.01644995            2 
 3450000   0.70770066   -8.0647676    705.86213   0.01704981  0.016444709            3 
 3451000   0.67567555   -8.0714788    706.25947  0.017054464   0.01643947            3 
 3452000   0.70527927   -8.0541766    706.50115  0.017055358  0.016434237            3 
 3453000   0.69778904   -8.0403525    705.91816  0.017036349  0.016428998            1 
 3454000   0.69895494   -8.0911862    705.74227  0.017027173  0.016423767            5 
 3455000   0.69535796    -8.038901    706.87912  0.017049665  0.016418549            2 
 3456000   0.70062576   -8.0399894    707.58675  0.017061795  0.016413346            4 
 3457000   0.70022733   -8.0334289    707.56098  0.017056238  0.016408144            3 
 3458000   0.70257757   -8.0590368    705.37872  0.016998716  0.016402944            3 
 3459000   0.69658868   -8.0657219    706.37107  0.017017709  0.016397742            2 
 3460000   0.69334749    -8.043425    706.51745  0.017016316  0.016392542            3 
 3461000    0.6953311   -8.0574273    708.37501  0.017056126   0.01638735            5 
 3462000   0.70116219   -8.0508554    705.66271  0.016985912  0.016382155            3 
 3463000   0.70106498   -8.0370551    708.26307  0.017043581  0.016376955            3 
 3464000   0.69246599   -8.0355911    704.53236  0.016948912   0.01637177            3 
 3465000     0.705118   -8.0355159    706.46886  0.016990593  0.016366588            2 
 3466000   0.69078024   -8.0062906    707.54834  0.017011645  0.016361414            3 
 3467000    0.6995544   -8.0243988    707.39688  0.017003098  0.016356243            2 
 3468000   0.69776023   -8.0324621    709.01208  0.017037007  0.016351073            2 
 3469000   0.69776574   -8.0476398    706.14734  0.016963278  0.016345894            3 
 3470000   0.69790391   -8.0537876    707.47572  0.016990291   0.01634072            3 
 3471000   0.69930844   -8.0571037    707.09601   0.01697628  0.016335545            2 
 3472000   0.71109345   -8.0381007    705.77689   0.01693973  0.016330369            4 
 3473000   0.68723779   -8.0197226    706.20151  0.016945041  0.016325194            2 
 3474000    0.6992703   -8.0467505    708.01629  0.016983695  0.016320023            2 
 3475000   0.69986162   -8.0568181    707.59367  0.016968673  0.016314837            2 
 3476000    0.6855233   -8.0192668    707.56213  0.016963035  0.016309655            2 
 3477000   0.68655521   -8.0511617    706.67002  0.016936776  0.016304472            2 
 3478000   0.68288172   -8.0429813    706.71199  0.016932912  0.016299293            4 
 3479000   0.70118084   -8.0619024    705.68502  0.016903445  0.016294121            2 
 3480000   0.71200133   -8.0515645    706.07087  0.016907827  0.016288934            4 
 3481000   0.70945548   -8.0646531    706.68972  0.016917785  0.016283759            3 
 3482000   0.69113622   -8.0435555    706.73582   0.01691403  0.016278599            5 
 3483000   0.71212638   -8.0340515    707.52566  0.016928071  0.016273435            4 
 3484000   0.68421548   -8.0417767     706.6964  0.016903377  0.016268253            2 
 3485000   0.69690658   -8.0477773    705.58593  0.016871973  0.016263069            7 
 3486000   0.70141311   -8.0720227    706.02378    0.0168776  0.016257885            3 
 3487000   0.70994792   -8.0699508    706.92439  0.016894283  0.016252698            3 
 3488000   0.69721152   -8.0588842    706.40909  0.016877129  0.016247515            3 
 3489000   0.69186938   -8.0726253    705.54272  0.016851598  0.016242338            2 
 3490000    0.6914869   -8.0958264    705.79337  0.016852755  0.016237131            3 
 3491000   0.68565473   -8.1067387    706.67368  0.016868941  0.016231942            2 
 3492000   0.71179144   -8.0791402    706.50987  0.016860201  0.016226753            3 
 3493000   0.70932158   -8.0768401    706.29637  0.016850281  0.016221571            2 
 3494000   0.67780325   -8.0704775    706.78575   0.01685713  0.016216394            2 
 3495000   0.68615763   -8.0745085    705.51588  0.016822029   0.01621123            2 
 3496000   0.70542167   -8.0641784    708.26106  0.016882653   0.01620606            2 
 3497000   0.69809119   -8.0920001    707.28624  0.016854595   0.01620089            7 
 3498000   0.68820009   -8.0726012    706.70204   0.01683586  0.016195728            4 
 3499000   0.71060322   -8.0758778     705.3755  0.016799455  0.016190549            3 
 3500000   0.68777417   -8.0912498     707.1505  0.016836917  0.016185378            4 
 3501000   0.68998872   -8.0692398     707.5379  0.016841329  0.016180228            1 
 3502000   0.69573158   -8.1152598    706.40095  0.016809465  0.016175085            3 
 3503000   0.68734749   -8.0747131    706.52132   0.01680753  0.016169922            6 
 3504000    0.6903769    -8.080659    708.79056  0.016856701  0.016164777            3 
 3505000   0.68754894   -8.0432523    707.35183  0.016817685  0.016159641            6 
 3506000   0.70636471   -8.0668013    706.87265  0.016801499  0.016154524            3 
 3507000   0.70092864   -8.0930084    706.55698  0.016789207  0.016149387            6 
 3508000   0.67105605   -8.0496343    707.56149  0.016808283  0.016144271            4 
 3509000   0.69445963    -8.054448    708.14761  0.016817413  0.016139146            2 
 3510000   0.68401342   -8.0504438    708.01092  0.016809376  0.016134028            3 
 3511000   0.69411216   -8.0434597    707.97154  0.016803654   0.01612891            9 
 3512000   0.69643972   -8.0222735     708.3373  0.016807548  0.016123804            3 
 3513000     0.670647   -8.0480029    706.46694  0.016758396  0.016118686            4 
 3514000   0.67923434   -8.0664496    707.62548  0.016781101  0.016113573            2 
 3515000   0.68482575   -8.0352952    706.92086  0.016759622  0.016108455            1 
 3516000   0.68225937   -8.0341085    708.30493  0.016787659  0.016103349            3 
 3517000   0.67636494    -8.030613    707.58686  0.016765872  0.016098262            3 
 3518000   0.70187427   -8.0737237    708.63774  0.016785999  0.016093166            3 
 3519000   0.68791753   -8.0742334    708.31943  0.016773691  0.016088051            3 
 3520000   0.70044311   -8.0784628    706.70898    0.0167308   0.01608293            3 
 3521000   0.69317919    -8.056457    707.58363  0.016746749  0.016077809            4 
 3522000   0.70646492   -8.0639623    707.14783  0.016731683  0.016072703            3 
 3523000   0.69653203   -8.0898146    707.33748  0.016731419   0.01606758            3 
 3524000   0.67921577   -8.0850274    706.81404  0.016714293  0.016062447            2 
 3525000   0.70274873   -8.0676664    707.25254  0.016719918  0.016057316            4 
 3526000   0.69653605   -8.1030091    706.27349  0.016692037  0.016052192            3 
 3527000    0.6947274   -8.0673192    707.64027  0.016719598  0.016047047            2 
 3528000   0.67560363   -8.0648747    707.32891  0.016707504  0.016041913            3 
 3529000   0.68075984   -8.0951828    707.20414  0.016699824  0.016036799            2 
 3530000   0.70287412   -8.0874481    706.89891  0.016687888  0.016031683            3 
 3531000   0.67392528    -8.079397    707.52408  0.016697916  0.016026557            2 
 3532000   0.68736599   -8.0874481    708.04616  0.016705506  0.016021434            3 
 3533000   0.68862669   -8.0728601    707.60996  0.016690489   0.01601633            4 
 3534000   0.67489272   -8.0556633    707.30611  0.016678601  0.016011219            5 
 3535000   0.67862835   -8.0695406    706.44205  0.016653514  0.016006116            2 
 3536000   0.68038566   -8.0741888    707.03936  0.016662881  0.016001009            1 
 3537000   0.69837649   -8.0631325    707.28181  0.016663882  0.015995916            2 
 3538000   0.69437306   -8.0845428    705.19561  0.016610034  0.015990826            3 
 3539000    0.6853249   -8.0618524    706.96825  0.016647081  0.015985733            2 
 3540000   0.68991345   -8.0843849    706.27091  0.016625963  0.015980624            3 
 3541000   0.69099789     -8.08655    706.03004  0.016615599  0.015975532            2 
 3542000   0.67831085   -8.0770028    706.61891  0.016624763  0.015970444            4 
 3543000   0.68916069   -8.0722905    709.12559  0.016679029  0.015965363            5 
 3544000   0.67990425   -8.0668905    708.58118  0.016661521  0.015960283            9 
 3545000   0.68252331   -8.0709552    706.75969  0.016614003  0.015955189            4 
 3546000   0.68279105   -8.1039281    705.67997  0.016583944  0.015950085            9 
 3547000    0.6688998   -8.0958346    706.81723  0.016605987  0.015944991            5 
 3548000   0.68366491   -8.0820452     707.6713  0.016621367  0.015939901            3 
 3549000   0.68113079   -8.0872149    706.48336  0.016588789  0.015934801            5 
 3550000   0.67674061   -8.0864563    707.38085  0.016605184   0.01592971            2 
 3551000   0.68026119   -8.0771879    707.17924  0.016595777  0.015924616            3 
 3552000   0.67420141   -8.0862377    707.68557  0.016602984  0.015919521            3 
 3553000   0.68780872   -8.0822938    706.94071   0.01658084  0.015914423            6 
 3554000   0.69401692   -8.1184451     706.1345  0.016557271  0.015909321            3 
 3555000   0.67598788   -8.0854633    707.30984  0.016580165  0.015904235            8 
 3556000   0.68718777   -8.1005311    707.10658  0.016570739  0.015899163            3 
 3557000   0.68483541   -8.0733045    707.71125  0.016580247  0.015894079            2 
 3558000   0.68486036   -8.0959003     707.5098  0.016570868  0.015888983            2 
 3559000   0.68153041   -8.1011591    707.49323  0.016565825  0.015883904            4 
 3560000   0.66401889   -8.0861706    707.77516   0.01656777  0.015878831            1 
 3561000   0.67782898   -8.0954597    707.70552  0.016561488  0.015873766            3 
 3562000   0.68666083   -8.0704935    709.29431  0.016594009  0.015868706            3 
 3563000   0.68569192   -8.0991486    707.14221  0.016539017  0.015863646            1 
 3564000   0.68060098   -8.0750718    707.28572  0.016537732  0.015858595            3 
 3565000   0.67113833   -8.0862344    706.36658  0.016511608  0.015853541            2 
 3566000   0.67076275   -8.0908067    707.46876  0.016532734  0.015848492            2 
 3567000   0.67113737   -8.0721237    708.33623  0.016548365   0.01584345            1 
 3568000   0.69389516   -8.0951765    707.57618  0.016525976  0.015838412            2 
 3569000   0.68571037   -8.0758431    709.87399  0.016574998  0.015833369            1 
 3570000   0.68997636    -8.070361    709.76175  0.016567734  0.015828336            4 
 3571000   0.67929404   -8.0927533    708.20634  0.016526798  0.015823302            2 
 3572000    0.6851416   -8.0870597    708.02789  0.016518008  0.015818264            2 
 3573000   0.68087173   -8.1029702    709.18732  0.016540426  0.015813226            3 
 3574000   0.67431993   -8.1046316    708.16659  0.016511998  0.015808188            4 
 3575000   0.67690095   -8.1043366     708.2987  0.016510459  0.015803151            3 
 3576000   0.67823244   -8.0731107    707.77714  0.016493688  0.015798116            3 
 3577000   0.68755787   -8.0955905    707.64664  0.016486037  0.015793075            2 
 3578000   0.66953028     -8.10428    706.90723  0.016464208  0.015788026            1 
 3579000   0.67268461   -8.1150607    708.62033  0.016499496  0.015782985            4 
 3580000   0.67305572   -8.1053005    708.50601  0.016492226  0.015777934            5 
 3581000   0.67568688   -8.0928081    706.51339   0.01644125  0.015772879            4 
 3582000   0.67210746   -8.0998008    707.99347  0.016471093  0.015767839            5 
 3583000   0.68083388   -8.1074325    707.21151  0.016448309  0.015762794            2 
 3584000   0.67967745   -8.1207672    706.67446  0.016431233  0.015757746            2 
 3585000   0.67327801   -8.1090513    706.66832  0.016426507  0.015752678            2 
 3586000   0.67494764   -8.1283178    707.60039  0.016443586   0.01574762            3 
 3587000   0.67024432   -8.1117868    705.88996  0.016399265  0.015742559            5 
 3588000   0.68750797    -8.139221    705.80857  0.016392804  0.015737497            2 
 3589000   0.67594034   -8.1201167    706.31705  0.016400043  0.015732439            4 
 3590000   0.66354423   -8.1032116    706.96933  0.016410616  0.015727383            2 
 3591000   0.68770082    -8.109868    707.31981  0.016414179  0.015722336            3 
 3592000   0.67479159   -8.1009837    707.43149  0.016412201  0.015717289            4 
 3593000   0.67386023   -8.1053118    706.46891  0.016385307  0.015712241            2 
 3594000   0.65801452   -8.0880574    706.58318  0.016383398    0.0157072            1 
 3595000   0.67259428   -8.0889502    707.33592  0.016396289  0.015702166            4 
 3596000   0.67239417   -8.1041922    706.62472  0.016375248  0.015697124            4 
 3597000   0.68521408   -8.1185604    707.34656  0.016387419  0.015692083            3 
 3598000   0.66855896   -8.1234116    708.30732  0.016405117   0.01568705            2 
 3599000   0.66579512   -8.0896184    707.21222  0.016375202   0.01568201            6 
 3600000   0.68431851   -8.1237028    708.14621  0.016392273  0.015676956            6 
 3601000   0.68234752    -8.113492     706.9637  0.016360356  0.015671914            3 
 3602000   0.67629565   -8.1306347    705.83457  0.016329691  0.015666868            3 
 3603000   0.66422229   -8.1178859    707.34142  0.016360011  0.015661827            5 
 3604000   0.67167706   -8.0925235    708.64973  0.016385723  0.015656804            5 
 3605000   0.69276519   -8.1112634    707.14977  0.016346504  0.015651775            4 
 3606000   0.67689162   -8.1011828    707.26575  0.016344651  0.015646759            1 
 3607000    0.6627508   -8.1091217    707.27641  0.016340366  0.015641738            2 
 3608000   0.68185964   -8.1005518    708.62369  0.016366955  0.015636733            3 
 3609000   0.67794935   -8.1152723    707.50554  0.016336602  0.015631726            1 
 3610000    0.6691995   -8.1045899    708.41025  0.016352961  0.015626724            3 
 3611000   0.66390296   -8.0698089    708.22276  0.016344105  0.015621716            4 
 3612000   0.66784028   -8.1095925    708.32731  0.016341992  0.015616714            3 
 3613000   0.66961864   -8.1314836    708.76202  0.016347496  0.015611714            3 
 3614000   0.65775701   -8.1045339    708.68592  0.016341217   0.01560671            3 
 3615000   0.67517067    -8.099344    708.03619   0.01632172  0.015601714            4 
 3616000   0.67993158   -8.1240108    706.58491   0.01628376  0.015596706            2 
 3617000   0.66519077   -8.1134104    707.26183  0.016294854  0.015591689            3 
 3618000   0.65866882   -8.1190062    708.44521  0.016317607  0.015586692            4 
 3619000   0.68312754   -8.1175087    707.65512  0.016294905  0.015581683            2 
 3620000   0.66255583   -8.1177364    706.87046   0.01627234  0.015576669            3 
 3621000   0.68144295   -8.1071245    707.89503  0.016291426  0.015571658            5 
 3622000   0.66797272   -8.1048372    706.67912  0.016258953  0.015566659            2 
 3623000    0.6685089   -8.1193529    707.09681  0.016264072  0.015561663            3 
 3624000   0.67971177   -8.1193716    706.95278  0.016256273  0.015556664            4 
 3625000   0.66689238   -8.1213843    707.77237  0.016270629  0.015551671            4 
 3626000   0.67143166   -8.1123434    707.58495  0.016261835  0.015546693            2 
 3627000   0.67301974   -8.1014316    708.34934  0.016274914  0.015541717            3 
 3628000   0.66917843   -8.1116034    708.89014   0.01628285  0.015536733            3 
 3629000   0.65664854   -8.1000638     707.7654  0.016252535  0.015531747            1 
 3630000   0.67901371   -8.1079095    707.31959  0.016237823   0.01552675            3 
 3631000   0.66518907   -8.1300901    707.44391  0.016236205  0.015521753            3 
 3632000   0.67134417   -8.1251669    707.56001  0.016234398  0.015516748            3 
 3633000    0.6630275   -8.1236561    706.63269  0.016208659  0.015511755            2 
 3634000   0.65924445   -8.1162688    709.70397  0.016274628  0.015506755            2 
 3635000   0.66914414   -8.1379031    707.21307  0.016213046   0.01550176            4 
 3636000   0.66711767   -8.1335052     707.3241  0.016211132  0.015496757            3 
 3637000   0.66568449    -8.113167    706.61111  0.016190338  0.015491758            1 
 3638000   0.67970197    -8.100192    705.24012  0.016154483  0.015486766            3 
 3639000    0.6661286   -8.1165936    707.40358  0.016199587  0.015481779            3 
 3640000   0.67984965    -8.129772    708.48158  0.016219816  0.015476798            2 
 3641000   0.65524553   -8.1363259    706.28773   0.01616515  0.015471811            2 
 3642000   0.67435785   -8.1322336    706.37415  0.016162689  0.015466835            3 
 3643000   0.66683905   -8.1350074    707.30526  0.016179551  0.015461855            2 
 3644000   0.66852677   -8.1136767    709.14506  0.016217185  0.015456886            2 
 3645000   0.66854973   -8.1348484    707.52738  0.016175752  0.015451913            3 
 3646000   0.66694344   -8.1630548    707.36436  0.016167589   0.01544693            3 
 3647000   0.67687231   -8.1543904    706.56001  0.016144777  0.015441943            3 
 3648000   0.67587633   -8.1126666    708.67214    0.0161886  0.015436968            2 
 3649000   0.66206895   -8.1139901    707.30734  0.016152995  0.015431996            3 
 3650000   0.66932455   -8.1283912    707.86419  0.016161283  0.015427022            2 
 3651000   0.67813305   -8.1437841    706.62908  0.016128665   0.01542205            2 
 3652000   0.67180724   -8.1221895    707.40689  0.016141997  0.015417068            4 
 3653000   0.67258231   -8.1465521    706.17747  0.016109533  0.015412095            3 
 3654000   0.66037602   -8.1266738     706.8085  0.016119515  0.015407137            2 
 3655000   0.66449409   -8.1255493    708.67585   0.01615768   0.01540218            2 
 3656000   0.66756804   -8.1275913    708.59209  0.016151351  0.015397216            3 
 3657000   0.66685712   -8.1466193    705.64094  0.016079686  0.015392241            2 
 3658000    0.6778292   -8.1406553     707.3996  0.016115354  0.015387254            3 
 3659000   0.67286318   -8.1440426    707.43075   0.01611166  0.015382278            4 
 3660000   0.67647561   -8.1429039    707.68034   0.01611294  0.015377302            5 
 3661000    0.6714477   -8.1465543        706.6  0.016083948  0.015372333            4 
 3662000    0.6664855   -8.1481359    707.04054  0.016089581  0.015367355            3 
 3663000   0.66523936   -8.1537506    707.47404   0.01609505  0.015362382            3 
 3664000   0.68080801   -8.1547758    707.35941  0.016088051  0.015357408            2 
 3665000   0.65783121   -8.1079844     707.2215  0.016080525  0.015352435            3 
 3666000   0.66300476   -8.1372026    707.13995  0.016074285  0.015347468            3 
 3667000   0.67658369   -8.1484414    706.54159  0.016056304  0.015342498            2 
 3668000   0.66177224   -8.1623323    707.14764  0.016065695  0.015337525            4 
 3669000   0.66116113   -8.1372499    707.05538  0.016059221  0.015332551            3 
 3670000   0.68436455   -8.1409701    707.03579    0.0160544  0.015327576            4 
 3671000   0.65207222   -8.1327917     706.9401  0.016047855  0.015322602            2 
 3672000   0.67997357   -8.1373992    707.21525  0.016049729  0.015317632            2 
 3673000   0.66789779   -8.1462965    706.82506  0.016036507  0.015312675            2 
 3674000   0.65467565   -8.1261294    706.97471  0.016035536  0.015307717            3 
 3675000   0.65560557   -8.1208315    705.21424  0.015991253  0.015302765            1 
 3676000   0.66349085   -8.1114774    706.81071  0.016023094  0.015297809            2 
 3677000     0.671122   -8.1583377    706.29083  0.016006954  0.015292856            1 
 3678000   0.65972187   -8.1689259    705.38278  0.015982028  0.015287885            4 
 3679000   0.66905456   -8.1612638    706.59655  0.016005177  0.015282916            3 
 3680000   0.67209295    -8.172755     706.2442  0.015992849  0.015277955            4 
 3681000   0.66227172   -8.1287964    706.78286  0.016000699   0.01527299            3 
 3682000   0.66517213   -8.1270331    706.40892   0.01598789  0.015268034            4 
 3683000   0.65696684   -8.1561297    707.68302  0.016012377  0.015263072            5 
 3684000   0.67051174    -8.162613    705.89986  0.015967695  0.015258125            2 
 3685000   0.65869488   -8.1185083    706.75047  0.015982598  0.015253163            3 
 3686000   0.66198553   -8.1339768    706.50031  0.015972606  0.015248196            2 
 3687000   0.66376595   -8.1588314    706.07552  0.015958673  0.015243231            2 
 3688000    0.6609768   -8.1415024    706.59065  0.015965985  0.015238268            2 
 3689000   0.64822829   -8.1584167    706.36199  0.015956492  0.015233287            2 
 3690000   0.66495079    -8.164012    706.50415  0.015955378  0.015228324            2 
 3691000   0.65207613   -8.1454327    706.94694  0.015961053  0.015223345            4 
 3692000   0.67125517   -8.1799543    706.35553  0.015943381  0.015218372            2 
 3693000   0.65516249   -8.1413005    706.05587  0.015932301  0.015213407            4 
 3694000   0.65770551   -8.1527922    706.44081  0.015936672  0.015208437            2 
 3695000    0.6687041   -8.1562223    707.09495  0.015947112  0.015203477            2 
 3696000   0.65347686   -8.1646656    706.07139  0.015919719  0.015198517            2 
 3697000   0.65460117   -8.1538484    705.31095  0.015898272  0.015193564            3 
 3698000     0.655909   -8.1352122    706.02953  0.015910166  0.015188602            3 
 3699000   0.66301002   -8.1557031    706.78194  0.015922816  0.015183638            3 
 3700000   0.66702527   -8.1622037    705.56756  0.015891161  0.015178673            6 
 3701000   0.66318154   -8.1509873    705.92754  0.015894973   0.01517371            5 
 3702000   0.65657913   -8.1616208    705.90654  0.015890207  0.015168747            6 
 3703000   0.64772307   -8.1497029    706.54628  0.015900312  0.015163788            2 
 3704000   0.66196005   -8.1481966    706.30698  0.015890636  0.015158847            5 
 3705000   0.64676407   -8.1396971    706.51587  0.015891045  0.015153902            3 
 3706000   0.65251281   -8.1442054    706.72688  0.015891502  0.015148963            3 
 3707000   0.65403671   -8.1591913    707.63659  0.015907665  0.015144033            3 
 3708000   0.65941891   -8.1543229    706.87265  0.015886207  0.015139102            3 
 3709000   0.66097508   -8.1559949     705.8878  0.015859796  0.015134172            3 
 3710000   0.67175138    -8.140439    707.54095  0.015892654  0.015129252            1 
 3711000   0.65718541   -8.1501836    706.77402  0.015871149  0.015124326            2 
 3712000   0.67881152   -8.1434041    706.78922  0.015867215  0.015119398            1 
 3713000   0.66870507     -8.18068    705.72509  0.015839058   0.01511447            3 
 3714000   0.66497381    -8.143106    706.14567  0.015844231  0.015109543            3 
 3715000   0.63872296   -8.1603886    705.54695  0.015826535  0.015104613            2 
 3716000   0.65699052   -8.1636751    706.84558  0.015851399   0.01509969            3 
 3717000    0.6515131    -8.144073    706.81488  0.015846446  0.015094764            5 
 3718000   0.65164539    -8.177262    704.86767   0.01579854  0.015089847            3 
 3719000     0.647918     -8.15003    706.57267  0.015832497  0.015084919            4 
 3720000   0.65689554    -8.148356    707.11318  0.015840349  0.015080005            1 
 3721000   0.66303761   -8.1465487     706.4273  0.015820732  0.015075087            2 
 3722000    0.6546482   -8.1462414    707.50298  0.015840565  0.015070165            4 
 3723000   0.64720996   -8.1454208    706.59602  0.015816009  0.015065246            3 
 3724000   0.65193117   -8.1744926    705.75327  0.015792903  0.015060328            2 
 3725000   0.65866036   -8.1686933    708.01494   0.01583926  0.015055417            2 
 3726000    0.6657381   -8.1713197    706.61373  0.015803671  0.015050512            1 
 3727000   0.65415638    -8.149332    705.20674  0.015767971  0.015045598            3 
 3728000   0.65736718   -8.1458481    705.65634  0.015773792  0.015040706            3 
 3729000   0.65119196   -8.1644195     706.6792   0.01579242  0.015035801            5 
 3730000   0.65421837   -8.1561164    705.94709   0.01577183  0.015030899            1 
 3731000   0.66821936   -8.1566945    705.82109  0.015764788  0.015026007            3 
 3732000   0.66044103   -8.1523527    706.66288  0.015779361  0.015021119            3 
 3733000   0.65454547   -8.1454179    706.25384  0.015766002  0.015016236            5 
 3734000   0.66784985   -8.1450569    707.28489   0.01578479  0.015011355            3 
 3735000   0.64655856   -8.1754265    706.47373  0.015762466  0.015006476            2 
 3736000    0.6532666   -8.1273931    708.05393  0.015793494  0.015001609            1 
 3737000   0.63682359   -8.1358977    706.48791  0.015754346  0.014996741            2 
 3738000   0.66402385   -8.1650028    706.91288  0.015759606  0.014991885            2 
 3739000    0.6515662   -8.1549553    709.06837  0.015803432  0.014987016            1 
 3740000   0.64563374   -8.1598064    707.08288  0.015754966  0.014982147            6 
 3741000   0.64414667   -8.1660138    706.20303  0.015731155  0.014977269            4 
 3742000   0.65824921   -8.1696609    706.95561  0.015743711  0.014972383            3 
 3743000   0.64405401   -8.1752547    705.75472  0.015712769  0.014967514            5 
 3744000   0.67061135   -8.1907918    704.59865   0.01568284  0.014962624            4 
 3745000   0.64477972   -8.1777389    705.63992  0.015701823  0.014957725            4 
 3746000   0.66404432   -8.1645978    705.15771  0.015686904  0.014952827            5 
 3747000   0.66138815   -8.1892083    706.66466  0.015716232  0.014947927            3 
 3748000   0.64125052   -8.1757081    706.30829  0.015704115  0.014943032            4 
 3749000   0.64795751   -8.1922548    706.94658  0.015714114  0.014938131            2 
 3750000   0.65650524   -8.1890155    706.49613  0.015699914  0.014933233            1 
 3751000   0.66202239   -8.1922897     705.6393  0.015676693  0.014928333            3 
 3752000   0.65080963   -8.2051773    704.11532  0.015638667  0.014923431            4 
 3753000   0.65532651   -8.1847812    706.36789  0.015684517  0.014918542            3 
 3754000   0.63907798   -8.1731121    708.18713  0.015720723  0.014913652            3 
 3755000    0.6544036   -8.1565126    705.73992  0.015662226  0.014908767            4 
 3756000    0.6730427   -8.1785618     706.0836  0.015665682  0.014903888            3 
 3757000    0.6514546   -8.1648774    708.55329  0.015716292  0.014899022            7 
 3758000   0.64488152   -8.1992519     705.1207  0.015635992  0.014894152            2 
 3759000   0.65717459   -8.1915777    706.61023  0.015664854  0.014889275            5 
 3760000   0.63794913   -8.1776591    706.26438  0.015653023  0.014884393            9 
 3761000   0.64024076   -8.1586382    706.21543  0.015647776   0.01487952            2 
 3762000   0.64702063    -8.164142    706.50497   0.01565003  0.014874645            1 
 3763000   0.64252696    -8.166374    706.28919  0.015641093  0.014869777            3 
 3764000   0.65673991   -8.1731263    706.34002  0.015638063  0.014864914            3 
 3765000   0.66568393   -8.1732384    705.81397  0.015622266  0.014860058            1 
 3766000   0.66262168    -8.167209    706.18943  0.015626426  0.014855192            2 
 3767000   0.65829019   -8.1873374    706.48253  0.015628761  0.014850324            2 
 3768000   0.64659018   -8.1832724    706.81014  0.015631859  0.014845454            3 
 3769000   0.64231122   -8.1672074    705.62622  0.015601535  0.014840592            2 
 3770000   0.65701101   -8.1703156    705.34749  0.015591235  0.014835725            3 
 3771000   0.65239788   -8.1423069    706.38947  0.015610127  0.014830869            2 
 3772000   0.64483435   -8.1694576    706.78189  0.015614658  0.014826016            5 
 3773000   0.66336425   -8.1663476     706.6347  0.015607269  0.014821159            2 
 3774000   0.64319379   -8.1792144    707.00807  0.015611378  0.014816314            2 
 3775000   0.63618286   -8.1815288    705.57781  0.015575669  0.014811464            3 
 3776000   0.63088372   -8.1700063    705.60137  0.015572064  0.014806614            5 
 3777000   0.62961962   -8.1755976    706.19607  0.015581062   0.01480177            2 
 3778000   0.64676976   -8.1982313    706.45249  0.015582594  0.014796923            3 
 3779000   0.63124918   -8.1821037    706.08779  0.015570428  0.014792073            4 
 3780000   0.63265234   -8.1650781    707.02969  0.015587074  0.014787223            3 
 3781000   0.63590866   -8.1867502    706.08103  0.015562043  0.014782377            4 
 3782000   0.64221157   -8.2049339    706.57471  0.015568806  0.014777526            2 
 3783000   0.64458022    -8.185203     704.9949   0.01552989  0.014772682            5 
 3784000   0.64806627   -8.1535225     706.6727  0.015562736  0.014767842            2 
 3785000   0.65451046   -8.1631406    707.05792  0.015567105  0.014763008            4 
 3786000   0.65687795   -8.1838241    706.92165  0.015559994  0.014758175            3 
 3787000   0.64921713   -8.1827658    704.81392  0.015509504  0.014753336            3 
 3788000   0.64822586   -8.1733736     706.9846  0.015553163  0.014748513            4 
 3789000   0.63976582    -8.180795    705.82047  0.015523455  0.014743692            5 
 3790000    0.6490078   -8.1971471    706.03215  0.015524014  0.014738873            2 
 3791000   0.65003085   -8.1658521    706.50694  0.015530356  0.014734064            2 
 3792000   0.63994685   -8.1587305    705.91178  0.015513181   0.01472927            3 
 3793000   0.64293629   -8.1553205    707.01967  0.015533431  0.014724467            5 
 3794000    0.6439682   -8.1393728    707.54514  0.015540879  0.014719672            2 
 3795000   0.64608867   -8.1809738    708.23204  0.015551867  0.014714878            3 
 3796000   0.63286555   -8.1618976    705.40084  0.015485617  0.014710075            3 
 3797000   0.64062553   -8.1820875    706.00692  0.015494841  0.014705277            2 
 3798000   0.64053105   -8.1865351    705.77667  0.015485709  0.014700476            2 
 3799000   0.63653945   -8.2063793    707.03677  0.015509274  0.014695658            2 
 3800000   0.63306754   -8.1831488    706.80542  0.015500119  0.014690851            2 
 3801000   0.64739399   -8.1805077    707.89739  0.015519981  0.014686055            2 
 3802000   0.65490937   -8.1846478    706.79536  0.015491745  0.014681268            2 
 3803000   0.63773043   -8.1385069    706.90643  0.015490105  0.014676484            3 
 3804000   0.65352554   -8.1777774    706.41826  0.015475339  0.014671699            2 
 3805000   0.64180885   -8.1715441    707.35429  0.015491772  0.014666912            1 
 3806000   0.64775675   -8.1664219    706.37485  0.015466256  0.014662117            2 
 3807000   0.65530043   -8.1576881     706.7878  0.015471233  0.014657327            1 
 3808000   0.63977565     -8.18361    705.49718  0.015438926  0.014652544            2 
 3809000   0.63978168   -8.1903323    705.87701  0.015443183  0.014647752            1 
 3810000   0.64493354   -8.2105211    707.14853  0.015466941  0.014642959            3 
 3811000   0.64998933    -8.188082    705.30975  0.015422675  0.014638161            2 
 3812000    0.6359803   -8.1951581    707.36122  0.015463476  0.014633373            2 
 3813000   0.62758109   -8.1969207    705.68323  0.015422747  0.014628589            5 
 3814000   0.63490548   -8.1704066    706.51559   0.01543689  0.014623804            2 
 3815000   0.65714945   -8.1691143    706.97841  0.015442953  0.014619024            2 
 3816000   0.62374134   -8.1973334      707.099   0.01544154  0.014614237            3 
 3817000   0.64047287     -8.17278    707.67015  0.015449964  0.014609462            3 
 3818000   0.64445618   -8.2052162    707.21545  0.015435993  0.014604691            3 
 3819000   0.65117651   -8.1821105    706.27196  0.015411363  0.014599912            2 
 3820000   0.63901997   -8.1961043    707.52227  0.015434605  0.014595135            3 
 3821000   0.63087881   -8.2140372    706.64106  0.015411347  0.014590346            2 
 3822000    0.6383128   -8.1916095    706.87186  0.015412347  0.014585562            1 
 3823000   0.64072955   -8.1794392     706.5397  0.015401075  0.014580776            2 
 3824000   0.65038776   -8.1844584    706.95294  0.015406053  0.014575995            2 
 3825000   0.63550722   -8.1908574      706.721  0.015396972  0.014571222            2 
 3826000    0.6569448   -8.1743832    706.01525  0.015377576  0.014566447            2 
 3827000   0.66033069   -8.1641941    706.66389  0.015387682  0.014561688            4 
 3828000   0.63820481   -8.2006922    704.62524  0.015339282   0.01455693            2 
 3829000    0.6422971     -8.18224     706.5004  0.015376086  0.014552177            5 
 3830000   0.63600713   -8.1950593    707.10094  0.015385138  0.014547422            2 
 3831000   0.64553968   -8.1869813    706.49788  0.015368004  0.014542659            6 
 3832000   0.65178981   -8.1884791    706.69368  0.015368252  0.014537895            4 
 3833000    0.6331302   -8.1774309    706.30997    0.0153559   0.01453313            2 
 3834000   0.64620076   -8.1944683    706.63113  0.015358875  0.014528374            4 
 3835000   0.64360564   -8.1726549    707.59176  0.015375744  0.014523626            2 
 3836000   0.64313248   -8.1829576    705.78283  0.015332439  0.014518881            5 
 3837000     0.649851   -8.1788213    707.57619  0.015367392   0.01451413            2 
 3838000    0.6423516   -8.1686511     705.6308  0.015321148  0.014509377            8 
 3839000   0.64211708    -8.191844    707.17818  0.015350746  0.014504633            6 
 3840000   0.63296905   -8.2105464    704.51921  0.015289045  0.014499872            3 
 3841000   0.64620401   -8.1790113    706.01715  0.015317564  0.014495111            4 
 3842000   0.63351231   -8.1986478    706.90975  0.015332937   0.01449035            5 
 3843000   0.64432006   -8.1997274    706.36606  0.015317158  0.014485595            3 
 3844000   0.64689525   -8.1962807    706.08708  0.015307125  0.014480844            3 
 3845000   0.64336887   -8.2091219     705.8522  0.015298054  0.014476083            7 
 3846000   0.64866601   -8.2145008    706.06476  0.015298682  0.014471314            5 
 3847000     0.639625   -8.2078205    705.51927  0.015282889  0.014466556            5 
 3848000   0.65672724   -8.1977369    705.91363  0.015287457  0.014461803            3 
 3849000   0.62348539   -8.1789573    706.44952  0.015295088  0.014457055            3 
 3850000   0.63577251   -8.1830046    706.49205  0.015292036  0.014452311            4 
 3851000   0.64229051   -8.1969894    706.78493  0.015294402  0.014447566            3 
 3852000   0.63524375   -8.1942139    706.30031  0.015279948  0.014442821            2 
 3853000   0.63045884   -8.1995976    707.30486  0.015297709  0.014438081            4 
 3854000   0.64859834   -8.1997728    705.12097  0.015246518  0.014433326            3 
 3855000   0.62858842    -8.185681    706.52837  0.015272987  0.014428586            1 
 3856000    0.6346177   -8.1821962    706.56914  0.015269907  0.014423866            4 
 3857000   0.63078577   -8.1947077    705.02939  0.015232681  0.014419137            5 
 3858000   0.63418521   -8.1852995    706.48312  0.015260133  0.014414409            5 
 3859000   0.62706877   -8.1888018    706.76151   0.01526219  0.014409676            5 
 3860000   0.62808939   -8.1996924    705.87447  0.015239086  0.014404947            1 
 3861000   0.64286571   -8.1868111    705.63767  0.015230028  0.014400216            2 
 3862000   0.62368113   -8.2112399    706.02973  0.015234545  0.014395475            2 
 3863000    0.6361766   -8.2222891    705.06013  0.015209684   0.01439074            1 
 3864000   0.62018768   -8.2106053    704.72973  0.015198622  0.014386009            2 
 3865000   0.61936595   -8.1968267    706.13718  0.015225036  0.014381279            4 
 3866000    0.6244372   -8.2233361    706.72483  0.015233765  0.014376553            6 
 3867000   0.63105416   -8.2091011    706.28395  0.015220325  0.014371827            3 
 3868000   0.63507607   -8.2005158    705.49792  0.015199455  0.014367096            3 
 3869000   0.62774928    -8.226301     705.1322   0.01518765  0.014362364            3 
 3870000   0.63454859    -8.220544     705.9988  0.015202386  0.014357625            2 
 3871000   0.63030264   -8.1986885    706.09944  0.015200625  0.014352893            8 
 3872000   0.63467672   -8.2127395    705.24332  0.015178274  0.014348164            4 
 3873000   0.62852467   -8.2193496    706.46224  0.015200582  0.014343427            3 
 3874000   0.62070117   -8.2455676    704.17812  0.015147525  0.014338687            2 
 3875000   0.63045148    -8.241261    706.37682  0.015190899  0.014333949            4 
 3876000   0.62797717   -8.2255042    705.02718  0.015157963  0.014329216            2 
 3877000    0.6307172   -8.1939451    706.42283  0.015184052  0.014324487            1 
 3878000    0.6358297   -8.2228511    705.12809  0.015152314  0.014319759            2 
 3879000   0.61929518   -8.2243628    704.98006  0.015145228   0.01431503            3 
 3880000   0.63279492   -8.2232236    703.07958  0.015100506   0.01431031            4 
 3881000   0.62997894   -8.2179047    705.93932   0.01515802  0.014305587            2 
 3882000    0.6381208   -8.2202198    705.56945  0.015146176  0.014300859            3 
 3883000   0.61010594   -8.2186932    703.21471   0.01509174  0.014296142            1 
 3884000    0.6290868   -8.1970708    705.87648  0.015144964  0.014291431            3 
 3885000   0.63789877   -8.2192714    704.68618  0.015115534  0.014286713            4 
 3886000   0.62628058   -8.2383787    705.84136  0.015136416     0.014282            4 
 3887000    0.6250881   -8.2426716    705.17112  0.015118153  0.014277283            3 
 3888000   0.62949062   -8.2450134    706.39466  0.015140489  0.014272572            3 
 3889000   0.61607942   -8.2239771    706.01358   0.01512843  0.014267865            2 
 3890000   0.61628458   -8.2039698     705.2882  0.015109002  0.014263162            3 
 3891000   0.63047228   -8.2132819    705.53182  0.015110336  0.014258458            4 
 3892000   0.62303786   -8.2236503    706.44049   0.01512591  0.014253753            8 
 3893000   0.62696023   -8.2254602      705.155  0.015094507  0.014249052            3 
 3894000   0.60789796    -8.232798    705.63389  0.015100879  0.014244348            2 
 3895000   0.62886986   -8.2418358    704.71078  0.015077252  0.014239643            2 
 3896000   0.62961496   -8.2357603    704.81889  0.015075695  0.014234938            6 
 3897000   0.61453065    -8.223888    706.05487  0.015098257  0.014230233            4 
 3898000   0.64081665    -8.223114    704.78703  0.015067279  0.014225532            4 
 3899000   0.62530273   -8.2130033      705.166  0.015071514  0.014220841            2 
 3900000   0.63158755   -8.2111588     705.6832  0.015078701   0.01421614            4 
 3901000    0.6311957   -8.2167338    704.27787  0.015044815  0.014211456            5 
 3902000   0.64675571   -8.2224224    705.48895  0.015066824  0.014206771            6 
 3903000   0.61988198   -8.2019376    705.40059  0.015061077  0.014202092            4 
 3904000    0.6362305   -8.2261913    705.21369  0.015053229   0.01419741            3 
 3905000   0.64274819   -8.2302382    705.03458  0.015045552   0.01419273            4 
 3906000   0.63272761   -8.2214834    705.45058  0.015050576  0.014188058            3 
 3907000   0.61339426   -8.2189528    704.87962  0.015034545  0.014183385            2 
 3908000   0.64069363   -8.2414441    705.80503  0.015050431  0.014178698            4 
 3909000   0.64235049    -8.267888    704.11519  0.015010557   0.01417402            5 
 3910000   0.61916027   -8.2368315    704.09494  0.015006286  0.014169337            2 
 3911000   0.62901602   -8.1929952    705.64399  0.015035455  0.014164663            2 
 3912000   0.62951313   -8.2384806    704.53854  0.015008064  0.014159989            1 
 3913000   0.62288537   -8.2354375    704.16032  0.014996173  0.014155323            1 
 3914000   0.63296533   -8.2407916    705.25213  0.015015588  0.014150652            2 
 3915000   0.62842652   -8.2228497    705.26593  0.015012046  0.014145979            2 
 3916000   0.62641588   -8.2357625    705.45517   0.01501224  0.014141316            2 
 3917000   0.62134133   -8.2106129    705.93317  0.015018576  0.014136652            3 
 3918000   0.62683588   -8.2379287    705.96359   0.01501539  0.014131996            1 
 3919000   0.61115648   -8.2351794    704.84121  0.014987693  0.014127336            5 
 3920000   0.63826099   -8.2258957    704.97063  0.014986621  0.014122675            3 
 3921000   0.62664138   -8.2239573    705.43197  0.014992603  0.014118019            2 
 3922000   0.62354182   -8.2318569      707.066    0.0150235  0.014113355            3 
 3923000   0.62745543    -8.233874    705.96261  0.014996232  0.014108694            3 
 3924000   0.62509271   -8.2143748    705.79932  0.014988942   0.01410404            2 
 3925000   0.62878226   -8.2366904    705.97025  0.014988753  0.014099398            5 
 3926000   0.61687828   -8.2357334    705.17335   0.01496802  0.014094745            4 
 3927000   0.60972203   -8.2321626    705.78298  0.014977145  0.014090091            3 
 3928000   0.63595841   -8.2449535    705.77576  0.014973179  0.014085439            2 
 3929000    0.6253774   -8.2292571    705.72659  0.014968325  0.014080785            3 
 3930000   0.61282324   -8.2311879    705.28246  0.014955099  0.014076137            5 
 3931000   0.63202205     -8.22122    706.29614  0.014972783  0.014071494            4 
 3932000   0.63380279   -8.2610356    705.81014  0.014958675  0.014066848            2 
 3933000   0.61796626   -8.2505541    704.82263  0.014933948  0.014062196            2 
 3934000   0.62557436   -8.2325966    705.36501  0.014941641  0.014057554            3 
 3935000    0.6251228   -8.2338638    704.30159  0.014915324  0.014052903            2 
 3936000   0.61566498   -8.2333832    704.41896  0.014914019   0.01404825            3 
 3937000   0.62449772   -8.2307359    703.77551  0.014896611   0.01404361            6 
 3938000   0.62037939   -8.2485079     704.6329  0.014910972  0.014038975            4 
 3939000   0.61424474   -8.2309969    705.74142  0.014930638  0.014034323            4 
 3940000   0.61915334   -8.2578262    704.79145  0.014906757   0.01402968            5 
 3941000   0.62363535    -8.252862    706.29238  0.014934712  0.014025034            2 
 3942000   0.61796157   -8.2374476    704.15914  0.014885827  0.014020389            4 
 3943000   0.62799794   -8.2577655    705.71851  0.014915008  0.014015744            3 
 3944000   0.61567776   -8.2423986    705.25277  0.014901385  0.014011111            3 
 3945000   0.63395121   -8.2443551    704.35582  0.014878661  0.014006466            3 
 3946000   0.61273042   -8.2617576    704.39635  0.014875747  0.014001825            3 
 3947000   0.61715789   -8.2667422    705.71304  0.014899777  0.013997183            1 
 3948000   0.62110832   -8.2515654    704.67649  0.014874124  0.013992545            5 
 3949000   0.60373079   -8.2466889    705.77158  0.014893466  0.013987916            3 
 3950000   0.61251519   -8.2525143    705.94714  0.014893399  0.013983286            3 
 3951000   0.60733698   -8.2486114    704.37483  0.014856467  0.013978651            3 
 3952000   0.61984145   -8.2728419    702.77566  0.014818987  0.013974016            2 
 3953000   0.61379578   -8.2518256    703.29802  0.014826251  0.013969378            2 
 3954000   0.61075147   -8.2612641    704.54608  0.014848805  0.013964746            1 
 3955000    0.6333295   -8.2535654    704.25476  0.014838912  0.013960111            2 
 3956000   0.62610605   -8.2770996    704.18082  0.014833603  0.013955489            3 
 3957000   0.61536954   -8.2713359    704.61784  0.014839058   0.01395087            2 
 3958000   0.61324486   -8.2714431    704.04091  0.014823162  0.013946243            3 
 3959000   0.61499146   -8.2718675    705.00705  0.014839754  0.013941617            1 
 3960000   0.62740733   -8.2586253    704.07123  0.014816314  0.013937003            5 
 3961000   0.62298459   -8.2579803    703.64035  0.014803508  0.013932386            4 
 3962000   0.61189018   -8.2658963    704.42412  0.014816257  0.013927765            4 
 3963000   0.61501179   -8.2655038    704.52091  0.014814554   0.01392315            4 
 3964000   0.61495777   -8.2826564    704.30409  0.014806258  0.013918538            2 
 3965000   0.62092945   -8.2417662    704.00686  0.014796277  0.013913928            3 
 3966000   0.62865473   -8.2691626    705.26911  0.014819069  0.013909318            2 
 3967000   0.61748041   -8.2583431    703.06059  0.014768939  0.013904714            2 
 3968000   0.62555042    -8.241317     704.3602  0.014792511  0.013900109            1 
 3969000    0.6129494   -8.2594264    703.51062  0.014770946    0.0138955            3 
 3970000   0.61761178   -8.2732781    705.77926  0.014814846  0.013890885            2 
 3971000   0.60240536   -8.2818235    703.06126  0.014754077  0.013886271            3 
 3972000   0.60866772    -8.253965    704.04506  0.014771003  0.013881662            3 
 3973000   0.62522584   -8.2664494    705.38113  0.014795309  0.013877046            3 
 3974000   0.60518456   -8.2723728    704.51778  0.014773481  0.013872431            1 
 3975000   0.61948831   -8.2672032    702.11885  0.014719473  0.013867823            3 
 3976000   0.60164363   -8.2688935    703.69215  0.014748746  0.013863217            3 
 3977000   0.61401441   -8.2871677     702.7779   0.01472588  0.013858615            2 
 3978000   0.62171874   -8.2677716    704.17939  0.014751537  0.013854009            3 
 3979000   0.61950793    -8.262066    702.73947  0.014717673  0.013849403            3 
 3980000   0.62607353    -8.251947    704.05915  0.014741607  0.013844796            4 
 3981000   0.61838271   -8.2618341    703.71439  0.014730687  0.013840196            6 
 3982000   0.61423569   -8.2710041    703.97933  0.014732533  0.013835595            3 
 3983000   0.61810256   -8.2608993    702.75378  0.014703192  0.013830997            4 
 3984000   0.61596429   -8.2774204    704.39971   0.01473393    0.0138264            4 
 3985000   0.62193512   -8.2730403     703.3338  0.014707942  0.013821798            3 
 3986000   0.62260788   -8.2985797    703.69585  0.014711822  0.013817195            3 
 3987000   0.61254284   -8.2892689    704.27837  0.014720307  0.013812602            3 
 3988000    0.6224577   -8.2836095    705.06151   0.01473298  0.013808015            2 
 3989000   0.61702955   -8.2694648    703.29778  0.014692441  0.013803423            2 
 3990000   0.58962945   -8.2541267    703.37648  0.014690403  0.013798837            2 
 3991000    0.6062498   -8.2605826    702.58362  0.014670167  0.013794255            6 
 3992000   0.61933251   -8.2791522    704.48938  0.014706275  0.013789673            4 
 3993000   0.61780533    -8.259951    703.89625  0.014690213  0.013785085            3 
 3994000    0.6074888   -8.2867529    703.84525  0.014685471  0.013780502            2 
 3995000    0.6140174    -8.257848    703.95389  0.014684061  0.013775922            3 
 3996000   0.60713025   -8.2749008    704.62434  0.014694368  0.013771343            4 
 3997000   0.62106522   -8.2774009    702.96139  0.014656021  0.013766756            3 
 3998000   0.59520908   -8.2755303     702.6022  0.014644868  0.013762183            3 
 3999000   0.59959296   -8.2571152    703.06805  0.014650914  0.013757603            2 
 4000000   0.60277189   -8.2641777    703.97494  0.014666144  0.013753032            3 
 4001000   0.61012752   -8.2789129    703.45926  0.014651738  0.013748459            3 
 4002000   0.60877672   -8.2632876    703.49789  0.014648882  0.013743888            2 
 4003000   0.61258833   -8.2519355    704.69523  0.014670148  0.013739322            3 
 4004000   0.60500606   -8.2639684    705.08967  0.014674694  0.013734763            5 
 4005000   0.61697908   -8.2996672    703.58626  0.014639747  0.013730195            5 
 4006000   0.60493875   -8.2847598    702.64925  0.014616601  0.013725624            2 
 4007000   0.61833161   -8.2714486    703.91807  0.014639341  0.013721055            5 
 4008000    0.6118436   -8.2552196    703.50637  0.014627128  0.013716494            3 
 4009000   0.61397433   -8.2465021    703.46583  0.014622637  0.013711937            4 
 4010000    0.5972733   -8.2417501    703.72073  0.014624288  0.013707373            4 
 4011000   0.60824521   -8.2959253    703.92791  0.014624946  0.013702808            3 
 4012000   0.60206239   -8.2851609    702.98856   0.01460179  0.013698244            6 
 4013000   0.59768168   -8.2729543    702.32936  0.014584462  0.013693682            5 
 4014000   0.60167014   -8.2897225     705.4989   0.01464663  0.013689123            7 
 4015000   0.60490364   -8.2755088     704.0645  0.014613211  0.013684557            2 
 4016000   0.60637415   -8.2686847    702.57584  0.014578682  0.013680005            2 
 4017000   0.60835569   -8.2922376    701.91887  0.014561424   0.01367545            3 
 4018000   0.59707113    -8.294454    703.02174  0.014580673  0.013670897            3 
 4019000   0.61543985   -8.2825802    703.15115  0.014579729  0.013666345            5 
 4020000    0.6132062   -8.2948133    702.76553  0.014568108  0.013661793            5 
 4021000   0.60362587   -8.2805268    704.79586  0.014606563  0.013657249            3 
 4022000   0.59868428   -8.2811997    703.85949   0.01458353  0.013652705            3 
 4023000   0.61573944   -8.2721431    703.28437  0.014567992  0.013648159            2 
 4024000   0.60844725   -8.2797007    703.97575  0.014578689  0.013643621            4 
 4025000   0.60461191   -8.2855416    704.12191  0.014578093  0.013639083            4 
 4026000   0.61093808   -8.3006091    703.85396  0.014568926  0.013634545            2 
 4027000   0.60816044   -8.2752072    702.31499  0.014533461  0.013630005            2 
 4028000   0.60835746   -8.2778244    703.61305  0.014556708  0.013625468            2 
 4029000   0.60326903   -8.2727148    703.18537  0.014544249  0.013620934            3 
 4030000   0.61143165   -8.2788133    703.15541  0.014540021  0.013616407            3 
 4031000   0.59458559   -8.2862139    703.90908  0.014551995  0.013611877            3 
 4032000   0.61553888   -8.2958058    703.24973  0.014534758  0.013607349            4 
 4033000   0.60932578   -8.2923069    704.07341  0.014548174  0.013602825            2 
 4034000   0.60238285   -8.2729855    704.11288  0.014545383  0.013598295            3 
 4035000   0.61281908   -8.2611506    704.55553   0.01455092  0.013593768            2 
 4036000   0.60339006   -8.2844943    703.71269  0.014529912  0.013589251            4 
 4037000   0.60300049   -8.3080093    702.82664  0.014508023   0.01358473            2 
 4038000   0.60900547   -8.2711475    704.30136  0.014534864   0.01358021            5 
 4039000   0.60774463   -8.2807599    704.47597  0.014534868  0.013575693            7 
 4040000   0.61194234   -8.2860987    703.61796  0.014513572  0.013571173            2 
 4041000   0.60593972   -8.2776535    703.37116  0.014504891  0.013566662            3 
 4042000   0.60218507   -8.2825166    702.96432  0.014492914  0.013562154            4 
 4043000   0.60791415   -8.2713734    703.19598  0.014494105  0.013557639            3 
 4044000   0.60887054   -8.3055562    702.86537  0.014483708  0.013553124            4 
 4045000   0.60509762   -8.2942394     702.4374   0.01447131  0.013548605            4 
 4046000   0.60770977   -8.2889747    704.40967  0.014508355  0.013544087            1 
 4047000   0.59418916   -8.2912408    703.21442  0.014480159  0.013539573            4 
 4048000   0.59754896   -8.2873661     704.1484  0.014495809  0.013535067            4 
 4049000   0.61381541   -8.3022566    703.70557  0.014483115  0.013530552            2 
 4050000      0.59542   -8.2919282    703.32583  0.014471725  0.013526038            1 
 4051000   0.61012423   -8.2926523    702.80097  0.014457356  0.013521533            3 
 4052000   0.61283811   -8.3036305    703.27831  0.014463605  0.013517017            3 
 4053000   0.59562837   -8.2896802    704.07126   0.01447634  0.013512511            2 
 4054000   0.60946176   -8.3066925    702.78113  0.014446249  0.013508004            3 
 4055000   0.59605871   -8.3053416    702.51535  0.014437225  0.013503492            2 
 4056000   0.60384675   -8.3071149    703.16444  0.014447001   0.01349898            4 
 4057000   0.59939225   -8.3118851    703.02609  0.014440598  0.013494478            4 
 4058000   0.60246389   -8.2974972    702.36462  0.014423456   0.01348997            2 
 4059000   0.60891886    -8.267385    703.93641  0.014452172   0.01348547            2 
 4060000   0.60664604   -8.2957574    702.35715  0.014416198  0.013480966            4 
 4061000   0.60901968   -8.2931751    702.51844  0.014415957  0.013476464            4 
 4062000   0.60994606   -8.3321494    704.75337  0.014458259  0.013471962            4 
 4063000    0.5993923   -8.3137708    703.28715  0.014424628  0.013467461            3 
 4064000   0.59265434   -8.3142646    702.67363  0.014408498  0.013462963            2 
 4065000    0.6024691   -8.2927255    703.03323  0.014412325  0.013458466            3 
 4066000   0.59914349   -8.2984521    702.99056  0.014407906  0.013453974            4 
 4067000   0.59095317   -8.2909467    704.03328  0.014425729   0.01344948            2 
 4068000     0.589892   -8.2925351    703.14465  0.014403979  0.013444988            1 
 4069000    0.5991596    -8.303042    703.28367  0.014403286  0.013440502            4 
 4070000   0.61096478   -8.3122982    704.03364  0.014415103  0.013436015            1 
 4071000   0.60598474   -8.3229218    702.51155  0.014380405  0.013431537            3 
 4072000    0.6119089   -8.2863823    703.53902  0.014397901  0.013427059            5 
 4073000   0.59827108   -8.2937969    703.69437  0.014397544  0.013422579            4 
 4074000   0.60040738   -8.2879195    702.77968    0.0143753  0.013418101            3 
 4075000   0.59070301   -8.2954993    702.10421  0.014357959  0.013413631            3 
 4076000   0.58833507   -8.3042505    704.07782  0.014394787  0.013409158            3 
 4077000   0.60805908   -8.2893406    704.63745  0.014402695  0.013404692            6 
 4078000   0.58524665   -8.3029445    703.24853  0.014370781  0.013400235            2 
 4079000   0.59885114   -8.2961288    702.98506  0.014361875  0.013395767            3 
 4080000   0.60787921   -8.3075204    703.24162  0.014363595  0.013391292            3 
 4081000   0.60030503   -8.3061743    702.67707  0.014348548  0.013386829            3 
 4082000   0.59695751   -8.3009085    702.58555  0.014343164  0.013382368            6 
 4083000   0.59653207   -8.3187465    702.92368  0.014346552  0.013377909            3 
 4084000    0.5932301     -8.31166     703.0865  0.014346362  0.013373448            3 
 4085000   0.60154477   -8.2941961    702.99864  0.014341057  0.013368986            4 
 4086000   0.59652975   -8.3088022    703.69817  0.014351815  0.013364534            3 
 4087000     0.591579   -8.3034684     703.4123  0.014342474   0.01336009            2 
 4088000   0.60139267   -8.3002302    703.57482  0.014342279  0.013355643            2 
 4089000   0.58909236    -8.306274    702.48014  0.014316462  0.013351195            2 
 4090000   0.60060311   -8.3139788    702.51124  0.014313595  0.013346751            3 
 4091000   0.58198607   -8.3155679    702.71653  0.014314278  0.013342305            5 
 4092000   0.60770824   -8.3039628    703.14435  0.014319492  0.013337858            4 
 4093000   0.59259583   -8.3067307    704.06186  0.014334674  0.013333414            3 
 4094000   0.59814833   -8.2890789    703.08633  0.014311316  0.013328969            2 
 4095000   0.60505014   -8.3026144    701.94126  0.014284519  0.013324529            3 
 4096000   0.59607173   -8.3053222    705.05351   0.01434435  0.013320095            5 
 4097000   0.59156769   -8.3154141    701.75528  0.014273763  0.013315655            3 
 4098000   0.60151254   -8.3114711    701.92069  0.014273643   0.01331121            4 
 4099000   0.59358764   -8.3123819    703.78096  0.014307981  0.013306767            2 
 4100000   0.59395676   -8.3129782    702.77377   0.01428402  0.013302324            3 
 4101000   0.59219552   -8.3145058     702.5455  0.014275898  0.013297888            4 
 4102000   0.59172399   -8.3246018    702.18311  0.014265056  0.013293455            2 
 4103000   0.59545436   -8.2990237    703.10809  0.014280366  0.013289024            5 
 4104000   0.59145223   -8.3268303    702.46556  0.014263839  0.013284597            3 
 4105000   0.60902412   -8.2931725    702.73919  0.014265919  0.013280176            2 
 4106000   0.59936795   -8.3029943     703.5586  0.014279075   0.01327575            3 
 4107000   0.59709344    -8.327476     702.1437   0.01424689   0.01327133            6 
 4108000   0.59532972   -8.3149159    702.78939   0.01425652  0.013266912            9 
 4109000    0.5865979   -8.3059893    701.93196  0.014235661  0.013262494            4 
 4110000   0.59736484   -8.3311999    702.45377  0.014242777  0.013258081            4 
 4111000   0.59628875   -8.3113913    703.85986  0.014267815  0.013253659            4 
 4112000   0.58096417   -8.2871157    703.05033  0.014247939  0.013249239            2 
 4113000   0.59573467   -8.3041809    702.91257  0.014241684  0.013244827            7 
 4114000   0.59464368   -8.2987803    702.50957  0.014230059  0.013240421            5 
 4115000   0.60032893   -8.3140354    702.21044  0.014220544  0.013236021            4 
 4116000   0.58076966   -8.3100998    703.07743  0.014234642  0.013231625            3 
 4117000   0.59536499   -8.3191629    701.53728   0.01420001  0.013227226            4 
 4118000   0.61339087   -8.3037427    703.08989  0.014227981  0.013222825            2 
 4119000   0.59320631   -8.3086431    703.20925  0.014226941  0.013218427            2 
 4120000   0.60969769   -8.3110212    703.38953  0.014227134  0.013214024            8 
 4121000   0.59091363   -8.2952748     703.1299  0.014218432   0.01320963            4 
 4122000   0.58206828   -8.3408972    703.07376  0.014213848  0.013205236            4 
 4123000   0.60731379   -8.3209102      703.004   0.01420899  0.013200835            4 
 4124000   0.60054339   -8.3095896    702.60924  0.014197568  0.013196439            5 
 4125000   0.58859852   -8.3050877    702.96915  0.014201397  0.013192042            8 
 4126000    0.5969256   -8.3397071    701.89974  0.014176356  0.013187647            2 
 4127000   0.60054863   -8.3202833    702.65139  0.014188098  0.013183255            3 
 4128000   0.58933676   -8.3139298    703.77021  0.014207247  0.013178861            5 
 4129000   0.59056135   -8.3025932     702.1741  0.014171593  0.013174473            2 
 4130000   0.59439274   -8.3161159    702.11101  0.014166889  0.013170087            1 
 4131000   0.57854788    -8.301321    704.32641   0.01420815  0.013165703            2 
 4132000   0.59818608   -8.3254764    702.19094  0.014161644  0.013161318            4 
 4133000   0.59531054   -8.3284204    703.57396  0.014186103  0.013156938            4 
 4134000   0.58921777   -8.3137234    703.64191  0.014184041  0.013152557            2 
 4135000   0.58905037   -8.3237775    702.80722  0.014163789   0.01314818            4 
 4136000    0.5833592   -8.2990634    702.92881  0.014162814  0.013143797            6 
 4137000   0.57542873   -8.2977051    702.41513  0.014149044  0.013139423            4 
 4138000   0.58649017   -8.3039375    703.59243  0.014169334  0.013135047            2 
 4139000   0.59356769   -8.3247302    703.92775  0.014172661  0.013130676            2 
 4140000   0.58397436   -8.3199696    702.63855  0.014143288  0.013126307            4 
 4141000   0.59591134   -8.3429344    701.94536  0.014125923  0.013121934            3 
 4142000   0.60408964   -8.3411913    702.82005   0.01414011  0.013117559            5 
 4143000   0.57944011   -8.3225097    703.20006  0.014144341  0.013113186            2 
 4144000   0.59082326   -8.3121687    703.08549  0.014138624  0.013108812            3 
 4145000   0.59155771   -8.3032647    703.45399  0.014142621  0.013104449            2 
 4146000   0.57613341   -8.3343308    702.18521  0.014113708  0.013100088            2 
 4147000   0.58511524   -8.3263575    702.13883  0.014109373  0.013095718            3 
 4148000   0.59951163   -8.3012865    703.86297  0.014140609  0.013091356            6 
 4149000    0.5835326   -8.3283986    702.18973  0.014103594  0.013086995            2 
 4150000   0.59003082   -8.3374295    702.10576  0.014098509  0.013082628            3 
 4151000   0.58252231   -8.3321018    702.59952  0.014105025  0.013078267            6 
 4152000   0.59947714   -8.3365634    702.23873  0.014094387  0.013073909            3 
 4153000   0.58390862   -8.3111281    701.84738   0.01408314  0.013069554            2 
 4154000   0.59012524   -8.3358368     702.5697   0.01409424  0.013065199            3 
 4155000   0.58143793    -8.324974    703.00127  0.014099504  0.013060846            2 
 4156000    0.5860418   -8.3150633    702.26427  0.014081334  0.013056497            2 
 4157000   0.57944572   -8.3133035    702.37545  0.014080175  0.013052147            5 
 4158000   0.57566533   -8.3245829    702.24975  0.014074269  0.013047803            3 
 4159000   0.58030607   -8.3283847    703.96434   0.01410524   0.01304346            2 
 4160000   0.57787745   -8.3326043    701.73069  0.014057105  0.013039111            2 
 4161000   0.57999099   -8.3386883    702.13171  0.014061758  0.013034768            2 
 4162000   0.56778235   -8.3477631    702.22112   0.01406017  0.013030427            3 
 4163000   0.59400777   -8.3279418    702.12495  0.014054867  0.013026087            2 
 4164000   0.58570696   -8.3298296    702.49106  0.014058819  0.013021751            4 
 4165000   0.59153224   -8.3371142    701.81534  0.014041924  0.013017418            1 
 4166000   0.59830768   -8.3182645    704.37803  0.014089815  0.013013084            2 
 4167000   0.58858059    -8.343063    702.49743  0.014048825  0.013008757            1 
 4168000   0.58696577   -8.3328156    702.53887  0.014046283  0.013004426            1 
 4169000   0.58854251   -8.3259612    701.48236  0.014021795  0.013000102            2 
 4170000   0.60186021   -8.3527019    701.57578  0.014020299   0.01299578            2 
 4171000   0.58091863   -8.3406559    702.21884  0.014029786   0.01299145            2 
 4172000   0.58328996   -8.3139029    701.82095  0.014018475  0.012987129            2 
 4173000   0.59155996   -8.3360439    702.26398  0.014023963  0.012982802            2 
 4174000   0.58969143   -8.3341584    701.48835  0.014005118  0.012978481            2 
 4175000   0.59046318   -8.3210086    702.47536  0.014021464  0.012974166            2 
 4176000   0.58831223    -8.325082    702.68521  0.014022294   0.01296985            3 
 4177000   0.59661137   -8.3313212    701.76496  0.014000578  0.012965533            3 
 4178000   0.58022954   -8.3164156    702.75219  0.014016918  0.012961219            2 
 4179000   0.58980689   -8.3294412    702.10499  0.014000658  0.012956912            2 
 4180000   0.59657913   -8.3327161    700.90246  0.013973335  0.012952603            3 
 4181000   0.58600149    -8.344174    701.41649  0.013980238  0.012948288            3 
 4182000   0.57470566   -8.3527806    701.52068  0.013978971  0.012943973            2 
 4183000   0.58155934   -8.3480579    701.56124  0.013976437  0.012939664            2 
 4184000   0.57654833   -8.3382747    702.63359  0.013994455   0.01293535            3 
 4185000   0.57687874   -8.3255972    702.37197  0.013985901  0.012931037            2 
 4186000   0.57248617   -8.3371798    702.66634  0.013988421  0.012926732            3 
 4187000   0.57729912   -8.3220793    702.30864   0.01397796  0.012922425            2 
 4188000   0.59233854   -8.3159005      702.592  0.013980261  0.012918126            4 
 4189000   0.57475595   -8.3228176    701.20772  0.013949386  0.012913829            2 
 4190000   0.59262721   -8.3205931    701.07766   0.01394347   0.01290953            1 
 4191000   0.58421332   -8.3269171    701.74527  0.013953417  0.012905233            2 
 4192000   0.56929066   -8.3257783    700.45442  0.013924428  0.012900929            5 
 4193000   0.57637417   -8.3522581    701.07315  0.013933404   0.01289663            2 
 4194000   0.59325141   -8.3534632    702.34356  0.013955324  0.012892334            3 
 4195000   0.57450304   -8.3223703    702.25375  0.013950214  0.012888046            1 
 4196000   0.58238789   -8.3347208    702.90012  0.013959726  0.012883757            3 
 4197000   0.56797184   -8.3354877    702.92113  0.013956817   0.01287947            4 
 4198000   0.58115079   -8.3574912     702.2635  0.013940438  0.012875183            1 
 4199000   0.57822591   -8.3282284    703.32169  0.013958119  0.012870903            2 
 4200000   0.57950742   -8.3402317    702.36092  0.013935733  0.012866614            4 
 4201000   0.58602846     -8.34618    702.42988  0.013933783  0.012862332            2 
 4202000   0.58210892   -8.3291202    701.28602  0.013907782  0.012858049            2 
 4203000   0.58325843   -8.3395569    702.93876  0.013937243  0.012853764            2 
 4204000   0.59420138   -8.3472377    702.36162  0.013922487  0.012849489            1 
 4205000   0.57228244   -8.3365054    702.72967   0.01392647  0.012845211            3 
 4206000   0.57273901   -8.3259049    701.94313  0.013907575  0.012840938            2 
 4207000   0.57196568   -8.3391645    701.82392  0.013901908  0.012836667            3 
 4208000   0.59130189   -8.3516923    701.68366  0.013895827  0.012832393            2 
 4209000   0.57423788   -8.3422269    701.95654  0.013897928  0.012828121            2 
 4210000   0.57498547    -8.344666    701.55811   0.01388674  0.012823853            2 
 4211000   0.59003487   -8.3444634    701.42701  0.013880848  0.012819581            4 
 4212000    0.5824762   -8.3682496    701.21732  0.013873404  0.012815309            5 
 4213000   0.58962615   -8.3287824    701.94553  0.013884515  0.012811044            4 
 4214000   0.58596362   -8.3484222    701.24336  0.013867334   0.01280678            3 
 4215000   0.58339392     -8.33464     701.6718  0.013872515  0.012802521            2 
 4216000   0.57543941   -8.3452601    701.58523  0.013867513  0.012798255            2 
 4217000   0.57445161    -8.332431    700.99341   0.01385253  0.012793992            2 
 4218000   0.56958319   -8.3469476    701.08395  0.013851034   0.01278973            2 
 4219000   0.57696784   -8.3430779    701.56644  0.013857281  0.012785472            1 
 4220000   0.56552721   -8.3328137    701.31826  0.013849097  0.012781211            3 
 4221000   0.57099119   -8.3351408    701.15767  0.013842645  0.012776956            4 
 4222000    0.5662573   -8.3487937    700.33893  0.013823206    0.0127727            3 
 4223000   0.58414853   -8.3454728    701.75173  0.013847812  0.012768444            2 
 4224000   0.56971036   -8.3473323    701.00688  0.013829839  0.012764188            2 
 4225000   0.58569323   -8.3517738    701.43524  0.013835015  0.012759933            4 
 4226000   0.55171826   -8.3546461    700.39708  0.013811269  0.012755677            2 
 4227000   0.58548042   -8.3284235    701.47775  0.013829307  0.012751428            1 
 4228000   0.58505538    -8.355055    701.27533  0.013822046  0.012747176            1 
 4229000   0.58251407   -8.3603861    700.97446  0.013812849  0.012742929            2 
 4230000   0.57165942    -8.360371    701.44895  0.013818931  0.012738685            2 
 4231000   0.58166117   -8.3638463    701.20393  0.013810839  0.012734441            1 
 4232000   0.58260217   -8.3592416    701.36049  0.013810659  0.012730199            3 
 4233000   0.56691891   -8.3368369    701.65356  0.013813166  0.012725957            2 
 4234000   0.57134859   -8.3399866    701.36312  0.013804187  0.012721714            2 
 4235000   0.58232838   -8.3406673    701.62789  0.013806137  0.012717476            4 
 4236000   0.57368242   -8.3498445    700.79189  0.013786432  0.012713238            1 
 4237000   0.57660685   -8.3467941    700.23855  0.013772295  0.012709003            2 
 4238000   0.57223862    -8.334564    702.10614  0.013805768   0.01270477            2 
 4239000   0.57857655   -8.3198475    700.60493  0.013772999  0.012700545            2 
 4240000   0.57300902   -8.3415755     700.6181   0.01377001  0.012696324            6 
 4241000   0.57631478   -8.3370008    701.47636  0.013783627  0.012692096            4 
 4242000   0.55779454   -8.3674448    701.60608  0.013782926  0.012687871            3 
 4243000   0.57559203   -8.3435519    701.79491  0.013783387  0.012683647            5 
 4244000   0.56949092   -8.3770272    701.30112  0.013770443  0.012679425            3 
 4245000   0.57158826   -8.3363511    699.87872  0.013739276  0.012675205            3 
 4246000   0.57494313   -8.3588568    701.32121  0.013764351  0.012670985            2 
 4247000   0.55561753   -8.3454653     702.7403  0.013788955  0.012666767            3 
 4248000   0.56782236   -8.3430624    702.19904  0.013775091   0.01266255            5 
 4249000   0.56709353   -8.3404649    701.55828  0.013759282  0.012658332            3 
 4250000   0.57048918   -8.3373143    700.06074  0.013726681  0.012654119            3 
 4251000   0.56568796   -8.3698282     700.7595   0.01373715  0.012649908            3 
 4252000   0.56205618   -8.3372753    700.69568  0.013732669  0.012645694            5 
 4253000   0.57409193   -8.3700596     701.8782   0.01375261  0.012641478            4 
 4254000   0.56709226   -8.3462392    700.56072  0.013723568  0.012637268            5 
 4255000   0.57389914    -8.355662     701.5655  0.013740022  0.012633051            3 
 4256000   0.58404858   -8.3529596    701.80996   0.01374158  0.012628842            9 
 4257000   0.55542337   -8.3514903    700.76375  0.013717872  0.012624632            6 
 4258000   0.58482396    -8.383735    701.55365  0.013730109  0.012620427            5 
 4259000   0.57909508   -8.3582345    701.34674  0.013722837  0.012616218            2 
 4260000   0.56599284   -8.3431637    700.75744  0.013708088  0.012612011            4 
 4261000   0.56412027   -8.3584419    701.60666  0.013721479  0.012607804            2 
 4262000   0.56617529   -8.3729135    700.67355  0.013700015  0.012603603            6 
 4263000   0.56931866   -8.3492501    700.88237  0.013700883  0.012599406            3 
 4264000   0.56751783   -8.3964069     700.1808  0.013683959  0.012595208            2 
 4265000   0.57763959   -8.3545157    702.08752  0.013718006  0.012591013            3 
 4266000   0.57548622   -8.3567414     700.4942  0.013683665  0.012586822            5 
 4267000   0.56430948   -8.3469134    701.27563   0.01369572  0.012582629            3 
 4268000   0.56973704   -8.3588822    699.54508  0.013658722  0.012578439            1 
 4269000   0.55788316   -8.3712638    701.18525  0.013687539  0.012574246            4 
 4270000   0.57143044   -8.3606877    700.64613  0.013673812  0.012570055            5 
 4271000   0.56482014   -8.3792355    700.81252  0.013673857  0.012565863            3 
 4272000   0.57172394   -8.3566428    701.71069  0.013688177  0.012561672            2 
 4273000   0.55915659   -8.3608027    701.23621   0.01367572  0.012557488           10 
 4274000   0.56408912    -8.365582    700.61233  0.013660356  0.012553307            7 
 4275000   0.57549963   -8.3468409    701.07101  0.013666102   0.01254913            6 
 4276000   0.55912318   -8.3602232    700.09313  0.013643848  0.012544949            7 
 4277000   0.56001377     -8.34932    700.28277  0.013644353  0.012540773            3 
 4278000    0.5754458    -8.352178    700.63946  0.013648112  0.012536598            5 
 4279000   0.56802029   -8.3627978    700.97477  0.013651452  0.012532423            7 
 4280000   0.55841346   -8.3984372    700.63361   0.01364162  0.012528246            8 
 4281000   0.55864075   -8.3740628    699.70108  0.013620281  0.012524064            3 
 4282000   0.56321984   -8.3536212    700.30938  0.013628939  0.012519887            4 
 4283000   0.57217318   -8.3484284    701.57096  0.013650303   0.01251571            3 
 4284000   0.57179344    -8.370731    701.18277  0.013639565  0.012511528            3 
 4285000   0.56636535   -8.3635043    700.74239  0.013627818  0.012507346            5 
 4286000   0.56041981   -8.3718305    700.46174  0.013619181   0.01250317            4 
 4287000   0.56893162   -8.3783757     701.3811  0.013633876  0.012498999            5 
 4288000   0.55292065   -8.3755179    700.74086  0.013618254  0.012494827            2 
 4289000   0.55492232   -8.3706605    700.02821  0.013601232  0.012490661            3 
 4290000     0.572191   -8.3636335    700.06648  0.013598805  0.012486488            3 
 4291000   0.56294053   -8.3556977    700.81252  0.013610124  0.012482324            3 
 4292000   0.56963753   -8.3590538    701.12176  0.013612957  0.012478162            3 
 4293000   0.56467891   -8.3714544    699.70583  0.013582301  0.012474004            3 
 4294000   0.56547508   -8.3582313    700.11653  0.013587109  0.012469842            1 
 4295000   0.55429878   -8.3702565    699.95889  0.013580886  0.012465683            3 
 4296000   0.55609741   -8.3708718    700.30954  0.013584527  0.012461524            2 
 4297000    0.5729971   -8.3684472    700.87506  0.013592333  0.012457368            2 
 4298000   0.56172069    -8.354394    701.08594  0.013593259  0.012453214            2 
 4299000   0.57969606   -8.3765177    701.22757  0.013592843  0.012449061            5 
 4300000   0.57644428   -8.3693779    700.41176  0.013573871  0.012444911            2 
 4301000   0.57412855   -8.3782067    701.40867  0.013590031  0.012440768            3 
 4302000   0.56347318   -8.3765675    700.88485  0.013576725  0.012436623            2 
 4303000   0.55649599   -8.3696856     700.0064  0.013556557  0.012432477            2 
 4304000   0.55756017   -8.3753253    700.83209  0.013569395  0.012428337            3 
 4305000   0.55304533   -8.3619679    700.31143  0.013556164  0.012424196            4 
 4306000   0.56507197   -8.3799647    699.99324  0.013546858  0.012420055            3 
 4307000   0.55890784   -8.3693833    700.55538  0.013554589  0.012415915            5 
 4308000   0.55403236   -8.3585134    701.06616  0.013561323  0.012411775            3 
 4309000   0.56916993   -8.3855171    699.86338  0.013534915   0.01240764            4 
 4310000   0.55033485   -8.3916036    700.24459  0.013539145  0.012403504            3 
 4311000   0.55397404   -8.3774551    700.73808  0.013545544  0.012399369            4 
 4312000   0.55682202   -8.3754926    700.48039  0.013537422  0.012395235            4 
 4313000   0.57238968    -8.375442    700.26162  0.013530057  0.012391107            2 
 4314000   0.56278869   -8.3771672    700.69351  0.013535263  0.012386972            2 
 4315000   0.55443896   -8.3642329    700.89774  0.013536071   0.01238284            4 
 4316000   0.57183447   -8.3781041    701.64181  0.013547301  0.012378713            2 
 4317000   0.56058916   -8.3828188    700.46041  0.013521358  0.012374589            3 
 4318000   0.55175881   -8.3414775    701.40531  0.013536462  0.012370471            4 
 4319000   0.55869388   -8.3695447    700.28053  0.013511625  0.012366352            2 
 4320000   0.56357094   -8.3921762    699.90293  0.013501214  0.012362234            3 
 4321000   0.57050211   -8.3829547     699.6099  0.013492438  0.012358113            2 
 4322000   0.56528804   -8.3679031    700.10052  0.013498776  0.012353998            2 
 4323000   0.56511967   -8.3782089    698.90124  0.013472535  0.012349881            2 
 4324000   0.54166591   -8.3932654    699.79325  0.013486611  0.012345769            2 
 4325000   0.55912529   -8.3723525    700.88766  0.013504579  0.012341659            4 
 4326000   0.57144301   -8.3545303    701.40433   0.01351141   0.01233756            5 
 4327000   0.57336485   -8.3720694    701.21901  0.013504719   0.01233346            5 
 4328000   0.56494741   -8.3920999    699.55808  0.013469618  0.012329358            4 
 4329000   0.57491709    -8.394616    700.05939  0.013476157  0.012325257            4 
 4330000   0.55089598    -8.380168    701.62729   0.01350322  0.012321153            2 
 4331000   0.55435339   -8.3608827    701.08781  0.013489722  0.012317053            4 
 4332000   0.56527085   -8.3800408    699.66015  0.013459144  0.012312958            3 
 4333000    0.5428846    -8.394095    700.13998  0.013465266  0.012308864            3 
 4334000   0.56150731   -8.3822782    700.18766  0.013463076  0.012304767            2 
 4335000   0.54816223   -8.3798038    700.32552  0.013462621  0.012300674            2 
 4336000   0.56281262   -8.3896276    700.23803  0.013457834  0.012296583            1 
 4337000   0.56183614   -8.3834969     700.1803  0.013453622  0.012292499            5 
 4338000    0.5532576   -8.3680219    699.24385  0.013432531  0.012288408            3 
 4339000   0.55084412   -8.3712344    700.48124    0.0134532  0.012284325            3 
 4340000   0.55825672   -8.3836713    701.51994  0.013470045  0.012280237            4 
 4341000   0.55307919   -8.3912129    700.73315  0.013451838   0.01227615            4 
 4342000   0.56266988   -8.4105925    701.24543  0.013458572  0.012272067            5 
 4343000    0.5483087   -8.3903744    700.63708    0.0134438  0.012267978            3 
 4344000   0.56452767   -8.3834037    699.92521  0.013427049  0.012263893            3 
 4345000   0.55244966   -8.3839596    700.17229  0.013428698  0.012259807            4 
 4346000   0.57267896   -8.3825732    699.45673  0.013411887  0.012255725            3 
 4347000   0.56261427   -8.3818292    699.92659  0.013417809  0.012251646            7 
 4348000   0.55098782     -8.38503    700.13102  0.013418641  0.012247567            4 
 4349000   0.55341249   -8.3926287    700.36699  0.013420077  0.012243489            4 
 4350000   0.54706651   -8.3837137    701.13667  0.013431737  0.012239414            1 
 4351000   0.56292386   -8.3845785    700.68138   0.01341993  0.012235342            2 
 4352000   0.56463388   -8.4011011    700.18108  0.013407266  0.012231265            3 
 4353000   0.54709435   -8.4054149    700.18824  0.013404324  0.012227189            2 
 4354000   0.55260915   -8.3638909    699.18636  0.013382069  0.012223115            2 
 4355000   0.55440722   -8.3792612    699.42095  0.013383486   0.01221905            2 
 4356000    0.5563132   -8.3746926    700.06301  0.013392696  0.012214979            3 
 4357000   0.55061279     -8.39094    699.40218  0.013376983  0.012210911            3 
 4358000   0.55343591   -8.3800174    700.05866  0.013386467  0.012206849            4 
 4359000   0.56007999   -8.3759806    700.24472  0.013386953  0.012202785            5 
 4360000   0.54474441   -8.3907964    699.60881  0.013371728  0.012198723            4 
 4361000   0.54780292   -8.4117834    700.18574  0.013379686   0.01219467            3 
 4362000   0.55428433    -8.399098    700.69966  0.013386437  0.012190619            3 
 4363000   0.56063084   -8.3951051    700.56145  0.013380729  0.012186566            4 
 4364000   0.56250901   -8.3879566     699.2351  0.013352335  0.012182515            4 
 4365000   0.55430375   -8.3884953    700.38501   0.01337123  0.012178468            3 
 4366000    0.5535438   -8.3845202    699.49286  0.013351139  0.012174421            2 
 4367000   0.54374933   -8.3822671     699.4591  0.013347437  0.012170376            1 
 4368000   0.55357583   -8.3980914    699.61601  0.013347375  0.012166334            5 
 4369000   0.55881913   -8.3942125    700.04542   0.01335251  0.012162293            4 
 4370000   0.54965781   -8.3827746    699.96338  0.013347891   0.01215825            3 
 4371000   0.56510618    -8.399952    701.35083  0.013371289  0.012154212            2 
 4372000   0.54733816   -8.3962394    699.85874   0.01333979  0.012150175            3 
 4373000   0.54900579   -8.3887507    698.78537  0.013316285  0.012146139            4 
 4374000   0.54559776   -8.4035922    699.49073  0.013326679  0.012142102            3 
 4375000   0.55392636   -8.3916876    698.82565  0.013310965  0.012138066            4 
 4376000   0.55476277   -8.3889288    699.42127  0.013319265  0.012134034            2 
 4377000   0.54820617   -8.3940514    699.61756   0.01331996      0.01213            2 
 4378000   0.54989337   -8.3812558    700.19283  0.013327867   0.01212597            1 
 4379000   0.56246455   -8.3995583     700.1858   0.01332469  0.012121942            2 
 4380000   0.53952956   -8.4196377    699.65045  0.013311462  0.012117911            2 
 4381000   0.54435902   -8.3914019    698.84549  0.013293112  0.012113885            7 
 4382000   0.56421087   -8.3993868    698.78383  0.013288906  0.012109856            5 
 4383000   0.55314422   -8.4148642    699.53494  0.013300155  0.012105832            3 
 4384000     0.557047   -8.3949769     700.3525  0.013312662  0.012101807            5 
 4385000   0.54577873    -8.394236    700.40843  0.013310688  0.012097787            2 
 4386000   0.54298923   -8.4069075    697.83338  0.013258728  0.012093766            3 
 4387000   0.55033989   -8.4062689    700.22731   0.01330118  0.012089743            4 
 4388000   0.56896374   -8.3746594        700.3  0.013299529   0.01208573            8 
 4389000   0.54444852   -8.3692221    700.64843  0.013303114  0.012081714            2 
 4390000   0.54680457   -8.3805267    699.63176  0.013280785  0.012077702            3 
 4391000   0.55443335   -8.3948867    698.27174   0.01325195  0.012073691            3 
 4392000   0.54131761   -8.4006921    698.55619   0.01325433  0.012069681            3 
 4393000   0.54141352   -8.3918232    700.79493   0.01329378  0.012065675            6 
 4394000   0.55107095   -8.4114647     700.4022  0.013283307  0.012061666            3 
 4395000   0.53215354   -8.3901122    700.07707   0.01327412  0.012057665            3 
 4396000   0.55056485   -8.3900924    700.41485  0.013277503  0.012053658            3 
 4397000   0.55142612   -8.4011462    701.08918  0.013287264  0.012049653            4 
 4398000   0.54944339    -8.404712    699.01981  0.013245032  0.012045657            2 
 4399000   0.54561512   -8.3870255    700.79039  0.013275562  0.012041663            3 
 4400000   0.54986094   -8.3895867    699.08289  0.013240206  0.012037663            4 
 4401000   0.54379928   -8.4080091    700.16918  0.013257767  0.012033668            4 
 4402000   0.55215032   -8.4071267    700.31457  0.013257507  0.012029677            1 
 4403000   0.54860349   -8.3808357    699.40659  0.013237311  0.012025688            4 
 4404000   0.55178089   -8.4151807    698.67259  0.013220417  0.012021694            3 
 4405000   0.53464235   -8.4002683     699.4156  0.013231472  0.012017705            3 
 4406000   0.54406798   -8.4022923     699.5938  0.013231839  0.012013718            2 
 4407000   0.55332205   -8.4126249    700.59761  0.013247818  0.012009734            2 
 4408000   0.54007549   -8.3893437    698.92063  0.013213109  0.012005746            5 
 4409000   0.53580693   -8.3887664    699.42584  0.013219661  0.012001762            2 
 4410000   0.54308417   -8.3938911    699.93037  0.013226198  0.011997779            4 
 4411000   0.54681609   -8.3966852    699.88936  0.013222424  0.011993795            3 
 4412000    0.5435472    -8.403167    699.11345  0.013204772  0.011989818            2 
 4413000   0.54195259   -8.4035988     699.4381   0.01320791  0.011985842            3 
 4414000   0.54360327   -8.4159415    699.05711  0.013197725  0.011981864            2 
 4415000   0.54545341   -8.3972232    700.25056  0.013217262  0.011977887            5 
 4416000   0.54630824   -8.4023828    699.40019  0.013198222   0.01197391            2 
 4417000   0.53291026   -8.3835954    699.62289  0.013199436  0.011969937            3 
 4418000   0.56150004   -8.3918701    699.80119  0.013199811  0.011965962            4 
 4419000   0.55277563    -8.416113    700.33163  0.013206827  0.011961992            3 
 4420000    0.5498069   -8.4077467    698.73748  0.013173784   0.01195802            2 
 4421000   0.53806348   -8.4078745    699.00163  0.013175783  0.011954057            4 
 4422000   0.53747502   -8.4126638    698.69205  0.013166969  0.011950093            4 
 4423000   0.53254192   -8.4020283    699.17172   0.01317303  0.011946129            3 
 4424000    0.5526503   -8.4030907    699.49477  0.013176137  0.011942163            2 
 4425000   0.55419427   -8.4052377    698.88691  0.013161712  0.011938203            2 
 4426000   0.53738551   -8.4020039    698.68007  0.013154844  0.011934241            3 
 4427000   0.54762156   -8.4147133    700.02512  0.013177191  0.011930279            9 
 4428000   0.54605603   -8.4050237    700.08276    0.0131753  0.011926322            4 
 4429000   0.53562499   -8.4053237    697.90324  0.013131317  0.011922369            6 
 4430000    0.5400936   -8.4204278    699.78217  0.013163698  0.011918414            4 
 4431000   0.53398802   -8.4108264    699.96549  0.013164175  0.011914467            5 
 4432000   0.54098268   -8.4009588    699.95346  0.013160978   0.01191052            2 
 4433000     0.538835    -8.371355     699.6445  0.013152201  0.011906575            2 
 4434000   0.53869983   -8.4154008     699.4982  0.013146485  0.011902632            6 
 4435000   0.52924156   -8.4111549    699.27607  0.013139347  0.011898693            6 
 4436000   0.53172702   -8.3994714    701.00612  0.013168886  0.011894752            4 
 4437000   0.54498217   -8.4073166    700.22919  0.013151326  0.011890816            2 
 4438000   0.54168603   -8.3962413    700.57098   0.01315478  0.011886881            2 
 4439000   0.54625206   -8.4014294    699.46487  0.013131052  0.011882944            3 
 4440000   0.54476115   -8.3941145    698.77021  0.013115056  0.011879015            3 
 4441000   0.53479634   -8.4189752    698.91234   0.01311477  0.011875083            3 
 4442000   0.53559216   -8.4086445    699.68157  0.013126249  0.011871152            4 
 4443000   0.54788504   -8.4015885    698.71583  0.013105181  0.011867222            6 
 4444000   0.55241569   -8.4129394    699.74251  0.013121484  0.011863291            2 
 4445000   0.53723627   -8.4016774    700.33116  0.013129568  0.011859364            3 
 4446000   0.53495484   -8.3892577    700.56731  0.013131041  0.011855434            2 
 4447000   0.54222384   -8.4307329     699.8451  0.013114555  0.011851508            2 
 4448000   0.54244542   -8.4316655    698.58887  0.013088071   0.01184758            1 
 4449000   0.52767679    -8.413101    699.32249   0.01309887  0.011843657            3 
 4450000    0.5402652   -8.4052679    699.46024  0.013098506  0.011839739            2 
 4451000   0.55924466   -8.4052152    700.32126  0.013111684  0.011835819            6 
 4452000   0.53505565   -8.4076735    700.92537  0.013120047  0.011831903            2 
 4453000   0.54414058   -8.4025703    699.18283   0.01308449  0.011827984            7 
 4454000   0.54084444   -8.4096106    699.79336  0.013092976  0.011824069            6 
 4455000     0.545814    -8.411042    700.09825   0.01309574  0.011820155            3 
 4456000   0.53697961   -8.4280573    700.01508  0.013091245  0.011816243            2 
 4457000   0.54308832   -8.4247622    698.49521  0.013059891  0.011812328            5 
 4458000   0.53998552   -8.4019333    700.45938  0.013093678  0.011808418            5 
 4459000   0.53515425   -8.4269704    699.12232  0.013065753  0.011804511            2 
 4460000   0.54160708    -8.417812    699.17744  0.013063853  0.011800606            2 
 4461000   0.52416585   -8.4073107    698.92976  0.013056298  0.011796698            1 
 4462000   0.54833006   -8.4192906    700.04008  0.013074109  0.011792794            2 
 4463000   0.55129402   -8.4151603    699.09882  0.013053604  0.011788891            3 
 4464000   0.53889365    -8.439194    700.29785  0.013073063  0.011784986            2 
 4465000   0.53966943    -8.423696    698.70174  0.013040346  0.011781081            5 
 4466000   0.53908178   -8.4127898    699.82257   0.01305834   0.01177718            3 
 4467000    0.5361138    -8.421559    699.19433  0.013043697  0.011773282            8 
 4468000    0.5320494   -8.4278859    699.68608  0.013049949  0.011769387            4 
 4469000   0.52997734   -8.4203316    699.60655  0.013045546  0.011765492            2 
 4470000   0.53459446   -8.4024717    698.71832  0.013026069    0.0117616            5 
 4471000   0.52613207   -8.4297169     698.7085  0.013022972  0.011757703            4 
 4472000   0.53548932   -8.4331979    698.84356  0.013022577   0.01175381            4 
 4473000   0.54859871   -8.4224491    698.95761   0.01302179   0.01174992            1 
 4474000    0.5444847   -8.4306672    698.42588  0.013008976  0.011746033            4 
 4475000   0.53550067   -8.4038496    699.67662   0.01302936  0.011742149            2 
 4476000   0.53119895   -8.4033764    699.61371  0.013025278  0.011738263            2 
 4477000   0.53655888   -8.4462151    699.14916  0.013013721  0.011734384            3 
 4478000   0.53793963   -8.4392847    699.18143  0.013011416    0.0117305            5 
 4479000   0.53888474   -8.4314223    698.77371  0.013000925  0.011726617            3 
 4480000   0.52183513   -8.4207586     698.2307  0.012987922  0.011722736            1 
 4481000   0.54009129   -8.4260161    698.35699  0.012987372  0.011718857            2 
 4482000   0.53902726   -8.4466519    698.50629  0.012987251  0.011714978            3 
 4483000   0.53575228   -8.4212539    699.57513  0.013004222  0.011711103            4 
 4484000     0.540371   -8.4395304    698.93209  0.012989371  0.011707229            4 
 4485000   0.54168981   -8.4101571    699.01212  0.012987962  0.011703357            7 
 4486000   0.52841044   -8.4342616    697.97037  0.012965715  0.011699483            3 
 4487000   0.53867411   -8.4347677    698.92366   0.01298053  0.011695616            4 
 4488000   0.52984344   -8.4245506    698.05799  0.012961564  0.011691745            3 
 4489000   0.53202965   -8.4397472    699.69525  0.012989071  0.011687876            5 
 4490000   0.53093707   -8.4104556    698.28618  0.012960026  0.011684012            4 
 4491000   0.53761541   -8.4155522    698.23698  0.012956227  0.011680147            4 
 4492000   0.53024119   -8.4160861    698.94177  0.012966417  0.011676282            5 
 4493000   0.53446308   -8.4246292    699.05435   0.01296562  0.011672417            3 
 4494000   0.52417003   -8.4286601    699.04321  0.012962528  0.011668554            2 
 4495000    0.5285127   -8.4321693     699.0961  0.012960625  0.011664692            2 
 4496000   0.54834587    -8.421622    697.66159  0.012931153  0.011660831            2 
 4497000   0.52339831   -8.4257313    698.31052  0.012940303  0.011656972            3 
 4498000   0.54042594   -8.4271119    698.82407  0.012946941  0.011653114            4 
 4499000   0.53623373   -8.4343885    698.44814    0.0129371  0.011649256           10 
 4500000   0.51900297   -8.4451263    697.63732   0.01291921  0.011645399            8 
 4501000   0.53571223   -8.4370165    698.08607  0.012924648  0.011641545            5 
 4502000   0.52255318   -8.4104734    698.08997  0.012921849  0.011637693            5 
 4503000   0.53837227   -8.4096073     698.5913  0.012928257  0.011633843            3 
 4504000   0.52814224   -8.4283227    699.47384  0.012941715  0.011629997            3 
 4505000    0.5241904   -8.4228396    699.16242  0.012933082  0.011626151            5 
 4506000   0.53239775   -8.4165663    699.20527  0.012931004  0.011622309            4 
 4507000   0.52424259    -8.415341    698.70387  0.012918865  0.011618465            3 
 4508000   0.54170154   -8.4370444    698.78499  0.012917498  0.011614625            2 
 4509000   0.53606883   -8.4190006    698.57132  0.012910685  0.011610786            4 
 4510000   0.52925176   -8.4252519    698.32961  0.012903356   0.01160695            2 
 4511000   0.52832019   -8.4346413    699.70643   0.01292593  0.011603115            8 
 4512000   0.52427115   -8.4273822    697.87023  0.012889152  0.011599277            4 
 4513000   0.53095078   -8.4408799    698.82608  0.012903946   0.01159544            3 
 4514000   0.52313817   -8.4183306    698.65214  0.012897876  0.011591604            2 
 4515000   0.53001114   -8.4336824     698.0487  0.012883881  0.011587771            2 
 4516000   0.53704736   -8.4307577    698.23835  0.012884528  0.011583942            6 
 4517000   0.52443407   -8.4278903    699.21463  0.012899687  0.011580112            2 
 4518000   0.53134693   -8.4140225    699.22972   0.01289711  0.011576287            2 
 4519000    0.5228737   -8.4454745    699.25801  0.012894778  0.011572462            6 
 4520000   0.53144455   -8.4238187    698.73957  0.012882367   0.01156863            2 
 4521000   0.53079279   -8.4271522    698.48254   0.01287478  0.011564804            3 
 4522000   0.52057711   -8.4319754    699.31633  0.012887298   0.01156098            2 
 4523000   0.53132766   -8.4344034    698.64856  0.012872145  0.011557161            6 
 4524000   0.52277972    -8.453299    698.75062   0.01287118   0.01155334            4 
 4525000   0.52514442   -8.4267414    698.80345  0.012869308   0.01154952            4 
 4526000   0.53541426   -8.4172946    698.66799  0.012863971  0.011545703            2 
 4527000   0.52542649   -8.4291557     698.4981  0.012858002  0.011541886            6 
 4528000   0.52040127   -8.4272401    698.06258  0.012847147  0.011538067            4 
 4529000   0.52645075   -8.4404053    698.79854  0.012857852  0.011534252            5 
 4530000   0.52721704   -8.4277945    699.20523  0.012862495   0.01153044            2 
 4531000   0.52673681     -8.44082    698.17942   0.01284079   0.01152663            2 
 4532000   0.52836783   -8.4437973    698.37235  0.012841504  0.011522817            4 
 4533000   0.52360447   -8.4238544    698.06162  0.012832959  0.011519008            3 
 4534000   0.53012822   -8.4467683    698.93062    0.0128461  0.011515198            4 
 4535000   0.52319174   -8.4586652    698.23315  0.012830451   0.01151139            2 
 4536000   0.52097915   -8.4324405    698.17377  0.012826532  0.011507583            4 
 4537000    0.5339366   -8.4328764    699.12227  0.012841126  0.011503778            3 
 4538000   0.54038352   -8.4650902    698.35022  0.012824119  0.011499979            3 
 4539000   0.52141964    -8.419797    697.99668  0.012814803  0.011496176            3 
 4540000    0.5319962    -8.459769    698.24539  0.012816545  0.011492376            7 
 4541000   0.52458891      -8.4448    698.33735   0.01281541  0.011488582            2 
 4542000   0.52081715    -8.448024    698.63644  0.012818076  0.011484787            2 
 4543000   0.54152743   -8.4454511    697.59315  0.012796118  0.011480993            2 
 4544000     0.528354   -8.4297361    699.10225  0.012820977  0.011477204            3 
 4545000    0.5282837    -8.437499    698.11053  0.012799973  0.011473415            3 
 4546000   0.52551867   -8.4343163    697.78013  0.012791101  0.011469625            5 
 4547000   0.51999936   -8.4333729    699.17308  0.012813816   0.01146583            7 
 4548000   0.52144231   -8.4639516    698.20466  0.012793255  0.011462041            7 
 4549000   0.52984806   -8.4492984    697.93883  0.012785573  0.011458258            4 
 4550000    0.5142239   -8.4419815    699.17554  0.012805413  0.011454471            5 
 4551000   0.51804706   -8.4375487    698.27692  0.012786144   0.01145069            2 
 4552000   0.51957057   -8.4438531    697.95802  0.012777497  0.011446911            3 
 4553000   0.51507103   -8.4480068    697.71833  0.012770304  0.011443134            2 
 4554000   0.52897465   -8.4397133    698.66738  0.012784866  0.011439356            2 
 4555000   0.51766029    -8.448541    698.21911  0.012773859  0.011435578            2 
 4556000   0.52142589   -8.4567417     697.7239  0.012761997  0.011431806            3 
 4557000   0.51856177   -8.4365575    698.34489  0.012770553   0.01142803            3 
 4558000   0.51969965   -8.4550674    697.68896  0.012755758  0.011424256            3 
 4559000   0.52311969   -8.4330093    697.96468     0.012758  0.011420484            3 
 4560000   0.51054742   -8.4434635    698.82001  0.012770834  0.011416715            5 
 4561000   0.50975326   -8.4507744    699.19144   0.01277482   0.01141295            4 
 4562000   0.51247019   -8.4490387    698.90825  0.012766847  0.011409184            3 
 4563000   0.52040488   -8.4444966    698.30341  0.012753003  0.011405424            1 
 4564000   0.53273643   -8.4416819    697.44713  0.012734574  0.011401664            4 
 4565000   0.52049732   -8.4528904    697.94745  0.012740917    0.0113979            2 
 4566000   0.51427704   -8.4552893    699.17834  0.012760592  0.011394142            2 
 4567000   0.51484344   -8.4519249    698.43688  0.012744268  0.011390387            2 
 4568000   0.52124724   -8.4410452    699.13088  0.012754139  0.011386634            3 
 4569000   0.52292947   -8.4573687    698.32074  0.012736571  0.011382882            4 
 4570000   0.52027718   -8.4475599    698.06196  0.012729066  0.011379133            6 
 4571000   0.52288256   -8.4388764    697.79034  0.012721329  0.011375384            3 
 4572000   0.53306476   -8.4483811    697.61658   0.01271538  0.011371639            5 
 4573000   0.51628678   -8.4670445    697.62415  0.012712737   0.01136789            4 
 4574000   0.51472669   -8.4370911     698.5601   0.01272701  0.011364144            3 
 4575000   0.52692985   -8.4462879    698.11906  0.012716194    0.0113604            5 
 4576000   0.52376265   -8.4431741    697.43389  0.012700938  0.011356654            2 
 4577000     0.530553   -8.4517845    696.97374  0.012689785  0.011352912            2 
 4578000   0.51646749   -8.4418491    698.49989  0.012714793   0.01134917            4 
 4579000   0.52180973    -8.449135    697.72767  0.012697963  0.011345434            4 
 4580000   0.52037577   -8.4467392    697.04019  0.012682682  0.011341698            4 
 4581000   0.52291918   -8.4319139    697.90421  0.012695631   0.01133796            2 
 4582000   0.51577932   -8.4540213    698.70749  0.012707469  0.011334227            6 
 4583000   0.52726158   -8.4618106    698.42972  0.012699646  0.011330496            3 
 4584000   0.51960521    -8.445306    697.94939  0.012688143  0.011326762            3 
 4585000   0.51800078   -8.4477944    698.11222  0.012688336  0.011323034            3 
 4586000   0.51912629   -8.4681045     698.5925  0.012694296  0.011319308            5 
 4587000   0.51663447    -8.436084    698.24658  0.012685244  0.011315585            6 
 4588000   0.50380456    -8.458202    696.95937  0.012659099  0.011311857            2 
 4589000   0.50780339   -8.4504419    698.95262  0.012692537   0.01130813            4 
 4590000   0.51319808   -8.4429029    697.66397  0.012666376  0.011304405            3 
 4591000   0.53001207   -8.4388006    697.28408  0.012656721  0.011300686            2 
 4592000   0.51383329   -8.4425303    698.20378  0.012670655  0.011296968            3 
 4593000   0.52040551   -8.4580094    698.85064  0.012679633  0.011293252            2 
 4594000   0.53324225   -8.4597749    697.41714   0.01265087  0.011289536            2 
 4595000   0.53104834   -8.4682104    697.73648  0.012653908  0.011285821            3 
 4596000   0.51452438   -8.4513324    697.43672   0.01264572  0.011282103            6 
 4597000   0.51975693   -8.4463876    699.19705   0.01267488   0.01127839            2 
 4598000   0.51419221   -8.4641609    698.50606  0.012659599  0.011274681            7 
 4599000    0.5189412   -8.4439374    698.23775  0.012651985  0.011270971            4 
 4600000   0.50310525   -8.4573115    697.24416  0.012631235  0.011267261            3 
 4601000   0.50788772   -8.4574358     698.0973  0.012643941  0.011263557            2 
 4602000   0.52532338   -8.4554287    698.51968  0.012648843  0.011259851            2 
 4603000    0.5189035   -8.4570879    698.11656  0.012638796  0.011256149            5 
 4604000   0.51271375   -8.4551863    697.07711  0.012617237  0.011252449            3 
 4605000   0.51781753   -8.4436579    696.67697  0.012607256  0.011248745            3 
 4606000   0.50384946   -8.4481804    697.87565  0.012626206  0.011245042            4 
 4607000   0.51522356   -8.4503742    696.96376  0.012606971  0.011241347            3 
 4608000   0.51621705   -8.4484509    697.81254  0.012619584  0.011237651            3 
 4609000     0.512352   -8.4526516    698.77999  0.012634338  0.011233955            3 
 4610000   0.50893287   -8.4652989    697.73837  0.012612769  0.011230259            5 
 4611000   0.51787662    -8.460901    697.76271  0.012610473  0.011226565            2 
 4612000   0.51130302   -8.4567912    697.59289  0.012604671  0.011222875            3 
 4613000   0.50831841   -8.4590045    698.13585  0.012611747  0.011219186            3 
 4614000   0.51117058   -8.4525726      698.151  0.012609287  0.011215495            3 
 4615000   0.51563621   -8.4725861    697.44576   0.01259382  0.011211808            2 
 4616000   0.51707861   -8.4633926    697.26472  0.012587823  0.011208122            3 
 4617000   0.52455869   -8.4502133    696.83469  0.012577335  0.011204438            5 
 4618000   0.51338184   -8.4503752    698.66035  0.012607557  0.011200753            3 
 4619000   0.51482926   -8.4473625    697.89857  0.012591083  0.011197069            9 
 4620000   0.50105427   -8.4794266     698.6003  0.012601016  0.011193388            5 
 4621000   0.49469622    -8.468832    697.68097   0.01258171   0.01118971            3 
 4622000   0.51183743   -8.4566288    698.29686  0.012590092  0.011186034            3 
 4623000   0.51174726   -8.4419491    697.57196  0.012574302  0.011182361            3 
 4624000   0.52560918   -8.4602764    698.72877   0.01259243  0.011178689            2 
 4625000   0.50577417   -8.4646465     697.6347  0.012569995  0.011175019            4 
 4626000   0.52199587   -8.4472678    697.53794  0.012565534   0.01117135            5 
 4627000   0.50393859   -8.4458867    697.76163  0.012566847   0.01116768            3 
 4628000   0.50490503   -8.4586072     698.4959  0.012577353  0.011164018            3 
 4629000   0.51425737   -8.4812406    697.87826  0.012563517  0.011160353            4 
 4630000   0.51216817   -8.4502597    697.45707  0.012553223  0.011156689            3 
 4631000   0.50987437    -8.462185    697.60088    0.0125531  0.011153022            3 
 4632000    0.5127881   -8.4583866    696.63718  0.012533052  0.011149357            2 
 4633000   0.51825699   -8.4775594     698.4602  0.012563138  0.011145697            2 
 4634000   0.50506508     -8.47325    696.93403  0.012532981  0.011142039            2 
 4635000   0.51327323   -8.4671939     698.7828  0.012563517  0.011138381            3 
 4636000   0.50690201   -8.4608717    697.79593  0.012543067  0.011134722            3 
 4637000   0.50221671   -8.4448288    697.46193   0.01253436  0.011131067            4 
 4638000   0.51502788   -8.4698689    697.53335  0.012532941  0.011127417            4 
 4639000   0.51441374   -8.4477316    697.04246  0.012521421  0.011123768            3 
 4640000   0.51416299   -8.4576123    697.78759  0.012532105  0.011120116            1 
 4641000   0.51602226   -8.4621274    697.11205  0.012517274  0.011116469            6 
 4642000   0.51013719   -8.4665772    697.81463  0.012527191  0.011112822            3 
 4643000    0.5129763   -8.4593905    698.16053  0.012530701  0.011109177            3 
 4644000   0.51325368     -8.45565    698.74455  0.012538482  0.011105532            3 
 4645000   0.50014414   -8.4778511    698.14039  0.012524944   0.01110189            2 
 4646000   0.51790857   -8.4566953    698.08033  0.012521171  0.011098248            2 
 4647000   0.51291698   -8.4680524    697.23332  0.012503287  0.011094609            7 
 4648000   0.51648732   -8.4778169    697.95823  0.012513594  0.011090973            2 
 4649000   0.50802876   -8.4720545    698.95551  0.012528779  0.011087336            3 
 4650000   0.50301836   -8.4492677    697.73588  0.012504227    0.0110837            3 
 4651000   0.51522542   -8.4680866    697.55631  0.012498321  0.011080066            4 
 4652000   0.51601992   -8.4675871    698.28829  0.012508747  0.011076429            1 
 4653000   0.50447045   -8.4534617    697.97245  0.012500402  0.011072797            3 
 4654000   0.49818856   -8.4533704    697.19788  0.012483847  0.011069168            2 
 4655000   0.50649075   -8.4825523    697.76359  0.012491292  0.011065539            3 
 4656000     0.510399   -8.4701012    697.67755  0.012487069  0.011061909            3 
 4657000   0.50545074   -8.4812343    697.46209  0.012480533  0.011058285            3 
 4658000   0.50328958   -8.4781508    697.03774  0.012470261   0.01105466            3 
 4659000   0.50255705   -8.4739164    697.10527  0.012468793  0.011051033            5 
 4660000   0.50590583   -8.4791242    697.24566  0.012468628  0.011047406            3 
 4661000   0.50417461   -8.4462473    697.89333  0.012477532  0.011043785            3 
 4662000    0.5087462   -8.4810576    696.70867   0.01245368  0.011040161            3 
 4663000   0.50317919   -8.4720935    697.65307  0.012467887  0.011036539            4 
 4664000   0.50763241   -8.4550896    697.67977  0.012465691  0.011032918            3 
 4665000   0.49616615   -8.4694123    697.45392  0.012458984  0.011029302            5 
 4666000   0.50353032   -8.4828971     697.4065  0.012455467  0.011025689            3 
 4667000   0.50791591   -8.4680019    697.69744  0.012457993  0.011022077            2 
 4668000   0.49733127   -8.4684137    696.09702  0.012426753  0.011018462            6 
 4669000   0.50753933   -8.4682134    696.47144  0.012430775  0.011014846            1 
 4670000   0.49902235   -8.4877358    697.58726  0.012448024  0.011011236            3 
 4671000    0.5166633   -8.4733022    697.33701  0.012440894  0.011007629            3 
 4672000   0.50407734   -8.4793918    696.54206  0.012424052  0.011004018            2 
 4673000    0.5012202   -8.4763342     697.2108  0.012433319  0.011000408            2 
 4674000   0.50172144   -8.4835493    696.82364  0.012423756  0.010996798            4 
 4675000   0.50276426   -8.4708145    696.01559  0.012406695   0.01099319            2 
 4676000   0.50378242   -8.4713876    697.19146  0.012424998  0.010989587            4 
 4677000    0.5031228   -8.4751294    698.39504  0.012443786  0.010985986            3 
 4678000   0.51792038   -8.4842673    698.02853  0.012434597  0.010982385            3 
 4679000   0.50542331   -8.4778765    697.82572  0.012428327  0.010978784            6 
 4680000   0.50220881    -8.476402    696.97922  0.012410599  0.010975191            3 
 4681000   0.49522277   -8.4647838    697.37221  0.012414944  0.010971594            4 
 4682000   0.50501575   -8.4744874    696.11284  0.012389877  0.010967996            3 
 4683000   0.51348927   -8.4745279    697.77441  0.012416799  0.010964404            3 
 4684000    0.5014292   -8.4857826    697.13812  0.012402827  0.010960812            2 
 4685000   0.50592289   -8.4610341    697.10129  0.012399525  0.010957225            2 
 4686000   0.49780521   -8.4781575    697.66372  0.012406881  0.010953636            3 
 4687000   0.50006011   -8.4901047    696.30106  0.012380006  0.010950051            2 
 4688000    0.4958671   -8.4857257    696.66103  0.012383764  0.010946464            3 
 4689000   0.50092741   -8.4812147    697.03027  0.012387685  0.010942878            3 
 4690000   0.49620892   -8.4921585    697.02864  0.012385015  0.010939293            5 
 4691000   0.49061666   -8.4794568    696.15388  0.012366835  0.010935708            7 
 4692000   0.50697249   -8.4614822    697.23984  0.012383487   0.01093213            2 
 4693000   0.49293933   -8.4684434    696.82691  0.012373516  0.010928551            4 
 4694000   0.50034623   -8.4863462    695.87274   0.01235394  0.010924976            3 
 4695000   0.50520664   -8.4845819       696.64  0.012364927  0.010921396            1 
 4696000   0.49005869   -8.4847073    697.05481  0.012369655  0.010917822            6 
 4697000   0.49725003    -8.467115    697.27782  0.012370978  0.010914251            3 
 4698000   0.48609904   -8.4765364    697.30081  0.012368753  0.010910679            3 
 4699000    0.4952061    -8.479518    697.22266  0.012364735  0.010907107            2 
 4700000   0.49246371   -8.4666297    697.66634  0.012369971  0.010903536            8 
 4701000   0.49305315   -8.4634838    697.18423  0.012358793   0.01089997            4 
 4702000   0.49426572   -8.4795091    696.35261  0.012341426  0.010896404            2 
 4703000   0.50137296   -8.4881421    696.42727  0.012340125  0.010892837            4 
 4704000   0.50268304   -8.4713039    695.27126  0.012317022  0.010889274            7 
 4705000   0.50666776   -8.4804414    696.31646  0.012332916   0.01088571            6 
 4706000   0.50409944    -8.475552    697.19295  0.012345816  0.010882149            4 
 4707000   0.49887218   -8.4892692    697.56851  0.012349843  0.010878588            5 
 4708000   0.49352963   -8.4894707    697.93116  0.012353638  0.010875028            5 
 4709000   0.50458998   -8.4814333    696.26544  0.012321538  0.010871476            8 
 4710000   0.50076855   -8.4855127    696.00873   0.01231438   0.01086792            3 
 4711000   0.49837321   -8.4682615    697.24827  0.012333692  0.010864368            2 
 4712000   0.49907366   -8.4829075    696.49163  0.012317693  0.010860815            6 
 4713000   0.47972281    -8.483738    697.40474  0.012331225  0.010857265            3 
 4714000   0.49775165   -8.4805492    698.04682  0.012339959  0.010853715            7 
 4715000   0.48838119   -8.4855854    696.87447  0.012316622  0.010850166            3 
 4716000   0.49664961   -8.4644166    696.90785    0.0123146   0.01084662            3 
 4717000   0.49272389   -8.4798064    696.89269  0.012311722  0.010843077            4 
 4718000   0.50366506   -8.4766564    696.70495  0.012305796  0.010839539            3 
 4719000   0.50456774   -8.4781184    697.19981  0.012311927  0.010835995            9 
 4720000   0.48876906   -8.4808012    697.28017  0.012310737  0.010832454            3 
 4721000   0.49435955   -8.4863183    696.19441  0.012288964  0.010828918            5 
 4722000   0.50331683   -8.4897863    696.67808  0.012294898   0.01082538            5 
 4723000   0.49516393   -8.4824151    696.68689   0.01229245  0.010821841            3 
 4724000   0.49711927   -8.5063779    697.18017  0.012298549  0.010818309            4 
 4725000   0.48200099   -8.4873381    697.62262   0.01230375  0.010814774            2 
 4726000   0.50566997   -8.4818101    697.10632  0.012292043  0.010811241            4 
 4727000   0.50083611   -8.4699764    696.03382  0.012270535   0.01080771            2 
 4728000    0.4902625   -8.4737244     696.6958  0.012279607  0.010804181            2 
 4729000   0.49869225   -8.4927818    696.48971  0.012273379  0.010800654            5 
 4730000   0.50800469   -8.4891904    696.38369  0.012268916  0.010797129            1 
 4731000   0.49253145   -8.4927908    696.94628  0.012276233  0.010793602            2 
 4732000   0.49991815   -8.4818468    695.96637  0.012256382   0.01079008            3 
 4733000   0.49399036   -8.4801514    698.08226  0.012291046  0.010786557            2 
 4734000   0.50139112   -8.4842521    696.89813  0.012267605  0.010783036            3 
 4735000   0.48950292   -8.4804263     697.0685  0.012268013  0.010779518            6 
 4736000   0.49775907   -8.5036001    696.76343  0.012260055     0.010776            2 
 4737000   0.49378113   -8.4805425    696.81609  0.012258393  0.010772482            3 
 4738000   0.49104802   -8.4854573     698.2721  0.012281414  0.010768967            3 
 4739000   0.49992694   -8.5046052    696.65324  0.012250356  0.010765452            5 
 4740000   0.47492698   -8.5011962    697.05526  0.012254839   0.01076194            2 
 4741000   0.50506885    -8.499067    696.58355  0.012243963  0.010758428            3 
 4742000   0.49028969   -8.4944422     695.3125  0.012219044  0.010754917            4 
 4743000   0.49996082   -8.4913996    696.02204  0.012228935  0.010751407            3 
 4744000   0.49160094    -8.487152    697.05104  0.012244432  0.010747898            3 
 4745000   0.48793789   -8.4924186    696.81311  0.012237673  0.010744395            3 
 4746000   0.49438922   -8.4929797    696.60236  0.012231394  0.010740893            2 
 4747000   0.49556335   -8.4907286    696.30217  0.012223548   0.01073739            2 
 4748000   0.49991941   -8.4905127    695.96476  0.012215051   0.01073389            6 
 4749000   0.48856046   -8.4764487    696.25706  0.012217608  0.010730392            4 
 4750000   0.50021839   -8.4786126    696.65896  0.012222087  0.010726893            3 
 4751000   0.49287756   -8.4795195    697.26154  0.012230084  0.010723396            4 
 4752000   0.48257779   -8.4954385    697.41092   0.01223013    0.0107199            3 
 4753000   0.48175435   -8.4685947    695.76226  0.012198651  0.010716407            3 
 4754000   0.50171029   -8.4918808     696.5156   0.01220929  0.010712915            3 
 4755000   0.48986384   -8.4842847    696.01384  0.012197929  0.010709423            4 
 4756000   0.50077992   -8.4834101    697.29808  0.012217867  0.010705935            4 
 4757000   0.48723558   -8.4894956    697.37607  0.012216664   0.01070245            4 
 4758000   0.48797076   -8.4926999    695.68766  0.012184525  0.010698963            4 
 4759000   0.48423158   -8.5104846    696.06787  0.012188623  0.010695476            3 
 4760000   0.49326919   -8.5009289    696.94742   0.01220146  0.010691991            5 
 4761000   0.49479459   -8.4991492    696.06156  0.012183392  0.010688505            4 
 4762000   0.48819371    -8.507147    696.56114  0.012189576  0.010685019            3 
 4763000   0.48463709   -8.5174894    696.66859  0.012188897  0.010681537            5 
 4764000   0.48181148   -8.5105297    697.41469  0.012199389  0.010678055            5 
 4765000   0.49071772   -8.4887781    695.90821  0.012170483  0.010674574            6 
 4766000   0.49294803   -8.4938823    696.43717  0.012177178  0.010671095            2 
 4767000   0.48785191   -8.4923039    696.45165  0.012174877  0.010667618            3 
 4768000   0.49420759   -8.4887995    696.26073  0.012168986  0.010664145            4 
 4769000   0.48760991   -8.5000384    697.73317  0.012192164   0.01066067            6 
 4770000   0.48227434   -8.4871824    696.53658  0.012168703  0.010657201            4 
 4771000   0.48617068   -8.4884226    696.61587  0.012167538  0.010653729            3 
 4772000   0.49298552   -8.5038497    695.37178  0.012143263  0.010650261            4 
 4773000    0.4923939   -8.5092243    695.86326  0.012149299  0.010646792            2 
 4774000   0.48092343   -8.5069145    696.27831  0.012153999  0.010643326            2 
 4775000   0.49962448   -8.4881253    696.59029  0.012156899  0.010639861            2 
 4776000   0.49003793   -8.5120113    696.29139  0.012149138  0.010636401            5 
 4777000   0.50728974   -8.5114987    696.93558  0.012157832   0.01063294            6 
 4778000   0.48760602   -8.4942746    696.02816  0.012139461  0.010629477            4 
 4779000   0.49044494   -8.5137166    696.85033  0.012151258  0.010626021            2 
 4780000   0.49769437   -8.4944654    696.58185  0.012144035  0.010622566            6 
 4781000   0.48356263   -8.5061248     696.3132  0.012136812  0.010619111            2 
 4782000   0.48693568   -8.4946853    696.26498  0.012133434  0.010615657            4 
 4783000   0.49890891   -8.5073918    697.06026  0.012144753  0.010612203            3 
 4784000   0.48305199   -8.4900629    696.50447  0.012132533   0.01060875            2 
 4785000   0.48368392    -8.485245    696.64599  0.012132462    0.0106053            3 
 4786000   0.49240276   -8.5026066    696.16415  0.012121538  0.010601855            5 
 4787000   0.50223802   -8.5182953    696.03116   0.01211669  0.010598406            3 
 4788000   0.48967212    -8.497191    696.68549  0.012125548  0.010594959            2 
 4789000   0.48242783    -8.492455    695.86941  0.012108816  0.010591513            4 
 4790000   0.48684743   -8.4898217     696.2503  0.012112914  0.010588069            3 
 4791000   0.48345462   -8.5014511    697.28641  0.012128408  0.010584623            4 
 4792000   0.48366592   -8.5062522    695.64774   0.01209738   0.01058118            3 
 4793000    0.4915289   -8.5061888    696.09358  0.012102608  0.010577737            3 
 4794000   0.49200341   -8.5180039    696.80586  0.012112464  0.010574297            2 
 4795000   0.48324838   -8.5294521    695.64514  0.012089766  0.010570857            3 
 4796000    0.4760661   -8.4917649     695.7398   0.01208889  0.010567417            3 
 4797000   0.48560497   -8.5027931    696.11502  0.012092888  0.010563981            4 
 4798000   0.48887929   -8.5046834    696.33612  0.012094208  0.010560546            4 
 4799000   0.48745138   -8.5030872    697.05073  0.012104097  0.010557111            4 
 4800000   0.49135736   -8.4921625     697.0585   0.01210171  0.010553678            3 
 4801000   0.48712763   -8.5084558    696.23304  0.012084861  0.010550245            5 
 4802000   0.47913448   -8.5252092     696.2463  0.012082575  0.010546812            3 
 4803000   0.47138635   -8.5215085    695.24925   0.01206276  0.010543379            2 
 4804000   0.48865931   -8.5073322    697.47209  0.012098808  0.010539949            3 
 4805000   0.47516904   -8.5066787     696.2825  0.012075659  0.010536522            3 
 4806000    0.4809665   -8.5173007    696.41179  0.012075388  0.010533097            3 
 4807000   0.48034538   -8.5108781    695.74028  0.012061235  0.010529676            5 
 4808000   0.47804352   -8.5004848    696.04638  0.012064032  0.010526253            5 
 4809000   0.48234573    -8.499464    696.34926  0.012066772  0.010522832            3 
 4810000   0.49096356   -8.5024053    695.36302  0.012047176  0.010519411            4 
 4811000    0.4819096   -8.5170372    695.79448  0.012052146  0.010515991            3 
 4812000   0.48118116    -8.512432    695.43026  0.012043334  0.010512572            4 
 4813000    0.4818315    -8.525394    695.43577  0.012040927  0.010509155            6 
 4814000   0.49827238    -8.513669    696.31041  0.012053566  0.010505739            3 
 4815000   0.48155295   -8.5155013    695.09077  0.012029955  0.010502324            3 
 4816000   0.49226022   -8.5193615    695.83109  0.012040267  0.010498913            2 
 4817000   0.47808876   -8.5067021     695.5133  0.012032269  0.010495503            2 
 4818000   0.47947384   -8.5094181    695.80915  0.012034889  0.010492095            5 
 4819000   0.48539787   -8.5070464    696.06558  0.012036826  0.010488685            4 
 4820000    0.4869516   -8.5044172    696.67048  0.012044787  0.010485279            3 
 4821000   0.48317485   -8.5236768     694.2811  0.012000987  0.010481875            3 
 4822000   0.48195896   -8.5212029    695.96992  0.012027684  0.010478472            3 
 4823000   0.48391859   -8.5109669    696.80591  0.012039635   0.01047507            3 
 4824000   0.48236681   -8.5296315    695.57202  0.012015824  0.010471669            5 
 4825000   0.47500728   -8.5134864    695.79404  0.012017168   0.01046827            4 
 4826000   0.47683546   -8.5077817    695.97145  0.012017742   0.01046487            5 
 4827000   0.48489175     -8.50961    695.45749  0.012006379  0.010461474            2 
 4828000   0.48797438   -8.5241337     695.7108  0.012008264  0.010458076            3 
 4829000    0.4713316    -8.514992     695.9132   0.01200927  0.010454679            4 
 4830000   0.48019466   -8.4949583    695.70152  0.012003132  0.010451288            3 
 4831000   0.47684248   -8.5169099    695.78506  0.012002088  0.010447893            3 
 4832000   0.48186479   -8.5205343    697.03192  0.012021108  0.010444501            3 
 4833000   0.47454247   -8.5136617    695.25369  0.011987959   0.01044111            5 
 4834000   0.47522557   -8.5151034    695.64269  0.011992185  0.010437721            2 
 4835000   0.48620304   -8.5137016    695.42098  0.011985884  0.010434334            4 
 4836000   0.47553479   -8.5090245    695.30859  0.011981469  0.010430951            4 
 4837000   0.47906254   -8.5070618    696.16932  0.011993821  0.010427567            2 
 4838000   0.47470633   -8.5119644    696.66849   0.01199994  0.010424184            3 
 4839000   0.47252025   -8.5311363    696.00238  0.011985988  0.010420804            4 
 4840000   0.46870735   -8.5204101    695.68609  0.011978066  0.010417424            4 
 4841000   0.49195196   -8.5144871    694.77847  0.011959968  0.010414046            4 
 4842000   0.47316555   -8.5083408    695.37082  0.011967693  0.010410668            5 
 4843000   0.48313561   -8.5178519    695.79904   0.01197259   0.01040729            2 
 4844000   0.48003002   -8.5005245    694.59698  0.011949439  0.010403918            7 
 4845000   0.48223582   -8.5083879    695.21711  0.011957639  0.010400543            2 
 4846000   0.47576562   -8.5235293    695.20893   0.01195503  0.010397172            5 
 4847000   0.46722696   -8.5087842    694.50739  0.011940503  0.010393799            3 
 4848000   0.47186264   -8.5134006    695.83739  0.011960901   0.01039043            5 
 4849000   0.49039514    -8.504625    695.24302   0.01194822   0.01038706            4 
 4850000   0.47347531   -8.5073869    695.32759  0.011947209  0.010383693            2 
 4851000   0.47363452   -8.5358212    695.65575  0.011950384  0.010380327            4 
 4852000   0.48129101   -8.4951818    695.37145  0.011943038  0.010376963            4 
 4853000   0.47190583   -8.5107263    695.89544  0.011949575    0.0103736            3 
 4854000   0.47587222   -8.5124224     695.3479  0.011937713  0.010370241            3 
 4855000   0.47812458    -8.504688    695.05634   0.01193025  0.010366882            3 
 4856000   0.47952502   -8.5309452    695.25759  0.011931246  0.010363524            4 
 4857000    0.4961966   -8.5107348    696.49917  0.011950092  0.010360168            4 
 4858000   0.46679944   -8.5273027     696.1752  0.011942075  0.010356813            3 
 4859000    0.4684562   -8.5268293    694.74357  0.011915064  0.010353458            2 
 4860000   0.48337502   -8.5163795    695.82539  0.011931162  0.010350105            2 
 4861000   0.48324698   -8.5332047    695.24941  0.011918834  0.010346754            3 
 4862000     0.475632   -8.5228639    695.21467  0.011915787  0.010343407            2 
 4863000   0.47325033   -8.5059525    695.31144  0.011914995   0.01034006            4 
 4864000   0.47321897   -8.5491582    695.44769   0.01191488   0.01033671            2 
 4865000   0.45957044   -8.5171066    696.19219  0.011925183  0.010333366            4 
 4866000   0.46836987   -8.5132168    694.74233  0.011897903  0.010330024            5 
 4867000   0.46399301    -8.526679    695.42949  0.011907224  0.010326684            2 
 4868000   0.48170413   -8.5206281    696.24029  0.011918657  0.010323346            6 
 4869000   0.47581492   -8.5187837    695.34506  0.011900888  0.010320008            5 
 4870000   0.47788881   -8.5190884    696.27315  0.011914325   0.01031667            4 
 4871000    0.4761585   -8.5247989    695.18916  0.011893334  0.010313336            3 
 4872000   0.47453154   -8.5186395    695.59017  0.011897752      0.01031            3 
 4873000   0.47227272   -8.5214813    695.41754  0.011892358  0.010306664            4 
 4874000   0.47134514   -8.5236666    695.12953  0.011884994  0.010303332            2 
 4875000   0.46956739   -8.5262836    694.48168  0.011871482       0.0103            3 
 4876000   0.46667579   -8.5300855    695.63005  0.011888673  0.010296669            4 
 4877000   0.48074546   -8.5290616    694.28696  0.011863286  0.010293338            7 
 4878000   0.47690762   -8.5133463    695.76576  0.011886117  0.010290006            5 
 4879000   0.47261011   -8.5169147    695.45437  0.011878363  0.010286678            3 
 4880000   0.46153823    -8.527721    694.72078  0.011863401  0.010283351            3 
 4881000   0.46713005   -8.5158054    694.83133  0.011862858  0.010280026            5 
 4882000   0.48562906   -8.5102499    695.21447  0.011866968  0.010276705            4 
 4883000   0.46122572   -8.5211424    695.76968  0.011874013  0.010273382            3 
 4884000   0.46382925   -8.5249641    695.13742  0.011860794   0.01027006            3 
 4885000   0.46895701    -8.521831    696.57138  0.011882828  0.010266742            6 
 4886000    0.4668667   -8.5251649    695.63044  0.011864348  0.010263423            3 
 4887000   0.46784813   -8.5359428    693.92418  0.011832825  0.010260104            4 
 4888000   0.46942602   -8.5200328     696.4467  0.011873409  0.010256788            5 
 4889000   0.46479844   -8.5213167    695.32285  0.011851825  0.010253473            4 
 4890000   0.47604999   -8.5176657    696.08435  0.011862378  0.010250161            4 
 4891000   0.47153698   -8.5348586    697.14339  0.011877997   0.01024685            3 
 4892000   0.47135958   -8.5198735    694.61795  0.011832549  0.010243539            7 
 4893000   0.46980133   -8.5276394    695.39295   0.01184333  0.010240229            5 
 4894000   0.47570612    -8.544434    695.09156  0.011835778  0.010236925            4 
 4895000   0.46558239   -8.5164437     695.5746  0.011841583  0.010233618            3 
 4896000   0.47307557   -8.5258612    694.38725  0.011818955  0.010230311            4 
 4897000   0.47731219   -8.5166414    695.00325  0.011827024  0.010227006            4 
 4898000   0.46458981   -8.5281072    695.50358  0.011833122  0.010223704            3 
 4899000   0.46607616   -8.5150812    695.74241  0.011834769    0.0102204            3 
 4900000   0.47140094   -8.5324302     695.3912  0.011826381  0.010217102            2 
 4901000   0.46727718   -8.5387324    695.12486  0.011819439    0.0102138            4 
 4902000   0.47585255   -8.5319623    694.18085   0.01180098  0.010210503            4 
 4903000   0.46729254   -8.5298271    695.73627   0.01182501  0.010207206            5 
 4904000   0.46452588   -8.5445854    695.28221  0.011814883  0.010203909            2 
 4905000   0.46849212   -8.5323693    695.82309  0.011821663  0.010200614            3 
 4906000   0.46532501   -8.5232212    694.99404  0.011805171   0.01019732            4 
 4907000   0.47298387   -8.5206671    696.53205  0.011828885   0.01019403            3 
 4908000   0.46253492   -8.5240654    695.16358  0.011803239   0.01019074            2 
 4909000   0.48403959   -8.5180934     695.3066  0.011803263  0.010187452            3 
 4910000   0.46949454    -8.526543      695.226  0.011799491  0.010184166            7 
 4911000   0.47487359   -8.5237466    696.10052  0.011811928   0.01018088            4 
 4912000   0.46760288   -8.5163352    695.19695  0.011794194  0.010177594            4 
 4913000   0.46172447   -8.5365619    696.10521  0.011807199  0.010174312            3 
 4914000   0.46189378    -8.524926    695.23333   0.01179001   0.01017103            2 
 4915000   0.47511491   -8.5186654    695.03547  0.011784257  0.010167751            4 
 4916000   0.46863712   -8.5276594    695.81936  0.011795148  0.010164474            3 
 4917000   0.45736809   -8.5426154    695.23282  0.011782808  0.010161197            3 
 4918000   0.46598618   -8.5229306    695.57292  0.011786175  0.010157921            2 
 4919000   0.46478111   -8.5306929    694.98626  0.011773841  0.010154645            2 
 4920000   0.46574352   -8.5284604    694.69197  0.011766463   0.01015137            4 
 4921000   0.45897286   -8.5352503    695.40782  0.011776194  0.010148098            4 
 4922000   0.46363945    -8.519985    694.77484  0.011763085  0.010144828            2 
 4923000   0.46830518   -8.5370871    695.23146  0.011768425  0.010141558            3 
 4924000   0.45811234   -8.5201743    694.61441  0.011755592  0.010138287            3 
 4925000   0.46461348   -8.5383136     695.8368  0.011773888  0.010135017            4 
 4926000    0.4628835   -8.5355058    694.81603   0.01175423   0.01013175            3 
 4927000   0.45698384   -8.5449708    694.95355   0.01175417  0.010128482            4 
 4928000   0.46815819   -8.5323973    693.83502   0.01173287  0.010125213            4 
 4929000   0.47210288   -8.5417702    694.66648  0.011744547  0.010121951            2 
 4930000     0.459647    -8.540106    694.55717  0.011740317  0.010118687            3 
 4931000   0.45488278   -8.5334134    694.07142  0.011729727  0.010115426            3 
 4932000   0.46556121   -8.5237166    694.59583   0.01173621  0.010112165            3 
 4933000   0.45703111   -8.5309927    694.53145  0.011732743  0.010108909            4 
 4934000   0.45901142   -8.5302157    695.23871   0.01174231  0.010105653            2 
 4935000    0.4643788   -8.5356323     694.9962  0.011735836  0.010102398            2 
 4936000   0.46580676   -8.5358567    694.69736  0.011728413  0.010099143            3 
 4937000   0.46174666    -8.544155    694.87255  0.011728994   0.01009589            5 
 4938000   0.46423188   -8.5341221    694.07344  0.011713133   0.01009264            3 
 4939000   0.46214047    -8.538068    695.08154  0.011727771  0.010089387            2 
 4940000   0.46223647   -8.5321696    694.87378  0.011721892   0.01008614            7 
 4941000   0.45490409   -8.5350577    695.07285  0.011722877  0.010082894            5 
 4942000   0.47004746   -8.5353343    694.67473  0.011713792  0.010079649            5 
 4943000    0.4721846    -8.523071    694.58298  0.011709876  0.010076405            6 
 4944000   0.46130043   -8.5444617    694.83228  0.011711709  0.010073162            3 
 4945000   0.45828139   -8.5353639    694.57961  0.011705083   0.01006992            4 
 4946000    0.4594535   -8.5406198    695.30819  0.011714992  0.010066679            5 
 4947000   0.46702762   -8.5533967    694.91779  0.011706047  0.010063438            6 
 4948000   0.44919388   -8.5421007    693.80299  0.011684906  0.010060198            4 
 4949000   0.45112361   -8.5338765    695.13153  0.011704916  0.010056962            3 
 4950000   0.47050039   -8.5398476      694.814  0.011697205  0.010053727            7 
 4951000   0.45120761   -8.5432444    695.56722  0.011707521  0.010050493            3 
 4952000   0.46498883   -8.5484902    694.73055  0.011691077  0.010047261            4 
 4953000   0.46695564   -8.5358809    695.16353  0.011696001  0.010044029            4 
 4954000   0.45077019   -8.5366832    694.77326  0.011687075  0.010040796            4 
 4955000   0.46039592   -8.5275962    694.14818  0.011674204  0.010037568            4 
 4956000   0.45940136   -8.5377763     694.6371   0.01168007  0.010034342            5 
 4957000    0.4631953   -8.5431674    694.84458  0.011681201  0.010031117            4 
 4958000   0.44651715   -8.5411588    694.41002  0.011671541  0.010027892            5 
 4959000   0.46316477   -8.5459182    694.58117  0.011672064  0.010024668            7 
 4960000    0.4596433   -8.5448367    694.71109  0.011671893  0.010021448            4 
 4961000   0.46817972   -8.5666368    693.95255  0.011656799  0.010018226            3 
 4962000   0.45884161   -8.5492252    695.69192  0.011683661  0.010015008            3 
 4963000   0.45861399   -8.5509371    695.41109  0.011676592  0.010011787            4 
 4964000   0.46786634   -8.5434103    695.02926  0.011667829  0.010008568            4 
 4965000   0.46657797   -8.5462789    695.18151  0.011668035  0.010005351            2 
 4966000   0.45275491   -8.5539166    693.93888  0.011644833  0.010002135            5 
 4967000   0.44773143   -8.5455238     695.1921  0.011663514 0.0099989206            4 
 4968000   0.45333107     -8.55198    695.04667  0.011658727 0.0099957047            3 
 4969000   0.44732767   -8.5449201    694.83242  0.011652788 0.0099924913            3 
 4970000   0.45683729   -8.5454261    694.92478  0.011651992 0.0099892836            5 
 4971000   0.45596342    -8.543726    695.99188  0.011667536 0.0099860727            3 
 4972000   0.44666038   -8.5336241    694.12747  0.011633941 0.0099828636            5 
 4973000   0.45375409   -8.5511206    695.39888  0.011652907 0.0099796572            3 
 4974000   0.45205105   -8.5478708    694.19557  0.011630404 0.0099764512            4 
 4975000   0.44728045   -8.5489827    694.39894  0.011631473 0.0099732458            5 
 4976000   0.46677874   -8.5415903    693.16002  0.011608387  0.009970044            6 
 4977000   0.45747367   -8.5470942    694.43138  0.011627342 0.0099668442            5 
 4978000    0.4504859   -8.5707561     694.2366  0.011621746 0.0099636422            4 
 4979000   0.45774809   -8.5304034    694.64021  0.011626167 0.0099604428            3 
 4980000   0.46198366   -8.5463015      694.209  0.011616616 0.0099572442            7 
 4981000   0.44835391   -8.5250903     695.2617  0.011631896 0.0099540472            2 
 4982000    0.4530405   -8.5538201     694.2894  0.011613298 0.0099508514            3 
 4983000   0.46278213   -8.5510935    694.20214  0.011609508  0.009947656            6 
 4984000   0.44225679   -8.5567149    693.55356  0.011596334 0.0099444627            3 
 4985000   0.46610532   -8.5499353    694.99135  0.011618043 0.0099412704            3 
 4986000   0.45220477   -8.5473094    694.58373    0.0116089 0.0099380796            3 
 4987000   0.45568773   -8.5477304    694.49795  0.011605139 0.0099348873            3 
 4988000   0.45548114   -8.5552263    694.79658  0.011607802    0.0099317            5 
 4989000   0.45679402   -8.5419677    694.74412  0.011604599 0.0099285134            6 
 4990000   0.45968276   -8.5586031    694.58606  0.011599634 0.0099253283            6 
 4991000   0.44930059   -8.5383946    695.16591  0.011606991 0.0099221451            3 
 4992000   0.45149758   -8.5406089    693.41605  0.011575455 0.0099189595            4 
 4993000   0.44446425   -8.5414082    694.71084  0.011594747 0.0099157762            4 
 4994000   0.44986868   -8.5361571    694.82939  0.011594403 0.0099125978            6 
 4995000   0.44785751   -8.5529546    694.92543  0.011593684 0.0099094195            2 
 4996000   0.44859505   -8.5540869    693.53063  0.011568098 0.0099062422            2 
 4997000   0.46076226   -8.5541528    694.19655  0.011576889 0.0099030657            3 
 4998000   0.45179669    -8.560901    695.38375  0.011594367 0.0098998923            3 
 4999000   0.44974504    -8.538609    694.59725  0.011578937 0.0098967178            3 
 5000000   0.44642792   -8.5485124    693.71443  0.011561907 0.0098935435            4 
 5001000    0.4514549   -8.5682271    694.67583  0.011575615 0.0098903732            5 
 5002000   0.45022261   -8.5425949     693.6083  0.011555516 0.0098872023            2 
 5003000   0.45557383   -8.5458481    694.39136   0.01156625  0.009884031            3 
 5004000   0.44728668   -8.5568285    694.34242  0.011563123 0.0098808632            4 
 5005000   0.45337825   -8.5507516    693.67903  0.011549767 0.0098776982            5 
 5006000   0.44188858   -8.5545906    694.70301  0.011564506 0.0098745326            4 
 5007000   0.44488744   -8.5410017    692.93001  0.011532688 0.0098713694            4 
 5008000   0.45098253   -8.5624898    694.44853  0.011555653 0.0098682046            3 
 5009000   0.45318937   -8.5566881    694.88698  0.011560641 0.0098650428            4 
 5010000    0.4500051   -8.5575687    694.26118  0.011547924 0.0098618822            3 
 5011000   0.45028635   -8.5483991    695.15553  0.011560492 0.0098587234            2 
 5012000   0.44144259   -8.5592049    695.14891  0.011558076 0.0098555663            3 
Loop time of 11829.1 on 48 procs for 5000000 steps with 4000 atoms

Performance: 73040.291 tau/day, 422.687 timesteps/s
99.4% CPU use with 48 MPI tasks x no OpenMP threads

MPI task timing breakdown:
Section |  min time  |  avg time  |  max time  |%varavg| %total
---------------------------------------------------------------
Pair    | 729.21     | 793.02     | 833.81     |  95.5 |  6.70
Neigh   | 77.702     | 80.753     | 85.696     |  18.2 |  0.68
Comm    | 760.05     | 804.7      | 881.11     | 108.2 |  6.80
Output  | 15.576     | 15.581     | 15.668     |   0.3 |  0.13
Modify  | 10007      | 10029      | 10048      |   9.1 | 84.78
Other   |            | 105.8      |            |       |  0.89

Nlocal:        83.3333 ave          91 max          76 min
Histogram: 1 1 7 3 13 7 8 3 4 1
Nghost:        2016.60 ave        2033 max        1997 min
Histogram: 3 3 3 6 5 4 8 8 4 4
Neighs:        13021.4 ave       14622 max       11645 min
Histogram: 2 1 6 7 9 15 5 1 0 2
FullNghs:      26043.2 ave       28538 max       23648 min
Histogram: 1 3 5 5 10 11 5 4 3 1

Total # of neighbors = 1250076
Ave neighs/atom = 312.51900
Neighbor list builds = 267976
Dangerous builds = 0

#clear
#
#next RN
#
#jump SELF
Total wall time: 3:17:12
