
units lj                  # Use reduced LJ style units
atom_style atomic         # Uncharged point particles
atom_modify map hash      # Needed for indexing of clusters etc
                          # Used to be able to find where atoms are in relation to each other.

lattice fcc 1.0 spacing 1 1 1
Lattice spacing in x,y,z = 1.5874011 1.5874011 1.5874011
region box block 0 10 0 10 0 10 units lattice
create_box 2 box
Created orthogonal box = (0.0000000 0.0000000 0.0000000) to (15.874011 15.874011 15.874011)
  3 by 4 by 4 MPI processor grid
create_atoms 1 box
Created 4000 atoms
  using lattice units in orthogonal box = (0.0000000 0.0000000 0.0000000) to (15.874011 15.874011 15.874011)
  create_atoms CPU = 0.003 seconds
set type 1 type/fraction 2 0.52 78393
Setting atom values ...
  2077 settings made for type/fraction
mass 1 1.0
mass 2 1.0
pair_style lj/cut  3.5
pair_modify tail  yes
pair_coeff 1  1  1.0  1.0   # Intearaction between 1 and 1 set with epsilon = 1 and sigma = 1
pair_coeff 1  2  1.5  0.8
pair_coeff 2  2  0.5  0.88

write_data data.0
System init for write_data ...
Neighbor list info ...
  update every 1 steps, delay 10 steps, check yes
  max neighbors/atom: 2000, page size: 100000
  master list distance cutoff = 3.8
  ghost atom cutoff = 3.8
  binsize = 1.9, bins = 9 9 9
  1 neighbor lists, perpetual/occasional/extra = 1 0 0
  (1) pair lj/cut, perpetual
      attributes: half, newton on
      pair build: half/bin/atomonly/newton
      stencil: half/bin/3d
      bin: standard
WARNING: Not all mixed pair coeffs generated from mixing. Use write_data with 'pair ij' option to store all pair coeffs. (../write_data.cpp:312)


#############################
#   M E L T   S Y S T E M   #
#############################

velocity all create 2.4 9622624 mom yes dist gaussian # Assign velocities
                                                    # Temperature 2.4, random number seed, zero linear momentum
                                                                                # Gaussian distribution

timestep 0.002   # simulation timestep
thermo 1000       # output thermodynamic data every 1000 steps bf 100

# Define a fix  in this case with index 1 applied to all
# particles in the simulation. This fix is for simulations
# in the anisotropic NPT ensemble. Note that we use the MTK
# correction.
fix 1 all npt temp 2.4 2.4 0.1 iso 5.68 5.68 0.5 mtk yes tchain 5 pchain 5 # Use NPT ensemble
                                                                         # Set temperature and pressure and damping
                                                                         # Numbers of thermostats in chain and in barostat
run 10000          # run for 10000 steps
Per MPI rank memory allocation (min/avg/max) = 3.642 | 3.644 | 3.648 Mbytes
Step Temp E_pair E_mol TotEng Press Volume 
       0          2.4   -5.1913276            0   -1.5922276   -4.1950394         4000 
    1000    2.4212488   -4.8682237            0   -1.2372585    5.6261444    3664.7999 
    2000    2.4253492   -4.8709124            0   -1.2337982    6.0434905    3631.0605 
    3000    2.3976066   -4.8153526            0   -1.2198418      5.53577    3698.4522 
    4000      2.35311   -4.8081786            0    -1.279396    6.0245718    3656.9011 
    5000    2.3843091   -4.8355889            0   -1.2600194    5.1419186    3718.2926 
    6000     2.442016   -4.8602508            0   -1.1981425    5.6833819    3664.9726 
    7000      2.43391   -4.8327522            0      -1.1828    5.5771244    3689.5481 
    8000    2.3971633   -4.9656117            0   -1.3707657    5.2332585    3649.1909 
    9000    2.3913161   -4.7404366            0   -1.1543592    6.0745223    3688.6373 
   10000    2.3904517   -4.8053398            0   -1.2205587    5.6024454    3695.7766 
Loop time of 2.65379 on 48 procs for 10000 steps with 4000 atoms

Performance: 651143.629 tau/day, 3768.192 timesteps/s
99.6% CPU use with 48 MPI tasks x no OpenMP threads

MPI task timing breakdown:
Section |  min time  |  avg time  |  max time  |%varavg| %total
---------------------------------------------------------------
Pair    | 1.1979     | 1.2628     | 1.3584     |   2.8 | 47.58
Neigh   | 0.21607    | 0.22512    | 0.24397    |   1.0 |  8.48
Comm    | 0.75954    | 0.8894     | 0.94732    |   3.7 | 33.51
Output  | 0.00024529 | 0.00025152 | 0.00031615 |   0.0 |  0.01
Modify  | 0.23809    | 0.26046    | 0.27964    |   2.5 |  9.81
Other   |            | 0.01576    |            |       |  0.59

Nlocal:        83.3333 ave          92 max          77 min
Histogram: 7 1 10 1 9 7 6 2 3 2
Nghost:        1733.40 ave        1763 max        1705 min
Histogram: 2 5 5 4 9 6 7 5 3 2
Neighs:        10325.5 ave       12019 max        9106 min
Histogram: 4 6 9 3 8 6 6 2 3 1

Total # of neighbors = 495622
Ave neighs/atom = 123.90550
Neighbor list builds = 907
Dangerous builds = 220

# Equilibrate just above the melting temperature to avoid step fn in T

fix 1 all npt temp 1.25 1.25 0.1 iso 5.68 5.68 0.5 mtk yes tchain 5 pchain 5
run 2000
Per MPI rank memory allocation (min/avg/max) = 3.644 | 3.646 | 3.649 Mbytes
Step Temp E_pair E_mol TotEng Press Volume 
   10000    2.3904517   -4.8053398            0   -1.2205587    5.6024454    3695.7766 
   11000    1.2588406   -6.9291845            0   -5.0413956    5.8211512    2855.5331 
   12000     1.277977   -7.0173309            0   -5.1008447    5.7886534    2836.3685 
Loop time of 0.659815 on 48 procs for 2000 steps with 4000 atoms

Performance: 523783.328 tau/day, 3031.154 timesteps/s
99.6% CPU use with 48 MPI tasks x no OpenMP threads

MPI task timing breakdown:
Section |  min time  |  avg time  |  max time  |%varavg| %total
---------------------------------------------------------------
Pair    | 0.2864     | 0.32148    | 0.35741    |   2.5 | 48.72
Neigh   | 0.042009   | 0.044435   | 0.048745   |   0.6 |  6.73
Comm    | 0.2029     | 0.24278    | 0.28423    |   3.4 | 36.80
Output  | 5.2434e-05 | 5.4045e-05 | 7.8214e-05 |   0.0 |  0.01
Modify  | 0.041611   | 0.046172   | 0.050581   |   1.2 |  7.00
Other   |            | 0.004889   |            |       |  0.74

Nlocal:        83.3333 ave          90 max          74 min
Histogram: 1 1 1 2 8 9 17 2 6 1
Nghost:        2067.48 ave        2091 max        2050 min
Histogram: 7 3 6 4 12 6 3 2 2 3
Neighs:        13454.0 ave       15075 max       11797 min
Histogram: 2 1 6 5 8 13 6 3 2 2

Total # of neighbors = 645794
Ave neighs/atom = 161.44850
Neighbor list builds = 145
Dangerous builds = 17

#############################
# L I N E A R  Q U E N C H  #
#############################

# Define solid atoms. This closely follows ten Wolde  Ruiz-Montero and Frenkel  Faraday Discuss  1996  104  93-110
# Compute components of the per-atom q6 vector
compute q6 all orientorder/atom degrees 1 6 components 6 nnn NULL cutoff 1.3 # compute the Q6 parameter.
                                                                             # Use all neighbours within 1.3 unit cell.

# get number of connections
compute coord_number all coord/atom orientorder q6 0.5

# An atom is solid if it has 8 or more connections (of a possible 14)
variable is_solid atom c_coord_number>=8
group solid dynamic all var is_solid    # Must be dynamic to update
dynamic group solid defined

# do clustering
compute cluster solid cluster/atom 1.3 # Create a cluster where all atoms within are solid and max 1.3 units from another member

# define chunks one chunk per cluster
compute clus_chunks solid chunk/atom c_cluster nchunk every compress yes  # Says which atoms are in which chunk

# count the size of each chunk
compute size_chunks solid property/chunk clus_chunks count


# Find the maximum entry in the vector of chunk sizes
variable max_n equal max(c_size_chunks)


# Thermo style which includes this variable
# thermo_style custom step temp pe vol v_max_n

thermo ${N}  # Print the thermo information every 100 steps
thermo 1000  

# Reset the npt fix at a lower temperature (below freezing)
fix 1  all npt temp  ${temp} ${temp}  0.1  iso  5.68  5.68  0.5  mtk yes tchain  5  pchain  5
fix 1  all npt temp  0.45 ${temp}  0.1  iso  5.68  5.68  0.5  mtk yes tchain  5  pchain  5
fix 1  all npt temp  0.45 0.45  0.1  iso  5.68  5.68  0.5  mtk yes tchain  5  pchain  5

dump dmp2 all dcd ${N} traj.dcd
dump dmp2 all dcd 1000 traj.dcd


compute msd all msd com yes
variable twopoint equal c_msd[4]/6/(step*dt+1.0e-6)
fix 9 all vector 10 c_msd[4]
variable fit equal slope(f_9)/6/(10*dt)
thermo_style custom step temp pe c_msd[4] v_twopoint v_fit v_max_n

fix 1 all npt temp 1.25 ${temp} 0.1 iso 5.68 5.68 0.5 mtk yes tchain 5 pchain 5
fix 1 all npt temp 1.25 0.45 0.1 iso 5.68 5.68 0.5 mtk yes tchain 5 pchain 5
run 2000000 # 5000000  # Run for this many steps
Neighbor list info ...
  update every 1 steps, delay 10 steps, check yes
  max neighbors/atom: 2000, page size: 100000
  master list distance cutoff = 3.8
  ghost atom cutoff = 3.8
  binsize = 1.9, bins = 8 8 8
  4 neighbor lists, perpetual/occasional/extra = 1 3 0
  (1) pair lj/cut, perpetual
      attributes: half, newton on
      pair build: half/bin/atomonly/newton
      stencil: half/bin/3d
      bin: standard
  (2) compute orientorder/atom, occasional
      attributes: full, newton on
      pair build: full/bin/atomonly
      stencil: full/bin/3d
      bin: standard
  (3) compute coord/atom, occasional
      attributes: full, newton on
      pair build: full/bin/atomonly
      stencil: full/bin/3d
      bin: standard
  (4) compute cluster/atom, occasional
      attributes: full, newton on
      pair build: full/bin/atomonly
      stencil: full/bin/3d
      bin: standard
Per MPI rank memory allocation (min/avg/max) = 9.841 | 9.845 | 9.848 Mbytes
Step Temp PotEng c_msd[4] v_twopoint v_fit v_max_n 
   12000     1.277977   -7.0173309 3.9443045e-34 2.7391003e-36 8.3333333e+20            2 
   13000    1.2614267   -7.0409914    0.4503548 0.0028868896  0.036678974            4 
   14000    1.2288594   -7.0650648   0.85534861 0.0050913606  0.034772552            7 
   15000     1.221604   -7.0548019    1.2796603 0.0071092237  0.034560626            2 
   16000    1.2313422   -7.0349314    1.6439492  0.008562235  0.033897314            1 
   17000    1.2401816   -7.0130921     2.080502  0.010198539  0.033657033            2 
   18000    1.2518402   -7.0731299    2.4859648  0.011509096  0.033695823            2 
   19000    1.2519038   -7.0119172    2.8257935  0.012393831  0.033498409            3 
   20000    1.2394769   -7.1236445    3.2276515  0.013448547  0.033214067            3 
   21000      1.24626   -7.0989178     3.525894  0.013991642  0.032779327            1 
   22000     1.247617   -7.0808058    3.8983557  0.014766498  0.032332655            2 
   23000    1.2660502   -7.0674446    4.3301716  0.015689027  0.032130364            2 
   24000    1.2304766   -7.0278255    4.7140162  0.016368112   0.03210196            4 
   25000    1.2416823   -7.0486266    5.0043568  0.016681189  0.031939152            3 
   26000    1.2700479   -7.0691701    5.3031103  0.016997148   0.03164302            4 
   27000    1.2279475   -7.1146041    5.6916668  0.017566872  0.031410324            2 
   28000    1.2482869   -7.0876374    6.0876824  0.018118102   0.03128138            2 
   29000    1.2442551   -7.0763363    6.4790302  0.018617903  0.031185156            2 
   30000    1.2347851   -7.0471755     6.799291  0.018886919  0.031093672            1 
   31000    1.2260719   -7.0966532    7.2154696  0.019396423    0.0310391            4 
   32000    1.2300284   -7.0767993    7.7129147  0.020085715  0.031089448            2 
   33000    1.2481898   -7.0727603    8.1780558  0.020651656  0.031229747            5 
   34000    1.2423132    -7.036537    8.5647686   0.02099208  0.031387699            1 
   35000     1.250544   -7.0894913    8.8711051  0.021121678  0.031515649            1 
   36000    1.2232661   -7.1151223    9.3161759  0.021565222  0.031558619            1 
   37000    1.2469382   -7.0381642    9.7844325   0.02203701  0.031654949            2 
   38000    1.2565823   -7.0692075    10.186677  0.022339204  0.031767773            3 
   39000    1.2140048   -7.0974399    10.436262  0.022299705   0.03183879            3 
   40000    1.2851094   -7.0974788    10.715295  0.022323531  0.031814445            4 
   41000    1.2096079   -7.0686058    11.008427  0.022374851  0.031743823            2 
   42000     1.240283   -7.1092594    11.366922  0.022553416  0.031663162            2 
   43000    1.2308674    -7.080759    11.836536  0.022939022  0.031610983            3 
   44000    1.2386534   -7.0692795    12.318412  0.023330325  0.031620545            4 
   45000    1.2517586    -7.105083    12.623846  0.023377491  0.031618278            1 
   46000    1.2533439   -7.1187184    12.972375  0.023500678  0.031587296            2 
   47000    1.2219606   -7.0590798    13.437011  0.023824486  0.031579453            2 
   48000    1.2299887   -7.0664416    13.827626  0.024006295  0.031600952            3 
   49000    1.2306079   -7.0862287    14.116448  0.024007564  0.031603025            2 
   50000    1.2205448   -7.0846102    14.495431  0.024159052  0.031593154            1 
   51000    1.2395551   -7.0920295    14.956655  0.024438979  0.031596262            2 
   52000     1.252197   -7.0892297    15.348535   0.02459701  0.031596022            3 
   53000    1.2319062   -7.0742142    15.755521  0.024772832  0.031604907            4 
   54000    1.2218184   -7.1103138    16.149292  0.024921747  0.031625359            2 
   55000    1.2228317   -7.0827026     16.51938  0.025029363  0.031650957            2 
   56000    1.2573799   -7.0869363    16.880525  0.025119828   0.03167258            1 
   57000    1.2168669   -7.1286133    17.173361  0.025107253  0.031678628            1 
   58000    1.2254858   -7.0604939    17.684693  0.025409041  0.031693362            1 
   59000    1.2460107   -7.1125081    18.178485  0.025675826  0.031721948            1 
   60000    1.2375816   -7.0858111    18.584785  0.025812201  0.031759351            4 
   61000    1.2365301   -7.0923738     18.92786  0.025857732  0.031783869            2 
   62000     1.234824    -7.137675    19.426971   0.02611152  0.031823854            2 
   63000    1.2023993   -7.1219807    19.766565   0.02614625   0.03187354            4 
   64000    1.2391755   -7.1085775    20.199524  0.026301464  0.031921979            2 
   65000    1.2556683   -7.0833705     20.51091  0.026296039   0.03195186            2 
   66000    1.2475703   -7.1003744    21.060003  0.026590913   0.03198277            1 
   67000    1.2459468   -7.1277468    21.487893  0.026726235  0.032032014            3 
   68000    1.2229568   -7.1308229    21.936342  0.026882771  0.032083445            2 
   69000     1.188862   -7.1125359    22.333514  0.026972842   0.03214298            2 
   70000    1.2326432   -7.1640138     22.61072  0.026917524  0.032180852            5 
   71000    1.2356853   -7.1011764    22.991653  0.026985508  0.032209528            2 
   72000    1.2198694   -7.1501312    23.376834   0.02705652  0.032242665            2 
   73000    1.2336628   -7.1171815    23.947875  0.027337757  0.032277451            2 
   74000    1.2274468   -7.0989235    24.314604   0.02738131  0.032318773            2 
   75000    1.2141388    -7.130879    24.776398   0.02752933  0.032363883            1 
   76000    1.2127172   -7.1629803    25.062113  0.027480387  0.032402235            2 
   77000    1.2397924   -7.1610441    25.494709  0.027591676  0.032430355            2 
   78000      1.22483   -7.1471766    25.849263  0.027616734  0.032456516            1 
   79000    1.2428373   -7.1384563    26.088722  0.027519749  0.032474952            2 
   80000    1.2167841   -7.0916671    26.587875  0.027695703    0.0324879            1 
   81000    1.2201718   -7.1018279    27.025262  0.027803767  0.032501892            3 
   82000    1.2667263   -7.1685519    27.153643  0.027595165  0.032510555            1 
   83000    1.2278128   -7.1257682    27.761817   0.02787331  0.032525672            1 
   84000    1.2347291   -7.1145745     28.27879  0.028054355  0.032546379            4 
   85000     1.214014   -7.1387095    28.704981  0.028142138  0.032573152            2 
   86000    1.2432934   -7.1530756    29.086897  0.028184977  0.032601968            2 
   87000    1.2138317   -7.1450168    29.405999  0.028166666  0.032627385            3 
   88000    1.2137842   -7.1205967    29.764523  0.028186102  0.032641762            3 
   89000    1.2187098    -7.120566    30.004151  0.028093774  0.032644324            2 
   90000    1.2348933   -7.1421442    30.372123  0.028122336  0.032640521            3 
   91000    1.2378014   -7.1498818    30.755126  0.028164035  0.032635088            1 
   92000    1.2308368   -7.1845016    31.000358  0.028080035  0.032627114            1 
   93000    1.2270082    -7.088263    31.516302  0.028240414  0.032616918            6 
   94000    1.2393442   -7.1579186       31.712  0.028113475  0.032608552            3 
   95000    1.1997154    -7.124913     32.22545  0.028267938  0.032601815            1 
   96000    1.2151938   -7.0976182    32.818008  0.028487854  0.032598389            2 
   97000    1.1980789   -7.1649351    33.179947  0.028505109  0.032601728            3 
   98000    1.2091781   -7.0808219    33.675357  0.028635508  0.032600953            2 
   99000    1.1722217   -7.1028444     33.92641  0.028557584  0.032601888            1 
  100000    1.2283541   -7.1763299    34.301296  0.028584413  0.032602658            1 
  101000    1.2012355   -7.1353767    34.772391  0.028690092  0.032605105            2 
  102000     1.230399   -7.1720168    35.063602  0.028646733  0.032605381            1 
  103000     1.221885    -7.212295    35.123221  0.028416846  0.032595449            1 
  104000    1.2109036   -7.1799688    35.831424  0.028711077  0.032584092            3 
  105000    1.2106665   -7.1105352    36.306677  0.028814823  0.032583178            7 
  106000    1.2108864   -7.1317313    36.814811  0.028942462   0.03258473            2 
  107000    1.1772118   -7.1640589    37.070435  0.028871055  0.032585992            3 
  108000    1.2086413   -7.1337836     37.48065  0.028920255  0.032589979            3 
  109000    1.2027466   -7.1405817    37.803114  0.028901463  0.032589448            3 
  110000    1.2190377   -7.1988309    38.155069  0.028905355  0.032588944            1 
  111000    1.1794436   -7.1404669    38.585995  0.028968464  0.032585889            2 
  112000     1.198386   -7.1747556     38.96502  0.028991831  0.032582833            2 
  113000    1.2183707    -7.189731    39.149861  0.028871579  0.032576546            3 
  114000    1.1895136   -7.1497142    39.667106  0.028996422  0.032569878            5 
  115000    1.2045173   -7.1779307    40.120552  0.029072863  0.032563792            9 
  116000    1.2024763   -7.1804255    40.408484  0.029029083  0.032559736            2 
  117000    1.2010174   -7.1672478     40.80462   0.02906312  0.032555051            2 
  118000     1.199123   -7.1644947    41.130072  0.029046661  0.032548623            4 
  119000     1.232043   -7.1789125    41.586326  0.029122077  0.032538325            3 
  120000    1.2168159   -7.1756481    41.953514  0.029134385  0.032529547            2 
  121000    1.1967787    -7.139318    42.248705  0.029096904  0.032514567            2 
  122000    1.2010901    -7.188836    42.484553  0.029019503  0.032501462            2 
  123000    1.2066029   -7.1463445    42.825707  0.029014706  0.032489919            1 
  124000    1.1995194   -7.1795567    43.235876  0.029056368  0.032477143            1 
  125000    1.1707724   -7.1799034     43.19147  0.028794313  0.032454536            2 
  126000     1.220661   -7.1800651    43.445327  0.028733682  0.032428479            1 
  127000    1.1792798   -7.1680198    44.263261  0.029044134  0.032406666            2 
  128000    1.1957177   -7.1760386    44.617498   0.02904785  0.032389066            3 
  129000     1.219057   -7.1924783     44.74405  0.028904425  0.032372953            2 
  130000     1.205962   -7.1580244    45.569426   0.02921117  0.032358335            3 
  131000    1.2020546   -7.1822888      45.8271  0.029152099  0.032347957            4 
  132000    1.1902694   -7.2100178    45.810794  0.028920955   0.03233201            1 
  133000    1.2028608    -7.215781    46.130108  0.028903576  0.032307868            2 
  134000    1.1959245   -7.1763259    46.337528  0.028816871  0.032278323            3 
  135000    1.1971486   -7.1726433     46.95636  0.028985407  0.032250841            2 
  136000    1.1891412   -7.1770082    47.342467  0.029008864  0.032229006            2 
  137000    1.2016934   -7.1881323    47.737396  0.029037346  0.032208155            2 
  138000     1.220204   -7.1967586    48.157584  0.029080667  0.032186986            3 
  139000    1.1930613   -7.2125683    48.667804   0.02917734  0.032169225            1 
  140000    1.2228454   -7.1611381    48.891105  0.029101848  0.032153106            8 
  141000    1.1993656   -7.1930565    49.357964  0.029171373  0.032137955            5 
  142000    1.2279969    -7.201636    49.828841  0.029242277  0.032123609            2 
  143000    1.1990194    -7.175505    50.001051  0.029138141  0.032104652            2 
  144000    1.1837907   -7.1973714    50.179078  0.029038818  0.032084178            6 
  145000    1.2159287   -7.1990019    50.319712  0.028919375  0.032059715            3 
  146000    1.2054427   -7.2149179    50.598601   0.02888048  0.032029559            3 
  147000    1.1931687   -7.2122956    50.861642   0.02883313  0.031997666            6 
  148000    1.1865941   -7.1380436    51.515036  0.029006214  0.031968441            1 
  149000    1.1763334   -7.1893133     51.95241  0.029056157  0.031940163            3 
  150000     1.162954    -7.175258    52.019868  0.028899927  0.031914342            3 
  151000    1.1968968   -7.1830579    52.484562   0.02896499  0.031887436            2 
  152000    1.1797909   -7.2152293    52.685116  0.028884384  0.031862098            2 
  153000    1.1547643   -7.2004535    53.079519  0.028910413  0.031836036            2 
  154000    1.1862535   -7.1644829    53.469594  0.028933763  0.031809791            1 
  155000    1.2033387   -7.2073756    53.717247   0.02888024  0.031782639            2 
  156000    1.1705831   -7.1975063    54.149696  0.028926119  0.031755606            7 
  157000    1.1880034   -7.2131566    54.356273  0.028851525  0.031729003            5 
  158000    1.2057666   -7.2224277    54.824135  0.028915683  0.031700676            1 
  159000    1.1790608   -7.2363057    55.080331  0.028868098  0.031672836            3 
  160000    1.2031746   -7.1936382    55.383307  0.028845472  0.031647114            3 
  161000    1.1987797   -7.2264194    55.571887  0.028763916  0.031617341            1 
  162000    1.1809012   -7.2477791    55.510918  0.028554999  0.031583916            2 
  163000    1.1792911   -7.1934356    55.840123   0.02854812  0.031547486            1 
  164000    1.1992008   -7.2142165    56.274774  0.028594905  0.031511627            2 
  165000    1.1796968   -7.2072695    56.673894  0.028623179  0.031477101            5 
  166000    1.1864873    -7.211725    57.136307  0.028682885  0.031444116            1 
  167000    1.1816301   -7.2029048    57.724091  0.028804436  0.031414101            4 
  168000    1.2068894   -7.1788972    57.874462   0.02870757  0.031383704            1 
  169000    1.1934977   -7.2370438    58.103954  0.028650865  0.031354243            2 
  170000    1.2040308   -7.1851897    58.755703  0.028801815  0.031325104            4 
  171000    1.1834347   -7.2389804    58.702799  0.028607602  0.031296193            2 
  172000    1.1841408   -7.2459272     58.97674  0.028574002  0.031265476            1 
  173000    1.1798514   -7.2297399    59.148385  0.028491515  0.031233431            6 
  174000    1.2082448   -7.2296411    59.166449  0.028336422  0.031198854            2 
  175000    1.1966405   -7.1892012    59.809059  0.028480504  0.031164266            2 
  176000    1.1965036   -7.2114345    60.145878  0.028478162  0.031129829            2 
  177000    1.1926487   -7.2025273    60.598475  0.028530355  0.031097741            2 
  178000    1.1967444    -7.225723    61.004293  0.028560062  0.031066797            2 
  179000    1.1942844   -7.2327752    61.093966  0.028442256  0.031035153            3 
  180000     1.168624   -7.2632601    61.441921  0.028445333  0.031002499            2 
  181000    1.1892285   -7.2697452    61.884259  0.028491832  0.030970817            2 
  182000    1.1842795   -7.2116739    62.308345  0.028529462    0.0309396            2 
  183000    1.1900939   -7.2685516    62.651658  0.028529899  0.030911009            1 
  184000    1.1699216   -7.2079548    62.953762  0.028511668  0.030884283            1 
  185000    1.1926876   -7.2771801    63.071285  0.028410488  0.030855702            2 
  186000     1.210669    -7.307687    63.539443  0.028467492   0.03082541            4 
  187000    1.1656218   -7.2595618    63.510483  0.028302354   0.03079539            3 
  188000    1.1682422   -7.2129453    64.164755  0.028441824  0.030767265            3 
  189000    1.1921783   -7.3091596    64.163346  0.028290717  0.030737671            2 
  190000     1.175119   -7.2558564    64.381937  0.028237692  0.030709246            1 
  191000    1.1842405   -7.2585265    64.925096  0.028326831  0.030678656            3 
  192000    1.1623913   -7.2649987    65.475285  0.028418092  0.030649872            4 
  193000    1.2011701   -7.2764069    65.446516  0.028258427  0.030622404            4 
  194000    1.1480883   -7.2651649     65.91105  0.028312307  0.030593261            1 
  195000    1.1854966   -7.2220451    66.704831  0.028506338  0.030566468            2 
  196000    1.1832348   -7.2992861    66.621363  0.028325409  0.030541467            2 
  197000    1.1827545   -7.2384525    67.041593  0.028359388  0.030517146            2 
  198000    1.1642437   -7.2828655    67.312695  0.028330259  0.030490967            2 
  199000    1.1707581   -7.2929839    67.494722  0.028264121  0.030463951            3 
  200000    1.1724896   -7.2402886    67.835344  0.028264726  0.030436045            3 
  201000    1.1692262   -7.2207598    68.180246    0.0282671  0.030405978            8 
  202000    1.1666182   -7.2545119    68.272892  0.028165385  0.030375089            3 
  203000    1.1394311   -7.3026058    68.644187  0.028179059     0.030345            2 
  204000    1.1497596   -7.2436378    68.920409  0.028153762  0.030314947            2 
  205000    1.1959201   -7.2407139    69.607014  0.028295534  0.030286667            2 
  206000    1.1994687   -7.2770013    69.644539  0.028173357  0.030259847            2 
  207000    1.1865526   -7.2734082    70.295684   0.02829939  0.030234976            5 
  208000     1.169932   -7.2818576    70.339758  0.028180993  0.030209828            2 
  209000    1.1697291   -7.2386584    70.999461  0.028309195  0.030185097            1 
  210000    1.1958201   -7.2696153    71.163797  0.028239602  0.030160476            2 
  211000    1.1825942   -7.2141752    71.294506  0.028157388  0.030136648            2 
  212000    1.1823062   -7.2499064    71.410656  0.028070226  0.030109616            2 
  213000    1.1887507   -7.2589454    71.644882  0.028030079  0.030080978            2 
  214000    1.1779708   -7.3006435    72.025506  0.028047315   0.03005299            6 
  215000    1.1793658   -7.2861251    72.649604  0.028158761  0.030025994            3 
  216000    1.1587767   -7.2420701    72.725981  0.028057863  0.029999589            3 
  217000    1.1711182   -7.2799786    72.827316  0.027967479  0.029972208            4 
  218000    1.1832762   -7.2657997    73.181311  0.027974507  0.029943481            2 
  219000    1.1586714   -7.2822688    73.449427  0.027948793  0.029915452            2 
  220000    1.1709794   -7.2856769    73.913914  0.027997695  0.029890728            3 
  221000    1.1576471   -7.3053266    74.440077   0.02806941  0.029866888            3 
  222000    1.1715434   -7.2712876    74.781022  0.028070954  0.029841834            2 
  223000    1.1406568   -7.2443945    75.176847  0.028092992  0.029818844            3 
  224000    1.1647024   -7.2437918    75.535027  0.028100829  0.029798512            2 
  225000    1.1562871   -7.2733805    75.772413  0.028063857  0.029776158            3 
  226000     1.173875   -7.2281183    76.466848   0.02819574  0.029754788            2 
  227000    1.1705768   -7.2667396    76.283486  0.028004216  0.029733392            1 
  228000    1.1598298   -7.2594182    76.553294  0.027980005  0.029708984            2 
  229000    1.1853185   -7.2797427    77.075517  0.028047859   0.02968625            1 
  230000     1.130324   -7.2130707    77.589828  0.028112256  0.029663609            8 
  231000    1.1735351   -7.2329991    77.774711  0.028057255   0.02964266            3 
  232000    1.1837121   -7.3092928    78.279203   0.02811753  0.029621086            5 
  233000    1.1836244   -7.3298046     78.13227  0.027944303  0.029598876            2 
  234000    1.1739949   -7.3364819    78.349023  0.027902074  0.029575325            3 
  235000     1.157391   -7.2634833    78.980357  0.028007219   0.02955296            5 
  236000    1.1662563    -7.317877    78.721078  0.027796991  0.029528599            1 
  237000    1.1589642   -7.3007092    79.055241  0.027797201  0.029503734            2 
  238000      1.15213   -7.2853618    79.193912  0.027728961  0.029478716            2 
  239000    1.1662153   -7.2885847    79.671529  0.027779473  0.029452746            2 
  240000    1.1589663   -7.2472072    79.768941  0.027697549  0.029427268            1 
  241000    1.1624579   -7.2995508    80.091571  0.027694181  0.029400711            2 
  242000    1.1652039   -7.2976068    79.971145  0.027538273   0.02937433            4 
  243000    1.1361958   -7.2747787    80.737732  0.027687837  0.029348286            1 
  244000    1.1539636   -7.3082678    80.988036  0.027659848  0.029323082            2 
  245000    1.1642399   -7.2751096     81.54039  0.027734826  0.029298472            2 
  246000    1.1467005   -7.2670049    81.647026  0.027658206  0.029273001            2 
  247000    1.1507179   -7.2846994    81.887468  0.027627351  0.029247423            2 
  248000    1.1514925   -7.2937844     82.05122  0.027570974  0.029221447            2 
  249000    1.1577361   -7.3175483    82.115692  0.027481825  0.029193939            2 
  250000    1.1720984   -7.3154559    82.451129   0.02748371  0.029165354            3 
  251000    1.1631835   -7.2955043    82.524203  0.027398474  0.029138063            3 
  252000    1.1555401   -7.3362036     82.83856  0.027393704  0.029110961            2 
  253000    1.1546563   -7.3533146    83.104718  0.027373095  0.029083185            2 
  254000    1.1669039   -7.3293157    83.044711   0.02724564  0.029054382            2 
  255000    1.1068512    -7.285434    83.638997  0.027333006  0.029025226            5 
  256000    1.1573336   -7.2910187    83.764237  0.027267004  0.028997089            2 
  257000    1.1545458    -7.330165    84.066573  0.027258941  0.028966926            2 
  258000    1.1320661   -7.3351817    84.280321  0.027222326   0.02893705            2 
  259000     1.162473       -7.315     84.25403  0.027108761  0.028906893            1 
  260000    1.1613805   -7.3172885    84.758974  0.027166338  0.028876936            2 
  261000    1.1371655   -7.3178298    84.907901  0.027109802  0.028846298            1 
  262000    1.1272322   -7.2800008    85.690795  0.027255342  0.028817885            4 
  263000    1.1510967   -7.3343106    85.655014  0.027140372  0.028790451            4 
  264000    1.1510417   -7.3035118     86.48411  0.027299277  0.028763982            2 
  265000    1.1588251   -7.3423366    86.646257  0.027247251  0.028737603            2 
  266000    1.1613219   -7.3011328    87.378406  0.027374187  0.028712845            3 
  267000    1.1831838   -7.3632349    87.172742  0.027207472  0.028687712            2 
  268000    1.1472307   -7.3144602     87.77913  0.027294505  0.028664025            5 
  269000    1.1727775   -7.3125862    88.096451  0.027291342  0.028640537            5 
  270000    1.1460313   -7.3252806    88.050421  0.027176056  0.028618099            2 
  271000    1.1527874    -7.268205    89.055714  0.027384906  0.028595453            3 
  272000    1.1480701   -7.3491712    88.870234    0.0272274  0.028574244            2 
  273000    1.1529755   -7.3158692    89.345247  0.027272664  0.028551529            1 
  274000    1.1592235   -7.3360432    89.496878  0.027219245  0.028529187            4 
  275000    1.1219309   -7.3599024    89.938828   0.02725419  0.028506838            6 
  276000    1.1323004    -7.325137    90.164539  0.027223593  0.028484889            2 
  277000    1.1272448   -7.3662426    90.118401  0.027111432  0.028461923            2 
  278000    1.1478125   -7.3526716    90.442953  0.027111197  0.028437638            1 
  279000    1.1630603   -7.3697122    90.513318  0.027035041  0.028414859            2 
  280000    1.1405382   -7.3551806    91.254185  0.027158984  0.028391579            1 
  281000    1.1489811   -7.3189057     91.40946  0.027108381  0.028368262            2 
  282000    1.1312516   -7.3249352    91.518637  0.027044514  0.028346248            3 
  283000     1.138604   -7.3543413     91.61107  0.026976169   0.02832236            2 
  284000    1.1366938   -7.3589077    91.795877   0.02693541  0.028297635            1 
  285000    1.1242674   -7.3272481    91.953326  0.026886937  0.028273118            4 
  286000     1.136309   -7.2749018    92.698034  0.027009917  0.028248302            3 
  287000     1.141985   -7.3548333    92.171698  0.026762978  0.028223409            3 
  288000    1.1593494    -7.373289    92.451159  0.026750914  0.028197661            4 
  289000    1.1377409   -7.3473268    93.276959   0.02689647  0.028171774            3 
  290000    1.1480327   -7.3484288    93.141005  0.026764656   0.02814714            3 
  291000    1.1469882   -7.3535515    93.839594  0.026872736  0.028123204            3 
  292000    1.1237345   -7.3483296    94.237202  0.026894179  0.028100599            2 
  293000    1.1193663   -7.3529754    94.201464  0.026792225  0.028077458            1 
  294000    1.1493664   -7.3343484    94.463839  0.026775465  0.028052434            4 
  295000    1.1292153   -7.3837787    94.280644   0.02663295  0.028026979            4 
  296000    1.1614704   -7.3190356    95.000833   0.02674573  0.028001404            2 
  297000    1.1357802   -7.3781255    95.267369  0.026730463  0.027975774            3 
  298000    1.1276549   -7.3970432    95.159361   0.02661056  0.027951251            3 
  299000    1.1047868   -7.3952826    95.354475   0.02657594  0.027925884            1 
  300000    1.1347105   -7.3493625    95.998256  0.026666182  0.027900511            2 
  301000     1.110849   -7.3073305    96.328151  0.026668923  0.027875434            1 
  302000     1.142675   -7.3721162    96.079655  0.026512046  0.027850751            5 
  303000    1.1235887   -7.3601816    96.522458  0.026546331  0.027825037            4 
  304000    1.1608737   -7.3315266     96.96362   0.02657994  0.027799653            4 
  305000    1.1426012   -7.3452051    96.760736   0.02643736   0.02777428            3 
  306000    1.1183134   -7.3637254    97.491062  0.026549853  0.027748348            2 
  307000    1.1182457   -7.3468548    97.903516   0.02657533  0.027723626            2 
  308000    1.1159446   -7.3827315    97.949691   0.02650154  0.027698926            2 
  309000    1.1296049   -7.3268226     98.57766  0.026585129  0.027674356            1 
  310000    1.1214213   -7.3911965    98.394499  0.026450134  0.027648775            2 
  311000    1.1141691   -7.4059969    98.361687  0.026356293  0.027622609            3 
  312000    1.1022514   -7.4114553     98.64439  0.026347326  0.027597273            2 
  313000    1.1308274   -7.3911915    98.930074   0.02633921  0.027571388            2 
  314000    1.1304427    -7.400894    99.321102  0.026359103  0.027545467            6 
  315000    1.1320864   -7.3768152    99.509849  0.026325357  0.027520782            6 
  316000    1.1256023   -7.3785284    99.631157  0.026274039  0.027496276            2 
  317000    1.1280143   -7.3871583    100.15312  0.026328371  0.027471653            3 
  318000    1.1132547   -7.4092651    100.37441  0.026303565  0.027447678            2 
  319000    1.1264749   -7.3775078    100.92888  0.026365955   0.02742395            4 
  320000    1.1105879   -7.3369998    101.35603    0.0263948  0.027401721            3 
  321000    1.1390282   -7.3740908    101.84304  0.026439004  0.027379998            2 
  322000    1.1231613   -7.3902036    102.02239  0.026403311  0.027358287            3 
  323000    1.1143939   -7.4059393    102.17863  0.026361876  0.027336814            2 
  324000    1.1147792   -7.3550548     102.3663  0.026328781  0.027315013            2 
  325000    1.1129937   -7.3772522    102.55059  0.026295023  0.027293532            5 
  326000    1.1125273   -7.3851726    102.85768  0.026292864  0.027271912            1 
  327000    1.1236942   -7.3938962    103.32682  0.026332014  0.027251019            1 
  328000    1.1506387   -7.3434642    103.86838  0.026389325   0.02723106            1 
  329000    1.1155295   -7.3922522    103.54333  0.026226782  0.027210933            2 
  330000    1.1060938   -7.3527793    104.20274  0.026313824   0.02719082            1 
  331000     1.116303     -7.42459    103.99907   0.02618305  0.027171138            4 
  332000    1.1285516   -7.4265058    104.78828   0.02630228  0.027151666            2 
  333000    1.1269799   -7.3475383    105.62755   0.02643332  0.027133792            2 
  334000    1.1032315    -7.407538    105.74723   0.02638404  0.027116109            6 
  335000    1.1096404   -7.3581458    106.02757  0.026375017  0.027099216            2 
  336000    1.1507738   -7.3498241    106.40531  0.026390206  0.027082432            4 
  337000     1.120536    -7.417235    106.24899  0.026273242  0.027065033            2 
  338000    1.1219744   -7.4031316    106.67113  0.026299589  0.027047029            2 
  339000    1.1270679   -7.3706876    107.20346  0.026352866  0.027030073            3 
  340000    1.1135373   -7.4343872    107.11124  0.026252755   0.02701298            4 
  341000    1.1082823   -7.3758224    107.87302  0.026361932  0.026995471            2 
  342000    1.1164937    -7.373959    107.80273  0.026267721   0.02697856            1 
  343000     1.092932   -7.3858231    108.14094  0.026273309  0.026961408            3 
  344000    1.1003148   -7.3719043    108.50536  0.026285213  0.026943583            4 
  345000    1.0943207   -7.4013288    108.42626  0.026189918  0.026926194            2 
  346000    1.1341043   -7.3725206    108.68016  0.026175375  0.026907619            3 
  347000    1.1326294    -7.388957    109.12251  0.026206175   0.02688868            2 
  348000    1.1218494   -7.3880023    108.96105  0.026092206  0.026870079            3 
  349000    1.1251005   -7.4119386    109.19736  0.026073869  0.026850974            3 
  350000    1.0968887   -7.3933782    109.96916  0.026183134  0.026832979            3 
  351000    1.1363271   -7.3903053    110.12054  0.026144477  0.026815191            3 
  352000    1.0951511   -7.4055654    110.02278   0.02604706  0.026796927            4 
  353000    1.1243077    -7.413918    110.28847  0.026035994  0.026778323            2 
  354000    1.0939811   -7.4160688    110.37405  0.025982592  0.026759354            5 
  355000    1.0973624     -7.41967    110.60997  0.025964781  0.026738882            4 
  356000    1.1131281   -7.3829471    110.54278  0.025876119  0.026718325            6 
  357000    1.1118455   -7.4042682    110.74663   0.02585122  0.026698107            1 
  358000    1.0999638   -7.3885035    110.83909  0.025800534  0.026677414            5 
  359000    1.1048555   -7.3964799    111.46317  0.025873531  0.026657333            2 
  360000    1.1177501   -7.4198349    111.63015  0.025840313  0.026636535            2 
  361000    1.1064079    -7.451622    111.66672  0.025777174  0.026616177            2 
  362000    1.1217827   -7.4299189    111.34408  0.025631694  0.026594509            2 
  363000    1.1037596     -7.38585    111.70356  0.025643608  0.026571911            2 
  364000    1.1291073   -7.4417173    111.81476  0.025598618  0.026549924            2 
  365000    1.1115676   -7.4341458    112.21652   0.02562021  0.026528764            3 
  366000      1.12225    -7.403524    112.70985  0.025662533  0.026506901            2 
  367000    1.1215009    -7.470839    112.37389  0.025516324   0.02648452            4 
  368000    1.1019194   -7.4386594    112.80645  0.025544938  0.026462501            3 
  369000    1.1053283    -7.417945    113.09243  0.025540297  0.026439446            4 
  370000    1.1111557   -7.4450582    112.92556  0.025433686  0.026416774            6 
  371000    1.1358023   -7.4568424    113.41573  0.025475232   0.02639389            2 
  372000    1.1176104   -7.4549025    113.49213  0.025423863  0.026370878            3 
  373000    1.1139575   -7.4098018    114.15138  0.025502989  0.026349319            3 
  374000     1.135055   -7.4461018    113.89992   0.02537877  0.026327059            3 
  375000    1.1012503    -7.426031    114.13041  0.025362314  0.026304156            2 
  376000     1.117684   -7.4107415    114.85893  0.025456323  0.026281184            4 
  377000    1.0914377   -7.4660749    114.67131  0.025347327  0.026258692            4 
  378000    1.1109788   -7.4312936    115.14625  0.025384975   0.02623592            2 
  379000    1.1329492   -7.4367002    114.99606  0.025284974  0.026213058            3 
  380000    1.1117421   -7.4244847    115.42789  0.025313133  0.026190367            2 
  381000    1.0785443   -7.4315732    115.44302  0.025250005  0.026167389            3 
  382000    1.0995297   -7.4595021    115.67196  0.025233848  0.026144407            3 
  383000     1.124204   -7.4573431      115.951  0.025228677  0.026121801            1 
  384000    1.0973543   -7.4154013    116.48982  0.025279909   0.02609898            2 
  385000    1.1132537   -7.4242202    116.48493  0.025213187  0.026076542            2 
  386000    1.0886197   -7.4319698    116.74371  0.025203737  0.026054671            6 
  387000    1.1031309   -7.4458242    116.65934  0.025120444  0.026032042            1 
  388000    1.1114025   -7.4220189    117.09549  0.025149374  0.026009507            2 
  389000    1.0931267    -7.483094    117.31897  0.025132599  0.025987102            2 
  390000    1.0861229    -7.469134    117.48259  0.025103118   0.02596455            3 
  391000    1.0571736   -7.4784876    118.03233  0.025156081  0.025943201            3 
  392000    1.0778799   -7.4793376    117.78533  0.025039398  0.025921397            2 
  393000    1.1132409   -7.4351294    118.46653   0.02512013  0.025899933            2 
  394000    1.1028077   -7.4203204    118.88543  0.025144972  0.025878805            2 
  395000     1.082235   -7.4649643      118.796  0.025062448   0.02585761            1 
  396000    1.0728819   -7.4936738    118.89566   0.02502013  0.025836021            2 
  397000    1.1193811   -7.4549186    119.56143  0.025096857  0.025813304            3 
  398000    1.0782394   -7.4677587    118.95987  0.024907845  0.025791519            2 
  399000    1.1123541   -7.4522574    119.68891  0.024997683  0.025769706            4 
  400000    1.1074133   -7.4715227    119.85659  0.024970123  0.025748668            1 
  401000    1.0967541   -7.4879115    120.20368  0.024979984  0.025726564            4 
  402000    1.0687662   -7.4768355    120.24456  0.024926318   0.02570488            3 
  403000    1.0880815    -7.480287    120.98414  0.025017398   0.02568404            6 
  404000    1.1093019   -7.4298637    121.16184  0.024992129  0.025663492           10 
  405000    1.1230537   -7.4766295    121.25378  0.024949337  0.025643676            7 
  406000    1.0946065   -7.4893644    121.86493  0.025013327  0.025623941            1 
  407000    1.1015303   -7.4867019    122.20863  0.025022241  0.025604713            7 
  408000    1.1014317   -7.4831947    122.52325  0.025025174  0.025586136            3 
  409000    1.0813252   -7.5106597    122.54423  0.024968261  0.025568044            4 
  410000    1.0896826   -7.4623476    122.83691  0.024966852  0.025549795            4 
  411000    1.0970909   -7.4494748    123.32232  0.025004525  0.025531894            6 
  412000    1.0815495   -7.4237534    123.77348  0.025035089  0.025514019            4 
  413000    1.0805999   -7.5280771    123.41595   0.02490233  0.025495191            2 
  414000    1.0653163   -7.4744796    123.71105  0.024901581  0.025476181            6 
  415000    1.0771522   -7.4729474    123.95135   0.02488983  0.025457566            4 
  416000    1.0994356   -7.4424297    124.58316  0.024956563  0.025439505            7 
  417000    1.0987028   -7.4607097     124.6755  0.024915167  0.025421353            2 
  418000    1.0699671   -7.5083719    124.36214   0.02479309   0.02540242            3 
  419000     1.074209   -7.5149839    124.40783  0.024743006  0.025382932            2 
  420000    1.1014437   -7.4969817    124.88451  0.024778672   0.02536303            4 
  421000     1.116737   -7.4923739    125.20214  0.024782688  0.025344209            1 
  422000    1.0880234    -7.490171    125.33105  0.024749417  0.025325286            4 
  423000    1.0853255   -7.5057068    125.96065  0.024814943  0.025306538            3 
  424000    1.1023562   -7.4985085    125.72437  0.024709978  0.025287483            2 
  425000    1.0894539   -7.4789452    126.14118  0.024733564  0.025268659            3 
  426000    1.0784154   -7.4652159     126.2808  0.024702818  0.025249566            2 
  427000     1.099705   -7.5010828     125.9115  0.024572892  0.025230145            3 
  428000    1.0733609   -7.5099647    126.02439  0.024537459   0.02521009            2 
  429000    1.0755406   -7.5227646    126.67587  0.024606813  0.025190106            2 
  430000    1.0795284   -7.5162711    127.26622  0.024663997  0.025171147            1 
  431000    1.0768423   -7.4749469    127.47249  0.024646654  0.025152409            4 
  432000    1.0828895   -7.4761196    127.69357  0.024632248  0.025133709            2 
  433000    1.0740824   -7.4586089    127.97796  0.024630092   0.02511535            3 
  434000    1.0864483   -7.4396218    128.32903   0.02464075  0.025097082            5 
  435000    1.0885279   -7.5469688     128.3223  0.024582815  0.025078689            3 
  436000    1.0595778   -7.5026014    128.11325  0.024486478  0.025060017            2 
  437000    1.0580335   -7.4844652    128.63535  0.024530005  0.025040594            3 
  438000    1.0783864   -7.4708948    128.56255   0.02446015  0.025021373            4 
  439000     1.082398   -7.4800298    128.65954  0.024422844  0.025002317            4 
  440000    1.0680358   -7.5127787    129.15441  0.024461062  0.024982889            9 
  441000     1.064503   -7.5425047    128.65479  0.024311184  0.024962559            6 
  442000    1.0814719   -7.5269384    129.25119  0.024368625  0.024942673            2 
  443000    1.0543948   -7.5283616    129.57352  0.024374251  0.024923234            3 
  444000    1.0656519   -7.5103442     129.4546  0.024297035  0.024903909            3 
  445000    1.0707484   -7.5035081    130.02004  0.024348322  0.024884838            2 
  446000    1.0654749    -7.560129    129.41391  0.024180477  0.024865084            2 
  447000    1.0983162    -7.501129    130.28986  0.024289682  0.024845203            4 
  448000    1.0742284   -7.5025603    130.25861  0.024229652  0.024824897            5 
  449000     1.095378   -7.5467103    130.34769  0.024192222  0.024804892            3 
  450000    1.0698301   -7.5198556    130.65717  0.024195772  0.024785396            2 
  451000    1.0528481   -7.5178775    131.02165   0.02420947  0.024765865            2 
  452000    1.0917777   -7.5486335    130.94449  0.024141683   0.02474632            2 
  453000    1.0665416   -7.5355689    131.27304   0.02414883  0.024726387            4 
  454000    1.0669758   -7.5339118    131.79921  0.024192218  0.024706763            7 
  455000     1.064645   -7.5420392    131.69495  0.024119955  0.024687609            2 
  456000    1.0836191   -7.5155173    132.15858  0.024151786  0.024668232            3 
  457000    1.0524877   -7.5662152    132.16273  0.024099695   0.02464898            2 
  458000    1.0835346   -7.5316238    132.56789  0.024120796  0.024629187            2 
  459000    1.0637372   -7.5470024    132.73911   0.02409933  0.024609849            2 
  460000    1.0832287   -7.5394483    133.05034  0.024103323  0.024590799            8 
  461000    1.0551142   -7.5228181    133.46908  0.024126732  0.024571835            2 
  462000    1.0884743   -7.5254997    133.55454  0.024089925  0.024552956            3 
  463000    1.0669895   -7.5151969    133.72285  0.024068187  0.024534142            2 
  464000    1.0843724    -7.540524    134.13969   0.02409118  0.024515398            3 
  465000     1.076789   -7.5421333    134.20922  0.024051832    0.0244973            2 
  466000    1.0720753   -7.5636892     134.1623  0.023991828  0.024478748            5 
  467000    1.0785524   -7.5911679    133.93587  0.023900049  0.024459831            2 
  468000    1.0827408   -7.5760674    134.49469  0.023948484  0.024440844            2 
  469000    1.0568523   -7.5292961    135.17322  0.024017986  0.024421626            3 
  470000    1.0480749   -7.5397766    134.98816  0.023934072  0.024403108            2 
  471000     1.058037   -7.5592041    134.78933  0.023848077  0.024384004            5 
  472000    1.0673417   -7.5203662    135.23846  0.023876846  0.024364952            2 
  473000    1.0775511   -7.5506571    135.66083  0.023900781  0.024346035            2 
  474000    1.0553592   -7.5803745     135.4874  0.023819866  0.024326766            1 
  475000     1.063428    -7.555392    136.14276  0.023884695  0.024307616            2 
  476000     1.079642   -7.5487789    135.90499   0.02379289  0.024289004            2 
  477000    1.0447145   -7.5575048    136.64278  0.023871905   0.02427035            2 
  478000     1.041087   -7.5669168    136.66066   0.02382508  0.024251232            1 
  479000    1.0733721   -7.5164923    137.22764  0.023873981  0.024232443            2 
  480000    1.0630683    -7.562215    136.81134  0.023751968  0.024213887            3 
  481000    1.0523969   -7.5517051    137.10121  0.023752808  0.024194952            4 
  482000    1.0518895   -7.5872034    137.18215  0.023717522  0.024175953            3 
  483000     1.075499   -7.5881961    137.23671  0.023677832   0.02415735            4 
  484000    1.0463835   -7.5596382    137.77638  0.023721828    0.0241388            4 
  485000    1.0735732   -7.5766036    138.11907  0.023731798  0.024120976            2 
  486000     1.045146   -7.5249093    138.56629  0.023759651  0.024103387            3 
  487000    1.0718421   -7.5319217      138.768   0.02374538  0.024085639            4 
  488000     1.068403   -7.5455103    138.95618  0.023728856  0.024067928            6 
  489000    1.0534939   -7.5217354    139.31914  0.023742185   0.02404981            3 
  490000    1.0676612     -7.57785     138.9192  0.023625715  0.024031361            3 
  491000    1.0501772   -7.5116458    139.07092  0.023603347  0.024013351            3 
  492000    1.0346586   -7.5313079    140.05795  0.023722553  0.023995398            2 
  493000    1.0608708   -7.5463747      139.877  0.023643847  0.023977566            2 
  494000    1.0689087   -7.5617365    140.20604  0.023651492  0.023959846            2 
  495000    1.0510872   -7.5569336     139.8589  0.023545269   0.02394203            3 
  496000    1.0589629   -7.5806532    139.64764  0.023462305  0.023923724            3 
  497000    1.0748011   -7.5480679    140.31749  0.023527414  0.023905523            2 
  498000    1.0321665   -7.5537552    140.73659  0.023550299  0.023887391            2 
  499000    1.0785172   -7.5639974    140.92687  0.023534882  0.023869167            2 
  500000    1.0505571   -7.5182116    141.28346  0.023547243   0.02385136            7 
  501000    1.0505727   -7.5264919    141.32735  0.023507544  0.023833516            8 
  502000    1.0607289    -7.499653    141.74725   0.02353042   0.02381636            2 
  503000    1.0502386   -7.5874993    141.62867  0.023463994  0.023798687            3 
  504000    1.0395859   -7.5654843    141.85468  0.023454808  0.023780566            4 
  505000    1.0629581   -7.5727479    141.99423   0.02343139  0.023762561            1 
  506000    1.0665717   -7.5829842    141.95365  0.023378401  0.023744477            4 
  507000    1.0524026   -7.5625573    142.46229  0.023415893  0.023726284            4 
  508000    1.0352469   -7.5893683    142.38785  0.023357588  0.023708007           10 
  509000    1.0603932   -7.5705629     142.4414  0.023320466  0.023690076            3 
  510000     1.061805   -7.5579895     142.7122  0.023318987   0.02367229            2 
  511000    1.0462599   -7.5325852    142.62454  0.023259057  0.023654211            4 
  512000    1.0803676   -7.5679627    142.34374  0.023167926  0.023635394            1 
  513000    1.0448107   -7.6068188    142.53436   0.02315373  0.023616367            2 
  514000    1.0366999   -7.6103484    142.67257  0.023131092  0.023596908            2 
  515000    1.0301886   -7.5778669    142.85255    0.0231153  0.023577888            2 
  516000    1.0346224   -7.6052438    143.56075  0.023184876   0.02355913            4 
  517000    1.0426174   -7.6111504    143.06544  0.023060194    0.0235405            4 
  518000    1.0245458   -7.5880512    143.84023   0.02314032  0.023521356            3 
  519000    1.0519619   -7.6075849    144.06024  0.023131059  0.023502315            2 
  520000    1.0291071   -7.5604169    144.64905  0.023180938  0.023483982            2 
  521000    1.0503539   -7.5962906    144.46997    0.0231078   0.02346577            4 
  522000    1.0322792   -7.5621162    144.86226  0.023126159  0.023447504            2 
  523000    1.0776907   -7.6269106    144.54161  0.023030849   0.02342873            8 
  524000    1.0700327   -7.5550547    144.99899  0.023059636  0.023409903            3 
  525000    1.0610169   -7.6336254    144.49383  0.022935529   0.02339118            4 
  526000    1.0329888   -7.6140016    144.85354  0.022948913  0.023371844            2 
  527000     1.057194   -7.5634265    145.37238  0.022987409  0.023353028            9 
  528000    1.0203463   -7.5994566    145.41595   0.02295075  0.023334471            8 
  529000    1.0327285      -7.6011    145.11594  0.022860104  0.023315572            5 
  530000    1.0131813   -7.6225312    145.83877  0.022930624  0.023297065            4 
  531000    1.0632022   -7.6176087    146.07115   0.02292391  0.023278388            3 
  532000    1.0397456   -7.6109354    146.00884  0.022871058  0.023260169            3 
  533000    1.0227206   -7.6089328    146.44098  0.022895714  0.023241579            4 
  534000    1.0423336   -7.6134226     146.1496  0.022807365  0.023222683            3 
  535000     1.032408   -7.6285778    146.68485  0.022848107  0.023203623            3 
  536000    1.0608335   -7.6310846    146.85149  0.022831389  0.023184921            3 
  537000    1.0383655    -7.585492    147.02523  0.022815833  0.023166469            5 
  538000    1.0452887   -7.6181277    147.33889   0.02282201  0.023148153            3 
  539000    1.0572277   -7.6365516    147.30578  0.022774548   0.02312965            2 
  540000    1.0439695   -7.6001395    147.55853  0.022771378  0.023111126            2 
  541000    1.0522603   -7.6244606    147.43869  0.022710826  0.023092333            4 
  542000    1.0161894   -7.5923757    147.61489  0.022696016  0.023073751            3 
  543000    1.0582926   -7.6290044    147.36893  0.022616471   0.02305506            2 
  544000    1.0528497    -7.669708    147.40091  0.022579796  0.023035656            3 
  545000    1.0289661   -7.6662586     147.2055  0.022508487  0.023016624            3 
  546000    1.0426651    -7.598179     147.9304    0.0225779  0.022997256            4 
  547000    1.0266627   -7.5938631    148.73329  0.022658941  0.022978126            3 
  548000    1.0396956   -7.6225246     148.2839  0.022549255  0.022958722            1 
  549000    1.0019914   -7.6477809    148.16015  0.022489398  0.022939292            1 
  550000    1.0333588    -7.644962    148.23692  0.022460139  0.022919862            4 
  551000    1.0368221   -7.6767296    148.64646  0.022481316  0.022900386            8 
  552000    1.0175467   -7.6342448    149.06795  0.022504219  0.022881107            2 
  553000    1.0163931   -7.6247561    148.90434   0.02243887  0.022861956            3 
  554000     1.045435   -7.6264085    149.20278  0.022443259  0.022843275            3 
  555000    1.0272611   -7.6415513    149.88631  0.022505452  0.022824806            3 
  556000     1.024641   -7.6144047    149.75254  0.022444926  0.022806291            3 
  557000    1.0184767   -7.6439404    149.91379  0.022428753  0.022788012            4 
  558000    1.0430765    -7.610909    150.59758  0.022490679  0.022769981            3 
  559000    1.0374621   -7.6307108    150.50262  0.022436288   0.02275178            4 
  560000    1.0042822   -7.6062404    150.63314  0.022415646  0.022733516            6 
  561000    1.0181459   -7.6288505    151.11495   0.02244726  0.022715224            4 
  562000    1.0646937   -7.6456679    151.08461  0.022402819  0.022696868            3 
  563000    1.0254636   -7.6466324    150.32351  0.022250371  0.022678371            2 
  564000    1.0048749   -7.6585422    150.91872  0.022298865  0.022659661            4 
  565000    1.0194374   -7.6516336    151.40749  0.022331488  0.022641263            3 
  566000    1.0368115   -7.6211906    151.68718  0.022333212  0.022623031            6 
  567000    1.0214761   -7.6651975    151.35722  0.022245329  0.022604745            3 
  568000    1.0283149   -7.6637729    151.36757  0.022207683  0.022586178            7 
  569000    1.0206188   -7.7177286    151.69544  0.022216672  0.022567597            3 
  570000    1.0468908   -7.6576618    152.26913  0.022261569  0.022549238            3 
  571000    1.0430374    -7.611245     152.7683  0.022295431  0.022531239            4 
  572000     1.013453   -7.6717532     152.8042  0.022261684  0.022513772            3 
  573000    1.0365709   -7.6865792    152.88546  0.022234651  0.022496225            3 
  574000     1.022815    -7.654585    152.66243  0.022163536   0.02247873            4 
  575000    1.0280035   -7.6360528    153.66709  0.022270593  0.022461257            5 
  576000    1.0429682   -7.5937687    154.09342  0.022293609  0.022444088            2 
  577000    1.0341613   -7.6001463    153.90611  0.022227918  0.022427066            2 
  578000    0.9965906   -7.6399869    153.24094  0.022093561  0.022409637            3 
  579000    1.0286151   -7.6016054    154.13031  0.022183407   0.02239217            2 
  580000    1.0175128   -7.6808821    153.76917  0.022093272  0.022374317            3 
  581000    1.0211462   -7.6578808      153.936  0.022079174  0.022355983           10 
  582000    1.0181506   -7.6904611    153.31123   0.02195178  0.022337653            7 
  583000     1.033427    -7.698546    154.19145  0.022039945  0.022319229            3 
  584000    1.0197562   -7.6710348    154.36329  0.022026724  0.022301354           11 
  585000    1.0268357   -7.6328916    154.92621   0.02206926  0.022283771            5 
  586000   0.99609374   -7.6653518    154.60677  0.021986174  0.022266036            3 
  587000    1.0369376   -7.6503255    154.70166  0.021962189  0.022248287            3 
  588000    1.0244222   -7.6595717    155.23567   0.02200052  0.022230621            2 
  589000    1.0114475   -7.6411653    155.89203  0.022056031  0.022212772            4 
  590000    1.0171633   -7.6570994    155.49792  0.021962983  0.022194966            3 
  591000    1.0369627   -7.6679202    155.48899  0.021924561   0.02217741            1 
  592000    1.0222022   -7.6619709    155.87129  0.021941342  0.022160343            3 
  593000   0.99435639   -7.6752519    156.45555  0.021986446  0.022143328            5 
  594000    1.0068797   -7.6830474    156.97428  0.022022205  0.022125874            5 
  595000    1.0234644   -7.6646427    156.63283  0.021937372  0.022108749            3 
  596000    1.0290027    -7.664171    156.85346  0.021931412  0.022091994            5 
  597000    1.0182694   -7.6786997    157.19053  0.021941727  0.022075048            4 
  598000    1.0406593   -7.6717023    157.50579  0.021948967   0.02205851            4 
  599000    1.0304553    -7.719564    157.21254  0.021871528  0.022041787            4 
  600000    1.0105036   -7.6967039    157.53314  0.021879602  0.022024768            6 
  601000    1.0112475    -7.651104    157.75682  0.021874212  0.022008083            2 
  602000     1.003631   -7.6810369    158.01951   0.02187424  0.021991408            3 
  603000    1.0383315   -7.7138138    157.67451  0.021790286  0.021974532            5 
  604000    1.0015478   -7.7199161    157.76605  0.021766839  0.021957532            3 
  605000    1.0071092   -7.6802606    158.62145  0.021848685  0.021940483            2 
  606000   0.99823562   -7.7037066    158.52765  0.021799732  0.021923462            3 
  607000   0.99166705    -7.673835    158.44429  0.021752374  0.021906625            4 
  608000    1.0138886   -7.6954545    158.14325  0.021675335  0.021889569            9 
  609000    1.0159218   -7.7228816    158.60492  0.021702918  0.021872048            4 
  610000    1.0009995   -7.7254946    158.66421  0.021675438  0.021854389            5 
  611000    1.0192999    -7.752853    158.13238  0.021567427  0.021836681            2 
  612000   0.99965316   -7.6983275    158.15173  0.021534821  0.021818821            3 
  613000     1.005442   -7.7354908     158.2464  0.021512562  0.021800969            1 
  614000   0.99875329   -7.7297665    158.47875   0.02150906  0.021782975            5 
  615000    1.0105931   -7.7044941    158.74311  0.021509906  0.021765631            5 
  616000    0.9969312   -7.7090855    158.91222  0.021497865  0.021748343           10 
  617000    1.0148541   -7.7159865    159.70632  0.021570275  0.021730822            5 
  618000   0.99147257   -7.7322121    160.04731  0.021581353  0.021713435            8 
  619000    1.0180538    -7.727182    159.93277  0.021531068  0.021696311            6 
  620000    1.0114565   -7.6909081    160.26496  0.021540989  0.021678991            2 
  621000    1.0041684   -7.7111783     159.5923  0.021416036   0.02166163            2 
  622000   0.98894744   -7.7121209    159.93497  0.021427515  0.021644145            6 
  623000   0.98832535   -7.7455236    160.30984  0.021443263   0.02162665            2 
  624000     1.029778   -7.6982031    160.89756  0.021487388  0.021609344            3 
  625000    1.0044046   -7.7194053    160.69813  0.021426418  0.021592223            5 
  626000    1.0077895   -7.6925341    161.31915  0.021474861  0.021574936            4 
  627000     1.013349    -7.731275    161.00452  0.021398793  0.021557952            8 
  628000    1.0041168   -7.7306495    161.41101  0.021418658  0.021541295            5 
  629000   0.99674639   -7.6702413    161.67978  0.021420214  0.021524288            6 
  630000   0.99080411   -7.7251816    161.27865  0.021333155  0.021507348           13 
  631000   0.98768344   -7.7119329    161.72968  0.021358912  0.021490364            5 
  632000    1.0088319   -7.7486813    161.19215  0.021254239  0.021472897            7 
  633000    1.0051599   -7.7421054    161.59172  0.021273265   0.02145538            4 
  634000    0.9896576   -7.6965852     162.4008  0.021346056  0.021438132            8 
  635000   0.98970943   -7.7375471    161.66013   0.02121524  0.021420973            2 
  636000   0.99674752   -7.7389567    162.21237  0.021254242  0.021403892            5 
  637000    1.0008285   -7.7301431      162.279  0.021229592  0.021386938            2 
  638000    1.0012845   -7.7467333    162.06196  0.021167967  0.021369856            3 
  639000    1.0139871   -7.7535301    162.56083    0.0211999  0.021352704            5 
  640000    1.0145891   -7.7154053    162.59116  0.021170723  0.021335574            5 
  641000    1.0009762   -7.6953172    163.31665  0.021232014  0.021318314            7 
  642000   0.99005292   -7.7176537     162.9077   0.02114586  0.021301301            2 
  643000   0.97937403   -7.7482385    163.14755  0.021144058  0.021284203            2 
  644000    1.0153729   -7.7263152     163.4669  0.021152549  0.021267275            3 
  645000   0.99362458   -7.7549969    163.04802  0.021065635  0.021250077            7 
  646000   0.97822442   -7.7131037    163.83997  0.021135187  0.021232939            2 
  647000   0.99908446   -7.7857339    163.24429  0.021025797  0.021215779            4 
  648000   0.97814131   -7.7392189    164.11144  0.021104866  0.021198709            2 
  649000    1.0012774   -7.7268126    163.83585   0.02103696  0.021181771            2 
  650000    1.0067211   -7.7495381    164.39983  0.021076902  0.021164882            3 
  651000   0.97590728   -7.7303201    164.52049   0.02105997  0.021148233            6 
  652000    0.9977662   -7.8229822     164.1229  0.020976854   0.02113135            8 
  653000    1.0047423   -7.7640047    164.36627  0.020975788  0.021114432            6 
  654000    0.9808032    -7.744816    165.25341  0.021056755   0.02109776            5 
  655000   0.99191708   -7.7580332    164.70957  0.020955416  0.021081117            3 
  656000   0.98252583   -7.7639241     165.6439  0.021042162  0.021064696            3 
  657000   0.99414411   -7.7627217    164.96368  0.020923856  0.021048091            3 
  658000    1.0029297   -7.7438522     165.5657  0.020968301   0.02103194            7 
  659000   0.98331728   -7.7426645    165.89957  0.020978702  0.021015416            5 
  660000   0.98564204   -7.7181214    166.32014  0.021000018  0.020998981            3 
  661000    1.0091948   -7.7381749    165.23416  0.020831337  0.020982314            3 
  662000   0.99273111   -7.7749369    165.74816  0.020864572   0.02096588            3 
  663000   0.97890082   -7.7118466    166.13971  0.020882317  0.020949377            4 
  664000   0.96991151   -7.7800672    165.84064  0.020813333  0.020932731            2 
  665000   0.98184143   -7.7832837    166.16943  0.020823236   0.02091616            3 
  666000   0.99382802   -7.7462236     166.5078  0.020834309  0.020899812            9 
  667000   0.99561064   -7.7778447    166.49164  0.020801055  0.020883474            4 
  668000   0.98582108    -7.743355     166.5574  0.020778119  0.020867009            5 
  669000    0.9757479   -7.7529033    166.85349  0.020783942  0.020850732            7 
  670000   0.98937235   -7.7378944    167.03767   0.02077583  0.020834407           19 
  671000     1.002028   -7.7598805    167.21198  0.020766515  0.020818113            2 
  672000   0.97902863   -7.7788065    167.24916  0.020740223  0.020801712            5 
  673000   0.97470215   -7.7671584    167.18438  0.020701384  0.020785252            4 
  674000   0.94941152   -7.7842233    167.68063  0.020732026  0.020768699            5 
  675000   0.99007587   -7.7464811    167.46915  0.020675204  0.020752214            5 
  676000   0.96590299   -7.7676415      167.435   0.02064041  0.020735546            5 
  677000   0.97689116   -7.7787202    167.52446  0.020620933  0.020719095            4 
  678000   0.99066008   -7.7938499    167.60224  0.020600079  0.020702483            4 
  679000   0.99873101   -7.7453838    168.36353  0.020663173  0.020685978            5 
  680000   0.96763563   -7.7711778    168.41965  0.020639663  0.020669494            2 
  681000    1.0020478   -7.7435947    168.47584  0.020616231  0.020652948            3 
  682000   0.97730853   -7.8289316    167.83995  0.020508303  0.020636409            3 
  683000   0.99245725   -7.7766877    168.12233   0.02051273  0.020619593            5 
  684000   0.99384517   -7.7811035    168.48652   0.02052711  0.020602865            3 
  685000   0.98908194   -7.7975496    168.66271  0.020518578  0.020586266            3 
  686000   0.97666989   -7.7817314     168.7061  0.020493938  0.020569592            2 
  687000   0.98657258   -7.8055215    168.72029  0.020465829  0.020552929            3 
  688000    0.9680825   -7.8149817    168.62095  0.020424049  0.020536309            4 
  689000   0.98110869   -7.7724901     169.3685   0.02048482   0.02051962            3 
  690000   0.96189488   -7.7879534    168.94106   0.02040351  0.020503043            5 
  691000    0.9639572   -7.8289698    168.84322  0.020362183  0.020486081            9 
  692000   0.97879152   -7.8044308    169.53781  0.020416403  0.020469306            3 
  693000   0.98841247   -7.7880934     169.2146  0.020348076   0.02045262            4 
  694000   0.98291866   -7.8350432    169.59335  0.020364236  0.020435689            4 
  695000   0.97102301   -7.8138939     169.6263  0.020338885  0.020418877            5 
  696000    0.9696738   -7.8194771    169.59193  0.020305547  0.020402093            9 
  697000   0.99449115   -7.7824633    170.22958  0.020352652   0.02038549            4 
  698000   0.97017382   -7.8229418    169.99629  0.020295641  0.020369052            3 
  699000   0.98123045   -7.8015435    170.07606  0.020276116  0.020352662            5 
  700000   0.93307594   -7.7479405    171.27619  0.020390023  0.020336376            2 
  701000   0.97274102   -7.8285559    170.44948  0.020262658  0.020320153            8 
  702000    0.9572027   -7.7866144    170.57069  0.020248183  0.020303652            2 
  703000   0.96563422   -7.7394524     171.0665  0.020278154  0.020287383            4 
  704000   0.96983056   -7.8271915    170.70515  0.020206575  0.020270925            6 
  705000   0.97432655   -7.8554743    170.67589  0.020174454   0.02025457            5 
  706000   0.96892253   -7.7848237    170.39003  0.020112138  0.020238056            5 
  707000   0.96509975   -7.8324417    170.54476  0.020101929  0.020221435            3 
  708000   0.97402036   -7.8429614    170.92733  0.020118565  0.020205077            2 
  709000   0.98786062   -7.7710367    172.07275  0.020224817  0.020188758            4 
  710000   0.95431416   -7.8207803    171.27092  0.020102221  0.020172572            4 
  711000   0.96490877   -7.7755644    171.95542  0.020154175  0.020156138            3 
  712000   0.96295161   -7.7961441    172.39054  0.020176796  0.020139919            4 
  713000   0.97998549   -7.8549897    171.26687  0.020017166  0.020123487            3 
  714000    0.9668896   -7.8428281    171.89894  0.020062901   0.02010693            8 
  715000    0.9818253   -7.8049227    172.31436  0.020083259  0.020090645            3 
  716000    0.9640946   -7.7957181    172.38745  0.020063716  0.020074397            2 
  717000   0.95872421   -7.8048753    171.84261  0.019972409  0.020058152            3 
  718000   0.99299511   -7.8062492    172.32357  0.020000415  0.020041595            9 
  719000    0.9777468   -7.8542001    172.09576  0.019946194  0.020024861           11 
  720000   0.97339446   -7.8768131    171.84682  0.019889678  0.020007917            6 
  721000   0.97029454   -7.8080986    172.68967  0.019959508  0.019991019            6 
  722000   0.96064789   -7.8393012    172.28983  0.019885715  0.019974382            6 
  723000   0.96898963   -7.8299242     173.0398  0.019944652  0.019957714            5 
  724000   0.94880507   -7.8876641    172.56436  0.019862381  0.019940847            2 
  725000   0.97409292    -7.817682    172.75525  0.019856925  0.019924148            4 
  726000    0.9818494   -7.8359163    172.96082   0.01985317  0.019907612            3 
  727000   0.96894607     -7.85548    173.21103  0.019854543  0.019891102            6 
  728000   0.95169658   -7.8303218    173.21799  0.019828066  0.019874649            2 
  729000   0.96591868   -7.8255694     172.9073  0.019765353  0.019858227            6 
  730000   0.98555345   -7.8252426    173.05364  0.019754982  0.019841515            6 
  731000   0.94794642   -7.8035295    173.74017  0.019806221  0.019825068            6 
  732000   0.94193671   -7.8161118    174.11408  0.019821731  0.019808862            5 
  733000   0.97609249   -7.8012188     174.1712  0.019801183  0.019792673            3 
  734000   0.95842681    -7.825054    173.88377  0.019741573  0.019776507            1 
  735000   0.95899731   -7.8777316    174.28873  0.019760627  0.019760432            5 
  736000   0.96523006   -7.8339095    174.47767  0.019755171  0.019744182            4 
  737000   0.95178887   -7.8553348    174.33829  0.019712607  0.019728021            5 
  738000   0.95681548   -7.8486958    174.06799  0.019655374  0.019711555            3 
  739000   0.97394808   -7.8794224    174.13337  0.019636149  0.019695197            5 
  740000   0.94512718   -7.8512441     174.4094  0.019640698  0.019678778            5 
  741000   0.96768356   -7.8413677    174.59755  0.019635352  0.019662442            4 
  742000    0.9682027   -7.8494736    175.08256  0.019663361  0.019646192            2 
  743000   0.95907864   -7.8262111    175.43942   0.01967692  0.019630103            6 
  744000    0.9508477    -7.848306    175.54225   0.01966199  0.019614079            5 
  745000    0.9551508   -7.8473615    175.45699  0.019626062  0.019597974            3 
  746000   0.94900361   -7.8069773    175.87449  0.019646391  0.019582016            2 
  747000   0.97025505   -7.7914101    175.54307  0.019583118  0.019566158            2 
  748000   0.96162099   -7.8350117    175.61532  0.019564987  0.019550078            9 
  749000   0.96954531   -7.8693657    175.48803  0.019524703  0.019534037           10 
  750000   0.94508741   -7.8736532    175.69429  0.019521588  0.019517921            3 
  751000   0.96457531   -7.8508764    175.64871  0.019490536  0.019501858            5 
  752000    0.9337649   -7.8517244    175.95896  0.019498998  0.019485926            3 
  753000   0.93511922   -7.8331691    176.59458  0.019543446  0.019469983            3 
  754000   0.96093981   -7.8561392    176.13451  0.019466679   0.01945415            4 
  755000   0.97896343   -7.8690426    176.10703  0.019437862  0.019438228            4 
  756000    0.9457863   -7.9010587    176.52101  0.019457783  0.019422264            4 
  757000   0.95695124   -7.8478973    176.94231  0.019478458   0.01940634            7 
  758000   0.92618901   -7.8767286    176.82622  0.019439998  0.019390447            3 
  759000   0.96265031    -7.870243    176.80941   0.01941254  0.019374567            6 
  760000   0.95145009   -7.8651708    176.84383  0.019390771  0.019358731            7 
  761000   0.92991051   -7.8249904    177.51397  0.019438674  0.019343136            1 
  762000   0.94958704   -7.8690615    176.78337  0.019333264  0.019327411            3 
  763000   0.94610699   -7.8749423     177.2313  0.019356848  0.019311439           11 
  764000   0.94411839   -7.8821353    177.01967  0.019308428  0.019295351            3 
  765000     0.958682   -7.8806183    177.63995  0.019350757  0.019279358            3 
  766000    0.9437559   -7.8949677    177.48575   0.01930872  0.019263555            4 
  767000   0.94711657    -7.838794    177.46413  0.019281197  0.019247611            6 
  768000   0.93577527   -7.9138606    177.13674  0.019220566  0.019231606            5 
  769000   0.97423745   -7.8586181    177.59299  0.019245014  0.019215591            3 
  770000   0.94431217   -7.8718161    177.84989  0.019247824  0.019199798            3 
  771000   0.93785042   -7.8744471    177.85763  0.019223695  0.019183841            4 
  772000    0.9459621   -7.8899663    177.90105  0.019203481  0.019167989            3 
  773000   0.93884817   -7.8832238    178.51219  0.019244523  0.019152292            4 
  774000   0.94140966   -7.9306248    177.98502    0.0191629  0.019136433            4 
  775000    0.9477302   -7.8898196    178.54194  0.019198058  0.019120779            2 
  776000    0.9485522   -7.9013525    178.36222  0.019154018  0.019105115            6 
  777000   0.93360684   -7.8965235    178.86173   0.01918294  0.019089438            3 
  778000   0.95744571   -7.9318827    178.90805  0.019163245  0.019073849            5 
  779000   0.93839209   -7.8563255    179.12734  0.019162103   0.01905833            5 
  780000    0.9526917    -7.919191    178.67815  0.019089546  0.019042965            6 
  781000    0.9340465   -7.9125978    179.41003  0.019143195   0.01902755            4 
  782000   0.95106444   -7.9310319    179.38905   0.01911648  0.019012342           14 
  783000   0.95126426   -7.8846669    180.16865  0.019175037  0.018997232           10 
  784000   0.94021574   -7.8919122    179.72321  0.019103233  0.018982143            3 
  785000    0.9389144   -7.9008758    179.90056  0.019097724  0.018966997            2 
  786000   0.92758723   -7.8937627    180.35195  0.019121284  0.018951972            8 
  787000   0.92290241   -7.9037602    180.28282  0.019089667  0.018936856            4 
  788000   0.93530084   -7.9086228    179.80678    0.0190151  0.018921599            7 
  789000   0.95671796   -7.8830829    180.56487  0.019071068  0.018906519            5 
  790000   0.91027035   -7.8770776    179.72924   0.01895878  0.018891376           12 
  791000   0.93467395   -7.9444437    179.82445  0.018944843  0.018876143           11 
  792000   0.94295159   -7.8998863    180.99438  0.019044021   0.01886105            7 
  793000   0.94534964   -7.9187973    180.42911  0.018960604  0.018845961            4 
  794000   0.93597561   -7.9076003    181.07201  0.019004199  0.018830848            4 
  795000   0.93217118   -7.9327166    180.51596  0.018922009  0.018815782           10 
  796000   0.95720121   -7.9059077    181.32114  0.018982532  0.018800677            8 
  797000   0.94680782   -7.8994213    180.96199  0.018921161   0.01878553            6 
  798000    0.9459196   -7.9040875    180.75175  0.018875496  0.018770385           10 
  799000   0.94167153   -7.8894926    181.60637  0.018941006  0.018755213            2 
  800000   0.93253131    -7.912953    181.39471  0.018895282  0.018740202            5 
  801000    0.9464857   -7.9263837    180.67376  0.018796687  0.018725019           10 
  802000   0.91587979   -7.8909788    181.44957  0.018853862  0.018709778            7 
  803000    0.9166655   -7.9092865    181.86654  0.018873655    0.0186945           10 
  804000   0.91892845   -7.9280137    180.85684  0.018745527  0.018679046            9 
  805000   0.91916305   -7.9498375    180.72737  0.018708838  0.018663234           16 
  806000   0.92822297   -7.9229528    181.30868  0.018745728  0.018647755           13 
  807000   0.92732379   -7.9155701    181.20006  0.018711283  0.018632073            5 
  808000   0.95141587    -7.933216    180.78555  0.018645375   0.01861636           10 
  809000   0.93060843    -7.955425     181.4311  0.018688823   0.01860061            6 
  810000   0.93503051   -7.9187336    180.70239  0.018590781  0.018585007            7 
  811000   0.92777582   -7.8845955    182.14606    0.0187162  0.018569509            3 
  812000    0.9354928   -7.8959116     182.4056  0.018719786  0.018554123            5 
  813000   0.92555864    -7.952293    181.40824  0.018594531  0.018538632            6 
  814000   0.90779029   -7.9473657    181.71023  0.018602604  0.018522927            6 
  815000   0.91757868   -7.9515349    180.94785  0.018501826  0.018507228            7 
  816000   0.93699132   -7.9640781    181.73162  0.018559193  0.018491611            4 
  817000   0.93106811   -7.9362239    181.32596    0.0184951  0.018475875            6 
  818000   0.91716877   -7.9718996     181.5088  0.018491117  0.018460188            5 
  819000   0.94551451   -7.9499426    181.66365  0.018484295  0.018444491            5 
  820000    0.9208671   -7.9373814    182.02051  0.018498019  0.018428913            7 
  821000   0.92345161   -7.8920086    182.61143  0.018535468   0.01841329            6 
  822000   0.91747639   -7.9604448    182.14008  0.018465133  0.018397819            8 
  823000   0.92627777   -7.9362914    182.37036  0.018466015  0.018382219            6 
  824000   0.94655722   -7.9639205    182.07106  0.018413335  0.018366612            3 
  825000   0.92474471    -7.968759     181.8847  0.018372192  0.018350923            8 
  826000   0.94200129   -7.9418096    182.44048  0.018406021  0.018335135            7 
  827000   0.91220127   -7.9210227    182.83544  0.018423563  0.018319222            4 
  828000   0.93238993   -7.9611157    182.09804  0.018327097  0.018303411            7 
  829000   0.91975933   -7.9126476    182.72539  0.018368053  0.018287534            9 
  830000   0.92295559     -7.91706     182.7698  0.018350382   0.01827182            7 
  831000   0.90673074   -7.9291388    182.76153   0.01832747  0.018256221            3 
  832000   0.91386624   -7.9764644    182.52726  0.018281977  0.018240505            3 
  833000   0.93053337   -7.9639885    182.66725  0.018274034  0.018224571            3 
  834000   0.92974952   -7.9544157    182.99414  0.018284787  0.018208852            4 
  835000   0.93034801   -7.9561666    182.97653  0.018261131  0.018193154            8 
  836000   0.91006286   -7.9705258     182.9144  0.018233094  0.018177378            3 
  837000   0.92849625   -7.9522059    183.24058  0.018243786  0.018161791            4 
  838000   0.89791092   -7.9013051    183.76527  0.018274191  0.018146309            4 
  839000   0.92274106   -7.9544546     183.6593  0.018241885  0.018130773           13 
  840000   0.92942976   -7.9620133     183.8041  0.018234534  0.018115187           20 
  841000   0.89338932   -7.9737208    183.57909  0.018190556  0.018099618           18 
  842000   0.89858801   -7.9749696    183.08986  0.018120532  0.018083976           16 
  843000   0.92408631   -7.9849791     183.3533  0.018125079  0.018068431           10 
  844000   0.92437565   -8.0043044     183.7224  0.018140047  0.018052884            7 
  845000   0.92570385   -7.9471384    183.80678  0.018126901  0.018037411            4 
  846000   0.91795135   -7.9637371    184.06747  0.018131153  0.018021992            4 
  847000   0.90904368   -7.9807379    184.33992  0.018136552  0.018006515            4 
  848000   0.92842868   -8.0023751    184.05506  0.018087172  0.017991116            8 
  849000   0.91005664   -7.9529973    184.05482  0.018065844   0.01797573            3 
  850000   0.91420617   -7.9947033    184.33645  0.018072201  0.017960342            5 
  851000    0.9136254   -7.9704028    184.17484  0.018035139  0.017944856            3 
  852000   0.92875814   -7.9841775    184.11108  0.018007735  0.017929446            6 
  853000   0.91256173   -8.0068728    184.07181  0.017982787  0.017913832            4 
  854000   0.90627363   -7.9748284    184.81692  0.018034438  0.017898392            5 
  855000   0.90204513   -7.9858528    184.33124  0.017966008  0.017882911            7 
  856000     0.920585   -8.0132302    184.48361  0.017959853  0.017867466            5 
  857000   0.91170865   -7.9834656    184.74199  0.017964021  0.017852054            5 
  858000   0.92442053   -8.0149591    184.72542  0.017941474  0.017836625            5 
  859000   0.92309823   -7.9923743    184.48756  0.017897512  0.017821239            6 
  860000   0.91647873   -8.0084781     184.8265  0.017909545  0.017805804            3 
  861000   0.88304063   -7.9915814     185.1237  0.017917508  0.017790317            7 
  862000   0.89338603   -7.9706963    185.36726  0.017920269   0.01777478            5 
  863000   0.92076247   -7.9926885    185.35176  0.017898007  0.017759407            4 
  864000   0.89768334   -7.9840144    185.28082  0.017870449  0.017744113            9 
  865000   0.92624321   -7.9823143    185.66148  0.017886462  0.017728825            6 
  866000    0.9335616   -7.9806459    185.26157  0.017827326  0.017713377            6 
  867000   0.91708979   -7.9806869    185.23794  0.017804493  0.017697985            5 
  868000   0.90552628   -7.9898155    185.31765  0.017791633  0.017682576            2 
  869000   0.92239977   -8.0043047    185.41286  0.017780289  0.017667232            8 
  870000   0.92672357    -8.004859    185.18905  0.017738415  0.017651947           15 
  871000   0.88984486   -7.9826783    185.74022  0.017770782   0.01763665            9 
  872000    0.9221017   -8.0252871    185.90202  0.017765866  0.017621344            4 
  873000   0.91465012   -8.0307881    185.55024  0.017711936  0.017606134            4 
  874000   0.88907715   -8.0005973    186.17614  0.017751349  0.017590961            2 
  875000   0.89800429   -8.0029783    186.15066  0.017728635  0.017575867            3 
  876000   0.91219335   -8.0256838    186.07086  0.017700805  0.017560735            7 
  877000   0.89248607   -8.0004065    185.93472  0.017667686  0.017545529            5 
  878000   0.91084161   -8.0060159    186.24977  0.017677465  0.017530367           11 
  879000   0.91437693   -8.0267662     186.3266  0.017664638  0.017515198            9 
  880000   0.91117716   -8.0174867    185.97213  0.017610997   0.01750001           12 
  881000   0.89060854   -8.0228862    186.12944  0.017605888   0.01748489           14 
  882000   0.87394722   -8.0205722    185.98343   0.01757213  0.017469626           16 
  883000   0.90284876   -7.9967451     186.5734  0.017607909  0.017454601            6 
  884000   0.92192148   -8.0338652    186.35763   0.01756765  0.017439471            9 
  885000   0.91739459   -8.0333579    186.54369   0.01756532  0.017424289            4 
  886000   0.88906942   -8.0232378    186.42494  0.017534325  0.017408999            4 
  887000   0.90509226    -8.024764    186.81228  0.017550947  0.017393964            4 
  888000   0.90752166    -8.076357    186.30758  0.017483819  0.017378835            8 
  889000    0.8907972    -8.026172    186.85763  0.017515713  0.017363642           16 
  890000   0.88854067   -8.0405006     186.7098  0.017482191  0.017348278           12 
  891000   0.89746975   -8.0719725    186.68707  0.017460444  0.017332902            8 
  892000   0.90583352   -8.0375844    186.63837   0.01743632  0.017317592            6 
  893000   0.88664648   -8.0281105    187.25773  0.017474592  0.017302444           12 
  894000    0.8929018   -8.0672504    186.46999  0.017381617  0.017287158            9 
  895000   0.91484211   -8.0055234    186.86157  0.017398656  0.017271871            9 
  896000   0.89759157   -8.0321355    187.07874  0.017399436   0.01725664           20 
  897000   0.89787558   -8.0567648    186.62523  0.017337907   0.01724132            5 
  898000   0.90725503   -8.0237167    186.80171  0.017334977  0.017225967           18 
  899000    0.8833018    -8.014494    187.18144  0.017350894  0.017210768           20 
  900000   0.88432391   -8.0177268    187.66157  0.017376071  0.017195552           27 
  901000   0.90103814   -8.0812386    186.78193  0.017275428  0.017180354           13 
  902000   0.89415993   -8.0583742    187.58528  0.017330495  0.017165185           14 
  903000   0.88306877   -8.0724764    187.67737  0.017319802   0.01715005            7 
  904000   0.88604315   -8.0331799    187.21519  0.017258038  0.017134909            7 
  905000   0.91773776   -8.0521742     187.5521  0.017269991   0.01711972            9 
  906000   0.90238206   -8.0926334    187.17887    0.0172166  0.017104517            6 
  907000    0.8755632   -8.0722675    187.38813  0.017216844  0.017089351            7 
  908000   0.90202033   -8.0536078    187.54231  0.017212033  0.017074295            5 
  909000    0.8831095   -8.0114546    188.17855  0.017251426  0.017059311           18 
  910000   0.86122208   -8.0285708    188.43998  0.017256408  0.017044412            4 
  911000   0.89540697   -8.0768081    187.68666  0.017168557  0.017029424           10 
  912000   0.87893534   -8.0628216    188.43757  0.017218345  0.017014288           17 
  913000    0.8899883   -8.0806297    187.77596  0.017139098  0.016999105            8 
  914000   0.87624087   -8.0782855     187.9284  0.017134245   0.01698392           11 
  915000   0.88724365   -8.0592563    188.56604  0.017173592  0.016968856           17 
  916000   0.89063721   -8.0686395    188.30018  0.017130657  0.016953786           10 
  917000   0.88768354   -8.0506706      188.762  0.017153944  0.016938813            7 
  918000   0.88723344   -8.0785368    188.42865  0.017104997  0.016923871            9 
  919000    0.8987885    -8.065653    188.24552  0.017069779  0.016908948            7 
  920000   0.89080907   -8.0532109    188.43675  0.017068546  0.016894079            4 
  921000    0.9047911   -8.0918417    188.62929  0.017067435  0.016879118            9 
  922000   0.87377556   -8.1131433    188.75673  0.017060442  0.016864137           10 
  923000   0.87926359   -8.1297612    188.22236  0.016993713  0.016849127            8 
  924000   0.88105173   -8.0716851    188.61694  0.017010907  0.016834155            5 
  925000   0.89761171   -8.0647138    188.85328  0.017013809   0.01681932            9 
  926000   0.90575652   -8.0699215    189.11152  0.017018675  0.016804431            8 
  927000   0.86833144   -8.0726196    188.48527  0.016944019  0.016789645            7 
  928000   0.89606628   -8.0528388    188.82695  0.016956443  0.016774942            5 
  929000   0.85704472    -8.093317    189.13632  0.016965942  0.016760294            8 
  930000   0.87295424   -8.0887767    189.56703  0.016986293  0.016745608            7 
  931000   0.86565103   -8.0813226    189.10301  0.016926514  0.016730939            7 
  932000   0.87343763   -8.0541806    189.40879  0.016935693  0.016716205           18 
  933000   0.88751972   -8.0873483    189.40975  0.016917627  0.016701411            9 
  934000    0.8794143   -8.0731491      189.487  0.016906406  0.016686807            8 
  935000   0.89992563   -8.0570124    189.07864  0.016851929  0.016672217            9 
  936000   0.88946267   -8.0775322    189.22954   0.01684736  0.016657511           13 
  937000   0.88184521   -8.1102423    188.89639   0.01679975  0.016642717            5 
  938000   0.87533944   -8.0879211    189.08562  0.016798651  0.016627879            8 
  939000   0.88374559   -8.1374371    188.93992  0.016767831  0.016612989            6 
  940000   0.87432742   -8.1116726     189.3959  0.016790417  0.016598058            3 
  941000   0.87261012   -8.1384476    189.50589  0.016782314  0.016583253           10 
  942000   0.89933205    -8.074283    189.46108  0.016760534  0.016568519            5 
  943000   0.89569472   -8.0645717    189.78712  0.016771573  0.016553802            7 
  944000   0.85490386   -8.0911128    189.73595   0.01674929  0.016538983            5 
  945000   0.88636547   -8.1057303    189.15552  0.016680381  0.016524217            6 
  946000   0.86662785   -8.0856019    189.46045   0.01668961  0.016509482            3 
  947000    0.8768112   -8.1062248    189.49591  0.016675106  0.016494727           11 
  948000   0.88748396   -8.0999862      189.672  0.016672996  0.016479871            7 
  949000   0.88194113   -8.0990108    189.23251  0.016616834   0.01646501            8 
  950000    0.8683058   -8.0964604    189.59167  0.016630848  0.016450218            4 
  951000   0.88090607   -8.0974912     189.9368  0.016643603  0.016435498            7 
  952000   0.87290696   -8.1020527    190.01044  0.016632566  0.016420758            7 
  953000   0.87035402   -8.1125217    189.79472  0.016596251  0.016406022            3 
  954000   0.86153788     -8.07272    189.79702  0.016579055  0.016391373            7 
  955000   0.88366102   -8.0764175    190.27746  0.016603618  0.016376624            6 
  956000   0.87275579   -8.0757816    190.20744  0.016580147  0.016361893           16 
  957000   0.86647511   -8.1046277    189.92848   0.01653853  0.016347186           10 
  958000   0.87161179    -8.109695     189.9805  0.016525791  0.016332521            4 
  959000    0.8716287   -8.1249189    190.25465  0.016532382  0.016317789            6 
  960000   0.87491647   -8.1366055    189.74214  0.016470672  0.016302946           16 
  961000   0.86317532   -8.1044711    190.51339  0.016520411  0.016288291           13 
  962000   0.87807941   -8.1177069    190.47782  0.016500157  0.016273695            9 
  963000   0.85946027   -8.1183958    190.34545  0.016471569  0.016259046            5 
  964000   0.84059235   -8.0944897    190.43459  0.016462188  0.016244564            2 
  965000   0.85989079   -8.0715549    190.99247  0.016493305  0.016230084            2 
  966000   0.87828239   -8.0757079    191.17903  0.016492325  0.016215619           10 
  967000    0.8645329   -8.0847522    191.35357  0.016490311  0.016201221            8 
  968000   0.84613533   -8.0569318     190.9441  0.016438025  0.016186786           15 
  969000    0.8733857   -8.1142747    190.57553  0.016389364  0.016172297           10 
  970000   0.86260946   -8.1208152    190.63495  0.016377573  0.016157672            3 
  971000   0.85454817   -8.0941189    190.60628  0.016358246  0.016143189            6 
  972000   0.86812115   -8.0795162    191.32786   0.01640328  0.016128791            4 
  973000   0.85021802   -8.1389833    190.82158  0.016343061  0.016114414            9 
  974000    0.8552966   -8.0804041    191.48594  0.016383123  0.016100074           12 
  975000   0.86509429   -8.0913727    191.50623  0.016368054  0.016085645            5 
  976000    0.8664988   -8.1009331    191.22341  0.016327135  0.016071258           11 
  977000   0.86940874   -8.1081786    191.73167  0.016353776  0.016056813            6 
  978000   0.85739165   -8.1135895    191.36047  0.016305425  0.016042313           10 
  979000   0.88158242   -8.1096782    191.35447  0.016288259  0.016027848           11 
  980000   0.87249043   -8.1019515    190.83204  0.016227214  0.016013348           13 
  981000   0.86633337   -8.1430179    191.00873  0.016225682  0.015998795           11 
  982000   0.85796277   -8.1235715    191.30668  0.016234443  0.015984285            6 
  983000   0.85912596   -8.1283209    191.06601  0.016197526  0.015969702            4 
  984000   0.85417597   -8.0986964    191.02231  0.016177363  0.015955192           10 
  985000   0.84306579   -8.1050271    191.15273  0.016171974  0.015940669            3 
  986000   0.85844998   -8.1508902    191.43147   0.01617913  0.015926051            5 
  987000   0.87255341     -8.15159    191.00674  0.016126878  0.015911498           12 
  988000   0.85364093   -8.1472988    191.27226  0.016132951  0.015896984           11 
  989000   0.84174081   -8.1754268    191.27861  0.016117173  0.015882587            9 
  990000   0.85533233   -8.1360616    191.62426  0.016129988  0.015868128            9 
  991000    0.8566653   -8.1360298    191.20969  0.016078851  0.015853717            3 
  992000   0.88087775   -8.1497686    191.36914  0.016076037  0.015839232            6 
  993000   0.87197583   -8.1744613    191.43768  0.016065599  0.015824734            8 
  994000   0.86725728   -8.1695956    191.42203  0.016048125  0.015810239            4 
  995000   0.85467254   -8.1509586    191.93117  0.016074637  0.015795941            4 
  996000   0.86236563   -8.1257262    191.73891  0.016042412   0.01578157            7 
  997000   0.85416409   -8.1440641    192.24428  0.016068562  0.015767215            8 
  998000   0.87165845   -8.1180404    192.21516   0.01605003  0.015752937            6 
  999000   0.85170917   -8.1391963    192.08007  0.016022695  0.015738643            7 
 1000000     0.858364   -8.1151316    192.29678  0.016024732  0.015724414            5 
 1001000    0.8744622   -8.1502352    191.65769  0.015955518  0.015710177            6 
 1002000   0.85344279    -8.167536    192.03345  0.015970846  0.015695869            6 
 1003000   0.85536865   -8.1625245    191.83875  0.015938746  0.015681507            9 
 1004000   0.86250497   -8.1450271     191.7145  0.015912558  0.015667175           16 
 1005000   0.84178951   -8.1453095    192.25413   0.01594147  0.015652872            6 
 1006000   0.83381751   -8.1502731    192.17551  0.015919111  0.015638576           10 
 1007000   0.85399181   -8.1424103    192.58166  0.015936913  0.015624317           11 
 1008000   0.84528147   -8.1461583    192.52071  0.015916064  0.015610213           11 
 1009000   0.84778379   -8.1269509    192.44567  0.015894093  0.015596076           10 
 1010000   0.86440991   -8.1481886    192.83714  0.015910655  0.015581953            7 
 1011000   0.84699144   -8.1499442    192.60874  0.015876091  0.015567779            7 
 1012000   0.83793817    -8.171648    192.37667  0.015841294  0.015553598           13 
 1013000    0.8520885   -8.1765878    192.23724  0.015814185  0.015539421            7 
 1014000   0.87554154   -8.1649378    192.62536  0.015830487  0.015525211            8 
 1015000   0.83368049   -8.1923224     192.6134  0.015813908  0.015510973            9 
 1016000   0.81891945   -8.2092691    192.00507  0.015748448  0.015496728            6 
 1017000   0.83218587   -8.1916852    192.20662  0.015749477  0.015482449            5 
 1018000   0.85049716   -8.1913181    192.13052  0.015727776  0.015468239            4 
 1019000   0.83024069   -8.1517742    192.66716  0.015756229  0.015454001            8 
 1020000   0.84791883   -8.1784531    192.51403  0.015728271  0.015439774            9 
 1021000   0.85866267   -8.1515407    192.85328  0.015740555  0.015425611            4 
 1022000   0.83590416    -8.181722    192.70999   0.01571347  0.015411595            4 
 1023000   0.85210514   -8.1919351    192.67577  0.015695322  0.015397529            9 
 1024000    0.8608209   -8.1605496    193.40526   0.01573936  0.015383564            8 
 1025000    0.8306443   -8.1773043    193.05911  0.015695863  0.015369624            4 
 1026000     0.844998   -8.1697544    192.98206  0.015674307  0.015355654            9 
 1027000    0.8514666   -8.1805464    193.00565  0.015660958  0.015341676           10 
 1028000   0.83623214   -8.1992405    193.14338  0.015656889  0.015327734           15 
 1029000   0.84654572   -8.1815813    193.11401  0.015639295  0.015313849            6 
 1030000   0.83548351    -8.185595    193.06741  0.015620341  0.015300018            7 
 1031000   0.84391652   -8.1832958    193.10708  0.015608396  0.015286124           21 
 1032000   0.83166748   -8.1830389    193.32707  0.015611036  0.015272218           11 
 1033000   0.86045076   -8.2067859    193.07238  0.015575377  0.015258309           16 
 1034000   0.84202464    -8.194148    193.31078  0.015579527  0.015244355           12 
 1035000   0.83649021   -8.2073216    193.32951  0.015565983  0.015230436            4 
 1036000   0.82175647   -8.2051641    192.89852   0.01551629  0.015216511            5 
 1037000   0.83313623    -8.188937    193.38534  0.015540448  0.015202544            5 
 1038000   0.84686296   -8.2525352    192.87886  0.015484815   0.01518857            6 
 1039000   0.83661174   -8.2167214    193.29067  0.015502941  0.015174577           19 
 1040000   0.84702764   -8.1988849    193.36796  0.015494228  0.015160668            7 
 1041000   0.84108352   -8.2281105    193.26443  0.015471056  0.015146719           11 
 1042000   0.82526096   -8.1983417    193.02493  0.015437055  0.015132819            5 
 1043000    0.8372623   -8.1909087    193.07906  0.015426579  0.015118886            6 
 1044000   0.83664371   -8.2375558    192.96804   0.01540294   0.01510492            7 
 1045000   0.85240088   -8.2081772    193.25794  0.015411319  0.015090907           10 
 1046000   0.82771591   -8.2248811    193.21094  0.015392841  0.015076948           10 
 1047000   0.83222165    -8.229387    193.14355  0.015372775  0.015062928           21 
 1048000   0.84378362   -8.2167311    193.20413  0.015362924  0.015048914           13 
 1049000   0.83743232   -8.2172476    193.43343  0.015366494   0.01503497           14 
 1050000   0.83290321   -8.2128904    193.50609  0.015357626  0.015021076            7 
 1051000    0.8376969   -8.2213206     193.6673  0.015355796  0.015007108           14 
 1052000   0.84083155   -8.1999313    193.81084   0.01535257   0.01499319           11 
 1053000   0.85917345   -8.2388988    193.05742  0.015278365  0.014979276            6 
 1054000   0.82436692   -8.2266419    193.33388  0.015285728   0.01496537           18 
 1055000   0.82885137   -8.2238909    193.62045  0.015293874   0.01495146           10 
 1056000   0.82508523   -8.2362998    193.45105  0.015266024  0.014937516            9 
 1057000   0.82645969   -8.2106081    193.11378   0.01522499  0.014923493            6 
 1058000   0.83169931   -8.2241253    193.33603  0.015228106  0.014909628           11 
 1059000   0.82407794   -8.2399604    193.41069  0.015219601  0.014895631           15 
 1060000   0.81267916    -8.208326    193.80362  0.015236134  0.014881725           17 
 1061000   0.85361584   -8.2504875    193.24777  0.015178116  0.014867792           10 
 1062000   0.84541176   -8.2288025    193.65343  0.015195655  0.014853895           20 
 1063000   0.81937501   -8.2504904    193.65724  0.015181659  0.014840004           13 
 1064000   0.82348563    -8.227412    193.38983  0.015146447  0.014826116           17 
 1065000   0.83109741   -8.2490873    193.42193  0.015134737  0.014812219           17 
 1066000    0.8280942    -8.229935    193.12165  0.015097065   0.01479829           30 
 1067000   0.83206636   -8.2053604    194.09095  0.015158619  0.014784519           12 
 1068000   0.83040438   -8.2285018    193.63334  0.015108719  0.014770707           11 
 1069000   0.81917103   -8.2287732    193.73385   0.01510242  0.014756953            7 
 1070000   0.82762708   -8.2337707    193.96606  0.015106391  0.014743177           12 
 1071000   0.83454837   -8.2429501    193.74534  0.015075112  0.014729418            9 
 1072000   0.83622821   -8.2424977    194.27937  0.015102563  0.014715701            8 
 1073000   0.80433365   -8.2233376    193.73527  0.015046231  0.014702008            5 
 1074000   0.82632351   -8.2556686    194.25413   0.01507248   0.01468834            7 
 1075000   0.82505437   -8.2788799    193.93268  0.015033541  0.014674574            7 
 1076000   0.81654903   -8.2382459    194.10898  0.015033223  0.014660819            9 
 1077000   0.81950367   -8.2369057    194.27039  0.015031754  0.014647089           35 
 1078000   0.81118014   -8.2344075    194.26595  0.015017467  0.014633333           37 
 1079000   0.80856513   -8.2484794    193.50584  0.014944844  0.014619602           18 
 1080000   0.82729342   -8.2447712    193.82411  0.014955564  0.014605861           29 
 1081000   0.82036415   -8.2456468    194.05427  0.014959472  0.014592182           25 
 1082000   0.81425397   -8.2671252    193.99121  0.014940789  0.014578467           19 
 1083000   0.83691416   -8.3001042    193.78696  0.014911277  0.014564748           31 
 1084000   0.81358624   -8.2635159    193.86661  0.014903644  0.014551004           14 
 1085000   0.81786884   -8.3193916    193.67259  0.014875007  0.014537199           20 
 1086000   0.81965201   -8.2798418    193.71517  0.014864577  0.014523438           22 
 1087000   0.81666223   -8.2772555    194.20248  0.014888261  0.014509652           15 
 1088000    0.8093142   -8.3197654    193.64746  0.014832066  0.014495896            9 
 1089000   0.80973933   -8.2925701     194.1821  0.014859359   0.01448213           11 
 1090000   0.82134462   -8.2616752    194.46816  0.014867597  0.014468505           16 
 1091000   0.81745928   -8.2766195    194.22522  0.014835413  0.014454865           17 
 1092000   0.82338346   -8.3056652    194.08326  0.014810993  0.014441173           26 
 1093000   0.82472994   -8.2911813    193.90582  0.014783914  0.014427573           21 
 1094000   0.82870088   -8.2587777    194.02129  0.014779197  0.014413984           30 
 1095000   0.81846248   -8.3119705     193.4584  0.014722862  0.014400397           22 
 1096000   0.79876641   -8.3017543    193.99065  0.014749897  0.014386736           15 
 1097000   0.84301193    -8.300264    193.98784  0.014736238  0.014373051           37 
 1098000   0.80411265   -8.2745846    194.00396   0.01472404  0.014359368           26 
 1099000   0.80893789    -8.268749    194.00887  0.014711016  0.014345793           31 
 1100000   0.81978585   -8.3212629    193.94827  0.014693051  0.014332149           36 
 1101000   0.80252448   -8.3413953    193.75904  0.014665383  0.014318475           41 
 1102000   0.80956685   -8.2871927    194.27434  0.014691042  0.014304909           35 
 1103000   0.80693294   -8.3066445    194.18054  0.014670636  0.014291368           19 
 1104000   0.79828296   -8.2972522    194.68528  0.014695447  0.014277818           40 
 1105000   0.81566233   -8.2703671    194.16842  0.014643169  0.014264247           24 
 1106000   0.82830302   -8.2885966    193.98494  0.014616105  0.014250682           34 
 1107000   0.80735334   -8.2856849     194.2174  0.014620401  0.014237123           21 
 1108000   0.80768719   -8.3214161    194.20103  0.014605974  0.014223548           69 
 1109000   0.81025037   -8.2911793    194.03015  0.014579963  0.014210008           76 
 1110000    0.8091922   -8.3182152    194.19866  0.014579479  0.014196395           21 
 1111000   0.79807329    -8.304789     194.4273  0.014583506  0.014182844           49 
 1112000   0.80549823   -8.3007484    194.30201  0.014561002  0.014169312           25 
 1113000   0.81126754   -8.2887952    194.61233  0.014571154  0.014155794           40 
 1114000   0.81316535   -8.2971685    194.64299  0.014560367   0.01414233           32 
 1115000   0.79794591   -8.2490209     195.1661  0.014586405  0.014128899           21 
 1116000   0.79203645   -8.2682494    194.81422   0.01454706  0.014115456           58 
 1117000   0.80232538    -8.308164    194.18697   0.01448724  0.014102008           66 
 1118000   0.80693852   -8.2853145    194.84205  0.014523111  0.014088632           46 
 1119000   0.81198278   -8.2667359    194.85151  0.014510837  0.014075279           58 
 1120000   0.79808886   -8.2854015    194.62889  0.014481316  0.014061906           28 
 1121000    0.8025535   -8.2772933    194.47967  0.014457305  0.014048485           41 
 1122000   0.79938154   -8.2692894    194.64814  0.014456933  0.014035179           35 
 1123000   0.80762499   -8.2863752    194.75201  0.014451767  0.014021839           54 
 1124000   0.78497395   -8.3101059    194.66254  0.014432276   0.01400845           49 
 1125000   0.80584613   -8.3070685    194.20858  0.014385821  0.013995056           70 
 1126000   0.79943403   -8.3354563    194.22132  0.014373988   0.01398164           71 
 1127000   0.80147821   -8.3323383     193.9598  0.014341896  0.013968136          103 
 1128000   0.80315063   -8.3030982    194.74434  0.014387141  0.013954736           94 
 1129000   0.80306067   -8.3118458    194.57819  0.014362134  0.013941321           78 
 1130000   0.79149982   -8.3222101    194.22844  0.014323631  0.013927879           99 
 1131000   0.80008502   -8.3139389    194.75214  0.014349553  0.013914502          106 
 1132000   0.79262555   -8.3209943    194.72288  0.014334723  0.013901123           85 
 1133000   0.82150216   -8.3149665    194.52144  0.014307255  0.013887806          116 
 1134000   0.80923413   -8.3205071    194.84972  0.014318762  0.013874515          117 
 1135000   0.80121304    -8.310132    194.88507  0.014308742  0.013861177           90 
 1136000   0.79664325   -8.3404341    194.76797  0.014287557   0.01384778          102 
 1137000   0.78896666   -8.3434158    193.85324  0.014207948  0.013834396          116 
 1138000   0.80328009   -8.3501535    193.96872  0.014203919  0.013820948          105 
 1139000    0.7888703   -8.3390343    194.17907  0.014206839  0.013807512          126 
 1140000   0.80006748   -8.3626962    194.23488  0.014198456  0.013794036          144 
 1141000   0.80312842   -8.3430599     194.4002  0.014198087  0.013780621          111 
 1142000    0.7834725   -8.3565163    194.26442  0.014175746  0.013767171          124 
 1143000   0.78291001   -8.3482535    194.36804  0.014170898  0.013753804          154 
 1144000   0.79375853   -8.3481675     194.0545  0.014135672  0.013740445          146 
 1145000   0.77952868   -8.3682845    194.18413   0.01413276  0.013727052          116 
 1146000   0.78817256   -8.3797566    194.27936  0.014127353  0.013713704          133 
 1147000   0.79456895   -8.3613783    194.21834  0.014110603  0.013700382          154 
 1148000   0.80468567   -8.3302552    194.19983  0.014096968  0.013687049          151 
 1149000   0.78043751   -8.3751475    194.22835  0.014086767  0.013673672          165 
 1150000   0.79423678    -8.345842    194.36348   0.01408431  0.013660293          162 
 1151000    0.8004373   -8.3860497    194.00968  0.014046458  0.013646961          165 
 1152000   0.78888651   -8.3764999     193.9863  0.014032574  0.013633611          174 
 1153000   0.78486952   -8.3636123    194.67324  0.014070052  0.013620316          171 
 1154000   0.79262646   -8.3781038    194.71494  0.014060871  0.013607027          187 
 1155000   0.79055686   -8.4073255    194.45238  0.014029753  0.013593758          218 
 1156000   0.80223076   -8.3846972    194.10795  0.013992788  0.013580495          216 
 1157000   0.79159448   -8.3760444     194.1741  0.013985458  0.013567254          237 
 1158000   0.79503524   -8.4283251    194.30667  0.013982921  0.013554005          205 
 1159000   0.77356405   -8.3688956    194.02505  0.013950607  0.013540728          233 
 1160000   0.80634854   -8.3541027    194.52287  0.013974344  0.013527482          234 
 1161000   0.77410257   -8.4273747    194.35728  0.013950422  0.013514244          239 
 1162000   0.79488347    -8.351022    194.73145  0.013965251  0.013501007          253 
 1163000   0.78489948   -8.3366546    194.55045  0.013940273  0.013487817          236 
 1164000   0.78096373   -8.4086332    194.36469  0.013914998  0.013474604          274 
 1165000   0.80520434   -8.3740112    193.98925  0.013876198  0.013461353          263 
 1166000   0.79022751   -8.3859086    194.14392  0.013875352  0.013448127          272 
 1167000   0.80282556   -8.4000262    193.98367  0.013852018  0.013434893          329 
 1168000   0.78507419   -8.4235416    193.94824  0.013837632  0.013421686          332 
 1169000   0.78071337    -8.438018    194.08272  0.013835381  0.013408433          397 
 1170000   0.78989824   -8.3942242    194.35694  0.013843087  0.013395225          433 
 1171000   0.78714947   -8.4233465    194.41622  0.013835484   0.01338205          337 
 1172000   0.80168877   -8.4144967    194.07969  0.013799751  0.013368915          392 
 1173000    0.7881593   -8.4577383    194.29592  0.013803347  0.013355772          445 
 1174000   0.79861728   -8.4043596    194.25299  0.013788543  0.013342602          436 
 1175000   0.77908822   -8.4419235    194.04595  0.013762124  0.013329426          391 
 1176000   0.79031835   -8.4518027    194.00318  0.013747391  0.013316225          379 
 1177000   0.77767162   -8.4572778    193.91745  0.013729641  0.013303058          505 
 1178000   0.79042087   -8.4771927    193.69321  0.013702123  0.013289941          465 
 1179000   0.78523069    -8.446229    193.95868  0.013709265  0.013276858          428 
 1180000   0.77131817   -8.4928609    194.34183  0.013724705  0.013263756          481 
 1181000    0.7945073   -8.4577831    194.19141  0.013702471  0.013250648          427 
 1182000     0.770699   -8.4539139     194.3732  0.013703694  0.013237506          519 
 1183000   0.78876592   -8.4651252     194.3624  0.013691349  0.013224388          528 
 1184000   0.77964574    -8.458392    194.27696  0.013673773  0.013211256          505 
 1185000   0.76614037    -8.471529    193.68172  0.013620374  0.013198157          506 
 1186000   0.78374227     -8.47577    194.13671  0.013640859  0.013185069          532 
 1187000   0.80236219   -8.4790847    193.94591  0.013615972  0.013171969          587 
 1188000   0.78288356    -8.462572    193.62167  0.013581767  0.013158902          600 
 1189000   0.78421113   -8.4716166    193.86511  0.013587406  0.013145762          655 
 1190000   0.77110662   -8.5076449    194.08132  0.013591129  0.013132659          774 
 1191000    0.7729714   -8.5034606    193.54841   0.01354243  0.013119535          644 
 1192000   0.76821082   -8.4741529    194.55229  0.013601251  0.013106453          621 
 1193000   0.78079669   -8.4821934    194.17266  0.013563332  0.013093424          657 
 1194000   0.76973565   -8.5127805    193.95812  0.013536999  0.013080396          667 
 1195000   0.76492334   -8.4890795    193.72137  0.013509161  0.013067333          702 
 1196000   0.76559273   -8.5139155    193.72273   0.01349796  0.013054277          715 
 1197000   0.78311093   -8.5090276    193.91151  0.013499827  0.013041257          743 
 1198000   0.77079248   -8.5187787    193.91208  0.013488597  0.013028197          775 
 1199000   0.77657638    -8.518387    193.61411  0.013456638  0.013015125          844 
 1200000   0.77435651   -8.5231803    193.95134  0.013468843  0.013002021          832 
 1201000   0.77855139   -8.5406958    193.51528  0.013427372  0.012988931          848 
 1202000   0.75821054   -8.5488146    193.46924  0.013413009  0.012975816          809 
 1203000   0.78310958   -8.5512184    193.20682  0.013383681   0.01296268          902 
 1204000   0.76284179   -8.5379096    193.00117  0.013358332  0.012949578          893 
 1205000   0.76890029   -8.5158521    193.29092  0.013367283  0.012936509          926 
 1206000   0.78647997   -8.5341536    193.33081  0.013358956  0.012923397          930 
 1207000   0.78361956   -8.5501704    193.55934  0.013363666  0.012910317          907 
 1208000   0.75996608   -8.5543091    192.99818  0.013313892  0.012897187         1049 
 1209000   0.77513435   -8.5747359    193.51023  0.013338174  0.012884082          936 
 1210000   0.78461497   -8.5846805    193.20947  0.013306437   0.01287094          996 
 1211000   0.78160927   -8.5860518    192.53317  0.013248911  0.012857796          970 
 1212000   0.76098444   -8.5708245    193.15241  0.013280556  0.012844656          994 
 1213000   0.75562441   -8.6028159    193.10584  0.013266408  0.012831563         1117 
 1214000   0.76889978   -8.5793493    193.42457  0.013277359  0.012818423         1026 
 1215000   0.74805716   -8.6278243    193.16638  0.013248723  0.012805259         1080 
 1216000   0.78916071   -8.5963999    193.09595  0.013233001  0.012792084         1074 
 1217000   0.78315921   -8.6275474    192.35235   0.01317121  0.012778912         1073 
 1218000   0.75634842   -8.5896878    193.27796  0.013223725  0.012765772         1077 
 1219000   0.75530993   -8.6183356    192.53685  0.013162213  0.012752662         1200 
 1220000   0.75093514   -8.5951173    193.07026  0.013187859  0.012739583         1119 
 1221000   0.77568196   -8.5961926     193.1482  0.013182378  0.012726515         1114 
 1222000   0.75825413    -8.606839    193.13485   0.01317068  0.012713404         1154 
 1223000   0.75584462   -8.6104757    193.12398   0.01315917    0.0127003         1176 
 1224000   0.77790263   -8.6457073     193.0768  0.013145207  0.012687224         1151 
 1225000   0.76412021   -8.6149059    193.02871  0.013131205  0.012674182         1166 
 1226000   0.76496131   -8.6343885    192.66797  0.013095974  0.012661144         1290 
 1227000   0.77368484    -8.602345    192.97106  0.013105886  0.012648053         1289 
 1228000   0.76025754    -8.629327    193.40433  0.013124615  0.012634986         1281 
 1229000   0.75149152   -8.6409483    192.82387  0.013074578   0.01262194         1251 
 1230000    0.7727941   -8.6617317    192.63007  0.013050818  0.012608908         1445 
 1231000   0.74837976   -8.6632291    192.85753  0.013055614  0.012595849         1438 
 1232000   0.76979961    -8.641541    192.69422  0.013033971  0.012582816         1390 
 1233000    0.7526381   -8.6430676     192.8716  0.013035388  0.012569804         1495 
 1234000   0.76833265   -8.6534076    192.56184  0.013003906  0.012556784         1549 
 1235000   0.76458294   -8.6690278     192.4847  0.012988171  0.012543751         1386 
 1236000    0.7647134   -8.7047241    192.03875  0.012947596  0.012530692         1602 
 1237000   0.74677776   -8.6997758    192.34227  0.012957577  0.012517615         1578 
 1238000   0.75836777   -8.7075735    192.38317  0.012949863  0.012504563         1628 
 1239000   0.75703945   -8.7318397    192.11804  0.012921579   0.01249146         1729 
 1240000    0.7371094   -8.7158164     192.0333  0.012905464  0.012478389         1783 
 1241000   0.76310293   -8.7414449    192.33866  0.012915569  0.012465279         1769 
 1242000   0.75842345   -8.7542697     191.9824  0.012881267  0.012452164         1748 
 1243000   0.76769135   -8.7839374    192.03898  0.012874697  0.012439077         1777 
 1244000   0.74797274    -8.742506    192.06307  0.012865961  0.012425978         1856 
 1245000   0.76902677   -8.7738882    191.79752  0.012837853  0.012412887         1777 
 1246000   0.77062855   -8.7407734    192.18682  0.012853586  0.012399817         1817 
 1247000   0.75163485   -8.7487178    192.04233  0.012833623  0.012386765         1861 
 1248000   0.74885993   -8.7877746     191.9301  0.012815845  0.012373673         1919 
 1249000   0.75890218   -8.7823412    191.54029  0.012779576  0.012360575         1918 
 1250000   0.77272694   -8.8022329    191.69625   0.01277975  0.012347484         1908 
 1251000   0.76634976    -8.776982    191.90944  0.012783735  0.012334412         2009 
 1252000   0.74644039   -8.7858272    191.87162  0.012771008  0.012321326         2130 
 1253000   0.76469167   -8.7830844    191.93172  0.012764812  0.012308223         2090 
 1254000   0.76532791   -8.8101144     191.5662  0.012730343  0.012295117         2234 
 1255000   0.75205206   -8.8311839    191.35396  0.012706106  0.012281998         2212 
 1256000   0.74772085   -8.8507147    191.34678  0.012695513  0.012268866         2223 
 1257000    0.7531784   -8.8088999    191.61947  0.012703492   0.01225573         2313 
 1258000   0.75221135   -8.8542866    191.05071  0.012655717  0.012242601         2376 
 1259000   0.77372328    -8.845274    191.16133  0.012652987  0.012229461         2371 
 1260000   0.75140275    -8.833658    191.38836   0.01265796  0.012216309         2489 
 1261000   0.76369218   -8.8600487    190.68479  0.012601427  0.012203191         2495 
 1262000   0.74476387    -8.883654     191.0656  0.012616588  0.012190006         2557 
 1263000    0.7517858   -8.9023256    190.47743  0.012567791  0.012176797         2591 
 1264000   0.73835963   -8.9135248    190.57202  0.012564083   0.01216357         2640 
 1265000   0.74731952   -8.9395433    190.41764  0.012543981  0.012150297         2677 
 1266000   0.74457761   -8.9400047    190.25084  0.012523094  0.012137009         2808 
 1267000   0.74495429   -8.9729978    190.06196  0.012500786  0.012123673         2873 
 1268000   0.74446839   -8.9883778    189.96829  0.012484772  0.012110321         2863 
 1269000   0.74352218   -8.9904476    189.94197  0.012473205  0.012096944         2907 
 1270000   0.74216642   -8.9961952    189.89896  0.012460562  0.012083558         2950 
 1271000   0.75299329   -8.9908687    189.58867  0.012430414   0.01207017         2998 
 1272000   0.73995526   -8.9959642    189.80817  0.012435021  0.012056766         3007 
 1273000    0.7637374   -9.0127259    189.47484  0.012403433  0.012043357         3159 
 1274000   0.75488681   -9.0459311     189.2098  0.012376361  0.012029935         3151 
 1275000   0.72872981   -9.0583413    189.29006  0.012371899  0.012016483         3214 
 1276000   0.76516436   -9.0734196    188.93647  0.012339111  0.012003045         3224 
 1277000   0.74323027   -9.0469963    189.83949  0.012388377  0.011989612         3186 
 1278000   0.73143234   -9.0526926    189.38353  0.012348952  0.011976173         3267 
 1279000   0.73930673   -9.0707443    188.99666   0.01231409  0.011962704         3277 
 1280000   0.75147233   -9.0881335    189.04781    0.0123078  0.011949249         3372 
 1281000   0.73206117   -9.0669844    188.92513  0.012290212  0.011935829         3381 
 1282000   0.73270319   -9.0866051    189.07641  0.012290458  0.011922408         3408 
 1283000   0.75413756   -9.1189041    188.73799  0.012258898   0.01190893         3492 
 1284000   0.74285051   -9.1056451    188.84957  0.012256592  0.011895453         3482 
 1285000   0.73336519   -9.1486219    188.73912  0.012239891  0.011881967         3512 
 1286000   0.75666986   -9.1629308    187.99887  0.012182405  0.011868454         3594 
 1287000   0.74473292    -9.131352    188.16612  0.012183768  0.011854946         3592 
 1288000   0.74478895   -9.1678522    188.72316   0.01221035   0.01184145         3640 
 1289000   0.74025538   -9.1533597    188.51407  0.012187359  0.011827964         3662 
 1290000   0.73943643     -9.23008    188.00685  0.012145145   0.01181446         3659 
 1291000   0.73201864     -9.18144    188.12237  0.012143194  0.011800963         3701 
 1292000    0.7405309   -9.1637997    187.89085  0.012118863  0.011787447         3733 
 1293000   0.73603867   -9.2145684    187.41098  0.012078563  0.011773921         3737 
 1294000   0.72958172   -9.1955852    187.96839  0.012105125  0.011760409         3756 
 1295000    0.7347602   -9.2057578    188.07573  0.012102685  0.011746909         3795 
 1296000   0.74144033   -9.1994672    188.12727  0.012096661   0.01173342         3786 
 1297000   0.73496735   -9.1922974    188.17961  0.012090697  0.011719951         3775 
 1298000   0.73581547   -9.1664406     187.7917  0.012056478  0.011706515         3777 
 1299000    0.7387975   -9.2101914    187.74532  0.012044221  0.011693095         3795 
 1300000   0.73715715   -9.1992652    187.64037  0.012028229  0.011679675         3763 
 1301000   0.73609828   -9.2102276    188.10714  0.012048882  0.011666287         3779 
 1302000   0.73297777   -9.2111149    188.13395  0.012041343  0.011652902         3764 
 1303000    0.7283028   -9.2204504      188.233  0.012038437  0.011639543         3792 
 1304000   0.72817925   -9.2235658    187.64023  0.011991323  0.011626183         3775 
 1305000   0.74996814   -9.2397099    187.79366  0.011991933  0.011612848         3793 
 1306000   0.73990339   -9.2125379    187.86619  0.011987378  0.011599511         3799 
 1307000   0.73897237   -9.2270815    188.04645    0.0119897  0.011586199         3804 
 1308000   0.73041031   -9.2333607    187.87788  0.011969793  0.011572888         3839 
 1309000   0.74274309   -9.2530805     187.5787  0.011941603  0.011559608         3839 
 1310000   0.71349594   -9.2339961    187.58566   0.01193293  0.011546327         3836 
 1311000   0.73288019   -9.2171674    187.69924  0.011931047  0.011533076         3853 
 1312000    0.7396749   -9.2367654    187.46783  0.011907255  0.011519832         3818 
 1313000   0.74091626   -9.2301248    188.21292  0.011945476  0.011506609         3827 
 1314000   0.72764049   -9.2317431     187.6291  0.011899359  0.011493392         3802 
 1315000   0.74686471   -9.2486113    187.62154  0.011889831  0.011480209         3856 
 1316000   0.74680834   -9.2798522    187.59512  0.011879124  0.011467011         3851 
 1317000   0.73126488    -9.243764    187.57737  0.011868981  0.011453824         3830 
 1318000   0.71786337   -9.2730688    187.20065  0.011836156   0.01144066         3867 
 1319000    0.7156905   -9.2499331    187.78632  0.011864185  0.011427517         3862 
 1320000   0.74028085   -9.2498389    187.16912  0.011816233  0.011414377         3852 
 1321000   0.71936114   -9.2817117    187.20975  0.011809851  0.011401236         3879 
 1322000     0.739504   -9.2611216    187.49297   0.01181877  0.011388137         3861 
 1323000   0.73651885   -9.2888087    187.08781  0.011784317  0.011375033         3865 
 1324000   0.72295546   -9.2810854    187.53411  0.011803506  0.011361961         3870 
 1325000   0.72019782   -9.2709922    187.75966  0.011808784   0.01134889         3861 
 1326000   0.72358199   -9.2883347    187.40128  0.011777355  0.011335819         3894 
 1327000   0.72781012    -9.307358    187.38249    0.0117673  0.011322784         3876 
 1328000   0.71980596    -9.292497    187.48213  0.011764692  0.011309765         3868 
 1329000   0.72552156   -9.2890784    187.44332  0.011753406  0.011296754         3848 
 1330000   0.72439324   -9.2732841    186.97536  0.011715248   0.01128375         3884 
 1331000   0.71969983   -9.2825613    187.53503  0.011741487  0.011270754         3855 
 1332000   0.69591802   -9.2759647    187.51427  0.011731374  0.011257794         3874 
 1333000   0.70594392   -9.3136284    186.78232  0.011676814  0.011244852         3872 
 1334000   0.72508561   -9.2835541    187.26277  0.011698074  0.011231929         3852 
 1335000   0.72217493   -9.2885928     187.5076  0.011704595  0.011219028         3873 
 1336000   0.73903343   -9.3100615    187.07816  0.011669047  0.011206128         3858 
 1337000   0.70756517   -9.2883615    187.38097  0.011679193  0.011193256         3885 
 1338000   0.73274471   -9.3088168    187.32154  0.011666762  0.011180384         3887 
 1339000   0.71006783   -9.3000084    187.35596  0.011660192  0.011167535         3886 
 1340000   0.70682035    -9.288525    186.94241  0.011625772  0.011154716         3859 
 1341000   0.72552118   -9.2888992    187.14267  0.011629547  0.011141909         3867 
 1342000   0.73389087   -9.2777539    187.28303  0.011629597   0.01112913         3902 
 1343000   0.70321578   -9.2916859    186.93373  0.011599263  0.011116357         3878 
 1344000   0.71812484   -9.3034971    187.10617  0.011601325  0.011103603         3869 
 1345000    0.7179959   -9.3079167    187.40081  0.011610955  0.011090886         3843 
 1346000   0.70669234   -9.2969677    186.98739  0.011576733   0.01107817         3877 
 1347000   0.71223037   -9.3021825    186.98576  0.011568038  0.011065471         3893 
 1348000   0.70750812   -9.2975468    186.96857  0.011558393  0.011052788         3843 
 1349000   0.73634195   -9.2891965    187.43803  0.011578826  0.011040112         3875 
 1350000   0.73540607   -9.3039176    187.09691  0.011549192  0.011027448         3897 
 1351000   0.71343043   -9.3174955    186.99226  0.011534188  0.011014804         3891 
 1352000   0.71327387   -9.3114144    187.20524  0.011538784  0.011002168         3912 
 1353000   0.70769858    -9.301896    186.81706  0.011506347  0.010989545         3908 
 1354000   0.71628312   -9.3109387    186.93433  0.011505067  0.010976945         3899 
 1355000   0.69973736   -9.3412867    186.54435  0.011472592  0.010964371         3902 
 1356000   0.68881278    -9.318844    187.10327   0.01149848  0.010951806         3887 
 1357000   0.72043696   -9.2984927    186.87968  0.011476276  0.010939267         3914 
 1358000   0.71044663   -9.3144241    186.99996  0.011475206   0.01092675         3897 
 1359000   0.71943699   -9.3137764    186.79367  0.011454113  0.010914237         3883 
 1360000   0.70373933   -9.3195347    186.78356  0.011445071  0.010901735         3909 
 1361000   0.71232575   -9.3325415    186.71582  0.011432514  0.010889249         3914 
 1362000   0.70351045   -9.3526732    186.64071  0.011419525  0.010876781         3918 
 1363000   0.70754146   -9.3248228    187.10578  0.011439581  0.010864329         3931 
 1364000   0.70241375    -9.340755    186.67339  0.011404777  0.010851903         3912 
 1365000   0.69861073    -9.329232    186.76395  0.011401951  0.010839482         3934 
 1366000   0.71997697    -9.328354    186.97625  0.011406555  0.010827089         3905 
 1367000   0.70912942   -9.3293445    186.79042  0.011386883  0.010814709         3927 
 1368000   0.68339787   -9.3167585    186.83711  0.011381403  0.010802353         3930 
 1369000   0.71538471   -9.3456897    186.80722   0.01137127   0.01079002         3940 
 1370000   0.71139128   -9.3302473    186.97904  0.011373421  0.010777699         3919 
 1371000   0.70549961   -9.3211716    186.84233  0.011356816  0.010765375         3896 
 1372000    0.7049241   -9.3299665    186.65223  0.011336991  0.010753082         3909 
 1373000   0.69970121   -9.3318813    187.07534  0.011354415  0.010740805         3911 
 1374000   0.70204388   -9.3392396    187.11346  0.011348463   0.01072854         3922 
 1375000   0.68343002   -9.3281474    186.82351  0.011322637  0.010716294         3914 
 1376000   0.71736273   -9.3319489    187.10252  0.011331306  0.010704069         3893 
 1377000    0.7070842   -9.3199294    187.04621  0.011319669  0.010691872         3917 
 1378000   0.70455546   -9.3366665    186.64409  0.011287136  0.010679676         3923 
 1379000   0.70187512   -9.3240777    186.89252  0.011293964  0.010667491         3922 
 1380000   0.71585996   -9.3557652    186.95829  0.011289752  0.010655327         3924 
 1381000   0.70360311   -9.3079387    186.77717  0.011270648  0.010643179         3930 
 1382000   0.71551903   -9.3605935    186.52441  0.011247251  0.010631037         3926 
 1383000   0.69862466   -9.3219245    186.47597  0.011236199  0.010618904         3929 
 1384000   0.69878174   -9.3605262    186.70283  0.011241741  0.010606801         3939 
 1385000   0.70108506   -9.3486211    186.55416  0.011224679  0.010594706         3930 
 1386000   0.68758621   -9.3544767    186.40356  0.011207525  0.010582643         3915 
 1387000   0.70446396   -9.3816882    186.52116   0.01120651  0.010570596         3936 
 1388000   0.70535413   -9.3359572    186.26499  0.011183056  0.010558557         3914 
 1389000   0.69445324   -9.3570116    186.59483  0.011194794  0.010546545         3933 
 1390000   0.70211136   -9.3442123    186.41713  0.011176087  0.010534564         3921 
 1391000   0.70102708   -9.3509409    186.21127  0.011155719  0.010522573         3925 
 1392000   0.69044937   -9.3688707    186.89942  0.011188902  0.010510598         3924 
 1393000   0.70331729   -9.3873777    186.32903  0.011146747  0.010498652         3924 
 1394000    0.6826203   -9.3702545    186.79741  0.011166751  0.010486718         3941 
 1395000   0.70037342   -9.3756439    186.40386  0.011135236  0.010474818         3940 
 1396000   0.68626081   -9.3767574    186.53107  0.011134854  0.010462917         3925 
 1397000   0.70503745   -9.3754111    186.28121  0.011111979  0.010451054         3936 
 1398000   0.69127838   -9.3506165    186.77566  0.011133504  0.010439184         3920 
 1399000   0.69093131   -9.3698699    186.47281  0.011107506  0.010427339         3924 
 1400000   0.68282863   -9.3729312    186.17783  0.011082013  0.010415518         3939 
 1401000   0.69479777   -9.3808867    186.53411  0.011095295   0.01040371         3918 
 1402000   0.69074952   -9.3743016    186.63572  0.011093422  0.010391924         3936 
 1403000   0.69499294   -9.3861197    186.35174  0.011068647  0.010380138         3929 
 1404000   0.69113787   -9.3722561    186.54282  0.011072105  0.010368373         3938 
 1405000    0.6904776   -9.3733269    186.72367  0.011074951  0.010356635         3919 
 1406000   0.69156278   -9.3646317    186.65097  0.011062765  0.010344906         3929 
 1407000   0.69622738   -9.3734857    186.36998   0.01103826  0.010333185         3942 
 1408000   0.69160657   -9.3810258    186.57186  0.011042369  0.010321474         3917 
 1409000   0.69257529   -9.3788532    186.21569  0.011013466   0.01030979         3921 
 1410000   0.68917012   -9.3885668    186.54982  0.011025403  0.010298122         3936 
 1411000   0.68481382   -9.3862782    186.48964  0.011014035  0.010286474         3920 
 1412000   0.69455537   -9.3791245    186.50955   0.01100741  0.010274839         3941 
 1413000   0.71146409   -9.3788574    186.56929  0.011003143  0.010263219         3932 
 1414000   0.68453397   -9.3782547    186.38847  0.010984705   0.01025162         3937 
 1415000   0.68769119    -9.404786    186.52232  0.010984824  0.010240036         3942 
 1416000   0.67865803    -9.421364    186.36256  0.010967665  0.010228463         3925 
 1417000   0.69450938   -9.3904363     186.6094  0.010974441  0.010216911         3936 
 1418000   0.69667001    -9.376047    186.51475  0.010961139  0.010205392         3924 
 1419000   0.69640352   -9.3882265    186.65126  0.010961432  0.010193869         3929 
 1420000   0.69642017    -9.381086    186.52484  0.010946293  0.010182367         3938 
 1421000   0.69700596   -9.4042576    185.99423  0.010907473  0.010170884         3930 
 1422000   0.67509754   -9.3922708    186.15914  0.010909467  0.010159415         3927 
 1423000   0.69359085   -9.3894959    186.44152  0.010918337   0.01014796         3925 
 1424000   0.69196952   -9.3884428     186.5901  0.010919364  0.010136524         3935 
 1425000   0.70210196    -9.372242    186.21334  0.010889669   0.01012511         3934 
 1426000   0.67902057    -9.368316    186.60845  0.010905122  0.010113715         3918 
 1427000   0.68145414   -9.4046015    186.53919  0.010893436  0.010102326         3912 
 1428000    0.6827227   -9.4097521    186.32077  0.010873061  0.010090959         3934 
 1429000   0.66721708   -9.3795115    186.85713   0.01089673   0.01007961         3917 
 1430000   0.66858808   -9.3898057    186.45885    0.0108659  0.010068272         3936 
 1431000   0.69264073   -9.3696344    186.54407   0.01086327  0.010056963         3936 
 1432000   0.68930509   -9.3785667    186.22713   0.01083724  0.010045662         3924 
 1433000   0.68047468   -9.3872824    186.07123  0.010820611  0.010034378         3933 
 1434000   0.69534332   -9.4081201    186.07335  0.010813189  0.010023104         3915 
 1435000   0.67313385   -9.3931874    186.66896  0.010840242  0.010011843         3923 
 1436000   0.67061745   -9.3868959    186.15041    0.0108026  0.010000607         3941 
 1437000   0.67471999   -9.4118898    185.98676  0.010785593 0.0099893804         3934 
 1438000   0.66718869   -9.4037798    186.12279  0.010785975   0.00997817         3922 
 1439000   0.69207421   -9.3919242    186.38086  0.010793425  0.009966973         3933 
 1440000   0.68848147   -9.3850037    186.17383  0.010773949 0.0099558015         3938 
 1441000   0.69205885   -9.3996027    186.13425  0.010764183 0.0099446378         3924 
 1442000    0.6858812   -9.3899011    186.41792  0.010773111 0.0099334939         3935 
 1443000   0.68475528   -9.3793437     186.1194  0.010748406 0.0099223698         3922 
 1444000   0.66366083   -9.3834957    186.33935  0.010753656 0.0099112574         3919 
 1445000   0.68004554   -9.3883821    185.87253  0.010719293 0.0099001555         3921 
 1446000   0.67938659   -9.4015648    186.26202  0.010734326   0.00988906         3918 
 1447000   0.67204246   -9.3986217    185.87301  0.010704504 0.0098779923         3930 
 1448000   0.66919407   -9.3890489    186.25982  0.010719373 0.0098669305         3929 
 1449000   0.68130642   -9.3945599    186.46971  0.010724046 0.0098558863         3938 
 1450000   0.66966822   -9.3947284    186.41872  0.010713719 0.0098448689         3938 
 1451000   0.67894536   -9.3974335    186.48207  0.010709974 0.0098338623         3917 
 1452000   0.69091903   -9.4406121    186.01038  0.010675527 0.0098228667         3938 
 1453000   0.65699199   -9.4217405    186.30569  0.010685116 0.0098118793         3923 
 1454000   0.66993326    -9.409935    185.81075  0.010649401 0.0098008998         3931 
 1455000   0.66226235   -9.4096956    185.94891  0.010649995 0.0097899324         3938 
 1456000   0.66979962   -9.4103298    185.86444  0.010637845 0.0097789872         3948 
 1457000   0.67236997     -9.43238    186.00931   0.01063883 0.0097680438         3941 
 1458000   0.66825909    -9.413875    185.89788  0.010625164 0.0097571333         3934 
 1459000   0.68042559   -9.4193517    186.10665  0.010629806  0.009746238         3946 
 1460000   0.66231625   -9.4028229    185.88035  0.010609609 0.0097353651         3939 
 1461000   0.68129214   -9.4103135    185.75385  0.010595132 0.0097244968         3935 
 1462000   0.67626367    -9.416661    185.80757  0.010590947 0.0097136517         3942 
 1463000   0.67685994   -9.4209363    185.84728  0.010585969  0.009702821         3947 
 1464000   0.68667923    -9.415169    185.80556  0.010576364 0.0096920061         3947 
 1465000   0.68128354    -9.421163    185.93345  0.010576419 0.0096812013         3950 
 1466000   0.69209303   -9.4173021    185.94837  0.010570053 0.0096704201         3948 
 1467000    0.6680276   -9.4299076    185.82472  0.010555824 0.0096596398         3953 
 1468000   0.66407566   -9.4265277    186.26974  0.010573895 0.0096488862         3938 
 1469000   0.66949255    -9.437175    185.99555  0.010551143 0.0096381394         3940 
 1470000   0.67855156     -9.42637    185.84299  0.010535317 0.0096274006         3959 
 1471000   0.67339319   -9.4422208    185.97803  0.010535805  0.009616691         3936 
 1472000   0.66609494   -9.4270051     185.7095  0.010513445 0.0096059964         3924 
 1473000   0.66730095   -9.4415527    185.96155  0.010520568 0.0095953073         3957 
 1474000   0.67293128   -9.4307026    185.77943  0.010503134  0.009584631         3945 
 1475000   0.66043672   -9.4208609     185.8933  0.010502446 0.0095739741         3938 
 1476000   0.66976383   -9.4449711    185.82283  0.010491352 0.0095633448         3932 
 1477000   0.66725777   -9.4400703    185.87464  0.010487172 0.0095527226         3934 
 1478000   0.66698849   -9.4521025    185.91583  0.010482399 0.0095421271         3951 
 1479000   0.66647964   -9.4157408    185.64854  0.010460251 0.0095315461         3946 
 1480000   0.65995136   -9.4210821    185.95453  0.010470413   0.00952096         3936 
 1481000    0.6601518   -9.4388426    185.97174  0.010464311 0.0095103869         3921 
 1482000   0.66657163   -9.4455783    186.01176  0.010459501 0.0094998497         3954 
 1483000   0.67282283    -9.404798    185.78014  0.010439433 0.0094893356         3937 
 1484000   0.66106277   -9.4521555    185.82518  0.010434927 0.0094788214         3954 
 1485000   0.64172102   -9.4279617    185.86043  0.010429878 0.0094683299         3942 
 1486000   0.65388792   -9.4490881    185.72306  0.010415156 0.0094578433         3946 
 1487000   0.65900015   -9.4474036    185.65647   0.01040442 0.0094473793         3960 
 1488000   0.65591791   -9.4473542    185.79055  0.010404937 0.0094369252         3954 
 1489000   0.65717554   -9.4565423    185.67455  0.010391457 0.0094264893         3957 
 1490000   0.66222545   -9.4486978    185.83923  0.010393693 0.0094160693         3953 
 1491000   0.64919875   -9.4158116    185.67953  0.010377796 0.0094056657         3956 
 1492000   0.66731616   -9.4369939    185.99407  0.010388408   0.00939527         3940 
 1493000   0.65730299   -9.4544168    185.47959  0.010352735  0.009384888         3949 
 1494000   0.65726913   -9.4300898    185.63588  0.010354523 0.0093745112         3954 
 1495000   0.65728179   -9.4251234    185.83656  0.010358783 0.0093641568         3958 
 1496000   0.64720587   -9.4531321    185.84175  0.010352147 0.0093538287         3961 
 1497000   0.63895688   -9.4531622    185.78321  0.010341973 0.0093435059         3957 
 1498000   0.65014852   -9.4516661    185.53406  0.010321209    0.0093332         3952 
 1499000   0.63777401   -9.4466968    185.63459  0.010319913 0.0093229102         3965 
 1500000   0.64510198   -9.4530271    185.82555  0.010323642 0.0093126367         3946 
 1501000   0.65269726   -9.4544034    185.88792  0.010320226 0.0093023758         3943 
 1502000   0.64453159   -9.4478655    185.84562  0.010311009 0.0092921212         3953 
 1503000   0.65437869    -9.465305    185.53694  0.010287034 0.0092818953         3949 
 1504000   0.64934792   -9.4496778    185.77723  0.010293508 0.0092716816         3956 
 1505000   0.63982321   -9.4469904    185.84733   0.01029055 0.0092614715         3951 
 1506000   0.65929934   -9.4468289    185.93305   0.01028846 0.0092512845         3954 
 1507000   0.65999318   -9.4592937    185.23119  0.010242822 0.0092411113         3940 
 1508000   0.64405193   -9.4459523    185.47264  0.010249373 0.0092309493         3949 
 1509000    0.6553478   -9.4546385    185.66555  0.010253233 0.0092208025         3945 
 1510000   0.65510468   -9.4492536    185.67567  0.010247002 0.0092106695         3949 
 1511000   0.66287743    -9.464431    185.52989   0.01023218 0.0092005507         3951 
 1512000   0.64960525   -9.4661575    185.67975  0.010233672 0.0091904503         3948 
 1513000   0.65622226   -9.4547429    185.34326  0.010208375 0.0091803559         3955 
 1514000   0.64536888   -9.4524236    185.45227  0.010207633 0.0091702747         3957 
 1515000   0.65296262   -9.4715516    185.43317  0.010199844 0.0091602186         3949 
 1516000   0.65510192   -9.4716427    185.35286  0.010188702 0.0091501784         3944 
 1517000   0.64024822   -9.4656928    185.70323  0.010201232 0.0091401556         3953 
 1518000   0.65280542   -9.4669275     185.5575  0.010186512 0.0091301307         3952 
 1519000   0.65105834   -9.4526013     185.8834  0.010197685 0.0091201275         3946 
 1520000   0.64245168   -9.4740026    185.65673  0.010178549  0.009110146         3961 
 1521000    0.6454472    -9.480663     185.7056  0.010174534 0.0091001766         3959 
 1522000   0.64024687   -9.4374989    185.82316  0.010174286 0.0090902181         3955 
 1523000   0.63554533   -9.4477545    185.55938  0.010153172 0.0090802776         3950 
 1524000   0.65845958   -9.4622249    185.29348  0.010131971 0.0090703429         3953 
 1525000   0.63880162    -9.482278     185.4892  0.010136022 0.0090604285         3961 
 1526000   0.65850112   -9.4706309    185.49093  0.010129474 0.0090505151         3963 
 1527000   0.64786143   -9.4607424    185.72446  0.010135585 0.0090406175         3965 
 1528000   0.63061089   -9.4677434    185.67078  0.010126024  0.009030743         3966 
 1529000   0.64969827   -9.4798757    185.65273  0.010118418 0.0090208881         3967 
 1530000   0.64957784   -9.4810644      185.777  0.010118573 0.0090110371         3960 
 1531000   0.64043846   -9.4795396    185.60897  0.010102818 0.0090011966         3952 
 1532000   0.65489174   -9.4890113     185.3139  0.010080173 0.0089913786         3930 
 1533000    0.6439224   -9.4934219    185.14863  0.010064614 0.0089815675         3964 
 1534000   0.63421308   -9.5051481    184.96969  0.010048331 0.0089717772         3961 
 1535000   0.64725112   -9.4730896     185.7777  0.010085652 0.0089619983         3958 
 1536000   0.63842469   -9.4752871    185.53363  0.010065844 0.0089522316         3952 
 1537000   0.65274397   -9.4714842     185.4665  0.010055655 0.0089424834         3955 
 1538000   0.64170748   -9.4794274    185.81085  0.010067775 0.0089327474         3963 
 1539000   0.62708796   -9.4774675     185.2332  0.010029954 0.0089230228         3949 
 1540000   0.63407924   -9.4799335    185.19147  0.010021183  0.008913322         3959 
 1541000   0.65263439   -9.4727435    185.66115   0.01004008 0.0089036338         3961 
 1542000   0.63170305   -9.4753373    185.34986  0.010016745 0.0088939423         3963 
 1543000   0.64152772   -9.4849482    185.36572  0.010011111 0.0088842814         3971 
 1544000   0.63803692      -9.4845    185.86068  0.010031341 0.0088746296         3966 
 1545000   0.61673192   -9.4714871     185.7306  0.010017831 0.0088649988         3961 
 1546000   0.63560957    -9.481249    185.16778 0.0099810146 0.0088553766         3961 
 1547000   0.64064066   -9.4938253    185.62069 0.0099989596 0.0088457707         3961 
 1548000   0.62361634   -9.4919741    185.35536 0.0099782171 0.0088361623         3961 
 1549000   0.63988444   -9.4843276    185.32376 0.0099700752 0.0088265777         3952 
 1550000   0.64252981   -9.4797238    185.36021 0.0099656027 0.0088170036         3951 
 1551000   0.63144158   -9.4967338    185.65095 0.0099747985  0.008807444         3942 
 1552000   0.62054578   -9.4797874    185.35081 0.0099522554 0.0087979019         3956 
 1553000   0.64159785   -9.4938566    185.43713 0.0099504792 0.0087883672         3964 
 1554000   0.62688799   -9.5057373    185.35196 0.0099395088 0.0087788386         3964 
 1555000   0.62464787   -9.4902796    185.45563 0.0099386727 0.0087693301         3963 
 1556000   0.63808985   -9.4788839    185.57187 0.0099385105  0.008759838         3961 
 1557000   0.62803496   -9.4966994    185.37821 0.0099217627 0.0087503485         3966 
 1558000   0.61558191   -9.4917204    184.99508 0.0098949018 0.0087408776         3958 
 1559000   0.63904617   -9.5215589     185.2257 0.0099008821 0.0087314197         3965 
 1560000   0.62214445   -9.4936409    185.76455 0.0099233199 0.0087219834         3963 
 1561000   0.62718107   -9.5167511    184.92622 0.0098722092 0.0087125629         3965 
 1562000    0.6252141   -9.5176513    185.16426 0.0098785885 0.0087031501         3968 
 1563000   0.63157234   -9.4897662    185.47241 0.0098886975 0.0086937428         3962 
 1564000     0.634254   -9.5016588    185.50029 0.0098838602 0.0086843515         3958 
 1565000   0.63063871    -9.494597     185.3499 0.0098695365 0.0086749696         3963 
 1566000   0.63592436   -9.5019505    185.40789 0.0098663201 0.0086656086         3963 
 1567000   0.63811826   -9.4998636    185.14025 0.0098457906 0.0086562605         3978 
 1568000   0.63423598   -9.5151068    185.27465 0.0098466543 0.0086469242         3945 
 1569000   0.62770181   -9.5051705     185.2276 0.0098378799 0.0086376044         3966 
 1570000    0.6175006   -9.5024841    185.19096 0.0098296689 0.0086282935         3961 
 1571000   0.62632577    -9.533791    185.00261 0.0098134211 0.0086189982         3961 
 1572000   0.61548534   -9.5001857    185.08163 0.0098113674 0.0086097155         3956 
 1573000   0.63292765   -9.4830352    185.07961  0.009805023 0.0086004458         3968 
 1574000   0.62617895   -9.5167519    185.14525 0.0098022684 0.0085911967         3967 
 1575000   0.63023373   -9.5058762     184.5907 0.0097667037  0.008581957         3957 
 1576000   0.61984165   -9.4888038    185.28782 0.0097973676  0.008572733         3964 
 1577000    0.6184174    -9.506272    184.95555 0.0097735971 0.0085635165         3967 
 1578000   0.60550092   -9.5160767    185.54582 0.0097985754 0.0085543065         3964 
 1579000   0.62642623   -9.5299955    185.27137 0.0097778854 0.0085451121         3965 
 1580000   0.61640463   -9.5112731      185.478  0.009782595 0.0085359237         3970 
 1581000   0.63349015   -9.5241681    185.19354 0.0097614136 0.0085267567         3961 
 1582000   0.61361987    -9.522557    185.22566 0.0097569356 0.0085175943         3965 
 1583000   0.63856513   -9.5324294     185.0577 0.0097419299 0.0085084552         3960 
 1584000   0.62372212   -9.5275845    185.09692 0.0097378429 0.0084993177         3969 
 1585000   0.62521142   -9.5191994    184.79441 0.0097157943 0.0084901968         3965 
 1586000   0.63348774   -9.5073676    184.90945  0.009715713 0.0084810923         3952 
 1587000   0.62858167   -9.5269502    185.42998  0.009736924 0.0084719958         3966 
 1588000   0.60893096   -9.5335121    185.22475 0.0097200227 0.0084629213         3965 
 1589000   0.61287709   -9.5269107    185.02327 0.0097033392 0.0084538557         3957 
 1590000   0.60332615   -9.5217265    184.79765 0.0096854115 0.0084448028         3964 
 1591000   0.61395054   -9.5169734    185.09533 0.0096949157 0.0084357664         3960 
 1592000   0.61263336   -9.5266017    184.86952 0.0096770056 0.0084267386         3954 
 1593000   0.62613625    -9.522025    185.05588 0.0096806802 0.0084177203         3967 
 1594000   0.60915916   -9.5453422    185.18092 0.0096811441 0.0084087085         3962 
 1595000   0.60304968    -9.525133    185.19583 0.0096758532 0.0083997215         3961 
 1596000   0.61728119   -9.5594523    184.97011 0.0096580049 0.0083907304         3961 
 1597000   0.60940307   -9.5624442    184.78799  0.009642454 0.0083817575         3971 
 1598000     0.614549   -9.5726593    184.97905 0.0096463833 0.0083727843         3968 
 1599000   0.62690581   -9.5364494    185.16923 0.0096502621 0.0083638248         3961 
 1600000   0.62608484    -9.544923     184.9322 0.0096318855 0.0083548732         3971 
 1601000   0.61767038   -9.5340805    184.89873  0.009624127 0.0083459419         3960 
 1602000   0.62377176   -9.5433302    184.96648  0.009621644 0.0083370249         3954 
 1603000   0.61638587    -9.533306    185.19617 0.0096275823  0.008328119         3967 
 1604000   0.61861203   -9.5586766    184.94105 0.0096083255 0.0083192237         3969 
 1605000   0.61920836   -9.5436193    185.02598 0.0096067485 0.0083103422         3966 
 1606000   0.61547505   -9.5522395    184.92627 0.0095955928 0.0083014684         3974 
 1607000   0.61858906   -9.5568819    184.87494 0.0095869599 0.0082926065         3971 
 1608000   0.61836327   -9.5376091    184.62561 0.0095680769 0.0082837593         3967 
 1609000   0.62468437   -9.5550547    184.95887 0.0095793906 0.0082749163         3978 
 1610000   0.62123381   -9.5592672     184.9306 0.0095719774  0.008266089         3970 
 1611000   0.61013021   -9.5595832     185.0708 0.0095732877 0.0082572757         3964 
 1612000   0.59702373   -9.5608149    185.01148 0.0095642823  0.008248484         3978 
 1613000   0.61242472   -9.5609409    184.63299 0.0095387988  0.008239701         3968 
 1614000   0.61169819   -9.5559643    184.84862  0.009544022 0.0082309284         3979 
 1615000   0.60381949   -9.5395348    185.00957 0.0095464177 0.0082221704         3966 
 1616000   0.60056201   -9.5536347    185.10232  0.009545293 0.0082134204         3976 
 1617000   0.59746533   -9.5730754    184.49591 0.0095081381 0.0082046823         3968 
 1618000   0.61484872   -9.5481202     185.0514 0.0095308712 0.0081959587         3968 
 1619000   0.61447461   -9.5744111    184.86626 0.0095154549 0.0081872545         3979 
 1620000   0.59624604   -9.5451536    185.01936 0.0095174566 0.0081785661         3970 
 1621000   0.59381118   -9.5574012     184.7705 0.0094987919 0.0081698842         3960 
 1622000   0.61351191   -9.5499899    184.98048 0.0095037236  0.008161207         3970 
 1623000   0.60937871   -9.5744853    184.96972 0.0094973158 0.0081525521         3974 
 1624000   0.60145522   -9.5631262    184.97947 0.0094919679  0.008143904         3962 
 1625000   0.60459834   -9.5692325    184.47246 0.0094601263 0.0081352635         3980 
 1626000   0.61234472   -9.5891565    184.91141 0.0094768048 0.0081266417         3977 
 1627000   0.61872678   -9.5703616    184.81461 0.0094660217 0.0081180317         3967 
 1628000   0.59629565   -9.5530336    184.79744 0.0094593284 0.0081094333         3966 
 1629000   0.61551983   -9.5786999     184.7736  0.009452302 0.0081008553         3978 
 1630000   0.60017978   -9.5662781    184.64554  0.009439956 0.0080922888         3964 
 1631000   0.59619615   -9.5629605    185.03969 0.0094543065   0.00808373         3965 
 1632000   0.61008905   -9.5765597    184.56386 0.0094242166 0.0080751785         3962 
 1633000   0.59806473     -9.57141    184.75399  0.009428148 0.0080666442         3973 
 1634000   0.58210542   -9.5861636    184.75818 0.0094225917 0.0080581189         3971 
 1635000   0.60504849   -9.5872582    184.68766 0.0094132346 0.0080495998         3977 
 1636000   0.59961132   -9.5718415    184.68521 0.0094073561 0.0080410998         3966 
 1637000   0.59914309    -9.577861     184.3999 0.0093870853 0.0080326092         3968 
 1638000   0.60546527   -9.5652317    184.86105 0.0094048155 0.0080241262         3971 
 1639000   0.61740686   -9.5606671    184.78184 0.0093950499 0.0080156621         3970 
 1640000   0.60282627   -9.5681862    184.62942  0.009381576 0.0080072151         3971 
 1641000   0.60917646   -9.5609957    184.93117 0.0093911828 0.0079987732         3967 
 1642000   0.58725595     -9.57723    184.69907 0.0093736841 0.0079903512         3966 
 1643000   0.59549755   -9.5631374    185.00072 0.0093832787  0.007981941         3963 
 1644000   0.60064509   -9.5690591    184.62939 0.0093587487 0.0079735346         3970 
 1645000   0.60115278   -9.5574697    184.83544 0.0093634975 0.0079651427         3981 
 1646000   0.59142443   -9.5703353    184.62264 0.0093470351 0.0079567606         3976 
 1647000   0.59429392   -9.5833241    184.61038 0.0093407395 0.0079483904         3967 
 1648000   0.60302808   -9.5881123    184.78979 0.0093441442 0.0079400337         3974 
 1649000    0.6019638   -9.5842323    184.62476 0.0093301376 0.0079316855         3967 
 1650000   0.59762875   -9.5843737    184.46959 0.0093166461  0.007923348         3973 
 1651000   0.58758296    -9.575948    184.63786 0.0093194961 0.0079150183         3974 
 1652000    0.6031812   -9.5847275    184.71675 0.0093178346 0.0079067067         3963 
 1653000   0.59778053   -9.5876598    184.26222  0.009289283 0.0078983907         3972 
 1654000   0.58400069   -9.5838675    184.61346 0.0093013634 0.0078900998         3972 
 1655000   0.60200825   -9.5961257    184.43665 0.0092868402 0.0078818153         3979 
 1656000   0.59442067   -9.5847056     184.0097 0.0092597475 0.0078735434         3973 
 1657000   0.58981746   -9.5728445    184.82389  0.009295106 0.0078652843         3975 
 1658000   0.56858616   -9.5901816    184.53019 0.0092747381 0.0078570355         3972 
 1659000   0.58427198   -9.6044197    184.59344 0.0092723245 0.0078487962         3972 
 1660000   0.59480864   -9.5822103    184.84222 0.0092792279 0.0078405723         3979 
 1661000    0.6146914   -9.5857453    184.89012 0.0092760445 0.0078323603         3969 
 1662000   0.58897827   -9.5946058    184.85938 0.0092689222 0.0078241573         3971 
 1663000   0.59018869   -9.5799134    184.33832 0.0092372378 0.0078159681         3977 
 1664000   0.59695337   -9.5885764    184.58162 0.0092438714 0.0078077954         3966 
 1665000   0.58699778   -9.5841446    184.69699 0.0092440935 0.0077996283         3969 
 1666000   0.59386298   -9.6053381    184.44578 0.0092259795 0.0077914758         3967 
 1667000    0.5884792    -9.611803    184.29566 0.0092129402 0.0077833351         3982 
 1668000   0.59832778   -9.6012628    184.24518  0.009204895 0.0077751983         3970 
 1669000   0.58739257    -9.593949    184.40511 0.0092073651 0.0077670844         3971 
 1670000    0.5756388   -9.5960942    184.58697 0.0092109268 0.0077589764         3975 
 1671000   0.58420467   -9.6100005    184.26531  0.009189373 0.0077508735         3976 
 1672000   0.57919128   -9.6054578     184.5486 0.0091979962 0.0077427835         3966 
 1673000   0.59078708   -9.5784996    184.46608 0.0091883879 0.0077347127         3970 
 1674000     0.581826   -9.6049443    184.30676 0.0091749681 0.0077266458         3961 
 1675000   0.57805231   -9.5884477    184.35464 0.0091718724    0.0077186         3969 
 1676000   0.58322458   -9.5996483    184.27234 0.0091623082 0.0077105597         3968 
 1677000   0.58178573   -9.6098399    184.55174 0.0091707282 0.0077025393         3974 
 1678000   0.57617523   -9.5926109    184.49102 0.0091622475 0.0076945122         3973 
 1679000   0.58990617    -9.605203    184.33087 0.0091488421 0.0076864949         3975 
 1680000   0.58680417   -9.6176797    184.65178 0.0091593146 0.0076784972         3978 
 1681000   0.57878875    -9.627091    184.69133 0.0091558262  0.007670511         3975 
 1682000   0.58517671   -9.6004769    184.29176 0.0091305864 0.0076625285         3968 
 1683000   0.58407371   -9.6165772    184.21278 0.0091212506 0.0076545665         3975 
 1684000   0.59445586   -9.6214208    184.43173 0.0091266693 0.0076466121         3979 
 1685000    0.5837115    -9.612283    184.39063 0.0091192201 0.0076386685         3968 
 1686000   0.57821039   -9.5940276    184.69011 0.0091286133 0.0076307375         3980 
 1687000   0.58609087   -9.6138963    184.64832 0.0091211382 0.0076228182         3976 
 1688000   0.59167337   -9.6110733    184.52971 0.0091098791 0.0076149085         3968 
 1689000   0.58209874   -9.6058563    184.58182 0.0091070564 0.0076070115         3973 
 1690000   0.57824328   -9.6237937     184.3218 0.0090888461 0.0075991171         3974 
 1691000   0.56764128   -9.6156988    184.30178 0.0090824849 0.0075912345         3979 
 1692000    0.5689461    -9.620702    184.47152 0.0090854765 0.0075833682         3975 
 1693000   0.58503036    -9.617893    184.83344 0.0090979247 0.0075755109         3976 
 1694000   0.57370331   -9.6251222    184.37571 0.0090700371 0.0075676645         3972 
 1695000   0.57140771   -9.6288548    184.71754 0.0090814914 0.0075598283         3970 
 1696000   0.57585649   -9.6166596    184.51569 0.0090662188 0.0075520078         3969 
 1697000   0.57812582   -9.6199856    183.98576 0.0090348537 0.0075442013         3974 
 1698000   0.56324811   -9.6292669    184.10687 0.0090354766 0.0075363997         3976 
 1699000   0.57807917   -9.6175378    184.19992 0.0090347225 0.0075286108         3971 
 1700000   0.57565947   -9.6113286    184.14736 0.0090268313 0.0075208363         3972 
 1701000   0.56661693   -9.6179807    184.56968 0.0090422143 0.0075130664         3966 
 1702000   0.58439867   -9.6199198    184.38333 0.0090277775 0.0075053084         3972 
 1703000   0.57171291   -9.6156204    184.37273 0.0090219578 0.0074975627         3969 
 1704000   0.56772722   -9.6275925    184.41427 0.0090186948 0.0074898342         3970 
 1705000   0.55934116   -9.6208851    184.30767  0.009008195 0.0074821093         3976 
 1706000   0.57459728   -9.5974794    184.36452 0.0090056917 0.0074743967         3966 
 1707000   0.58191561   -9.6361429    184.34044 0.0089992405 0.0074666914         3971 
 1708000   0.56600986   -9.6195045    184.10914 0.0089826863  0.007459001         3974 
 1709000   0.57750864   -9.6296795    184.08689 0.0089763454 0.0074513244         3976 
 1710000   0.56966838   -9.6114501    183.94443 0.0089641536 0.0074436567         3975 
 1711000   0.57881692   -9.6232233    184.30568 0.0089765088 0.0074359952         3979 
 1712000   0.57067532   -9.6296818    184.48082 0.0089797906 0.0074283438         3976 
 1713000   0.55233048   -9.6359057    183.94578 0.0089485201 0.0074207054         3977 
 1714000   0.56901885   -9.6310478    184.38946 0.0089648709 0.0074130751         3980 
 1715000   0.56621785   -9.6293778    184.22337 0.0089515728 0.0074054642         3978 
 1716000   0.57423658   -9.6345079    184.33614 0.0089518329 0.0073978579         3969 
 1717000   0.57787976   -9.6322358    184.19503 0.0089397703  0.007390264         3973 
 1718000   0.54891655   -9.6192297      184.418 0.0089453824 0.0073826843         3981 
 1719000   0.56636205    -9.619502    184.20388 0.0089297982 0.0073751097         3966 
 1720000     0.576949   -9.6240657    184.08315 0.0089187573 0.0073675379         3973 
 1721000   0.56638339   -9.6109492    184.20825 0.0089196325 0.0073599829         3983 
 1722000   0.55844431   -9.6208709    184.18577 0.0089133646  0.007352435         3968 
 1723000   0.56297203   -9.6350522    184.06874 0.0089025316 0.0073449063         3972 
 1724000   0.56730698   -9.6318555    184.28134 0.0089076441  0.007337385         3964 
 1725000   0.55675444    -9.638187    184.30208 0.0089034823   0.00732988         3983 
 1726000    0.5632137   -9.6317057    184.38805 0.0089024742 0.0073223809         3978 
 1727000    0.5710071   -9.6234264    184.06448 0.0088817063 0.0073148878         3979 
 1728000   0.57769092   -9.6432797    184.16043 0.0088811937  0.007307409         3973 
 1729000   0.56015187   -9.6269154    184.26318 0.0088810092 0.0072999429         3974 
 1730000   0.55965788   -9.6181928    184.35503 0.0088803002 0.0072924819         3967 
 1731000   0.57042227   -9.6244691    184.45453   0.00887996 0.0072850382         3973 
 1732000   0.57510702   -9.6340653    183.86889 0.0088466556  0.007277602         3979 
 1733000   0.55916425   -9.6384767    183.95567 0.0088457237 0.0072701733         3984 
 1734000    0.5641076   -9.6573174    183.86222 0.0088361315 0.0072627512         3978 
 1735000   0.55904626    -9.642935    184.05922 0.0088405003 0.0072553427         3986 
 1736000   0.56921552   -9.6423401     184.2935 0.0088466544  0.007247944         3977 
 1737000   0.56969548   -9.6297529    184.21779  0.008837929 0.0072405563         3974 
 1738000   0.56416624   -9.6356738    184.14267  0.008829242 0.0072331764         3982 
 1739000   0.54503728   -9.6100394    184.28473 0.0088309722 0.0072258076         3971 
 1740000    0.5584565   -9.6268292    184.08823 0.0088164861 0.0072184507         3972 
 1741000   0.56239952   -9.6263984    184.29325 0.0088212352 0.0072111054         3974 
 1742000   0.56356033    -9.649965    183.92332  0.008798475 0.0072037713         3978 
 1743000   0.57330424    -9.644178    183.84876 0.0087898623 0.0071964443         3970 
 1744000   0.55208361   -9.6512426    183.95233 0.0087897712 0.0071891327         3975 
 1745000   0.54932091   -9.6394525    184.16223 0.0087947577 0.0071818242         3974 
 1746000   0.55786981   -9.6363457    184.05132 0.0087844273 0.0071745248         3972 
 1747000   0.55224372   -9.6195861    184.25693 0.0087892069 0.0071672332         3972 
 1748000   0.56714776   -9.6404166    184.15102 0.0087791293 0.0071599599         3977 
 1749000     0.564247   -9.6393665    184.20912 0.0087768784 0.0071526986         3982 
 1750000   0.56358054   -9.6400773    183.90635 0.0087574453 0.0071454432         3981 
 1751000   0.54275298   -9.6452546     184.2854 0.0087704836 0.0071382015         3968 
 1752000    0.5530418   -9.6633248     184.2167   0.00876221 0.0071309663         3969 
 1753000   0.55187752   -9.6464619    184.24517  0.008758565 0.0071237416         3976 
 1754000   0.55046481   -9.6460165    184.00734 0.0087422718 0.0071165238         3971 
 1755000   0.56236442   -9.6368595    184.06723 0.0087401342 0.0071093186         3970 
 1756000   0.55162559   -9.6393962    184.20884 0.0087418776 0.0071021232         3972 
 1757000   0.54745705   -9.6430542    184.41727 0.0087467876 0.0070949327         3973 
 1758000   0.56197091   -9.6491332    184.06233 0.0087249871 0.0070877595         3972 
 1759000   0.54889802   -9.6715949    184.03609  0.008718784 0.0070805922         3976 
 1760000   0.55806027   -9.6333246    184.02316 0.0087132178 0.0070734369         3971 
 1761000    0.5565351   -9.6558352    184.22698 0.0087179149 0.0070662911         3978 
 1762000   0.55930434   -9.6520466    184.05126 0.0087046565 0.0070591597         3974 
 1763000   0.56078739   -9.6621034    183.88952 0.0086920743 0.0070520327         3972 
 1764000   0.55381078   -9.6558219    184.35754 0.0087092562 0.0070449141         3977 
 1765000   0.55257662   -9.6577973    184.00635 0.0086877406  0.007037806         3969 
 1766000   0.54314184   -9.6699794    183.69433 0.0086680978 0.0070307027         3971 
 1767000   0.55863424    -9.674641    184.02676 0.0086788702 0.0070236114         3976 
 1768000   0.54880291   -9.6566463    183.89289 0.0086676514 0.0070165376         3972 
 1769000   0.55158148   -9.6544168    183.78923 0.0086578683 0.0070094653         3971 
 1770000   0.54360505   -9.6711175    184.14007 0.0086694949 0.0070024122         3975 
 1771000   0.53478476   -9.6548526    183.92137 0.0086543086 0.0069953626         3975 
 1772000   0.55408364   -9.6659559    183.90022 0.0086484303  0.006988324         3978 
 1773000    0.5565691   -9.6538581    183.72265 0.0086352065  0.006981296         3980 
 1774000   0.54497233   -9.6493548    184.05756 0.0086460711 0.0069742813         3970 
 1775000   0.54378336   -9.6674673    184.06457 0.0086415292 0.0069672709         3978 
 1776000   0.53709129   -9.6716897    183.96106 0.0086318063 0.0069602696         3978 
 1777000   0.54633785   -9.6526483    184.28221 0.0086420096  0.006953282         3979 
 1778000   0.54339383   -9.6593537    183.99791 0.0086238242 0.0069462992         3978 
 1779000   0.55761539   -9.6635697    183.86298  0.008612656 0.0069393251         3972 
 1780000   0.54641046   -9.6649959    184.04667 0.0086164171  0.006932356         3978 
 1781000   0.54343376   -9.6652558    183.94542 0.0086068418 0.0069254052         3968 
 1782000    0.5406487   -9.6456081    183.95044 0.0086022466 0.0069184593         3976 
 1783000   0.54457621   -9.6643841    183.94356 0.0085971002 0.0069115233         3979 
 1784000   0.54617611   -9.6435282    184.07041 0.0085982068 0.0069046035         3980 
 1785000   0.54063252   -9.6685682    183.87381 0.0085842114 0.0068976879         3972 
 1786000     0.534777    -9.679727    183.89618 0.0085804488 0.0068907784         3983 
 1787000   0.54086238   -9.6627582    184.04686 0.0085826738 0.0068838747         3978 
 1788000   0.53806073   -9.6663271    183.85621 0.0085689882 0.0068769835         3977 
 1789000   0.53168946    -9.698737    183.84763 0.0085637988 0.0068701023         3976 
 1790000   0.54381162    -9.671236    183.83768 0.0085585513 0.0068632275         3967 
 1791000   0.53351285   -9.6622623    184.01076 0.0085618258  0.006856364         3973 
 1792000   0.53153325   -9.6651796    183.69153  0.008542203 0.0068495114         3972 
 1793000    0.5280295   -9.6738426    183.89435 0.0085468652 0.0068426704         3982 
 1794000   0.54149884   -9.6616811    183.86412 0.0085406965 0.0068358396         3981 
 1795000   0.53591702   -9.6723543    183.90527 0.0085378492 0.0068290194         3977 
 1796000   0.54360419   -9.6576271    184.12267 0.0085431823 0.0068222089         3974 
 1797000    0.5354464   -9.6856651    183.93701 0.0085298185 0.0068154111         3971 
 1798000   0.53050805    -9.683525    183.74628 0.0085162349 0.0068086204         3974 
 1799000   0.53277899   -9.6782266    183.85172 0.0085163852 0.0068018334         3984 
 1800000   0.54134242    -9.659269    183.83655 0.0085109516 0.0067950562         3980 
 1801000   0.53664356   -9.6837752    183.77446 0.0085033527 0.0067882931         3975 
 1802000   0.53127072   -9.6629906        183.8 0.0084998151 0.0067815318         3973 
 1803000   0.52886821   -9.6840573    183.79347  0.008494799  0.006774781         3972 
 1804000   0.53102624   -9.6699166    183.48623 0.0084758976 0.0067680395         3978 
 1805000   0.51636763   -9.6772563    183.90885 0.0084907133  0.006761312         3976 
 1806000    0.5299029   -9.6794469    183.64029 0.0084736199 0.0067545933         3982 
 1807000   0.53577292    -9.663669    183.69166 0.0084712995 0.0067478808         3974 
 1808000   0.54017644   -9.6779459    183.83301  0.008473129   0.00674118         3975 
 1809000    0.5391323   -9.6718146    184.14463 0.0084828004 0.0067344916         3975 
 1810000   0.52964019   -9.6657809     184.1204 0.0084769979 0.0067278104         3979 
 1811000   0.52244267   -9.6635684    183.73401 0.0084545374 0.0067211341         3968 
 1812000   0.53471571   -9.6832039    183.60174 0.0084437887 0.0067144685         3969 
 1813000   0.52217917   -9.6753247    183.70501  0.008443878  0.006707808         3973 
 1814000   0.53391775   -9.6954641    183.66724 0.0084374881 0.0067011592         3973 
 1815000   0.52288336    -9.695968    183.82724 0.0084401856 0.0066945234         3974 
 1816000   0.53359427   -9.6796498    183.71368 0.0084303269 0.0066878914         3966 
 1817000    0.5404642   -9.6862688    183.87975 0.0084333036 0.0066812636         3973 
 1818000   0.52481279   -9.6789549    183.70415 0.0084206156 0.0066746495         3973 
 1819000   0.52306062   -9.6917591     183.7462 0.0084179129 0.0066680452         3966 
 1820000   0.51997754   -9.6952895    183.59505 0.0084063667 0.0066614471         3981 
 1821000   0.51597921   -9.6997824    183.81376 0.0084117591 0.0066548603         3980 
 1822000   0.52532961   -9.6974657    183.64127  0.008399253 0.0066482786         3975 
 1823000   0.52377925   -9.6914565    183.70139 0.0083973938 0.0066417061         3977 
 1824000   0.53234606   -9.6970992    183.47617 0.0083825006 0.0066351452         3975 
 1825000     0.520515   -9.7076248    183.66637  0.008386592 0.0066285937         3975 
 1826000   0.52705539    -9.685313     183.7648 0.0083864915 0.0066220493         3978 
 1827000   0.53930497    -9.688437    183.19785 0.0083560413 0.0066155149         3979 
 1828000   0.52187033   -9.7194977    183.80101 0.0083789667 0.0066089902         3973 
 1829000   0.52932848     -9.69784    183.34917 0.0083537987 0.0066024697         3979 
 1830000   0.52572003   -9.6980853    183.33415 0.0083485495 0.0065959667         3978 
 1831000   0.52990868    -9.709183    183.51673 0.0083522997 0.0065894664         3979 
 1832000    0.5295711   -9.6884559    183.69417  0.008355812 0.0065829742         3977 
 1833000   0.51954416   -9.7073212    183.63693 0.0083486511 0.0065764847         3975 
 1834000   0.52873405   -9.6898355    183.90391 0.0083562302  0.006570012         3968 
 1835000   0.52802549   -9.7013892    183.66657 0.0083408976 0.0065635474         3978 
 1836000   0.51494636   -9.7020679    183.68976 0.0083374073 0.0065570944         3980 
 1837000   0.51159949   -9.7052707    183.61205 0.0083293434  0.006550647         3981 
 1838000   0.52138538   -9.7050188    183.75264 0.0083311862 0.0065442046         3974 
 1839000   0.53037051   -9.6944622     183.7517 0.0083266133 0.0065377722         3981 
 1840000   0.52309134   -9.7075975    183.82327 0.0083253295 0.0065313514         3978 
 1841000   0.52911961    -9.703573    183.76819 0.0083183138 0.0065249371         3977 
 1842000   0.51113934    -9.696096    183.41101 0.0082976387 0.0065185326         3968 
 1843000   0.52299326   -9.7090285    183.72291 0.0083072393  0.006512141         3977 
 1844000    0.5230274   -9.7181589    183.45848 0.0082907845   0.00650575         3976 
 1845000   0.51883107   -9.6964854    183.49738 0.0082880479 0.0064993731         3980 
 1846000   0.52191369   -9.7217589    183.75702 0.0082952792 0.0064929965         3971 
 1847000   0.50645364    -9.706767    183.57472 0.0082825627  0.006486633         3973 
 1848000   0.51199931    -9.704624    183.61464 0.0082798808 0.0064802829         3973 
 1849000   0.50919469   -9.7089876    183.49096 0.0082698285 0.0064739373         3966 
 1850000   0.51874588   -9.6985388    183.56353 0.0082686277 0.0064676007         3976 
 1851000   0.50638423   -9.6976869    183.56551 0.0082642495 0.0064612759         3969 
 1852000    0.5214302   -9.7036264    183.65503 0.0082638151 0.0064549551         3979 
 1853000   0.51165952    -9.709843    183.56374 0.0082552502 0.0064486405         3978 
 1854000   0.50872358   -9.7247107    183.32996 0.0082402895 0.0064423412         3985 
 1855000    0.5130317   -9.7190722    183.38196 0.0082381835 0.0064360442         3982 
 1856000   0.51141504   -9.7055608    183.62166 0.0082445072 0.0064297608         3980 
 1857000   0.50810615    -9.702925    183.67717 0.0082425583 0.0064234831         3975 
 1858000   0.50972504   -9.6947497    183.31081 0.0082216906 0.0064172185         3977 
 1859000   0.49896107   -9.7145473    183.50089 0.0082257884 0.0064109568         3979 
 1860000   0.50735089   -9.6980826    183.82031 0.0082356769 0.0064047036         3986 
 1861000    0.5126597   -9.7086972    183.50402 0.0082170883 0.0063984557         3980 
 1862000   0.51306669   -9.6945741    183.54136 0.0082143466 0.0063922228         3977 
 1863000   0.51039522   -9.7047275    183.78931 0.0082210282 0.0063859977         3980 
 1864000   0.51057306   -9.7259009    183.31149 0.0081952561 0.0063797816         3979 
 1865000   0.50060586   -9.7052852    183.64976 0.0082059768 0.0063735709         3980 
 1866000    0.4997634   -9.7067965     183.4383 0.0081921355 0.0063673669         3985 
 1867000   0.52358988   -9.7320749    183.40084 0.0081860757 0.0063611728         3976 
 1868000   0.51581477   -9.7204459    183.41853 0.0081824827 0.0063549903         3984 
 1869000   0.50241604   -9.7025701    183.56659 0.0081847062 0.0063488122         3975 
 1870000   0.49421531   -9.7117427    183.31211 0.0081689887 0.0063426428         3977 
 1871000   0.50513001   -9.7185711    183.46565 0.0081714613 0.0063364772         3975 
 1872000   0.50172207   -9.7132364    183.27547 0.0081586301 0.0063303237         3982 
 1873000   0.50294375   -9.7098806    183.30953 0.0081557899 0.0063241788         3976 
 1874000   0.50804944   -9.7251562    183.48316 0.0081591587 0.0063180424         3982 
 1875000   0.49822406   -9.7299026    183.50924 0.0081559664 0.0063119122         3977 
 1876000   0.51101319   -9.7278469    183.31499 0.0081429899  0.006305791         3978 
 1877000   0.51654487   -9.7255163    183.11617 0.0081298246  0.006299682         3973 
 1878000   0.49712931   -9.7288896    183.49196 0.0081421709 0.0062935718         3973 
 1879000    0.4906521   -9.7193309    183.43362 0.0081352502 0.0062874752         3971 
 1880000   0.50190114    -9.730607    183.33789 0.0081266797 0.0062813865         3975 
 1881000   0.50507459   -9.7202508    183.08271  0.008111054 0.0062753087         3974 
 1882000   0.49918413   -9.7284158    183.51841 0.0081260367 0.0062692374         3973 
 1883000   0.49451769   -9.7202494    183.05076 0.0081010249 0.0062631727         3982 
 1884000    0.5047304   -9.7328038    183.28356 0.0081070221 0.0062571128         3980 
 1885000   0.49864065   -9.7311833    183.42488  0.008108969  0.006251065         3972 
 1886000   0.49605199    -9.721766    183.21628 0.0080954525 0.0062450271         3978 
 1887000   0.51378736   -9.7266673    183.53292 0.0081051458 0.0062389925         3982 
 1888000   0.50630458   -9.7325453    183.28413 0.0080898717 0.0062329684         3983 
 1889000   0.49481122   -9.7430131      183.179 0.0080809509 0.0062269513         3979 
 1890000   0.50459286   -9.7256785    183.45045 0.0080886443 0.0062209393         3977 
 1891000   0.49283248   -9.7207006    183.28162 0.0080769265  0.006214934         3981 
 1892000   0.49951475   -9.7396812    183.52922 0.0080835631 0.0062089397         3978 
 1893000   0.51511354   -9.7217588    183.32648  0.008070368 0.0062029572         3976 
 1894000   0.50241554   -9.7311309    183.17331 0.0080593676 0.0061969797         3973 
 1895000   0.49784442   -9.7424341    183.05604 0.0080499579 0.0061910051         3985 
 1896000   0.50250863   -9.7360189    183.18543 0.0080513989 0.0061850458         3975 
 1897000   0.49717014    -9.751795    183.49939 0.0080609467 0.0061790934         3979 
 1898000   0.48789776   -9.7332311    183.34823 0.0080500626  0.006173151         3982 
 1899000   0.49577593   -9.7461168    183.22864 0.0080405758 0.0061672104         3985 
 1900000   0.49077698   -9.7413873    183.14058 0.0080324816 0.0061612801         3976 
 1901000    0.5008417   -9.7361344    183.33197 0.0080366461 0.0061553587         3982 
 1902000   0.49920016   -9.7456761    183.56942 0.0080428241  0.006149439         3980 
 1903000   0.49995667   -9.7368384    183.23827 0.0080240968 0.0061435282         3967 
 1904000   0.49117136   -9.7326558     183.4651 0.0080298101 0.0061376262         3969 
 1905000    0.4838646   -9.7616558    183.23087 0.0080153485 0.0061317339         3983 
 1906000   0.49751764   -9.7468857    183.25391 0.0080121505 0.0061258457         3976 
 1907000   0.48518208   -9.7552194    183.47859 0.0080177674 0.0061199682         3977 
 1908000   0.48346608   -9.7413651     183.1839 0.0080006944 0.0061140998         3982 
 1909000   0.49084759   -9.7393428    183.13041 0.0079941682 0.0061082382         3982 
 1910000   0.48446721    -9.737217    183.41058 0.0080022068 0.0061023856         3968 
 1911000   0.48103008   -9.7435119    183.11604 0.0079851754 0.0060965397         3973 
 1912000   0.49534469   -9.7544571    183.04864 0.0079780612 0.0060907014         3980 
 1913000   0.49523702   -9.7247429    183.01756 0.0079725371 0.0060848679         3977 
 1914000   0.48369234   -9.7534017    183.04973 0.0079697722  0.006079041         3975 
 1915000   0.49449032   -9.7542967    183.21715 0.0079728961 0.0060732251         3975 
 1916000   0.49227574   -9.7414969     183.1961 0.0079678194 0.0060674143         3976 
 1917000   0.47619913   -9.7489833    183.08884 0.0079590002  0.006061613         3977 
 1918000   0.48351261   -9.7467365    183.36315 0.0079667689 0.0060558195         3982 
 1919000   0.48505879   -9.7476243    183.25164 0.0079577749 0.0060500328         3981 
 1920000   0.48531435   -9.7439909    183.31962 0.0079565809  0.006044253         3979 
 1921000   0.48369199     -9.74656      183.215 0.0079479003 0.0060384798         3975 
 1922000   0.48928611   -9.7450916    183.26206 0.0079458054 0.0060327151         3976 
 1923000   0.50119211   -9.7346759    183.23351 0.0079404362 0.0060269628         3972 
 1924000   0.49575513   -9.7299189    183.16465  0.007933327 0.0060212182         3983 
 1925000   0.48753346   -9.7524261    183.16214  0.007929097 0.0060154749         3980 
 1926000   0.48080223   -9.7337384    183.04463 0.0079198957 0.0060097393         3984 
 1927000    0.4853697   -9.7513341    183.32673 0.0079279851 0.0060040092         3983 
 1928000   0.47467808   -9.7557952    183.11114 0.0079145546 0.0059982851         3980 
 1929000   0.48429135      -9.7546    183.14323  0.007911838 0.0059925757         3979 
 1930000   0.47641004   -9.7406781    183.56135 0.0079257922 0.0059868727         3962 
 1931000   0.48226071   -9.7629615    183.08128   0.00790097 0.0059811744         3975 
 1932000    0.4722064   -9.7645921    183.15765 0.0079001747 0.0059754856         3979 
 1933000   0.47830646   -9.7362054    183.07859 0.0078926795 0.0059698006         3977 
 1934000    0.4818511    -9.750505    182.85476 0.0078789538  0.005964127         3973 
 1935000   0.48166056   -9.7686553    183.16396 0.0078881981 0.0059584612         3981 
 1936000   0.47745878    -9.748099    183.30936 0.0078903824 0.0059527992         3976 
 1937000   0.47987116   -9.7612862    183.09587  0.007877124 0.0059471483         3975 
 1938000   0.47603431   -9.7458885    183.45445 0.0078884784 0.0059415008         3987 
 1939000   0.47518428   -9.7504065    183.02547 0.0078659736 0.0059358641         3983 
 1940000    0.4890659   -9.7339941    183.04094 0.0078625832 0.0059302346         3980 
 1941000   0.47737269   -9.7638396     183.3132 0.0078702216 0.0059246117         3974 
 1942000   0.48295724   -9.7583301    183.11961 0.0078578619 0.0059189969         3978 
 1943000   0.48243915   -9.7601954    183.09819  0.007852899 0.0059133858         3984 
 1944000   0.46645401   -9.7772338     183.1074  0.007849254 0.0059077847         3976 
 1945000   0.47080731   -9.7782303    183.00328 0.0078407573 0.0059021896         3977 
 1946000   0.47699316   -9.7602839    182.81302 0.0078285809 0.0058966041         3975 
 1947000   0.47439021   -9.7695299    183.19557 0.0078409333 0.0058910274         3979 
 1948000   0.48656481   -9.7609457    182.85962 0.0078225367  0.005885455         3979 
 1949000   0.47255448   -9.7630085    183.10544 0.0078290337 0.0058798864         3982 
 1950000   0.45993737   -9.7547833    182.99232 0.0078201845 0.0058743285         3976 
 1951000   0.46391088   -9.7559788    182.91929 0.0078130569 0.0058687741         3977 
 1952000   0.46687334   -9.7674806    183.17731 0.0078200695 0.0058632321         3987 
 1953000   0.46399287   -9.7703336    182.87192 0.0078030348  0.005857692         3968 
 1954000   0.46987991   -9.7608499    182.66825 0.0077903551 0.0058521588         3978 
 1955000   0.46593596   -9.7643509    182.90394 0.0077964168 0.0058466344         3979 
 1956000   0.47536849   -9.7667151    182.96849 0.0077951811 0.0058411182         3981 
 1957000   0.47309024   -9.7688955    183.21052 0.0078015041 0.0058356084         3977 
 1958000   0.47256834   -9.7783658    182.96848 0.0077872183 0.0058301053         3983 
 1959000   0.47231076   -9.7748048    182.87068  0.007779083 0.0058246104         3976 
 1960000   0.46794128   -9.7743399    182.89697 0.0077762318 0.0058191236         3981 
 1961000   0.46187241    -9.764778     183.1124  0.007781421 0.0058136413         3974 
 1962000   0.47428217   -9.7737688    182.79764 0.0077640861 0.0058081662         3972 
 1963000   0.47462521   -9.7830773    182.93091 0.0077657883 0.0058027035         3984 
 1964000   0.47355483   -9.7642548    183.05523 0.0077671093 0.0057972417         3979 
 1965000   0.46776174   -9.7651848    182.98455 0.0077601588 0.0057917882         3970 
 1966000   0.46227979   -9.7880543    182.84422 0.0077502635 0.0057863398         3976 
 1967000   0.46611785    -9.784222    183.03015 0.0077542008 0.0057808996         3977 
 1968000   0.47035318    -9.783014     182.7952 0.0077403118 0.0057754675         3979 
 1969000   0.47575354   -9.7720934    183.14402 0.0077511437 0.0057700441         3973 
 1970000   0.46649153   -9.7710901     182.9426 0.0077386889 0.0057646248         3980 
 1971000   0.47604106   -9.7850302    182.83975  0.007730414 0.0057592117         3977 
 1972000   0.47343129   -9.7706432     182.9541 0.0077313262 0.0057538082         3982 
 1973000   0.46319879   -9.7747571    183.17985 0.0077369423 0.0057484114         3977 
 1974000   0.46210874   -9.7698536    183.16945 0.0077325842 0.0057430217         3970 
 1975000   0.46641633   -9.7673538    182.93136 0.0077186228 0.0057376375         3976 
 1976000   0.45905649   -9.7875266    183.04257 0.0077194067 0.0057322618         3980 
 1977000    0.4664704   -9.7713703    182.73721 0.0077026305 0.0057268908         3983 
 1978000   0.46165088   -9.7806812    182.82252 0.0077023307 0.0057215305         3972 
 1979000   0.46136776   -9.7884143    182.96429 0.0077044085 0.0057161731         3981 
 1980000    0.4571178   -9.7742053    182.80348  0.007693749 0.0057108246         3976 
 1981000   0.45407833   -9.7769622     182.9721 0.0076969587 0.0057054842         3977 
 1982000   0.46814601   -9.7729488    183.13901 0.0077000928 0.0057001505         3981 
 1983000   0.45597943   -9.8031857    182.84385 0.0076838059 0.0056948223         3976 
 1984000   0.46820844   -9.7815747    182.84606  0.007680026  0.005689499         3980 
 1985000   0.46687108    -9.784846    182.78718 0.0076736853 0.0056841802         3977 
 1986000   0.47317152   -9.7763918     182.9875 0.0076782268 0.0056788727         3985 
 1987000   0.45547794   -9.8050989    182.95524 0.0076730094 0.0056735707         3980 
 1988000   0.46461773   -9.7935465     183.0029 0.0076711477 0.0056682796         3973 
 1989000   0.45749771   -9.7883672    182.82031 0.0076596409 0.0056629915         3977 
 1990000   0.45778709   -9.7889609    183.12536 0.0076685663 0.0056577122         3981 
 1991000   0.45992736   -9.7851259    182.85769 0.0076535113 0.0056524376         3979 
 1992000    0.4584738   -9.7699552    182.81287  0.007647794 0.0056471683         3981 
 1993000   0.46091983   -9.8057904    182.91188 0.0076480965 0.0056419108         3979 
 1994000   0.45556418    -9.782994    182.75458 0.0076376871 0.0056366544         3976 
 1995000   0.46405948     -9.79908    182.64488 0.0076292766 0.0056314076         3983 
 1996000   0.45265458   -9.7898053    182.84801 0.0076339348 0.0056261658         3978 
 1997000   0.45690537   -9.7914208    182.63472 0.0076212116 0.0056209311         3978 
 1998000   0.45373334   -9.7974953    182.76962 0.0076230237 0.0056157047         3980 
 1999000    0.4527936   -9.7966597    182.99047  0.007628417 0.0056104819         3982 
 2000000   0.44479573   -9.8035069    182.87008 0.0076195867 0.0056052646         3975 
 2001000   0.45758893    -9.786841     182.9131 0.0076175703 0.0056000568         3982 
 2002000   0.45156484   -9.7952427    182.76185 0.0076074695 0.0055948567         3972 
 2003000   0.44875669   -9.7911457    182.54156 0.0075945064   0.00558966         3981 
 2004000   0.45460349    -9.811712    182.60084 0.0075931819 0.0055844704         3977 
 2005000   0.45868961    -9.795969    182.85322 0.0075998846 0.0055792893         3981 
 2006000   0.45820005    -9.788227     182.7143 0.0075903247 0.0055741136         3977 
 2007000   0.45356203   -9.7821622    182.82355 0.0075910789 0.0055689458         3981 
 2008000   0.45307356   -9.8093994    182.99707 0.0075944999 0.0055637856         3980 
 2009000   0.45328203   -9.7924619    182.67589  0.007577397  0.005558628         3984 
 2010000   0.44409175   -9.8095753    182.66953 0.0075733635 0.0055534751         3981 
 2011000   0.44902766   -9.8097332    182.55807 0.0075649789 0.0055483345         3982 
 2012000   0.44860679   -9.7938679    182.71535 0.0075677332 0.0055432004         3977 
Loop time of 5204.61 on 48 procs for 2000000 steps with 4000 atoms

Performance: 66402.723 tau/day, 384.275 timesteps/s
99.4% CPU use with 48 MPI tasks x no OpenMP threads

MPI task timing breakdown:
Section |  min time  |  avg time  |  max time  |%varavg| %total
---------------------------------------------------------------
Pair    | 380.82     | 412.53     | 453.61     |  88.1 |  7.93
Neigh   | 36.278     | 37.782     | 39.486     |  11.8 |  0.73
Comm    | 329.48     | 368.59     | 405.45     |  95.9 |  7.08
Output  | 5.6751     | 5.677      | 5.7274     |   0.3 |  0.11
Modify  | 4317.8     | 4331       | 4346.9     |   9.8 | 83.21
Other   |            | 49.03      |            |       |  0.94

Nlocal:        83.3333 ave          87 max          76 min
Histogram: 2 2 1 1 1 2 15 6 12 6
Nghost:        2417.48 ave        2436 max        2403 min
Histogram: 3 3 5 14 7 8 2 1 2 3
Neighs:        16704.9 ave       18680 max       14582 min
Histogram: 2 3 8 6 6 4 3 4 7 5
FullNghs:      33410.6 ave       35178 max       30211 min
Histogram: 3 1 2 0 1 6 15 13 2 5

Total # of neighbors = 1603708
Ave neighs/atom = 400.92700
Neighbor list builds = 106428
Dangerous builds = 0

#clear
#
#next RN
#
#jump SELF
Total wall time: 1:26:48
