
units lj                  # Use reduced LJ style units
atom_style atomic         # Uncharged point particles
atom_modify map hash      # Needed for indexing of clusters etc
                          # Used to be able to find where atoms are in relation to each other.

lattice fcc 1.0 spacing 1 1 1
Lattice spacing in x,y,z = 1.5874011 1.5874011 1.5874011
region box block 0 10 0 10 0 10 units lattice
create_box 2 box
Created orthogonal box = (0.0000000 0.0000000 0.0000000) to (15.874011 15.874011 15.874011)
  3 by 4 by 4 MPI processor grid
create_atoms 1 box
Created 4000 atoms
  using lattice units in orthogonal box = (0.0000000 0.0000000 0.0000000) to (15.874011 15.874011 15.874011)
  create_atoms CPU = 0.002 seconds
set type 1 type/fraction 2 0.4 78393
Setting atom values ...
  1612 settings made for type/fraction
mass 1 1.0
mass 2 1.0
pair_style lj/cut  3.5
pair_modify tail  yes
pair_coeff 1  1  1.0  1.0   # Intearaction between 1 and 1 set with epsilon = 1 and sigma = 1
pair_coeff 1  2  1.5  0.8
pair_coeff 2  2  0.5  0.88

write_data data.0
System init for write_data ...
Neighbor list info ...
  update every 1 steps, delay 10 steps, check yes
  max neighbors/atom: 2000, page size: 100000
  master list distance cutoff = 3.8
  ghost atom cutoff = 3.8
  binsize = 1.9, bins = 9 9 9
  1 neighbor lists, perpetual/occasional/extra = 1 0 0
  (1) pair lj/cut, perpetual
      attributes: half, newton on
      pair build: half/bin/atomonly/newton
      stencil: half/bin/3d
      bin: standard
WARNING: Not all mixed pair coeffs generated from mixing. Use write_data with 'pair ij' option to store all pair coeffs. (../write_data.cpp:312)


#############################
#   M E L T   S Y S T E M   #
#############################

velocity all create 2.4 9622624 mom yes dist gaussian # Assign velocities
                                                    # Temperature 2.4, random number seed, zero linear momentum
                                                                                # Gaussian distribution

timestep 0.002   # simulation timestep
thermo 1000       # output thermodynamic data every 1000 steps bf 100

# Define a fix  in this case with index 1 applied to all
# particles in the simulation. This fix is for simulations
# in the anisotropic NPT ensemble. Note that we use the MTK
# correction.
fix 1 all npt temp 2.4 2.4 0.1 iso 5.68 5.68 0.5 mtk yes tchain 5 pchain 5 # Use NPT ensemble
                                                                         # Set temperature and pressure and damping
                                                                         # Numbers of thermostats in chain and in barostat
run 10000          # run for 10000 steps
Per MPI rank memory allocation (min/avg/max) = 3.642 | 3.644 | 3.648 Mbytes
Step Temp E_pair E_mol TotEng Press Volume 
       0          2.4    -5.861415            0    -2.262315   -4.1716513         4000 
    1000    2.4287233    -5.034336            0   -1.3921618    5.6020411    3903.2604 
    2000    2.3950132   -5.0637083            0   -1.4720867    5.6274732    3880.7082 
    3000    2.4080255   -5.0606438            0   -1.4495086    5.7070885    3865.7653 
    4000    2.4163317   -4.9970898            0   -1.3734984    5.8579582    3892.5033 
    5000    2.3854876   -5.0924561            0   -1.5151193    5.3656769    3894.8203 
    6000    2.4960143   -5.0545667            0   -1.3114813    5.8995258    3870.2221 
    7000    2.3633004   -5.0467389            0   -1.5026745    5.8885794    3867.8234 
    8000    2.4434305   -5.0495808            0   -1.3853514    5.8869434    3870.4623 
    9000    2.3817168   -5.0543311            0    -1.482649     5.559987    3886.3671 
   10000    2.3657061   -5.0517382            0   -1.5040662    5.0638453    3927.0121 
Loop time of 2.49138 on 48 procs for 10000 steps with 4000 atoms

Performance: 693591.832 tau/day, 4013.842 timesteps/s
99.6% CPU use with 48 MPI tasks x no OpenMP threads

MPI task timing breakdown:
Section |  min time  |  avg time  |  max time  |%varavg| %total
---------------------------------------------------------------
Pair    | 1.1297     | 1.179      | 1.2345     |   2.6 | 47.32
Neigh   | 0.2108     | 0.21752    | 0.22604    |   0.9 |  8.73
Comm    | 0.79102    | 0.843      | 0.8947     |   3.0 | 33.84
Output  | 0.00024314 | 0.00025929 | 0.00033842 |   0.0 |  0.01
Modify  | 0.20231    | 0.23653    | 0.27415    |   4.1 |  9.49
Other   |            | 0.0151     |            |       |  0.61

Nlocal:        83.3333 ave          94 max          71 min
Histogram: 1 2 3 2 10 15 6 5 3 1
Nghost:        1660.35 ave        1683 max        1642 min
Histogram: 5 3 4 9 10 5 3 3 4 2
Neighs:        9721.60 ave       11069 max        8170 min
Histogram: 2 3 0 6 10 8 8 6 3 2

Total # of neighbors = 466637
Ave neighs/atom = 116.65925
Neighbor list builds = 910
Dangerous builds = 235

# Equilibrate just above the melting temperature to avoid step fn in T

fix 1 all npt temp 1.25 1.25 0.1 iso 5.68 5.68 0.5 mtk yes tchain 5 pchain 5
run 2000
Per MPI rank memory allocation (min/avg/max) = 3.643 | 3.645 | 3.649 Mbytes
Step Temp E_pair E_mol TotEng Press Volume 
   10000    2.3657061   -5.0517382            0   -1.5040662    5.0638453    3927.0121 
   11000    1.2591295   -7.0289109            0   -5.1406887    5.6487682    3086.9387 
   12000      1.26189    -7.071516            0   -5.1791542    5.5081123     3083.218 
Loop time of 0.601364 on 48 procs for 2000 steps with 4000 atoms

Performance: 574693.705 tau/day, 3325.774 timesteps/s
99.6% CPU use with 48 MPI tasks x no OpenMP threads

MPI task timing breakdown:
Section |  min time  |  avg time  |  max time  |%varavg| %total
---------------------------------------------------------------
Pair    | 0.26506    | 0.293      | 0.31142    |   1.9 | 48.72
Neigh   | 0.039433   | 0.04169    | 0.04354    |   0.5 |  6.93
Comm    | 0.1969     | 0.21772    | 0.25061    |   2.6 | 36.20
Output  | 5.1559e-05 | 6.9854e-05 | 8.7633e-05 |   0.0 |  0.01
Modify  | 0.040984   | 0.044072   | 0.04713    |   0.9 |  7.33
Other   |            | 0.004812   |            |       |  0.80

Nlocal:        83.3333 ave          92 max          77 min
Histogram: 5 4 6 5 12 2 7 2 4 1
Nghost:        1952.81 ave        1977 max        1939 min
Histogram: 3 12 5 9 6 4 6 2 0 1
Neighs:        12404.1 ave       14295 max       11149 min
Histogram: 6 1 7 9 9 9 4 2 0 1

Total # of neighbors = 595398
Ave neighs/atom = 148.84950
Neighbor list builds = 144
Dangerous builds = 12

#############################
# L I N E A R  Q U E N C H  #
#############################

# Define solid atoms. This closely follows ten Wolde  Ruiz-Montero and Frenkel  Faraday Discuss  1996  104  93-110
# Compute components of the per-atom q6 vector
compute q6 all orientorder/atom degrees 1 6 components 6 nnn NULL cutoff 1.3 # compute the Q6 parameter.
                                                                             # Use all neighbours within 1.3 unit cell.

# get number of connections
compute coord_number all coord/atom orientorder q6 0.5

# An atom is solid if it has 8 or more connections (of a possible 14)
variable is_solid atom c_coord_number>=8
group solid dynamic all var is_solid    # Must be dynamic to update
dynamic group solid defined

# do clustering
compute cluster solid cluster/atom 1.3 # Create a cluster where all atoms within are solid and max 1.3 units from another member

# define chunks one chunk per cluster
compute clus_chunks solid chunk/atom c_cluster nchunk every compress yes  # Says which atoms are in which chunk

# count the size of each chunk
compute size_chunks solid property/chunk clus_chunks count


# Find the maximum entry in the vector of chunk sizes
variable max_n equal max(c_size_chunks)


# Thermo style which includes this variable
# thermo_style custom step temp pe vol v_max_n

thermo ${N}  # Print the thermo information every 100 steps
thermo 1000  

# Reset the npt fix at a lower temperature (below freezing)
fix 1  all npt temp  ${temp} ${temp}  0.1  iso  5.68  5.68  0.5  mtk yes tchain  5  pchain  5
fix 1  all npt temp  0.45 ${temp}  0.1  iso  5.68  5.68  0.5  mtk yes tchain  5  pchain  5
fix 1  all npt temp  0.45 0.45  0.1  iso  5.68  5.68  0.5  mtk yes tchain  5  pchain  5

dump dmp2 all dcd ${N} traj.dcd
dump dmp2 all dcd 1000 traj.dcd


compute msd all msd com yes
variable twopoint equal c_msd[4]/6/(step*dt+1.0e-6)
fix 9 all vector 10 c_msd[4]
variable fit equal slope(f_9)/6/(10*dt)
thermo_style custom step temp pe c_msd[4] v_twopoint v_fit v_max_n

fix 1 all npt temp 1.25 ${temp} 0.1 iso 5.68 5.68 0.5 mtk yes tchain 5 pchain 5
fix 1 all npt temp 1.25 0.45 0.1 iso 5.68 5.68 0.5 mtk yes tchain 5 pchain 5
run 5000000 # 5000000  # Run for this many steps
Neighbor list info ...
  update every 1 steps, delay 10 steps, check yes
  max neighbors/atom: 2000, page size: 100000
  master list distance cutoff = 3.8
  ghost atom cutoff = 3.8
  binsize = 1.9, bins = 8 8 8
  4 neighbor lists, perpetual/occasional/extra = 1 3 0
  (1) pair lj/cut, perpetual
      attributes: half, newton on
      pair build: half/bin/atomonly/newton
      stencil: half/bin/3d
      bin: standard
  (2) compute orientorder/atom, occasional
      attributes: full, newton on
      pair build: full/bin/atomonly
      stencil: full/bin/3d
      bin: standard
  (3) compute coord/atom, occasional
      attributes: full, newton on
      pair build: full/bin/atomonly
      stencil: full/bin/3d
      bin: standard
  (4) compute cluster/atom, occasional
      attributes: full, newton on
      pair build: full/bin/atomonly
      stencil: full/bin/3d
      bin: standard
Per MPI rank memory allocation (min/avg/max) = 9.822 | 9.829 | 9.835 Mbytes
Step Temp PotEng c_msd[4] v_twopoint v_fit v_max_n 
   12000      1.26189    -7.071516 1.0639761e-30 7.3887229e-33 8.3333333e+20            1 
   13000    1.2345907   -7.1095734   0.47367638 0.0030363869  0.038708725            1 
   14000    1.2538828   -7.1283488    0.8808282 0.0052430248  0.036059403            1 
   15000    1.2873306   -7.1050643    1.3179243 0.0073218014  0.035376472            1 
   16000    1.2321008    -7.113747     1.756492 0.0091483954  0.035663508            2 
   17000    1.2436699   -7.1059999    2.1364626  0.010472855  0.035545113            2 
   18000    1.2862932   -7.1306409     2.491784  0.011536037  0.034731105            2 
   19000    1.2417421   -7.1048389    2.9365092  0.012879426  0.034331284            4 
   20000    1.2758263   -7.1430959    3.4565577  0.014402323  0.034662987            1 
   21000    1.2243875   -7.0855103    3.9073182  0.015505231  0.035211891            1 
   22000    1.2631351   -7.0803816    4.3896845  0.016627593  0.035626086            1 
   23000    1.2670523   -7.1166052    4.8203321  0.017464971  0.035995022            1 
   24000    1.2623682   -7.1064334    5.2531835   0.01824022  0.036231111            2 
   25000     1.255413   -7.1056598    5.6569277  0.018856425  0.036266554            5 
   26000    1.2584201     -7.09323    6.0614521  0.019427731  0.036227745            1 
   27000    1.2560561   -7.0615854    6.5022295  0.020068609   0.03619391            1 
   28000    1.2412308   -7.1039992    6.8838254  0.020487575  0.036110992            1 
   29000    1.2459466   -7.1014005    7.2310635  0.020778918  0.035962114            4 
   30000     1.258747   -7.0714498    7.6586468  0.021274019  0.035789369            2 
   31000    1.2570521   -7.0356998    8.0935262   0.02175679  0.035665017            2 
   32000    1.2817477   -7.1392415    8.5115963  0.022165615  0.035593776            1 
   33000    1.2700339   -7.1484255    8.9141846  0.022510567  0.035507651            4 
   34000    1.2647099   -7.0771452     9.253307  0.022679674  0.035383591            2 
   35000    1.2594501   -7.0872261    9.6974331  0.023089126   0.03525124            3 
   36000    1.2355924   -7.0694484    10.103249   0.02338715  0.035153083            1 
   37000    1.2565201   -7.1187739    10.448192  0.023531964  0.035019436            3 
   38000    1.2716878   -7.0760414    10.857414  0.023810118  0.034915708            2 
   39000    1.2259821   -7.1602378    11.268196  0.024077341  0.034840012            2 
   40000    1.2525185   -7.1315729     11.75644  0.024492584   0.03479134            3 
   41000    1.2615229   -7.1339558    12.119497  0.024633123  0.034747909            1 
   42000    1.2389725   -7.0806368    12.540522  0.024881989  0.034691154            2 
   43000    1.2597869   -7.1283245     12.90299  0.025005794  0.034644279            2 
   44000    1.2570503   -7.1262417    13.277585  0.025146942  0.034609206            2 
   45000    1.2288792   -7.1031118    13.667158  0.025309552  0.034538906            1 
   46000    1.2281917   -7.1164676    14.045402  0.025444569  0.034460031            1 
   47000    1.2556272   -7.1079103    14.513832  0.025733744  0.034424473            1 
   48000    1.2394293   -7.1121357    14.988991  0.026022554  0.034399575            2 
   49000    1.2677686   -7.1610695    15.476803  0.026321093  0.034411931            1 
   50000    1.2441464   -7.1248935    15.902836  0.026504726  0.034446036            1 
   51000    1.2164268   -7.0590498    16.285498  0.026610291  0.034454102            1 
   52000    1.2188923   -7.1175195    16.704386  0.026769848  0.034449262            1 
   53000    1.2491297   -7.1294145     17.00077   0.02673077  0.034421019            3 
   54000    1.2513904   -7.0832764    17.512009  0.027024705  0.034402135            1 
   55000    1.2416478   -7.1392106    17.853319  0.027050484  0.034385349            1 
   56000    1.2000718   -7.0670692    18.303168  0.027236857  0.034380562            2 
   57000    1.2519487   -7.0762724    18.734098  0.027389032  0.034379608            1 
   58000    1.2302513   -7.1131886    19.413014  0.027892261  0.034411915            2 
   59000     1.245855   -7.1059846    19.819581  0.027993759  0.034457638            5 
   60000    1.2242081   -7.1636118    20.155884  0.027994283  0.034503826            1 
   61000    1.2502885   -7.1152303    20.720341  0.028306477   0.03453975            1 
   62000    1.2269941   -7.1125995    21.138027  0.028411327  0.034598122            1 
   63000    1.2711142   -7.1244354    21.457097  0.028382403  0.034641721            1 
   64000    1.2629677   -7.0954583    21.914115  0.028534004  0.034683019            1 
   65000    1.2577079   -7.1298798    22.275471  0.028558296  0.034702543            2 
   66000    1.2286378   -7.1482897    22.691293  0.028650622  0.034725055            3 
   67000    1.2036073   -7.0676155    23.212379  0.028871118  0.034747171            1 
   68000    1.2159496   -7.1099389    23.621207  0.028947558   0.03477684            2 
   69000    1.2549793   -7.1410541    24.049097  0.029044803  0.034802533            1 
   70000    1.2622135   -7.1381357    24.605463  0.029292217  0.034844038            2 
   71000    1.2112929    -7.118551    25.009524  0.029353901   0.03488472            2 
   72000    1.2164297   -7.1397788    25.376078  0.029370461  0.034924539            1 
   73000    1.2477192   -7.1284263    25.814703  0.029468838  0.034959408            1 
   74000    1.2335308   -7.0952142    26.333168  0.029654468   0.03497925       -1e+20 
   75000    1.2548791   -7.1213077     26.64821  0.029609122  0.034999282            2 
   76000    1.2129043   -7.0758651     27.06597  0.029677598  0.035016517            1 
   77000    1.2310156   -7.1342774    27.390088  0.029642953  0.035029776            4 
   78000    1.2112174   -7.0953092    27.780594  0.029680121  0.035039647            2 
   79000    1.2529458   -7.1115006    28.013923  0.029550551  0.035027403            1 
   80000    1.2085488   -7.0965685    28.418155  0.029602245   0.03500801            2 
   81000    1.2619854   -7.1196307    28.767469  0.029596162  0.034982057            2 
   82000    1.2512249   -7.1410454    29.089575  0.029562576  0.034951981            3 
   83000    1.2463556   -7.0953941    29.509765  0.029628278  0.034915997            1 
   84000    1.2537565   -7.1605034    29.936971  0.029699375  0.034886907            2 
   85000     1.237675   -7.1075875    30.256143  0.029662885  0.034857182            2 
   86000     1.215829   -7.1614356    30.623465    0.0296739  0.034821834            2 
   87000    1.2300806   -7.1300974    30.918723  0.029615634   0.03479405            1 
   88000    1.2336872   -7.1235615    31.488392  0.029818553  0.034759868            2 
   89000    1.2622225   -7.0732476    31.990947   0.02995407  0.034728785            1 
   90000    1.2295368   -7.1300492    32.264612  0.029874641  0.034701414            2 
   91000    1.2441648   -7.1184554    32.767191  0.030006585  0.034676866            1 
   92000    1.2192336   -7.1578755     33.12466   0.03000422   0.03465843            1 
   93000    1.2486768   -7.1313468    33.603037  0.030110248  0.034643862            1 
   94000    1.2356343   -7.1199225    33.942593  0.030090951  0.034624471            2 
   95000    1.2289704   -7.1717153     34.11318  0.029923842  0.034597765            1 
   96000    1.2400787   -7.1538268    34.462481  0.029915348  0.034566536            1 
   97000    1.2058082   -7.0766083    34.891342  0.029975379  0.034534411            1 
   98000    1.2595155    -7.105487    35.201642  0.029933369   0.03449455            1 
   99000    1.2277002   -7.1520292    35.653218  0.030011126  0.034457696            1 
  100000    1.2230563   -7.1360673    36.098157  0.030081797  0.034426588            1 
  101000    1.2272749   -7.1678445    36.502258  0.030117374  0.034398763            1 
  102000    1.2362743    -7.122306    37.135315   0.03033931  0.034378811            1 
  103000    1.2241796   -7.1174887    37.537913  0.030370479  0.034362975            3 
  104000    1.2295962   -7.0993124    38.106384  0.030533961  0.034353153            5 
  105000    1.2161578   -7.1463154    38.232981  0.030343635  0.034344794            1 
  106000    1.2203269   -7.1453638    38.878695  0.030565012  0.034336655            1 
  107000    1.2500478   -7.1117628    39.261212  0.030577268  0.034334001            1 
  108000    1.2122595     -7.12693    39.995307  0.030860577  0.034333479            1 
  109000    1.2782829   -7.1337225    40.207407  0.030739608  0.034340853            1 
  110000     1.232327   -7.1425604    40.577621  0.030740622  0.034339346            1 
  111000     1.251348   -7.1489535    40.994696  0.030776798  0.034341183            2 
  112000    1.2338931   -7.1497758    41.690261  0.031019539  0.034338619            4 
  113000     1.254094   -7.1483347    42.010833   0.03098144  0.034344133            3 
  114000    1.2170858   -7.1326649    42.448267  0.031029435  0.034355348            2 
  115000    1.2093884   -7.1527548    42.776299  0.030997318  0.034362247            1 
  116000    1.2229248   -7.1294243    43.250966  0.031071096  0.034369578            1 
  117000    1.2303395   -7.0943927    43.685491  0.031115022  0.034374041            1 
  118000    1.2346727   -7.1799213    43.878902  0.030987925  0.034374421            1 
  119000    1.2478559   -7.1813771    44.332317   0.03104504  0.034377852            1 
  120000    1.2378578   -7.1753087    45.058857  0.031290873  0.034384168            1 
  121000     1.234101   -7.1536545    45.150389  0.031095309  0.034386423            1 
  122000    1.2244714   -7.1546967    45.514493  0.031089135   0.03438423            1 
  123000    1.2499283   -7.1447908    45.987604  0.031156913   0.03438579            2 
  124000    1.2412597   -7.1453202    46.382428  0.031170986  0.034386518            2 
  125000    1.2248094   -7.1512873    46.880325   0.03125355  0.034386539            1 
  126000    1.2121728   -7.1201849    47.218262  0.031229009  0.034385098            1 
  127000    1.2167374   -7.1609856    47.545468  0.031197813  0.034380688            2 
  128000    1.2142705   -7.1929653    48.056638  0.031286874  0.034379161            1 
  129000    1.2328479   -7.1413146    48.440196  0.031292116  0.034380517            1 
  130000    1.2380082    -7.157383    48.906357  0.031350229  0.034378958            1 
  131000    1.2336293   -7.1413398    49.428246  0.031442905  0.034380914            2 
  132000    1.2284171   -7.1943934    49.461956  0.031225982  0.034380378            1 
  133000    1.2183757   -7.0597723    50.010668  0.031335005   0.03437362            1 
  134000    1.2208399     -7.15146    50.305525   0.03128453  0.034365982            1 
  135000    1.2292155   -7.1832036    50.498982  0.031172211  0.034358914            2 
  136000    1.1968176   -7.1295603    50.969869  0.031231537  0.034348673            2 
  137000     1.256134   -7.1478328    51.305806  0.031207911  0.034335838            1 
  138000    1.2396548   -7.1505287    51.741113  0.031244633  0.034321402            2 
  139000    1.2189144   -7.1398264    51.931441  0.031133958  0.034310611            3 
  140000    1.2304866   -7.1305532    52.153794  0.031043925  0.034290399            2 
  141000    1.1984508    -7.174298    52.678529  0.031133882   0.03427171            1 
  142000    1.2104498   -7.1336587    52.948196  0.031072885  0.034251245            2 
  143000    1.2252108    -7.170334    53.235293  0.031022898  0.034228717            2 
  144000    1.2245748   -7.1521903    53.893553  0.031188399  0.034207367            5 
  145000    1.2280573   -7.1092643    54.347088  0.031233958  0.034189828            1 
  146000    1.2130742   -7.1889826     54.66983  0.031204241  0.034173033            1 
  147000    1.2389347    -7.170198     55.29403  0.031345822  0.034158543            3 
  148000    1.2404603    -7.197121    55.487927  0.031243202   0.03415012            1 
  149000    1.2310926      -7.1677    55.970844  0.031303604  0.034142688            1 
  150000    1.2196395   -7.1593101    56.504876  0.031391597  0.034131985            2 
  151000    1.2230334   -7.1670441    56.629889  0.031252698  0.034117181            1 
  152000    1.2085364   -7.1533453    57.052202  0.031278619   0.03410079            1 
  153000    1.2038148   -7.1638437    57.518586  0.031328206  0.034083585            2 
  154000    1.2510723   -7.1460134    58.068381  0.031422284  0.034067349            2 
  155000     1.231855    -7.112535    58.231962  0.031307506  0.034053103            2 
  156000    1.2327988    -7.156292    58.588949  0.031297515  0.034039546            2 
  157000    1.2575038   -7.1419943    59.050549  0.031343179  0.034025807            1 
  158000    1.2333572   -7.1286506    59.628239  0.031449493  0.034013381            1 
  159000    1.2328488   -7.1423645    59.898154  0.031393162  0.034000237            3 
  160000    1.2327555   -7.1645324    60.036834  0.031269184  0.033985656            3 
  161000     1.197028   -7.0974289    60.729249  0.031433358  0.033971161            5 
  162000    1.2199879    -7.151237    60.974394  0.031365429  0.033955181            1 
  163000    1.2038756   -7.1664031    61.256782  0.031317373  0.033941957            2 
  164000    1.2324127   -7.1612929    61.503529  0.031251793  0.033926743            5 
  165000    1.2381473   -7.1909506    62.052149  0.031339469   0.03390943            1 
  166000    1.2338868   -7.1641413    62.334377  0.031292358  0.033891456            3 
  167000    1.2375045   -7.1872952    62.558572  0.031216852  0.033875971            2 
  168000    1.2281471   -7.1971805    63.081978  0.031290663  0.033858994            3 
  169000    1.2094711   -7.2092129    63.386825  0.031255831  0.033842041            2 
  170000    1.2286677   -7.1395464    63.782247  0.031265807  0.033822842            2 
  171000    1.2227352   -7.1338702    64.435463  0.031401298  0.033806211            2 
  172000    1.2142267   -7.1379895    64.624035  0.031310094  0.033788274            2 
  173000    1.2284029   -7.1478124    64.996449  0.031308501  0.033771952            3 
  174000    1.2300692   -7.1695073    65.246999  0.031248563  0.033755447            2 
  175000    1.2355946   -7.1411212    65.650735  0.031262255  0.033736709            1 
  176000    1.2221306    -7.096646    65.937829  0.031220563  0.033715704            2 
  177000    1.1879114   -7.1404574    66.239031  0.031185985    0.0336955            1 
  178000    1.2135844    -7.162536     66.60962  0.031184279   0.03367515            2 
  179000    1.2582775   -7.1622549    66.631774  0.031020379  0.033650007            1 
  180000    1.2240395   -7.1765967    67.150467  0.031088179   0.03362517            1 
  181000    1.1948789   -7.1539289    67.429043  0.031044679  0.033601762            1 
  182000    1.2468052   -7.1582758    67.798822  0.031043417  0.033577975            2 
  183000    1.2326921   -7.1317159    68.267555  0.031087229  0.033555013            1 
  184000    1.2467034   -7.1601688    68.636832  0.031085521   0.03353456            1 
  185000    1.2189697   -7.1443931    69.113799  0.031132342  0.033512027            1 
  186000     1.223941   -7.2071559    69.311372  0.031053482  0.033488892            2 
  187000    1.2366139   -7.1389247    69.858263  0.031131133  0.033468213            2 
  188000    1.2056132   -7.1734623    70.764805  0.031367378  0.033453952            2 
  189000    1.2357787   -7.1505998    70.793773  0.031214186  0.033438147            3 
  190000    1.2114583   -7.1672075    71.336201  0.031287807  0.033422248            2 
  191000    1.2040784   -7.1386385    71.704852  0.031284839   0.03340735            1 
  192000    1.2403582   -7.1550305    72.326499  0.031391709  0.033394674            2 
  193000    1.2445996   -7.1949249    72.493782  0.031301288   0.03338248            1 
  194000    1.2217289   -7.1943615    72.622481  0.031195224  0.033367399            2 
  195000    1.2095645   -7.1297918    73.464639  0.031395145  0.033352156            2 
  196000     1.222009   -7.1516011    73.650861  0.031314142  0.033338059            1 
  197000    1.2061273   -7.1336123    74.110561  0.031349645   0.03332676            1 
  198000     1.217703   -7.1812348    74.462376  0.031339384  0.033315035            1 
  199000    1.2202968    -7.126479    74.660688  0.031264944  0.033302479            1 
  200000     1.207177   -7.2077412    74.853384   0.03118891  0.033288225            2 
  201000    1.2116936   -7.1843073    75.580168  0.031335061  0.033276477            3 
  202000    1.2195413   -7.1776777    76.070559  0.031382244  0.033265392            2 
  203000    1.2050078   -7.1728433    76.353646  0.031343861   0.03325508            1 
  204000    1.2024528   -7.1466418    76.688612  0.031327047  0.033244497            3 
  205000    1.2135297   -7.2030335    76.950242  0.031280586  0.033231798            2 
  206000    1.2212845   -7.1958674    77.163411  0.031214972     0.033217            2 
  207000    1.2131018   -7.1947242    77.231696  0.031091665  0.033203054            1 
  208000    1.1993268   -7.1536217    77.965202  0.031236058  0.033188743            2 
  209000    1.2304643   -7.1816073    78.587998  0.031334927  0.033175561            2 
  210000    1.2122663   -7.1584897    79.002639  0.031350254  0.033163494            1 
  211000    1.2016312   -7.1534853    79.680724   0.03146948  0.033154588            1 
  212000    1.2053927   -7.1132872    80.027426  0.031457321  0.033146244            1 
  213000     1.239966   -7.1925241    79.810594  0.031224802  0.033135389            1 
  214000    1.2054253   -7.1730546    80.327003  0.031279986  0.033122219            4 
  215000    1.2128995   -7.1785977    80.499491  0.031201353  0.033108482            1 
  216000    1.2270805   -7.1930303     80.79724  0.031171775  0.033094672            2 
  217000    1.2220571   -7.1240339    81.795689  0.031411555  0.033081034            1 
  218000    1.1973177   -7.1982546    81.685273  0.031225257  0.033071083            3 
  219000    1.2215628   -7.1801296    82.011676  0.031206878  0.033057762            1 
  220000    1.2142115   -7.1999725     82.38596  0.031206803  0.033044542            3 
  221000    1.1982276   -7.1750703    82.661512  0.031169499  0.033029776            1 
  222000    1.2104011   -7.1495573    83.265393  0.031255778  0.033016015            3 
  223000    1.2328888    -7.154677    83.647496  0.031258407  0.033001473            3 
  224000    1.2259052   -7.1952107    83.564448  0.031087964  0.032988235            3 
  225000    1.2164793   -7.1368315    84.304341   0.03122383  0.032975218            2 
  226000     1.222347   -7.2059762    84.700572  0.031231774  0.032962309            1 
  227000    1.2070818   -7.1959238    84.934608  0.031180106  0.032950754            1 
  228000    1.1871486   -7.1712525    85.651077  0.031305218  0.032939708            2 
  229000     1.232028   -7.2085979    85.896374  0.031257778  0.032930336            1 
  230000    1.1874376   -7.1800246    86.615821  0.031382544  0.032920351            1 
  231000    1.2097971   -7.1848111    86.821162  0.031320766  0.032912926            1 
  232000     1.222728   -7.1766282     87.26534  0.031345309  0.032903982            1 
  233000    1.2025285   -7.1822794    88.164507   0.03153237  0.032898307            2 
  234000    1.2290412    -7.160404    88.949389  0.031677133  0.032897095            2 
  235000    1.2090022   -7.1802414    89.100599  0.031595957  0.032895633            1 
  236000    1.2139513   -7.1981892     89.28805  0.031528266  0.032893554            1 
  237000    1.2013923   -7.1646178    89.885842   0.03160543  0.032891071            2 
  238000     1.213907   -7.1950582    89.847654  0.031459263  0.032886662            1 
  239000    1.1953721   -7.2338399     90.29679  0.031484236  0.032882954            1 
  240000    1.2254557   -7.1735569    90.855632  0.031547094  0.032879023            1 
  241000    1.2096441   -7.1525797    91.460014  0.031625178  0.032876138            2 
  242000    1.2224448   -7.1033366    92.011208    0.0316843  0.032873932            2 
  243000    1.1970569   -7.2452537    91.411918  0.031348394   0.03286933            1 
  244000    1.2265019   -7.1704136    92.147237  0.031471051  0.032861901            3 
  245000    1.2045087   -7.1932094    92.648825  0.031513206  0.032855824            4 
  246000    1.2163655   -7.2099939    92.578429  0.031361256   0.03284876            2 
  247000    1.2001406   -7.2256447    92.814872  0.031314059  0.032841289            2 
  248000    1.2369996   -7.1622485    93.700056  0.031485234  0.032834726            2 
  249000    1.2202863   -7.1675296     93.97751  0.031451643  0.032828907            1 
  250000    1.2304567    -7.193489     93.97639  0.031325463  0.032821794            1 
  251000    1.2262876   -7.2126664    94.523368   0.03138226  0.032812881            1 
  252000    1.2386475   -7.1702024    95.167075  0.031470594  0.032806244            1 
  253000    1.2128655   -7.2109038    95.291353  0.031387138  0.032801136            1 
  254000    1.2016555   -7.2265294    95.836502  0.031442422  0.032795667            1 
  255000    1.2143819   -7.1744234     96.64247  0.031582507  0.032790741            1 
  256000    1.1912922   -7.1324018    97.044537  0.031590018  0.032786451            2 
  257000    1.1909429   -7.1847409    97.237625   0.03152971  0.032782191            1 
  258000    1.2119196   -7.1544703    97.882652  0.031615844  0.032779902            2 
  259000    1.2079017   -7.1938442    98.303254  0.031629103  0.032777845            3 
  260000    1.2091762   -7.2168742    98.112114   0.03144619  0.032774227            2 
  261000    1.2081475   -7.2287079    98.565387   0.03147043  0.032768982            1 
  262000    1.2281048   -7.1952285    99.179925  0.031545777  0.032764266            1 
  263000    1.2309165   -7.1638045    99.971645  0.031676694  0.032760804            2 
  264000    1.1977278   -7.1839859    99.987945  0.031561851   0.03275681            2 
  265000    1.1923932    -7.198186    100.36785  0.031562218  0.032752718            2 
  266000    1.2117025   -7.2170042    100.77981  0.031572622  0.032748872            2 
  267000    1.2057326   -7.1629739    101.51172  0.031682807  0.032744789            1 
  268000    1.1985785   -7.2290119     101.5038  0.031562126  0.032742043            1 
  269000    1.1901099    -7.221395    102.02466  0.031606154  0.032739336            1 
  270000    1.2195061   -7.1875499    102.92362  0.031766551   0.03273771            1 
  271000    1.2321348   -7.2133793    102.78527  0.031606786  0.032735839            3 
  272000     1.225284   -7.2051117    103.24056  0.031630074  0.032733844            2 
  273000    1.2066944   -7.1866927    103.42577  0.031570747  0.032729831            2 
  274000    1.2027371   -7.1926577    103.57459  0.031500789  0.032725689            1 
  275000    1.2025622   -7.2267333    103.41387  0.031337536  0.032720304            1 
  276000    1.1974372   -7.1803723    104.64782  0.031596565  0.032714985            1 
  277000    1.1931662   -7.1862898    104.64771  0.031482465  0.032709727            1 
  278000    1.2180263   -7.1869742    105.12268  0.031511594  0.032706066            2 
  279000     1.201007   -7.1934913    105.37283  0.031473366  0.032700616            1 
  280000    1.2067413   -7.1893332     105.5548   0.03141512  0.032694218            1 
  281000    1.1713958   -7.1633564    106.25343  0.031510508   0.03268842            2 
  282000    1.2417542   -7.1968251    106.05799  0.031341014  0.032682118            2 
  283000     1.196348    -7.187012    106.35664  0.031318211  0.032675755            1 
  284000    1.2175944    -7.198697    107.16133  0.031444051  0.032668371            1 
  285000    1.2095378   -7.1920141    107.48932  0.031429627  0.032661737            4 
  286000    1.1968771    -7.196396    107.50586  0.031324551  0.032655616            3 
  287000     1.227046   -7.1891388    108.09587  0.031386721  0.032649163            2 
  288000    1.1648084   -7.1754896    108.66671  0.031442914  0.032642942            1 
  289000    1.2022775   -7.2262177    109.10561  0.031460673  0.032637462            1 
  290000     1.183557   -7.1572835    109.64606  0.031507487  0.032632666            2 
  291000    1.2082572   -7.1887353    110.14522  0.031542159  0.032628503            1 
  292000    1.2091822   -7.1862458    110.00398   0.03139383  0.032624011            1 
  293000     1.217742    -7.184783    110.61208  0.031459635  0.032617765            2 
  294000    1.1796806   -7.2290578    110.70956  0.031380259  0.032611219            2 
  295000    1.2100974   -7.1795267    111.17368  0.031404993  0.032603935            4 
  296000    1.1725947   -7.2006739    111.38477  0.031358324  0.032597469            3 
  297000    1.2343772   -7.1853356    112.11252  0.031456935  0.032590893            2 
  298000    1.1963867   -7.2320927     111.4046   0.03115341  0.032582703            1 
  299000    1.1859541   -7.1785421    112.66506  0.031400517   0.03257427            2 
  300000    1.1977455   -7.2256264    112.99528  0.031387577  0.032565666            3 
  301000    1.1946531   -7.1982176    113.23484  0.031349623  0.032558338            4 
  302000    1.2093278    -7.212668    113.68684   0.03137054  0.032550087            2 
  303000    1.1933279   -7.1974894    114.03618  0.031363087  0.032542678            2 
  304000    1.1908425   -7.2309365    114.08858  0.031274281  0.032534776            4 
  305000     1.208572   -7.2400765    114.09295  0.031172937  0.032525251            2 
  306000    1.1952394   -7.1967731    114.77286  0.031256225  0.032515971            1 
  307000    1.2068099   -7.2480518    115.30776  0.031299608  0.032507573            2 
  308000    1.1836307    -7.232589    115.59197  0.031274883   0.03249982            2 
  309000    1.2138022   -7.2095837    116.13115   0.03131908  0.032492317            1 
  310000    1.1940409   -7.2330301    115.96412  0.031173151  0.032483408            2 
  311000    1.1785978   -7.2261495    116.78233  0.031292158  0.032473856            1 
  312000    1.2158693   -7.1884552    116.91398  0.031227025  0.032464901            1 
  313000     1.224642   -7.2168148    117.40356  0.031257605  0.032457169            1 
  314000    1.2133341   -7.2049978    117.79562  0.031262107   0.03244861            1 
  315000    1.1922465   -7.2162047    118.28577  0.031292533  0.032439284            3 
  316000    1.2076285   -7.2267359    118.27671  0.031191116  0.032430551            3 
  317000    1.1897476   -7.2362495    118.76084  0.031219989  0.032422286       -1e+20 
  318000      1.21251   -7.2030256    119.40609  0.031290904  0.032414596            2 
  319000    1.1836495   -7.2521174    119.83898  0.031305899  0.032406915            1 
  320000    1.1882992   -7.2210948    120.25017  0.031315149  0.032399786            1 
  321000    1.1923934    -7.194675    120.73317  0.031342982  0.032392795            1 
  322000    1.1813912   -7.1873868    120.57741  0.031205334  0.032385527            1 
  323000    1.2079774   -7.2074656    121.20357   0.03127027  0.032377716            1 
  324000    1.1770558    -7.239202    121.46222  0.031240283  0.032368746            2 
  325000    1.1899176   -7.1689459     121.8371  0.031240282  0.032360948            3 
  326000    1.1942603   -7.2052757    121.79203  0.031132933  0.032353134            2 
  327000     1.191401   -7.2220725    122.26012  0.031157014  0.032344606            1 
  328000    1.2120719    -7.223756    122.75047  0.031186603  0.032335748            1 
  329000    1.1682933   -7.1969201    123.19333  0.031203985  0.032327189            1 
  330000      1.19074   -7.1994968    123.76365  0.031253446  0.032319403            4 
  331000    1.2060375   -7.2551844    123.44719  0.031079352  0.032311438            1 
  332000     1.185696   -7.2375672    124.43549  0.031233808  0.032303073            1 
  333000    1.2036021   -7.1353348    124.83674  0.031240426  0.032295219            1 
  334000    1.1940579   -7.2243271    124.83502  0.031146461  0.032287627            1 
  335000    1.1796177   -7.2320966    125.43804  0.031203492   0.03227923            2 
  336000    1.1826004   -7.2307782    125.12893  0.031033961  0.032270908            2 
  337000    1.1887671    -7.206835    126.02428  0.031163273  0.032261966            1 
  338000    1.1843493   -7.2350211    125.59145  0.030964361  0.032252485            3 
  339000    1.2073887   -7.2095914       126.74  0.031155359  0.032242411            1 
  340000    1.1718899   -7.2036239     126.9092  0.031105196  0.032233354            3 
  341000    1.2004478   -7.2042859    127.46661  0.031150199  0.032224686            1 
  342000    1.2133924   -7.2638886    127.36294  0.031033855  0.032215645            2 
  343000    1.2136258   -7.2563395    128.04802  0.031109821  0.032205533            1 
  344000    1.1854111   -7.2521004    128.79771  0.031200996  0.032196178            2 
  345000    1.1894588   -7.2809837    128.61301  0.031065946  0.032187752            1 
  346000    1.1893499   -7.1885048    129.75007  0.031250017  0.032179737            1 
  347000    1.2146104    -7.266344    129.45227   0.03108844  0.032172701            2 
  348000    1.1851869   -7.2303368    130.52215  0.031255304   0.03216701            2 
  349000    1.1970136   -7.1992822    130.77206   0.03122542  0.032159514            1 
  350000    1.1682286   -7.2307158    130.86036  0.031157229  0.032153299            1 
  351000    1.1840969   -7.2994227    130.94214  0.031087878   0.03214694            1 
  352000    1.2183777   -7.1782451    132.41121   0.03134735  0.032141487            2 
  353000    1.2000091   -7.2357977    132.41572  0.031259613  0.032136605            2 
  354000    1.2079116   -7.2439769    132.38529  0.031164145  0.032130788            2 
  355000    1.2342609   -7.2510412    133.37149  0.031307861  0.032125112            1 
  356000    1.1948128   -7.2284023    133.94975  0.031355279  0.032120373            1 
  357000    1.2017156    -7.281755    134.02368  0.031284705  0.032116044            1 
  358000    1.1924637   -7.2582223    134.51606  0.031311933  0.032112999            2 
  359000     1.193956   -7.2605313     134.8225  0.031295845  0.032109882            2 
  360000    1.2205663   -7.2354654     135.9093  0.031460487  0.032107614            3 
  361000    1.1981704   -7.2316708    136.05245  0.031406383  0.032105155            2 
  362000    1.2095564   -7.2188988    137.02427  0.031543341  0.032103947       -1e+20 
  363000     1.198955   -7.2285419    137.39809  0.031542261  0.032103244            1 
  364000    1.2115314   -7.2013043    137.89013  0.031568254  0.032104098            1 
  365000     1.170772   -7.2847954    137.85259  0.031473195  0.032103968            4 
  366000    1.1842251   -7.2445591    138.72488  0.031585811  0.032105061            1 
  367000    1.1814087   -7.2184698     139.4568  0.031665939  0.032106686            1 
  368000    1.1828013   -7.2400693    139.49967    0.0315896  0.032107926            2 
  369000    1.1892617   -7.2506063    139.76211  0.031563258  0.032108178            1 
  370000    1.1814161   -7.2424979    140.44005  0.031630642  0.032108339            1 
  371000    1.2013122   -7.2680073    140.41736  0.031540288  0.032108587            1 
  372000    1.1923942   -7.2276991    140.63737  0.031504787  0.032108834            1 
  373000    1.1951371   -7.1935742    141.55145  0.031624541  0.032109028            1 
  374000    1.1787292   -7.2595366    141.37767  0.031501264  0.032109629            3 
  375000    1.2016579   -7.2715314    142.48486  0.031663303  0.032110304            3 
  376000    1.1945717   -7.2396185     142.5144  0.031585637  0.032110446            3 
  377000    1.1898565   -7.2219136    143.05376  0.031621078  0.032109879            3 
  378000    1.1705184   -7.2412969    143.02834  0.031531822  0.032110676            1 
  379000    1.1916498   -7.2563092    143.56813   0.03156731  0.032110416            5 
  380000     1.156766   -7.2801633     143.5021  0.031469758  0.032109799            2 
  381000    1.1624058   -7.2979971    143.73718  0.031438579  0.032108106            1 
  382000    1.1898383   -7.2667839    144.27212  0.031472975  0.032106763            1 
  383000    1.1957956   -7.2324457    144.65374  0.031473833  0.032105723            2 
  384000     1.175368   -7.2019959    145.04521  0.031476824   0.03210392            2 
  385000     1.204302   -7.2522339    145.37939    0.0314674  0.032102047            2 
  386000    1.2038334    -7.249165    145.44578  0.031400212  0.032099722            1 
  387000    1.1956769   -7.2051081    146.37306  0.031518748  0.032098841            3 
  388000    1.1936343   -7.2582826    146.59271  0.031484689  0.032098144            1 
  389000    1.1833304   -7.2187034    147.16424  0.031526186  0.032097339            1 
  390000    1.1857353   -7.2045806    147.38774  0.031493107  0.032096273            1 
  391000    1.1992124   -7.2306456    147.58238  0.031454046  0.032095104            1 
  392000    1.1728199    -7.207093    147.41456  0.031338129  0.032092688            2 
  393000     1.182475   -7.2140296    147.91045  0.031363538  0.032089418            1 
  394000     1.185615   -7.2525988     147.7701   0.03125425  0.032085155            3 
  395000    1.1907285   -7.2290505    148.60545   0.03135136  0.032081751            3 
  396000    1.1651303   -7.2354213    148.88398  0.031330803  0.032077223            3 
  397000     1.196251   -7.2191947    149.47352  0.031375634  0.032072897            1 
  398000    1.2001858   -7.2075805    149.85092   0.03137582   0.03206936            1 
  399000    1.2109245   -7.2765932    150.13587  0.031356699  0.032065484            3 
  400000     1.196191   -7.2093373    150.18762  0.031289088   0.03206145            2 
  401000     1.203889   -7.2717475    150.42869  0.031261157  0.032057126            2 
  402000    1.1904649    -7.276704     150.3889  0.031175146  0.032051909            1 
  403000    1.1957704    -7.253353    151.20635  0.031266821  0.032046691            2 
  404000    1.1976837   -7.2199939     151.7132  0.031293976  0.032041964            1 
  405000     1.175552   -7.2237024    151.60387  0.031194212  0.032036822            2 
  406000    1.2012715   -7.2432657    152.27721  0.031255585  0.032031488            1 
  407000    1.1914886   -7.2515584    152.78577  0.031282918  0.032026622            2 
  408000    1.1729736     -7.19688     152.8177  0.031212765   0.03202136            2 
  409000    1.1964488   -7.2668586     152.3722  0.031045681   0.03201538            1 
  410000    1.2062157   -7.2453638    152.67421  0.031031343  0.032008558            2 
  411000    1.1783436   -7.2962753    153.55949  0.031135338  0.032001812            3 
  412000    1.1974057   -7.2290622    154.19618  0.031188548  0.031996148            2 
  413000    1.1767633   -7.2595207    154.25288  0.031124471  0.031990038            4 
  414000    1.1875379   -7.3038494     155.1037  0.031220551   0.03198401            1 
  415000    1.1611725   -7.2916883    154.25664   0.03097523  0.031977523            2 
  416000    1.1675252   -7.2219192    155.47118  0.031144066   0.03197065            2 
  417000    1.1558247   -7.2811759    155.90186  0.031155447  0.031964247            2 
  418000    1.1643518   -7.2790596    156.08214  0.031116855   0.03195896            1 
  419000    1.1758922   -7.2670029    156.32785  0.031091458  0.031953048            3 
  420000    1.1504428   -7.2500051    156.90761  0.031132462  0.031947215            2 
  421000    1.1810166   -7.2650582    157.05701  0.031088086  0.031941174            1 
  422000    1.1641995   -7.2488337    157.26038  0.031054578  0.031935358       -1e+20 
  423000    1.1881001   -7.2848546     158.0964  0.031145863   0.03192991            3 
  424000    1.1738235   -7.2591916    158.91226  0.031232756  0.031924417            3 
  425000    1.1723504   -7.2622116    159.12282  0.031200553  0.031919863            1 
  426000    1.1696072   -7.1644917    159.34704  0.031171173  0.031914748            1 
  427000    1.1738678   -7.2877937    158.69089  0.030970118  0.031908975            4 
  428000    1.1985306   -7.2547885    159.60718  0.031076165  0.031902033            3 
  429000    1.1769587   -7.3064582    159.96458  0.031073151  0.031896463            1 
  430000    1.1980576   -7.2312902    160.91955  0.031185959  0.031890851            1 
  431000    1.1966639   -7.2667529    160.78288  0.031087177  0.031885754            3 
  432000    1.1519561   -7.2785305    161.23487  0.031102405    0.0318806            1 
  433000     1.194289     -7.26346    161.87323  0.031153432  0.031875958            2 
  434000     1.174525    -7.278571    162.15288  0.031135346  0.031870947            1 
  435000    1.1840877   -7.2522347    162.63915  0.031156926  0.031865681            1 
  436000    1.1754094   -7.2710529    162.49432  0.031057782  0.031860594            3 
  437000    1.1886833   -7.2572761    163.83018  0.031241454  0.031855856            1 
  438000    1.1840483   -7.2495626    163.60277   0.03112686  0.031851526            1 
  439000    1.1755076   -7.3103977    163.81079  0.031095442  0.031847222            1 
  440000    1.1742628     -7.26778    164.66329   0.03118623  0.031842826            1 
  441000    1.1791214    -7.287808    164.70359  0.031123126  0.031838765            2 
  442000    1.1887165   -7.2543064    165.19315  0.031145013  0.031834139            3 
  443000    1.1844816    -7.273679    165.40364  0.031114305  0.031829515            1 
  444000     1.185503   -7.2331405    166.08337  0.031171803  0.031825145            5 
  445000    1.1768112   -7.2567574    165.79086  0.031046977  0.031820974            2 
  446000    1.1994992   -7.2760312    166.53478  0.031116364  0.031815748            1 
  447000    1.1981453   -7.2647036    166.75294  0.031087423  0.031811054            2 
  448000    1.1896275   -7.2416125    167.05176  0.031073617  0.031806541            1 
  449000    1.1919174   -7.2518347    168.09748  0.031198493  0.031801929            2 
  450000     1.210434   -7.2788179    168.32386  0.031171085  0.031797569            2 
  451000    1.1593362   -7.2338972     168.8318  0.031195824  0.031793629            2 
  452000    1.1589589   -7.2820405    168.67889  0.031098615  0.031789243            1 
  453000     1.184292   -7.2566325     168.8339  0.031058481  0.031784775            2 
  454000    1.1862511   -7.2891006    169.09528  0.031038047  0.031780204            4 
  455000    1.1723209   -7.2500015    170.05843  0.031146233  0.031776616            1 
  456000     1.195722   -7.2746412     170.2972  0.031121564  0.031771934            2 
  457000    1.1911228   -7.2341748    170.57277  0.031103714  0.031767329            2 
  458000    1.1704564   -7.2568471    171.32464  0.031172606  0.031762809            3 
  459000    1.1706266   -7.3143109    171.12429  0.031068318  0.031757808            1 
  460000    1.1366131   -7.2536989    171.80564  0.031124211  0.031752315            1 
  461000    1.1859118    -7.234045    171.77921  0.031051917   0.03174682            2 
  462000    1.1635696   -7.2907965    172.02129  0.031028371  0.031741369            2 
  463000    1.1679632   -7.2666896    171.94928  0.030948394  0.031735146            2 
  464000    1.1885706   -7.2590477    172.83091  0.031040034  0.031728852            2 
  465000    1.1651133   -7.2566475    172.80161   0.03096803  0.031723023            3 
  466000    1.1802965   -7.3088953    173.10135  0.030955178  0.031717333            2 
  467000    1.1897334   -7.2633828    173.16352  0.030899986  0.031711542            2 
  468000    1.1689353   -7.2957901    173.34108  0.030865577  0.031705679            1 
  469000     1.169829   -7.2478049    174.51174  0.031007773  0.031699935            2 
  470000    1.2120778   -7.2152232    175.08377  0.031043222  0.031695269            1 
  471000     1.169204   -7.2484981    175.35289  0.031024927   0.03169001            2 
  472000    1.1694129   -7.3181845    174.97956  0.030893284  0.031684084            2 
  473000    1.1746655   -7.2935255    175.31269  0.030886661  0.031678283            1 
  474000    1.1727544    -7.291147    176.03358  0.030948238   0.03167254            1 
  475000     1.195501   -7.2984448    176.63004  0.030987727  0.031667612            1 
  476000    1.1668088   -7.2686203    176.91326   0.03097221   0.03166298            2 
  477000      1.17397   -7.2603536    177.71088  0.031046625   0.03165885            1 
  478000    1.1560083   -7.2616959    178.13345  0.031055344  0.031653866            1 
  479000    1.1826718   -7.3141501    178.20365  0.031002723  0.031649414            1 
  480000    1.1689761      -7.2919    178.33479  0.030960901  0.031644508            1 
  481000     1.173937   -7.2394356    179.48503  0.031095813  0.031640293            1 
  482000    1.1907472   -7.2347566    179.21462  0.030984547  0.031635422            4 
  483000    1.1910234   -7.2506138    179.42844  0.030957287  0.031630058            1 
  484000    1.1751961   -7.2573014    179.90336  0.030975096  0.031624625            4 
  485000      1.16948   -7.2974708    179.46597  0.030836077  0.031618898            2 
  486000    1.1444161   -7.2275843    180.79058  0.030999756   0.03161361            1 
  487000    1.1701085   -7.2982234    180.59637   0.03090287  0.031608058            1 
  488000    1.1683512   -7.2608511    180.76025   0.03086753  0.031602054            4 
  489000    1.1957262   -7.2952825    180.75384  0.030803313  0.031596122            2 
  490000    1.2053487   -7.2789975    181.02334  0.030786282  0.031589965            2 
  491000    1.1305309   -7.2990754    181.07219  0.030731873   0.03158326            3 
  492000    1.1685956   -7.3020073    182.05191  0.030835351  0.031576616            3 
  493000    1.1658265   -7.2520721    182.35085  0.030823335  0.031570644            3 
  494000    1.1828977    -7.284456    182.60019  0.030803001  0.031565173            1 
  495000    1.1754243    -7.246179    183.81795  0.030945783  0.031559989            1 
  496000    1.1706161   -7.2753346    183.96621  0.030908302  0.031554632            2 
  497000     1.148406   -7.2717508    183.64047  0.030791494  0.031548921            3 
  498000    1.1893733   -7.2819774    184.33527  0.030845929  0.031543225            1 
  499000    1.1925082   -7.2615195    184.08296  0.030741978  0.031537196            1 
  500000    1.1929184   -7.2776353     184.9574  0.030826233  0.031531275            1 
  501000    1.1837554   -7.2593567    185.89787  0.030921136  0.031525006            1 
  502000     1.196639   -7.2892685    185.73416  0.030832364   0.03151932            1 
  503000    1.1588997    -7.366242    185.22623  0.030686917  0.031513326            1 
  504000    1.1658931   -7.2872348    187.10667   0.03093695  0.031507849            2 
  505000    1.1774356   -7.3044394    187.40999   0.03092574  0.031503179            1 
  506000    1.1635232   -7.2817264    187.47366  0.030875108  0.031498458            2 
  507000    1.1602618   -7.3114127    187.70992  0.030853044  0.031494261            2 
  508000     1.154445   -7.2916423    188.32748  0.030893616  0.031490326            3 
  509000    1.1547366   -7.3037434      188.822  0.030913884  0.031486671            3 
  510000    1.1735969   -7.2710285    189.45583  0.030956835  0.031483033            1 
  511000    1.1905296   -7.2899625    189.79957  0.030952311  0.031479436            1 
  512000    1.1450397   -7.2867879    189.85265  0.030900496  0.031476388            3 
  513000    1.1619017   -7.3089767    191.01717  0.031029429  0.031472734            1 
  514000    1.1886599   -7.2920819    190.70856  0.030919028  0.031469087            2 
  515000     1.168558   -7.3253663     191.3619  0.030964708  0.031465577            1 
  516000    1.1558418   -7.3495933    191.53192  0.030932158  0.031461787            1 
  517000     1.170123   -7.2714892    192.71846  0.031063581  0.031458797            3 
  518000    1.1734882   -7.3051208    192.34926  0.030944218  0.031455238            1 
  519000    1.1607938    -7.309564    193.00009  0.030989096  0.031451965            2 
  520000    1.1836811   -7.3311229    193.16709  0.030956264  0.031448326            2 
  521000    1.1712789   -7.2555606    194.46398  0.031104283  0.031445696            1 
  522000    1.1571696   -7.2977684    194.71364  0.031084553  0.031443082            1 
  523000    1.1749025   -7.3256975    193.87319  0.030891203  0.031440287            2 
  524000     1.141864   -7.3286999    194.78269  0.030976891   0.03143716            2 
  525000    1.1441187   -7.2861432    195.65092  0.031055702  0.031433835            1 
  526000    1.1821524   -7.3052039      195.318  0.030943917  0.031430964            2 
  527000    1.1935653   -7.2808634    196.75303  0.031112118  0.031428412            3 
  528000    1.1957236   -7.3279648    196.69447  0.031043951  0.031425798            2 
  529000    1.1593711   -7.2841989    197.58487  0.031125531  0.031424376            1 
  530000    1.1585042   -7.2604316    198.50691  0.031211779  0.031423108            1 
  531000    1.1601581   -7.2714008    197.85236  0.031050277  0.031421763            1 
  532000    1.1568829   -7.3161626    197.92527  0.031003332   0.03141991            2 
  533000    1.1772406   -7.2625735    199.21694  0.031147114  0.031418016            1 
  534000      1.17779   -7.2855603    199.13507   0.03107601  0.031416484            1 
  535000    1.1890212   -7.2701608     200.0501  0.031160451  0.031414413            1 
  536000    1.1659218   -7.2714226    199.89627  0.031078401  0.031411822            1 
  537000    1.1594872    -7.291169    200.22383  0.031071358   0.03140929            1 
  538000    1.1956317   -7.2827868    200.56688  0.031066742  0.031407501            1 
  539000    1.1733347    -7.257976    201.09781  0.031091189  0.031405572            1 
  540000    1.1757351   -7.2548624     202.2889  0.031217422  0.031404472            1 
  541000     1.164677   -7.3505559      201.381  0.031019871  0.031402824            2 
  542000    1.1712962   -7.3364579    202.06161  0.031067283  0.031401045            2 
  543000    1.1599473    -7.324203    203.20926  0.031186198  0.031399341            4 
  544000    1.1559753   -7.2810567    203.44304  0.031164682  0.031397479            2 
  545000    1.1642658   -7.3180315    203.53695  0.031121858  0.031396621            2 
  546000    1.1676232   -7.3012474     203.5754  0.031070726  0.031395539            3 
  547000    1.1569045   -7.2745462    204.55538   0.03116322  0.031394019            3 
  548000    1.1474701   -7.2975302    204.98864  0.031172238  0.031392598            1 
  549000    1.1758292   -7.2890611    205.49898  0.031192924   0.03139157            2 
  550000    1.1527642   -7.3155027    205.51272  0.031138291  0.031390427            3 
  551000    1.1696306   -7.3063626     205.4969  0.031079386  0.031388688            1 
  552000    1.1583917   -7.3104785    205.28521  0.030991124  0.031386678            2 
  553000    1.1440711     -7.33493    206.02204  0.031046118  0.031384299            1 
  554000    1.1841248   -7.3223615    206.11589  0.031004195  0.031381874            3 
  555000    1.1798329    -7.291454    206.57327  0.031017007  0.031379658            1 
  556000    1.1829332   -7.2739675    206.98203  0.031022487  0.031377897            2 
  557000    1.1683143   -7.2890823    207.26809  0.031009588  0.031376296            2 
  558000    1.1759724   -7.3532924    207.82667  0.031037435  0.031374101            1 
  559000    1.1647402   -7.3130481    207.57406  0.030944254  0.031371786            3 
  560000    1.1694421   -7.2777205    208.11212  0.030969066  0.031369602            2 
  561000    1.1588852   -7.3502649    207.85366  0.030875469  0.031367832            1 
  562000    1.1717312   -7.3028497    209.56705  0.031074592  0.031365591            1 
  563000     1.162543   -7.3446085    209.10922  0.030951631  0.031363168            2 
  564000    1.1517846   -7.3168927    209.29743  0.030924561  0.031360415            3 
  565000    1.1572795   -7.3318081    209.13085  0.030845258    0.0313574            2 
  566000    1.1476592   -7.3182695    210.10985  0.030934901  0.031354084       -1e+20 
  567000    1.1442615   -7.2721644    209.60343  0.030805912  0.031350484            2 
  568000    1.1852305   -7.3356557    210.31866  0.030856611  0.031346775            4 
  569000    1.1608662   -7.2875643    211.18263  0.030928914  0.031343374            2 
  570000    1.1487575   -7.3036252    210.91526  0.030835564  0.031339577            1 
  571000    1.1918151   -7.3000167    211.86841  0.030920668  0.031335351            1 
  572000     1.155788   -7.3247045    210.29808  0.030637832  0.031331189            2 
  573000    1.1619459   -7.3027154    210.98843  0.030684763  0.031325703            3 
  574000    1.1547783   -7.3361569    211.28196  0.030673921    0.0313201            1 
  575000    1.1543384   -7.3118115    211.85308  0.030703345  0.031315089            1 
  576000    1.1467445   -7.2791495    212.37814  0.030726004  0.031310522            2 
  577000     1.176155   -7.3303361    212.80471  0.030734361  0.031306024            2 
  578000     1.170823   -7.3161552    212.93461  0.030699916  0.031301053            2 
  579000    1.1641747   -7.3387469     213.0203  0.030659226  0.031296474            1 
  580000    1.1645361   -7.3096184    213.54989  0.030682455   0.03129155            1 
  581000    1.1698564   -7.3015084    214.55361   0.03077361   0.03128686            3 
  582000    1.1614727   -7.3313457    214.29746  0.030684058  0.031281605            2 
  583000    1.1704975   -7.3600374    214.19598  0.030616921  0.031276634            2 
  584000     1.135281   -7.3293769    215.21496  0.030709897  0.031271476            3 
  585000    1.1717601   -7.2762171    216.32826  0.030815991  0.031266793            2 
  586000     1.154283   -7.3320709    216.03534  0.030721749  0.031262307            2 
  587000    1.1438162   -7.2713126    217.22473  0.030838263  0.031258016            2 
  588000    1.1751677   -7.3574457    216.03763  0.030617578  0.031253455            1 
  589000    1.1507552   -7.3313756    217.30459  0.030744848  0.031248523            2 
  590000    1.1726095   -7.3194395    218.51118  0.030863161  0.031244008            3 
  591000    1.1379678   -7.3658961    218.05678  0.030746867  0.031240029            2 
  592000    1.1624049   -7.3556231    217.78853  0.030657169  0.031236062            1 
  593000    1.1661023   -7.3120908    219.02752  0.030779584  0.031231797            3 
  594000    1.1758497   -7.3139868    219.42231  0.030783153  0.031227913            2 
  595000    1.1766619   -7.3415254    218.98567  0.030670261  0.031223979            3 
  596000    1.1608635   -7.2937568    219.99731  0.030760251  0.031219627            2 
  597000     1.163912   -7.2866926    219.91505  0.030697243  0.031215205            1 
  598000    1.2061987   -7.2913428    220.94671  0.030789675  0.031210927            2 
  599000    1.1500991   -7.3030511    221.12907  0.030763644  0.031207056            2 
  600000    1.1753597   -7.2997454    222.16334  0.030856019  0.031203066            1 
  601000    1.1727461   -7.3558237    222.17138  0.030805793  0.031199009            1 
  602000    1.1470699   -7.3196701    221.56774  0.030671061  0.031195132            2 
  603000    1.1312071   -7.3172189    222.46173  0.030743744  0.031190835            2 
  604000    1.1550978    -7.320035    222.11696  0.030645276  0.031187186            2 
  605000    1.1556133   -7.3482973    222.98885  0.030714718  0.031182851            1 
  606000    1.1361255   -7.2760128    223.21581  0.030695243  0.031178655            2 
  607000    1.1546197   -7.3353659    223.42246  0.030673045  0.031174386            1 
  608000    1.1443475   -7.3013934    224.57056  0.030779957  0.031169857            2 
  609000     1.172088   -7.3414458    223.46569  0.030578228  0.031165087            1 
  610000    1.1473669   -7.2857715     224.4672  0.030664919  0.031160359            1 
  611000    1.1233881   -7.3280899    224.37747  0.030602492  0.031155344            1 
  612000    1.1597845   -7.3542488    224.24739  0.030534775  0.031150166            1 
  613000    1.1476117   -7.3502885    224.92827  0.030577524  0.031144403            2 
  614000    1.1550045   -7.3233135    224.96107  0.030532175  0.031138331            1 
  615000    1.1700112   -7.3398111    224.17769  0.030376381   0.03113205            3 
  616000    1.1482265   -7.2897426    224.86882  0.030420565  0.031125371            3 
  617000     1.172945   -7.2996968    225.65518  0.030477468  0.031118854            1 
  618000    1.1278768   -7.3239123    225.28449  0.030378167  0.031112942            1 
  619000    1.1638314   -7.3379989    226.18426  0.030450224  0.031106776            3 
  620000    1.1474717   -7.2672143    227.07855   0.03052131  0.031100636            2 
  621000     1.147085   -7.3001265    226.97413   0.03045815  0.031094894            1 
  622000    1.1364109   -7.3556322    227.12797  0.030429792  0.031088958            1 
  623000    1.1353655   -7.3346773    227.82943  0.030474776  0.031082941            1 
  624000    1.1497049    -7.321277    227.59785  0.030395011  0.031076994            3 
  625000    1.1411301   -7.3458546    228.75904  0.030501205  0.031071428            1 
  626000    1.1478917   -7.3298348    229.25608  0.030518648  0.031065734            3 
  627000     1.182558   -7.3110442     229.0633  0.030444352  0.031059929            1 
  628000    1.1247826   -7.3595669    229.51029  0.030455187  0.031053938            2 
  629000    1.1463437   -7.3537267    229.38135  0.030389686  0.031047693            3 
  630000    1.1496936   -7.2832791      230.749  0.030522355  0.031041753            2 
  631000    1.1260084   -7.3315587    230.07024  0.030384343  0.031035737            1 
  632000    1.1667874   -7.3260331    230.02437  0.030330218  0.031029291            5 
  633000    1.1471277   -7.2946692    231.44452  0.030469262  0.031023055            3 
  634000    1.1346047   -7.3541301      231.015  0.030364747  0.031017093            2 
  635000    1.1817462    -7.341235    230.66978  0.030271624  0.031010755            3 
  636000    1.1606076   -7.2932602    231.89714  0.030384845  0.031004346            1 
  637000    1.1659922    -7.346402     232.6575  0.030436617  0.030997989            5 
  638000    1.1314762   -7.2874464    233.37023  0.030482005  0.030992045            1 
  639000     1.132488   -7.3312406    232.35417  0.030301796  0.030986041            2 
  640000    1.1548494   -7.3193335    232.37029  0.030256549   0.03097996            1 
  641000    1.1393594     -7.32184    232.86051  0.030273077  0.030973544            3 
  642000    1.1339683   -7.3576893    233.66045  0.030329757  0.030967238            1 
  643000    1.1545672   -7.2956207    233.80213   0.03030095  0.030961318            2 
  644000    1.1739362   -7.2877275    234.42302  0.030334241  0.030955549            5 
  645000    1.1282429   -7.3633973    234.81413  0.030337744  0.030949892            1 
  646000    1.1586437   -7.3232153    235.49705  0.030378876  0.030943882            1 
  647000    1.1567703   -7.3612945    235.16132  0.030288681  0.030937727            2 
  648000    1.1578978   -7.3403209    236.29865  0.030388201  0.030931661            1 
  649000    1.1411416   -7.3021363     236.0375  0.030307846  0.030925719            4 
  650000    1.1293894   -7.3019969    236.07745   0.03026634  0.030919113            3 
  651000    1.1661756   -7.3138075    236.38145  0.030258763  0.030912681            1 
  652000     1.147484   -7.3164689    236.53595    0.0302321  0.030906078            1 
  653000    1.1648542   -7.3565921    236.94053  0.030237433  0.030899073            1 
  654000    1.1333269   -7.3476059    236.40443  0.030122889  0.030892214            2 
  655000    1.1295759   -7.3750183    236.92089  0.030142606  0.030885118            2 
  656000    1.1369537    -7.338564    236.83655  0.030085943  0.030878534            1 
  657000    1.1382557   -7.3536187    237.96201  0.030182904  0.030871749            4 
  658000    1.1544023   -7.3203885    238.80056  0.030243232  0.030864968            1 
  659000    1.1333914   -7.2857965    238.87276  0.030206469  0.030858338            2 
  660000    1.1575186   -7.3252762    238.92848  0.030167737  0.030851399            2 
  661000    1.1564498   -7.3702089    238.29729  0.030042523  0.030844213            3 
  662000    1.1463777    -7.347531    238.63765  0.030039987  0.030836645            2 
  663000    1.1549873   -7.4014839    238.74617  0.030008317  0.030828518            1 
  664000    1.1615234   -7.2841522    240.00857  0.030121557   0.03082097            1 
  665000    1.1206732    -7.322317    240.20202  0.030100503  0.030814131            1 
  666000    1.1536636   -7.3335436    241.14434  0.030173215  0.030807214            2 
  667000    1.1504184   -7.3213942     241.0528  0.030116542  0.030800455            2 
  668000    1.1241537   -7.3435156    240.64809  0.030020969  0.030792991            1 
  669000    1.1394623   -7.3387583    240.52528  0.029960797  0.030785388            1 
  670000    1.1241029   -7.3149418    241.61084    0.0300511  0.030778268            3 
  671000    1.1708649    -7.332465    241.76693  0.030025699  0.030771014            2 
  672000    1.1254975   -7.3772419    241.98173  0.030007655  0.030763511            2 
  673000    1.1413604   -7.3695216    242.77887  0.030061772  0.030756507            1 
  674000    1.1477562   -7.3304273    243.24736  0.030075094  0.030749687            4 
  675000    1.1375016   -7.3434981    243.89912  0.030111002  0.030742534            3 
  676000    1.1345017   -7.3623941    243.34015  0.029997553   0.03073536            2 
  677000    1.1560212   -7.4125549    243.15745  0.029930754  0.030727824            1 
  678000    1.1295362   -7.3539083    244.50468  0.030052197  0.030720179            2 
  679000    1.1702826   -7.3162827    245.40601  0.030118558   0.03071308            1 
  680000    1.1410116   -7.3361765    244.92757  0.030015633  0.030706279            1 
  681000    1.1347092    -7.381393    245.77858  0.030075695  0.030699265            1 
  682000    1.1606782    -7.349636    245.96396  0.030054248  0.030692826            2 
  683000    1.1511365   -7.3608261    245.55626  0.029960501  0.030685829            3 
  684000    1.1492605   -7.3583762    246.09271  0.029982056  0.030678641            2 
  685000    1.1421826   -7.3147551    246.72862  0.030015647  0.030671528            2 
  686000    1.1483374    -7.328177    246.90371  0.029993162  0.030664669            1 
  687000    1.1257304   -7.3535178    247.01489   0.02996299  0.030657464            3 
  688000    1.1434144   -7.3273258    246.84549   0.02989892  0.030649983            2 
  689000    1.1494354   -7.3462741    247.51946  0.029937041  0.030642688            1 
  690000    1.1539704    -7.316486    247.53419  0.029895434  0.030635052            2 
  691000    1.1615987   -7.3545484    247.88665  0.029894676  0.030627276            3 
  692000     1.151833   -7.3321926    248.24298  0.029894386  0.030619465            3 
  693000    1.1468397   -7.3211817    248.56652  0.029890154  0.030612157            2 
  694000    1.1509409   -7.3887286    248.91504  0.029888934  0.030604687            2 
  695000    1.1437283    -7.331931    249.29377  0.029891339  0.030596861            3 
  696000    1.1369662   -7.3849006    249.43329  0.029865097  0.030589653            1 
  697000    1.1246229   -7.3600366    249.71538  0.029855975  0.030582217            1 
  698000     1.124201   -7.3908693    249.71289  0.029812904  0.030574771            1 
  699000    1.1296732   -7.3623319    250.93809  0.029916319  0.030567352            3 
  700000    1.1244627   -7.3454013    251.22855   0.02990816  0.030559978            2 
  701000    1.1242923   -7.3341916    251.05327  0.029844659  0.030552487            3 
  702000    1.1561398   -7.3293912    251.60728  0.029867911  0.030544907            1 
  703000    1.1629827   -7.3925731    251.33461  0.029793103  0.030537387            5 
  704000    1.1427192   -7.3714569     252.4736  0.029885606  0.030529462            1 
  705000    1.1482057   -7.4038364     251.5351  0.029732282  0.030521721            3 
  706000    1.1621888   -7.3348589    252.45167  0.029798356  0.030514051            1 
  707000    1.1303817   -7.3316053    252.54921  0.029767705   0.03050639            1 
  708000    1.1215154   -7.3799639    253.11873  0.029792694  0.030498625            2 
  709000    1.1269883   -7.3305871    252.97655  0.029733962  0.030490938            5 
  710000    1.1181943   -7.3958025    254.30376  0.029847859  0.030483531            1 
  711000    1.1380166   -7.3737942    253.83849  0.029751347  0.030476102            3 
  712000    1.1265641     -7.34152    254.92508  0.029836737   0.03046823            1 
  713000    1.1218935   -7.3396301    254.41731  0.029735543  0.030460738            1 
  714000    1.1029725   -7.3404334      254.982  0.029759804  0.030453438            3 
  715000    1.1256158   -7.3316424    255.60378   0.02979065  0.030445713            1 
  716000    1.1290157    -7.326244    255.65672  0.029755205  0.030438087            1 
  717000    1.1414587    -7.409355    255.13349  0.029652893  0.030430333            2 
  718000    1.1414063   -7.3625094    255.17234  0.029616103  0.030422066            1 
  719000    1.1477781    -7.375259    254.93037  0.029546867   0.03041357            1 
  720000     1.150296   -7.3281614    256.52577  0.029690483   0.03040544            2 
  721000    1.1248219   -7.3554014     256.5763  0.029655143  0.030397476            1 
  722000    1.1331494   -7.3396785    256.24955  0.029576356  0.030389236            1 
  723000    1.1580934   -7.3606685    256.46501  0.029560283  0.030380526            1 
  724000     1.138923   -7.3429453    257.74409  0.029666677   0.03037213            1 
  725000    1.1194244   -7.3184775    257.58736  0.029607743  0.030364046            1 
  726000    1.1363893   -7.3267625    258.00942  0.029615406  0.030356077            3 
  727000    1.1515047   -7.3887884    257.99607   0.02957314  0.030347957            1 
  728000    1.1321801   -7.4011228    257.94861  0.029527084   0.03033998            2 
  729000     1.150149   -7.3626851     258.8785  0.029592878  0.030331537            3 
  730000    1.1716416   -7.3784877     258.7326  0.029535685  0.030323464            3 
  731000    1.1434386   -7.3989562    259.24873  0.029554119  0.030315304            3 
  732000    1.1389124   -7.3774037     260.6874  0.029677528  0.030307233            1 
  733000      1.14883   -7.3656784    260.72204  0.029640977  0.030299747            1 
  734000    1.1241605   -7.3499465    261.31139  0.029667506  0.030292317            1 
  735000    1.1282343   -7.3508582    261.45608  0.029643546  0.030285102            3 
  736000    1.1607948   -7.3441539    261.66471  0.029626892  0.030277939            2 
  737000    1.1401962   -7.3797976    261.75607  0.029597023  0.030270332            1 
  738000    1.0981254   -7.4015309     261.7422  0.029555352  0.030262627            3 
  739000    1.1532627   -7.4347366    262.09678  0.029555343  0.030254672            2 
  740000    1.1255255   -7.3956896     262.1912  0.029526036  0.030246886            2 
  741000    1.1451433   -7.3671435     263.0136  0.029578677  0.030238741            4 
  742000    1.1468939   -7.3803278    261.58189   0.02937802  0.030230947            3 
  743000     1.127489    -7.345672    263.20223  0.029520215  0.030222866            3 
  744000    1.1243971   -7.4108158     262.5246  0.029404638    0.0302147            3 
  745000    1.1232046    -7.350017    263.46804  0.029470698  0.030206528            3 
  746000    1.1199612   -7.3730509    263.20918  0.029402277  0.030198429            1 
  747000    1.1287851   -7.4074911    263.55814  0.029401846  0.030189819            3 
  748000    1.1532857   -7.3544574    263.51715  0.029357971  0.030181063            2 
  749000    1.1384371   -7.3459667    263.69004  0.029338011  0.030172114            2 
  750000    1.1256342   -7.3392412    265.02551  0.029447279  0.030163178            2 
  751000    1.1260078   -7.3608817    264.06795  0.029301814  0.030154399            1 
  752000    1.1403585   -7.3628924    264.08275  0.029264489   0.03014525            4 
  753000    1.1397773   -7.3973868    264.27627  0.029247042   0.03013618            1 
  754000    1.1087715   -7.3601328    264.89786  0.029276952  0.030126896            2 
  755000     1.119443   -7.4259826    265.11993  0.029262686  0.030117804            2 
  756000    1.1118474   -7.3641838    265.27925   0.02924154  0.030108497            2 
  757000    1.1115879   -7.3703204    266.34134   0.02931983  0.030099452            1 
  758000    1.1490464   -7.3714287    265.80187  0.029221841  0.030090626            1 
  759000    1.1358615   -7.3716855    266.61518  0.029272637  0.030081585            1 
  760000    1.1229112    -7.361413    266.56193  0.029228282  0.030072523            6 
  761000    1.1129078   -7.3969372    267.05383  0.029243739  0.030063382            1 
  762000    1.1320868   -7.4068537    266.33873  0.029127157  0.030053993            3 
  763000    1.1461862   -7.3778924    266.57901  0.029115226   0.03004497            2 
  764000    1.1537216   -7.4145268    267.11394  0.029135464  0.030035579            2 
  765000     1.118429   -7.3713462    268.28357   0.02922479  0.030026357            1 
  766000     1.136464   -7.3842599    268.73043  0.029235251  0.030016945            4 
  767000    1.1205066   -7.3383615    268.91783  0.029217496  0.030007576            1 
  768000    1.1357592   -7.3914596    267.85377  0.029063994  0.029998447            1 
  769000    1.1267276   -7.4064464    267.68247  0.029007636  0.029989315            1 
  770000    1.1374896   -7.3501517    268.56512  0.029065489  0.029979734            1 
  771000    1.1382464   -7.4053048    268.58656  0.029030108  0.029969989            3 
  772000    1.1509129   -7.3517783    269.98103   0.02914303  0.029960247            3 
  773000    1.1115991   -7.4068149    269.19737  0.029020846  0.029950641            5 
  774000    1.1095741   -7.4081701    269.83143  0.029051619  0.029940647            2 
  775000    1.1264614   -7.3733823     269.7963  0.029010354  0.029930809            3 
  776000    1.1352457   -7.3446663    271.10739  0.029113766  0.029920975            2 
  777000    1.1291481   -7.4246109    269.61635  0.028916382   0.02991107            5 
  778000    1.1356047   -7.3850059     270.3303  0.028955688  0.029901018            2 
  779000     1.122479   -7.4036965    269.99505  0.028882654  0.029890978            2 
  780000    1.1422305   -7.3499708    271.15316  0.028969355  0.029880686            2 
  781000    1.1183836   -7.3973887    270.68528  0.028882339  0.029870282            2 
  782000    1.1139685   -7.4039425    271.62705  0.028945764  0.029860276            2 
  783000    1.1530474    -7.383667     272.6178   0.02901424   0.02985028            3 
  784000    1.1032755   -7.4061437     271.1687  0.028823204  0.029840491            1 
  785000    1.1055927   -7.4124311    271.79755  0.028853243  0.029830013            6 
  786000     1.085954   -7.3677036    273.28719  0.028974469  0.029819703            3 
  787000    1.1330223   -7.3741653    272.89874   0.02889652   0.02980965            1 
  788000    1.1158887    -7.378063    272.71113  0.028840009  0.029799297            1 
  789000    1.1128258     -7.38383    272.18046  0.028747408  0.029788981            3 
  790000    1.1507618   -7.3641542    273.57211  0.028857817  0.029778771            4 
  791000    1.1316675   -7.3862657    273.65835  0.028830421  0.029768682            1 
  792000    1.1336197   -7.3648867    274.41738  0.028873883  0.029758851            3 
  793000    1.0883972   -7.3835102    274.65308   0.02886224  0.029748452            1 
  794000    1.1299119   -7.3951177    274.74612  0.028835655  0.029738308            2 
  795000    1.1300455     -7.38318    275.06757  0.028833079  0.029728251            1 
  796000    1.1207457    -7.425295    273.98084  0.028683087  0.029718053            1 
  797000    1.1225491   -7.3668155    276.14297  0.028873167  0.029707807            2 
  798000    1.0987017   -7.4005188    274.50136  0.028665555  0.029697414            3 
  799000    1.1445342   -7.3734251    275.64472  0.028748928  0.029687021            2 
  800000    1.1153644   -7.4135665    275.28295  0.028675307   0.02967668            6 
  801000    1.1521462   -7.3619106     276.4466   0.02876057  0.029666619            2 
  802000    1.1175625   -7.3664935    276.63436  0.028744218  0.029656572            2 
  803000    1.1237049   -7.4394332    276.64781  0.028709819  0.029646374            3 
  804000    1.1104591   -7.3737685    276.80019  0.028689903  0.029636197            3 
  805000    1.0985728   -7.3941746    278.10328  0.028789159  0.029626249            1 
  806000    1.1094803   -7.4113773    277.36901  0.028677524   0.02961629            3 
  807000    1.1441444   -7.3817368    278.07142  0.028714521  0.029606311            1 
  808000    1.0932772   -7.3685598    278.25915  0.028698345  0.029596283            1 
  809000     1.142658   -7.4195918    278.86807  0.028725595  0.029586577            1 
  810000     1.110584   -7.3952323    279.13798  0.028717899  0.029576923            3 
  811000    1.1406588   -7.3938202    279.85545  0.028756211  0.029567164            2 
  812000    1.1602856   -7.4281674    279.69699  0.028704535  0.029557632            2 
  813000     1.127006   -7.4394641    279.53853  0.028652985   0.02954785            2 
  814000     1.122032   -7.3804228    279.74403  0.028638824  0.029537954            1 
  815000    1.1161228   -7.4142547    280.41475  0.028672265  0.029528089            2 
  816000    1.1236285   -7.4430045    280.64586  0.028660729  0.029517953            3 
  817000    1.0822778   -7.4389782    280.46739  0.028607445  0.029507777            4 
  818000    1.1458928   -7.3755472    282.29022  0.028758172  0.029498146            1 
  819000    1.1108497   -7.4407373    280.67852  0.028559068  0.029488737            5 
  820000    1.1142258   -7.4256496    282.55804  0.028715248  0.029479431            3 
  821000    1.1322784   -7.4279927    282.75517  0.028700281  0.029469741            2 
  822000    1.1273399    -7.437796    282.15699  0.028604723  0.029460538            3 
  823000    1.1254625     -7.44342    283.17655  0.028673202  0.029451255            2 
  824000    1.1231035    -7.400991    283.02653  0.028623233  0.029441905            2 
  825000    1.1406662   -7.3786535    284.70695  0.028758277  0.029432715            2 
  826000    1.1322041   -7.3988388    284.25085  0.028677447  0.029423324            2 
  827000     1.121127    -7.414315    283.66699  0.028583937   0.02941418            2 
  828000    1.1258363   -7.4525624    283.85361  0.028568197  0.029404498            2 
  829000    1.1414862   -7.4047185    285.14684  0.028663735  0.029395038            1 
  830000    1.1100281   -7.3896076    285.85859  0.028700661  0.029385871            2 
  831000    1.1035305   -7.4489365    285.85425  0.028665689  0.029376662            3 
  832000    1.1054493   -7.3842876    286.09619  0.028655467  0.029367483            1 
  833000    1.1201156   -7.4415771    285.38798  0.028550218  0.029358205            2 
  834000    1.1272985   -7.4099572    286.30078  0.028607192  0.029348842            1 
  835000    1.1242456   -7.4065581    286.65858   0.02860864  0.029339582            1 
  836000     1.119953   -7.4130825    286.38269  0.028546919  0.029330488            2 
  837000    1.1060961   -7.4022844    287.82525  0.028656436  0.029321854            1 
  838000    1.1405787   -7.3894407    287.73625   0.02861339  0.029313003            1 
  839000    1.0827163   -7.3973136    288.74768  0.028679745    0.0293043            1 
  840000    1.1138844   -7.3995476    288.09732  0.028581083  0.029295496            3 
  841000    1.0859208   -7.4264121    288.38745  0.028575848  0.029286554            2 
  842000    1.1093411    -7.400234    288.43793  0.028546905  0.029277777            3 
  843000    1.0967911    -7.424545    288.19959  0.028489481  0.029268877            3 
  844000    1.1029777    -7.425501    288.77042  0.028512087  0.029259756            1 
  845000    1.1209934   -7.4140276    289.46526   0.02854687  0.029250632            1 
  846000    1.0971031   -7.4054237     290.0021  0.028566007  0.029241483            1 
  847000    1.0884302   -7.4151191    290.29055   0.02856066  0.029232303            1 
  848000    1.1213321   -7.4556619    289.93301  0.028491844  0.029222939            2 
  849000    1.1236234   -7.4056841    291.05983  0.028568888  0.029213904            2 
  850000    1.1289342   -7.4208068     290.6843  0.028498461  0.029205023            2 
  851000     1.121252   -7.4152185     291.2162  0.028517058   0.02919601            1 
  852000    1.1106117   -7.3721707    291.00331  0.028462765  0.029186703            1 
  853000     1.118064   -7.4225104    291.14802  0.028443535  0.029177431            2 
  854000    1.1069748   -7.4052025    291.00678  0.028396446  0.029168073            1 
  855000    1.1433462   -7.3752842    292.62089  0.028520555  0.029159087            2 
  856000    1.1068345   -7.3806976    292.56141  0.028481446  0.029150162            1 
  857000    1.1331643   -7.4043851    292.31993   0.02842473  0.029141162            1 
  858000    1.1133808   -7.4076443    292.22126  0.028382018   0.02913177            3 
  859000    1.1196181   -7.4305486    293.18746   0.02844271  0.029122316            1 
  860000    1.0997229    -7.433357    292.05071  0.028299487  0.029112533            3 
  861000    1.1092147   -7.3882877    293.20556  0.028378393  0.029103103            3 
  862000    1.1274561   -7.4303548    292.25042  0.028253134  0.029093615            2 
  863000    1.1042184    -7.409046    293.62954  0.028353567  0.029083838            3 
  864000    1.1043562   -7.4168357    294.51338  0.028405998  0.029074429            2 
  865000    1.0733078   -7.4080443      293.924  0.028316378  0.029064853            1 
  866000    1.1197025   -7.4491354    293.26183  0.028219961  0.029055234            1 
  867000    1.1131945   -7.3902799    294.73459  0.028328969  0.029045589            2 
  868000    1.1109995   -7.4154979    294.00173  0.028225973  0.029036097            3 
  869000    1.1130408    -7.410268    294.54994  0.028246062  0.029026307            2 
  870000    1.1053171   -7.4226655    294.43313  0.028202407  0.029016409            3 
  871000    1.1073242   -7.4342947    294.02166   0.02813066  0.029006423            1 
  872000    1.1338661   -7.3951431    295.00209  0.028192096  0.028996337            1 
  873000     1.088435   -7.3813338    295.87286  0.028242923  0.028986649            3 
  874000    1.1033043   -7.4038649    295.87885  0.028211179    0.0289766            2 
  875000     1.127287   -7.4056676    296.11043  0.028200994  0.028966622            3 
  876000    1.1323408   -7.3795847    296.16911  0.028174383  0.028956869            1 
  877000    1.0990047   -7.4510853    295.82616  0.028109669  0.028947359            2 
  878000    1.1111017    -7.475049    296.78638   0.02816879   0.02893752            3 
  879000    1.1249356   -7.4298171    298.29837  0.028280088  0.028927874            1 
  880000    1.1061575   -7.4417392    297.25065  0.028148736  0.028918391            2 
  881000    1.0975796   -7.4054018    298.53112  0.028237904  0.028909154            1 
  882000     1.106271   -7.4231829    297.97494  0.028153339  0.028899679            2 
  883000    1.1059478    -7.421122    296.92428  0.028022299  0.028890303            1 
  884000    1.1277636   -7.4001285    298.43849  0.028133342  0.028880823            1 
  885000    1.1294281   -7.4012053     298.5984   0.02811661  0.028871451            2 
  886000    1.1181605   -7.4168025    299.24455   0.02814565  0.028862034            1 
  887000    1.0898467   -7.4518792    299.29729  0.028118874  0.028852298            1 
  888000    1.1366542   -7.4574856    298.93216  0.028052943  0.028842341            1 
  889000    1.0892457   -7.4701893    298.12185   0.02794543  0.028832098            3 
  890000    1.0986091   -7.4380656    299.11051  0.028006602  0.028822072            1 
  891000     1.106411   -7.4206815    300.61199    0.0281156  0.028812281            1 
  892000     1.101405   -7.4536524    299.51891  0.027981961  0.028802728            4 
  893000    1.1134232    -7.442799    300.36812  0.028029873  0.028793069            3 
  894000    1.1344258   -7.4655672    300.31278  0.027993362   0.02878336            1 
  895000    1.1117395   -7.4105101    301.69018  0.028090334  0.028773839            2 
  896000    1.1052139   -7.4422065    301.43821  0.028035548  0.028764473            1 
  897000    1.0935211   -7.3952462    302.63679  0.028115644  0.028755055            1 
  898000    1.1140189    -7.444029     302.0116  0.028026318  0.028745655            2 
  899000    1.1181716    -7.433231    302.29419  0.028021338  0.028735785            1 
  900000    1.0986127   -7.4243301    301.56876  0.027923033  0.028726193            4 
  901000    1.1129537   -7.4418523    302.15726  0.027946473  0.028716415            4 
  902000    1.1172126   -7.4483495    302.50355  0.027947483  0.028707067            1 
  903000    1.1068389   -7.4335882    303.14036  0.027975301  0.028697719            2 
  904000    1.1092928   -7.4279912    302.46828    0.0278824  0.028688333            2 
  905000    1.0946434   -7.4353557    303.01732  0.027902147  0.028678443            3 
  906000    1.1078875   -7.4393442    303.34825  0.027901789  0.028668788            1 
  907000    1.1059482   -7.4643733    304.44458  0.027971755  0.028659342            2 
  908000    1.1074537   -7.4481592     303.2629  0.027832498  0.028649795            2 
  909000    1.1071441     -7.47673    304.62275  0.027926544  0.028640426            1 
  910000     1.083604   -7.4854444    304.50048   0.02788466  0.028631111            1 
  911000    1.1178579   -7.4162402     305.6906  0.027962917  0.028621501            1 
  912000    1.1029594   -7.4398739    305.65855  0.027929326  0.028612514            1 
  913000     1.108645   -7.4061417    306.23202  0.027951079  0.028603325            2 
  914000    1.1059799   -7.4112098    306.17658  0.027915443  0.028593994            2 
  915000    1.1126815   -7.4957018    305.63059  0.027835209  0.028584478            2 
  916000    1.0920349   -7.4584766    305.93216  0.027832256  0.028575027            1 
  917000     1.105375   -7.4190823    306.12968  0.027819854  0.028565562            2 
  918000    1.0974459   -7.4724529    306.69334  0.027840717  0.028556099            4 
  919000    1.0716896   -7.4630509    306.12465  0.027758855  0.028546555            4 
  920000    1.1126522   -7.4249548    307.15266  0.027821799  0.028537106            1 
  921000    1.0859101   -7.4343596    307.69983  0.027841099  0.028527802            2 
  922000    1.1067141   -7.4572142    308.17612  0.027853951  0.028518485            1 
  923000    1.0972012   -7.4283383    308.80996     0.027881   0.02850911            2 
  924000    1.0940196   -7.4378581    308.26442  0.027801625  0.028499673            1 
  925000    1.1072084   -7.4197483    309.13051  0.027849596  0.028490283            3 
  926000    1.1079908    -7.435848    310.08474  0.027905394  0.028481406            1 
  927000    1.1058193   -7.4181304    310.68955  0.027929661  0.028472671            1 
  928000    1.1143655   -7.4437627    310.23729  0.027858952  0.028463973            3 
  929000    1.1122539   -7.4534424    310.00556  0.027808177  0.028455137       -1e+20 
  930000    1.0941336   -7.4343579    311.53817  0.027915607  0.028446086            1 
  931000    1.1026045   -7.4188484    311.37795  0.027871281  0.028437465            5 
  932000    1.0806531   -7.4085465    313.29062  0.028012395  0.028428826            1 
  933000    1.1212642   -7.4793435    311.45698  0.027818594  0.028420149            2 
  934000     1.089811   -7.4065603    311.74354  0.027814377   0.02841126            1 
  935000    1.1099096   -7.4536133    311.99911  0.027807407   0.02840241            7 
  936000    1.1060699   -7.4574411    310.86849  0.027677038  0.028393613            1 
  937000    1.0880976     -7.45959    312.11118   0.02775802  0.028384572            1 
  938000    1.0988194    -7.461244    312.51074  0.027763925  0.028375596            2 
  939000    1.0915855   -7.4477874    313.29481  0.027803941  0.028366747            2 
  940000    1.0929127   -7.4458551    313.25674  0.027770988   0.02835809            3 
  941000    1.0929451   -7.4735092     314.1881  0.027823955  0.028349329            1 
  942000    1.0984797   -7.4438689    313.81475  0.027761389  0.028340389            2 
  943000    1.0922247   -7.4527776    313.22958  0.027680239  0.028331324            2 
  944000    1.0980229   -7.4873952    313.31541  0.027658493  0.028322086            1 
  945000    1.0915308   -7.4213615    314.06751  0.027695547  0.028312903            1 
  946000    1.0902762   -7.4216862    314.27108  0.027684203   0.02830385            3 
  947000    1.1087637   -7.4647828    314.51894  0.027676781  0.028294814            1 
  948000    1.1288239   -7.4420052    314.86117  0.027677669  0.028285862            1 
  949000    1.1120872   -7.4936258    315.00163  0.027660839  0.028276772            2 
  950000     1.119405   -7.4075676    315.41828   0.02766827  0.028267542            1 
  951000     1.115502   -7.4688385      314.944  0.027597617  0.028258394            1 
  952000    1.0959035   -7.4292176    315.77012  0.027640942  0.028249219            2 
  953000     1.114236   -7.4739078    315.56528  0.027594026   0.02823987            1 
  954000    1.1129079   -7.4420269    315.31675  0.027543392  0.028230607            2 
  955000    1.0881535   -7.4133618    316.07693  0.027580884  0.028221393            2 
  956000    1.0849595   -7.4535467     316.1893  0.027561829  0.028212094            6 
  957000    1.0992017   -7.4712231     316.0922  0.027524573  0.028202647            1 
  958000    1.0739732   -7.4193137    317.20659  0.027592779  0.028193324            1 
  959000    1.1099482   -7.4970821    316.88616  0.027536163  0.028184319            2 
  960000    1.0917394   -7.4701494    316.82797  0.027502428  0.028175101            3 
  961000    1.0792424   -7.4299922    318.14645  0.027588141  0.028165797            2 
  962000    1.1239887   -7.4715184    318.19243  0.027563447  0.028156916            1 
  963000     1.105623   -7.4074758    318.74286  0.027582456  0.028148021            2 
  964000    1.1158998   -7.4154012    319.02655  0.027578367  0.028139189            1 
  965000     1.077759   -7.4315559    318.80719  0.027530845  0.028130104            1 
  966000    1.0911325   -7.4053336    320.34091  0.027634654  0.028121444            1 
  967000    1.0819543   -7.4244864     319.9706  0.027574164  0.028112814            1 
  968000    1.1070466   -7.4466083    320.64785  0.027603981  0.028104328            2 
  969000    1.0754927   -7.4950103    319.65556  0.027490159  0.028095663            1 
  970000     1.099523   -7.4307533    320.04307  0.027495109  0.028086601            2 
  971000    1.0888653   -7.4842933    319.66948  0.027434731  0.028077591            1 
  972000    1.0913286   -7.4811167    319.89309  0.027425677   0.02806854            2 
  973000    1.1037398   -7.4905095    320.61568  0.027459377  0.028059376            4 
  974000    1.0951609   -7.5066304    320.86485  0.027452502  0.028050147            1 
  975000    1.1247301    -7.443911    321.18209  0.027451461  0.028040902            2 
  976000    1.0967124   -7.4336727     320.9219  0.027401118  0.028031701            3 
  977000    1.0937806   -7.4385987    321.61508  0.027432197   0.02802265            3 
  978000    1.0919402   -7.4595898    321.41726  0.027387292  0.028013508            2 
  979000    1.1171147   -7.4536563    322.00521  0.027409364  0.028004354            2 
  980000     1.109229   -7.5256645    321.44923  0.027334119  0.027995288            1 
  981000    1.0897793   -7.4466918    322.16568  0.027367116   0.02798618            1 
  982000    1.0887934   -7.4645269    322.20479  0.027342565   0.02797718            2 
  983000    1.0830839   -7.4597273    323.53121  0.027427197  0.027968296            1 
  984000    1.0967408   -7.4579461    323.12584  0.027364993  0.027959307            3 
  985000    1.0703994   -7.5133781    323.06317  0.027331909  0.027950369            2 
  986000    1.1034103   -7.4721901    323.94089  0.027378371  0.027941293            1 
  987000    1.0719618   -7.4824306     324.5217   0.02739967  0.027932287            2 
  988000    1.0681417   -7.4968029    323.88758  0.027318453  0.027923138            1 
  989000    1.1002856   -7.5035329    324.32297  0.027327517  0.027913796            2 
  990000    1.1289251   -7.5038938    323.43478   0.02722515  0.027904437            6 
  991000    1.0936342   -7.4673239    324.25529  0.027266674  0.027895236            8 
  992000    1.0907475   -7.4226595    325.80696  0.027369536  0.027886237            2 
  993000    1.0815598   -7.5141137    324.81472  0.027258704  0.027877258            3 
  994000    1.0730683    -7.451179    325.63733  0.027300245  0.027868141            3 
  995000    1.0919653   -7.4665278    327.01746  0.027388397  0.027859262            3 
  996000    1.0797893   -7.4839524    325.88387  0.027266054  0.027850276            4 
  997000    1.0820335   -7.4375307    326.36898  0.027279252  0.027841188            1 
  998000     1.096087   -7.4802283    326.87788  0.027294413  0.027832166            2 
  999000    1.0859369   -7.4760357     326.3845  0.027225934  0.027823342            1 
 1000000     1.082377   -7.5001945    327.31145  0.027275955  0.027814765            1 
 1001000    1.0995831   -7.5004705    326.37815  0.027171008  0.027805867            2 
 1002000    1.0828948   -7.5047358    327.71171    0.0272548  0.027797239            2 
 1003000    1.0961889    -7.465035    327.72866  0.027229034  0.027788666            2 
 1004000    1.0944407     -7.44499    329.38523  0.027339411  0.027780238            3 
 1005000    1.1061991   -7.4948797     330.0466  0.027367048  0.027771686            2 
 1006000    1.0930786   -7.4407865     330.7395  0.027397241  0.027763362            1 
 1007000     1.108191   -7.4618707    330.23291  0.027328113  0.027754958            2 
 1008000    1.1095425   -7.4516591    331.41162  0.027398447  0.027746587            3 
 1009000    1.0898221   -7.4622499    330.81045  0.027321642  0.027738269            1 
 1010000    1.0974815   -7.4696445    329.84383  0.027214838  0.027729926            5 
 1011000     1.065404   -7.4556855    330.89887  0.027274882  0.027721492            2 
 1012000    1.0871551   -7.4841086    329.76141  0.027154266  0.027713131            1 
 1013000    1.0840888   -7.5084928    330.35425   0.02717623  0.027704419            2 
 1014000    1.0852102   -7.4714724    330.87564  0.027192278  0.027695476            1 
 1015000    1.0797997   -7.4558127    331.36487  0.027205655  0.027686769            1 
 1016000    1.0830446   -7.4488294    331.67353  0.027204194  0.027678295            1 
 1017000    1.0692522   -7.4843772    331.15661  0.027135088  0.027669715            3 
 1018000    1.0947988   -7.4902371     331.4961  0.027136223  0.027661223            1 
 1019000    1.0819999   -7.4809781     331.7754  0.027132433  0.027652579            2 
 1020000    1.0970281   -7.4513935    332.21501  0.027141749  0.027643775            2 
 1021000    1.0650867   -7.4504741    332.70428  0.027155099  0.027634979            2 
 1022000     1.079326    -7.495254    332.18192  0.027085936  0.027626267            1 
 1023000    1.0602638    -7.526975    332.34117  0.027072431  0.027617578            3 
 1024000    1.0876596   -7.5148138     332.4942  0.027058447   0.02760877            1 
 1025000    1.0847858   -7.4688998      333.792  0.027137561  0.027600176            2 
 1026000    1.1014592   -7.5259686    333.68916  0.027102758  0.027591425            2 
 1027000     1.081591   -7.5025792    333.40062  0.027052955  0.027582696            2 
 1028000    1.0741754   -7.4783078    333.74484  0.027054543  0.027574016            1 
 1029000    1.1099629   -7.4606695     333.8775  0.027038994  0.027565308            3 
 1030000    1.0980827   -7.4946921    333.85035  0.027010546  0.027556646            3 
 1031000    1.1090573   -7.5153685    334.47304  0.027034679  0.027547944            1 
 1032000     1.089012   -7.4789442    335.35675  0.027079841  0.027539216            1 
 1033000    1.0988146   -7.4441712    335.62608  0.027075353  0.027530729            1 
 1034000    1.0768753   -7.4805529    335.29229  0.027022267  0.027522348            3 
 1035000    1.0794467   -7.4860893    334.64151  0.026943761   0.02751359       -1e+20 
 1036000    1.0773764    -7.468236    335.82774   0.02701317  0.027504819            2 
 1037000    1.0663649   -7.4574054    336.07781  0.027007218  0.027496233            2 
 1038000    1.0697839   -7.5087464    336.73177    0.0270337   0.02748739            2 
 1039000    1.0889007   -7.4879427    336.15975  0.026961802  0.027478621            2 
 1040000    1.0831636   -7.4934739    336.68709  0.026978132  0.027469819            4 
 1041000    1.0875772   -7.4760754    336.54742  0.026941036  0.027461202            1 
 1042000     1.060761   -7.4435032    336.90077  0.026943439  0.027452256            1 
 1043000    1.0794817   -7.5156622    335.63471  0.026816451  0.027443487            1 
 1044000    1.0837453   -7.4721365    337.96635   0.02697688  0.027434891            2 
 1045000    1.0856055   -7.4665356    338.66027  0.027006401  0.027426159            2 
 1046000    1.0956881   -7.5535413    337.72364  0.026905962  0.027417363            2 
 1047000    1.1075833    -7.485811    337.89189  0.026893656   0.02740842            3 
 1048000    1.0569794   -7.5178246    338.64955   0.02692824  0.027399862            1 
 1049000    1.0884129   -7.5220834    338.69723  0.026906358  0.027391343            1 
 1050000    1.0714441   -7.5178659    338.42161  0.026858858   0.02738272            1 
 1051000    1.0904934   -7.5162888    338.54658  0.026843211  0.027374025            2 
 1052000    1.0734403    -7.516293    339.20769  0.026870065  0.027365259            3 
 1053000    1.0914521    -7.470061    339.48485  0.026866481  0.027356777            1 
 1054000    1.0935479   -7.4940344    339.07752  0.026808786  0.027348097            2 
 1055000    1.0974109    -7.494075    339.35295   0.02680513  0.027339229            4 
 1056000    1.1006676   -7.5311465    339.16936  0.026765259  0.027330214            1 
 1057000    1.0713238   -7.4710159    339.74359  0.026785209  0.027321225            2 
 1058000    1.0942047    -7.510342    339.12255  0.026710976  0.027312342            2 
 1059000    1.0924115   -7.4630052    340.72061  0.026811506  0.027303592            2 
 1060000    1.0506612    -7.503826    339.71004  0.026706764  0.027294829            1 
 1061000    1.0719432   -7.4522283    341.41529  0.026815527  0.027285964            1 
 1062000    1.0884429   -7.5434775    340.31548  0.026703977   0.02727702            3 
 1063000    1.0841064   -7.4932367    342.06424  0.026815949  0.027268166            3 
 1064000    1.0708305   -7.5455818     341.4175  0.026740092  0.027259443            3 
 1065000    1.0890697   -7.4904903    342.69475  0.026814926   0.02725068            1 
 1066000    1.0912783   -7.5210104    342.35648  0.026763327  0.027242153            1 
 1067000       1.0846   -7.5182503     343.0012  0.026788597  0.027233407            1 
 1068000    1.0819807   -7.4652908    344.01185  0.026842373   0.02722485            2 
 1069000    1.0918556   -7.4722222    343.63652  0.026788005  0.027216431            1 
 1070000    1.0612712   -7.4554755    344.66106  0.026842762  0.027208196            3 
 1071000    1.0544636   -7.5126622    343.96877  0.026763832  0.027199914            2 
 1072000    1.0954576   -7.5084389    344.55596  0.026784512  0.027191651            2 
 1073000    1.0865658    -7.493953    344.63737  0.026765872  0.027183391            3 
 1074000    1.0896045   -7.4903022    346.12697  0.026856531  0.027175086            3 
 1075000    1.0901557   -7.4803706    345.70611  0.026798924    0.0271668            5 
 1076000    1.1063188   -7.5071813    345.37076  0.026748045  0.027158711            1 
 1077000    1.0853155   -7.4455993    345.91271  0.026765143  0.027150451            2 
 1078000    1.0898607   -7.5350108    345.98817  0.026746148  0.027142255            1 
 1079000    1.0648011    -7.524426    345.52682  0.026685729  0.027133992            2 
 1080000    1.0777877   -7.5234454    346.77656  0.026757451  0.027125586            1 
 1081000    1.0701219   -7.5547756    344.92499  0.026589962  0.027117265            1 
 1082000    1.0948467    -7.549171    346.33248  0.026673789  0.027108955            4 
 1083000      1.10436   -7.5174776    346.78536  0.026684008    0.0271006            2 
 1084000    1.0716463   -7.4626415    348.10004  0.026760458  0.027092427            1 
 1085000     1.064136   -7.5196579    348.23106  0.026745857  0.027084351            2 
 1086000    1.0776854   -7.5521986    348.03867  0.026706466  0.027076121            2 
 1087000    1.0796178   -7.4996092    347.98184  0.026677541   0.02706797            4 
 1088000    1.0722203   -7.4967064    348.34189  0.026680598  0.027059798            1 
 1089000    1.0717301   -7.4931112    348.46602  0.026665597  0.027051448            2 
 1090000    1.0742314   -7.5042153    349.26265  0.026702037  0.027043377            3 
 1091000    1.0599064   -7.4799897    348.85456  0.026646392   0.02703507            1 
 1092000    1.0589761   -7.4862437    350.24323  0.026727963   0.02702681            2 
 1093000    1.0965821   -7.5372698    349.21209  0.026624892  0.027018667            1 
 1094000    1.0909073   -7.4997141    349.97627  0.026658765   0.02701058            1 
 1095000    1.0928392   -7.4538352    350.25368  0.026655531  0.027002562            2 
 1096000    1.0796443   -7.4902909     350.1674   0.02662465  0.026994513            1 
 1097000    1.0857534   -7.5053798    351.43623  0.026696767  0.026986621            1 
 1098000    1.0875941   -7.5164525    351.04518  0.026642774  0.026978688            3 
 1099000    1.0573735   -7.4963156    351.68912  0.026667359  0.026970897            3 
 1100000    1.0450082   -7.5019914    351.82089  0.026653098  0.026963097            2 
 1101000    1.0666738   -7.5510752    351.19049  0.026581175  0.026955283            1 
 1102000    1.0786435    -7.510855    352.51349    0.0266571  0.026947342            1 
 1103000    1.0940351   -7.4981897    353.64571  0.026718473  0.026939626            1 
 1104000    1.0881446   -7.4688927    353.09114  0.026652411  0.026931914            3 
 1105000    1.0896341   -7.5168644    354.00869  0.026697488  0.026924224            1 
 1106000    1.0986862   -7.5234639     353.2009  0.026612485  0.026916339            2 
 1107000    1.0997437   -7.5159524    353.36352  0.026600687    0.0269084            1 
 1108000    1.0628028   -7.5236929    353.71421  0.026603054  0.026900646            2 
 1109000    1.0874831   -7.5171467    353.16215  0.026537583  0.026892914            2 
 1110000    1.0963204   -7.5269708    353.68226  0.026552723  0.026884983            2 
 1111000    1.0879079    -7.467484    354.96381  0.026624948  0.026877058            2 
 1112000    1.0639324    -7.543421    353.21171  0.026469702  0.026869158            3 
 1113000    1.0488008   -7.5495791    353.50642  0.026467986  0.026861091            2 
 1114000    1.0504347   -7.5218537    353.90031  0.026473692   0.02685311            1 
 1115000    1.0976511   -7.5515437    355.44086  0.026565086  0.026845147            1 
 1116000     1.069849    -7.553789    354.26163  0.026453228   0.02683726            2 
 1117000    1.0764297   -7.5530015     355.4166  0.026515712  0.026829123            2 
 1118000    1.0834245   -7.5040661    355.67575  0.026511311  0.026821277            2 
 1119000     1.087281   -7.5150167    354.93236  0.026432258  0.026813528            2 
 1120000    1.0727485   -7.5015511    356.91257  0.026555995  0.026805691            1 
 1121000    1.0631923   -7.5388588    355.81815  0.026450948  0.026797838            2 
 1122000    1.0672138   -7.5258515    356.58932  0.026484649  0.026789923            1 
 1123000    1.0668923   -7.5218721    356.91829  0.026485477  0.026781922            3 
 1124000    1.0824354   -7.5131667    356.75008  0.026449442  0.026773862            1 
 1125000    1.0696415   -7.5176162    357.75923  0.026500683  0.026765832            1 
 1126000    1.0677046   -7.5167632     357.8226  0.026481838  0.026757858            1 
 1127000    1.0679738   -7.5267147    357.51661  0.026435715   0.02674987            2 
 1128000    1.1001119   -7.5392376    357.69592  0.026425526  0.026741894            1 
 1129000    1.0772793   -7.5494596    358.66833  0.026473895  0.026733992            1 
 1130000    1.0836246   -7.5235212    358.96083  0.026472037  0.026726034            2 
 1131000    1.0817837   -7.4885233    359.49839   0.02648824   0.02671832            3 
 1132000    1.0885235   -7.5694393    357.08692  0.026287318  0.026710532            2 
 1133000    1.0723073    -7.530434    358.14372  0.026341845  0.026702479            2 
 1134000     1.092353   -7.5078449    359.86839  0.026445355  0.026694618            1 
 1135000    1.0592289   -7.5285836    359.42004  0.026389137  0.026686727            2 
 1136000    1.0983714   -7.5487541    360.03491  0.026411012  0.026678827            2 
 1137000    1.0851854   -7.5427043    359.72168  0.026364826  0.026670978            2 
 1138000    1.0756798   -7.5309252    360.86444   0.02642534  0.026663182            2 
 1139000    1.0662024   -7.5222751    360.03688  0.026341592  0.026655542            2 
 1140000     1.045543    -7.509983    359.92558  0.026310349  0.026647906            1 
 1141000    1.0792592   -7.5063501    360.88162  0.026357115  0.026640252            1 
 1142000    1.0633851     -7.51991    361.16557  0.026354755  0.026632411            3 
 1143000     1.055135   -7.5216251    362.02585  0.026394419   0.02662467            1 
 1144000     1.051932   -7.5683433    361.51465  0.026334109  0.026616918            5 
 1145000    1.0368404    -7.512024    361.72765  0.026326612  0.026609104            2 
 1146000    1.0559865   -7.5670132    361.53759  0.026289819  0.026601272            1 
 1147000    1.0657099   -7.5535519    361.91932  0.026294633  0.026593417            1 
 1148000    1.0807018   -7.5780295    362.11706  0.026286082  0.026585694            3 
 1149000    1.0725003   -7.5822758    362.40182  0.026283857  0.026577985            1 
 1150000       1.0729   -7.5485398    363.09365  0.026311134  0.026570333            3 
 1151000    1.0630902   -7.5271658    364.87209  0.026417035  0.026562662            2 
 1152000    1.0854963   -7.5470193    364.13415  0.026340723  0.026555226            1 
 1153000    1.0538924   -7.5202599    364.57286  0.026349585  0.026547839            1 
 1154000    1.0915626   -7.5592445    363.65742  0.026260646  0.026540284            1 
 1155000    1.0721994   -7.5261281    364.05038  0.026266261  0.026532727            3 
 1156000    1.0717055   -7.4967582    365.10947  0.026319887  0.026525109            1 
 1157000    1.0783105   -7.5296115    364.98067  0.026287862  0.026517503            4 
 1158000    1.0801968   -7.5526233    363.87841  0.026185838  0.026509915            2 
 1159000    1.0664778   -7.5439887    365.06358   0.02624846  0.026502205       -1e+20 
 1160000      1.06845   -7.5345915    363.65086  0.026124343  0.026494393            4 
 1161000    1.0575372   -7.5380581    365.08953  0.026205105  0.026486591            1 
 1162000    1.0665152   -7.5164893    366.63354  0.026293283  0.026479031            1 
 1163000     1.034354   -7.5523087    365.94137  0.026221078  0.026471354            5 
 1164000    1.0763808   -7.5284562    365.70733  0.026181796  0.026463458            4 
 1165000     1.057618   -7.5883761    364.29464  0.026058272  0.026455659            2 
 1166000      1.07547   -7.5144335    366.57222  0.026198701  0.026447745            3 
 1167000    1.0743497   -7.5380684     365.9883  0.026134554  0.026439982            4 
 1168000    1.0442781   -7.5498204    366.16717  0.026124941   0.02643228            2 
 1169000    1.0704837   -7.5537092    367.08558  0.026168062  0.026424364            1 
 1170000    1.0729079    -7.548883    366.00467  0.026068708  0.026416445            1 
 1171000    1.0842954   -7.6079483    365.42604  0.026005269  0.026408545            3 
 1172000    1.0617282   -7.5715203    367.38062  0.026122058  0.026400558            4 
 1173000    1.0676812   -7.5170948    367.34137     0.026097  0.026392669            2 
 1174000    1.0426418   -7.5484606    368.36242  0.026147247  0.026384887            2 
 1175000    1.0502052   -7.5724286    367.59088  0.026070275  0.026376964            1 
 1176000    1.0721488   -7.5798679    367.74108   0.02605875  0.026369149            2 
 1177000     1.066694   -7.5613528    367.09804  0.025991082  0.026361266            3 
 1178000    1.0628202   -7.5353641    367.79156  0.026018079  0.026353261            2 
 1179000    1.0490796   -7.5237808    368.58134  0.026051833  0.026345469            1 
 1180000    1.0833004   -7.5332954    369.37225  0.026085611  0.026337695            3 
 1181000    1.0654049   -7.5358799    370.16816  0.026119684  0.026330155            2 
 1182000    1.0587566   -7.5454425    369.53774   0.02605314  0.026322545            3 
 1183000    1.0349243   -7.5272769    369.50173   0.02602858  0.026314727            1 
 1184000    1.0677791   -7.5532908    370.38059  0.026068453  0.026307089            3 
 1185000    1.0702455   -7.4875516    371.09198  0.026096482  0.026299551            2 
 1186000    1.0666942   -7.5695354     369.8522  0.025987367  0.026292079            1 
 1187000    1.0642794    -7.545005    371.27058   0.02606505  0.026284629            2 
 1188000    1.0542542   -7.5918304    370.50128  0.025989147  0.026277217            2 
 1189000    1.0582889   -7.5387178    372.20962  0.026087021  0.026269775            1 
 1190000    1.0611791   -7.5377932    372.96296  0.026117854  0.026262399            3 
 1191000    1.0610492   -7.5622263    372.72353  0.026079173  0.026254927            2 
 1192000    1.0490026   -7.5665139    371.45395  0.025968537  0.026247347            3 
 1193000    1.0592161   -7.5285344    373.04676   0.02605803  0.026239813            1 
 1194000    1.0574968   -7.5413247    372.23059  0.025979243  0.026232344            3 
 1195000    1.0771641   -7.5268921    373.39232  0.026038516  0.026224774            1 
 1196000    1.0497626   -7.5655626    372.08346  0.025925548  0.026217202            4 
 1197000    1.0543815   -7.5257864    372.94104  0.025963592  0.026209636            4 
 1198000    1.0541241   -7.5209073    374.61524  0.026058378  0.026202067            4 
 1199000    1.0518928   -7.5857797    373.20894  0.025938903  0.026194636            2 
 1200000     1.063411   -7.5948271    373.51915   0.02593883  0.026186914            2 
 1201000    1.0786088   -7.5687018    373.90616  0.025944086  0.026179035            2 
 1202000      1.06738   -7.5651881    374.21624  0.025943999  0.026171471            3 
 1203000    1.0529547   -7.5279559      374.733  0.025958229  0.026164016            3 
 1204000    1.0664314   -7.5752718    374.28894  0.025905935  0.026156521            1 
 1205000    1.0581614   -7.5359543    376.14275  0.026012638  0.026148983            2 
 1206000    1.0345581    -7.565406    374.42232  0.025872189  0.026141552            3 
 1207000    1.0620516    -7.560712    375.25695  0.025908378   0.02613398            2 
 1208000      1.03392   -7.5539692    375.46199  0.025901076  0.026126225            4 
 1209000    1.0591665   -7.5553462    374.75579  0.025830975  0.026118563            2 
 1210000    1.1011577    -7.593869    374.52365   0.02579364  0.026110904            3 
 1211000    1.0716209   -7.5597694    376.34255  0.025897506  0.026103216            2 
 1212000    1.0430055   -7.5614967    374.63866  0.025758984  0.026095441            2 
 1213000    1.0393811   -7.5459917    375.62592  0.025805573  0.026087591            3 
 1214000    1.0522629   -7.5725674    374.63068  0.025715999  0.026079648            2 
 1215000     1.043501    -7.591121     375.1998  0.025733869  0.026071548            1 
 1216000    1.0531279   -7.5693865    375.41367  0.025727362  0.026063323            2 
 1217000    1.0635426   -7.5676795    374.98298  0.025676731  0.026055102            1 
 1218000    1.0506669   -7.5738565    376.54712  0.025762666  0.026046929            2 
 1219000    1.0508309   -7.5570783    375.79365  0.025690022  0.026038827            1 
 1220000    1.0717531   -7.5647109    376.51901  0.025718512  0.026030948            1 
 1221000    1.0583979   -7.5765177    375.47559  0.025626235  0.026023015            2 
 1222000    1.0824283   -7.5405927    376.77614  0.025693954  0.026015001            2 
 1223000     1.061899   -7.5611092    376.34293  0.025643427  0.026007038            1 
 1224000    1.0839154   -7.5535703    376.98638  0.025666284  0.025998967            2 
 1225000    1.0621642   -7.5865964    376.55585  0.025616044  0.025990717            2 
 1226000    1.0709339   -7.6041522    376.70616  0.025605367  0.025982442            1 
 1227000    1.0640465   -7.5167024    378.08029  0.025677825  0.025974342            3 
 1228000    1.0496478   -7.5799498    376.93783  0.025579386  0.025966271            2 
 1229000    1.0759581   -7.5440871    378.63473  0.025673632  0.025958249            3 
 1230000    1.0565593   -7.6054118    378.38241  0.025635664  0.025949994            1 
 1231000    1.0663166   -7.5862557    378.58238  0.025628376  0.025941834            1 
 1232000    1.0598542   -7.5565506    378.11001  0.025575623  0.025933721            2 
 1233000     1.054132   -7.5743357    378.05088  0.025550884  0.025925555            4 
 1234000    1.0535198   -7.6030897    378.56238   0.02556472  0.025917258            1 
 1235000    1.0449006   -7.5576798     380.2344  0.025656842  0.025909033            4 
 1236000    1.0778397   -7.5743236    377.95084  0.025482122  0.025900838            1 
 1237000    1.0615054   -7.5843074    379.29643  0.025552171  0.025892625            1 
 1238000    1.0521534   -7.5817298    379.19834  0.025524929  0.025884402            2 
 1239000    1.0411431   -7.5612529    379.34018  0.025513867  0.025876179            1 
 1240000    1.0631669   -7.5568508     380.2355  0.025553461  0.025867906            2 
 1241000    1.0605704      -7.5927    379.48891  0.025482736  0.025859595            1 
 1242000    1.0656598   -7.5855991    379.58453  0.025468634  0.025851336            1 
 1243000    1.0325213   -7.6026685    379.97445  0.025474286  0.025843053            4 
 1244000     1.050781   -7.5532198    381.23484   0.02553824  0.025834934            2 
 1245000    1.0817932   -7.5562336    381.10043   0.02550873  0.025826855            2 
 1246000    1.0475653   -7.5605999    381.09019  0.025487573  0.025818841            3 
 1247000    1.0561747   -7.6167469    382.32546  0.025549683  0.025811041            3 
 1248000    1.0413327   -7.5407134    381.91512  0.025501811   0.02580323            1 
 1249000    1.0816574   -7.5981585     382.0716  0.025491834  0.025795198            2 
 1250000    1.0563069   -7.5718361     381.8138  0.025454254  0.025787208            1 
 1251000    1.0409024   -7.5484656    382.82082  0.025500987  0.025779415            1 
 1252000    1.0494375   -7.5407316    385.03131  0.025627749  0.025771631            2 
 1253000    1.0488719   -7.5437448    385.28864  0.025624411  0.025764105            4 
 1254000    1.0359972   -7.6325523    383.90951  0.025512328  0.025756555            2 
 1255000    1.0587067    -7.592372    384.95732  0.025561575  0.025748946            5 
 1256000    1.0492171   -7.5622244    384.51216  0.025511688  0.025741531            1 
 1257000    1.0342428   -7.5819308     385.8708  0.025581463  0.025734191            1 
 1258000    1.0622435   -7.5788675    385.51589  0.025537619  0.025726827            2 
 1259000    1.0464733   -7.5642069    386.56034  0.025586467  0.025719536            2 
 1260000    1.0439749   -7.5456489    385.66016  0.025506625  0.025712126            2 
 1261000     1.038541   -7.5433129    388.60019  0.025680689  0.025704817            3 
 1262000    1.0271485   -7.5777395    385.62244  0.025463711  0.025697421            2 
 1263000    1.0578016   -7.5829998    386.85605  0.025524944  0.025690007            2 
 1264000    1.0549328   -7.5812911    387.12761  0.025522654  0.025682692            7 
 1265000     1.061295   -7.5363419    387.61781   0.02553477  0.025675372            1 
 1266000    1.0142561   -7.5708099    387.45279  0.025503738   0.02566823            2 
 1267000    1.0459966   -7.5696175    388.55309  0.025555978  0.025661022            2 
 1268000    1.0466375   -7.5960353    386.64622  0.025410503  0.025653709            1 
 1269000    1.0612427   -7.5659396    388.43097  0.025507681  0.025646457            1 
 1270000    1.0586323   -7.5531098    390.04329  0.025593392   0.02563913            2 
 1271000    1.0455466   -7.5869093    387.63044  0.025415056  0.025631879            3 
 1272000    1.0442299   -7.5776885    389.49571  0.025517277  0.025624482            2 
 1273000    1.0347633   -7.5489435    389.19703  0.025477679  0.025617164            2 
 1274000    1.0465007   -7.5914316    389.03415  0.025447027  0.025609847            1 
 1275000    1.0496059   -7.5678662    389.03206  0.025426932  0.025602717            3 
 1276000    1.0435188   -7.5920947    389.99608  0.025469963  0.025595277            2 
 1277000     1.059248   -7.5384673    389.14088   0.02539421  0.025588018            2 
 1278000    1.0517779   -7.5859876    388.81062  0.025352805  0.025580702            3 
 1279000    1.0391511   -7.5748234    388.91284  0.025339643  0.025573242            3 
 1280000    1.0290777   -7.6101978    388.65936  0.025303344  0.025565703            2 
 1281000    1.0314555   -7.5983883    389.65493  0.025348356   0.02555816            1 
 1282000    1.0459424   -7.5901848    388.88198   0.02527834  0.025550424            2 
 1283000    1.0562919    -7.597208    390.27537   0.02534914  0.025542852            4 
 1284000    1.0376752   -7.5680443    391.30926  0.025396499  0.025535348            1 
 1285000    1.0379826   -7.5560668    391.27689  0.025374636  0.025527727            3 
 1286000    1.0590771   -7.6083062    390.61465  0.025311991  0.025520199            3 
 1287000    1.0301136   -7.5364466    392.16753  0.025392873  0.025512711            2 
 1288000     1.048196   -7.5819535    391.88593  0.025354938  0.025505239            4 
 1289000    1.0381196   -7.5947494      391.537   0.02531271  0.025497662            3 
 1290000    1.0597553   -7.5651659    391.95768  0.025320264  0.025490307            2 
 1291000     1.056641   -7.5720123    391.54792  0.025274201  0.025482929            3 
 1292000    1.0389634    -7.562365    392.36238  0.025307171  0.025475539            2 
 1293000    1.0577201   -7.5253683    392.55367  0.025299927  0.025468288            1 
 1294000    1.0391817   -7.5636649    392.81722  0.025297348  0.025461055            3 
 1295000    1.0728614   -7.5965126    392.38938  0.025250282  0.025453688            2 
 1296000    1.0539158   -7.5790523    393.86919  0.025325951  0.025446375            2 
 1297000    1.0555716   -7.5700661    392.65769  0.025228585  0.025438932            1 
 1298000    1.0635518   -7.5786352    394.06342  0.025299398  0.025431592            3 
 1299000    1.0249907   -7.6354975    393.81652  0.025264083  0.025424368            1 
 1300000     1.042767   -7.5528536    392.56481  0.025164411  0.025416973            4 
 1301000    1.0465581   -7.5494403    395.42939  0.025328554   0.02540972            3 
 1302000    1.0521669   -7.6051211    393.65581  0.025195584  0.025402551            2 
 1303000    1.0383631   -7.5846551    395.36441  0.025285521  0.025395228            1 
 1304000    1.0322139   -7.6063695    394.80662  0.025230485   0.02538804            1 
 1305000    1.0706564   -7.5623811    395.88097  0.025279755  0.025380793            2 
 1306000    1.0695779   -7.5942245    394.17632  0.025151629  0.025373581            2 
 1307000    1.0299411   -7.6207902     394.9594  0.025182313  0.025366348            1 
 1308000    1.0547318   -7.5723156    395.21276  0.025179203  0.025359026            4 
 1309000    1.0156716   -7.5973379    395.88251  0.025202604  0.025351821            2 
 1310000    1.0366606   -7.5902054     396.9531  0.025251469  0.025344456            3 
 1311000    1.0515382   -7.5863254    395.51772  0.025140969  0.025337243            2 
 1312000    1.0302761   -7.6294023    396.12333  0.025160272   0.02532989            1 
 1313000    1.0367829   -7.6171171     394.8703  0.025061583   0.02532236            2 
 1314000    1.0321059   -7.6077946    397.49378   0.02520889  0.025314964            2 
 1315000    1.0577134   -7.6410296    395.91868  0.025089904  0.025307549            4 
 1316000     1.027674   -7.5854451    396.78546  0.025125726  0.025300243            1 
 1317000    1.0342496   -7.5811179    397.39397  0.025145151  0.025292872            1 
 1318000    1.0176561   -7.6315524    395.00882  0.024975267  0.025285381            2 
 1319000    1.0495515   -7.6220057    397.25318  0.025098129  0.025277909            2 
 1320000    1.0472243   -7.6057763    396.56605  0.025035735  0.025270396            2 
 1321000    1.0458821      -7.5874     397.7971  0.025094442  0.025263042            2 
 1322000    1.0405684    -7.604009    398.90998  0.025145612  0.025255911            2 
 1323000    1.0424491   -7.6049544    398.49556  0.025100502  0.025248906            1 
 1324000    1.0301532    -7.587248    398.38176  0.025074381  0.025241723            2 
 1325000    1.0175684   -7.5961418     399.7563  0.025141906  0.025234616            2 
 1326000    1.0288617   -7.6004257    400.07348  0.025142878  0.025227434            2 
 1327000     1.046534   -7.5941633    399.34981  0.025078486  0.025220175            5 
 1328000    1.0517505   -7.5918296    399.31021  0.025057116  0.025212896            1 
 1329000    1.0345193    -7.612075    400.22519  0.025095635  0.025205672            2 
 1330000    1.0270393   -7.5902638    399.95341  0.025059737  0.025198402            1 
 1331000    1.0578596   -7.5527262    401.27337  0.025123552  0.025191083            4 
 1332000    1.0385469   -7.6169504     401.1747  0.025098517  0.025183829            6 
 1333000    1.0181784   -7.6239465    400.27101  0.025023194  0.025176633            1 
 1334000     1.054658   -7.6201176    400.48544  0.025017831  0.025169307            1 
 1335000    1.0557553   -7.6449753    399.74382  0.024952798  0.025162032            2 
 1336000    1.0355863   -7.6226169    400.28498  0.024967876  0.025154608            2 
 1337000    1.0215136   -7.5792181    401.56959  0.025029269  0.025147163            1 
 1338000    1.0540577   -7.6414344    400.35997  0.024935225  0.025139791            1 
 1339000    1.0438269   -7.6125909    401.84775  0.025009195  0.025132584            1 
 1340000    1.0325965   -7.6536421    401.08882  0.024943335  0.025125277            2 
 1341000    1.0532186    -7.595276    400.66377   0.02489832   0.02511797            2 
 1342000    1.0399279   -7.6282787    401.58298  0.024936847  0.025110606            2 
 1343000    1.0342994   -7.5934131    402.62108  0.024982693   0.02510328            1 
 1344000    1.0473505   -7.5945294    402.97614   0.02498612  0.025095992            1 
 1345000     1.030261   -7.5702954    403.47437  0.024998412  0.025088746            3 
 1346000    1.0462922   -7.6172425    401.97465  0.024886989  0.025081588            1 
 1347000    1.0301355   -7.6287297    402.18482  0.024881516  0.025074285            2 
 1348000    1.0040953    -7.607612    402.73638  0.024897155  0.025067039            1 
 1349000    1.0321922   -7.6353094    403.02356  0.024896439  0.025059732            2 
 1350000    1.0339596   -7.5828543    403.12751  0.024884414  0.025052394            1 
 1351000    1.0254747   -7.5647185    403.98027  0.024918596  0.025045169            2 
 1352000    1.0654966   -7.6070801    403.82541   0.02489062   0.02503787            5 
 1353000    1.0550174   -7.5600703    404.79011   0.02493164  0.025030554            5 
 1354000    1.0254554   -7.6407905    404.32278  0.024884464  0.025023306            1 
 1355000    1.0415257    -7.651934    405.36878  0.024930429  0.025016049            1 
 1356000    1.0373136   -7.6128042    404.72678   0.02487259  0.025008959            2 
 1357000    1.0304414   -7.6022737     405.7021  0.024914155  0.025001841            2 
 1358000    1.0381129   -7.6078347    406.54869  0.024947759  0.024994839            1 
 1359000    1.0462816   -7.6349097    405.75148  0.024880518  0.024987773            1 
 1360000    1.0532144   -7.6211838    405.22741  0.024830111  0.024980628            1 
 1361000    1.0312242    -7.568888    407.11454  0.024927415  0.024973531            3 
 1362000      1.05025    -7.585827    406.77129  0.024888111  0.024966554            2 
 1363000    1.0435943   -7.6361621     407.1699  0.024894222  0.024959482            1 
 1364000    1.0569496   -7.6580842     406.4111  0.024829613  0.024952258            3 
 1365000    1.0196688   -7.6494275    406.06159  0.024790085  0.024945004            3 
 1366000    1.0335618   -7.6242912    406.97251  0.024827508   0.02493794            2 
 1367000     1.032836   -7.6095163     407.7747  0.024858248  0.024930957            2 
 1368000     1.042309   -7.6140895    407.29228   0.02481069  0.024923932            1 
 1369000    1.0522939   -7.6097082    408.16144  0.024845473  0.024917079            1 
 1370000    1.0447703   -7.6235053       408.32  0.024836983  0.024910062            2 
 1371000    1.0414152   -7.5919609    408.80385  0.024848277  0.024903174            3 
 1372000    1.0511288     -7.59264    410.11591  0.024909858  0.024896304            1 
 1373000    1.0274076   -7.6509536    407.34214  0.024723364  0.024889285            2 
 1374000    1.0429247   -7.6135594    409.18562  0.024817178  0.024882155            1 
 1375000    1.0440201   -7.6211006    409.23073  0.024801862  0.024875137            2 
 1376000     1.045551   -7.6676369    409.15893   0.02477949   0.02486812            5 
 1377000    1.0258879   -7.6151094    409.43518  0.024778212  0.024861154            2 
 1378000    1.0493202   -7.6739148    408.21975  0.024686729  0.024854035            2 
 1379000    1.0174281   -7.6266194    409.64871   0.02475518   0.02484704            2 
 1380000    1.0373733   -7.6701179    409.91663   0.02475342  0.024840024            8 
 1381000    1.0379159   -7.6050035    409.67972  0.024721199  0.024833064            3 
 1382000    1.0122424   -7.6134659    410.67503  0.024763328  0.024826204            3 
 1383000    1.0411705   -7.6222402    411.39079  0.024788551  0.024819284            3 
 1384000    1.0032236   -7.5967406    411.76483  0.024793162  0.024812291            3 
 1385000    1.0376907   -7.6430432    412.10731  0.024795867  0.024805357            2 
 1386000    1.0283394   -7.6310746    411.36249  0.024733195  0.024798345            2 
 1387000    1.0208291   -7.6379256    411.49912  0.024723571  0.024791447            2 
 1388000    1.0323349   -7.6415965    411.53087  0.024707665  0.024784508            2 
 1389000    1.0253418   -7.6309137    411.85872  0.024709546  0.024777539            2 
 1390000    1.0223276   -7.6582792    411.04748  0.024643134  0.024770605            1 
 1391000    1.0335675   -7.6240158    413.92006  0.024797512  0.024763616            1 
 1392000    1.0063733   -7.6315369     412.1776  0.024675383  0.024756632            4 
 1393000    1.0124198   -7.5705934    413.79321   0.02475432  0.024749597            1 
 1394000    1.0401679   -7.6195309    412.89207  0.024682692  0.024742676            2 
 1395000    1.0324698   -7.6443522    412.78331  0.024658501  0.024735644            2 
 1396000    1.0457161   -7.6506448    413.06316  0.024657543  0.024728559            1 
 1397000    1.0015413    -7.601558    412.72825  0.024619915  0.024721498            3 
 1398000    1.0086335   -7.6169951    412.64343  0.024597248  0.024714596            1 
 1399000    1.0321276   -7.6117734     413.1531  0.024610025  0.024707583            1 
 1400000    1.0394635   -7.6054587    415.16812  0.024712388  0.024700554            1 
 1401000    1.0182276   -7.6143087      414.986  0.024683916  0.024693625            7 
 1402000    1.0447597   -7.6389553    414.28822  0.024624835  0.024686727            6 
 1403000    1.0212002   -7.5958111    414.62703  0.024627407  0.024679855            5 
 1404000     1.007771   -7.6199189    414.74871  0.024617089  0.024672851            2 
 1405000    1.0219534   -7.6327123    414.18309  0.024566019  0.024665856            2 
 1406000    1.0183503   -7.6242522    415.93489  0.024652376  0.024658828            2 
 1407000    1.0230656   -7.6335634    415.21679  0.024592323  0.024651957            3 
 1408000     1.019946   -7.6567555    415.42903  0.024587419  0.024645033            4 
 1409000    1.0121919   -7.6023102    416.62303  0.024640586  0.024638197            3 
 1410000    1.0352088   -7.6191345      416.309  0.024604551  0.024631395            2 
 1411000    1.0168883   -7.6463209    417.66081  0.024666951  0.024624558            1 
 1412000    1.0299446   -7.6654753     416.5576  0.024584372  0.024617647            1 
 1413000    1.0127846   -7.6471748    416.65226  0.024572556  0.024610709            1 
 1414000    1.0030952   -7.6178434    417.48836  0.024604453  0.024603817            1 
 1415000    1.0393949   -7.6212461    417.86972  0.024609524  0.024596997            1 
 1416000    1.0152869   -7.6718411     416.6666  0.024521339  0.024590146            5 
 1417000    1.0235666   -7.6529048     416.8466   0.02451462  0.024583384            1 
 1418000    1.0192073   -7.6516483    418.32039  0.024583944  0.024576624            2 
 1419000    1.0394405   -7.6232981    417.34876  0.024509558  0.024569957            2 
 1420000    1.0179822   -7.6353779     419.1345  0.024597095  0.024563268            1 
 1421000    1.0319719   -7.6247934    419.89344  0.024624292   0.02455661            1 
 1422000    1.0281007   -7.6202515    419.48346   0.02458295   0.02454986            2 
 1423000    1.0420695   -7.6337957    419.21282  0.024549826   0.02454325            7 
 1424000    1.0211248   -7.6239578    419.75633  0.024564392  0.024536605            4 
 1425000    1.0304816   -7.6366578    419.82186  0.024550986  0.024529969            1 
 1426000     1.045465   -7.6169813    420.46769   0.02457151  0.024523452            2 
 1427000    1.0273921   -7.6629706    419.74725   0.02451222  0.024516828            1 
 1428000    1.0250877   -7.6481117    420.25419  0.024524638  0.024510115            3 
 1429000   0.98715964   -7.6392446    422.17586  0.024619539  0.024503515            3 
 1430000    1.0416804   -7.6434305    421.23704  0.024547613  0.024496908            3 
 1431000    1.0100628   -7.6585221    421.02058  0.024517854   0.02449039            4 
 1432000     1.016745   -7.6502856    421.76065    0.0245438  0.024483796            2 
 1433000    1.0190266   -7.6525488    420.18774  0.024435203  0.024477202            1 
 1434000     1.050064   -7.6439252    420.06047  0.024410766  0.024470628            2 
 1435000    1.0461376   -7.6520939    422.01385  0.024507192  0.024463957            5 
 1436000    1.0178291   -7.6390233    422.42691  0.024514096  0.024457501            2 
 1437000    1.0011932   -7.6399352    422.88805  0.024523779  0.024451189            2 
 1438000   0.99910263   -7.6882282    421.43139   0.02442231  0.024444865            2 
 1439000    1.0307175   -7.6050447    424.59503  0.024588547  0.024438471            2 
 1440000    1.0232815   -7.6748897    422.67717  0.024460484  0.024432018            2 
 1441000    1.0280841   -7.6393306    423.72702  0.024504223  0.024425495            5 
 1442000    1.0222459   -7.6845319     422.3085  0.024405253  0.024418961            1 
 1443000    1.0072209   -7.6347074    423.28141  0.024444526  0.024412351            1 
 1444000    1.0356588   -7.6382192    424.66656  0.024507534  0.024405845            2 
 1445000    1.0025798   -7.6354436    422.82137  0.024384162  0.024399256            2 
 1446000    1.0039041   -7.6579264     423.6642  0.024415872  0.024392696            2 
 1447000    1.0205023   -7.6394212    424.96685  0.024474018  0.024386143            2 
 1448000    1.0095484   -7.6730558    424.75559  0.024444958   0.02437965            1 
 1449000    1.0117927   -7.6567298    424.63366  0.024421076   0.02437307            1 
 1450000    1.0349749   -7.6480032    424.00623  0.024368174  0.024366646            2 
 1451000    1.0250239   -7.6643284    425.41796  0.024432458   0.02436018            2 
 1452000    1.0374071    -7.586756    426.38919  0.024471372  0.024353757            2 
 1453000     1.004921   -7.6610196    425.53395   0.02440548  0.024347391            2 
 1454000    1.0325656   -7.6631996    425.12918  0.024365496  0.024340925            1 
 1455000   0.99643274   -7.6744379    426.88573  0.024449354  0.024334561            2 
 1456000    1.0303339   -7.6535199    427.19447  0.024450233  0.024328221            2 
 1457000    1.0139371   -7.6280609    427.62222  0.024457917   0.02432195            2 
 1458000    1.0236156   -7.6264155    427.11748  0.024412293  0.024315651            2 
 1459000    1.0444861   -7.7184649    426.57531  0.024364594   0.02430918            1 
 1460000    1.0146862   -7.6625075    427.93188  0.024425336  0.024302784            3 
 1461000    1.0384674   -7.6820598    427.17989  0.024365725  0.024296476            5 
 1462000    1.0209448   -7.6357467    428.46338  0.024422217  0.024290153            1 
 1463000    1.0177884   -7.6956389    427.64619  0.024358976  0.024283655            2 
 1464000    1.0256902     -7.65893    428.27402  0.024378075  0.024277259            3 
 1465000    1.0152463   -7.6849007    427.71578   0.02432968   0.02427086            2 
 1466000    1.0191046   -7.6852824    427.81712  0.024318845  0.024264374            3 
 1467000   0.99439921   -7.7324793    427.31484  0.024273735  0.024257924            3 
 1468000    1.0084513   -7.6775064    427.75171     0.024282  0.024251499            6 
 1469000    1.0150155   -7.6544198    429.73573   0.02437802  0.024245101            3 
 1470000    1.0232883   -7.6430813    428.77663  0.024307065  0.024238821            4 
 1471000    1.0214399   -7.6404803    428.38028  0.024268088  0.024232546            3 
 1472000    1.0058528   -7.6697663    430.57705  0.024375965  0.024226196            2 
 1473000    1.0083259   -7.6330081    430.52729  0.024356602  0.024219899            6 
 1474000     1.013501   -7.6456267    431.31283  0.024384488  0.024213703            1 
 1475000    1.0249508   -7.6790593    429.62651  0.024272684  0.024207446            1 
 1476000    1.0047464   -7.6592889    430.30648   0.02429463  0.024201348            1 
 1477000    1.0144649   -7.6433036    431.43872  0.024342062  0.024195249            2 
 1478000    1.0172624   -7.6340153    432.95007  0.024410807  0.024189209            1 
 1479000    1.0121641   -7.6963414    431.58203   0.02431722  0.024183279            2 
 1480000    1.0242045   -7.6647079    432.24001  0.024337839  0.024177187            2 
 1481000   0.99246085   -7.5930247     433.3632  0.024384605   0.02417118            1 
 1482000    1.0020391    -7.648797    432.24504  0.024305276  0.024165261            1 
 1483000    1.0279819   -7.6305336    433.66108  0.024368458  0.024159297            1 
 1484000    1.0164959    -7.662424    433.17485  0.024324733  0.024153397            2 
 1485000    1.0119127   -7.6581108    434.39428  0.024376784  0.024147564            1 
 1486000    1.0185828    -7.645611    433.62377  0.024317169  0.024141614            1 
 1487000    1.0022308   -7.6622492    434.00586  0.024322229  0.024135607            1 
 1488000   0.98165852   -7.6963204    433.80363  0.024294558  0.024129529            4 
 1489000    1.0242209    -7.665141    434.32697  0.024307532  0.024123552            2 
 1490000    1.0307267   -7.6610741    434.13416  0.024280434  0.024117594            8 
 1491000    1.0027987   -7.6837718    433.80088  0.024245522  0.024111567            4 
 1492000   0.99366668    -7.679261    434.75448  0.024282534  0.024105461            2 
 1493000     1.005427   -7.6517209    434.43248  0.024248296  0.024099422            1 
 1494000    1.0071071   -7.6919321    434.37318  0.024228758  0.024093421            2 
 1495000    1.0176545   -7.6538111    434.86077  0.024239731  0.024087492            1 
 1496000    1.0200837   -7.7296576    434.49158  0.024202962  0.024081561            2 
 1497000    1.0432483   -7.6837396    436.10411  0.024276559  0.024075531            3 
 1498000     1.028316   -7.6903718    435.45825  0.024224424  0.024069643            4 
 1499000    1.0201676   -7.6660228     435.6248  0.024217523   0.02406365            2 
 1500000     1.010254   -7.6744267    435.64812  0.024202673  0.024057624            3 
 1501000    1.0139064   -7.6283839    438.03563    0.0243191  0.024051653            1 
 1502000    1.0200244   -7.6533307    437.71813  0.024285293  0.024045691            2 
 1503000   0.99604651   -7.6517374    437.89189   0.02427877  0.024039764            2 
 1504000    1.0032678    -7.647429    437.60709  0.024246847   0.02403368            2 
 1505000    1.0361841   -7.6921121    436.84988  0.024188809  0.024027839            4 
 1506000    1.0135327   -7.6399168    439.06614  0.024295382  0.024021971            2 
 1507000    1.0079537   -7.6623127    437.95857  0.024218014  0.024016105            2 
 1508000    1.0121186   -7.6539997     437.9372  0.024200773  0.024010142            2 
 1509000    1.0069571   -7.6820467     437.9885  0.024187569    0.0240042            2 
 1510000    1.0192313   -7.6984495    438.02449  0.024173537   0.02399823            2 
 1511000    1.0162969   -7.6880678    438.00555  0.024156494  0.023992302            3 
 1512000    1.0297346   -7.6795448     438.9749  0.024193943  0.023986312            2 
 1513000   0.99527299   -7.6484682    439.39934   0.02420133  0.023980412            1 
 1514000    1.0104098   -7.6526264    440.42954  0.024242049  0.023974578            2 
 1515000    1.0282647   -7.7209401     439.9108  0.024197514  0.023968698            2 
 1516000    1.0229792   -7.7073067    439.80112  0.024175523  0.023962765            1 
 1517000    1.0026445   -7.6924025    439.19398  0.024126235   0.02395683            2 
 1518000    1.0307525    -7.649648    440.31903  0.024172103  0.023950921            3 
 1519000    1.0159248   -7.6560784    438.85458  0.024075849  0.023945076            1 
 1520000    1.0133681   -7.7108099    440.04423  0.024125232  0.023939097            1 
 1521000    1.0088494   -7.6790237    440.05172  0.024109781  0.023933165            3 
 1522000   0.99042798   -7.6431522      440.722  0.024130639  0.023927291            2 
 1523000     1.009079   -7.6234317    441.38889  0.024151285  0.023921388            2 
 1524000    1.0311967   -7.6510968    441.10854  0.024120108  0.023915428            1 
 1525000    1.0309458    -7.706763    439.26477  0.024003539  0.023909472            2 
 1526000    1.0298327   -7.7100396    439.68239  0.024010615  0.023903367       -1e+20 
 1527000    1.0119701   -7.6900498    441.26381  0.024081195  0.023897307            4 
 1528000    1.0104531    -7.729001    440.52963  0.024025395  0.023891254            3 
 1529000    1.0074825    -7.691877    440.12565  0.023987664  0.023885154            1 
 1530000    1.0082579   -7.6920641    440.17907  0.023974895  0.023879062            3 
 1531000    1.0032355   -7.6610753    442.49179  0.024085118  0.023872987            1 
 1532000    1.0123685   -7.6956984    442.90937  0.024092111  0.023866977            2 
 1533000    1.0160229   -7.6704498    442.05102  0.024029736  0.023861037            2 
 1534000    1.0257883   -7.6695174     442.3719  0.024031503  0.023855132            2 
 1535000    1.0077698   -7.7144075     441.5018   0.02396861  0.023849095            3 
 1536000    1.0253969   -7.6808025    443.09832  0.024039623  0.023842991            1 
 1537000    1.0249238   -7.6781329     442.9557  0.024016249  0.023837004            1 
 1538000    1.0143225   -7.6752576    443.15029  0.024011177  0.023830995            2 
 1539000    1.0057605   -7.6673537    445.20005  0.024106565  0.023825125            1 
 1540000    1.0087648   -7.6613509     444.9967  0.024079908  0.023819342            2 
 1541000   0.99927022   -7.6506008    444.00318  0.024010555  0.023813462            1 
 1542000    1.0381386   -7.6757568    445.00037  0.024048874  0.023807513            3 
 1543000   0.98883643   -7.6324603    445.75667  0.024074134  0.023801774            4 
 1544000    1.0153865   -7.6679619    444.18329  0.023973623  0.023795869            4 
 1545000    1.0079466   -7.7006268    445.73366  0.024041729    0.0237899            2 
 1546000    1.0074227   -7.7144082    443.71122  0.023917163  0.023783965            3 
 1547000    1.0156404    -7.682245    445.49008  0.023997526  0.023778024            2 
 1548000    1.0103477   -7.6965919    444.58786  0.023933455  0.023772148            1 
 1549000   0.98958681   -7.6963607    443.52265  0.023860698  0.023766207            2 
 1550000   0.99812236   -7.6985995    445.78782  0.023967087   0.02376021            2 
 1551000   0.99951459   -7.7212988    444.92467  0.023905258   0.02375418            2 
 1552000   0.99750291   -7.6957869    445.16003  0.023902493  0.023748178            3 
 1553000   0.99816241   -7.6841606    445.59084  0.023910219  0.023742255            2 
 1554000    1.0099692   -7.6893178    445.28482  0.023878422  0.023736292            2 
 1555000   0.98984966   -7.6675424    446.03829  0.023903446  0.023730292            2 
 1556000    0.9993604   -7.6764576    447.17337  0.023948874  0.023724281            4 
 1557000    1.0025707   -7.6753346    447.12062  0.023930669  0.023718385            1 
 1558000    1.0433683    -7.717477    445.79829  0.023844581  0.023712367            4 
 1559000   0.99565697   -7.6782665    447.22084  0.023905326  0.023706384            2 
 1560000    1.0116604    -7.664296    447.39594  0.023899356   0.02370047            2 
 1561000    1.0154262   -7.7020506    446.55189  0.023838986  0.023694463            2 
 1562000   0.98853719   -7.7042834    447.23602  0.023860223  0.023688479            2 
 1563000    1.0036365   -7.7178138    447.08872  0.023837104  0.023682477            3 
 1564000    1.0118986   -7.7078577    446.49358  0.023790152  0.023676463            2 
 1565000    0.9914931   -7.7124013    448.71826  0.023893411  0.023670322            2 
 1566000   0.99383577   -7.7014758    447.82584  0.023830664  0.023664181            1 
 1567000    1.0008404   -7.6837442    447.09703  0.023776698  0.023658041            2 
 1568000   0.99552419    -7.687206     446.6847   0.02373962  0.023651871            3 
 1569000    1.0101366    -7.726843    447.11748  0.023747476   0.02364569            2 
 1570000    1.0083375   -7.6928983    446.66217  0.023708183  0.023639403            3 
 1571000    1.0038338   -7.7286553    447.19422  0.023721314  0.023633155            1 
 1572000   0.99332252   -7.7169658    446.57139  0.023673208  0.023626868            1 
 1573000   0.98440467   -7.6698766     447.6486  0.023715225  0.023620586            2 
 1574000   0.97182798   -7.6838507    447.36424  0.023685104  0.023614297            2 
 1575000   0.99653725   -7.7001102    448.73376  0.023742527  0.023608035            3 
 1576000   0.98214932   -7.6913673    449.32316  0.023758628  0.023601864            2 
 1577000    1.0152521   -7.7062156    447.59662  0.023652326  0.023595658            1 
 1578000    1.0110717   -7.6611993    449.34721  0.023729785  0.023589443            5 
 1579000    0.9929728   -7.6801753    448.98218  0.023695492  0.023583312            1 
 1580000   0.98681624   -7.7122485    448.33402  0.023646309  0.023577049            4 
 1581000   0.99815771   -7.6882098    448.55486  0.023642993  0.023570893            1 
 1582000    1.0153874   -7.7144804    449.20877  0.023662493  0.023564697            1 
 1583000   0.99524893   -7.6821299    449.93073  0.023685551  0.023558381            2 
 1584000   0.97265882   -7.6860974    448.93003  0.023617952  0.023552003            2 
 1585000    1.0183331    -7.699878    449.41915  0.023628767  0.023545605            1 
 1586000   0.98156797   -7.7438997    449.47238  0.023616665  0.023539215            2 
 1587000    1.0110874   -7.7006696    449.96261  0.023627526  0.023532922            2 
 1588000    1.0048537   -7.7118333      449.205   0.02357289  0.023526727            2 
 1589000   0.99050078   -7.6962406    451.08709   0.02365676  0.023520569            4 
 1590000   0.98767321   -7.7051067    452.15662  0.023697936  0.023514447            2 
 1591000   0.99710914   -7.7138803    451.80397   0.02366457  0.023508331            1 
 1592000    0.9879622   -7.7089011    452.02886  0.023661477  0.023502176            1 
 1593000   0.97645322   -7.7013784    452.07324  0.023648945  0.023496087            3 
 1594000   0.99366663   -7.6866219    453.32768   0.02369969  0.023489936            1 
 1595000    0.9998331   -7.7351596    450.47195   0.02353563  0.023483728            4 
 1596000    1.0174052   -7.6794459    451.73132  0.023586639  0.023477457            1 
 1597000   0.99741703   -7.7119447    452.64547  0.023619572  0.023471342            1 
 1598000   0.99567353   -7.7038627     451.4427  0.023542068  0.023465127            2 
 1599000    1.0000962   -7.7078601    454.09159  0.023665395  0.023458953            1 
 1600000   0.98806218   -7.7633294    452.35555  0.023560185  0.023452764            4 
 1601000    1.0017485   -7.7324569    453.81016  0.023621182   0.02344665            1 
 1602000   0.98310912   -7.7540615    452.48332  0.023537418  0.023440494            1 
 1603000   0.97681376   -7.7470858    452.62114  0.023529899  0.023434272            3 
 1604000    1.0156527   -7.7141612    453.30511  0.023550764  0.023428127            3 
 1605000    1.0009658    -7.703934    454.19711  0.023582404   0.02342205            2 
 1606000    1.0134057   -7.6831858    454.96588  0.023607611  0.023415997            2 
 1607000     1.006769   -7.7044706    454.37983   0.02356253  0.023409916            2 
 1608000   0.98696096   -7.7055532    455.06875   0.02358358  0.023403822            3 
 1609000   0.99838817   -7.6979057    454.72358  0.023551045  0.023397815            4 
 1610000    0.9954371    -7.706243    455.53033  0.023578174  0.023391796            2 
 1611000   0.99127311   -7.6707099     456.8679  0.023632728  0.023385755            2 
 1612000   0.98114905   -7.6905018    456.34562  0.023591068  0.023379808            2 
 1613000    1.0031802   -7.7204301    455.48579   0.02353202  0.023373828            2 
 1614000    1.0116028   -7.7125361    454.79736  0.023481896   0.02336775            1 
 1615000   0.99668401   -7.7079166    455.09074  0.023482494  0.023361638            2 
 1616000   0.98060766   -7.7191372    455.74039  0.023501464  0.023355599            2 
 1617000    1.0179153   -7.7292604    455.63055  0.023481269  0.023349573            1 
 1618000   0.99943919   -7.7299802    456.13746  0.023492865  0.023343532            2 
 1619000   0.98105546   -7.7575286    456.10298  0.023476579  0.023337514            4 
 1620000    1.0151501   -7.7288846    457.27889  0.023522577  0.023331523            1 
 1621000    1.0037403   -7.7304438    455.95759  0.023440139   0.02332562            2 
 1622000   0.98206442   -7.7130852    457.06054  0.023482354  0.023319503            2 
 1623000   0.98429545   -7.7390915    456.26039  0.023426802  0.023313467            2 
 1624000   0.98866169   -7.7487921    456.98718  0.023449671  0.023307515            1 
 1625000   0.98576908   -7.6956169    457.63896  0.023468665  0.023301648            3 
 1626000    1.0081111   -7.7636354    457.73925  0.023459371  0.023295679            2 
 1627000   0.98442292   -7.7601037    457.62363   0.02343903  0.023289585            2 
 1628000   0.96650685   -7.7326019    457.03927  0.023394721  0.023283512            2 
 1629000   0.99342022   -7.7365751    457.06677  0.023381766  0.023277472            9 
 1630000    1.0058848   -7.7418914    457.75286  0.023402498  0.023271416            2 
 1631000   0.99135142    -7.749021    458.41012  0.023421731  0.023265443            1 
 1632000    1.0013318   -7.7609925    459.01303  0.023438165  0.023259406            1 
 1633000   0.99565404    -7.727729    458.93235  0.023419695  0.023253402            3 
 1634000   0.99067614    -7.720728    459.10071  0.023413949  0.023247402            1 
 1635000    1.0010148   -7.7286316    459.49205  0.023419574  0.023241357            1 
 1636000   0.97712907   -7.7542381    459.76365  0.023419094  0.023235392            1 
 1637000   0.99536235   -7.7658182     458.7691  0.023354159  0.023229362            2 
 1638000   0.98439939   -7.6947043    460.03865  0.023404489  0.023223361            1 
 1639000   0.99363056   -7.7140434    459.86647  0.023381456  0.023217446            1 
 1640000   0.98294131   -7.7216664     460.3316  0.023390834  0.023211462            2 
 1641000   0.97400447   -7.6689081    461.24025  0.023422722  0.023205489            2 
 1642000   0.97069313   -7.7341262    460.79719  0.023385972  0.023199554            2 
 1643000    1.0072959   -7.7329999    461.71573  0.023418327  0.023193596            2 
 1644000    1.0127418   -7.7232844    461.75707  0.023406177  0.023187642            2 
 1645000   0.98325051   -7.7352625     460.5283  0.023329701  0.023181716            3 
 1646000    0.9763586    -7.754576     460.7678  0.023327653   0.02317577            2 
 1647000   0.97214561    -7.729509    461.37129  0.023344024  0.023169926            2 
 1648000    1.0034857    -7.685989    462.74563  0.023399354  0.023164019            2 
 1649000   0.97323619   -7.7080027    462.05176  0.023350099  0.023158145            3 
 1650000   0.96930002    -7.745435     461.3004     0.023298  0.023152272            5 
 1651000    1.0055894   -7.6987492    464.57185  0.023449013  0.023146517            2 
 1652000   0.96981126   -7.6861456    464.59022  0.023435746  0.023140776            1 
 1653000   0.98276006   -7.7332731    462.51072  0.023316733  0.023134904            3 
 1654000   0.97066253   -7.7668406    461.06786  0.023229941  0.023128963            2 
 1655000   0.98090658   -7.7285424    462.33573  0.023279745  0.023122912            1 
 1656000    1.0099334   -7.7241126    462.16341  0.023257015  0.023116906            1 
 1657000   0.96467062   -7.7364043    462.15137  0.023242374  0.023110898            2 
 1658000   0.96580549   -7.7293047     462.8321   0.02326257  0.023104893            1 
 1659000    0.9681213   -7.7435783    461.41922  0.023177578  0.023098828            1 
 1660000   0.98153954   -7.7555084    462.92161  0.023239036  0.023092827            3 
 1661000     1.018789   -7.7171315    463.12397  0.023235198  0.023086746            1 
 1662000   0.97791865   -7.7615673    462.11581  0.023170668  0.023080636            2 
 1663000   0.96836919   -7.7680115    464.31158  0.023266766  0.023074535            1 
 1664000   0.97543972   -7.7331844    463.81801  0.023228065  0.023068531            2 
 1665000    1.0203156   -7.7310828    463.96462  0.023221452  0.023062432            1 
 1666000   0.98325855   -7.7549811    462.74003   0.02314626  0.023056287            4 
 1667000   0.98191723   -7.7448188    463.76774   0.02318375  0.023050144            2 
 1668000   0.99206799   -7.7178986    464.04081  0.023183494  0.023044053            2 
 1669000   0.99684624   -7.7645788    463.31144  0.023133186  0.023037976            1 
 1670000   0.98948321    -7.724004    463.50658  0.023129071  0.023031832            1 
 1671000   0.98629377   -7.7738608    464.03753  0.023141708  0.023025663            2 
 1672000   0.99758485   -7.7499011    464.32876  0.023142383   0.02301953            4 
 1673000   0.99613204   -7.7558352     463.8326  0.023103835  0.023013359            2 
 1674000   0.97306555   -7.7539359    463.41497  0.023069244  0.023007136            2 
 1675000   0.97590975    -7.774806     464.2376  0.023096398   0.02300087            4 
 1676000   0.98497312    -7.757595    464.69842   0.02310553  0.022994636            4 
 1677000     0.996474   -7.7678171    464.52213  0.023082992  0.022988508            2 
 1678000   0.98682356   -7.7455007    465.11522   0.02309869  0.022982426            1 
 1679000   0.99342479   -7.7579589    466.07007  0.023132325  0.022976301            3 
 1680000   0.97881577    -7.742311    465.68487  0.023099448  0.022970202            2 
 1681000   0.98916577    -7.708861    466.10248  0.023106409  0.022964034            2 
 1682000   0.98771672   -7.7356107    465.96613  0.023085916  0.022957878            1 
 1683000   0.98065107   -7.7464663    465.20655  0.023034589   0.02295169            1 
 1684000   0.98843067   -7.7478815    465.55632  0.023038219  0.022945352            2 
 1685000   0.97052484   -7.7798974    465.54396  0.023023935  0.022939106            1 
 1686000   0.96256488   -7.7593983    466.21415  0.023043404  0.022932884            2 
 1687000   0.99357871   -7.7547049    466.37382  0.023037632  0.022926635            2 
 1688000   0.95681089   -7.7437622     466.9953  0.023054665  0.022920457            4 
 1689000   0.97205535   -7.7681125    467.12862  0.023047593  0.022914298            5 
 1690000   0.97364529   -7.7329226    467.21791  0.023038358  0.022908104            3 
 1691000   0.97768725   -7.7366556    468.88168  0.023106726  0.022901943            5 
 1692000    0.9604005    -7.784503    466.99304  0.023000051  0.022895708            1 
 1693000   0.97877959   -7.7612459    466.37138  0.022955866  0.022889538            1 
 1694000    0.9741888   -7.7564789    468.52431  0.023048225  0.022883365            2 
 1695000     1.006874   -7.7636352    467.52055  0.022985278  0.022877196            2 
 1696000   0.96751301   -7.7282159    468.78897  0.023034049  0.022870952            4 
 1697000   0.96491555   -7.7274833    468.23466  0.022993256  0.022864762            2 
 1698000   0.96266766   -7.7414786    468.51783  0.022993612  0.022858623            1 
 1699000   0.97992598   -7.7446801    467.66887  0.022938438  0.022852431            1 
 1700000   0.98241196   -7.7470674    467.61544  0.022922326  0.022846219            2 
 1701000   0.96329096   -7.7567621    468.13241  0.022934177   0.02284006            4 
 1702000    0.9731091   -7.7506662    468.92671  0.022959592  0.022833847            1 
 1703000   0.95360088   -7.8070602    467.80536  0.022891239  0.022827637            3 
 1704000   0.95488882   -7.7654723     468.3462  0.022904255  0.022821403            3 
 1705000   0.99210196    -7.744785    469.84224  0.022963941  0.022815199            1 
 1706000   0.99757155   -7.7036693    470.55015   0.02298506  0.022808919            2 
 1707000   0.95260031   -7.7650292    468.91955  0.022891991  0.022802671            3 
 1708000   0.98751379   -7.7527986     468.8782  0.022876571  0.022796383            3 
 1709000   0.98077413   -7.7332845    469.17314  0.022877567  0.022790081            3 
 1710000   0.97813937   -7.7557525    471.30192   0.02296793  0.022783835            2 
 1711000   0.98327179   -7.7574719    469.03021  0.022843864  0.022777574            2 
 1712000   0.96831047   -7.7463181    470.06817  0.022881044  0.022771327            2 
 1713000    0.9555717   -7.7445982    471.19686  0.022922595  0.022765126            1 
 1714000   0.96133535   -7.7238172    470.56195  0.022878352  0.022759038            2 
 1715000   0.97460197   -7.7465667    469.52761  0.022814753  0.022752899            1 
 1716000   0.98099819     -7.76103    470.72712  0.022859709  0.022746661            2 
 1717000    0.9632741   -7.7941692    470.05189  0.022813623  0.022740428            2 
 1718000    0.9760806   -7.7827079    469.79955  0.022788104  0.022734154            1 
 1719000   0.97394558   -7.7847962    469.63475  0.022766858  0.022727882            3 
 1720000   0.96437417   -7.7863557     470.8807  0.022813987  0.022721562            1 
 1721000   0.96348915    -7.785361    470.64687  0.022789409  0.022715271            2 
 1722000   0.98078887   -7.7404437    471.09682  0.022797949  0.022709006            2 
 1723000   0.98705827   -7.7440311    471.26756  0.022792975  0.022702874            2 
 1724000   0.98767385   -7.7627617    472.41567  0.022835251  0.022696735            1 
 1725000   0.98599056   -7.7642021    470.69389  0.022738835  0.022690545            2 
 1726000   0.99284211   -7.7811864    471.67873   0.02277321  0.022684323            2 
 1727000   0.95493792   -7.7465703    472.54164  0.022801662  0.022678108            3 
 1728000   0.95335779   -7.7866172    472.69542  0.022795883  0.022671996            3 
 1729000   0.96795303   -7.7488598    475.05382  0.022896367  0.022665917            3 
 1730000   0.95298661   -7.7449843    473.46812   0.02280675   0.02265988            3 
 1731000   0.99014516   -7.7683153    474.29167  0.022833221  0.022653911            2 
 1732000   0.97083347   -7.7515313    474.80995  0.022844974  0.022647946            3 
 1733000    0.9647998   -7.7835085    472.93838  0.022741796  0.022641893            2 
 1734000   0.97957526   -7.7420268    474.14603  0.022786718  0.022635866            2 
 1735000    0.9647178   -7.8157715    474.24526  0.022778351   0.02262978            1 
 1736000   0.98246071    -7.758099    474.93403  0.022798292  0.022623727            2 
 1737000   0.96854639    -7.777925     475.0467  0.022790573  0.022617702            1 
 1738000   0.99340559   -7.7291201    475.64497  0.022806145  0.022611713            2 
 1739000   0.98725763   -7.8030788    473.80807  0.022705006  0.022605589            3 
 1740000   0.97323111   -7.7724488    473.55307  0.022679745  0.022599441            3 
 1741000   0.98495894   -7.7584178    475.86235  0.022777252  0.022593325            6 
 1742000   0.96704759   -7.8008355    474.97849  0.022721895  0.022587229            4 
 1743000   0.97358734   -7.7591133    475.70926  0.022743797  0.022581148            1 
 1744000   0.98650321   -7.7457134    476.04119  0.022746616  0.022575112            1 
 1745000    0.9974986   -7.7631891    475.62344  0.022713631  0.022569017            1 
 1746000   0.95970058   -7.7780654    475.67049  0.022702868  0.022562899            1 
 1747000    0.9701738   -7.7839397    476.00286  0.022705727  0.022556712            1 
 1748000   0.99957249   -7.7754072    475.32189  0.022660273   0.02255057            2 
 1749000   0.95974248   -7.8089744    472.94131  0.022533891  0.022544348            2 
 1750000   0.97400674   -7.7725575    475.19101  0.022628143  0.022538139            2 
 1751000   0.98197543   -7.7930189    474.94636  0.022603577  0.022531947            2 
 1752000   0.98199421   -7.7970114    475.58732  0.022621162  0.022525775            3 
 1753000   0.99669035    -7.764498    476.14073  0.022634566  0.022519606            1 
 1754000   0.97743016   -7.7922444    476.00483  0.022615205  0.022513387            1 
 1755000   0.96013136   -7.7820532    477.04633  0.022651773  0.022507182            2 
 1756000    0.9475035   -7.7649654    477.06883  0.022639941   0.02250102            2 
 1757000   0.96235879   -7.7767236    476.11468    0.0225818  0.022494799            3 
 1758000   0.99257778   -7.7836248    476.71923  0.022597612  0.022488528            3 
 1759000   0.95086288   -7.7579621    476.63439  0.022580746  0.022482294            1 
 1760000   0.96178596    -7.804729    475.43416  0.022511087  0.022476068            3 
 1761000   0.96022501   -7.7388174    478.69847  0.022652776  0.022469908            2 
 1762000   0.97703477   -7.8050314    476.83773  0.022551917  0.022463739            2 
 1763000    0.9536166   -7.8180648    476.84027  0.022539245  0.022457548            4 
 1764000   0.96812049   -7.8307346    476.29401  0.022500662  0.022451307            2 
 1765000   0.94944967   -7.7575557    477.87269   0.02256245  0.022445072            3 
 1766000   0.98251939   -7.7889112    476.01624  0.022462073  0.022438837            2 
 1767000   0.97322321   -7.8287006    476.13135  0.022454789  0.022432619            2 
 1768000   0.95857727   -7.8047592    478.21217  0.022540166  0.022426399            7 
 1769000   0.96011897   -7.7384786    477.50636  0.022494176  0.022420098            1 
 1770000   0.94652808   -7.7802556    478.84921   0.02254469  0.022413899            5 
 1771000   0.97434732    -7.767617    478.82063  0.022530615  0.022407672            2 
 1772000   0.94983217   -7.7649178    478.64608  0.022509691  0.022401481            6 
 1773000   0.96853364    -7.789182    478.31439  0.022481406  0.022395313            1 
 1774000   0.96043163   -7.7627999    478.15937  0.022461451  0.022389044            3 
 1775000   0.93124135   -7.7739698    479.95009  0.022532868  0.022382838            4 
 1776000   0.96837903   -7.7698258    479.17495   0.02248381  0.022376759            5 
 1777000   0.95047786   -7.7479061    479.81194  0.022501029  0.022370568            3 
 1778000   0.99944883   -7.7999115    481.33633   0.02255982  0.022364465            5 
 1779000    0.9592006   -7.7897377    480.94324  0.022528726  0.022358278            2 
 1780000   0.97383935   -7.7776468    480.87677  0.022512958  0.022352151            4 
 1781000   0.98261419   -7.8240045    478.93337  0.022409385  0.022345895            2 
 1782000   0.96137656   -7.7711026    479.68576  0.022431994  0.022339649            4 
 1783000   0.97334182   -7.7946794    478.91096  0.022383201  0.022333369            2 
 1784000   0.96318965   -7.7799705    480.05366  0.022424031   0.02232715            2 
 1785000   0.94549861   -7.7553862    482.15923  0.022509768  0.022320958            2 
 1786000   0.96477264   -7.7776976    478.67522  0.022334604  0.022314786            1 
 1787000   0.95152958   -7.7897204    479.26754  0.022349727  0.022308499            2 
 1788000   0.94766875   -7.8012011    481.17812  0.022426273  0.022302217            2 
 1789000   0.95001388   -7.7928714    480.16864  0.022366715  0.022295937            2 
 1790000    0.9582549   -7.8076073    479.40324  0.022318586  0.022289663            3 
 1791000   0.93826879   -7.8146999    480.35005  0.022350179  0.022283359            1 
 1792000   0.97400829   -7.8041821    479.81454  0.022312804  0.022276997            4 
 1793000   0.94724075   -7.8098146    480.70086  0.022341553   0.02227067            2 
 1794000   0.99320603   -7.8114411    479.71951  0.022283515  0.022264389            1 
 1795000    0.9590486   -7.7684595    482.15396  0.022384121  0.022258101            2 
 1796000   0.93928951   -7.8410253    480.17798  0.022279973  0.022251654            1 
 1797000   0.94775047   -7.8094052    480.84211  0.022298373  0.022245252            2 
 1798000   0.95901248   -7.8110605     480.8798  0.022287718  0.022238863            3 
 1799000   0.98826562   -7.8014266    479.81684   0.02222609  0.022232477            2 
 1800000   0.94164936    -7.832519    481.23845  0.022279558  0.022226073            2 
 1801000   0.95089862   -7.8136105    481.13654  0.022262472  0.022219664            3 
 1802000   0.95224612   -7.7901114    481.62755  0.022272824  0.022213283            3 
 1803000   0.96247592   -7.7658119     482.6252  0.022306582  0.022206984            1 
 1804000   0.95679699   -7.8054215    480.62997  0.022202049   0.02220058            2 
 1805000   0.96259195   -7.7994472    482.58591  0.022280051  0.022194151            2 
 1806000   0.94807176   -7.8011221    481.65743  0.022224872  0.022187686            2 
 1807000   0.95860988   -7.7660772    482.37607  0.022245714  0.022181299            1 
 1808000   0.97556896   -7.8054817    482.34477  0.022231968     0.022175            2 
 1809000   0.94663367   -7.8172532    481.36381  0.022174489  0.022168554            2 
 1810000   0.97169036   -7.8121759    481.78267  0.022181523  0.022162027            2 
 1811000   0.96284039   -7.8000873    482.31415   0.02219373  0.022155531            4 
 1812000   0.96375404   -7.7634477    482.07682  0.022170567  0.022149062            1 
 1813000   0.95865886   -7.7954264    482.28509  0.022167912  0.022142517            1 
 1814000   0.96372158   -7.8247629    482.24891  0.022154029  0.022135998            3 
 1815000   0.94306332   -7.8200475    482.43505  0.022150369  0.022129522            3 
 1816000   0.96748136   -7.8227953    482.51883  0.022142017  0.022123033            2 
 1817000   0.94499813   -7.7722553    482.55551  0.022131513  0.022116581            2 
 1818000   0.97807917   -7.7905649    482.05417  0.022096359  0.022110008            2 
 1819000    0.9447151   -7.8068748    482.83242  0.022119865  0.022103468            5 
 1820000   0.95329519   -7.8093916    482.01151  0.022070124  0.022096895            2 
 1821000    0.9616215   -7.8023095     481.9104  0.022053377  0.022090246            2 
 1822000   0.93951633   -7.8029811    482.76722  0.022080462   0.02208362            1 
 1823000   0.94732637   -7.7836664    483.41595  0.022098005  0.022077021            2 
 1824000   0.96034665   -7.8245646    482.36563  0.022037903   0.02207042            3 
 1825000   0.97507977   -7.8104185    482.51863  0.022032814  0.022063819            2 
 1826000   0.95778991   -7.8041327    482.13897  0.022003421  0.022057245            2 
 1827000    0.9594392   -7.7909592    483.84255  0.022069082  0.022050608            2 
 1828000   0.97490273   -7.7934858     485.0788  0.022113366  0.022044024            2 
 1829000   0.95650502   -7.8247936    482.63166  0.021989779  0.022037478            3 
 1830000   0.97468099   -7.8113345    484.55725  0.022065448  0.022030938            1 
 1831000   0.94081539   -7.7355415    485.90112  0.022114561  0.022024514            3 
 1832000   0.93743471   -7.8001335     484.9449  0.022058993   0.02201803            1 
 1833000    0.9500422   -7.8328374    483.78544  0.021994246   0.02201147            1 
 1834000   0.95470018   -7.8357511    483.18086  0.021954783  0.022004869            3 
 1835000   0.96532505    -7.829238    485.01278  0.022026012  0.021998176            1 
 1836000   0.94012262   -7.8396524    483.22696   0.02193296  0.021991543            1 
 1837000   0.97472592   -7.8314607    484.99391  0.022001175  0.021985012            4 
 1838000   0.95405255   -7.7923569    485.67076  0.022019893  0.021978566            1 
 1839000   0.96591406   -7.8574157    484.19152  0.021940888  0.021972112            2 
 1840000   0.93719304   -7.8027311    486.52127  0.022034478  0.021965635            2 
 1841000   0.95012289   -7.8288198    486.12203  0.022004437   0.02195922            3 
 1842000   0.96225321    -7.760088    487.70172  0.022063958  0.021952838            4 
 1843000   0.95372766    -7.794591    487.05371  0.022022686  0.021946447            3 
 1844000   0.95198758   -7.7977338    486.67943  0.021993828   0.02194011            3 
 1845000   0.94297038   -7.8169088    486.54535  0.021975851  0.021933797            2 
 1846000   0.94051234   -7.8092187    486.79219   0.02197509    0.0219274            3 
 1847000   0.93269734   -7.8158921    487.05797  0.021975184  0.021920977            3 
 1848000   0.95851922   -7.8235544    486.50595    0.0219384  0.021914551            2 
 1849000   0.95347423   -7.8457688    486.58023  0.021929882    0.0219081            2 
 1850000   0.95688975   -7.8168675      486.159  0.021899054  0.021901639            2 
 1851000   0.94667647   -7.7828916     487.7484  0.021958779  0.021895203            2 
 1852000   0.93607359   -7.7991863    486.83927  0.021906015  0.021888804            2 
 1853000   0.95487775   -7.8040979    488.31874  0.021960728  0.021882445            1 
 1854000   0.92833641   -7.7745683    488.22406  0.021944627   0.02187615            4 
 1855000   0.98457695   -7.8244074    488.20184  0.021931799  0.021869841            2 
 1856000   0.95000741   -7.8322235    486.29867  0.021834531  0.021863504            1 
 1857000   0.96488839   -7.8455925    489.69747  0.021975295  0.021857134            3 
 1858000   0.93602467    -7.853307    488.99724  0.021932061  0.021850791            2 
 1859000   0.94621588   -7.8567137    488.73876  0.021908677  0.021844417            2 
 1860000   0.93422646   -7.8354404    488.48001  0.021885305   0.02183808            2 
 1861000   0.93508043   -7.8342815     489.9349  0.021938693  0.021831778            2 
 1862000   0.96035035   -7.7948912    489.92047  0.021926265  0.021825502            1 
 1863000   0.96532489   -7.7861612    490.78785  0.021953295  0.021819235            2 
 1864000   0.95392907   -7.8300832    488.54631  0.021841305  0.021813051            3 
 1865000   0.94040517   -7.7982666    489.49463  0.021871967  0.021806801            2 
 1866000   0.96774257   -7.8322563    489.97029  0.021881488  0.021800606            1 
 1867000   0.94737998   -7.8330098    489.66657  0.021856212  0.021794376            2 
 1868000   0.97077392    -7.823934    490.44283  0.021879141  0.021788146            5 
 1869000   0.92482139    -7.816631    489.07516  0.021806455  0.021781871            2 
 1870000   0.96633873    -7.840708    491.12133  0.021885977  0.021775571            3 
 1871000   0.93535126   -7.8153192    491.49625  0.021890979  0.021769328            2 
 1872000   0.95686536   -7.8637746    491.13104  0.021863027  0.021763037            4 
 1873000   0.94956699    -7.831637    491.49446  0.021867523  0.021756822            2 
 1874000   0.95076149   -7.8347291    489.31545  0.021758958  0.021750594            2 
 1875000    0.9818994   -7.8429455    491.99484  0.021866437  0.021744339            4 
 1876000   0.95584798      -7.8228    490.96707  0.021809127  0.021738165            3 
 1877000   0.93016954   -7.8843831    490.65421  0.021783618  0.021731937            3 
 1878000   0.96069354   -7.7758999    493.03291   0.02187757  0.021725746            3 
 1879000   0.95182968   -7.7777195    492.67499  0.021850053  0.021719671            4 
 1880000   0.95147439   -7.8175329     491.7122  0.021795753  0.021713544            1 
 1881000   0.94537632   -7.8234196    493.22751  0.021851299   0.02170738            2 
 1882000   0.98459434   -7.8098158    494.51922  0.021896884  0.021701212            3 
 1883000   0.95933426   -7.8359445    492.80245  0.021809278  0.021695095            1 
 1884000   0.94825947   -7.7972183    494.30589  0.021864202     0.021689            2 
 1885000   0.93108989   -7.8868223    493.13285  0.021800745  0.021682884            2 
 1886000   0.94258249   -7.8307277    493.18463  0.021791474  0.021676753            3 
 1887000   0.96714002   -7.8363429    496.00771  0.021904598   0.02167066            2 
 1888000   0.93202958   -7.8258526    493.32853  0.021774741  0.021664574            3 
 1889000   0.95058575   -7.8382655    494.33649   0.02180768  0.021658482            2 
 1890000   0.93446349   -7.8279863    492.46241   0.02171351  0.021652319            7 
 1891000   0.95455401     -7.84074    492.94111  0.021723123  0.021646155            2 
 1892000   0.96722184   -7.8355793    494.45744  0.021778429  0.021639998            1 
 1893000    0.9307393    -7.809981     493.8441  0.021739923  0.021633918            1 
 1894000   0.96850433   -7.8121608    495.22078  0.021789017  0.021627775            1 
 1895000   0.94599467   -7.8686857    493.25586  0.021691111  0.021621566            2 
 1896000   0.95257058   -7.8412186     494.5278  0.021735575  0.021615427            1 
 1897000   0.95701839    -7.836395    494.88579  0.021739843  0.021609273            4 
 1898000   0.96685751   -7.8086996    495.36847  0.021749581  0.021603127            3 
 1899000   0.94805601    -7.822111     494.8976  0.021717465  0.021597087            3 
 1900000   0.93700771   -7.7825888    496.27919  0.021766631  0.021591053            2 
 1901000   0.97035398   -7.8496053    494.48654  0.021676597  0.021584932            2 
 1902000   0.97274142   -7.8338741    495.26898  0.021699482  0.021578785            1 
 1903000    0.9318707   -7.8414898    495.77251  0.021710129  0.021572673            2 
 1904000   0.95824174   -7.8196222    494.98433   0.02166423  0.021566563            3 
 1905000   0.95542962   -7.8044648     497.1754  0.021748705  0.021560514            2 
 1906000   0.94848922   -7.8303802    496.60893  0.021712527  0.021554383            1 
 1907000   0.93447186   -7.8325417    496.29035   0.02168722   0.02154826            3 
 1908000   0.97464645   -7.8459297    495.82559  0.021655555  0.021542122            2 
 1909000    0.9553599   -7.8246831    496.47236  0.021672445  0.021535976            4 
 1910000   0.94300326   -7.8190828    496.77347  0.021674235  0.021529832            1 
 1911000   0.95427193    -7.825311    496.69542   0.02165949  0.021523679            1 
 1912000   0.93904206   -7.8500947     495.3892  0.021591231  0.021517517            1 
 1913000    0.9428692   -7.8723714    496.63395  0.021634167  0.021511303            4 
 1914000    0.9313511   -7.8441266    495.81681  0.021587287  0.021505077            3 
 1915000   0.94358967   -7.8529898    495.17123  0.021547921  0.021498848            2 
 1916000   0.94954862   -7.8673281    496.36018  0.021588387  0.021492593            2 
 1917000   0.93812593   -7.8415532    496.57297  0.021586375  0.021486376            1 
 1918000   0.93171051   -7.8220228    496.61809  0.021577081  0.021480182            2 
 1919000   0.94431298   -7.8729734     496.5501  0.021562884  0.021474024            4 
 1920000   0.96077494   -7.8278088    498.03162  0.021615956  0.021467838            5 
 1921000   0.94113339   -7.8353282    496.86565  0.021554123  0.021461737            2 
 1922000   0.92930101   -7.8323156    498.84249   0.02162862  0.021455667            2 
 1923000   0.94374481   -7.8200444    498.86783  0.021618471  0.021449483            4 
 1924000   0.93890587   -7.8218141    497.21475  0.021535636  0.021443356            2 
 1925000   0.93502052   -7.8488349    497.74931  0.021547589  0.021437239            1 
 1926000   0.92811392   -7.8532353    499.11435  0.021595463  0.021431096            3 
 1927000   0.95498631   -7.8646156     498.5055  0.021557927  0.021425055            5 
 1928000   0.94325648   -7.8311186    498.80641  0.021559751  0.021418998            2 
 1929000   0.94618946   -7.8789886    499.00025  0.021556949  0.021412918            2 
 1930000    0.9536127   -7.8507025    498.73924   0.02153451  0.021406855            2 
 1931000   0.93614454   -7.8643148    499.33104  0.021548897   0.02140078            2 
 1932000   0.93434637   -7.8883591    499.15815  0.021530286  0.021394684            3 
 1933000    0.9258906   -7.8545659    499.36792  0.021528191  0.021388622            1 
 1934000   0.94285949   -7.9043041    498.73091  0.021489612  0.021382501            1 
 1935000   0.93847733   -7.8435749    500.33981  0.021547795  0.021376418            2 
 1936000   0.90261932   -7.8862804    500.53041   0.02154487   0.02137037            4 
 1937000   0.94814598   -7.8570426    499.64612  0.021495703  0.021364314            5 
 1938000   0.94062291   -7.8296635    500.19161  0.021508067  0.021358221            2 
 1939000   0.92008548   -7.8606302     501.4208  0.021549802  0.021352167            4 
 1940000   0.93106464   -7.8305022    500.92859  0.021517551  0.021346108            1 
 1941000   0.94166661   -7.8734158    501.42525  0.021527788  0.021340059            1 
 1942000    0.9486095   -7.8445239    501.50048  0.021519931  0.021334013            1 
 1943000   0.91590065   -7.8595702    501.98274  0.021529539  0.021327978            5 
 1944000   0.95777935   -7.8507776    500.62986   0.02146047   0.02132196            5 
 1945000   0.94317364   -7.8582207    501.72489  0.021496353  0.021315971            6 
 1946000   0.92732873   -7.8363897    500.97901  0.021453366   0.02130996            2 
 1947000   0.94355614   -7.8732434    501.72987  0.021474485  0.021303979            1 
 1948000   0.92663452   -7.8709268    501.85099  0.021468643  0.021298033            3 
 1949000   0.94744645   -7.8814185    503.42482   0.02152492  0.021292035            2 
 1950000   0.94098795   -7.8480112    502.65838  0.021481127  0.021286066            4 
 1951000   0.95985633   -7.8566813    502.31897   0.02145562  0.021280097            2 
 1952000    0.9440491   -7.8589482    502.42622  0.021449207  0.021274111            5 
 1953000   0.92495417    -7.860036    502.38918  0.021436644  0.021268118            4 
 1954000   0.93553308   -7.8269841    504.95899  0.021535269    0.0212622            2 
 1955000   0.94964121   -7.8517408    504.60893  0.021509332    0.0212563            6 
 1956000    0.9364613   -7.8811771    502.77169  0.021420062  0.021250382            2 
 1957000   0.94103208   -7.9030157    502.83326  0.021411738   0.02124441            3 
 1958000    0.9362289   -7.8493302    503.86159  0.021444569  0.021238461            2 
 1959000    0.9350964   -7.8840109    503.02885  0.021398198   0.02123253            3 
 1960000   0.95505427   -7.8500367    503.15989  0.021392852  0.021226585            1 
 1961000   0.93954072   -7.8454308     504.7333  0.021448806  0.021220699            2 
 1962000   0.94337306   -7.8709055    503.06727  0.021367112  0.021214763            4 
 1963000   0.94845369   -7.8638709    505.19372  0.021446499  0.021208792            2 
 1964000   0.93572021   -7.8850789    504.54864  0.021408208  0.021202838            2 
 1965000   0.95119566   -7.8763102    504.06884  0.021376965  0.021196877            1 
 1966000   0.94945064   -7.8300884    504.91096  0.021401787  0.021190935            2 
 1967000   0.93146084   -7.8821438    504.24902  0.021362863  0.021185049            3 
 1968000   0.92023514   -7.8847946    503.39701   0.02131593  0.021179061            3 
 1969000   0.95018413   -7.8515028    506.04509  0.021417179  0.021173083            3 
 1970000   0.93176229   -7.8861145    504.94317  0.021359694  0.021167107            2 
 1971000   0.91691945   -7.8671828    505.37905  0.021367286   0.02116115            1 
 1972000   0.93586604   -7.8533569    504.95862  0.021338684  0.021155139            4 
 1973000   0.95065288   -7.8586749    504.70039  0.021316962  0.021149136            3 
 1974000   0.94491535   -7.8807681    504.68223  0.021305396  0.021143079            2 
 1975000   0.94257667   -7.8630783    503.33489  0.021237759  0.021137111            3 
 1976000   0.94788295   -7.8516709    505.77904  0.021330088  0.021131096            3 
 1977000   0.92910814   -7.8959886    503.86388  0.021238572  0.021125054            6 
 1978000   0.92602953   -7.8973788    502.36596  0.021164727  0.021118932            1 
 1979000   0.94511705   -7.8366382     505.0472  0.021266936  0.021112827            2 
 1980000   0.93513622   -7.8585286    504.90763  0.021250321  0.021106808            1 
 1981000   0.93796725   -7.9014536    504.81234  0.021235586  0.021100772            3 
 1982000   0.93026039   -7.8785169    504.76504  0.021222883  0.021094729            3 
 1983000   0.93629407   -7.9017784    504.23875  0.021190063  0.021088704            2 
 1984000   0.94151723   -7.8770222    505.46176  0.021230753  0.021082616            1 
 1985000   0.92802234   -7.8967401    506.41633  0.021260131  0.021076573            2 
 1986000   0.94523853   -7.8922086    504.46361   0.02116749  0.021070594            3 
 1987000   0.92319955   -7.8952138    506.88768    0.0212585  0.021064615            1 
 1988000   0.93737547   -7.8920862    507.87578  0.021289226  0.021058607            2 
 1989000    0.9226131   -7.8929826    507.00679  0.021242115  0.021052618            2 
 1990000   0.92348117   -7.8856593    507.77649  0.021263672  0.021046668            2 
 1991000   0.94352269   -7.8798131    507.46107   0.02123979   0.02104075            1 
 1992000   0.92721532   -7.8999732    507.10505  0.021214234  0.021034795            3 
 1993000   0.94617114   -7.8717588    508.72355  0.021271264  0.021028844            2 
 1994000   0.94516593   -7.8650627    508.48324  0.021250553  0.021022924            3 
 1995000   0.92744205   -7.8954808      506.184   0.02114386     0.021017            1 
 1996000   0.93387586   -7.8774413    507.77813  0.021199822  0.021011083            2 
 1997000   0.93992337   -7.8415256    508.09875  0.021202585  0.021005142            2 
 1998000    0.9333939   -7.8770735    508.36467  0.021203064  0.020999218            2 
 1999000   0.95112406   -7.9111469    508.46281  0.021196549  0.020993282            3 
 2000000    0.9425998   -7.8687924    507.14604  0.021131085  0.020987319            3 
 2001000   0.93296267    -7.821746    508.99733  0.021197623  0.020981385            2 
 2002000   0.93209279   -7.8657815    508.91224  0.021183493  0.020975472            5 
 2003000   0.94006306   -7.8657547    508.94271  0.021174185  0.020969546            2 
 2004000   0.92409044   -7.8828133    508.32702  0.021138017  0.020963589            2 
 2005000   0.93791649   -7.8905542    508.06819  0.021116716  0.020957676            3 
 2006000   0.93291928   -7.8464747    509.94202  0.021184032  0.020951835            2 
 2007000   0.93949943   -7.8600742     509.2347  0.021144108  0.020946022            4 
 2008000   0.91796962   -7.8617733    509.06478  0.021126526  0.020940173            3 
 2009000   0.92171108   -7.8563479    509.26654  0.021124379  0.020934306            1 
 2010000   0.92618048   -7.9119013    509.91134  0.021140603  0.020928425            1 
 2011000    0.9421397   -7.8454252    511.34709  0.021189586  0.020922592            1 
 2012000   0.92965247   -7.8515819    511.24481  0.021174818  0.020916774            1 
 2013000   0.94396429   -7.8797893    511.11176  0.021158791  0.020910928            1 
 2014000   0.91611108   -7.8752609    511.53996  0.021166003  0.020905108            3 
 2015000   0.93486355    -7.866549    510.57476  0.021115581  0.020899244            1 
 2016000   0.91220318   -7.8853623    510.25372  0.021091837  0.020893403            1 
 2017000    0.9294272   -7.8536132    512.14029  0.021159324  0.020887596            4 
 2018000   0.92187099   -7.8866517    510.19322  0.021068435  0.020881731            1 
 2019000   0.93327624   -7.8964446    509.56598  0.021032111  0.020875777            1 
 2020000   0.90496287    -7.868986    511.13303  0.021086346  0.020869882            4 
 2021000   0.91808777   -7.8695956    510.68444  0.021057416  0.020864022            6 
 2022000   0.92976448   -7.8691491    511.23712  0.021069779  0.020858131            3 
 2023000   0.92347629   -7.9364404    509.96583  0.021006996  0.020852179            4 
 2024000   0.93437345   -7.9117016    510.70758  0.021027156  0.020846318            2 
 2025000   0.93450804   -7.9194357    510.51419  0.021008814  0.020840426            4 
 2026000   0.92784046   -7.8905401    511.35299  0.021032946  0.020834549            5 
 2027000   0.92589422   -7.9037052    510.08707  0.020970526  0.020828651            2 
 2028000   0.94875564    -7.902298    511.52401  0.021019231  0.020822754            1 
 2029000   0.90786949   -7.9235358    511.45484  0.021006031  0.020816909            4 
 2030000   0.92348549   -7.8419031    512.14374  0.021023963  0.020811041            6 
 2031000   0.91744719   -7.9089427    512.24845  0.021017908  0.020805111            4 
 2032000   0.94751668   -7.9110228    511.89653  0.020993132  0.020799211            1 
 2033000   0.93515523   -7.9018122    510.97781  0.020945147  0.020793307            6 
 2034000   0.89111757   -7.8852437    512.62092  0.021002168  0.020787419            1 
 2035000   0.92736512   -7.8962122    512.70228  0.020995179  0.020781536            4 
 2036000    0.9280326   -7.9032283    512.17806  0.020963411  0.020775638            3 
 2037000   0.90265768   -7.9034677    512.04557    0.0209477  0.020769715            2 
 2038000   0.92263837   -7.9264263    512.29949  0.020947804  0.020763797            2 
 2039000   0.90973166   -7.8988807    513.69267  0.020994469  0.020757992            3 
 2040000    0.9263975   -7.8832071    513.75518  0.020986731  0.020752164            2 
 2041000   0.95410589     -7.85834    513.89454  0.020982139  0.020746438            3 
 2042000   0.93575991   -7.9183354    514.32854  0.020989575  0.020740599            3 
 2043000   0.91873218   -7.8973398    513.49611  0.020945346  0.020734809            1 
 2044000   0.90562408   -7.8859369    515.08529  0.020999889  0.020729018            3 
 2045000   0.92099808   -7.9016249    514.31289  0.020958146  0.020723265            2 
 2046000      0.92545   -7.8636583    515.40952  0.020992568  0.020717536            2 
 2047000   0.92072939    -7.895401    515.05428  0.020967851  0.020711835            2 
 2048000   0.91870076   -7.8632007    514.47265  0.020933946  0.020706122            3 
 2049000    0.9314737   -7.9131504    514.47174  0.020923692  0.020700383            1 
 2050000   0.91083381   -7.9150083    515.78549   0.02096689  0.020694574            2 
 2051000   0.93901556   -7.8989652    515.62828   0.02095028  0.020688806            2 
 2052000   0.90203716   -7.8925253    515.65842  0.020941294  0.020683002            1 
 2053000   0.92053162   -7.8907621     515.2107   0.02091292  0.020677193            2 
 2054000   0.91398773   -7.9155015    515.26756  0.020905045  0.020671417            3 
 2055000   0.93147257   -7.8834525    515.22855  0.020893291  0.020665676            2 
 2056000   0.92279019   -7.8835156     515.9816  0.020913651  0.020659922            1 
 2057000   0.94627689   -7.9100061    514.20037  0.020831323  0.020654152            2 
 2058000   0.92769857     -7.89319    515.90738  0.020890322  0.020648371            3 
 2059000   0.91247048   -7.8818486    516.12237  0.020888877  0.020642663            2 
 2060000   0.94446906   -7.9149093    515.81196  0.020866179  0.020636906            2 
 2061000   0.92888224   -7.8790447    517.40425  0.020920437  0.020631135            4 
 2062000   0.91443929   -7.9344791    515.56619  0.020836008  0.020625346            2 
 2063000    0.9214936   -7.9045066    517.95286  0.020922316  0.020619605            2 
 2064000   0.91971111   -7.8917218    518.43774  0.020931756  0.020613868            2 
 2065000   0.92816583   -7.9497725    516.33041  0.020836578  0.020608172            1 
 2066000   0.91994475   -7.9006701    518.58817  0.020917561  0.020602455            4 
 2067000   0.91238313   -7.9070435    516.44844  0.020821175  0.020596741            2 
 2068000   0.93020816   -7.9127999    516.97547  0.020832345  0.020591068            1 
 2069000   0.94089014    -7.897872    518.93329  0.020901131  0.020585394            2 
 2070000   0.91848465   -7.9528277    517.43958  0.020830901   0.02057969            1 
 2071000   0.89893096   -7.8837808    519.76152  0.020914273  0.020574092            2 
 2072000   0.90397788   -7.8939522    519.69733  0.020901598  0.020568465            3 
 2073000   0.91574505   -7.9088435    518.23999  0.020832931  0.020562854            4 
 2074000   0.91741203   -7.8936822    518.90415  0.020849572  0.020557303            1 
 2075000   0.93066084   -7.9257138    518.89672  0.020839226  0.020551724            1 
 2076000   0.90648821   -7.9157056    518.61158  0.020817742  0.020546161            2 
 2077000   0.92377355   -7.9158972    520.45544  0.020881698   0.02054057            2 
 2078000   0.92700692   -7.9496978    519.00383  0.020813436  0.020534959            5 
 2079000   0.93968405   -7.8969375     519.4088  0.020819657  0.020529392            3 
 2080000   0.88057939   -7.9135418    519.28796  0.020804806  0.020523854            4 
 2081000   0.93500819    -7.927948    520.08202  0.020826607  0.020518248            3 
 2082000   0.93965895   -7.9068108    520.25773  0.020823636  0.020512682            3 
 2083000   0.91115198   -7.9005911    519.70571  0.020791555   0.02050711            3 
 2084000    0.9174335   -7.9018644    519.88038  0.020788563  0.020501462            2 
 2085000   0.89636417   -7.9183027    519.07916  0.020746569  0.020495784            3 
 2086000   0.88781069   -7.9140517    520.45194  0.020791465  0.020490065            1 
 2087000   0.89596198    -7.909242    520.22672  0.020772509  0.020484441            3 
 2088000   0.91074441   -7.9112368    520.72517  0.020782454  0.020478782            2 
 2089000   0.90995281    -7.875396    521.68195  0.020810673  0.020473171            1 
 2090000   0.90716441   -7.9068854    518.45013  0.020671855  0.020467526            1 
 2091000   0.90864506   -7.9428421    518.70187  0.020672002   0.02046185            2 
 2092000   0.91282899   -7.8777815    520.54332  0.020735473  0.020456171            5 
 2093000   0.94240921   -7.9101372    520.30733   0.02071617  0.020450454            2 
 2094000   0.91570389   -7.9604115    520.00501  0.020694246  0.020444735            1 
 2095000   0.90090706   -7.9160332    520.19472  0.020691914  0.020439063            2 
 2096000   0.91472331   -7.9345814    521.63659  0.020739368  0.020433393            2 
 2097000   0.90703444   -7.9036279    520.99305  0.020703904  0.020427723            2 
 2098000   0.90607306   -7.9622223     520.5551   0.02067664  0.020422061            6 
 2099000   0.91977569     -7.91924    521.71951  0.020713018  0.020416357            6 
 2100000   0.91426233   -7.9484152    520.36641  0.020649461  0.020410656            2 
 2101000   0.90224368   -7.9102999    521.70731  0.020692817  0.020404939            2 
 2102000    0.9341621   -7.9275321    520.90484  0.020651159   0.02039921            1 
 2103000   0.91818433   -7.9162232     521.8918  0.020680449  0.020393577            5 
 2104000   0.93282695    -7.945632    521.16512  0.020641838  0.020387884            5 
 2105000   0.91489165   -7.9428924    521.32845  0.020638498   0.02038218            1 
 2106000   0.90188647   -7.9258275    521.24774  0.020625504  0.020376508            1 
 2107000   0.91016917   -7.8874777    521.36524  0.020620362  0.020370806            3 
 2108000    0.9256798   -7.8975087    521.46048  0.020614345  0.020365152            2 
 2109000   0.93891167   -7.8891165    521.19977  0.020594269  0.020359468            1 
 2110000   0.90514085   -7.8713478    521.18115  0.020583774    0.0203538            2 
 2111000   0.92304343   -7.9440842    521.15845  0.020573127  0.020348053            1 
 2112000   0.92115381   -7.9210565    522.08664   0.02060001  0.020342316            1 
 2113000   0.92539522   -7.9319922    523.39326  0.020641791  0.020336589            2 
 2114000   0.91383902   -7.9328889    521.68891  0.020564842  0.020330815            2 
 2115000   0.90405335   -7.8942078    522.82675  0.020599951  0.020325069            5 
 2116000   0.90562856   -7.9396886    522.15405  0.020563723  0.020319372            3 
 2117000   0.93377045   -7.9147552    522.73715  0.020576962  0.020313672            2 
 2118000   0.91291854   -7.9233219    523.68444  0.020604518  0.020307956            3 
 2119000   0.92066393   -7.8982895    523.12639  0.020572849  0.020302293            3 
 2120000   0.90690922   -7.9067554    523.18462  0.020565433  0.020296646            3 
 2121000   0.90922393   -7.9000092    523.51405   0.02056868  0.020290906            5 
 2122000   0.92048943   -7.9168104    522.15515  0.020505622  0.020285181            2 
 2123000   0.92828432   -7.9102727    523.84673  0.020562362  0.020279504            3 
 2124000   0.91218602   -7.9120718    524.66425  0.020584755  0.020273857            3 
 2125000   0.90995216   -7.9482154    523.43076  0.020526697   0.02026822            1 
 2126000   0.91100676   -7.9398551    523.66027  0.020526037  0.020262484            2 
 2127000   0.88983006   -7.9079675    524.51872   0.02055002  0.020256801            3 
 2128000    0.9052718   -7.9351845    522.65905  0.020467538  0.020251081            5 
 2129000   0.89347672   -7.9469359    523.40352  0.020487064  0.020245371            1 
 2130000   0.92872308   -7.9606762    523.15792  0.020467837  0.020239672            2 
 2131000   0.88875229   -7.9521547     524.6214  0.020515462  0.020234006            4 
 2132000   0.90441423   -7.9116271    524.39347  0.020496931  0.020228361            1 
 2133000   0.91570961   -7.9175446    525.42285  0.020527538   0.02022275            9 
 2134000   0.91540538   -7.9250683    525.53649  0.020522356  0.020217118            8 
 2135000       0.9253   -7.9120321    525.84299  0.020524707  0.020211536            2 
 2136000   0.90411926   -7.9201515    526.06491  0.020523756   0.02020589            4 
 2137000   0.91403484   -7.9609852    526.05885  0.020513916  0.020200241            6 
 2138000   0.91778301   -7.9701028    524.69376  0.020451113  0.020194575            6 
 2139000   0.91303527   -7.9362831       525.36  0.020467508   0.02018896            3 
 2140000    0.9150867   -7.9271957    525.73219  0.020472437  0.020183287            1 
 2141000   0.91819076   -7.9455566    526.39629  0.020488724  0.020177667            1 
 2142000   0.93743898   -7.9354824     525.8498  0.020457897  0.020172117            2 
 2143000   0.90136649   -7.9093191    527.23765  0.020502319  0.020166526            2 
 2144000   0.91889266   -7.8997568    528.07065  0.020525134  0.020160929            3 
 2145000   0.91754711   -7.9253013    526.55793  0.020456796  0.020155347            2 
 2146000   0.90419163   -7.9409583    526.81291  0.020457165  0.020149769            2 
 2147000   0.89430606   -7.9457538    526.69368  0.020443009  0.020144167            6 
 2148000   0.89695738   -7.9349719    526.38468  0.020421504  0.020138514            5 
 2149000   0.91554277   -7.9375673    526.31006  0.020409107  0.020132988            2 
 2150000   0.91657751   -7.9368357    528.21572  0.020473477  0.020127445            2 
 2151000   0.89402477   -7.9479571    526.67897  0.020404423  0.020121869            4 
 2152000   0.89600615   -7.9611507    527.64014  0.020432161  0.020116287            3 
 2153000     0.926944   -7.9346027    529.51738  0.020495331  0.020110745            6 
 2154000   0.90444365   -7.9490042    527.50171  0.020407835  0.020105207            4 
 2155000   0.89381001   -7.9422565    528.44648  0.020434899  0.020099671            5 
 2156000   0.93398584    -7.947867    527.08354  0.020372741   0.02009414            3 
 2157000   0.90917858   -7.9557423    527.48609  0.020378848  0.020088611            1 
 2158000   0.87645628   -7.9748166    527.55763  0.020372167  0.020083018            1 
 2159000   0.89299871   -7.9338689    528.79719  0.020410576  0.020077408            2 
 2160000   0.91143407   -7.9485976    528.41753  0.020386479  0.020071841            4 
 2161000   0.89912856   -7.9163201    528.02827  0.020362034  0.020066309            4 
 2162000   0.90167042   -7.9319903    528.28354  0.020362455  0.020060775            3 
 2163000    0.9150644   -7.9831701    528.89899  0.020376752  0.020055238            1 
 2164000   0.90960522   -7.9673556    529.22377  0.020379843  0.020049688            2 
 2165000   0.90296902   -7.9595256    527.91886  0.020320202  0.020044107            4 
 2166000   0.89602182   -7.9464227    529.44539  0.020369552  0.020038555            1 
 2167000   0.88664944   -7.9447737    529.89737  0.020377533  0.020033101            3 
 2168000   0.90849413    -7.909842    529.83103  0.020365584  0.020027677            3 
 2169000   0.90514783   -7.9739742    529.09333  0.020327852  0.020022179            3 
 2170000   0.87658805   -7.9558635    530.11831  0.020357846  0.020016644            3 
 2171000   0.91906327   -7.9412405    529.77896  0.020335443  0.020011149            2 
 2172000   0.89580248   -7.9304969    529.54509  0.020317107  0.020005636            2 
 2173000   0.90456967   -7.9473785    528.81841   0.02027989  0.020000033            3 
 2174000   0.89080567   -7.9765381    528.11439  0.020243575  0.019994365            3 
 2175000   0.89274123   -7.9484313     529.8669  0.020301414  0.019988741            3 
 2176000   0.89958698   -7.9784101    527.29713  0.020193671  0.019983129            2 
 2177000   0.91195938   -7.9282968    529.18502  0.020256661  0.019977564            2 
 2178000   0.91475293   -7.9533081     530.2444  0.020287894  0.019971986            2 
 2179000   0.89490626   -7.9978658    527.88514  0.020188356  0.019966386            1 
 2180000     0.900711   -7.9753525    530.64856  0.020284731  0.019960719            2 
 2181000   0.90121445   -7.9407261    529.68246  0.020238517  0.019955106            2 
 2182000   0.89523613   -7.9173751    531.23695   0.02028861  0.019949549            3 
 2183000    0.8991501   -7.9456921    530.78826  0.020262187  0.019943985            6 
 2184000   0.90260375   -7.9554954     528.4876  0.020165125  0.019938342            2 
 2185000   0.90591636   -7.9431415     530.1122  0.020217857   0.01993273            2 
 2186000   0.92383336   -7.9709473    529.71375  0.020193418  0.019927106            3 
 2187000   0.89362874   -7.9127843    531.27395  0.020243635  0.019921457            3 
 2188000   0.91056762   -7.9541456    530.14723   0.02019147  0.019915847            1 
 2189000   0.89462963   -7.9398456    530.18408  0.020183649   0.01991023            3 
 2190000   0.89715871   -7.9623338    531.33507   0.02021823  0.019904663            3 
 2191000   0.91401737   -7.9577494    530.81401  0.020189184  0.019899111            3 
 2192000   0.90091182   -7.9590641    530.75381  0.020177684  0.019893498            2 
 2193000   0.89602903   -7.9619092    530.14715  0.020145431  0.019887896            2 
 2194000   0.92840684   -7.9306715    531.16925   0.02017507  0.019882265            1 
 2195000   0.90051086   -7.9600381    531.08174  0.020162557  0.019876697            1 
 2196000   0.89721228   -7.9595295    529.50643  0.020093595  0.019871077            5 
 2197000   0.91630984   -7.9478935    530.30421   0.02011471   0.01986548            3 
 2198000   0.89807908   -7.9745052    531.74166  0.020160057  0.019859886            3 
 2199000   0.90104297   -7.9409939    531.20317  0.020130482  0.019854313            2 
 2200000   0.92003932   -7.9835626    529.60601  0.020060834   0.01984871            1 
 2201000   0.90120093   -7.9498542    531.05136  0.020106443  0.019843048            3 
 2202000   0.90220801   -7.9988071       531.11  0.020099531  0.019837348            2 
 2203000   0.87834463   -7.9986001    531.04559   0.02008797  0.019831651            2 
 2204000   0.89207104   -7.9665756    531.24492  0.020086393  0.019825902            2 
 2205000   0.90327854   -7.9584859    531.29635  0.020079227  0.019820238            5 
 2206000   0.92824064   -7.9181273    532.49757  0.020115502  0.019814608            2 
 2207000    0.9061537   -7.9701831    532.00666  0.020087852  0.019809008            1 
 2208000   0.91076123   -7.9655884     533.8445  0.020148117   0.01980339            2 
 2209000   0.89023544   -7.9353026    532.92903   0.02010446  0.019797819            2 
 2210000   0.90491947   -7.9517978    532.82735  0.020091529  0.019792255            4 
 2211000   0.90692338   -7.9825891    531.87399   0.02004651  0.019786633            4 
 2212000   0.91828836   -7.9812034    532.97484   0.02007892  0.019781045            2 
 2213000    0.9007545   -7.9572135    533.48153  0.020088927  0.019775452            3 
 2214000   0.89964946   -7.9544666     533.1392  0.020066968  0.019769897            1 
 2215000   0.88613978   -7.9799038     532.3142   0.02002687  0.019764238            2 
 2216000    0.8894214   -8.0180713    533.42965  0.020059779  0.019758667            3 
 2217000   0.90835949   -8.0019757     532.8168  0.020027695  0.019753109            2 
 2218000   0.91478474   -7.9662482    533.20232   0.02003315  0.019747617            2 
 2219000   0.88467519   -7.9448545    533.36936  0.020030395  0.019742109            4 
 2220000    0.8865832   -7.9846481    533.62269  0.020030882  0.019736618            1 
 2221000    0.8984593   -7.9650057     534.5114  0.020055208  0.019731119            4 
 2222000   0.88471369   -7.9690958    533.71983  0.020016495  0.019725504            2 
 2223000   0.91241896   -7.9512864    533.32083  0.019992534  0.019719859            1 
 2224000   0.90408957   -7.9852513    533.40426   0.01998667  0.019714247            2 
 2225000   0.89355278   -7.9694848    533.45297  0.019979512  0.019708626            2 
 2226000   0.89029889   -7.9628232    533.47433  0.019971336  0.019703042            1 
 2227000   0.89315138   -7.9877338    531.76188  0.019898289  0.019697426            2 
 2228000    0.8847227   -7.9838305    534.14854  0.019978626  0.019691799            7 
 2229000   0.91431982   -7.9513537     534.4649   0.01998149  0.019686205            2 
 2230000   0.89507815   -7.9603797    533.52829  0.019937529  0.019680553            2 
 2231000    0.8870287   -7.9872955    533.33064   0.01992121   0.01967494            4 
 2232000   0.89039933    -7.974451     534.9652  0.019973312  0.019669297            2 
 2233000   0.89168278   -7.9646624    533.19472  0.019898295  0.019663686            4 
 2234000   0.89036746   -7.9773273    533.75678  0.019910355  0.019658054            3 
 2235000   0.90289819   -7.9749745    534.69988   0.01993661  0.019652433            2 
 2236000   0.91212301   -7.9808382    533.85571  0.019896233  0.019646788            3 
 2237000   0.90740766   -7.9718102    533.64921  0.019879646  0.019641188            4 
 2238000   0.91383058   -7.9650427    536.36292   0.01997181  0.019635517            2 
 2239000   0.90723656   -7.9768711    534.99882  0.019912119  0.019629915            3 
 2240000   0.88860644   -7.9791374    535.03261  0.019904487  0.019624306            1 
 2241000   0.88814932    -7.985108     535.7747    0.0199232  0.019618689            1 
 2242000   0.87929872   -8.0424118    534.07584  0.019851169  0.019613022            7 
 2243000   0.89496268    -7.995844     534.6231  0.019862651  0.019607408            2 
 2244000   0.91953532   -7.9768693    537.08804  0.019945337  0.019601812            3 
 2245000   0.88188368   -7.9791076    535.64231  0.019882788  0.019596208            3 
 2246000   0.89268618    -7.992898    533.34861  0.019788832  0.019590575            2 
 2247000   0.90188477   -8.0306953    535.41638  0.019856712   0.01958493            4 
 2248000   0.87005267   -7.9670154    536.54138  0.019889582  0.019579356            2 
 2249000   0.89078396   -7.9969145    535.82847  0.019854323   0.01957378            1 
 2250000   0.88056353   -8.0251683    534.21129  0.019785603  0.019568148            2 
 2251000   0.88923366   -7.9998012    536.33252  0.019855343  0.019562527            3 
 2252000   0.90761964   -7.9864318    536.14317  0.019839519  0.019556915            7 
 2253000   0.88494162   -7.9893553    536.12408  0.019830007  0.019551322            4 
 2254000   0.89163235   -8.0070392    536.11528  0.019820884   0.01954571            1 
 2255000   0.89440302   -7.9719618    535.53118  0.019790509  0.019540075            3 
 2256000   0.89887786    -7.982182    536.60462  0.019821388  0.019534483            5 
 2257000   0.89159828   -7.9977625    536.71296  0.019816606   0.01952886            3 
 2258000   0.89223408   -8.0169482    536.16985  0.019787786  0.019523272            2 
 2259000   0.89794233   -7.9689912    537.32243  0.019821545  0.019517693            2 
 2260000   0.89639246   -8.0032283    537.47175   0.01981828  0.019512123            3 
 2261000   0.88045417   -7.9863092    537.15142  0.019797708  0.019506529            2 
 2262000   0.88892344   -7.9861622    537.14027  0.019788545   0.01950097            2 
 2263000    0.8991854   -7.9864889    537.29133  0.019785364  0.019495384            6 
 2264000   0.90003662   -7.9772319    537.31439  0.019777473  0.019489846            4 
 2265000   0.88717848   -7.9903712     538.7752  0.019822487  0.019484346            3 
 2266000   0.88276971   -7.9601281    537.37166  0.019762124  0.019478837            4 
 2267000   0.88164369   -7.9461905    539.82154  0.019843462  0.019473387            3 
 2268000   0.90836537   -7.9895152    536.44906  0.019710797  0.019467898            2 
 2269000   0.87896336   -7.9906733    536.60961  0.019708007  0.019462334            3 
 2270000   0.87321174   -7.9915407    536.78999  0.019705947  0.019456705            1 
 2271000   0.90695296   -7.9948693    537.59347  0.019726753  0.019451088            3 
 2272000   0.88226887   -8.0140707    536.61708  0.019682258  0.019445422            3 
 2273000   0.89151776   -8.0183725     537.1771   0.01969413  0.019439706            2 
 2274000   0.88436297   -8.0109796    536.03508  0.019643619  0.019433979            2 
 2275000   0.89945849    -8.032041    536.16728  0.019639827  0.019428261            2 
 2276000   0.87592721   -8.0072934    536.68616  0.019650196  0.019422565            2 
 2277000   0.89262396   -7.9937609      536.897  0.019649283  0.019416871            2 
 2278000   0.86406522   -7.9882809    537.60862  0.019666689  0.019411188            3 
 2279000   0.90498546   -8.0160088    537.39831   0.01965037  0.019405498            1 
 2280000   0.89594425   -8.0175983    536.80654  0.019620122  0.019399856            2 
 2281000   0.87918665   -8.0369826     536.3434    0.0195946  0.019394216            6 
 2282000   0.86471147   -8.0002809    537.80297  0.019639314  0.019388476            3 
 2283000   0.88624698   -8.0175345      535.609  0.019550628  0.019382721            3 
 2284000   0.89304836   -8.0006692    536.46986  0.019573477     0.019377            3 
 2285000    0.8647573   -8.0133083    538.06974  0.019623258  0.019371277            3 
 2286000   0.87172246   -7.9938203    537.83372   0.01960607  0.019365565            1 
 2287000   0.88920767   -8.0204285     537.7209  0.019593386  0.019359873            1 
 2288000   0.88446835   -8.0082329    537.49655  0.019576652  0.019354193            2 
 2289000      0.89286   -8.0010565    537.98865  0.019586015  0.019348544            4 
 2290000   0.91437545    -7.981718    539.66269   0.01963838  0.019342871            3 
 2291000   0.89745646   -7.9770179    538.81334  0.019598914  0.019337199            1 
 2292000   0.88904496   -8.0044654    537.40542  0.019539173  0.019331541            4 
 2293000   0.88532539   -7.9841155    539.89787  0.019621234  0.019325876            2 
 2294000   0.87500543   -7.9833377    539.17168  0.019586301  0.019320231            1 
 2295000   0.87812935   -7.9869542    539.64449  0.019594934  0.019314596            1 
 2296000   0.89222922   -7.9861988    538.67091  0.019551064  0.019308957            1 
 2297000   0.89732837   -8.0121409     538.9494  0.019552656  0.019303267            2 
 2298000   0.89307759   -7.9728832    539.91924  0.019579317  0.019297569            2 
 2299000   0.88125974   -7.9636861     540.6252   0.01959639  0.019291895            3 
 2300000   0.88486336   -8.0248109    539.71766  0.019554988  0.019286201            4 
 2301000   0.89910367   -8.0190562     536.8999  0.019444441  0.019280513            3 
 2302000   0.88450553   -7.9932155    539.58092  0.019533048  0.019274821            1 
 2303000   0.88775716   -7.9911484    540.21344  0.019547454  0.019269106            3 
 2304000   0.89665783   -8.0347677    537.54596   0.01944249  0.019263372            2 
 2305000   0.89504027   -8.0228105    540.24429  0.019531608  0.019257566            6 
 2306000   0.86713073   -8.0225943    538.64003  0.019465164  0.019251811            1 
 2307000   0.90610186    -8.025772    538.02345  0.019434455  0.019246049            1 
 2308000   0.85620179   -8.0310644    539.20998  0.019468876  0.019240235            3 
 2309000   0.85646063    -8.022771    539.44302  0.019468855  0.019234445            2 
 2310000   0.88301635   -7.9939655    540.84826  0.019511121  0.019228714            2 
 2311000   0.88580385   -8.0104794    539.18998  0.019442881  0.019222993            2 
 2312000   0.87295794   -7.9888478    540.07918  0.019466522  0.019217319            2 
 2313000   0.87438016   -7.9952122    540.12194  0.019459646   0.01921161            3 
 2314000   0.88149371   -8.0403473    540.78062  0.019474958  0.019205959            2 
 2315000   0.90335057   -8.0084104    538.60744  0.019388317  0.019200257            6 
 2316000   0.88347756   -8.0009312    540.48594  0.019447537   0.01919453            7 
 2317000   0.87887402   -7.9806459    540.95509  0.019456017  0.019188819            3 
 2318000   0.86475342   -7.9984563     540.2619  0.019422703  0.019183064            3 
 2319000   0.89410632   -8.0213612    539.98022  0.019404205  0.019177335            5 
 2320000   0.89792307   -8.0442936    538.45826  0.019341173  0.019171569            2 
 2321000   0.86902695   -7.9943152    540.98629  0.019423607  0.019165826            3 
 2322000   0.87313776   -8.0122235    540.54635  0.019399453  0.019160066            2 
 2323000   0.86769432      -8.0347     539.2951  0.019346216  0.019154282            2 
 2324000   0.87432325   -7.9876209    541.47984  0.019416231  0.019148518            4 
 2325000   0.88241258   -8.0064536    540.40067    0.0193692  0.019142793            2 
 2326000   0.85150862   -8.0197715    539.55253  0.019330486  0.019137043            1 
 2327000    0.8830531   -8.0157641    540.36752  0.019351365   0.01913129            1 
 2328000   0.85777366   -8.0462237    539.81333  0.019323215  0.019125564            1 
 2329000   0.88529585   -8.0151882    541.49883  0.019375227  0.019119803            2 
 2330000   0.88608866   -8.0545027    541.17496  0.019355328  0.019114092            2 
 2331000   0.89619236   -8.0139654    540.56742  0.019325305  0.019108294            1 
 2332000   0.86879792   -8.0395393    539.86116   0.01929178   0.01910251            2 
 2333000   0.87617503   -8.0413621    538.94879  0.019250921  0.019096737            2 
 2334000   0.86785609   -8.0258492    539.49919  0.019262325  0.019090969            2 
 2335000   0.87997425   -8.0135161    541.24659  0.019316438  0.019085256            2 
 2336000   0.86903113    -8.032912    540.08741  0.019266817  0.019079507            4 
 2337000   0.87783544   -8.0569745    540.89537  0.019287383  0.019073754            2 
 2338000     0.877001   -8.0507854    541.29429  0.019293352  0.019067974            2 
 2339000   0.87119416   -8.0451599    541.17563  0.019280876  0.019062185            2 
 2340000   0.91195518   -8.0459308    541.29143   0.01927676  0.019056418            3 
 2341000    0.8769706   -8.0071313    543.03765  0.019330687  0.019050701            2 
 2342000   0.86186048   -8.0626379    541.21863  0.019257708  0.019044977            2 
 2343000   0.87267341   -8.0451229    541.28055  0.019251691  0.019039211            2 
 2344000   0.87092564   -8.0050791    541.17991    0.0192399  0.019033524            1 
 2345000   0.89719951   -8.0556389    542.36285  0.019273733  0.019027853            2 
 2346000   0.87964754   -8.0225564    543.20719   0.01929551  0.019022163            2 
 2347000    0.8922077   -8.0406165    543.26161  0.019289221  0.019016537            3 
 2348000    0.8891073   -7.9998821    544.98634  0.019342218  0.019010893            2 
 2349000   0.86252692   -8.0394542    542.46678    0.0192446  0.019005228            2 
 2350000    0.8623533   -8.0367693    542.47632  0.019236749  0.018999567            6 
 2351000   0.86376026    -8.045993    542.41122  0.019226259  0.018993921            2 
 2352000   0.90911899   -8.0365169    543.06062  0.019241093  0.018988304            2 
 2353000   0.88625011   -8.0353842    543.64788  0.019253715  0.018982705            1 
 2354000   0.88331669   -8.0799941    542.45745  0.019203393  0.018977064            1 
 2355000   0.87412251   -8.0254537    544.25791  0.019258949   0.01897144            2 
 2356000   0.89291208   -8.0837253    542.71869  0.019196332  0.018965789            4 
 2357000   0.87279084   -8.0728659    542.75387  0.019189431  0.018960115            2 
 2358000   0.89203753   -8.0649371     542.4211  0.019169533  0.018954504            1 
 2359000   0.86158597   -8.0517396    543.59694  0.019202944  0.018948881            7 
 2360000   0.87181949   -8.0385723    544.03182  0.019210163  0.018943237            2 
 2361000   0.87256848   -8.0022539    545.26088  0.019245407  0.018937638            1 
 2362000   0.86687118   -8.0356456     543.9797  0.019192058  0.018931994            1 
 2363000   0.87085729   -8.0505661    543.87059  0.019180088  0.018926358            3 
 2364000   0.86231257   -8.0616944    543.90558  0.019173208  0.018920695            4 
 2365000   0.86114865   -8.0603745    544.64288  0.019191081  0.018915039            1 
 2366000    0.8911958   -8.0360229    544.48614  0.019177449   0.01890939            3 
 2367000   0.85991183   -8.0626286    543.82997  0.019146246  0.018903778            6 
 2368000   0.86704307   -8.0759426    545.10143  0.019182905  0.018898153            2 
 2369000   0.86721051   -8.0930061    543.72407  0.019126357  0.018892485            3 
 2370000   0.88282078   -8.0495901    545.29701  0.019173594  0.018886885            2 
 2371000   0.86521452   -8.0533416    544.81309  0.019148499  0.018881267            4 
 2372000   0.88650042   -8.0335081    545.57198  0.019167088  0.018875708            2 
 2373000   0.86963401   -8.0342682    545.01895  0.019139589  0.018870133            7 
 2374000   0.88937288   -8.0441754    544.08731  0.019098824  0.018864494            2 
 2375000   0.85536158   -8.0607253    543.72416  0.019078041  0.018858822            1 
 2376000   0.86978808   -8.0622409    543.50389  0.019062286  0.018853176            2 
 2377000   0.88717151   -8.0616492    545.00067  0.019106741  0.018847493            1 
 2378000   0.86881309   -8.0375775    544.60821  0.019084953   0.01884181            2 
 2379000   0.89587319   -8.0734292    544.91586  0.019087707  0.018836167            2 
 2380000   0.86458156   -8.0489242    546.08522  0.019120631  0.018830523            1 
 2381000   0.87147962   -8.0752459    545.25833   0.01908366    0.0188249            1 
 2382000   0.87556789   -8.0554002    544.69106  0.019055803  0.018819251            5 
 2383000   0.85382646   -8.0678076    543.52155  0.019006908  0.018813592            2 
 2384000   0.88774765   -8.0512166    544.91251  0.019047557  0.018807943            2 
 2385000   0.86160221   -8.0474544    546.34817  0.019089733  0.018802273            2 
 2386000   0.88246058   -8.0630961    544.92218  0.019031929   0.01879662            3 
 2387000    0.8599337    -8.088344    544.36181  0.019004392  0.018790946            3 
 2388000   0.86306833    -8.042997    543.92864  0.018981318  0.018785261            3 
 2389000   0.87550212   -8.0577202    545.67902  0.019034429  0.018779584            5 
 2390000   0.87429761   -8.0093001    545.83516  0.019031909  0.018773943            2 
 2391000   0.87537195   -8.0395674    546.12637  0.019034099  0.018768232            4 
 2392000   0.89401801   -8.0438928    546.32284  0.019032986  0.018762539            3 
 2393000   0.86086671   -8.0626853    544.28025  0.018953902  0.018756862            1 
 2394000   0.85955035   -8.0619361    545.21483  0.018978517  0.018751199            1 
 2395000   0.86304117   -8.0193532    546.16594  0.019003686  0.018745575            4 
 2396000   0.85887187   -8.0180322    548.30758  0.019070241  0.018740004            4 
 2397000   0.86088624   -8.0500648    545.32282  0.018958518  0.018734398            2 
 2398000   0.86129619   -8.0317177    546.80857  0.019002244  0.018728728            4 
 2399000   0.86567057   -8.0556877    545.67588  0.018954977  0.018723073            2 
 2400000   0.86266989   -8.0655037    545.41246  0.018937933  0.018717426            1 
 2401000   0.86539111   -8.0183591    546.83598  0.018979452  0.018711798            2 
 2402000   0.87464896   -8.0246022    547.28634  0.018987175  0.018706164            3 
 2403000   0.86512595    -8.064237    545.77056  0.018926708  0.018700539            2 
 2404000   0.87706501    -8.013124    546.14218  0.018931717  0.018694887            1 
 2405000   0.85555007   -8.0760006    546.68593  0.018942686  0.018689211            2 
 2406000   0.86029929    -8.032733    547.79514  0.018973232  0.018683543            2 
 2407000   0.87074215   -8.0372133    547.27107  0.018947205  0.018677896            6 
 2408000   0.86451465    -8.044489    547.78729  0.018957201  0.018672239            6 
 2409000   0.86340426   -8.0511205    547.98243  0.018956082  0.018666571            6 
 2410000   0.86107162   -8.0564436      547.043  0.018915733   0.01866096            3 
 2411000    0.8666306   -8.0395701    548.47201   0.01895728  0.018655342            3 
 2412000   0.86319049   -8.0285572    546.58761  0.018884315  0.018649759            2 
 2413000   0.87838807   -8.0070138     548.1228  0.018929507  0.018644178            2 
 2414000   0.87242592   -8.0515653    547.15102  0.018888119   0.01863855            1 
 2415000   0.86341492   -8.0252863    548.08402  0.018912492  0.018632918            4 
 2416000   0.85344893   -8.0262223    547.43848  0.018882398  0.018627275            1 
 2417000   0.88426375   -8.0613191    547.57308  0.018879226  0.018621661            2 
 2418000   0.86635043   -8.0323515    547.82792  0.018880201  0.018616035            3 
 2419000   0.85459246   -8.0210702    546.97948  0.018843168  0.018610373            1 
 2420000   0.87780074    -8.069155    546.48803  0.018818458  0.018604683            2 
 2421000   0.83586531   -8.0514017    546.10382  0.018797461  0.018598985            3 
 2422000   0.85325344   -8.0434295    548.05843  0.018856951  0.018593338            4 
 2423000   0.87059862   -8.0519528    548.90378  0.018878243  0.018587729            2 
 2424000   0.85325852   -8.0260175    549.60792  0.018894662  0.018582091            4 
 2425000   0.86940136   -8.0468098    546.03247  0.018764002  0.018576378            3 
 2426000   0.84960169   -8.0375704    547.99279  0.018823605  0.018570737            4 
 2427000   0.86173337   -8.0709158     546.9548  0.018780209  0.018565049            4 
 2428000   0.85995268   -8.0579808    547.97019  0.018807324  0.018559356            6 
 2429000   0.87579485   -8.0506515     548.2776  0.018810128  0.018553689            3 
 2430000   0.85440592   -8.0686348    548.56063  0.018812093  0.018547987            1 
 2431000   0.86962955   -8.0544626    549.48687  0.018836106  0.018542283            3 
 2432000   0.85262475   -8.0548007    548.28528  0.018787188  0.018536581            2 
 2433000   0.86702914   -8.0519366    547.99972  0.018769685  0.018530885            3 
 2434000   0.84215095   -8.0694403    547.57399  0.018747398  0.018525207            2 
 2435000   0.86991342   -8.0609797    548.53869  0.018772714  0.018519528            3 
 2436000   0.87087998    -8.060302    548.54073  0.018765077  0.018513852            3 
 2437000   0.84940034   -8.0595016    548.52311  0.018756774  0.018508225            6 
 2438000   0.87112192   -8.0827501     546.7229  0.018687548   0.01850258            3 
 2439000   0.85488497   -8.0458057    548.76512  0.018749662  0.018496899            3 
 2440000   0.85671812   -8.0430652    548.02719  0.018716776  0.018491214            3 
 2441000   0.88581548   -8.0607046    548.56516  0.018727474  0.018485538            4 
 2442000   0.85880018   -8.0685798    549.36009  0.018746932  0.018479854            3 
 2443000   0.84844126   -8.0737164     546.9462  0.018656918  0.018474145            4 
 2444000   0.85655567   -8.0957428    547.63683  0.018672832  0.018468459            3 
 2445000   0.84863597   -8.0669352    548.97441  0.018710784  0.018462762            5 
 2446000   0.86289355   -8.0864037    549.40812  0.018717911  0.018457071            5 
 2447000   0.87228695   -8.0957782    548.89864  0.018692911  0.018451368            1 
 2448000   0.85826174   -8.0744405    548.98819  0.018688324  0.018445701            1 
 2449000   0.86512446   -8.0825606    549.17565  0.018687071  0.018440078            3 
 2450000   0.85959533   -8.1047715    548.40428  0.018653207  0.018434443            4 
 2451000   0.85281191    -8.055276    550.55764   0.01871881  0.018428822            4 
 2452000   0.84301171   -8.0745971    551.52647  0.018744102  0.018423218            2 
 2453000   0.84903103   -8.0713719    550.67162   0.01870742  0.018417668            2 
 2454000   0.86735946   -8.0789041    549.63307   0.01866453  0.018412139            2 
 2455000   0.84484536   -8.0695069    551.05703  0.018705262  0.018406574            2 
 2456000   0.85880095   -8.0586776    550.91899  0.018692962  0.018401028            1 
 2457000   0.85480855   -8.0412639    551.73578  0.018713057  0.018395517            3 
 2458000   0.86477774   -8.0566098    550.98719  0.018680065  0.018389986            2 
 2459000   0.86188474   -8.0475918    551.45997   0.01868849  0.018384477            1 
 2460000   0.85702089   -8.0784659    551.38809  0.018678458  0.018378953            6 
 2461000   0.85618289   -8.0986508    550.30941  0.018634343  0.018373447            4 
 2462000   0.84879687   -8.0871423    551.02865  0.018651119  0.018367918            1 
 2463000   0.87782361   -8.0822549    549.55263  0.018593606  0.018362386            3 
 2464000   0.85552312   -8.0654287    550.96214   0.01863373  0.018356861            3 
 2465000   0.86261602   -8.1085722    550.46349  0.018609313  0.018351322            3 
 2466000   0.84814997   -8.0829457    550.89234  0.018616259  0.018345753            4 
 2467000   0.85045056   -8.0863259    551.90487  0.018642915  0.018340208            8 
 2468000   0.84837748   -8.0898511    550.88383  0.018600886  0.018334597            2 
 2469000   0.85774102   -8.0876116    551.17878  0.018603307  0.018329007            2 
 2470000   0.84687523   -8.1035542    551.02666  0.018590643  0.018323422            3 
 2471000   0.86053122   -8.0723013    553.56815   0.01866883  0.018317891            2 
 2472000     0.863415   -8.0749615    552.17889  0.018614445  0.018312353            2 
 2473000   0.86088625   -8.0581368    552.38208  0.018613765  0.018306827            1 
 2474000   0.84429251   -8.0857489    552.52043  0.018610901  0.018301266            2 
 2475000   0.86332404   -8.0386314    552.98095  0.018618887  0.018295749            2 
 2476000   0.85279562   -8.0945437    551.11842  0.018548681  0.018290228            2 
 2477000    0.8393557   -8.1060122    551.92479  0.018568321  0.018284697            1 
 2478000    0.8669691   -8.0757667    552.70144  0.018586946  0.018279146            2 
 2479000   0.84735454   -8.0900678    552.53694  0.018573919  0.018273637            2 
 2480000   0.88188427   -8.0901377    553.18201  0.018588105  0.018268155            3 
 2481000   0.84268464   -8.0930139     552.4267  0.018555243   0.01826266            3 
 2482000    0.8627663   -8.0744474    552.66673  0.018555826   0.01825715            3 
 2483000   0.84312225   -8.0771067    551.75325  0.018517695  0.018251642            1 
 2484000   0.84798675   -8.0628826    552.36287  0.018530692  0.018246156            2 
 2485000   0.85449968   -8.1043683    552.11084  0.018514783   0.01824057            2 
 2486000   0.85490406   -8.1155643    551.65381  0.018492016  0.018234988            2 
 2487000   0.85192746   -8.0976472    552.66471  0.018518453  0.018229439            1 
 2488000   0.83963772   -8.0906195    553.01103   0.01852261  0.018223918            2 
 2489000   0.87405317   -8.0649376    553.04575   0.01851633  0.018218417            1 
 2490000   0.85761003   -8.0808775    552.64423  0.018495456  0.018212926            2 
 2491000   0.86732447   -8.0635877    552.87784  0.018495846  0.018207392            3 
 2492000   0.87125122   -8.0893229    553.70409  0.018516054  0.018201867            1 
 2493000    0.8661648   -8.0860276    552.94563  0.018483274  0.018196367            5 
 2494000   0.85054937   -8.0945408    553.33277  0.018488799  0.018190841            2 
 2495000   0.84882468   -8.0763632    554.72392  0.018527853  0.018185331            4 
 2496000   0.85285604   -8.0862026    551.66614  0.018418341  0.018179776            2 
 2497000   0.86050103   -8.0783759    553.10939  0.018459131  0.018174227            4 
 2498000   0.84410603   -8.0865957    553.45362  0.018463225  0.018168663            3 
 2499000   0.85486257   -8.0915252    553.28714  0.018450285  0.018163069            1 
 2500000   0.83685811   -8.1120738    552.83735  0.018427912  0.018157492            2 
 2501000   0.85755694   -8.0885221    554.82473  0.018486763  0.018151953            5 
 2502000   0.86421922   -8.0758418    554.11145  0.018455617  0.018146456            3 
 2503000   0.85448856   -8.0828784    554.61357  0.018464961  0.018140952            3 
 2504000   0.86777428   -8.0939428    553.62878  0.018424813  0.018135395            1 
 2505000   0.87876624   -8.1264452     553.8972  0.018426387  0.018129838            1 
 2506000   0.84228007    -8.091052    555.49882  0.018472294  0.018124294            2 
 2507000   0.83656471    -8.128999    554.00061  0.018415125   0.01811877            1 
 2508000   0.85309056   -8.0739772    555.49073  0.018457294  0.018113257            2 
 2509000   0.83562439   -8.1259852    553.44811  0.018382095  0.018107732            2 
 2510000   0.87059145   -8.1153007    553.71265  0.018383554  0.018102161            2 
 2511000   0.85847682   -8.1279686    553.10056  0.018355919  0.018096613            6 
 2512000   0.84217769   -8.1129228    554.79219   0.01840473  0.018091059            3 
 2513000   0.84576956    -8.123444    552.67972  0.018327355  0.018085472            2 
 2514000   0.86087991   -8.1243732    553.66586  0.018352753  0.018079918            2 
 2515000   0.86021704   -8.1166897    553.97314  0.018355638  0.018074366            2 
 2516000   0.84468483   -8.0871463     554.9739  0.018381489  0.018068779            2 
 2517000   0.84719204   -8.0939494    554.31851  0.018352487  0.018063222            2 
 2518000   0.85047062   -8.1012554    554.37022   0.01834691  0.018057683            2 
 2519000   0.86892324   -8.0910188    555.21908  0.018367708  0.018052166            2 
 2520000   0.84116711   -8.0959708    555.85834  0.018381559  0.018046658            2 
 2521000    0.8457091   -8.0811071     555.2712  0.018354859  0.018041181            3 
 2522000   0.86234216   -8.1055317     555.2405  0.018346567  0.018035683            2 
 2523000   0.85248667   -8.1367631    554.49462  0.018314659  0.018030163            2 
 2524000   0.86032407   -8.0983398     554.9868  0.018323653  0.018024619            3 
 2525000   0.81407331   -8.0962678    555.37444  0.018329189  0.018019094            2 
 2526000   0.85012635   -8.0991431    552.80016  0.018237007  0.018013568            3 
 2527000   0.83029688   -8.0754775    555.08937  0.018305282  0.018008059            1 
 2528000   0.85152414   -8.1153363    554.68093  0.018284577  0.018002501            7 
 2529000   0.84965049   -8.1263709    555.42009  0.018301703  0.017996957            2 
 2530000   0.85118388   -8.1030143    556.17043  0.018319184   0.01799143            4 
 2531000   0.85046595   -8.0897966    555.93253  0.018304113   0.01798591            5 
 2532000   0.84391951   -8.1124172    554.41176  0.018246833  0.017980372            1 
 2533000   0.84986615   -8.0742953    554.72782  0.018250027  0.017974876            8 
 2534000   0.82603675   -8.1272842    555.04681  0.018253315  0.017969374            2 
 2535000    0.8330021    -8.111746    557.04748  0.018311883  0.017963897            4 
 2536000   0.84488059    -8.104799    556.92449  0.018300621   0.01795841            3 
 2537000   0.84680662   -8.0856145     554.9061  0.018227109  0.017952892            4 
 2538000   0.85056919   -8.1250337    554.80626  0.018216649   0.01794737            2 
 2539000   0.84980059   -8.1004419    555.73106  0.018239827  0.017941865            6 
 2540000   0.83544726   -8.1276191    554.12562  0.018179975  0.017936378            4 
 2541000   0.83550164   -8.1039126    556.16237  0.018239616  0.017930891            1 
 2542000   0.84870833   -8.1262202    555.65263   0.01821573  0.017925357            5 
 2543000   0.86306827   -8.1021876    555.83701  0.018214609  0.017919874            5 
 2544000   0.84602184   -8.1081084     556.0372  0.018214007  0.017914368            7 
 2545000   0.85613683   -8.1189216    557.13044  0.018242647  0.017908922            3 
 2546000    0.8459905   -8.0886007     556.6739  0.018220539  0.017903472            2 
 2547000   0.83440708   -8.0908484    558.01722  0.018257336  0.017898016            4 
 2548000   0.83702809   -8.1177409    556.37839  0.018196572  0.017892533            2 
 2549000   0.84206879   -8.0983685    555.46167  0.018159464  0.017887074            2 
 2550000   0.84853975   -8.0981148    556.75755  0.018194691  0.017881605            2 
 2551000   0.82962902   -8.0971599    558.17938  0.018234006  0.017876127            3 
 2552000   0.83874545    -8.056687    558.22839  0.018228461   0.01787067            4 
 2553000   0.81988235   -8.1237338    557.13454  0.018185616  0.017865207            2 
 2554000   0.83795924    -8.134928    554.50431  0.018092675  0.017859722            5 
 2555000   0.83061286   -8.1169021    557.16264  0.018172297  0.017854232            2 
 2556000   0.84096883   -8.1079193    556.66251  0.018148882  0.017848781            3 
 2557000   0.84073131   -8.1045343    556.74857  0.018144589  0.017843312            3 
 2558000   0.82052976   -8.1504364    555.06744  0.018082729  0.017837805            1 
 2559000   0.84272499   -8.1365867      557.121  0.018142536  0.017832314            3 
 2560000   0.85398549   -8.1527409    556.04564  0.018100444  0.017826822            2 
 2561000   0.84635155   -8.1499134    556.84972  0.018119541  0.017821335            3 
 2562000   0.85228749   -8.1258804    557.24717  0.018125396  0.017815833            2 
 2563000   0.84876472   -8.1299135    555.70428  0.018068158  0.017810339            3 
 2564000   0.83820472   -8.1357177    558.00547  0.018135903  0.017804848            2 
 2565000   0.83531902   -8.1419647    554.94541  0.018029416  0.017799365            2 
 2566000   0.83804666   -8.1165946    557.12989  0.018093332  0.017793843            1 
 2567000   0.84982256   -8.0822926     557.5285  0.018099224  0.017788346            3 
 2568000    0.8492565   -8.1409776    556.25296  0.018050784  0.017782867            2 
 2569000   0.85167346   -8.1355772    558.68192  0.018122548  0.017777399            2 
 2570000   0.82996503   -8.1622703    556.45444   0.01804327  0.017771895            4 
 2571000   0.82668444   -8.1125193    558.28362  0.018095541  0.017766385            2 
 2572000   0.82938608   -8.1218477    557.60412  0.018066489  0.017760884            3 
 2573000   0.83233267   -8.1406453    557.40885  0.018053143  0.017755371            3 
 2574000   0.82592258   -8.1515801    557.04105  0.018034222  0.017749887            3 
 2575000   0.83709632   -8.1409856    558.06405  0.018060325  0.017744431            1 
 2576000   0.83068486   -8.1463287    557.45334  0.018033558  0.017738968            2 
 2577000    0.8266107   -8.1416876    557.87732   0.01804027   0.01773351            4 
 2578000    0.8432583   -8.1495259    557.49242  0.018020831  0.017728053            1 
 2579000    0.8440764   -8.1472389    558.43222   0.01804421  0.017722576            2 
 2580000   0.84866304   -8.1258819    559.11467  0.018059259   0.01771712            1 
 2581000   0.85601777   -8.0995013    559.13571  0.018052942  0.017711662            2 
 2582000   0.84901681    -8.144126    558.53868  0.018026681  0.017706197            4 
 2583000   0.84885239   -8.1738118    557.02144  0.017970752  0.017700732            1 
 2584000   0.85117497   -8.1148902    558.30896   0.01800532  0.017695272            2 
 2585000   0.82518648   -8.1182603    557.70677  0.017978942  0.017689811            2 
 2586000   0.83591172   -8.1476757    558.96043  0.018012388  0.017684356            3 
 2587000   0.83981149   -8.1387364    558.48899  0.017990239  0.017678884            2 
 2588000    0.8281631   -8.1516528    557.99481  0.017967376  0.017673402            2 
 2589000   0.82079826   -8.1249497    557.06991  0.017930665  0.017667883            1 
 2590000   0.84240553   -8.1763904    558.55366  0.017971482  0.017662369            2 
 2591000   0.85129124   -8.1744177    557.75479  0.017938852  0.017656839            2 
 2592000   0.83870983   -8.1465336    557.52896  0.017924671   0.01765132            2 
 2593000   0.85612435   -8.1441598    557.39353  0.017913406  0.017645796            3 
 2594000   0.85311741   -8.1791169    558.69703  0.017948376  0.017640256           11 
 2595000   0.83594576   -8.1542551    557.87779  0.017915151  0.017634763            1 
 2596000   0.82898038   -8.1473967    559.51309  0.017960744  0.017629283            2 
 2597000   0.85050239   -8.1300391    559.22572  0.017944606    0.0176238            5 
 2598000   0.85447709   -8.1441114     559.6136  0.017950141  0.017618321            2 
 2599000   0.84251412   -8.1447041    557.55492  0.017877226  0.017612818            2 
 2600000   0.82555979   -8.1320564    558.38119  0.017896833  0.017607315            1 
 2601000   0.83932198   -8.1207007    558.63855  0.017898198   0.01760181            3 
 2602000   0.83153436   -8.1169805     559.8831  0.017931178  0.017596335            2 
 2603000   0.83928888   -8.1668475    558.73014  0.017887378  0.017590849            4 
 2604000   0.80295025   -8.1422598    557.91864  0.017854539  0.017585377            2 
 2605000   0.81835659    -8.150833    558.60605  0.017869675   0.01757988            4 
 2606000   0.84058796   -8.1499558    558.22965  0.017850782  0.017574363            2 
 2607000   0.82441616   -8.1622194    558.67359  0.017858125  0.017568885            2 
 2608000   0.84624621   -8.1553969    558.81193  0.017855698  0.017563373            2 
 2609000   0.83946593   -8.1621816     559.0043  0.017854999  0.017557871            2 
 2610000   0.82725116   -8.1581821     559.7175  0.017870929  0.017552349            3 
 2611000   0.83830777   -8.1357211     558.8724  0.017837112  0.017546829            1 
 2612000   0.81232431   -8.1297472    559.08772  0.017837153  0.017541323            2 
 2613000   0.84421372     -8.14752    559.71364  0.017850288  0.017535834            1 
 2614000   0.84423984   -8.1519235    560.11749  0.017856334  0.017530344            2 
 2615000   0.82356738   -8.1606471    558.32699  0.017792447  0.017524829            5 
 2616000   0.85312338   -8.1528647    558.97849  0.017806399  0.017519295            2 
 2617000   0.84083946   -8.1292194    559.73285  0.017823616  0.017513773            2 
 2618000   0.85012006     -8.15701     558.3567  0.017773004  0.017508249            3 
 2619000   0.84195118   -8.1209122    559.96549  0.017817408  0.017502728            3 
 2620000   0.83438455   -8.1518271    559.81454  0.017805806   0.01749724            2 
 2621000   0.82051373   -8.1693399    559.52646  0.017789853   0.01749174            1 
 2622000   0.82590518   -8.1463284     559.7205  0.017789235  0.017486255            1 
 2623000   0.84021631   -8.1165093    560.34599  0.017802325  0.017480807            2 
 2624000   0.80060635   -8.1520817     559.4299  0.017766447   0.01747536            3 
 2625000   0.82727304   -8.1500711    558.54428  0.017731564  0.017469931            1 
 2626000   0.83342766      -8.1309    559.85263  0.017766331  0.017464504            4 
 2627000   0.84014861   -8.1263968    561.06009  0.017797871  0.017459056            1 
 2628000   0.82816152   -8.1406012    559.50382   0.01774175  0.017453611            2 
 2629000   0.83252298   -8.1517782    560.25534  0.017758823  0.017448161            4 
 2630000   0.82360329   -8.1423118    560.38591  0.017756207  0.017442708            2 
 2631000   0.82667801   -8.1554387    560.23378   0.01774464  0.017437243            3 
 2632000   0.81879261   -8.1255773    560.24569  0.017738275   0.01743178            1 
 2633000   0.83157471    -8.125858    560.25038  0.017731687  0.017426312            2 
 2634000   0.82776922   -8.1385431    561.24187  0.017756323  0.017420902            3 
 2635000   0.80174634   -8.1356312    559.28955  0.017687842  0.017415445            3 
 2636000   0.82541183   -8.1668887    559.64613  0.017692404  0.017409975            1 
 2637000   0.84542288   -8.1512318    560.72891  0.017719912  0.017404527            7 
 2638000   0.83331101   -8.1296898    561.16548  0.017726986  0.017399054            4 
 2639000   0.82816721   -8.1026443    560.89978  0.017711879  0.017393584            2 
 2640000   0.83618849   -8.1333831    560.43396  0.017690466  0.017388137            5 
 2641000   0.82422041   -8.1490255     560.9683  0.017700628  0.017382688            4 
 2642000   0.83012585   -8.1779686    559.45604  0.017646229  0.017377215            1 
 2643000   0.83693402   -8.1581371    560.38884  0.017668963  0.017371734            6 
 2644000   0.83508545   -8.1670294    559.16806  0.017623804  0.017366232            4 
 2645000   0.85039828   -8.1482003    560.13144  0.017647493   0.01736075            4 
 2646000   0.82962975   -8.1623408     560.6938  0.017658535  0.017355265            5 
 2647000    0.8173134   -8.1982529    560.17493  0.017635528  0.017349795            2 
 2648000   0.82614341   -8.1805012    559.87506  0.017619431  0.017344313            2 
 2649000   0.83266698   -8.1637595    559.99974  0.017616702  0.017338814            4 
 2650000   0.85542277   -8.1562092     561.1623  0.017646613  0.017333322            2 
 2651000   0.83065551   -8.1881124    559.39697  0.017584464  0.017327831            4 
 2652000   0.83874224   -8.1677641    561.10542  0.017631518  0.017322389            2 
 2653000    0.8387365   -8.1581256    560.81008  0.017615595  0.017316909            2 
 2654000   0.81435759    -8.151564    561.78804  0.017639665  0.017311453            2 
 2655000   0.83576406   -8.1723233    561.11553  0.017611912  0.017305974            2 
 2656000   0.82837501   -8.1249484    561.13123  0.017605774  0.017300501            4 
 2657000   0.82795629   -8.1930345    560.27344  0.017572244  0.017295023            2 
 2658000   0.79423566   -8.1752014    560.66308  0.017577849  0.017289564            3 
 2659000   0.83578746   -8.1545523    561.46346  0.017596322  0.017284109            2 
 2660000   0.83264297   -8.1896805    560.50653  0.017559728  0.017278637            2 
 2661000   0.82653447   -8.1421467    562.37044  0.017611501  0.017273153            2 
 2662000   0.81858231   -8.1308976    562.62423   0.01761283  0.017267679            1 
 2663000   0.81798104   -8.1729743    561.61207  0.017574542  0.017262212            5 
 2664000   0.82616695   -8.1736139    560.00208  0.017517583  0.017256717            3 
 2665000   0.81777037   -8.1713141    560.95727  0.017540878  0.017251219            3 
 2666000   0.80358259    -8.180716    560.97341  0.017534803  0.017245739            3 
 2667000   0.82541773   -8.1922055    559.31378  0.017476371  0.017240249            2 
 2668000   0.82880414   -8.2037221    561.41662  0.017535502  0.017234748            3 
 2669000   0.84157905   -8.2095638    562.02961  0.017548071  0.017229258            3 
 2670000   0.81097984   -8.2221826    559.37905  0.017458772   0.01722374            2 
 2671000   0.82240318   -8.1826796    561.65757  0.017523324   0.01721824            5 
 2672000   0.81565883   -8.1819176    560.61741  0.017484326  0.017212766            3 
 2673000   0.81918387   -8.1798415    561.43257  0.017503198  0.017207295            3 
 2674000   0.82310276   -8.1762134    561.72991  0.017505918  0.017201831            3 
 2675000   0.82009081   -8.1779679    563.62665  0.017558463  0.017196399            6 
 2676000   0.82639417   -8.1759768    562.22053  0.017508113  0.017190957            2 
 2677000   0.82265607   -8.1994905    562.61783  0.017513941  0.017185517            2 
 2678000    0.8221952   -8.1497607     562.4465  0.017502069  0.017180085            2 
 2679000   0.80799037   -8.1543808     562.5486  0.017498712  0.017174667            1 
 2680000   0.82370819   -8.1705857    562.39677  0.017487462  0.017169219            3 
 2681000   0.83029123   -8.1839764    562.12116  0.017472372  0.017163795            2 
 2682000    0.8317954   -8.1625185     563.4722  0.017507836  0.017158409            3 
 2683000   0.82232331   -8.1371282    563.71612  0.017508887  0.017153015            2 
 2684000   0.81780666   -8.1905467    562.93115  0.017477992  0.017147612            6 
 2685000   0.81270053   -8.1773579    563.37213  0.017485168  0.017142205            2 
 2686000    0.8366005   -8.1968534    563.06431  0.017469109  0.017136807            2 
 2687000   0.81906958   -8.2368929    561.30472  0.017408036  0.017131367            3 
 2688000   0.82421432   -8.1804426    562.96561  0.017453051  0.017125941            3 
 2689000   0.80724377   -8.2163977    561.08276   0.01738821  0.017120499            2 
 2690000   0.81754348   -8.1795285    562.57134  0.017427861  0.017115068            3 
 2691000   0.82238713    -8.183402    562.19595  0.017409759  0.017109643            2 
 2692000    0.8024728   -8.1935449    561.97059  0.017396316  0.017104209            4 
 2693000   0.81527127    -8.206902    561.97555  0.017390009  0.017098763            3 
 2694000   0.82494786   -8.2110744    561.77872  0.017377466  0.017093316            1 
 2695000   0.83785597   -8.1806376    563.61855  0.017427908  0.017087883            2 
 2696000   0.81712307   -8.2238245    562.52822  0.017387742  0.017082468            4 
 2697000   0.82435743   -8.1675341     563.7619  0.017419414  0.017077062            4 
 2698000   0.82376503   -8.1745901    563.59274  0.017407732  0.017071689            3 
 2699000   0.81641411   -8.2102492    562.44046  0.017365705  0.017066274            2 
 2700000   0.81582015   -8.1816972    563.75081  0.017399716  0.017060864            3 
 2701000   0.79861241   -8.1978594    563.82451  0.017395548  0.017055499            5 
 2702000   0.82108218   -8.1865764    563.32997  0.017373858    0.0170501            2 
 2703000   0.81291529   -8.2019252    563.28863  0.017366156  0.017044709            3 
 2704000   0.82600453   -8.1636693    562.34441  0.017330634  0.017039307            5 
 2705000   0.81156427   -8.1824991     563.7558  0.017367708  0.017033934            2 
 2706000    0.8310698   -8.1585283    563.59909  0.017356464  0.017028552            5 
 2707000   0.80398588   -8.1506732    564.76782  0.017386031  0.017023189            3 
 2708000   0.80939436    -8.176626    563.66847   0.01734578  0.017017827            3 
 2709000   0.83067965   -8.2056825    562.68889  0.017309244  0.017012444            2 
 2710000   0.81456107   -8.1928228    563.09484  0.017315339  0.017007045            2 
 2711000   0.81061466   -8.1879914    564.26278  0.017344854  0.017001652           11 
 2712000   0.82396324   -8.1653861    565.35627  0.017372058  0.016996306            1 
 2713000   0.82171009   -8.1695444    564.90126  0.017351679  0.016990961            1 
 2714000   0.81691759   -8.1963527    564.24398  0.017325104  0.016985591            2 
 2715000   0.83278476   -8.1556539    564.95235  0.017340465  0.016980224            3 
 2716000   0.81542017   -8.2055277    564.90044  0.017332488  0.016974886            2 
 2717000   0.81665079   -8.1898124    564.77834  0.017322364  0.016969526            5 
 2718000   0.82360915   -8.1866248     562.9755  0.017260716  0.016964148            2 
 2719000   0.81073491   -8.2014429    563.86077    0.0172815  0.016958776            3 
 2720000   0.78991095   -8.2044769    564.57417  0.017297003  0.016953414            4 
 2721000   0.81167213   -8.2302842    564.75423  0.017296161  0.016948028            2 
 2722000   0.82845581   -8.2108736    563.75989  0.017259365  0.016942635            3 
 2723000   0.83204717   -8.1897245    565.03673  0.017292102  0.016937271            2 
 2724000   0.81858569   -8.1899097    565.65329  0.017304616  0.016931902            2 
 2725000   0.81071021   -8.2013898    564.87094  0.017274341  0.016926545            3 
 2726000   0.82497466   -8.1835481    564.70956  0.017263071  0.016921183            3 
 2727000     0.819774   -8.1673829     564.8779  0.017261884  0.016915813            2 
 2728000   0.81273137   -8.1836201    564.80511  0.017253333  0.016910453            4 
 2729000   0.79531871   -8.2057912    564.54812  0.017239163   0.01690511            3 
 2730000   0.83003021   -8.1713612    565.93924  0.017275313  0.016899706            2 
 2731000   0.82407516   -8.1895272    565.06605  0.017242343  0.016894313            2 
 2732000   0.80709732   -8.1850062    563.86852  0.017199504  0.016888942            1 
 2733000   0.81389597   -8.2117703    563.82067  0.017191751   0.01688354            1 
 2734000    0.7933689   -8.1781818    563.56221  0.017177585   0.01687815            3 
 2735000   0.81835759   -8.1878082    565.47762  0.017229666  0.016872761            1 
 2736000   0.79938769   -8.1655378    564.80186  0.017202786  0.016867375            3 
 2737000    0.8075493    -8.221098    562.52581  0.017127202  0.016861971            1 
 2738000   0.81506846   -8.1932054    564.11187  0.017169219  0.016856527            2 
 2739000   0.80897897   -8.2102889    563.72184  0.017151084  0.016851112            2 
 2740000   0.80174011   -8.1899939    564.89268  0.017180434  0.016845667            3 
 2741000    0.8096672   -8.1926036    564.16803  0.017152135   0.01684022            3 
 2742000   0.81238969   -8.2138193     563.9243  0.017138473  0.016834749            1 
 2743000    0.8164009   -8.1937164    564.40609  0.017146861  0.016829298            1 
 2744000   0.82072749   -8.1976642    564.64803   0.01714796  0.016823852            4 
 2745000   0.81200829   -8.1876964    565.33522  0.017162575  0.016818442            2 
 2746000   0.80855609   -8.2002062    563.73224  0.017107679  0.016813016            3 
 2747000    0.8015463     -8.22062    562.91277  0.017076592  0.016807573            2 
 2748000   0.81483445   -8.2097424    565.29088  0.017142494  0.016802105            2 
 2749000   0.79640756   -8.2223292    562.25865  0.017044339  0.016796662            3 
 2750000    0.8275935   -8.2182338    562.70633  0.017051707  0.016791229            2 
 2751000   0.81338634   -8.2033484    564.15285  0.017089327  0.016785796            1 
 2752000   0.80729874   -8.1886705    563.45428  0.017061964   0.01678031            5 
 2753000   0.80357219   -8.1873318    564.48103  0.017086845  0.016774828            1 
 2754000   0.81685739   -8.2135905    562.34478     0.017016  0.016769355            2 
 2755000   0.82946708   -8.2071801     563.9548  0.017058524  0.016763874            4 
 2756000    0.8034704    -8.222158    564.64791  0.017073292    0.0167584            3 
 2757000   0.80259667   -8.2276766    564.30607  0.017056767  0.016752931            3 
 2758000   0.81594384   -8.2414204    563.82242  0.017035969  0.016747455            3 
 2759000   0.82502116    -8.221866    563.96496  0.017034099  0.016741989            3 
 2760000   0.82874485    -8.212715    563.46463  0.017012821   0.01673655            3 
 2761000   0.81769856    -8.227789    564.52958  0.017038802    0.0167311            6 
 2762000   0.81205542   -8.2268793    564.05935  0.017018445  0.016725677            2 
 2763000   0.80494666   -8.1689117    564.71793  0.017032149  0.016720245            2 
 2764000   0.82141453   -8.2043334    564.51273    0.0170198  0.016714817            1 
 2765000   0.80002387   -8.1836651    564.60878   0.01701654  0.016709387            3 
 2766000   0.80482934   -8.1586244    564.68201  0.017012594  0.016703988            3 
 2767000   0.79291961    -8.196215    565.09488   0.01701888  0.016698581            3 
 2768000   0.81448941   -8.1965131    565.11475  0.017013329  0.016693187            5 
 2769000   0.81052539   -8.1888573    565.58071  0.017021208  0.016687762            1 
 2770000   0.81403865   -8.1911897    566.67196  0.017047893  0.016682364            3 
 2771000   0.79472297   -8.2147632    564.83142  0.016986389  0.016676997            3 
 2772000   0.80478896   -8.1951197    565.22058  0.016991961  0.016671619            3 
 2773000   0.82791122   -8.2045408    566.03702  0.017010368   0.01666624            2 
 2774000    0.8098999   -8.1945449    565.41585  0.016985576  0.016660834            4 
 2775000   0.81632785   -8.1752512     566.6759  0.017017294  0.016655465            4 
 2776000   0.80720084   -8.1871081    566.44613  0.017004267  0.016650087            3 
 2777000    0.8111076   -8.1669749    566.97242  0.017013937  0.016644729            6 
 2778000   0.82303212   -8.2374645    563.72674  0.016910449  0.016639327            3 
 2779000   0.79629284   -8.1763323    565.95436  0.016971163  0.016633935            6 
 2780000   0.81878527   -8.1959951    566.24091  0.016973648  0.016628533            2 
 2781000   0.80989099   -8.2153685    566.03296  0.016961314  0.016623148            2 
 2782000    0.8022734   -8.2063837    566.20633   0.01696041  0.016617742            6 
 2783000   0.81024044   -8.2145278    565.80532  0.016942308  0.016612333            8 
 2784000   0.81721921   -8.2102258    565.93002  0.016939955   0.01660693            4 
 2785000   0.79702639   -8.2244129    565.20248  0.016912103  0.016601535            1 
 2786000   0.81026003   -8.2206806    564.97386  0.016899194  0.016596117            3 
 2787000   0.80447292   -8.2445299    564.33304   0.01687397  0.016590648            1 
 2788000   0.79530384    -8.242321      565.128  0.016891679  0.016585215            5 
 2789000   0.81080928   -8.2382105    565.48806  0.016896381   0.01657978            6 
 2790000   0.80364624   -8.2263964    567.58054  0.016952824  0.016574366            4 
 2791000   0.80491537   -8.2205625    566.54264   0.01691576  0.016568955            6 
 2792000   0.81169623   -8.2477622    565.07798  0.016865985  0.016563536            6 
 2793000   0.80484289   -8.2207369    567.57838   0.01693455   0.01655811            2 
 2794000   0.81275319   -8.2520361    565.61066    0.0168698   0.01655271            3 
 2795000   0.80967166   -8.2237606    566.36871  0.016886366  0.016547279            2 
 2796000   0.80534085   -8.2455706    564.72172  0.016831239  0.016541856           11 
 2797000   0.80411813   -8.2374429    564.15058  0.016808205  0.016536417            4 
 2798000   0.79755279   -8.2394528    565.43552  0.016840467  0.016530955            2 
 2799000   0.80939692   -8.2471051    565.12734  0.016825275  0.016525485            2 
 2800000   0.80433801   -8.2467654    565.28865  0.016824067   0.01652005            4 
 2801000   0.79381431      -8.2738     563.7618  0.016772635  0.016514604            5 
 2802000   0.80280475   -8.2666056    564.52399  0.016789317  0.016509114            6 
 2803000   0.79629564   -8.2496547    563.72131  0.016759463   0.01650364            7 
 2804000   0.79498384   -8.2628142    564.11795  0.016765274  0.016498172            2 
 2805000   0.81431369   -8.2669191     565.4593  0.016799147  0.016492713            5 
 2806000   0.80244187   -8.2502327    564.99808  0.016779463  0.016487248            3 
 2807000   0.80633098   -8.2532321    565.30655  0.016782643  0.016481812            4 
 2808000    0.8198484     -8.25913    565.06071   0.01676937  0.016476338            2 
 2809000   0.80463051   -8.2641865    565.41408  0.016773884   0.01647088            1 
 2810000   0.79048504   -8.2633115    564.99432  0.016755466  0.016465446            2 
 2811000   0.79633278   -8.2452275    565.12959  0.016753516  0.016460022            2 
 2812000   0.79943826    -8.249552    565.53699  0.016759631  0.016454594            3 
 2813000   0.79396247   -8.2385103     566.2923  0.016776049  0.016449187            2 
 2814000    0.8108949   -8.2103397    565.52212  0.016747279   0.01644377            2 
 2815000    0.8066946   -8.2440723    565.20471  0.016731933  0.016438346            3 
 2816000   0.81175226   -8.2478583    566.27987  0.016757809  0.016432933            3 
 2817000   0.81060793   -8.2704402    565.52626  0.016729566  0.016427524           14 
 2818000   0.81834531   -8.2815523     563.3718  0.016659918  0.016422066            3 
 2819000    0.8079103    -8.240447    565.57618  0.016719173  0.016416623            3 
 2820000   0.80303255   -8.2252354    565.89803  0.016722755  0.016411173            4 
 2821000    0.7928722    -8.232702    564.18454   0.01666621  0.016405736            2 
 2822000   0.80359326   -8.2273242    565.24291  0.016691558  0.016400311            7 
 2823000   0.78806499    -8.244188     565.3428  0.016688594  0.016394881            3 
 2824000   0.81278146   -8.2383419    565.35348  0.016682999  0.016389463            2 
 2825000   0.78832667   -8.2183539    565.56828   0.01668343  0.016384043            2 
 2826000   0.81550525   -8.2511183    564.68586  0.016651506  0.016378594            1 
 2827000   0.79849033   -8.2421484    565.20484  0.016660914  0.016373141            2 
 2828000    0.7940344    -8.212272    566.45301  0.016691802  0.016367711            3 
 2829000   0.80849452   -8.2337797    565.97786  0.016671906  0.016362275            2 
 2830000   0.78828874   -8.2777949    565.20461  0.016643245  0.016356839            3 
 2831000   0.81096988    -8.253469    565.86287  0.016656743  0.016351388            5 
 2832000   0.79788664   -8.2596811    565.25376  0.016632938  0.016345932            3 
 2833000   0.78647438   -8.2061975    566.17236  0.016654088  0.016340499            2 
 2834000   0.78850714   -8.2280898    565.14468  0.016617992  0.016335051            2 
 2835000   0.78907139   -8.2538718    563.99133  0.016578228  0.016329576            1 
 2836000   0.79189064   -8.2465534    565.25594  0.016609542  0.016324114            1 
 2837000   0.79860148   -8.2587387    565.01524  0.016596617  0.016318661            4 
 2838000   0.81113558   -8.2574912    565.59153  0.016607691  0.016313234            2 
 2839000   0.80670234   -8.2306581    567.02222  0.016643836  0.016307784            4 
 2840000   0.79008505   -8.2414627    565.47784   0.01659266  0.016302342            8 
 2841000   0.79246366   -8.2523016    564.92512  0.016570607  0.016296915            3 
 2842000   0.79453831   -8.2479526    565.92947  0.016594226  0.016291474            5 
 2843000   0.80424614    -8.260784    566.29201  0.016599015  0.016286011            4 
 2844000   0.79226572   -8.2515528    565.74029  0.016577013  0.016280553            4 
 2845000   0.79216274   -8.2659566    564.72232  0.016541368  0.016275102            5 
 2846000   0.81416576   -8.2645427    565.91027   0.01657034  0.016269672            4 
 2847000   0.79170093   -8.2571049    566.72405   0.01658834  0.016264241            2 
 2848000   0.80375179    -8.274622    565.46893   0.01654579  0.016258778            3 
 2849000   0.78273217   -8.2527746    566.03604  0.016556571  0.016253338            5 
 2850000   0.78057145   -8.2704618    565.56078  0.016536865   0.01624791            7 
 2851000   0.79017917   -8.2627036    566.86419  0.016569162  0.016242484            2 
 2852000   0.79975004    -8.280049    565.48112  0.016522941   0.01623705            4 
 2853000   0.78357444   -8.3003629    564.86592   0.01649918  0.016231608            6 
 2854000   0.80418352   -8.2426004    567.26484  0.016563444  0.016226175            2 
 2855000   0.78725637   -8.2333884    565.41118  0.016503537   0.01622077            3 
 2856000   0.79910523   -8.2672294    566.36936  0.016525717  0.016215358            2 
 2857000    0.7927272    -8.263913    565.82761   0.01650413  0.016209955            2 
 2858000   0.80072488   -8.2855554    565.26447  0.016481936  0.016204539            1 
 2859000   0.79619948   -8.2625071    567.27592    0.0165348  0.016199124            3 
 2860000   0.77972465   -8.2568992    565.38297  0.016473863  0.016193731            2 
 2861000   0.79661832   -8.2415187    567.03754  0.016516298  0.016188338            3 
 2862000    0.7946391   -8.2593421    566.67404  0.016499943  0.016182939            3 
 2863000   0.80544181   -8.2362814    566.96999  0.016502794  0.016177546            2 
 2864000   0.78219568   -8.2507754    566.49561  0.016483229  0.016172132            4 
 2865000   0.77755383   -8.2442385    566.51326  0.016477989  0.016166724            4 
 2866000   0.79756184   -8.2373392    567.58136  0.016503296  0.016161316            5 
 2867000   0.79329525   -8.2259285    567.34543  0.016490682  0.016155903            2 
 2868000    0.7985883   -8.2420771    567.36839  0.016485599  0.016150505            1 
 2869000   0.80515922   -8.2716462    567.08678  0.016471674  0.016145117            4 
 2870000   0.79994955   -8.2541218    567.19576  0.016469099  0.016139742            1 
 2871000   0.79088211   -8.2559695    567.53438  0.016473191  0.016134383            4 
 2872000   0.79314198   -8.2397281    566.72156  0.016443871  0.016129017            2 
 2873000   0.81936339   -8.2540925    566.23932   0.01642416  0.016123649            2 
 2874000   0.80136981   -8.2453686    566.97884  0.016439888   0.01611826            3 
 2875000   0.79265042   -8.2830213    566.77722  0.016428325  0.016112871            2 
 2876000   0.79778263   -8.2436794    565.98315  0.016399604  0.016107462            1 
 2877000    0.8020882    -8.263368    567.61355  0.016441129  0.016102049            5 
 2878000    0.7835251   -8.2429199    567.48651  0.016431738  0.016096624            2 
 2879000    0.7942033   -8.2562246    566.28228  0.016391174  0.016091225            2 
 2880000   0.79893585   -8.2547309    567.32362  0.016415614  0.016085827            3 
 2881000   0.78178948   -8.2563897     565.5845  0.016359612  0.016080432            4 
 2882000   0.79458054   -8.2518717    566.69988  0.016386187  0.016075031            1 
 2883000   0.77244541   -8.2403769    568.75478    0.0164399  0.016069669            6 
 2884000   0.78234878   -8.2366721    568.92854   0.01643922  0.016064316            5 
 2885000   0.78339493   -8.2457256    568.01477  0.016407128  0.016058954            3 
 2886000   0.80200654   -8.2336342    567.90258  0.016398203  0.016053591            5 
 2887000   0.76576678   -8.2818329    566.76323  0.016359636  0.016048195            6 
 2888000   0.80008399   -8.2677982    565.72928  0.016324137  0.016042802            4 
 2889000   0.78241623   -8.2450935    567.10002  0.016358025  0.016037437            2 
 2890000   0.77576398    -8.245117    566.95927  0.016348306  0.016032075            2 
 2891000   0.77926363   -8.2725561    568.79312  0.016395513   0.01602673            3 
 2892000   0.79524055   -8.2368422     567.2501  0.016345381  0.016021402            4 
 2893000   0.78477026   -8.2640936    567.70627  0.016352871  0.016016084            7 
 2894000   0.77294796   -8.2760618    568.19521  0.016361299  0.016010752           10 
 2895000   0.80714691   -8.2745412    566.62039  0.016310316  0.016005385            7 
 2896000   0.80456156    -8.306478    566.96654  0.016314645        0.016            6 
 2897000   0.78183198   -8.2862154    567.94474  0.016337152  0.015994613            2 
 2898000   0.79549302    -8.258192    566.86223  0.016300386  0.015989208            2 
 2899000   0.78334143   -8.2695408    567.48573  0.016312686  0.015983812            2 
 2900000   0.77947907      -8.2601    567.87159  0.016318149  0.015978452            3 
 2901000   0.78495099   -8.2663669    567.35893  0.016297798  0.015973087            2 
 2902000   0.79517364   -8.2646279    568.42102   0.01632268   0.01596773            4 
 2903000    0.7962298   -8.2823481    566.85342  0.016272058  0.015962364            2 
 2904000   0.79257878   -8.2614186    566.21935   0.01624826  0.015956978            1 
 2905000   0.77057359   -8.2543654    568.44029  0.016306377  0.015951619            3 
 2906000    0.7932931   -8.2588166    567.98725  0.016287774  0.015946243            2 
 2907000   0.78885251   -8.2654907    568.39101  0.016293745  0.015940864            3 
 2908000   0.80393626   -8.2631548    566.55919  0.016235648  0.015935493            8 
 2909000   0.79769968   -8.2680535    567.94495  0.016269765  0.015930119            4 
 2910000   0.77943709   -8.2796523    567.15473  0.016241544  0.015924756            8 
 2911000     0.788205   -8.2778985    567.51469   0.01624627  0.015919388            3 
 2912000   0.77330289   -8.2657649    567.76454   0.01624784  0.015914012            2 
 2913000   0.77599445   -8.2533385    568.29967  0.016257572  0.015908662            2 
 2914000   0.79904876   -8.2604186     568.7907  0.016266035  0.015903298            5 
 2915000   0.77961793   -8.2853705       567.26  0.016216695  0.015897918            2 
 2916000    0.7970025   -8.2598298    568.52572  0.016247306   0.01589255            3 
 2917000   0.78785656   -8.2704058    568.85962  0.016251275  0.015887203            8 
 2918000   0.78475683   -8.2797403    567.46289  0.016205817  0.015881837            5 
 2919000   0.78256327   -8.2682759    567.56148   0.01620308   0.01587648            4 
 2920000   0.77413444    -8.309707    568.50926  0.016224579  0.015871137            2 
 2921000   0.76159716   -8.2824483     567.6729  0.016195164  0.015865789            2 
 2922000   0.79693005   -8.2473311    567.49303  0.016184492  0.015860437            2 
 2923000   0.78328575   -8.3244717    568.42564  0.016205543  0.015855081            2 
 2924000    0.7834458   -8.3134859    567.64007  0.016177613  0.015849712            4 
 2925000   0.77986434   -8.3077929    567.48248  0.016167592  0.015844343            5 
 2926000   0.76812334   -8.2954083    568.23491  0.016183496  0.015838981            2 
 2927000   0.77229387   -8.2758999    568.62989  0.016189212  0.015833642            1 
 2928000   0.78309066    -8.299201    568.42479  0.016177846  0.015828295            1 
 2929000   0.76896503   -8.3298745    567.47527  0.016145308   0.01582294            2 
 2930000   0.78194717    -8.293963    567.00571  0.016126442  0.015817581            4 
 2931000   0.77673268   -8.2974426     567.5163  0.016135457  0.015812219            3 
 2932000   0.78277262   -8.3110619    568.33069  0.016153101  0.015806865            3 
 2933000   0.77735319   -8.3036398    566.39874  0.016092702   0.01580151            1 
 2934000   0.77636128   -8.3071906    566.41307  0.016087624  0.015796137            2 
 2935000   0.78596122   -8.3056037    567.28808  0.016106987  0.015790759            3 
 2936000    0.8020321   -8.2924452    567.61092  0.016110664  0.015785411            3 
 2937000   0.77696984   -8.2865248    568.81507  0.016139345  0.015780056            2 
 2938000   0.77852482    -8.310687    567.74856  0.016103601  0.015774711            2 
 2939000   0.77941513   -8.3259256    567.86576  0.016101445  0.015769356            1 
 2940000   0.76886864   -8.2934275    568.35931  0.016109958  0.015764018            2 
 2941000   0.77648458   -8.3072613    567.63461  0.016083946  0.015758683            4 
 2942000   0.77549909   -8.3052094    568.27331   0.01609657  0.015753336            3 
 2943000   0.76321755   -8.2926096    568.53793  0.016098593  0.015748023            6 
 2944000   0.78125354   -8.2611935    568.28099  0.016085852  0.015742719            4 
 2945000   0.76829789   -8.2660888    568.63047  0.016090279  0.015737419            6 
 2946000   0.76074743   -8.3031897    569.10048  0.016098113   0.01573211            3 
 2947000   0.78021396   -8.3081495    568.91514  0.016087409  0.015726774            2 
 2948000   0.76129657    -8.287165    568.34011  0.016065697  0.015721439            2 
 2949000   0.78943293   -8.3042434    568.43985  0.016063068  0.015716113            2 
 2950000    0.7797462    -8.291613    568.32579  0.016054401  0.015710776            7 
 2951000   0.77568107   -8.2950197    568.37563  0.016050368  0.015705436            3 
 2952000   0.78307734   -8.3089494    569.29318  0.016070833  0.015700098            2 
 2953000   0.77734978   -8.3274998    566.79239  0.015994819  0.015694777            4 
 2954000   0.78646766   -8.3053777    567.85335  0.016019334   0.01568943            3 
 2955000   0.78304728    -8.302843     567.9646   0.01601705  0.015684097            3 
 2956000    0.7872485   -8.2955551    567.66591  0.016003211  0.015678764            3 
 2957000   0.77608896   -8.3032208     568.5702  0.016023284  0.015673438            3 
 2958000   0.78262431   -8.3227131    568.34987   0.01601166    0.0156681            2 
 2959000   0.78793718   -8.3150856    567.91035   0.01599387  0.015662764            3 
 2960000    0.7861536   -8.2918466    569.33811  0.016028663  0.015657433            4 
 2961000    0.7897863   -8.3024956    569.04652  0.016015043  0.015652104            3 
 2962000   0.77249654   -8.3142498    567.61119  0.015969255  0.015646774            3 
 2963000   0.77885457   -8.3024382    570.13162  0.016034751  0.015641424            3 
 2964000   0.78633274   -8.3280077    568.29434  0.015977686  0.015636111            6 
 2965000   0.79822798   -8.3121257    568.35412  0.015973977  0.015630777            5 
 2966000   0.79299988   -8.3184292    568.55168  0.015974142  0.015625461            7 
 2967000   0.79475589    -8.345091    567.94869  0.015951822  0.015620142            1 
 2968000   0.77360214   -8.3213299    567.23045  0.015926282  0.015614817           11 
 2969000   0.79065725    -8.292055    569.19361  0.015976019  0.015609498            7 
 2970000   0.77313944    -8.319709       568.83  0.015960438  0.015604195            2 
 2971000   0.78012821   -8.3240455    568.69239  0.015951206  0.015598878            1 
 2972000   0.78676003   -8.3270379    568.35563  0.015936396  0.015593555            2 
 2973000   0.77742155    -8.298315    568.58265  0.015937399   0.01558824            3 
 2974000   0.77271887   -8.3193852    569.09244  0.015946325  0.015582939            4 
 2975000   0.77136983   -8.3137456    568.63108  0.015928041  0.015577633            2 
 2976000   0.76979351   -8.2982851    569.25842  0.015940256   0.01557234            3 
 2977000     0.776428   -8.2918035    568.83705  0.015923106  0.015567061            2 
 2978000   0.76525888   -8.2929686    569.63924  0.015940207  0.015561794            3 
 2979000   0.76927309   -8.2887724    569.56276  0.015932717  0.015556541            3 
 2980000   0.77175633   -8.3063052    569.85059  0.015935419   0.01555128            3 
 2981000   0.77087235   -8.2835004    569.26557  0.015913719  0.015546036            5 
 2982000    0.7706881   -8.2872848    569.54407  0.015916166  0.015540794            2 
 2983000   0.76336553   -8.2801785    569.06467  0.015897437  0.015535549            6 
 2984000   0.76563123   -8.2668462    569.15233  0.015894558  0.015530301            2 
 2985000   0.76756213   -8.2848059    569.70885   0.01590477  0.015525078            4 
 2986000   0.77774418   -8.3031168    569.81994  0.015902544  0.015519847            3 
 2987000   0.78665254   -8.3212906    569.97047  0.015901419  0.015514595            2 
 2988000   0.78791489   -8.3038897    569.60171  0.015885813  0.015509323            2 
 2989000    0.7745981    -8.301219    569.31155  0.015872408  0.015504067            4 
 2990000   0.76945488    -8.316517    568.54715  0.015845796  0.015498807            2 
 2991000   0.76008698   -8.2985954    569.86893  0.015877324  0.015493552            4 
 2992000   0.78315707   -8.2851145    568.28281  0.015827841  0.015488289            1 
 2993000   0.77563392   -8.3395298    568.39636  0.015825714  0.015483007            2 
 2994000   0.76614498   -8.3214743    569.01026  0.015837516  0.015477689            2 
 2995000   0.76047434   -8.3281263    569.55531  0.015847393  0.015472391            1 
 2996000   0.78730055    -8.283303    570.43316  0.015866521  0.015467112            3 
 2997000   0.77462961   -8.3200215    570.14431  0.015853195  0.015461826            2 
 2998000    0.7705857   -8.3252204    569.76845   0.01583746  0.015456534            4 
 2999000   0.77405058    -8.337617    567.41641  0.015766823  0.015451221            2 
 3000000   0.75674656   -8.3159471    567.46834  0.015763009  0.015445914            2 
 3001000   0.77742868   -8.3089159    570.24371  0.015834825  0.015440606            4 
 3002000   0.78299052   -8.3298919    569.20893  0.015800825  0.015435313            2 
 3003000   0.76006987   -8.3290717     569.5825   0.01580593   0.01543002            2 
 3004000   0.77404281   -8.3092714    569.07728  0.015786653  0.015424732            3 
 3005000   0.77633749    -8.294334    570.62582  0.015824343  0.015419441            2 
 3006000   0.76575006   -8.3186562    569.73473  0.015794376  0.015414177            2 
 3007000   0.77482753    -8.323993    568.86902  0.015765132  0.015408896            3 
 3008000   0.76802582   -8.3312046    569.44592  0.015775873  0.015403638            5 
 3009000    0.7581065   -8.3400982    569.09241   0.01576084  0.015398363            4 
 3010000   0.76816087   -8.3350909    568.82438  0.015748183  0.015393091            2 
 3011000   0.76975085   -8.3130182    569.28989  0.015755837  0.015387824            4 
 3012000   0.76860852    -8.320288    568.30147  0.015723259  0.015382537            3 
 3013000   0.77421993   -8.3632022     567.7872  0.015703817  0.015377257            7 
 3014000    0.7807308   -8.3496452    569.36108  0.015742122  0.015371975            2 
 3015000    0.7754276   -8.3115113    570.79642  0.015776573  0.015366715            2 
 3016000   0.77135815   -8.3152009    569.65277  0.015739743  0.015361477            2 
 3017000   0.77734047   -8.3437756    569.17529  0.015721337  0.015356209            3 
 3018000   0.77495144   -8.3277353     568.8509  0.015707171  0.015350925            4 
 3019000   0.78286204   -8.3375014    569.42885  0.015717921  0.015345659            2 
 3020000   0.77448338   -8.3434244    569.49317  0.015714491  0.015340402            4 
 3021000   0.76090759   -8.3225125    569.81849  0.015718263  0.015335142            5 
 3022000   0.76515854   -8.3270885    568.89343  0.015687553  0.015329886            2 
 3023000   0.78532399   -8.3196627    569.15624  0.015689609   0.01532463            6 
 3024000   0.74890735   -8.3129594    571.04355  0.015736429  0.015319357            1 
 3025000   0.74942849   -8.3623026    569.20216    0.0156805  0.015314078            3 
 3026000   0.76756929   -8.3166139     570.2352  0.015703767  0.015308818            1 
 3027000   0.77623054    -8.348886    568.00012  0.015637048  0.015303562            2 
 3028000   0.75301744   -8.3516136    569.92966  0.015684986  0.015298323            1 
 3029000    0.7824344   -8.3046007    571.07226  0.015711243  0.015293103            3 
 3030000   0.77035949    -8.329731    570.95919  0.015702948  0.015287878            3 
 3031000   0.76820713   -8.3133079    570.06657  0.015673226   0.01528265            3 
 3032000   0.77868176   -8.3223147    570.39454  0.015677071    0.0152774            2 
 3033000   0.76917263   -8.3458587    569.75788  0.015654409  0.015272164            3 
 3034000   0.75894538   -8.3158763    569.88184  0.015652654  0.015266914            2 
 3035000   0.76104047   -8.3391362    569.23274  0.015629674   0.01526167            3 
 3036000   0.77010279   -8.3490458    569.26837  0.015625504  0.015256445            3 
 3037000   0.76274474   -8.3370749    569.09671  0.015615649  0.015251216            2 
 3038000   0.75627331   -8.3171385    570.06535  0.015637079   0.01524599            3 
 3039000   0.77404957   -8.3610973    569.93048  0.015628235  0.015240748            2 
 3040000    0.7632368   -8.3663383    568.59818  0.015586573  0.015235494            3 
 3041000   0.77411646   -8.3145435    569.98352   0.01561941  0.015230258            1 
 3042000   0.76439271   -8.3313572     570.1865  0.015619836  0.015225024            3 
 3043000   0.75619109   -8.3750359    569.13458  0.015585896  0.015219772            2 
 3044000    0.7588512   -8.3946048    568.42385  0.015561319  0.015214513            3 
 3045000   0.76478728   -8.3392949    568.83356  0.015567421  0.015209262            4 
 3046000   0.77385804   -8.3412536    568.87396  0.015563415  0.015204005            2 
 3047000   0.76209365   -8.3489633    569.38949  0.015572407  0.015198761            6 
 3048000   0.74970492   -8.3576424    568.10037  0.015532053  0.015193512            5 
 3049000   0.75711075    -8.342887    569.75812  0.015572267  0.015188273            2 
 3050000   0.77364042   -8.3496052    571.19123  0.015606318  0.015183037            4 
 3051000   0.76425715   -8.3632908     570.2646  0.015575893   0.01517781            9 
 3052000    0.7690812   -8.3482768    569.75647  0.015556915  0.015172586            1 
 3053000   0.76308772   -8.3268187    570.19232  0.015563717  0.015167355            2 
 3054000   0.76663436   -8.3435471    568.19213  0.015504042  0.015162133            7 
 3055000   0.76751262    -8.334011    568.67385  0.015512107  0.015156912            3 
 3056000   0.75644532   -8.3397042    570.54123  0.015557952  0.015151674            5 
 3057000   0.77259628   -8.3205262     569.3276   0.01551978  0.015146456            5 
 3058000   0.76695545   -8.3693725    568.44182  0.015490566  0.015141244            3 
 3059000   0.76072116   -8.3626849    569.59481  0.015516912  0.015136017            4 
 3060000   0.76580232   -8.3137687    569.34627  0.015505073   0.01513078            3 
 3061000   0.75086796    -8.346644    569.75534  0.015511144  0.015125541            3 
 3062000   0.75308196   -8.3520342    568.37193  0.015468428  0.015120306            2 
 3063000   0.75876495    -8.364361    567.95739    0.0154521  0.015115049            2 
 3064000   0.75442651   -8.3475079    567.82842  0.015443549  0.015109794            3 
 3065000   0.75405734   -8.3420577    568.33495  0.015452282   0.01510453            2 
 3066000   0.76572901   -8.3550554    569.41138    0.0154765  0.015099276            5 
 3067000   0.75402418   -8.3578907     568.0733  0.015435097  0.015094014            5 
 3068000   0.79445336    -8.360537    568.97052  0.015454436  0.015088751            2 
 3069000   0.75422682   -8.3549616    569.10844  0.015453145  0.015083518            3 
 3070000   0.77986973   -8.3452591    569.50854  0.015458972  0.015078266            3 
 3071000   0.74491422   -8.3596164    568.76681  0.015433811  0.015073008            3 
 3072000   0.76409968   -8.3504201     569.5571  0.015450225  0.015067765            2 
 3073000   0.77201625   -8.3441174    569.13281  0.015433692  0.015062521            3 
 3074000    0.7583741   -8.3618315    568.93321   0.01542326  0.015057271            4 
 3075000   0.76616788   -8.3548608    569.11691  0.015423222   0.01505203            3 
 3076000   0.75232806   -8.3833761    568.13501  0.015391607  0.015046781            3 
 3077000   0.75770128   -8.3619307    569.12902  0.015413526  0.015041531            1 
 3078000   0.76791082   -8.3845158    568.90215  0.015402376   0.01503629            8 
 3079000   0.77364016    -8.360595    569.70827  0.015419191  0.015031059            2 
 3080000   0.76536715   -8.3793886    569.29413   0.01540298  0.015025821            4 
 3081000   0.76308073   -8.3725672    569.12809   0.01539349  0.015020589            2 
 3082000    0.7792191   -8.3482613    569.36566  0.015394918   0.01501535            4 
 3083000   0.74842146   -8.3701501    568.81591  0.015375065  0.015010131            1 
 3084000   0.76367516   -8.3845648    568.65303  0.015365678  0.015004895            2 
 3085000   0.74453819   -8.3861718    569.57878  0.015385704  0.014999675            5 
 3086000   0.74969228   -8.3368875    570.20045  0.015397506   0.01499446            1 
 3087000   0.75563528   -8.3687233    568.96215  0.015359091  0.014989238            7 
 3088000   0.75238344   -8.3440029    569.43561  0.015366894  0.014984005            3 
 3089000   0.74517069   -8.3691367    568.84645  0.015346025  0.014978757            3 
 3090000   0.75181861   -8.3770357    568.88321   0.01534205  0.014973528            2 
 3091000    0.7617736    -8.398463     568.7852  0.015334444  0.014968295            2 
 3092000   0.75021683   -8.3713776    570.41161  0.015373318  0.014963071            2 
 3093000   0.76234693   -8.3594921    569.79674  0.015351782  0.014957846            4 
 3094000   0.76209596    -8.370556    568.60404  0.015314696    0.0149526            2 
 3095000    0.7539696   -8.3525686    570.23799  0.015353742  0.014947368            2 
 3096000   0.74731728    -8.374687    568.61294  0.015305043  0.014942128            2 
 3097000   0.75720501   -8.3782049     568.6446  0.015300952  0.014936873            1 
 3098000    0.7666258   -8.3541933    569.13701  0.015309259   0.01493164            6 
 3099000   0.76521032   -8.3574833    569.42777  0.015312137  0.014926402            5 
 3100000   0.76992528   -8.3851296     568.7476  0.015288914  0.014921175            3 
 3101000   0.75953783   -8.3513297    569.73938  0.015310636  0.014915966            3 
 3102000   0.75805212   -8.3852903    569.25293  0.015292632  0.014910745            4 
 3103000   0.75215459   -8.3283974     569.1385   0.01528463  0.014905521            1 
 3104000   0.76281784   -8.3557691    569.46528  0.015288479  0.014900313            5 
 3105000   0.75681282   -8.3743505    569.38585  0.015281424  0.014895097            3 
 3106000   0.74449471   -8.3525961      570.044  0.015294162  0.014889897            2 
 3107000   0.75905887   -8.3453393    570.50257  0.015301539   0.01488469            3 
 3108000   0.75703735   -8.3708748    569.97155  0.015282377  0.014879471            6 
 3109000   0.75190484   -8.3478311    569.40055  0.015262157  0.014874261            5 
 3110000   0.76438644   -8.3477779    569.39663  0.015257144  0.014869055            6 
 3111000   0.75651481   -8.3867569    569.79586  0.015262934  0.014863846            2 
 3112000   0.74647552   -8.3712406    568.57911  0.015225448  0.014858628            2 
 3113000   0.76343824   -8.3703528    569.24148  0.015238288  0.014853402            2 
 3114000   0.74772848   -8.3617775    569.15505  0.015231081  0.014848171            2 
 3115000   0.75597359   -8.3788574    569.30469  0.015230195  0.014842929            4 
 3116000   0.73508356   -8.3574388    568.68376  0.015208701  0.014837682            3 
 3117000    0.7547391   -8.3796958    568.87737  0.015208998  0.014832433            4 
 3118000   0.75683631   -8.3686004    568.67721  0.015198771  0.014827184            3 
 3119000   0.77281802   -8.3754009    568.40914  0.015186736  0.014821937            4 
 3120000   0.74800491   -8.4009064     567.5137  0.015157951  0.014816696            4 
 3121000   0.74629323   -8.3775985    569.40234  0.015203523  0.014811451            3 
 3122000    0.7470763   -8.3890272    568.48508  0.015174169  0.014806209            2 
 3123000   0.76870829   -8.3690613    567.44048  0.015141437  0.014800975            2 
 3124000   0.75544898   -8.3454447    568.13998  0.015155249  0.014795716            2 
 3125000   0.75741043   -8.3925894    567.23362   0.01512623  0.014790488            3 
 3126000   0.74582461   -8.3814833    568.18655  0.015146794  0.014785245            2 
 3127000   0.75527947   -8.3651858    567.77821  0.015131068  0.014780005            2 
 3128000   0.75484557   -8.3845346    568.18366  0.015137033  0.014774775            5 
 3129000    0.7634406   -8.3834758    569.37016  0.015163795  0.014769563            3 
 3130000   0.75515336   -8.3848982    568.66161  0.015140085  0.014764342            3 
 3131000   0.73932713   -8.4241832    568.68392  0.015135844    0.0147591            2 
 3132000   0.76346598   -8.3901245    567.52092  0.015100067   0.01475384            3 
 3133000   0.75102692   -8.3933711    567.70562   0.01510016  0.014748593            5 
 3134000   0.76167068   -8.3852985    568.66535  0.015120861  0.014743351            3 
 3135000   0.73941739   -8.3451403    570.58331   0.01516702  0.014738125            3 
 3136000   0.73347188   -8.3961904    569.22409  0.015126065  0.014732908            2 
 3137000   0.74384196   -8.3707939    569.22476  0.015121261  0.014727686            3 
 3138000   0.73417481   -8.3709794    568.48823  0.015096883  0.014722459            2 
 3139000   0.75707009   -8.3847036    568.81983  0.015100877  0.014717235            3 
 3140000   0.75259945   -8.4010028    568.90772    0.0150984   0.01471201            3 
 3141000   0.74335243   -8.4066083    568.38495  0.015079724  0.014706779            3 
 3142000   0.74657745   -8.3925637    567.51289  0.015051795  0.014701555            5 
 3143000   0.74788272   -8.3907408    568.96604  0.015085535   0.01469635            1 
 3144000   0.74894197   -8.3730746    568.63731  0.015072024  0.014691124            4 
 3145000   0.73424422   -8.3872812    569.43902  0.015088474  0.014685896            4 
 3146000   0.75761499   -8.3929582    568.28583  0.015053132  0.014680671            3 
 3147000   0.75684861   -8.3946122    568.57308  0.015055955   0.01467545            4 
 3148000   0.75558427   -8.4136596    569.15877  0.015066677  0.014670227            3 
 3149000   0.73272528   -8.4162249    568.67962  0.015049212  0.014664988            6 
 3150000   0.73205843   -8.4220261    568.36685   0.01503616  0.014659753            2 
 3151000   0.74669083   -8.3847218    569.30046  0.015056079  0.014654526            1 
 3152000   0.76945913   -8.3970051    569.24173   0.01504975  0.014649309            2 
 3153000   0.73949277   -8.4199123     569.3603   0.01504811  0.014644095            2 
 3154000   0.73992366   -8.3906315    568.77573  0.015027894  0.014638877            1 
 3155000   0.73918567   -8.4197656    567.98321  0.015002198  0.014633666            3 
 3156000   0.74324634    -8.404658    568.69389   0.01501621  0.014628445            2 
 3157000   0.75280326   -8.4238438    567.94543  0.014991697  0.014623236            2 
 3158000   0.74544391   -8.4278036    568.18682  0.014993319  0.014618023            4 
 3159000   0.73594565   -8.4158416    569.05383  0.015011444  0.014612827            2 
 3160000   0.74683215   -8.3994548     569.0067  0.015005451  0.014607627            5 
 3161000   0.74138961   -8.4282729    567.73955  0.014967298  0.014602423            2 
 3162000   0.74634258   -8.4320104    568.02186  0.014970005  0.014597205            3 
 3163000   0.74220084   -8.4283777    567.30366   0.01494635  0.014592003            4 
 3164000   0.73419676    -8.436131    567.58419  0.014949015  0.014586791            2 
 3165000   0.74215983   -8.4071849    568.53538  0.014969336  0.014581579            2 
 3166000   0.75845501   -8.3937692    567.88146  0.014947396   0.01457638            3 
 3167000   0.75506184   -8.3866049    568.80202  0.014966899  0.014571196            4 
 3168000    0.7377932   -8.3981205    568.81761  0.014962584  0.014566015            5 
 3169000   0.73651379   -8.4108001    568.24504  0.014942806  0.014560844            3 
 3170000   0.74361464   -8.3914519    569.86736   0.01498074  0.014555705            3 
 3171000   0.73882696   -8.3920182     568.2765  0.014934208  0.014550541            4 
 3172000   0.74483782   -8.4077753    568.28676   0.01492977  0.014545368            2 
 3173000   0.73916441   -8.4306252    567.80673  0.014912457  0.014540187            2 
 3174000   0.75269203   -8.4049987    568.86552  0.014935558  0.014535024            1 
 3175000   0.73644283   -8.3622095    569.09547  0.014936889  0.014529864            2 
 3176000   0.74562149   -8.3974659    569.27019   0.01493677  0.014524719            3 
 3177000   0.71990351    -8.405802    569.32393  0.014933478  0.014519551            4 
 3178000   0.75709404   -8.3912196    569.17413  0.014924851  0.014514396            2 
 3179000   0.75546002   -8.3996642    569.30582  0.014923608  0.014509242            3 
 3180000   0.71462755   -8.4144426    569.65053  0.014927949  0.014504084            6 
 3181000   0.71817935   -8.3967123    569.37117  0.014915938  0.014498914            4 
 3182000   0.73981336   -8.4169741    568.81576  0.014896704  0.014493741            2 
 3183000   0.75844605   -8.4259804    569.12792  0.014900197  0.014488562            3 
 3184000   0.73630231   -8.4126647    569.03346  0.014893045  0.014483396            3 
 3185000    0.7588044   -8.4277816     568.5761  0.014876402  0.014478239            2 
 3186000   0.74709322   -8.4329104    569.25018  0.014889364   0.01447307            3 
 3187000   0.74215333   -8.4015923    569.59922  0.014893819   0.01446793            2 
 3188000   0.75162695   -8.4393893    568.05159  0.014848693  0.014462791            1 
 3189000   0.75483701    -8.392876    568.73445  0.014861881  0.014457653            2 
 3190000    0.7390472   -8.4089543    568.75042  0.014857639   0.01445253            2 
 3191000   0.75026228   -8.3821542    569.69509  0.014877653  0.014447417            7 
 3192000   0.74077006   -8.4039263    568.77752  0.014849037  0.014442296            3 
 3193000   0.74420863    -8.406928    568.61155  0.014840055  0.014437184            6 
 3194000   0.73509202   -8.4157687    567.91425  0.014817216   0.01443205            1 
 3195000   0.75324751   -8.3886839    569.00153  0.014840937  0.014426914            3 
 3196000   0.72965714   -8.4044554    569.68472  0.014854107  0.014421769            3 
 3197000   0.74604394   -8.4208814    567.92407  0.014803568  0.014416652            1 
 3198000   0.73560456   -8.3984318    568.49324   0.01481377   0.01441153            2 
 3199000   0.73116177   -8.3930444     569.4294  0.014833526  0.014406403           12 
 3200000   0.74878252   -8.4600083    568.72563  0.014810563  0.014401262            2 
 3201000   0.73879285   -8.4155048    569.75286  0.014832679  0.014396118            4 
 3202000    0.7348344   -8.4308412     569.3808  0.014818364  0.014390979            2 
 3203000   0.74387584   -8.4124432    569.53631  0.014817783   0.01438585            4 
 3204000   0.73551805   -8.3943691    568.63507  0.014789718  0.014380741            4 
 3205000     0.738488   -8.4254039    570.50289  0.014833669  0.014375621            1 
 3206000   0.74057271    -8.406065    570.76277  0.014835797  0.014370513            6 
 3207000   0.73188683   -8.4447866    568.73427   0.01477846    0.0143654            4 
 3208000   0.73589913   -8.4306997    569.12076  0.014783894   0.01436028            3 
 3209000   0.72451244   -8.4289034    568.69303  0.014768179  0.014355157            6 
 3210000   0.72985484    -8.448407    567.91912  0.014743487  0.014350018            1 
 3211000   0.73969057   -8.4310918    569.42727  0.014778036  0.014344888            2 
 3212000   0.73210128    -8.428545    569.38235  0.014772269  0.014339768            4 
 3213000   0.74411401   -8.4195302    568.94379  0.014756297  0.014334649            5 
 3214000   0.72557323   -8.4236724    568.74796  0.014746628  0.014329539            5 
 3215000   0.71383449   -8.4467076    568.53849  0.014736612  0.014324435            2 
 3216000   0.73578965   -8.4319025    569.24982  0.014750462  0.014319332            3 
 3217000   0.73072245   -8.4135627    569.74401  0.014758678  0.014314229            4 
 3218000   0.73223771   -8.4341821    569.27009  0.014741819  0.014309152            2 
 3219000   0.73741407   -8.4008868    569.28246   0.01473756  0.014304056            3 
 3220000   0.72535452   -8.4130197    569.31563  0.014733841  0.014298982           10 
 3221000   0.73883908   -8.4164877     569.0934  0.014723518  0.014293915            1 
 3222000   0.72449957   -8.3942868    570.02981  0.014743167  0.014288849            2 
 3223000   0.72538781   -8.4038952    570.08569  0.014740037  0.014283796            2 
 3224000   0.73500778   -8.4072434    570.73987  0.014752375  0.014278749            2 
 3225000   0.74546655   -8.4194741    568.82457  0.014698309  0.014273695            2 
 3226000   0.73718775   -8.4077711     568.3856  0.014682414  0.014268622            3 
 3227000   0.73806781   -8.4307327    568.54397  0.014681954  0.014263548            2 
 3228000   0.74033956   -8.3887192    570.80092   0.01473567  0.014258477            2 
 3229000   0.74261772   -8.4151805     569.6493  0.014701386   0.01425342            2 
 3230000   0.75138034   -8.4009994    571.53954  0.014745602  0.014248369            2 
 3231000   0.72543534   -8.4081119    569.56576  0.014690131  0.014243319            2 
 3232000   0.74171997   -8.4394413    568.62741  0.014661391  0.014238261            3 
 3233000   0.72861351   -8.4125722    569.57148  0.014681191  0.014233178            2 
 3234000   0.72964951   -8.4121688    569.76383  0.014681608  0.014228089            3 
 3235000   0.74193532    -8.419553    568.63759  0.014648058  0.014223036            2 
 3236000   0.73612246   -8.4465967    569.78841  0.014673167  0.014217967            5 
 3237000   0.74514823   -8.4275548    569.84032   0.01466997  0.014212906            3 
 3238000   0.75204354   -8.4293278    567.70362  0.014610449   0.01420785            2 
 3239000   0.74957453   -8.4101078    569.75453  0.014658705    0.0142028            4 
 3240000   0.72751578    -8.421408    569.27469  0.014641839  0.014197741            5 
 3241000   0.75459918   -8.4288306     569.2157  0.014635804  0.014192689            3 
 3242000   0.71966155    -8.439294    569.22555  0.014631543  0.014187637            2 
 3243000   0.74203898   -8.4437076    570.46604  0.014658907  0.014182573            3 
 3244000   0.73120562   -8.4359248    569.69592  0.014634605  0.014177513            3 
 3245000   0.73628649   -8.4436992    569.09095   0.01461456  0.014172446            4 
 3246000   0.76745321   -8.4403548    568.63391  0.014598324  0.014167396            1 
 3247000   0.75077257   -8.4370504     568.8553   0.01459951  0.014162336            4 
 3248000   0.73094304   -8.4502422      568.263  0.014579818  0.014157274            2 
 3249000    0.7410347   -8.4434599    569.60315  0.014609704   0.01415221            2 
 3250000   0.72603067   -8.4338597    568.24203  0.014570308  0.014147137            5 
 3251000   0.73132548    -8.478105    568.75771  0.014579045   0.01414206            3 
 3252000   0.72996172   -8.4350761     570.5485  0.014620452  0.014136991            2 
 3253000   0.73390828   -8.4457768    569.77002  0.014596014   0.01413194            1 
 3254000   0.73923386   -8.4187639    571.39893  0.014633244  0.014126893            2 
 3255000   0.73232088   -8.4474718    569.89242   0.01459018  0.014121838            5 
 3256000   0.72893515   -8.4382595    569.36524  0.014572206  0.014116783            3 
 3257000   0.72550706   -8.4199088    570.40945  0.014594449  0.014111733            1 
 3258000    0.7267714   -8.4452829    570.00175  0.014579541  0.014106688            3 
 3259000   0.73116137   -8.4661044    568.59233  0.014539029  0.014101634            2 
 3260000   0.72215854   -8.4500885    568.52373  0.014532815  0.014096592            3 
 3261000   0.73857752   -8.4521385      568.297  0.014522565  0.014091538            3 
 3262000   0.73059313   -8.4773967     569.6901  0.014553702  0.014086495            2 
 3263000    0.7017431   -8.4263231     568.6501  0.014522681  0.014081455            3 
 3264000   0.73932016   -8.4435704    570.31064  0.014560627  0.014076432            3 
 3265000   0.72556334   -8.4816007    567.96298  0.014496248  0.014071403            3 
 3266000   0.72681368   -8.4591442    570.22542  0.014549536  0.014066362            3 
 3267000   0.73153707   -8.4545218    569.21738   0.01451937  0.014061326            3 
 3268000   0.73377472   -8.4687434      568.764  0.014503366  0.014056285            1 
 3269000   0.73727357   -8.4625522    568.82697  0.014500534  0.014051225            5 
 3270000   0.71708907   -8.4417168    568.91354  0.014498306  0.014046182            4 
 3271000   0.72085237   -8.4397662    569.34252  0.014504803  0.014041146            3 
 3272000   0.72542147   -8.4841113    569.37377  0.014501166  0.014036109            6 
 3273000   0.72513939   -8.4750857    569.36589  0.014496535  0.014031082            3 
 3274000   0.71647414   -8.4844205    569.33648  0.014491358   0.01402606            3 
 3275000   0.71837251   -8.4808693    568.51966  0.014466149  0.014021037            2 
 3276000   0.71355113   -8.4617295    570.35633  0.014508454  0.014016026            5 
 3277000   0.72478801   -8.4630542    569.45298  0.014481054  0.014011011            6 
 3278000   0.72593228   -8.4833023    569.70881   0.01448314     0.014006            7 
 3279000   0.73650524    -8.463499     569.7849  0.014480657  0.014000982            1 
 3280000   0.72532832   -8.4878657    570.10251  0.014484312  0.013995973            3 
 3281000   0.73279097   -8.4585076    569.56531  0.014466253  0.013990963            3 
 3282000   0.72207608   -8.4798536    568.98615   0.01444714  0.013985951            1 
 3283000    0.7285486   -8.4734478    569.60319  0.014458402  0.013980946            1 
 3284000   0.72834696   -8.4602512     568.8211  0.014434153  0.013975947            3 
 3285000   0.72806844   -8.4640874    570.37234  0.014469111  0.013970949            2 
 3286000   0.71839425   -8.4808065    569.09103  0.014432213   0.01396595            2 
 3287000   0.73521788   -8.4659253     569.5129  0.014438518  0.013960959            2 
 3288000   0.73878962   -8.4639867    569.22766  0.014426897   0.01395595            2 
 3289000   0.73220999   -8.4712003    570.22642  0.014447817  0.013950947            4 
 3290000   0.71694898   -8.4366662    568.74655  0.014405941  0.013945954            2 
 3291000   0.72377464   -8.4715434    569.38558  0.014417745  0.013940968            3 
 3292000   0.71677249   -8.4315551    570.18686  0.014433649  0.013935977            1 
 3293000   0.72656416   -8.4678011    568.86011  0.014395691  0.013930982            2 
 3294000   0.73318548   -8.4714133    569.21784   0.01440037  0.013925991            3 
 3295000   0.71664413   -8.4631743    569.54027  0.014404155  0.013920993            1 
 3296000   0.70970256   -8.4545925    568.67029  0.014377788  0.013916005            2 
 3297000   0.71837884   -8.4689509    568.18043  0.014361046  0.013910999            3 
 3298000   0.73137608   -8.4606928    569.05001  0.014378664  0.013906006            3 
 3299000   0.72311295   -8.4535397    569.76852  0.014392455  0.013901016            5 
 3300000   0.71833886   -8.4789511    569.07007  0.014370456  0.013896055            2 
 3301000   0.71978475    -8.468847     569.1879  0.014369078  0.013891077            6 
 3302000   0.73199849   -8.4706989    569.31642  0.014367969  0.013886112            2 
 3303000   0.71480325   -8.4713235    569.91589  0.014378744  0.013881144            2 
 3304000   0.71778178     -8.45066     570.9407   0.01440024  0.013876178            3 
 3305000   0.72763878      -8.4446    568.68115  0.014338909  0.013871209            2 
 3306000   0.72208385   -8.4585634    571.12453  0.014396162  0.013866242            2 
 3307000   0.72415839   -8.4458861    570.42752  0.014374245  0.013861291            4 
 3308000   0.72549669   -8.4702539    570.63207  0.014375052  0.013856347            2 
 3309000   0.71928106   -8.4555827    570.35268  0.014363672  0.013851398            3 
 3310000     0.727131   -8.4769705    568.90593  0.014322909  0.013846441            4 
 3311000   0.71702074   -8.4614768    570.01039   0.01434638  0.013841493            1 
 3312000   0.73572282   -8.4904148    568.93248  0.014314927  0.013836544            4 
 3313000   0.72291378   -8.4584313    569.60738  0.014327583  0.013831588            3 
 3314000   0.73463473   -8.4600608    569.53933  0.014321548  0.013826641            3 
 3315000   0.72504549   -8.4759735    568.55413  0.014292462    0.0138217            1 
 3316000   0.73624894   -8.4535182    569.92752  0.014322666  0.013816766            5 
 3317000   0.70388718   -8.4607266    568.92684  0.014293208  0.013811853            1 
 3318000   0.70881589   -8.4450686    569.68152  0.014307854   0.01380692            3 
 3319000   0.71553306   -8.4521596    570.26574  0.014318212  0.013801982            8 
 3320000    0.7180582   -8.4803271    570.26057  0.014313769  0.013797051            2 
 3321000   0.71456354   -8.4892075    569.42731   0.01428855  0.013792109            4 
 3322000   0.72794231   -8.4737401    570.57802  0.014313115  0.013787173            2 
 3323000   0.71885498   -8.4646533     571.1648  0.014323523  0.013782248            4 
 3324000   0.70240456   -8.4880568      571.225  0.014320723  0.013777329            4 
 3325000   0.71251907   -8.4486165    570.43284  0.014296562  0.013772405            6 
 3326000   0.70815561    -8.465354    570.01221  0.014281725  0.013767488            2 
 3327000   0.71467498   -8.4604088    570.47002  0.014288899  0.013762574            5 
 3328000   0.73522774   -8.4328111    569.71197  0.014265624  0.013757673            3 
 3329000   0.70632108   -8.4262673    570.09007  0.014270804  0.013752765            6 
 3330000   0.72577108   -8.4579441    570.09749  0.014266704  0.013747852            2 
 3331000   0.72784402   -8.4707377    570.42072  0.014270507  0.013742934            3 
 3332000   0.73094405   -8.4529895    569.89413  0.014253054  0.013738014            3 
 3333000   0.73146283   -8.4710595    570.06838  0.014253135   0.01373309            5 
 3334000   0.70620687    -8.473096    569.44781  0.014233349  0.013728163            3 
 3335000   0.72212563   -8.4363063    570.74709  0.014261546  0.013723247            1 
 3336000   0.72385602   -8.4645121     570.4831  0.014250677  0.013718335            2 
 3337000   0.71078463   -8.4479064    570.27895  0.014241308  0.013713434            3 
 3338000   0.71508999   -8.4843398     569.5138   0.01421794  0.013708514            8 
 3339000   0.70954094   -8.4308704    569.78236  0.014220384  0.013703608            3 
 3340000   0.73249901   -8.4401791    570.40838  0.014231746  0.013698718            3 
 3341000   0.73245769   -8.4361913    570.74321  0.014235838  0.013693813            4 
 3342000   0.70822058   -8.4558033    569.55212  0.014201878   0.01368892            7 
 3343000   0.72575312   -8.4761336     570.6547  0.014225115  0.013684026            4 
 3344000   0.71858939    -8.476595    569.19427  0.014184466  0.013679118            3 
 3345000    0.7148673   -8.4954891    569.54482  0.014188959  0.013674219            3 
 3346000   0.71252042      -8.4697    570.53773  0.014209447  0.013669319            4 
 3347000   0.71027273   -8.4916857    569.24487  0.014173012  0.013664432           13 
 3348000   0.71068562   -8.4724358    570.10879  0.014190283  0.013659544            2 
 3349000    0.7116013   -8.4751893    570.15419  0.014187175  0.013654666           10 
 3350000   0.72174485   -8.4726571    570.45601  0.014190448  0.013649776            5 
 3351000   0.69477085   -8.4750703     569.7954  0.014169785  0.013644877            4 
 3352000   0.72508829   -8.4847204    569.22996  0.014151501  0.013639989            8 
 3353000   0.70851822   -8.4959008    569.53004  0.014154738    0.0136351            2 
 3354000   0.71104212   -8.4562646    570.29663  0.014169565  0.013630226            6 
 3355000   0.72697064   -8.5026824    570.35363  0.014166757  0.013625332            5 
 3356000   0.71492441   -8.4711441    570.54751   0.01416735   0.01362046            2 
 3357000   0.72603788   -8.4627415    569.76438  0.014143689  0.013615596            2 
 3358000   0.72710879   -8.4933242    568.55532  0.014109473  0.013610727            1 
 3359000   0.70783334   -8.4889805    569.53438  0.014129562  0.013605858            7 
 3360000   0.71433723   -8.4709883    570.90988  0.014159471  0.013600977            3 
 3361000   0.71298227   -8.4900142    569.93604  0.014131113  0.013596091            7 
 3362000   0.71422993   -8.5050441    570.28793  0.014135632  0.013591223            5 
 3363000   0.70914545   -8.5063992    569.98087   0.01412382  0.013586348            5 
 3364000   0.70363161   -8.4573742    570.14101  0.014123588  0.013581488            3 
 3365000   0.71708134   -8.4763012    569.82338  0.014111525  0.013576625            3 
 3366000   0.72094016   -8.4729048    569.13144  0.014090202  0.013571761            4 
 3367000   0.70124458   -8.4555256    569.91509  0.014105412  0.013566896            5 
 3368000   0.72213988   -8.4880047    570.74447  0.014121746   0.01356204            5 
 3369000   0.73924399   -8.4759883    571.09643   0.01412626  0.013557176            6 
 3370000   0.72476761   -8.4680872    570.58926  0.014109527  0.013552302            2 
 3371000   0.70032322   -8.4766718     569.1058  0.014068669   0.01354744            4 
 3372000   0.70605051   -8.4575381    571.49996  0.014123664  0.013542584            7 
 3373000   0.70421637   -8.4900677    570.23129  0.014088133  0.013537722            2 
 3374000   0.70026717   -8.4992266    570.20326  0.014083266  0.013532863            3 
 3375000   0.71124341   -8.5013813    571.13085  0.014101996  0.013527997            8 
 3376000   0.71921481   -8.4751792    570.10679  0.014072541  0.013523146            2 
 3377000   0.70942734   -8.5005052    568.75688  0.014035063  0.013518296            3 
 3378000   0.72103435   -8.4839208    570.37703  0.014070876  0.013513449            3 
 3379000    0.7204907   -8.4871296    570.18663  0.014062016  0.013508614            2 
 3380000    0.7200598   -8.4796111    570.89916  0.014075423  0.013503792            2 
 3381000   0.71386181   -8.4799818    571.82875  0.014094172  0.013498961            2 
 3382000   0.70485735   -8.4726605    569.03786  0.014021237   0.01349413            3 
 3383000    0.7262891   -8.4836208    570.46356  0.014052211  0.013489303            2 
 3384000   0.70571799   -8.4869871    570.25603  0.014042948  0.013484483            2 
 3385000   0.70441205   -8.4977117    569.67067  0.014024389  0.013479642            1 
 3386000   0.69341484   -8.4791254    569.72823  0.014021664  0.013474808            2 
 3387000   0.69346053   -8.4787875    569.65357  0.014015687  0.013469976            2 
 3388000   0.70860377   -8.5131456    569.63006  0.014010971  0.013465153            2 
 3389000   0.71448307   -8.4986999    569.73089  0.014009317  0.013460317            3 
 3390000   0.72726442   -8.5061604     569.5194  0.013999985   0.01345549            3 
 3391000   0.71186908   -8.5047416    570.82885  0.014028036  0.013450657            2 
 3392000   0.71843281   -8.4879107    570.28547  0.014010551  0.013445828            3 
 3393000   0.71065363   -8.5149949    569.98139  0.013998953  0.013441009            2 
 3394000    0.7052134   -8.4969579    569.91739  0.013993257  0.013436178            2 
 3395000    0.7199473   -8.5050254    570.40196   0.01400103  0.013431358            3 
 3396000   0.71061186   -8.5202246     568.9304  0.013960797  0.013426522            2 
 3397000   0.71037989   -8.5024547    569.90622  0.013980625  0.013421702            3 
 3398000   0.70042528    -8.516483    569.92254  0.013976911  0.013416881            2 
 3399000   0.70534767   -8.5092825    570.17754  0.013979051   0.01341207            1 
 3400000   0.69952492   -8.5013889    570.18644  0.013975158  0.013407259            2 
 3401000   0.70596349   -8.4964549    569.84434  0.013962666  0.013402455            2 
 3402000   0.70956622   -8.4547012     570.5267  0.013975277  0.013397645            7 
 3403000   0.69995539   -8.5102783    569.65831  0.013949905  0.013392836            5 
 3404000   0.70100908    -8.506851    569.98147  0.013953718  0.013388025            2 
 3405000   0.70372948   -8.5156012     568.7579  0.013919675  0.013383215            1 
 3406000   0.69145868   -8.5115348    570.55724  0.013959611  0.013378401            5 
 3407000   0.70252304   -8.5179857    568.82742  0.013913204  0.013373581            3 
 3408000   0.69825896   -8.5004403    570.13049  0.013940984  0.013368769            4 
 3409000    0.6959027   -8.5292878    570.05602  0.013935074  0.013363959            2 
 3410000   0.69694763   -8.5175984    569.65195  0.013921113  0.013359154            3 
 3411000   0.69635609   -8.5294234    570.02046  0.013926035   0.01335435            2 
 3412000   0.69515828   -8.5116232    570.48964  0.013933412  0.013349536            2 
 3413000   0.71183329   -8.5210484    570.17624  0.013921678  0.013344734            5 
 3414000   0.71558327   -8.5331834    569.88617   0.01391052  0.013339924            3 
 3415000   0.72060905   -8.5462996     569.1588  0.013888697   0.01333511            2 
 3416000    0.7090178   -8.5073901    570.46502  0.013916496  0.013330302            3 
 3417000   0.69861256   -8.5427045    569.39189  0.013886252  0.013325493            3 
 3418000   0.70678723   -8.5115433    569.99489  0.013896891  0.013320677            2 
 3419000    0.6958844   -8.5215252    569.72911  0.013886349  0.013315871            3 
 3420000   0.70607589   -8.5321633    569.86392  0.013885573  0.013311074            2 
 3421000   0.71481942   -8.5423844    569.72118  0.013878037  0.013306282            1 
 3422000   0.71161794     -8.52654    569.14253   0.01385989  0.013301483            3 
 3423000   0.69936284   -8.5467584    569.45331  0.013863407  0.013296682            3 
 3424000   0.69592536   -8.5317746    569.69842  0.013865324  0.013291896            2 
 3425000    0.6882334   -8.5213466    569.98114  0.013868154  0.013287111            5 
 3426000   0.70709906   -8.5246132    570.37443  0.013873673  0.013282325            5 
 3427000   0.70297456   -8.5166454    570.55458  0.013874005  0.013277538            1 
 3428000   0.70141702   -8.5175396    570.59227  0.013870874  0.013272751            5 
 3429000   0.70061815   -8.5273036    569.45906  0.013839289  0.013267965            3 
 3430000   0.69565967   -8.5740451    569.49179  0.013836049  0.013263171            4 
 3431000   0.70250401   -8.4995034    570.22269  0.013849769  0.013258392            2 
 3432000   0.71209368   -8.5123951    569.42755  0.013826427   0.01325361            1 
 3433000   0.71922665   -8.5319241    568.53271  0.013800677  0.013248827            2 
 3434000   0.70432339    -8.507866      570.166  0.013836294  0.013244042            6 
 3435000   0.70685405    -8.528577    569.88186  0.013825373  0.013239273            9 
 3436000   0.69909373   -8.5175319    570.10546  0.013826772  0.013234497            2 
 3437000   0.68512105   -8.5197881    569.24065  0.013801781  0.013229718            4 
 3438000   0.70073503   -8.5224198    568.98197  0.013791496  0.013224944            5 
 3439000   0.69563276   -8.5253025    569.79774  0.013807254   0.01322018            2 
 3440000   0.71548754   -8.5207237    570.67431  0.013824475  0.013215413            2 
 3441000   0.71404631   -8.5282947    569.40587  0.013789738  0.013210652            1 
 3442000   0.70873523   -8.5347772    569.91302   0.01379801  0.013205883            3 
 3443000   0.69772086   -8.5304715    570.30854  0.013803576  0.013201126           10 
 3444000   0.68963527   -8.5385293    568.61593  0.013758612  0.013196354            2 
 3445000   0.68946229   -8.5419276    569.76058  0.013782307  0.013191591            2 
 3446000   0.69367653   -8.5117501    569.38475  0.013769219  0.013186829            2 
 3447000    0.6986725   -8.5594481    568.50788  0.013744026  0.013182071           11 
 3448000   0.68560007   -8.5220178    570.25886  0.013782358  0.013177324            5 
 3449000   0.70907538   -8.5192739    570.48027  0.013783712  0.013172574            3 
 3450000   0.70168351    -8.544124    569.73966  0.013761828  0.013167819            3 
 3451000   0.70620362   -8.5546193    569.73643  0.013757762  0.013163056            5 
 3452000   0.70665029   -8.5589925    569.45974  0.013747097    0.0131583            5 
 3453000   0.70793215   -8.5368211    569.85017  0.013752538  0.013153547            5 
 3454000    0.7050632    -8.537904     569.2575  0.013734257  0.013148802            2 
 3455000   0.70343661    -8.513849    571.94527   0.01379511   0.01314407            2 
 3456000   0.69110149   -8.5481579    570.71587  0.013761475  0.013139337            4 
 3457000   0.70631535   -8.5505395    569.60395   0.01373069  0.013134587           12 
 3458000   0.70525235   -8.5185793    570.40669  0.013746064   0.01312985            5 
 3459000   0.70877284   -8.5427356    568.98092  0.013707741  0.013125125            3 
 3460000   0.69991154   -8.5420398    569.66658  0.013720293  0.013120382            5 
 3461000   0.68774833   -8.5543372      569.619  0.013715183  0.013115644            4 
 3462000   0.68763168   -8.5416098    569.40129  0.013705981  0.013110911            3 
 3463000   0.69108319    -8.547949    568.74765  0.013686294   0.01310618            3 
 3464000    0.7051048    -8.551234    568.64941   0.01367998  0.013101449            3 
 3465000   0.68793017   -8.5641983    568.62407  0.013675422  0.013096711            5 
 3466000   0.70395375   -8.5569369    569.09978  0.013682915  0.013091981            2 
 3467000   0.70066949   -8.5475313     569.7413  0.013694388  0.013087247            2 
 3468000   0.69719398   -8.5441404     568.7106  0.013665672  0.013082511            4 
 3469000   0.70468263   -8.5434783     569.2487  0.013674659  0.013077778            2 
 3470000    0.6971557    -8.561172    569.00753  0.013664926  0.013073055            4 
 3471000   0.70556002   -8.5385658    569.85275  0.013681282  0.013068342            3 
 3472000   0.70289082   -8.5509572    568.47711  0.013644324  0.013063617            4 
 3473000   0.70104954   -8.5620412    569.44799  0.013663691    0.0130589            3 
 3474000   0.69194351   -8.5465823    568.89346  0.013646456   0.01305417            4 
 3475000   0.67892265    -8.532779    569.64946  0.013660658  0.013049449            4 
 3476000   0.69698118   -8.5506101    570.41722  0.013675135  0.013044738            3 
 3477000   0.69675422    -8.543927    569.84061  0.013657382  0.013040032            7 
 3478000     0.700992   -8.5340014    569.83514  0.013653324  0.013035323            7 
 3479000   0.68779877   -8.5269808    569.36667  0.013638178  0.013030606            2 
 3480000   0.70719388   -8.5282357    570.00155  0.013649462  0.013025901            9 
 3481000   0.69578146   -8.5332491    570.81067  0.013664911  0.013021201            3 
 3482000   0.68116435    -8.565434    569.59998  0.013632012  0.013016488            1 
 3483000    0.6858306   -8.5623395    567.96306  0.013588933  0.013011781            2 
 3484000   0.68943146   -8.5588698    568.46994  0.013597157  0.013007071            7 
 3485000   0.69267955   -8.5631773     569.6437  0.013621322  0.013002368            4 
 3486000   0.68621581   -8.5452585    568.91454  0.013599984  0.012997649            4 
 3487000   0.69148211   -8.5420865    569.25565  0.013604236   0.01299294            7 
 3488000   0.70340335   -8.5519746    568.97929  0.013593733  0.012988241            2 
 3489000   0.67749109   -8.5521041    569.67461  0.013606444  0.012983534            8 
 3490000   0.69588184    -8.547099    570.24382  0.013616137  0.012978834            3 
 3491000   0.68508576   -8.5784008    569.03708  0.013583431  0.012974137            2 
 3492000   0.69725273   -8.5647793    569.86907  0.013599395  0.012969432            3 
 3493000   0.69493219   -8.5684013    569.60309  0.013589157  0.012964727            2 
 3494000   0.69406347    -8.566341    569.34243   0.01357905   0.01296003            3 
 3495000   0.69320286   -8.5710976     570.1128  0.013593534  0.012955342            4 
 3496000   0.69499587   -8.5518539    570.04227  0.013587964   0.01295067            5 
 3497000   0.68307443   -8.5547512    569.07097  0.013560933  0.012945984            6 
 3498000   0.69354488    -8.583803    569.03865  0.013556286  0.012941303            1 
 3499000   0.70343639   -8.5608763    569.12322  0.013554425   0.01293662            5 
 3500000   0.69134567   -8.5546572    570.28105   0.01357812  0.012931943            6 
 3501000   0.69123564   -8.5682209    569.73809  0.013561318  0.012927273            2 
 3502000   0.70589723   -8.5634618    569.73114   0.01355728  0.012922596            3 
 3503000   0.69642336   -8.5768252    569.56094  0.013549361  0.012917932            2 
 3504000   0.69483137   -8.5820204    569.38948  0.013541416  0.012913265            7 
 3505000   0.70814431   -8.5500999    569.52966  0.013540886  0.012908605           11 
 3506000   0.70738078   -8.5740552    568.91989   0.01352253  0.012903951            4 
 3507000   0.69353513   -8.5658833    569.51715  0.013532866  0.012899294            7 
 3508000   0.69211308   -8.5440114    569.01257  0.013517022  0.012894624            7 
 3509000    0.6984533   -8.5493054      569.955  0.013535551  0.012889964            9 
 3510000   0.69612545   -8.5384984    569.16274  0.013512886  0.012885307            9 
 3511000   0.70287865   -8.5524111    568.42619  0.013491555   0.01288066            9 
 3512000   0.69038298   -8.5622772    569.91505  0.013523041  0.012876006           12 
 3513000   0.68988069   -8.5773569    568.77703  0.013492196  0.012871351            5 
 3514000   0.69684278   -8.5566099    568.04146  0.013470913  0.012866703            7 
 3515000   0.69784361   -8.5615503    568.62879  0.013481005  0.012862055            7 
 3516000   0.69608778    -8.581916    568.68751  0.013478562  0.012857406            6 
 3517000   0.69334187   -8.5738211    570.52495  0.013518267  0.012852757            8 
 3518000   0.69987178   -8.5439873    570.27298  0.013508456  0.012848112            5 
 3519000    0.6780586   -8.5615945    569.28838  0.013481301  0.012843476            7 
 3520000    0.6783265   -8.5587491    569.41724  0.013480522  0.012838815            3 
 3521000   0.69792768   -8.5596519    570.49067  0.013502099  0.012834173            6 
 3522000   0.68664253   -8.5708354    569.14364  0.013466393  0.012829525            9 
 3523000   0.67737586   -8.5625373    569.41569  0.013469006  0.012824879           12 
 3524000   0.67813123   -8.5895097     567.5462  0.013420975  0.012820233            5 
 3525000   0.70053118   -8.5565358     568.9717  0.013450868  0.012815585            4 
 3526000   0.67924024   -8.5553996    568.97188  0.013447057  0.012810942            3 
 3527000   0.69254649   -8.5744528    570.45219   0.01347822  0.012806296            3 
 3528000   0.68639429    -8.587794    568.28692  0.013423255  0.012801653            2 
 3529000   0.69002232   -8.5569641    569.32586  0.013443985  0.012797012            3 
 3530000   0.69085639   -8.5670378    568.70824  0.013425596  0.012792367            3 
 3531000   0.68489009   -8.5451574    569.59534   0.01344273  0.012787731            3 
 3532000   0.67567783    -8.587283    568.74724  0.013418914  0.012783096            5 
 3533000   0.67937599    -8.589266    567.68284  0.013390009  0.012778462            2 
 3534000   0.69216761   -8.5574034    569.42983  0.013427415  0.012773834            4 
 3535000   0.68054234    -8.599865    568.65281    0.0134053  0.012769206            4 
 3536000   0.68294868   -8.5828392       569.32  0.013417232  0.012764572            3 
 3537000   0.67532111   -8.5880215    568.95275  0.013404786  0.012759954            3 
 3538000   0.67159547   -8.5845489     569.4998  0.013413883  0.012755325            2 
 3539000   0.67134708   -8.6229506    569.48659  0.013409781    0.0127507            2 
 3540000   0.67789422   -8.5704683    569.83662  0.013414233  0.012746064            2 
 3541000   0.69096922   -8.5604542    569.33725  0.013398693  0.012741437            1 
 3542000   0.68707992   -8.5956433    568.82796  0.013382928  0.012736802            1 
 3543000   0.68882969   -8.5713979    569.10814   0.01338574  0.012732181            2 
 3544000   0.69105945   -8.5727442    568.43538  0.013366144  0.012727552            3 
 3545000   0.68201561   -8.5874115    569.29947  0.013382686  0.012722928            3 
 3546000   0.69869434    -8.574111     569.2207  0.013377061  0.012718315            3 
 3547000    0.6751446   -8.5753708    570.47652  0.013402794  0.012713707            4 
 3548000   0.68929896    -8.584319    570.43369   0.01339801  0.012709104            6 
 3549000   0.68967158   -8.5518392    569.23437  0.013366074  0.012704506            2 
 3550000   0.67561784    -8.584753     569.0991  0.013359134  0.012699917            7 
 3551000   0.68351912   -8.5831422    568.35487  0.013337907  0.012695326            4 
 3552000   0.68545079   -8.5863166    569.59011  0.013363131  0.012690734            3 
 3553000   0.68504299   -8.5813153    569.03026  0.013346239  0.012686141            4 
 3554000   0.67683991   -8.6055677     569.8588  0.013361911  0.012681535            3 
 3555000    0.6731455   -8.5926523     569.6004  0.013352096  0.012676943            2 
 3556000   0.67241219       -8.561    569.64378  0.013349357  0.012672349            1 
 3557000   0.68156777    -8.587586    568.62573  0.013321753  0.012667761            2 
 3558000   0.68508042     -8.57561    569.20708  0.013331625  0.012663177            2 
 3559000   0.68277846   -8.5935858    569.33001  0.013330758  0.012658595            5 
 3560000   0.69380688   -8.6124465    569.11006  0.013321865  0.012654018            4 
 3561000   0.67097041   -8.5944721     569.5953  0.013329479  0.012649431            3 
 3562000   0.69371779   -8.6054818    569.51338  0.013323821  0.012644846            4 
 3563000   0.69321188   -8.5851973    569.77116   0.01332611  0.012640268            2 
 3564000   0.66042501   -8.5740177    567.93639   0.01327947  0.012635684            2 
 3565000   0.69777937   -8.5878143    569.66078  0.013316054  0.012631103            3 
 3566000   0.67510438   -8.5874612    568.68037  0.013289408   0.01262652            2 
 3567000   0.67390332   -8.5981884    568.80452  0.013288583  0.012621941            3 
 3568000   0.67141298   -8.5927851    568.96521  0.013288612  0.012617366            2 
 3569000   0.67206321   -8.5677361    569.34819  0.013293831  0.012612793            2 
 3570000    0.6705601   -8.5808647    569.92146  0.013303489   0.01260823            5 
 3571000   0.68012889   -8.5934626    569.85402   0.01329819  0.012603675            5 
 3572000   0.66943962   -8.5978906    568.05684  0.013252539  0.012599125            4 
 3573000   0.66955908   -8.5681591    569.07351  0.013272542  0.012594578            2 
 3574000   0.68102846   -8.5826129    569.86769  0.013287346  0.012590024            4 
 3575000   0.69423293   -8.5666207    569.46475  0.013274237   0.01258549            3 
 3576000   0.67512569    -8.607285    569.06497  0.013261208  0.012580951            3 
 3577000   0.66645623   -8.5928909    569.87531  0.013276379  0.012576402            6 
 3578000   0.69035061   -8.5921882    570.47048  0.013286531  0.012571851            2 
 3579000   0.68925813   -8.5979537    569.25117  0.013254428  0.012567293            2 
 3580000    0.6863735   -8.5869478    569.57209  0.013258196  0.012562742            5 
 3581000   0.68065187   -8.5988587    568.34293   0.01322589  0.012558197            3 
 3582000   0.67783104   -8.5930229    568.80655  0.013232983  0.012553649            3 
 3583000   0.66007899   -8.5690637    569.67395  0.013249464  0.012549107            8 
 3584000   0.67865036    -8.577354    570.47793  0.013264461  0.012544577            4 
 3585000   0.66758676   -8.5708947    570.06227  0.013251099  0.012540044            3 
 3586000   0.69067611   -8.6010408      569.173  0.013226738  0.012535511            5 
 3587000   0.67594389   -8.6046051    569.42835  0.013228983  0.012530979            2 
 3588000   0.67853753   -8.5935523    571.00991  0.013262029  0.012526446            4 
 3589000    0.6872856    -8.596473    568.70469  0.013204808  0.012521909            5 
 3590000   0.68143524    -8.595202    569.36986  0.013216571  0.012517375            3 
 3591000   0.68226931   -8.5821481    569.03751  0.013205177   0.01251285            2 
 3592000   0.68136122   -8.5934555    569.49335  0.013212077  0.012508318            4 
 3593000   0.67377668   -8.6030643    568.75505  0.013191276  0.012503791            3 
 3594000   0.67346254   -8.5944659    568.71865  0.013186762  0.012499264            8 
 3595000   0.69455752   -8.5702845    569.80749  0.013208333  0.012494744            4 
 3596000   0.67325807   -8.5928279    569.44713  0.013196309   0.01249022            6 
 3597000   0.66861024   -8.6030709    569.80079  0.013200834  0.012485709            6 
 3598000   0.67064681   -8.5886753    569.52588  0.013190798  0.012481187            2 
 3599000   0.67316752   -8.5916779    569.84786  0.013194588  0.012476668            5 
 3600000   0.68892515   -8.6104662     568.6256   0.01316263  0.012472153            2 
 3601000   0.68835093   -8.5860599    569.94419  0.013189489  0.012467642            4 
 3602000   0.68067772   -8.6071491    570.05351  0.013188356  0.012463129            3 
 3603000   0.68200644   -8.5829204    569.43704  0.013170438  0.012458614            6 
 3604000   0.66271769   -8.5984546    569.51105  0.013168495  0.012454097            2 
 3605000   0.68107837   -8.5935078    570.06275  0.013177595  0.012449587            4 
 3606000   0.67302469   -8.6068654    569.57658  0.013162705  0.012445077            9 
 3607000   0.66723867   -8.6053353    569.61269   0.01315989  0.012440577            8 
 3608000   0.67539281     -8.59209    569.74213  0.013159232  0.012436079            9 
 3609000   0.66490624   -8.6209237    569.28821  0.013145105  0.012431581            6 
 3610000   0.66870759   -8.6323309    568.90048  0.013132513  0.012427086            2 
 3611000   0.67255833   -8.5950371    568.66218  0.013123377  0.012422592            3 
 3612000   0.67548872   -8.6007968    568.65247   0.01311952  0.012418102            4 
 3613000   0.68906118   -8.6055047    568.45864  0.013111418  0.012413609            2 
 3614000   0.66623476   -8.5958835    570.01405  0.013143655  0.012409117            4 
 3615000   0.67310389   -8.5927887    568.04269  0.013094576  0.012404619            1 
 3616000   0.67620149   -8.5814238    569.97113  0.013135397  0.012400133            3 
 3617000   0.66788217   -8.5990927    568.68025  0.013102024  0.012395644            2 
 3618000   0.67621368   -8.5933875    569.81191  0.013124468   0.01239116            1 
 3619000   0.67235363   -8.5872414    570.39809  0.013134339  0.012386684            1 
 3620000   0.67391214   -8.5950079    569.12799  0.013101473   0.01238221            3 
 3621000   0.68093474   -8.5734562    570.01038  0.013118162  0.012377753            3 
 3622000   0.67188316   -8.5866355    569.80239  0.013109755  0.012373281            2 
 3623000   0.65015333    -8.593352    569.58458  0.013101127  0.012368807            4 
 3624000   0.67293911   -8.5937122    570.02372  0.013107609  0.012364335            4 
 3625000   0.67680276   -8.5652658    569.96583  0.013102663  0.012359876            2 
 3626000   0.67768079   -8.6053155    569.82306  0.013095768   0.01235542            4 
 3627000   0.66557416   -8.5765601    570.21794   0.01310123  0.012350969            2 
 3628000   0.67553727   -8.5960975    569.68457  0.013085368  0.012346511            3 
 3629000   0.68416209   -8.5921808    569.31785  0.013073341  0.012342052            3 
 3630000   0.66020529   -8.6288472    569.11545  0.013065093  0.012337597            2 
 3631000   0.66623822   -8.6058965    569.96899  0.013081084  0.012333141            2 
 3632000   0.67609106   -8.6100578    569.17634  0.013059296  0.012328692            5 
 3633000   0.66419794   -8.6198695    569.39231  0.013060655  0.012324247            3 
 3634000   0.68246149   -8.5869662    570.52297  0.013082989  0.012319789            3 
 3635000   0.67057774   -8.5676454    569.36957  0.013052948  0.012315341            2 
 3636000    0.6569836   -8.5986335    569.86039  0.013060607  0.012310898            1 
 3637000   0.66978755    -8.613663    568.78375  0.013032347  0.012306455            2 
 3638000   0.67622577   -8.6154641    567.43474  0.012997864  0.012302004            2 
 3639000   0.65733479   -8.6269365    568.86313  0.013027002   0.01229755            1 
 3640000   0.67755065   -8.6242799    568.60648  0.013017548  0.012293096            3 
 3641000   0.65537735   -8.5875934    569.90976  0.013043801  0.012288642            3 
 3642000   0.66674216   -8.5972288    568.50558   0.01300809  0.012284194            3 
 3643000    0.6814161   -8.6228707     568.9892  0.013015582  0.012279744            3 
 3644000   0.66047029    -8.621586    568.99637  0.013012175  0.012275294            5 
 3645000   0.68016875   -8.6247831    568.68558  0.013001499  0.012270856            3 
 3646000   0.65774957   -8.6237356     570.7782  0.013045762  0.012266409            3 
 3647000   0.66506879   -8.5988326    569.42042   0.01301116  0.012261975            2 
 3648000   0.67277256    -8.621518    569.08901  0.013000023  0.012257546            4 
 3649000   0.66753009   -8.5902547    569.90437  0.013015081  0.012253106            2 
 3650000   0.67284273   -8.6136735    568.89396  0.012988447  0.012248673            5 
 3651000   0.65721835   -8.6283617    569.13603  0.012990414  0.012244239            1 
 3652000    0.6767806   -8.6108633     569.5563  0.012996447  0.012239814            1 
 3653000   0.67202144   -8.5905094    569.06281  0.012981632  0.012235397            3 
 3654000   0.65801802   -8.5775916    569.73874  0.012993494  0.012230976            2 
 3655000   0.69217673   -8.6164243    568.99491   0.01297298  0.012226554            2 
 3656000   0.67619135   -8.6155708    569.48268   0.01298055  0.012222127            4 
 3657000   0.67299793   -8.5949432    568.76993  0.012960759  0.012217701            2 
 3658000   0.66957533   -8.6122864    569.36757   0.01297083  0.012213283            2 
 3659000   0.66562125   -8.6001034    568.98157  0.012958494  0.012208864            5 
 3660000   0.66381261   -8.6073911    569.17733  0.012959411  0.012204447            3 
 3661000   0.66056863   -8.6069287    569.78038  0.012969598  0.012200029            2 
 3662000   0.67348252   -8.6069437    568.64175  0.012940145  0.012195614            3 
 3663000   0.66950924   -8.6103559    569.46438  0.012955328  0.012191191            3 
 3664000   0.66103019   -8.6070646    568.10074  0.012920777  0.012186767            4 
 3665000   0.67063463   -8.6067587    569.89143  0.012957968  0.012182349            3 
 3666000   0.67725159   -8.5980998    568.72834  0.012927995  0.012177929            2 
 3667000   0.65597023   -8.6138929    568.91124  0.012928626  0.012173509            4 
 3668000   0.64068423   -8.6277428    567.87449  0.012901547  0.012169099            6 
 3669000   0.67076062   -8.6246668    568.13801  0.012904016  0.012164678            3 
 3670000   0.65966143   -8.6108234    569.90846  0.012940701  0.012160268            2 
 3671000   0.66230647   -8.5976943    568.97276  0.012915935  0.012155861            2 
 3672000   0.67251122   -8.6327475    569.73193  0.012929646  0.012151459            2 
 3673000   0.66916374   -8.6422698    567.94424  0.012885567  0.012147053            2 
 3674000   0.66659303   -8.6165193    568.46884  0.012893959  0.012142643            3 
 3675000   0.67167759   -8.6212733    568.49506  0.012891044  0.012138235            2 
 3676000   0.66063992   -8.6468564    567.51889  0.012865408   0.01213383            3 
 3677000   0.67894155   -8.6419706    569.05783  0.012896787  0.012129411            2 
 3678000   0.65891561   -8.6208617    568.64284  0.012883878  0.012124998            3 
 3679000   0.65962454   -8.6131989    567.96257  0.012864967  0.012120587            3 
 3680000   0.67010336   -8.6456844    568.24026  0.012867759   0.01211618            2 
 3681000   0.66450307   -8.6308418    567.52664  0.012848108  0.012111773            1 
 3682000   0.66588793   -8.6502016    567.73921   0.01284943  0.012107374            2 
 3683000   0.68313598   -8.6291247    568.19985  0.012856364   0.01210298            4 
 3684000    0.6727274   -8.6211314    568.84472  0.012867461   0.01209859            3 
 3685000   0.66293291    -8.636767    568.20276  0.012849452  0.012094195            4 
 3686000    0.6588085   -8.6218512    567.94072  0.012840042  0.012089805            3 
 3687000   0.66910413   -8.6376142    567.57329  0.012828254  0.012085407            2 
 3688000   0.66270684   -8.6038222    568.06263  0.012835833  0.012081025            2 
 3689000   0.65644161   -8.5943955      569.786  0.012871284  0.012076651            2 
 3690000   0.66175858   -8.6333811    568.75665  0.012844549  0.012072275            5 
 3691000   0.66335039   -8.6326468    569.16193   0.01285022  0.012067894            5 
 3692000   0.67894535   -8.6466027    568.54013  0.012832704  0.012063505            2 
 3693000   0.65430385   -8.6287457    568.10293  0.012819364  0.012059122            2 
 3694000   0.66431107   -8.6460816    568.62391  0.012827646  0.012054745            2 
 3695000   0.64771276    -8.632544    569.05319  0.012833856  0.012050365            5 
 3696000   0.66365449    -8.623059    568.35893  0.012814731  0.012045992            2 
 3697000   0.67259601   -8.6364429    568.65516  0.012817942  0.012041627            3 
 3698000   0.64973995   -8.6151082    568.68371  0.012815119  0.012037263            1 
 3699000   0.66001544   -8.6465444    568.18154  0.012800341  0.012032884            3 
 3700000    0.6593173   -8.6186366    568.54969  0.012805173  0.012028514            3 
 3701000   0.66094049    -8.636279    569.01962  0.012812294  0.012024145            2 
 3702000   0.64850014   -8.6113794    567.15668  0.012766898  0.012019776            3 
 3703000   0.67587167   -8.6366644    568.91182  0.012802948  0.012015411            1 
 3704000   0.66717706    -8.631248    568.29646  0.012785647  0.012011039            2 
 3705000   0.65647216   -8.6429198    566.84575  0.012749567   0.01200667            3 
 3706000   0.67061343   -8.6566974    567.40634  0.012758732  0.012002301            2 
 3707000   0.64693281   -8.6285702    567.70287  0.012761956  0.011997929            2 
 3708000   0.66171169   -8.6435352    568.74689  0.012781978  0.011993564            1 
 3709000   0.66189801   -8.6432279    569.01604  0.012784579  0.011989197            4 
 3710000   0.64314088   -8.6198549    568.94835  0.012779613  0.011984836            2 
 3711000   0.67422845   -8.5962434    568.33925  0.012762491   0.01198049            8 
 3712000   0.66176899   -8.6226646    568.54367  0.012763642  0.011976148            4 
 3713000   0.65559428   -8.6464785    567.89197  0.012745578  0.011971799            4 
 3714000   0.65406652   -8.6593244    568.17951  0.012748598  0.011967447            3 
 3715000   0.65601224   -8.6342217    568.00606  0.012741276  0.011963102            4 
 3716000   0.67331616   -8.6232191    568.57565   0.01275062  0.011958757            3 
 3717000   0.65407125   -8.6159931    569.39927  0.012765655  0.011954419            4 
 3718000   0.65953561    -8.639435    568.31639   0.01273795  0.011950085            6 
 3719000   0.65658902   -8.6376987    568.39084  0.012736194  0.011945749            5 
 3720000   0.65910521   -8.6244723    568.44492  0.012733981  0.011941413            3 
 3721000   0.66705909   -8.6347502    568.80207  0.012738557  0.011937079            4 
 3722000   0.66100244   -8.6237955    567.24738  0.012700327   0.01193275            5 
 3723000   0.64302931   -8.6196108    567.96584  0.012712997   0.01192841            7 
 3724000   0.66432879   -8.6437531    567.41641  0.012697288  0.011924087            3 
 3725000   0.65159618   -8.6260474     568.3772  0.012715374  0.011919751            3 
 3726000   0.64573098    -8.640471    568.83223  0.012722138  0.011915418            2 
 3727000    0.6564833   -8.6598647    567.95602  0.012699133  0.011911079            3 
 3728000   0.65578659   -8.6562014    567.86344  0.012693657  0.011906745            4 
 3729000   0.66737434   -8.6578999    568.34601  0.012701037  0.011902423            6 
 3730000   0.65463265   -8.6362389    568.56099  0.012702435  0.011898093            3 
 3731000   0.65056822   -8.6308185    567.80457  0.012682135  0.011893766            4 
 3732000   0.66493481    -8.654847    568.01381   0.01268341  0.011889446            2 
 3733000   0.66538842   -8.6690204    567.24262  0.012662796  0.011885124            3 
 3734000   0.66442932   -8.6388288    568.22203  0.012681263  0.011880803            5 
 3735000   0.64775999   -8.6340997    568.44138  0.012682762  0.011876493            3 
 3736000   0.65166122   -8.6277708    567.88331  0.012666919   0.01187218            4 
 3737000   0.63802864   -8.6422879    568.82175  0.012684456  0.011867865            2 
 3738000   0.65750923   -8.6371437     568.7302  0.012679022  0.011863557            3 
 3739000   0.66019815   -8.6250208    569.10865  0.012684065  0.011859245            6 
 3740000   0.66877853   -8.6381144    568.37839  0.012664403  0.011854944            2 
 3741000    0.6686158   -8.6321067    567.72754  0.012646519  0.011850644            4 
 3742000   0.66525296   -8.6572302    568.43756  0.012658952  0.011846341            5 
 3743000    0.6451561   -8.6330438    568.69696  0.012661345  0.011842042            4 
 3744000   0.64572887   -8.6480824    568.70937  0.012658239  0.011837736            2 
 3745000   0.65125761   -8.6394461     567.2708  0.012622848  0.011833438            3 
 3746000    0.6504868   -8.6181612    567.78752  0.012630973  0.011829144            4 
 3747000   0.65201536    -8.633139    567.77652  0.012627358  0.011824857            1 
 3748000   0.64765705    -8.641094     568.3361   0.01263643  0.011820563            4 
 3749000   0.62802872   -8.6480902    567.77177  0.012620516  0.011816271            2 
 3750000     0.641097    -8.637446    568.10728  0.012624606  0.011811984            2 
 3751000   0.66136516   -8.6236193    569.38421  0.012649609  0.011807698            4 
 3752000   0.65006668   -8.6233211    568.72022   0.01263149  0.011803418           11 
 3753000   0.65663366    -8.630146    568.06824  0.012613648  0.011799139            2 
 3754000   0.65304078   -8.6433308    568.22137  0.012613687  0.011794862            3 
 3755000   0.65339297   -8.6281444    568.18563  0.012609535  0.011790598            5 
 3756000   0.63979738   -8.6450897    568.66437  0.012616799   0.01178633            5 
 3757000   0.63810419   -8.6425328    568.53561  0.012610585  0.011782068            4 
 3758000   0.64644819   -8.6384936    567.61553  0.012586827  0.011777809            2 
 3759000   0.66718695   -8.6583831    568.44441  0.012601854  0.011773555            3 
 3760000   0.67103528   -8.6423513    568.73559  0.012604955  0.011769297            3 
 3761000   0.65709082   -8.6338219    568.23947  0.012590611  0.011765034            4 
 3762000   0.62655866   -8.6225955    568.80152  0.012599715  0.011760767            2 
 3763000   0.64139646   -8.6530924    567.31574  0.012563463  0.011756506            4 
 3764000   0.64877399   -8.6403627    568.64176  0.012589483  0.011752245            2 
 3765000   0.63804739   -8.6658377    567.94496  0.012570716  0.011747985            2 
 3766000   0.64746715   -8.6405585    568.60547  0.012581994  0.011743726            2 
 3767000   0.64902014   -8.6661992    568.69962  0.012580737  0.011739469            1 
 3768000   0.64435629    -8.634106    568.82012  0.012580063  0.011735222            2 
 3769000   0.65898738   -8.6465618    568.02541  0.012559154  0.011730979            2 
 3770000   0.65920924   -8.6436993    567.46355  0.012543403  0.011726732            3 
 3771000   0.65630138   -8.6452273    568.09081  0.012553938  0.011722489            3 
 3772000   0.66207321   -8.6636453    567.47282  0.012536957   0.01171825            2 
 3773000   0.63548948    -8.660351    567.41849  0.012532434  0.011714008            3 
 3774000   0.64228149   -8.6540123    567.99518  0.012541847  0.011709762            1 
 3775000    0.6535956   -8.6629757    567.46566  0.012526836  0.011705517            2 
 3776000   0.67352955   -8.6383307    568.55021  0.012547453  0.011701269            3 
 3777000   0.65763055   -8.6612119    567.48562  0.012520643  0.011697025            4 
 3778000   0.63697617   -8.6575739    567.32191  0.012513718  0.011692771            2 
 3779000   0.64478308    -8.664636    567.19257  0.012507554   0.01168852            5 
 3780000   0.65786588   -8.6469834    566.86918  0.012497116  0.011684274            2 
 3781000    0.6384553   -8.6380564    568.07295  0.012520342  0.011680022            4 
 3782000   0.64422378   -8.6370565     568.6017  0.012528682  0.011675772            2 
 3783000     0.654386   -8.6691024    566.78096  0.012485262  0.011671521            2 
 3784000   0.65238662   -8.6292788     567.6106  0.012500233  0.011667276            3 
 3785000   0.64507712   -8.6797299    567.53701  0.012495311   0.01166303            2 
 3786000   0.64284288   -8.6744811    567.44834  0.012490059  0.011658781            4 
 3787000   0.64782808   -8.6713354    567.65861  0.012491387  0.011654529            3 
 3788000   0.64832359   -8.6847624    567.12782  0.012476413  0.011650276            7 
 3789000    0.6411032   -8.6616927    566.59323  0.012461362  0.011646024            4 
 3790000   0.62629643   -8.6447936    567.81982  0.012485044   0.01164178            4 
 3791000   0.63908132    -8.644378    567.67241  0.012478511  0.011637539            6 
 3792000   0.65546589   -8.6482755     568.2325  0.012487529  0.011633302            6 
 3793000   0.63408192   -8.6582619     568.4499  0.012489013  0.011629072            5 
 3794000   0.65359227    -8.661788    568.09761  0.012477983  0.011624844            4 
 3795000   0.64428836   -8.6500404    567.86716  0.012469635  0.011620613            3 
 3796000   0.64967103   -8.6764102    566.54646  0.012437356  0.011616382            2 
 3797000   0.64971692   -8.6677564      567.859  0.012462887  0.011612158            3 
 3798000   0.65452117   -8.6507206    567.49153  0.012451543  0.011607941            3 
 3799000   0.63534939   -8.6534275    567.81545  0.012455371  0.011603725            1 
 3800000   0.64588864   -8.6478392    567.23617   0.01243939  0.011599515            2 
 3801000   0.63550793   -8.6637178    567.84347  0.012449431  0.011595303            5 
 3802000   0.64113171   -8.6596898     568.7732  0.012466535  0.011591098            3 
 3803000   0.63538481   -8.6595217    567.71043  0.012439969  0.011586893            2 
 3804000    0.6386807   -8.6741476    567.49544  0.012431989  0.011582683            3 
 3805000    0.6425107   -8.6883357    567.69639  0.012433123  0.011578473            2 
 3806000   0.62956562   -8.6688653    568.45725  0.012446515  0.011574265            5 
 3807000   0.64163104   -8.6522707    567.81452  0.012429177  0.011570059            2 
 3808000   0.64632672   -8.6669165    567.28721  0.012414374  0.011565858            4 
 3809000   0.63595893   -8.6480852    567.31835  0.012411795  0.011561656            6 
 3810000   0.65327272   -8.6762437    567.75339  0.012418053  0.011557449            5 
 3811000   0.64199392   -8.6539588    567.88736  0.012417724  0.011553249            3 
 3812000   0.65121701   -8.6868198    567.86828  0.012414049  0.011549049            2 
 3813000   0.63910317    -8.690233    568.04305  0.012414613  0.011544839            3 
 3814000   0.64763423   -8.6501496    566.89659  0.012386309  0.011540633            3 
 3815000   0.64826523   -8.6699408    567.10088  0.012387525  0.011536433            1 
 3816000   0.63214001   -8.6646509    568.16158  0.012407442  0.011532233            3 
 3817000   0.64143611   -8.6753517    567.56327  0.012391129  0.011528037            3 
 3818000   0.64013177   -8.6778615    566.69454  0.012368922  0.011523846            2 
 3819000    0.6514812   -8.6722166    566.79964  0.012367977  0.011519655            5 
 3820000   0.64028364   -8.6650393    566.93158  0.012367617  0.011515465            4 
 3821000   0.64465451   -8.6694973    567.29241   0.01237225  0.011511275            1 
 3822000   0.65441961   -8.6864247    567.47254   0.01237294  0.011507084            5 
 3823000   0.64768351   -8.6842561    567.21627  0.012364118  0.011502895            5 
 3824000   0.63150422   -8.6823147    567.25631  0.012361757  0.011498704            1 
 3825000   0.64699004   -8.6794256    567.72345  0.012368703  0.011494516            4 
 3826000   0.64040369   -8.6705869    567.20909  0.012354267   0.01149033            1 
 3827000   0.64925545   -8.6856763    567.16999  0.012350187  0.011486147            4 
 3828000   0.64472987   -8.6805042     566.9252  0.012341632  0.011481965            2 
 3829000   0.62742042    -8.691455     566.5896  0.012331105  0.011477787            2 
 3830000    0.6298829   -8.6720677    567.30137  0.012343372  0.011473601            6 
 3831000   0.63776799   -8.6863858    565.87654  0.012309156  0.011469417            4 
 3832000   0.63554769   -8.6919226    566.44656   0.01231834  0.011465237           10 
 3833000   0.63507505   -8.6994569    567.31284   0.01233396  0.011461061            2 
 3834000    0.6515295   -8.6820564    567.28016  0.012330033  0.011456887            2 
 3835000   0.62882922    -8.683668     566.1171  0.012301545  0.011452712            6 
 3836000   0.65134414   -8.6893524    567.45283  0.012327356  0.011448542            3 
 3837000   0.64618037    -8.683377    566.85343  0.012311125  0.011444374            8 
 3838000   0.63264063   -8.7014343    567.06555  0.012312523  0.011440204           11 
 3839000   0.64434911   -8.6991768    566.97158  0.012307276  0.011436036            6 
 3840000   0.64332323   -8.6723393    567.00341  0.012304762  0.011431875            3 
 3841000   0.63878422   -8.6744806    566.18357  0.012283771  0.011427715            2 
 3842000   0.63886262   -8.6983112    567.01196  0.012298542   0.01142356            4 
 3843000   0.63536939   -8.6894596    566.56512  0.012285652  0.011419405            4 
 3844000   0.62079741   -8.6874152     566.7788  0.012287088  0.011415248            5 
 3845000   0.64354967   -8.6810515    566.57961  0.012279576   0.01141108            1 
 3846000   0.63854703   -8.6851482    566.60272  0.012276883  0.011406917            2 
 3847000   0.63854184   -8.7201754    565.94964  0.012259545   0.01140275            4 
 3848000   0.64240713   -8.6832885    566.88429    0.0122766  0.011398588            3 
 3849000   0.62812885   -8.6569424    567.42498  0.012285117  0.011394429            2 
 3850000   0.63615685   -8.6862971    566.72085  0.012266685  0.011390272            2 
 3851000    0.6225777   -8.6716287    567.14624  0.012272705  0.011386114            3 
 3852000   0.63968909   -8.6919378    567.37534  0.012274475  0.011381961            5 
 3853000   0.62191749   -8.7114552    566.77193  0.012258239    0.0113778            4 
 3854000   0.64069561   -8.6974749    567.60655  0.012273105  0.011373642            5 
 3855000   0.61409269   -8.7099267    565.94855   0.01223408  0.011369489            3 
 3856000   0.64073653   -8.7045948    565.78702  0.012227417  0.011365335            2 
 3857000   0.64308856   -8.6965669     567.5815  0.012263017  0.011361188            7 
 3858000   0.62348111   -8.6992533    566.68054  0.012240378  0.011357042            7 
 3859000   0.63365424   -8.7058744    565.96888  0.012221838  0.011352899            3 
 3860000   0.63307702   -8.7211482    566.86109  0.012237934  0.011348749            2 
 3861000   0.63546442   -8.6963248    566.67131  0.012230668  0.011344605            4 
 3862000   0.63992129   -8.6984319    565.81007  0.012208917  0.011340456            2 
 3863000   0.63411749    -8.691148    566.61222  0.012223061  0.011336311            3 
 3864000   0.63796444   -8.7199741    565.08955  0.012187059  0.011332172            2 
 3865000   0.62699283   -8.6965209    566.42416  0.012212681  0.011328036            5 
 3866000   0.62497879   -8.7153957    565.57038  0.012191119    0.0113239            3 
 3867000   0.64104544   -8.7049989    565.98813  0.012196969  0.011319767            4 
 3868000   0.63637159   -8.7218657    565.75199  0.012188728   0.01131564            3 
 3869000   0.63010853   -8.6978193     567.0631  0.012213817  0.011311519            4 
 3870000   0.61996378   -8.7195363    566.77452  0.012204447  0.011307393            3 
 3871000   0.63446675   -8.6972886    567.06707  0.012207592  0.011303276            2 
 3872000     0.630735   -8.6842219    566.85417  0.012199857  0.011299148            2 
 3873000   0.63222761    -8.693051    565.70955  0.012172079  0.011295026            3 
 3874000   0.63527245   -8.6873108    566.50754  0.012186103  0.011290909            2 
 3875000   0.63692066   -8.7001939    567.10106  0.012195722  0.011286793            2 
 3876000   0.63778977   -8.7042503    565.70835  0.012162632  0.011282684            4 
 3877000   0.62992177   -8.7033263    566.74885   0.01218186  0.011278574            3 
 3878000   0.62202647   -8.7076362    566.73854  0.012178497  0.011274467            4 
 3879000   0.62738466   -8.7118175    566.80262  0.012176734  0.011270364            2 
 3880000   0.62971113     -8.69793    565.50399  0.012145704  0.011266263            2 
 3881000   0.63603703   -8.7216196    566.75091  0.012169349  0.011262157            1 
 3882000   0.62329364   -8.7113126    566.22496  0.012154924  0.011258057            1 
 3883000   0.63032699    -8.722674    566.44847   0.01215659  0.011253955            2 
 3884000   0.62817979   -8.7084944    565.69729  0.012137343  0.011249854            2 
 3885000   0.61553402   -8.7281481    565.31744  0.012126071  0.011245748            3 
 3886000   0.63225036   -8.6818987    567.12785  0.012161774  0.011241652            5 
 3887000   0.63079667   -8.7268273    565.71819  0.012128424  0.011237556            4 
 3888000   0.63147284   -8.7145522    565.64519  0.012123739  0.011233464            3 
 3889000   0.62861578   -8.7005804    567.05276  0.012150783  0.011229374            7 
 3890000   0.62934102   -8.7017629    566.08808  0.012126994  0.011225288            4 
 3891000   0.62176689   -8.6943206    566.63088  0.012135502  0.011221201            4 
 3892000   0.62552843    -8.735056    565.86424   0.01211597  0.011217112           11 
 3893000   0.63509027   -8.6871507    566.21007   0.01212026  0.011213024            3 
 3894000   0.64133786   -8.7214536    566.07123  0.012114176  0.011208938            4 
 3895000   0.62780959   -8.7229085    565.07353   0.01208972  0.011204848            3 
 3896000   0.62792541   -8.7338278    566.66744   0.01212071  0.011200766            1 
 3897000   0.63320844   -8.7257826    566.56687  0.012115449  0.011196681            6 
 3898000   0.64001865    -8.704332    566.48162  0.012110519  0.011192599            7 
 3899000   0.63092961   -8.7071693    565.62521  0.012089109  0.011188521            5 
 3900000    0.6338612   -8.7203036    565.77941  0.012089304  0.011184445            5 
 3901000   0.63622705   -8.7109264    565.79558   0.01208655  0.011180373            2 
 3902000   0.62275879   -8.7046558    566.59778  0.012100585  0.011176301            7 
 3903000   0.62485551   -8.6962317    566.69946  0.012099655  0.011172228            2 
 3904000   0.63334081   -8.7287792    566.49643  0.012092222  0.011168158            4 
 3905000   0.63254152   -8.7337934    565.33612  0.012064365  0.011164088            4 
 3906000   0.63030482   -8.7142733    565.04341  0.012055031  0.011160019            5 
 3907000   0.62300122   -8.6884414    565.91006   0.01207043   0.01115595            4 
 3908000   0.63304201   -8.7188971    566.24929  0.012074576  0.011151883            3 
 3909000   0.63136701    -8.706927    566.02395  0.012066683  0.011147827            3 
 3910000   0.64036963   -8.7167103    566.02836  0.012063691  0.011143762            6 
 3911000   0.63424041   -8.7113373    566.66264  0.012074121  0.011139695            9 
 3912000   0.62791468   -8.7036209    566.80976  0.012074168  0.011135627            2 
 3913000    0.6201887   -8.6878122    566.09068  0.012055769  0.011131562            3 
 3914000    0.6245826   -8.7206659    566.22646   0.01205558  0.011127505            4 
 3915000      0.62576   -8.7291554    564.72147  0.012020466  0.011123448            5 
 3916000   0.61998608   -8.7047533    565.39342  0.012031695  0.011119395            2 
 3917000    0.6139492   -8.7410277    565.67004  0.012034509  0.011115336            2 
 3918000   0.62034212   -8.7157032    565.12566  0.012019858  0.011111279            5 
 3919000    0.6307427   -8.7321419    566.04913  0.012036428  0.011107225            4 
 3920000   0.63393548   -8.7263837     565.2667  0.012016724  0.011103171            6 
 3921000   0.63137333   -8.7279063     565.5494  0.012019668  0.011099119            6 
 3922000   0.63954862    -8.727653    565.89951  0.012024042  0.011095064            6 
 3923000   0.62217015   -8.7252611    565.57721   0.01201413  0.011091017            7 
 3924000   0.61153953   -8.7331837    567.13064  0.012044059   0.01108697           11 
 3925000   0.61878188   -8.7096907    565.80348  0.012012813  0.011082919            6 
 3926000   0.62598087   -8.7332394    565.56154  0.012004617  0.011078869            6 
 3927000   0.62774899   -8.7308124    566.89146  0.012029782   0.01107482            7 
 3928000   0.62375454   -8.7244821    565.73168  0.012002115  0.011070779            6 
 3929000   0.61779012   -8.7095366    565.42187  0.011992489  0.011066744            8 
 3930000   0.63147156   -8.7262914    566.30199    0.0120081  0.011062705            2 
 3931000   0.62940524   -8.7344498    565.35735   0.01198502   0.01105866            5 
 3932000   0.61906907   -8.7136239    565.61741  0.011987483  0.011054621            4 
 3933000   0.62072406   -8.7348862    565.56337   0.01198329   0.01105059            6 
 3934000   0.61371114   -8.7294416    565.81665   0.01198561  0.011046555            8 
 3935000   0.60816976   -8.7330005    565.75997  0.011981363   0.01104252            3 
 3936000   0.61250062   -8.7127407    565.22899  0.011967077  0.011038483            7 
 3937000   0.62164473   -8.7084142    565.98979  0.011980141  0.011034447            5 
 3938000   0.60162092   -8.7270139    565.46319  0.011965955  0.011030418            4 
 3939000   0.61223444   -8.7332377    566.61932  0.011987377  0.011026391            2 
 3940000   0.61858912   -8.7254001    565.86478  0.011968375  0.011022361            5 
 3941000   0.61008196   -8.7326657    565.79178  0.011963795  0.011018336            5 
 3942000   0.62667332   -8.7292467    565.58188  0.011956322  0.011014314            2 
 3943000   0.61780108   -8.7476938    564.65328  0.011933665  0.011010297            3 
 3944000   0.61703797    -8.740316    565.69495  0.011952648  0.011006279            4 
 3945000   0.61375793   -8.7252504    566.26519  0.011961664  0.011002264            4 
 3946000   0.62580918   -8.7311754     565.7603  0.011947971  0.010998257            6 
 3947000   0.62293399   -8.7517065    564.79931  0.011924654  0.010994246           11 
 3948000   0.62642962   -8.7252828    565.27339   0.01193164  0.010990237            4 
 3949000   0.62171469   -8.7224167    565.69386  0.011937492  0.010986223            3 
 3950000   0.63747579    -8.749707    565.39443  0.011928152  0.010982218            2 
 3951000   0.61931552   -8.7322141    565.58156   0.01192908  0.010978209            4 
 3952000    0.6207425   -8.7535652    564.42604  0.011901696    0.0109742            3 
 3953000   0.63223358   -8.7558196    565.36096  0.011918395  0.010970194            2 
 3954000   0.62729892   -8.7345041     565.0805  0.011909469  0.010966188            3 
 3955000   0.60801776   -8.7301825    566.41612    0.0119346  0.010962183            2 
 3956000   0.63199825   -8.7318935     565.9267  0.011921274  0.010958181            3 
 3957000   0.62212786    -8.744961    565.80131   0.01191562  0.010954184            6 
 3958000   0.62345506   -8.7096895    566.87145  0.011935141  0.010950191            8 
 3959000   0.60846473   -8.7454646    565.96059  0.011912953  0.010946197            4 
 3960000    0.6172838   -8.7404949    566.44864  0.011920215  0.010942211            2 
 3961000   0.62515658   -8.7404583    565.57032  0.011898728  0.010938225            3 
 3962000   0.62553757   -8.7234591    564.60428  0.011875406  0.010934243            4 
 3963000   0.61353018   -8.7389431    566.10685  0.011904005  0.010930255            2 
 3964000   0.62934472   -8.7417239     566.7172  0.011913833  0.010926273            3 
 3965000   0.61979268   -8.7404841    564.98093  0.011874337  0.010922293            4 
 3966000    0.6137433    -8.753833    565.51352  0.011882533  0.010918313            3 
 3967000   0.61855982   -8.7470347    566.12323  0.011892346  0.010914333            3 
 3968000   0.61376195   -8.7212574    565.59574  0.011878271  0.010910361            5 
 3969000   0.61228573   -8.7356103    566.51567  0.011894593  0.010906392            2 
 3970000   0.61705613   -8.7409034    566.09815  0.011882833  0.010902421            1 
 3971000   0.62119733   -8.7310833    565.65653  0.011870573  0.010898449            2 
 3972000   0.60899566   -8.7398954    565.02161  0.011854263  0.010894479            5 
 3973000   0.61078201    -8.740834    564.61763  0.011842806  0.010890509            3 
 3974000   0.62144007   -8.7522959    566.10508  0.011871018  0.010886547            4 
 3975000   0.60806629   -8.7618894    565.00537  0.011844976  0.010882588            7 
 3976000   0.62500056   -8.7356678    565.79166  0.011858477  0.010878628            4 
 3977000   0.60430653   -8.7382803     565.7093   0.01185377   0.01087467            1 
 3978000   0.61023419   -8.7389523     565.2627  0.011841434  0.010870708            4 
 3979000   0.62116837   -8.7424147     565.1938  0.011837015  0.010866742            1 
 3980000   0.61560439   -8.7470365    565.15774  0.011833286  0.010862785            4 
 3981000     0.609195   -8.7332638    565.27482  0.011832764   0.01085883            2 
 3982000   0.60604567   -8.7551032     565.4375  0.011833197  0.010854871            2 
 3983000   0.61521861   -8.7343177    564.62821  0.011813294  0.010850918            5 
 3984000   0.61077755   -8.7434069    565.89725  0.011836874  0.010846978            2 
 3985000   0.61234778   -8.7379258    564.81916  0.011811358  0.010843034            5 
 3986000   0.62988607   -8.7686115    564.53422  0.011802438  0.010839091            2 
 3987000   0.61693155   -8.7458611     565.3577   0.01181669  0.010835148            3 
 3988000   0.61032052    -8.730864    564.57332  0.011797336  0.010831209            8 
 3989000   0.61586572   -8.7375915    565.42196  0.011812108  0.010827268            3 
 3990000   0.61854916   -8.7454424    565.08677  0.011802146  0.010823323           10 
 3991000   0.61171077   -8.7405128    564.48617  0.011786648  0.010819385            5 
 3992000   0.61699186   -8.7590122    565.44317  0.011803673  0.010815446           12 
 3993000   0.61931581   -8.7531478    564.97344  0.011790914  0.010811509            3 
 3994000   0.60038004   -8.7411237    565.46279  0.011798172   0.01080758            3 
 3995000   0.61343736   -8.7441163     566.4095  0.011814967  0.010803646            9 
 3996000    0.5971498   -8.7626307    565.60257  0.011795182  0.010799712           10 
 3997000   0.61701698   -8.7394695    564.65005  0.011772372  0.010795783            5 
 3998000   0.61190013   -8.7446806    564.94478  0.011775571  0.010791854            8 
 3999000   0.61862914   -8.7593621    566.15292  0.011797802  0.010787928            5 
 4000000   0.61192838   -8.7592092    565.44135  0.011780028  0.010784007            2 
 4001000   0.61649775   -8.7550731    565.21176  0.011772302  0.010780087            7 
 4002000   0.60739309   -8.7309356    565.77566  0.011781102  0.010776162            6 
 4003000   0.62067282   -8.7578861    564.82154  0.011758297  0.010772241            5 
 4004000   0.62506681   -8.7482485    564.72702  0.011753393  0.010768326            5 
 4005000   0.61031871   -8.7507314    565.15431  0.011759349  0.010764406            5 
 4006000   0.62518719    -8.778789    565.07292   0.01175472  0.010760486            5 
 4007000   0.61346069   -8.7600133    564.99352  0.011750136  0.010756564            7 
 4008000   0.60360808   -8.7336549    565.54216  0.011758611  0.010752649            4 
 4009000   0.60589395   -8.7560905    565.96157  0.011764396  0.010748735            5 
 4010000   0.61791955   -8.7680555    564.50112  0.011731112  0.010744818            7 
 4011000   0.59769188   -8.7410082    565.05478   0.01173969  0.010740904            5 
 4012000   0.61413333    -8.743067    565.66261   0.01174939  0.010736998            5 
 4013000   0.60299322   -8.7336961    565.42767  0.011741583  0.010733096            4 
 4014000   0.62294684   -8.7561751    565.31925  0.011736407  0.010729192            4 
 4015000   0.61068736   -8.7479671    564.24424  0.011711171  0.010725287            3 
 4016000   0.60536146    -8.753122    565.50479  0.011734412  0.010721387            5 
 4017000   0.61042627   -8.7699045    565.04124  0.011721874  0.010717488            4 
 4018000    0.6110923   -8.7757211    564.28152  0.011703201  0.010713589            5 
 4019000   0.60883038   -8.7635885    565.02406  0.011715685   0.01070969            5 
 4020000   0.61530153   -8.7649048    564.33473  0.011698481  0.010705791            4 
 4021000   0.59941797   -8.7657157    566.18652  0.011733949  0.010701895            6 
 4022000   0.59962859   -8.7575046    563.97025  0.011685112  0.010697997            4 
 4023000   0.60166773   -8.7614514     565.2756  0.011709247  0.010694097            6 
 4024000   0.60452479   -8.7632945    564.59306  0.011692202  0.010690201            8 
 4025000   0.61937265   -8.7730845    564.99618  0.011697643  0.010686302            3 
 4026000   0.59161512     -8.75999    563.61638  0.011666178  0.010682407            4 
 4027000   0.61073239   -8.7673632    564.63115   0.01168428  0.010678514            6 
 4028000   0.61752906   -8.7761388    564.41903  0.011676991  0.010674616            5 
 4029000    0.6006911   -8.7525887    564.24671  0.011670528  0.010670729           10 
 4030000   0.61127957    -8.776579    564.62896  0.011675537  0.010666845            6 
 4031000   0.60851157   -8.7691784    565.62327  0.011693196  0.010662963            7 
 4032000   0.59698453   -8.7780527    564.72168  0.011671662  0.010659078            3 
 4033000   0.60047275   -8.7743788    564.02944  0.011654464  0.010655196            3 
 4034000   0.60078748   -8.7784341    563.44187  0.011639437  0.010651313            3 
 4035000   0.59020632   -8.7544586    565.63964  0.011681942  0.010647434            5 
 4036000   0.61271714   -8.7675174    564.91715   0.01166413  0.010643559            3 
 4037000    0.6063174   -8.7543903    563.75693  0.011637291  0.010639685            2 
 4038000   0.61247838   -8.7687317    565.35112  0.011667309  0.010635813            5 
 4039000   0.60721194   -8.7760965     563.8726  0.011633915  0.010631941            4 
 4040000   0.60911596   -8.7552541    565.89366  0.011672724  0.010628072            4 
 4041000   0.58479484   -8.7753934    564.88132  0.011648959  0.010624205            5 
 4042000   0.61345815   -8.7529853    564.29285  0.011633945   0.01062034            4 
 4043000   0.61004973   -8.7937247    564.21075  0.011629375  0.010616475            2 
 4044000   0.60876507   -8.7813889    564.68009  0.011636171  0.010612613            6 
 4045000   0.59833951   -8.7616873    565.31596  0.011646394  0.010608749            4 
 4046000   0.59948326   -8.7843418    564.97121  0.011636415  0.010604887            5 
 4047000   0.59330274   -8.7751646    563.32708  0.011599685  0.010601027            3 
 4048000   0.60413334   -8.7567844    565.43548  0.011640223  0.010597169            2 
 4049000   0.61236558   -8.7779255    564.50248  0.011618146  0.010593315            3 
 4050000   0.60639393   -8.7623183     564.5111  0.011615455  0.010589464            4 
 4051000   0.59413201   -8.7779984    564.76701  0.011617852  0.010585615            5 
 4052000   0.60828133   -8.7660886    564.47825  0.011609046  0.010581763            3 
 4053000    0.5885746   -8.7695639    564.68757  0.011610486  0.010577917            2 
 4054000   0.60127082   -8.7773296    564.08245  0.011595183  0.010574067            4 
 4055000   0.60190373   -8.7878949    564.39137  0.011598672  0.010570222            4 
 4056000   0.60157641   -8.7915966    564.03941  0.011588581  0.010566377            4 
 4057000   0.58820982   -8.7822418    564.24027   0.01158985  0.010562534            3 
 4058000   0.60906052   -8.7934607     563.9196  0.011580409  0.010558693            5 
 4059000   0.60770393   -8.7773828    564.52418  0.011589968  0.010554855            6 
 4060000   0.59850102   -8.7821126    565.13419  0.011599634  0.010551018            3 
 4061000   0.60593891    -8.779843    564.21075  0.011577829  0.010547179            4 
 4062000   0.58551026   -8.7878483      563.565  0.011561731  0.010543341            2 
 4063000   0.60420638   -8.7637156     564.5524  0.011579137  0.010539509            1 
 4064000   0.59250317   -8.7935162     564.6467  0.011578221  0.010535679            2 
 4065000   0.59522015    -8.764974     563.9102  0.011560275  0.010531846            4 
 4066000   0.60021946    -8.772545     563.9255  0.011557745  0.010528018            2 
 4067000   0.59731919   -8.7800212    564.36589  0.011563927  0.010524189            2 
 4068000   0.59961035   -8.7867999    564.99139  0.011573898  0.010520365            5 
 4069000   0.60822544   -8.7703324    564.59325  0.011562899  0.010516549            7 
 4070000   0.61359256   -8.7885178    564.06662  0.011549275  0.010512733            8 
 4071000   0.59623988   -8.7511156    564.61993  0.011557765  0.010508919            6 
 4072000   0.58822421   -8.7961664    564.72218  0.011557019  0.010505109            2 
 4073000   0.60415344   -8.7602393    565.56701  0.011571467  0.010501296            5 
 4074000   0.60541939   -8.7896339    564.93369  0.011555672  0.010497482            2 
 4075000   0.60538561   -8.7838886    564.13526  0.011536508  0.010493675            2 
 4076000   0.59490154   -8.7840927     565.1739  0.011554913  0.010489869            4 
 4077000   0.60597362    -8.773774    564.57152  0.011539766  0.010486064            2 
 4078000   0.61401374   -8.7868011    563.75558  0.011520263  0.010482258            2 
 4079000   0.60060887   -8.7748536    564.09632    0.0115244  0.010478456            5 
 4080000   0.59826022    -8.790262    564.44474  0.011528692  0.010474652            5 
 4081000   0.60242916   -8.7795497    563.89421  0.011514625  0.010470853            4 
 4082000   0.59839898    -8.766151    564.66959  0.011527633  0.010467055            3 
 4083000    0.6112533   -8.7653827    564.33281  0.011517936  0.010463259            1 
 4084000   0.60351217   -8.7952728    564.19448  0.011512294  0.010459463            6 
 4085000   0.60002138    -8.766325    564.84921  0.011522832  0.010455664            4 
 4086000   0.59996446   -8.7741505    564.79988  0.011519006  0.010451876            5 
 4087000   0.59254915   -8.7921555    564.93052  0.011518851  0.010448085            3 
 4088000   0.60023966   -8.7760248    565.73539   0.01153244  0.010444301            4 
 4089000   0.59559652   -8.7962412    564.37842  0.011501965  0.010440515            3 
 4090000   0.58182777   -8.7997869    564.30085  0.011497572  0.010436732            3 
 4091000   0.59252092   -8.7789543    564.76289  0.011504174  0.010432951            6 
 4092000   0.59886937   -8.7720873    564.18411  0.011489575  0.010429176            2 
 4093000   0.60554614   -8.8060358    564.20652  0.011487225  0.010425399            3 
 4094000   0.59475905    -8.767895     564.7299  0.011495072  0.010421617            3 
 4095000   0.58761192   -8.7849754    564.32326   0.01148399  0.010417841            2 
 4096000   0.59426148   -8.7713647    564.03501  0.011475322  0.010414072            4 
 4097000   0.59126323   -8.7718564     564.0892  0.011473623  0.010410301            2 
 4098000   0.60968604   -8.7955777    564.87679  0.011486839   0.01040653            1 
 4099000   0.59427372   -8.7601535    564.88712  0.011484247  0.010402761            2 
 4100000   0.59545336   -8.7886122    564.99547  0.011483648  0.010398995            2 
 4101000   0.59413486   -8.8011081    564.37663  0.011468273  0.010395229            3 
 4102000   0.60083381   -8.7606765    565.68672  0.011492092  0.010391466            2 
 4103000   0.58854482   -8.7872363    564.11355  0.011457339  0.010387707            2 
 4104000   0.59697518   -8.8172341    564.27374    0.0114578  0.010383949            4 
 4105000   0.58502733   -8.7925786    563.91728  0.011447773  0.010380194            1 
 4106000   0.59619208   -8.7835558    563.52832   0.01143709  0.010376437            8 
 4107000   0.59198457   -8.7916738    565.14587  0.011467127  0.010372683            3 
 4108000   0.60748144   -8.7703614    564.69998   0.01145529  0.010368929            3 
 4109000   0.59457793   -8.7854357    563.95162  0.011437325  0.010365182            3 
 4110000   0.59779649   -8.7856616    564.04806  0.011436498  0.010361433            2 
 4111000   0.59957442   -8.7972824    563.45703  0.011421735  0.010357689            4 
 4112000   0.58952292   -8.7937151    564.47039  0.011439494  0.010353947            4 
 4113000   0.59315355   -8.7839531    563.44471  0.011415931  0.010350199            2 
 4114000   0.59158021   -8.7746777     565.2809   0.01145035   0.01034646            4 
 4115000   0.58032036   -8.7955892    564.98483  0.011441572  0.010342718            4 
 4116000   0.58780334   -8.7927268    563.40041  0.011406714  0.010338979            3 
 4117000    0.5963905   -8.7945128    564.34744  0.011423112  0.010335244            2 
 4118000   0.59543416   -8.7853546    564.52408  0.011423913  0.010331505            3 
 4119000   0.59098755   -8.7856254    564.52387  0.011421135  0.010327764            4 
 4120000   0.59772674   -8.7530026    564.88131  0.011425593   0.01032403            2 
 4121000   0.61406265   -8.7905924    564.14247   0.01140788  0.010320297            3 
 4122000   0.58291415   -8.7991902    564.14344  0.011405132  0.010316563            4 
 4123000   0.58997544   -8.7803083    564.59855  0.011411564   0.01031283            2 
 4124000   0.57496125   -8.7811315    564.37326  0.011404245  0.010309098            1 
 4125000   0.58790614   -8.8004324    565.11675    0.0114165  0.010305373            3 
 4126000   0.59523134    -8.787521    564.66057   0.01140452  0.010301646            2 
 4127000   0.59850873   -8.7881191    564.44973  0.011397499  0.010297921            3 
 4128000   0.59772194    -8.826146    563.56514   0.01137688  0.010294197            3 
 4129000   0.60400376   -8.7926056    563.76113   0.01137808  0.010290475            2 
 4130000   0.59141444   -8.7966255     564.6796  0.011393858  0.010286757            3 
 4131000    0.5936548    -8.771472    564.26413  0.011382719  0.010283041            2 
 4132000   0.58980462   -8.7948939    564.22734  0.011379222  0.010279325            3 
 4133000   0.59354648   -8.7845002    562.70162  0.011345706  0.010275608            4 
 4134000   0.58051035   -8.8077515    564.16732  0.011372507  0.010271891            2 
 4135000   0.58672516   -8.7967668    565.38936  0.011394384  0.010268177            2 
 4136000   0.58995138    -8.791125    563.59171   0.01135541  0.010264463            5 
 4137000   0.58278738   -8.7960427    563.64125  0.011353663  0.010260752            3 
 4138000   0.59731079   -8.7911129    563.95882  0.011357315  0.010257042            2 
 4139000   0.59545284   -8.8141402    563.83364   0.01135205  0.010253332            3 
 4140000   0.58701564   -8.8098091    563.88881  0.011350419  0.010249624            5 
 4141000   0.59146205   -8.7983194    563.44542  0.011338755  0.010245916            2 
 4142000   0.58374739   -8.7905439    563.87712  0.011344703  0.010242207            1 
 4143000   0.60528995    -8.808645    563.78003  0.011340012  0.010238501            7 
 4144000   0.59239301   -8.8122287    564.09534  0.011343616  0.010234797            3 
 4145000   0.59734069   -8.8046446    563.03054  0.011319472  0.010231091            2 
 4146000   0.58848111   -8.8261682    563.44274  0.011325027   0.01022739            4 
 4147000   0.58411049   -8.8155802    564.31589  0.011339842  0.010223685            3 
 4148000   0.58983839   -8.8081734    564.24072  0.011335598  0.010219989            3 
 4149000   0.58668181   -8.7857807    563.32428  0.011314459  0.010216296            3 
 4150000   0.58375642   -8.8148636    562.82955  0.011301798  0.010212598            2 
 4151000    0.5953045    -8.800474    564.23301  0.011327251  0.010208904            2 
 4152000   0.59966325   -8.7858068    563.36624  0.011307126  0.010205213            2 
 4153000   0.58433198   -8.8171628    563.80056  0.011313118  0.010201522            2 
 4154000     0.584972   -8.7960173    564.90422  0.011332535  0.010197836            3 
 4155000   0.58640353   -8.8070483    563.20727  0.011295774  0.010194146            2 
 4156000   0.58722046   -8.8177313    563.72633  0.011303463  0.010190463            5 
 4157000   0.58533143   -8.8174109    563.97233  0.011305676  0.010186778            4 
 4158000   0.58335071   -8.8058578    563.39829  0.011291452  0.010183096            3 
 4159000   0.58756849   -8.8042608     562.6357  0.011273457  0.010179415            4 
 4160000   0.57966965   -8.8187073    563.93802  0.011296835  0.010175738            4 
 4161000   0.57926728   -8.8077421    563.33587  0.011282061  0.010172056            2 
 4162000   0.58586478   -8.7964264    563.96121  0.011291871  0.010168382            6 
 4163000   0.59309438   -8.7966964    563.69648  0.011283859   0.01016471            3 
 4164000   0.59190784   -8.8118768    563.11523  0.011269517  0.010161042            3 
 4165000   0.58108076   -8.8063352    564.01731   0.01128486  0.010157369            2 
 4166000   0.58277853   -8.7741473    564.29964  0.011287799  0.010153698            4 
 4167000   0.58898072   -8.8064567    562.97008  0.011258501  0.010150032            3 
 4168000   0.58984331   -8.8101129    563.06275  0.011257653  0.010146367            1 
 4169000   0.58600283   -8.8228362    563.90857  0.011271859  0.010142698            3 
 4170000   0.59257264   -8.8214353    563.55555  0.011262101  0.010139035            5 
 4171000   0.58866838   -8.7874747    565.61064   0.01130046  0.010135377            5 
 4172000   0.58129071   -8.8126468    564.27022  0.011270978  0.010131718            2 
 4173000   0.57285845   -8.8183072    563.65979  0.011256087  0.010128059            4 
 4174000   0.58727041   -8.8124727    563.16441    0.0112435  0.010124394            6 
 4175000   0.58824109   -8.8010126     563.9825  0.011257136  0.010120736            2 
 4176000   0.57577667   -8.8358992     563.9788  0.011254366  0.010117077            2 
 4177000   0.57326599   -8.8106503    563.39372  0.011239999  0.010113422            4 
 4178000   0.57692405   -8.7930754    563.77742  0.011244962  0.010109771            4 
 4179000   0.60038792    -8.818866     563.8716  0.011244149  0.010106121            5 
 4180000   0.57803774   -8.8161541    563.49814  0.011234014  0.010102471            2 
 4181000   0.60114711   -8.8025682    563.79935  0.011237331  0.010098826            3 
 4182000    0.5848395   -8.8153089    563.46878  0.011228056  0.010095182            4 
 4183000   0.58627057   -8.8187985    563.28675  0.011221746  0.010091543            6 
 4184000   0.59280681   -8.8078953    564.02572  0.011233782  0.010087903            2 
 4185000   0.59018755   -8.8085524    563.43339  0.011219303  0.010084262            4 
 4186000   0.58207093   -8.8101683    562.95281  0.011207055  0.010080625            1 
 4187000   0.58172396   -8.8284212    563.32578  0.011211802  0.010076987            1 
 4188000   0.58329108    -8.823211    562.70581  0.011196789   0.01007335            1 
 4189000   0.56877758   -8.8140491    564.60231  0.011231844  0.010069712            2 
 4190000   0.59414212   -8.8189889    563.26717  0.011202609  0.010066078            2 
 4191000   0.57562638   -8.8202173    563.11909  0.011196991  0.010062445            3 
 4192000   0.59132886   -8.8085892    562.59363  0.011183875  0.010058817            3 
 4193000    0.5795876   -8.8151779    563.10349   0.01119134  0.010055189            2 
 4194000   0.58722431   -8.7976579    562.57417  0.011178155  0.010051562            2 
 4195000    0.5865002   -8.8179488    563.76822   0.01119921  0.010047937            2 
 4196000   0.57348881   -8.8057542    563.42601  0.011189744  0.010044313            2 
 4197000   0.56888102   -8.8041621     563.7323   0.01119316  0.010040693            2 
 4198000   0.57721345   -8.8148285    563.70277  0.011189907  0.010037075            2 
 4199000   0.57825018   -8.8009684    563.87957  0.011190751  0.010033459            4 
 4200000    0.5850711   -8.8075442    563.27253  0.011176042  0.010029838            2 
 4201000   0.58408118   -8.8182929    563.67924   0.01118145  0.010026225            2 
 4202000   0.57424899   -8.8326751    563.09309  0.011167164  0.010022607            4 
 4203000   0.57725323   -8.8064583    563.67488  0.011176043  0.010018997            3 
 4204000   0.57686406   -8.8253454      563.866  0.011177173  0.010015386            2 
 4205000   0.58318192   -8.8152463    563.24328  0.011162174  0.010011778            3 
 4206000   0.58870039   -8.7989172    563.78402  0.011170233   0.01000817            4 
 4207000   0.57127412   -8.8051418    563.48622  0.011161679  0.010004567            2 
 4208000   0.59035697   -8.8350303    564.34068  0.011175948  0.010000965            1 
 4209000   0.57236722   -8.8330566    563.33092  0.011153301 0.0099973591            1 
 4210000   0.56971857   -8.8059809     564.2085  0.011168023 0.0099937546            2 
 4211000    0.5787889   -8.8228202    563.30072  0.011147406  0.009990152            2 
 4212000   0.58690892   -8.8353397    562.97988  0.011138412 0.0099865505            4 
 4213000   0.58581541   -8.8245973    564.25839  0.011161057 0.0099829488            1 
 4214000   0.57238246   -8.8352075     563.1139  0.011135775 0.0099793459            2 
 4215000   0.57143859    -8.829743    563.87014  0.011148085 0.0099757457            1 
 4216000   0.58534464   -8.8241934    564.43989  0.011156702  0.009972144            1 
 4217000     0.579338   -8.8163473    563.33593  0.011132241 0.0099685444            2 
 4218000   0.57889615   -8.8310416    563.16241  0.011126174 0.0099649483            1 
 4219000    0.5703519     -8.82444    563.21532  0.011124582 0.0099613508            2 
 4220000   0.56635852   -8.8400421    562.81771  0.011114094 0.0099577606            3 
 4221000    0.5836142   -8.8179746    562.87047  0.011112502 0.0099541655            3 
 4222000   0.57450251   -8.8188046    563.12468  0.011114888 0.0099505725            2 
 4223000   0.57217519   -8.8487047    562.32095  0.011096396 0.0099469807            2 
 4224000   0.57429415   -8.8123671    563.17134  0.011110546 0.0099433885            3 
 4225000   0.56998261   -8.8388601    563.44211  0.011113257 0.0099398026            3 
 4226000   0.58067329   -8.8277279    561.95319  0.011081267   0.00993622            3 
 4227000   0.57189193   -8.8502366    562.37919  0.011087043 0.0099326366            2 
 4228000   0.58823806    -8.841203    562.66159  0.011089987 0.0099290555            2 
 4229000   0.57861555   -8.8429862    562.94055  0.011092862 0.0099254733            7 
 4230000   0.55826815   -8.8212365    562.77716  0.011087021 0.0099218897            2 
 4231000   0.58139286   -8.8520132    562.88404  0.011086505 0.0099183073            2 
 4232000     0.560069   -8.8246862    562.71826  0.011080621  0.009914733            3 
 4233000   0.56837655   -8.8277054    563.30445  0.011089543 0.0099111545            1 
 4234000   0.56636666   -8.8255305    562.76388  0.011076285 0.0099075799            2 
 4235000   0.57660896   -8.8268396    562.93929  0.011077121 0.0099040066            3 
 4236000   0.57446207   -8.8422476     563.0124  0.011075944 0.0099004371            2 
 4237000   0.57128999   -8.8321761    562.22596  0.011057862 0.0098968692            3 
 4238000   0.56854887    -8.826987    564.24832   0.01109502 0.0098933038            2 
 4239000   0.58167933    -8.804871    562.80818  0.011064091 0.0098897405            4 
 4240000   0.57286163   -8.8228585    563.22251  0.011069625 0.0098861843            5 
 4241000   0.57950628   -8.8139725    563.09369  0.011064483  0.009882626            2 
 4242000   0.57451772   -8.8237335     563.2566  0.011065075 0.0098790645            1 
 4243000   0.57427447    -8.838354    562.79543   0.01105341 0.0098755033            3 
 4244000   0.56712139   -8.8399077    562.85726   0.01105202 0.0098719471            5 
 4245000   0.57291255   -8.8364902    562.61139  0.011044589 0.0098683922            3 
 4246000   0.56856381   -8.8290968    563.35669  0.011056616 0.0098648368            4 
 4247000   0.56109692   -8.8205073    562.49985    0.0110372 0.0098612872            1 
 4248000   0.56679938   -8.8492888    563.34593  0.011051199 0.0098577358            2 
 4249000   0.56978061    -8.834224    563.72592  0.011056051 0.0098541891            3 
 4250000   0.57017125   -8.8275978     563.4659  0.011048351 0.0098506406            2 
 4251000   0.58274641   -8.8496256    561.30625  0.011003416 0.0098470965            2 
 4252000   0.57623264   -8.8252696    563.01808  0.011034378 0.0098435546            2 
 4253000   0.57298656   -8.8236557    563.48275  0.011040888 0.0098400109            2 
 4254000   0.58634749   -8.8376478    562.60475  0.011021093 0.0098364666            4 
 4255000   0.56525323   -8.8200185    561.96267  0.011005928 0.0098329239            2 
 4256000   0.57749744    -8.831487    562.35128  0.011010951 0.0098293846            1 
 4257000   0.58703724    -8.842471    562.88162  0.011018746 0.0098258474            1 
 4258000   0.56948882   -8.8398213    563.39295  0.011026165 0.0098223103            2 
 4259000   0.55865031   -8.8410219    562.83306  0.011012622 0.0098187761            1 
 4260000   0.56680825   -8.8447615    562.30929   0.01099979 0.0098152422            4 
 4261000      0.58289   -8.8345153    562.86355  0.011008049 0.0098117078            4 
 4262000   0.56797926   -8.8392819    562.54678  0.010999272 0.0098081754            4 
 4263000   0.56351212   -8.8371386    563.30179  0.011011451 0.0098046481            3 
 4264000   0.56198644   -8.8507477    563.18125  0.011006513 0.0098011221            4 
 4265000   0.56646336   -8.8414562    563.16891  0.011003691 0.0097975958            3 
 4266000   0.56879231   -8.8474121    562.86079  0.010995093 0.0097940688            4 
 4267000   0.56979355    -8.828691    563.88306  0.011012481 0.0097905455            3 
 4268000   0.56726807   -8.8475492    563.07221  0.010994068 0.0097870266            5 
 4269000   0.57581553   -8.8449091    562.30429  0.010976503 0.0097835059            4 
 4270000   0.56037279   -8.8350776    563.15384  0.010990512 0.0097799878            2 
 4271000   0.57396032   -8.8454201    563.02544  0.010985434 0.0097764723            2 
 4272000   0.57443302   -8.8410136    563.17733  0.010985825 0.0097729575            2 
 4273000   0.56130726   -8.8375406     563.0182  0.010980151  0.009769445            2 
 4274000    0.5611958   -8.8354605    562.66642  0.010970723 0.0097659369            3 
 4275000   0.55785525   -8.8382688    562.33311  0.010961659 0.0097624232            1 
 4276000   0.57028285   -8.8214288    564.05218  0.010992598 0.0097589157            3 
 4277000   0.55715928   -8.8579001    562.52492   0.01096027 0.0097554068            2 
 4278000   0.56512823   -8.8498401    563.15112  0.010969906 0.0097519009            5 
 4279000   0.56471635   -8.8713027    562.64428  0.010957472 0.0097483982            2 
 4280000   0.56986468   -8.8424585    562.58708  0.010953798 0.0097448931            7 
 4281000   0.57092198   -8.8638917    562.23075  0.010944303 0.0097413898            1 
 4282000   0.56185746   -8.8444634    560.46539  0.010907391 0.0097378881            2 
 4283000   0.56638619   -8.8619816    561.85834  0.010931947 0.0097343888            6 
 4284000   0.56114917   -8.8567647    563.36995  0.010958799 0.0097308907            3 
 4285000   0.56338255   -8.8446097    562.72924  0.010943781 0.0097273938            4 
 4286000   0.57811504   -8.8406631    563.09811    0.0109484  0.009723902            1 
 4287000   0.57076537   -8.8594887     562.8281  0.010940598 0.0097204097            3 
 4288000   0.54530243   -8.8395537    563.19003   0.01094508 0.0097169168            1 
 4289000   0.57880058   -8.8461993    562.99315  0.010938703 0.0097134269            3 
 4290000   0.56075375   -8.8284847    562.80312  0.010932462 0.0097099394            3 
 4291000   0.56839877   -8.8422999    562.12594  0.010916763 0.0097064521            2 
 4292000   0.57078727     -8.84949    561.90704  0.010909969 0.0097029712            4 
 4293000   0.56245054   -8.8518396     562.2689  0.010914452 0.0096994925            3 
 4294000    0.5551838   -8.8354817    562.01248  0.010906934 0.0096960111            3 
 4295000   0.55950985   -8.8391143     562.0178  0.010904498 0.0096925329            1 
 4296000    0.5670021   -8.8373523    562.92036  0.010919467 0.0096890558            2 
 4297000   0.55496266   -8.8417934    562.45964  0.010907991 0.0096855825            2 
 4298000   0.55943027   -8.8332251    563.69625  0.010929429 0.0096821116            2 
 4299000   0.55895643   -8.8246972    562.55809  0.010904825 0.0096786427            1 
 4300000   0.56875274   -8.8578003    562.02291  0.010891917 0.0096751719            2 
 4301000   0.56157731   -8.8390169    563.12682  0.010910773 0.0096717052            3 
 4302000   0.56175435   -8.8431863    562.14456   0.01088921 0.0096682372            5 
 4303000   0.56765445   -8.8507831    562.54459  0.010894426  0.009664776            2 
 4304000   0.57020525    -8.863907    561.48575  0.010871394 0.0096613124            3 
 4305000   0.56799009   -8.8516167    562.63868  0.010891186 0.0096578527            3 
 4306000    0.5676288   -8.8284891    562.32283  0.010882544 0.0096543924            4 
 4307000   0.57310448   -8.8407973    563.42487   0.01090134  0.009650936            2 
 4308000   0.56812948   -8.8367401    562.20963  0.010875302 0.0096474805            4 
 4309000   0.55465707   -8.8683187    562.52224  0.010878824 0.0096440231            3 
 4310000    0.5646634   -8.8420027    562.39898  0.010873917 0.0096405673            4 
 4311000   0.55333464   -8.8469116    563.33903  0.010889566 0.0096371132            3 
 4312000   0.55808496   -8.8469042    562.62101  0.010873164 0.0096336625            4 
 4313000   0.56194669    -8.852229    562.74198   0.01087298 0.0096302146            2 
 4314000   0.56993323   -8.8482141    563.21454  0.010879589 0.0096267691            2 
 4315000   0.56325013   -8.8396252    562.71952  0.010867507 0.0096233249            3 
 4316000   0.55399869   -8.8618795    564.15692  0.010892742 0.0096198805            2 
 4317000   0.56247971   -8.8364835    563.16567  0.010871085 0.0096164366            2 
 4318000     0.556561   -8.8459088    562.72896  0.010860139 0.0096129967            2 
 4319000   0.55450978   -8.8758324    562.41489  0.010851565 0.0096095552            3 
 4320000   0.56725493   -8.8532013    562.52112  0.010851102 0.0096061195            5 
 4321000   0.56546032   -8.8387343    563.33413   0.01086427 0.0096026816            2 
 4322000   0.57435586   -8.8585138    562.49096  0.010845499 0.0095992467            2 
 4323000   0.56596233   -8.8484718    563.30392  0.010858661  0.009595814            2 
 4324000   0.56359106   -8.8523275    561.88697  0.010828842 0.0095923817            3 
 4325000   0.55890369   -8.8413817    561.55815  0.010820003 0.0095889479            4 
 4326000   0.57434012   -8.8648906    562.73293  0.010840132  0.009585518            1 
 4327000   0.55355645   -8.8497893    561.82754   0.01082019 0.0095820837            5 
 4328000   0.55240745   -8.8555976    562.69539    0.0108344 0.0095786537            5 
 4329000   0.56677423   -8.8536848     562.3805  0.010825836 0.0095752286            3 
 4330000   0.55807413   -8.8716932    561.54358  0.010807228 0.0095718057            3 
 4331000   0.55201629   -8.8481624    562.32538  0.010819776  0.009568383            7 
 4332000   0.55280312   -8.8599167    563.31482  0.010836312 0.0095649628            5 
 4333000   0.56505345   -8.8566098    562.67327  0.010821472 0.0095615429            2 
 4334000   0.54438677   -8.8476537    562.45388  0.010814757  0.009558124            3 
 4335000    0.5672583   -8.8649896    563.08002  0.010824299 0.0095547062            3 
 4336000   0.56075105   -8.8663168    562.73477  0.010815167 0.0095512902            2 
 4337000   0.56125648   -8.8688262    562.36791  0.010805624 0.0095478773            2 
 4338000   0.56258991   -8.8743193    561.34875  0.010783555 0.0095444664            2 
 4339000   0.55970205   -8.8649181    562.21372  0.010797682 0.0095410557            3 
 4340000   0.57045163   -8.8702256    562.29298  0.010796716 0.0095376468            2 
 4341000   0.55493559   -8.8602199    563.25754  0.010812746 0.0095342415            3 
 4342000   0.55800103   -8.8540751    563.31014  0.010811265 0.0095308351            2 
 4343000    0.5596556    -8.856485     562.2655  0.010788731 0.0095274308            3 
 4344000   0.54666107   -8.8636775    563.39203  0.010807858 0.0095240244            3 
 4345000   0.55527594   -8.8481993    562.29311  0.010784294 0.0095206211            2 
 4346000   0.55724073    -8.862545    561.96088  0.010775443 0.0095172185            2 
 4347000   0.55321618   -8.8793905    563.03591  0.010793572 0.0095138198            1 
 4348000   0.56154699   -8.8653854    562.19444  0.010774962 0.0095104223            1 
 4349000   0.53982124   -8.8653692    562.90031   0.01078601 0.0095070223            1 
 4350000   0.55400726   -8.8782837    562.38963  0.010773748 0.0095036298            3 
 4351000   0.55808622   -8.8469357    561.67756  0.010757633 0.0095002384            2 
 4352000    0.5563717   -8.8579851    562.40169  0.010769027 0.0094968474            4 
 4353000   0.55532228   -8.8646937     561.8366  0.010755736  0.009493456            3 
 4354000   0.55396675   -8.8771307    562.38818  0.010763822  0.009490064            5 
 4355000    0.5601638   -8.8613645    561.85428  0.010751134 0.0094866743            2 
 4356000   0.55403844   -8.8719035    563.27735   0.01077589  0.009483285            2 
 4357000   0.55715135   -8.8624322    562.23085  0.010753402 0.0094798949            2 
 4358000   0.56550311   -8.8702343      561.838  0.010743422  0.009476504            3 
 4359000   0.56905845   -8.8707762    561.60371  0.010736478 0.0094731167            3 
 4360000   0.54749883    -8.859011    561.77184  0.010737229 0.0094697294            2 
 4361000   0.55962088   -8.8699561    562.71329  0.010752757 0.0094663493            2 
 4362000   0.56138139   -8.8776282    561.81962  0.010733219  0.009462969            1 
 4363000   0.56081614   -8.8859535    562.26125  0.010739194 0.0094595873            2 
 4364000   0.55790814   -8.8604411    562.04727  0.010732647 0.0094562089            2 
 4365000   0.55713022   -8.8804638     562.2996  0.010735006 0.0094528295            3 
 4366000   0.55675416   -8.8795488    561.57656  0.010718746 0.0094494516            2 
 4367000    0.5419416   -8.8538525    561.61994   0.01071712 0.0094460748            2 
 4368000   0.54822123   -8.8751631    562.23472  0.010726395 0.0094427007            3 
 4369000   0.54673324   -8.8856454    562.45432  0.010728128 0.0094393275            1 
 4370000   0.54232456   -8.8869717    561.13638  0.010700541 0.0094359561            2 
 4371000   0.54095719   -8.8738085    562.40038  0.010722191 0.0094325893            3 
 4372000   0.54579265   -8.8608221    562.91811  0.010729607 0.0094292232            3 
 4373000   0.55167108   -8.8774884    562.00479  0.010709749 0.0094258604            2 
 4374000   0.55262848   -8.8521441    562.16211  0.010710298 0.0094225012            2 
 4375000   0.55869368   -8.8907591    561.57757  0.010696716 0.0094191434            3 
 4376000    0.5557905   -8.8701023    562.30429   0.01070811 0.0094157839            3 
 4377000   0.55100435   -8.8612573     561.6231  0.010692695 0.0094124282            2 
 4378000   0.55723339    -8.865644    561.77103  0.010693068 0.0094090724            7 
 4379000   0.54495193   -8.8733543    561.83812  0.010691903 0.0094057151            3 
 4380000   0.55206253   -8.8764975     561.9372  0.010691347 0.0094023614            1 
 4381000   0.55571628   -8.8682566    561.79412  0.010686185 0.0093990053            2 
 4382000   0.54847094   -8.8653311    561.17016   0.01067188 0.0093956511            3 
 4383000   0.55484769   -8.8709413    561.56674  0.010676986 0.0093923001            2 
 4384000   0.54120313   -8.8584674    561.68171  0.010676736 0.0093889487            1 
 4385000   0.54879927   -8.8730103    560.95659  0.010660521 0.0093856006            2 
 4386000   0.54039657   -8.8764178    562.18134   0.01068136 0.0093822529            3 
 4387000     0.532873   -8.8670321    561.44616   0.01066496 0.0093789074            2 
 4388000   0.54114977   -8.8727099    562.38409  0.010680342 0.0093755653            1 
 4389000   0.54573133     -8.86841    561.81558  0.010667114 0.0093722206            3 
 4390000   0.55466598   -8.8758471    562.01086  0.010668391 0.0093688779            1 
 4391000   0.54242022   -8.8753335    562.00844  0.010665916 0.0093655358            2 
 4392000   0.54589085   -8.8779855    562.59801  0.010674674 0.0093621982            3 
 4393000   0.54520632   -8.8936173    560.95715  0.010641117  0.009358858            3 
 4394000   0.54431397   -8.8775865    560.88675  0.010637361 0.0093555225            2 
 4395000   0.54523172    -8.876849    562.25627  0.010660908 0.0093521881            3 
 4396000   0.53610462   -8.9038757    562.33904  0.010660052 0.0093488546            1 
 4397000    0.5530757   -8.8972921    561.42937  0.010640387 0.0093455208            5 
 4398000   0.55068924   -8.8638973    561.45911  0.010638531   0.00934219            2 
 4399000   0.55275877   -8.9062784    562.06088  0.010647512 0.0093388628            5 
 4400000   0.54577419    -8.871399    561.48475  0.010634181 0.0093355378            3 
 4401000   0.56174856   -8.8566252    561.96091  0.010640781 0.0093322168            3 
 4402000   0.54631807   -8.8697903    562.36067  0.010645931 0.0093288969            2 
 4403000    0.5487159   -8.8824869    561.44754  0.010626231 0.0093255711            2 
 4404000   0.54684483   -8.8844305    562.32147  0.010640355 0.0093222509            2 
 4405000    0.5394694   -8.8792765     562.0469  0.010632745 0.0093189318            4 
 4406000   0.56326174   -8.8763116    562.00726  0.010629582 0.0093156153            2 
 4407000   0.55106893   -8.8872766    561.30197  0.010613833  0.009312298            3 
 4408000   0.54852671   -8.8939138    561.16085  0.010608758 0.0093089826            6 
 4409000   0.54405471   -8.8862314    561.99821  0.010622178 0.0093056731            2 
 4410000   0.54058558   -8.8839995    561.48528  0.010610077 0.0093023587            2 
 4411000   0.53721711   -8.8891493    562.14693  0.010620172 0.0092990499            3 
 4412000    0.5367816   -8.8758788    561.52194   0.01060596 0.0092957454            2 
 4413000   0.54607871   -8.8860977    561.59083  0.010604857 0.0092924399            3 
 4414000   0.55261355   -8.8717197    561.66023  0.010603765 0.0092891345            3 
 4415000   0.54671352   -8.8839199    562.14233  0.010610463 0.0092858289            3 
 4416000   0.54322663   -8.8833313    562.63683  0.010617392 0.0092825258            2 
 4417000   0.54324221   -8.8805344      560.921  0.010582616 0.0092792203            4 
 4418000   0.54831717   -8.8962322    560.75848  0.010577156 0.0092759221            1 
 4419000   0.54820394   -8.8757049    561.89545  0.010596203 0.0092726219            3 
 4420000   0.55166349   -8.8814679    561.37188  0.010583934  0.009269321            4 
 4421000   0.55399793   -8.9006593    561.41373  0.010582329  0.009266023            3 
 4422000   0.55353333   -8.8898038    561.36737  0.010579062 0.0092627288            3 
 4423000   0.54513043   -8.8994563    562.25101  0.010593319 0.0092594363            3 
 4424000   0.54784157   -8.8999603    561.17822  0.010570717 0.0092561453            2 
 4425000   0.54106979   -8.9003918    561.46147  0.010573662 0.0092528545            2 
 4426000   0.55169622   -8.8726547    561.96296  0.010580715 0.0092495646            2 
 4427000   0.54588432   -8.8863781    562.11305  0.010581151 0.0092462772            2 
 4428000     0.542923   -8.9048035    561.59246  0.010568964 0.0092429895            2 
 4429000   0.54159657     -8.88686    561.56212  0.010566007 0.0092397027            2 
 4430000   0.54801935   -8.8813145    562.16856  0.010575029 0.0092364198            3 
 4431000   0.53707706   -8.8933819    561.81146  0.010565927 0.0092331403            1 
 4432000    0.5328932   -8.8738465    560.71459  0.010542919 0.0092298603            5 
 4433000   0.53823659   -8.8841925    562.35605  0.010571397 0.0092265807            4 
 4434000   0.53720029   -8.8730376    561.38162    0.0105507 0.0092233021            4 
 4435000   0.54780241   -8.8944185    561.00953  0.010541329 0.0092200281            4 
 4436000   0.53749547   -8.8972114    561.54752  0.010549059 0.0092167536            3 
 4437000   0.52455195   -8.9080465    561.75511  0.010550581 0.0092134779            2 
 4438000   0.54623965   -8.9018193     561.4378  0.010542245 0.0092102058            6 
 4439000   0.54398349   -8.9008536      561.929  0.010549091 0.0092069352            4 
 4440000   0.55090336   -8.8716035    561.74486  0.010543259 0.0092036638            2 
 4441000   0.53972014   -8.9115411    561.25054   0.01053161 0.0092003948            3 
 4442000   0.54803299    -8.882976    560.93667   0.01052335 0.0091971253            5 
 4443000   0.54706674   -8.8947632    561.91518  0.010539335 0.0091938612            2 
 4444000   0.54515646   -8.8953864    562.01369  0.010538811 0.0091905962            2 
 4445000   0.53434347   -8.9079255    561.75111  0.010531517 0.0091873332            2 
 4446000   0.54195608    -8.891727     561.3876  0.010522335 0.0091840749            4 
 4447000   0.54982338   -8.8766482    561.67347  0.010525325 0.0091808183            3 
 4448000   0.55696331   -8.8915146    560.51513  0.010501258 0.0091775593            2 
 4449000   0.53970549   -8.8924138    560.24949  0.010493922 0.0091743025            2 
 4450000   0.53843794   -8.8880586    562.16497  0.010527434 0.0091710478            1 
 4451000   0.54816394   -8.8966295    561.20082  0.010507018 0.0091677925            2 
 4452000   0.54461409    -8.886576    561.76673   0.01051525 0.0091645402            2 
 4453000   0.54217338   -8.8866037    562.27573  0.010522414 0.0091612888            2 
 4454000   0.52878737   -8.8971537    560.14746  0.010480232  0.009158038            3 
 4455000   0.52780724   -8.8873723    561.49111  0.010503014 0.0091547895            1 
 4456000   0.54032181   -8.8843412    561.58299  0.010502375  0.009151544            2 
 4457000    0.5368117   -8.8877284    560.73652  0.010484192 0.0091482978            3 
 4458000   0.54374519   -8.8833332    561.81671  0.010502032 0.0091450548            2 
 4459000   0.54845171   -8.8890403    561.12876   0.01048682 0.0091418147            3 
 4460000   0.54298503   -8.8880829    562.00234  0.010500791 0.0091385755            4 
 4461000    0.5445319   -8.8931881    561.90371  0.010496595 0.0091353388            4 
 4462000    0.5216836   -8.8898425    561.25178  0.010482067 0.0091321018            2 
 4463000    0.5345565   -8.8852339    561.18196  0.010478414 0.0091288645            3 
 4464000   0.53120883   -8.9044318    561.91286  0.010489711 0.0091256308            4 
 4465000   0.53741034   -8.8953458    561.13967  0.010472931 0.0091223988            3 
 4466000    0.5355874   -8.9137974     561.8339   0.01048354 0.0091191652            2 
 4467000    0.5435698   -8.8887748    561.69024  0.010478514 0.0091159357            3 
 4468000    0.5519867   -8.8952599    562.20263  0.010485725 0.0091127083            4 
 4469000   0.54681528   -8.9022968    562.32551   0.01048567  0.009109483            4 
 4470000   0.53386535   -8.8831306    560.65075  0.010452102 0.0091062538            2 
 4471000   0.54939239    -8.878533    561.97538  0.010474453  0.009103027            2 
 4472000   0.52880327   -8.9097627    561.36838    0.0104608 0.0090998028            2 
 4473000    0.5283327   -8.9035848    562.18033  0.010473588 0.0090965794            3 
 4474000   0.53284993   -8.8947654    561.29667  0.010454788 0.0090933553            3 
 4475000   0.53434556    -8.906225    560.84869   0.01044411 0.0090901353            3 
 4476000   0.53632794   -8.9026603    561.25672  0.010449373 0.0090869163            3 
 4477000   0.52857823   -8.8932482    561.25385  0.010446986 0.0090836981            2 
 4478000   0.53470566   -8.9094208    561.51857  0.010449579 0.0090804788            2 
 4479000   0.53262343   -8.9024095    561.36229  0.010444338 0.0090772633            5 
 4480000    0.5381359   -8.8776759    561.28017  0.010440479 0.0090740516            2 
 4481000   0.53681412   -8.9032117    561.12904  0.010435339 0.0090708396            3 
 4482000   0.54571733   -8.9046515    561.12438  0.010432924 0.0090676293            2 
 4483000   0.53749727    -8.896314    560.88298  0.010426109 0.0090644212            2 
 4484000   0.54158632   -8.9069384    561.19821  0.010429643 0.0090612159            3 
 4485000   0.53966614   -8.8912472    561.37691  0.010430637 0.0090580106            2 
 4486000   0.54269538   -8.9028168    561.42286  0.010429166 0.0090548073            2 
 4487000   0.53838091   -8.8916888    560.84926  0.010416189 0.0090516034            4 
 4488000   0.53500048   -8.9064647    561.57142  0.010427277 0.0090483997            2 
 4489000    0.5249639   -8.8915988    561.27785  0.010419504 0.0090451983            3 
 4490000   0.53866855   -8.9022285    561.67408  0.010424537 0.0090420008            2 
 4491000   0.52188089   -8.8958685    561.32194  0.010415682 0.0090388069            4 
 4492000   0.53541955   -8.8988312    561.13638  0.010409921 0.0090356101            3 
 4493000   0.53146928   -8.9038242    561.48388  0.010414049 0.0090324154            1 
 4494000   0.52130413   -8.9176318    561.19975  0.010406463 0.0090292211            5 
 4495000   0.53211595   -8.9136802    560.69574  0.010394804 0.0090260269            4 
 4496000   0.52856951   -8.8908679    560.76422  0.010393762 0.0090228373            2 
 4497000   0.53084526   -8.9025469    561.64596   0.01040779 0.0090196487            2 
 4498000   0.51910319   -8.8956126    560.71678  0.010388261 0.0090164602            3 
 4499000    0.5171823   -8.9084918    561.15729  0.010394111 0.0090132719            2 
 4500000   0.53618265   -8.8912216    560.93352  0.010387658  0.009010087            2 
 4501000   0.53354957   -8.9142093    561.42769  0.010394499 0.0090069039            3 
 4502000   0.53044815   -8.8873069    561.19833  0.010387945 0.0090037224            2 
 4503000   0.52770196   -8.9057907    561.66241  0.010394226 0.0090005402            3 
 4504000   0.53563977   -8.8814834    561.51776  0.010389242 0.0089973576            4 
 4505000   0.53613274   -8.9195371    560.90237  0.010375553 0.0089941794            2 
 4506000   0.53361625   -8.9001817    561.55356  0.010385293 0.0089910031            3 
 4507000   0.53118386   -8.9017793    561.33415  0.010378932 0.0089878302            4 
 4508000   0.52205868   -8.8913334    561.23198  0.010374741 0.0089846596            4 
 4509000   0.52831066   -8.8906663    561.00617  0.010368267 0.0089814857            2 
 4510000   0.52366109   -8.9106553    561.23778  0.010370247 0.0089783153            2 
 4511000   0.52573866   -8.9224629    561.12362   0.01036584 0.0089751465            2 
 4512000    0.5390665   -8.9039196    560.73412  0.010356348 0.0089719789            2 
 4513000   0.52625144   -8.9077258    559.79875  0.010336782 0.0089688088            2 
 4514000   0.53478511   -8.9033402    561.28298  0.010361892  0.008965646            4 
 4515000    0.5207133   -8.9156664    560.97967  0.010353999 0.0089624846            2 
 4516000    0.5423528   -8.9089499     561.1243  0.010354375 0.0089593233            2 
 4517000   0.52178096   -8.9162748    560.24023  0.010335773 0.0089561615            2 
 4518000   0.53460504   -8.9053326    560.57731  0.010339703 0.0089530036            2 
 4519000    0.5363783   -8.9001425    560.95798  0.010344434 0.0089498458            2 
 4520000   0.54475612   -8.8987642    560.75169  0.010338342 0.0089466887            2 
 4521000   0.51510166   -8.8975442    561.62875  0.010352222 0.0089435353            3 
 4522000   0.53472742     -8.91312    560.96097  0.010337627  0.008940383            2 
 4523000   0.53765796    -8.918493    560.72006  0.010330902 0.0089372336            2 
 4524000   0.53252547   -8.9259172    559.96584  0.010314726 0.0089340858            1 
 4525000   0.53357191   -8.9081345    561.01663  0.010331798 0.0089309334            2 
 4526000    0.5210219   -8.9252714    560.42542   0.01031863 0.0089277831            4 
 4527000   0.53089359   -8.9017823    561.38371  0.010333991 0.0089246372            1 
 4528000   0.52234821   -8.9204112     561.4442  0.010332822  0.008921492            5 
 4529000   0.52166601   -8.9054599    560.86536   0.01031989 0.0089183509            5 
 4530000   0.50815135   -8.8931558    560.28551  0.010306945 0.0089152078            3 
 4531000   0.53305661   -8.9145939     561.0761   0.01031921 0.0089120666            3 
 4532000   0.53132296   -8.9028317    560.96891  0.010314962 0.0089089271            3 
 4533000   0.51085801   -8.9074937    560.10611  0.010296825 0.0089057886            2 
 4534000   0.51568375    -8.931736    559.66241  0.010286399 0.0089026473            2 
 4535000   0.51782079   -8.9181981    561.04773  0.010309587 0.0088995086            3 
 4536000   0.52071365   -8.9319293    560.89006  0.010304418 0.0088963735            2 
 4537000   0.52543985   -8.9297614    560.84955  0.010301402 0.0088932377            2 
 4538000   0.51919097   -8.9334298    560.08636  0.010285117 0.0088901037            2 
 4539000   0.52410555   -8.9160122    561.18006  0.010302931 0.0088869705            4 
 4540000   0.50155273   -8.9208262    562.08956  0.010317356 0.0088838391            1 
 4541000   0.52829896   -8.9101238    561.80791  0.010309915 0.0088807094            2 
 4542000   0.52840102   -8.9221897    559.95961  0.010273734 0.0088775805            4 
 4543000   0.51056363   -8.9276747    560.85589  0.010287913 0.0088744534            1 
 4544000   0.52386042   -8.9097193    560.23454  0.010274254 0.0088713289            2 
 4545000   0.51925484    -8.912493    560.58836  0.010278481 0.0088682038            2 
 4546000   0.53372072   -8.9170318    560.15262  0.010268233 0.0088650802            4 
 4547000   0.52672727   -8.9333052    561.54532  0.010291498 0.0088619625            2 
 4548000   0.51732494   -8.9059434    560.21635  0.010264885 0.0088588405            2 
 4549000   0.52585493   -8.9067122    561.40584  0.010284419 0.0088557235            1 
 4550000   0.51930432   -8.9136062    560.39138  0.010263578 0.0088526062            3 
 4551000   0.52485594   -8.9174429    559.97308  0.010253664 0.0088494897            2 
 4552000   0.52376292   -8.9203426     560.5681  0.010262304 0.0088463742            2 
 4553000   0.51176362   -8.9105093     560.8677  0.010265534 0.0088432602            3 
 4554000   0.53298204   -8.9311132    560.53988  0.010257281 0.0088401499            2 
 4555000   0.53629946   -8.9075481    560.58582  0.010255869 0.0088370416            2 
 4556000   0.52732653    -8.932359    560.00628  0.010243018 0.0088339334            4 
 4557000   0.51688697    -8.930834    560.47726  0.010249383  0.008830827            5 
 4558000   0.51695953   -8.8973736    560.38355  0.010245421 0.0088277197            3 
 4559000   0.52623795   -8.9264212    561.04142  0.010255199 0.0088246187            5 
 4560000   0.51086176   -8.9105703    560.51194  0.010243274 0.0088215149            3 
 4561000   0.52309442   -8.9375366    560.43868  0.010239689 0.0088184155            2 
 4562000   0.51890469   -8.9131808     560.3335  0.010235524 0.0088153175            2 
 4563000   0.52717245   -8.9278197    560.61212  0.010238369 0.0088122204            2 
 4564000   0.51852049   -8.9381862    560.45498  0.010233256 0.0088091234            2 
 4565000   0.52246702   -8.9297664    560.25403  0.010227346 0.0088060267            3 
 4566000   0.51771571   -8.9117133    559.63596  0.010213826 0.0088029322            2 
 4567000   0.51550375   -8.9283467    560.70268  0.010231054 0.0087998409            2 
 4568000   0.51994667   -8.9219245    560.34821  0.010222348 0.0087967505            1 
 4569000   0.52306447   -8.9043578     561.0289  0.010232525 0.0087936625            2 
 4570000   0.51722156   -8.9159749    560.78746  0.010225884 0.0087905757            2 
 4571000   0.52818223    -8.935888    560.31162  0.010214972 0.0087874877            2 
 4572000   0.51112854   -8.9245824    560.08479  0.010208603 0.0087844026            4 
 4573000   0.51237362   -8.9051698    561.52001  0.010232524 0.0087813211            2 
 4574000   0.50444575    -8.920832    559.76267  0.010198271 0.0087782403            3 
 4575000   0.52805907   -8.9334495    561.12998  0.010220947 0.0087751583            3 
 4576000   0.51943375   -8.9313272    559.89463  0.010196216 0.0087720777            6 
 4577000   0.52802371   -8.9256304    560.11739  0.010198044 0.0087689983            5 
 4578000    0.5133324   -8.9245366    560.46094   0.01020207 0.0087659183            2 
 4579000   0.53587444   -8.9187934    561.26327  0.010214444  0.008762839            4 
 4580000   0.52305701   -8.9117201    560.59538  0.010200061 0.0087597623            3 
 4581000   0.51270631   -8.9284112     560.4212  0.010194666 0.0087566859            3 
 4582000   0.51870876   -8.9201185    560.93676  0.010201818 0.0087536143            4 
 4583000   0.51690469   -8.9183465    560.95388  0.010199903 0.0087505404            3 
 4584000   0.51826498   -8.9291149    559.96278  0.010179661 0.0087474685            5 
 4585000   0.52169649   -8.9340434    560.31585  0.010183858 0.0087443971            3 
 4586000   0.51647063   -8.9396118    560.95778  0.010193302 0.0087413273            2 
 4587000   0.52319079   -8.9374555    560.37872  0.010180559 0.0087382601            2 
 4588000   0.51399492   -8.9253463    560.29513  0.010176822 0.0087351926            3 
 4589000    0.5318555   -8.9171541    560.23541   0.01017352 0.0087321301            2 
 4590000   0.52328517   -8.9360616    560.30197  0.010172512 0.0087290695            6 
 4591000   0.51422463   -8.9520109    559.53015  0.010156287 0.0087260097            3 
 4592000   0.51285461   -8.9197765    559.89049  0.010160614 0.0087229485            3 
 4593000   0.51284099   -8.9332163    561.22889  0.010182685 0.0087198924            2 
 4594000   0.50925581   -8.9371086    559.86073  0.010155651 0.0087168336            3 
 4595000   0.51438094   -8.9299791    560.41209   0.01016344 0.0087137794            3 
 4596000   0.52200795    -8.924369    560.52871  0.010163343 0.0087107273            5 
 4597000   0.52084727   -8.9249312    559.82305   0.01014834 0.0087076739            2 
 4598000   0.49728451   -8.9269271    560.11398  0.010151406 0.0087046231            2 
 4599000   0.51074059   -8.9125706    559.90294  0.010145375 0.0087015705            3 
 4600000   0.51754084   -8.9324955    560.26563   0.01014974 0.0086985206            2 
 4601000   0.51241232   -8.9295927    560.73999  0.010156125 0.0086954728            2 
 4602000    0.5226319    -8.923743     560.5964  0.010151318 0.0086924265            2 
 4603000   0.51218396   -8.9462992    559.91409   0.01013676 0.0086893824            2 
 4604000    0.5257283   -8.9311922    559.48252  0.010126747 0.0086863391            4 
 4605000   0.51147624   -8.9367163    560.05366  0.010134883 0.0086832971            4 
 4606000   0.51164573   -8.9338556    560.13591  0.010134171 0.0086802568            2 
 4607000   0.50055925   -8.9259142    561.44968  0.010155735 0.0086772152            2 
 4608000   0.50550252   -8.9204466    559.89126  0.010125348 0.0086741767            2 
 4609000   0.50735074   -8.9426037    560.57125  0.010135446  0.008671138            2 
 4610000   0.50850259   -8.9307964    559.42134  0.010112461 0.0086681029            2 
 4611000   0.51156943   -8.9344409    560.34914  0.010127036 0.0086650693            4 
 4612000   0.50381583   -8.9547597    560.00267   0.01011858 0.0086620343            2 
 4613000   0.51769741   -8.9376522    560.57768  0.010126774 0.0086590015            2 
 4614000   0.51836346   -8.9366488    559.60337  0.010106982 0.0086559702            8 
 4615000   0.52711323    -8.932188    560.85345  0.010127365 0.0086529415            2 
 4616000   0.51781925    -8.929161    559.34492  0.010097937 0.0086499152            3 
 4617000   0.49992795   -8.9258724    560.54881  0.010117479 0.0086468903            4 
 4618000   0.52468045   -8.9315879     560.1735  0.010108516 0.0086438677            3 
 4619000   0.50413398   -8.9321359    559.80027  0.010099593 0.0086408452            4 
 4620000    0.5045315   -8.9190532    560.17566  0.010104179 0.0086378257            3 
 4621000    0.5224477   -8.9210502    560.40181   0.01010607 0.0086348052            3 
 4622000    0.5066281   -8.9286375    560.56576   0.01010684  0.008631788            4 
 4623000   0.50162257   -8.9414022    559.74742  0.010089902 0.0086287726            1 
 4624000   0.50794512   -8.9386168    560.62858    0.0101036 0.0086257584            2 
 4625000   0.50782631   -8.9480556    560.85034  0.010105412 0.0086227476            4 
 4626000   0.50867245   -8.9329394    560.47211  0.010096414 0.0086197364            3 
 4627000   0.50422061   -8.9197293    560.26054  0.010090421 0.0086167276            2 
 4628000    0.5061931   -8.9402053    560.27577  0.010088515 0.0086137185            3 
 4629000   0.51326892   -8.9382352    560.09882   0.01008315 0.0086107083            3 
 4630000   0.51631398   -8.9404892     559.3214   0.01006698 0.0086077027            2 
 4631000   0.50893503   -8.9484016    559.75598  0.010072626 0.0086046965           10 
 4632000   0.50178832    -8.938783    559.94922  0.010073928 0.0086016902            4 
 4633000   0.51437881    -8.921558    559.63611  0.010066122 0.0085986876            5 
 4634000   0.50826101   -8.9375597    559.75901   0.01006616 0.0085956865            1 
 4635000   0.50847823   -8.9486817    560.00587  0.010068426 0.0085926855            5 
 4636000   0.50260851    -8.949001    559.99296  0.010066022 0.0085896871            3 
 4637000   0.50930233   -8.9175312     560.4159  0.010071452 0.0085866897            5 
 4638000    0.5133813   -8.9388439    560.56785  0.010072011 0.0085836923            3 
 4639000    0.5206331   -8.9479899    560.03622   0.01006029 0.0085806972            3 
 4640000   0.50667801   -8.9422367    560.07039  0.010058735  0.008577703            3 
 4641000   0.49448822   -8.9488382    559.98056  0.010054955 0.0085747104            3 
 4642000   0.51880428   -8.9438085    560.01942  0.010053487 0.0085717195            2 
 4643000     0.516667   -8.9334361    559.28945   0.01003822 0.0085687305            2 
 4644000   0.49722953   -8.9370655    560.65422  0.010060548 0.0085657411            3 
 4645000   0.50441816   -8.9592693    559.66057  0.010040556 0.0085627515            2 
 4646000   0.50185725    -8.943131    560.40451  0.010051738 0.0085597626            4 
 4647000   0.50537862   -8.9371705    559.81772  0.010039052 0.0085567741            2 
 4648000    0.5101256   -8.9540809     559.4021  0.010029441  0.008553786            4 
 4649000   0.51596662   -8.9638123    560.02334  0.010038419 0.0085507994            2 
 4650000    0.5089378   -8.9659055    560.10792  0.010037776 0.0085478157            3 
 4651000   0.50328454   -8.9330126    559.98377  0.010033394 0.0085448361            4 
 4652000   0.49367637   -8.9439415    559.68208  0.010025833 0.0085418549            8 
 4653000   0.49769751   -8.9462185    559.32654   0.01001731 0.0085388775            4 
 4654000   0.50458259   -8.9420618     559.5484   0.01001913 0.0085359001            4 
 4655000   0.50897541    -8.932968    560.08033  0.010026501  0.008532924            3 
 4656000   0.50440338   -8.9476315     559.3403  0.010011102 0.0085299498            3 
 4657000   0.51189911   -8.9619747     559.2185  0.010006773 0.0085269758            2 
 4658000   0.51275996   -8.9401569    558.90017 0.0099989296 0.0085240034            2 
 4659000    0.5025234    -8.951572    560.51266  0.010025625 0.0085210336            3 
 4660000   0.50622686   -8.9464345    559.70638  0.010009055 0.0085180639            2 
 4661000   0.50318566   -8.9384862     559.4313   0.01000199 0.0085150946            3 
 4662000   0.50655743   -8.9519086    559.62858  0.010003371 0.0085121236            3 
 4663000    0.5226079    -8.937466    560.15647   0.01001066 0.0085091561            4 
 4664000   0.50757671   -8.9499127    559.70513  0.010000449 0.0085061925            2 
 4665000   0.50650547   -8.9513339    560.07889  0.010004982 0.0085032277            2 
 4666000   0.50385225   -8.9534587    560.22039  0.010005365 0.0085002651            6 
 4667000   0.51845672   -8.9503008    559.38885 0.0099883731 0.0084973046            7 
 4668000   0.51370361   -8.9617852    559.10941 0.0099812448 0.0084943443            6 
 4669000   0.51152528   -8.9673851    559.63269 0.0099884467 0.0084913841            3 
 4670000   0.51111703   -8.9529016    559.10814 0.0099769475 0.0084884255            2 
 4671000   0.51063183   -8.9357802    560.12114 0.0099928842 0.0084854703            3 
 4672000   0.50767107   -8.9505136     559.6777 0.0099828358 0.0084825142            4 
 4673000   0.51285171   -8.9632524    560.01134 0.0099866493 0.0084795611            3 
 4674000   0.50556403    -8.961718    559.29858 0.0099718046 0.0084766073            3 
 4675000   0.50344185   -8.9517808    559.05164   0.00996527 0.0084736549            4 
 4676000   0.49806104   -8.9304585    560.02498 0.0099804851 0.0084707069            4 
 4677000   0.51042497   -8.9620602    560.18347 0.0099811752 0.0084677568            3 
 4678000    0.5023827   -8.9467338    559.73232 0.0099710048 0.0084648119            2 
 4679000   0.50448163   -8.9667128    558.56283 0.0099480449  0.008461864            2 
 4680000   0.49827026   -8.9787516    560.08704 0.0099730598 0.0084589179            3 
 4681000   0.51339821   -8.9363933    559.92763 0.0099680915 0.0084559758            3 
 4682000   0.50828789   -8.9520759    559.42119 0.0099569484 0.0084530324            2 
 4683000   0.50665176   -8.9467007    559.78426  0.009961283 0.0084500911            2 
 4684000   0.49487974   -8.9598966    559.38405 0.0099520363 0.0084471487            1 
 4685000    0.5042366   -8.9712792    559.45726 0.0099512142 0.0084442108            4 
 4686000   0.50317387    -8.952535    559.09501 0.0099426485 0.0084412723            3 
 4687000   0.50037494   -8.9676963    558.48914  0.009929755 0.0084383353            2 
 4688000   0.50027468   -8.9583456    559.99648 0.0099544312 0.0084353981            6 
 4689000   0.49676998    -8.964099    558.62865 0.0099279991 0.0084324649            2 
 4690000   0.51212343   -8.9501452    559.27217 0.0099373164 0.0084295328            3 
 4691000   0.49887721   -8.9697055    560.16489 0.0099510568 0.0084266019            2 
 4692000   0.49918028   -8.9657364    559.15554 0.0099310092 0.0084236736            1 
 4693000   0.49622137   -8.9515705    559.54069 0.0099357321 0.0084207453            5 
 4694000   0.51136595   -8.9467926    560.14291 0.0099443068 0.0084178213            7 
 4695000   0.50863016   -8.9586065    558.42155 0.0099116356 0.0084148961            2 
 4696000   0.49885726   -8.9484448    559.20433 0.0099234159  0.008411972            2 
 4697000   0.49980273   -8.9585163    560.39898 0.0099424984 0.0084090507            2 
 4698000   0.48720199   -8.9587876    559.44842 0.0099235211 0.0084061326            3 
 4699000   0.49211914   -8.9567028    560.57867 0.0099414534 0.0084032129            3 
 4700000   0.48995599   -8.9501745    559.75043  0.009924653 0.0084002959            2 
 4701000   0.50532387   -8.9647004    559.59483 0.0099197835 0.0083973828            2 
 4702000   0.48661392   -8.9469746    559.41619 0.0099145078 0.0083944684            4 
 4703000   0.49354423   -8.9520348    559.20064 0.0099085804 0.0083915562            4 
 4704000   0.50194117   -8.9565137    559.56893 0.0099129983 0.0083886441            3 
 4705000   0.51116912   -8.9575044    559.91556 0.0099170308 0.0083857382            3 
 4706000   0.50064829   -8.9467311    559.05562 0.0098996958 0.0083828296            5 
 4707000   0.50016829   -8.9659109    559.07755 0.0098979809 0.0083799235            9 
 4708000    0.5004627    -8.938846    559.14678 0.0098971038 0.0083770173            4 
 4709000   0.50001462   -8.9602573    559.88011 0.0099079795 0.0083741115            3 
 4710000    0.5003715   -8.9714108    559.44028 0.0098980942 0.0083712055            2 
 4711000    0.4955607   -8.9585056    559.84401 0.0099031347 0.0083683046            3 
 4712000   0.49844082   -8.9604659     560.3112 0.0099092954 0.0083654036            7 
 4713000   0.48447819   -8.9553094    558.91351 0.0098824795  0.008362504            3 
 4714000   0.49048128   -8.9547288    559.05402  0.009882867  0.008359604            2 
 4715000   0.49711387   -8.9447805    559.42776 0.0098873764 0.0083567052            5 
 4716000    0.4915791   -8.9486349    559.75935 0.0098911392 0.0083538106            7 
 4717000   0.49954706   -8.9563699     559.3319 0.0098814908 0.0083509171            7 
 4718000   0.49831663   -8.9791344    560.03742 0.0098918578 0.0083480223            5 
 4719000     0.497892   -8.9855739    560.43797 0.0098968349  0.008345128            4 
 4720000   0.50101409   -8.9645656     559.5822 0.0098796293 0.0083422361            4 
 4721000    0.5003837   -8.9624925    560.19531 0.0098883589 0.0083393443            4 
 4722000   0.49940163   -8.9623706    558.43619 0.0098552201 0.0083364556            5 
 4723000    0.5005577   -8.9630486    559.66841 0.0098748748 0.0083335664            4 
 4724000   0.50940819   -8.9498545    560.13185 0.0098809598 0.0083306826            4 
 4725000   0.49057163   -8.9506741    560.34774 0.0098826761 0.0083277989            7 
 4726000   0.48875359   -8.9652904     559.8943 0.0098725896 0.0083249146            2 
 4727000   0.50763293   -8.9686248    560.55102 0.0098820785 0.0083220319            2 
 4728000   0.49691636   -8.9816536    559.24809 0.0098570236 0.0083191509            3 
 4729000   0.49407306   -8.9560256    559.49166 0.0098592314 0.0083162722            3 
 4730000   0.49467459   -8.9634019    558.62268 0.0098418372 0.0083133958            4 
 4731000   0.49290585   -8.9633832    559.18221 0.0098496126 0.0083105174            5 
 4732000   0.49918549   -8.9727325    560.04869 0.0098627904 0.0083076423            2 
 4733000   0.49453224   -8.9728313    559.64258 0.0098535563 0.0083047713            3 
 4734000   0.47897538   -8.9627831    559.56403 0.0098500921 0.0083018981            2 
 4735000    0.5106549   -8.9636625    559.32686 0.0098438378 0.0082990263            6 
 4736000   0.48572623   -8.9732006    558.23212 0.0098224965 0.0082961553            3 
 4737000   0.49673668   -8.9712455    558.83029  0.009830946 0.0082932862            2 
 4738000   0.51140114   -8.9504245    559.69779 0.0098441289 0.0082904204            5 
 4739000   0.50048588   -8.9548049    559.51595  0.009838854 0.0082875541            4 
 4740000   0.49777203   -8.9644747    559.37054 0.0098342219 0.0082846885            3 
 4741000   0.48402952   -8.9532208    560.73533 0.0098561366 0.0082818242            7 
 4742000   0.49555787   -8.9710589    559.26338 0.0098281909 0.0082789624            3 
 4743000   0.48556471    -8.973314    558.39526 0.0098108661 0.0082761006            3 
 4744000   0.49289903   -8.9665205    558.68548 0.0098138962 0.0082732408            4 
 4745000   0.48787454    -8.971157    560.00212 0.0098349512 0.0082703842            2 
 4746000    0.4884066   -8.9739803    559.38693  0.009822077 0.0082675265            4 
 4747000   0.48942855   -8.9760728    558.91523 0.0098117272 0.0082646724            3 
 4748000   0.48864237   -8.9719357    558.73438 0.0098064867 0.0082618164            8 
 4749000   0.49125953   -8.9601035    559.73307 0.0098219461 0.0082589626            2 
 4750000   0.49002492   -8.9833337    559.20096 0.0098105431 0.0082561087            2 
 4751000   0.48696842   -8.9811402    559.11136 0.0098069067 0.0082532578            3 
 4752000   0.48628494   -8.9564885    558.97864 0.0098025154 0.0082504074            3 
 4753000   0.49328321   -8.9636481    559.25286 0.0098052608 0.0082475572            1 
 4754000   0.49520025   -8.9720725    559.71808 0.0098113533 0.0082447097            4 
 4755000   0.50364928   -8.9566151    559.96857 0.0098136799 0.0082418635            2 
 4756000   0.47591131   -8.9748892     558.8809 0.0097925584 0.0082390174            3 
 4757000   0.50032172   -8.9651813    558.78652 0.0097888466 0.0082361754            2 
 4758000   0.47839761   -8.9792333    559.47319 0.0097988159 0.0082333328            2 
 4759000   0.49009857   -8.9747615    559.39627   0.00979541  0.008230491            6 
 4760000     0.491993   -8.9646288    560.06967 0.0098051412 0.0082276493            3 
 4761000   0.49600307   -8.9734287    558.92339 0.0097830181 0.0082248104            1 
 4762000   0.49160715   -8.9794372    559.17542 0.0097853741 0.0082219729            3 
 4763000   0.48740006   -8.9753067    559.51739 0.0097893027 0.0082191395            4 
 4764000    0.4946482   -8.9742701    559.57576  0.009788269 0.0082163082            4 
 4765000   0.48183583   -8.9493947    560.05021 0.0097945123 0.0082134755            5 
 4766000   0.49042391   -8.9657642    559.98703 0.0097913524 0.0082106438            2 
 4767000   0.48611558   -8.9559772    559.22523 0.0097759811 0.0082078139            2 
 4768000   0.48182245   -8.9799609    559.23218 0.0097740524 0.0082049844            3 
 4769000   0.49729633   -8.9738103    559.89408 0.0097835689 0.0082021532            2 
 4770000   0.48381401   -8.9806815    558.82158 0.0097627809 0.0081993259            3 
 4771000   0.49600581   -8.9816593    559.63429   0.00977493 0.0081964991            3 
 4772000   0.48981304   -8.9784239    558.58592  0.009754574 0.0081936729            4 
 4773000   0.48585161   -8.9691587    559.00251 0.0097598036 0.0081908504            2 
 4774000   0.48868876   -8.9614359    558.69239 0.0097523459 0.0081880293            2 
 4775000   0.48749006   -8.9741412    559.09705 0.0097573655 0.0081852064            2 
 4776000   0.48454777   -8.9718126    558.60122 0.0097466712 0.0081823847            2 
 4777000   0.49503609    -8.971318     559.0912 0.0097531785 0.0081795667            5 
 4778000   0.50088585   -8.9773031    558.72655 0.0097447773 0.0081767499            3 
 4779000   0.49169697   -8.9647701    559.09368 0.0097491399 0.0081739339            3 
 4780000    0.4871642   -8.9717975    559.02463 0.0097458967  0.008171118            5 
 4781000   0.49092946   -8.9727518    559.58354    0.0097536 0.0081683026            4 
 4782000   0.48388983   -8.9742986    559.02782 0.0097418762  0.008165489            5 
 4783000   0.49388685   -8.9577322    559.15337 0.0097420267 0.0081626771            3 
 4784000   0.48681797   -8.9742851     558.8556 0.0097348035 0.0081598654            3 
 4785000   0.48124967   -8.9633316    559.48762  0.009743776 0.0081570568            3 
 4786000   0.48682287   -8.9842416    559.08257 0.0097346874 0.0081542459            2 
 4787000   0.48436676   -8.9823249    558.62699  0.009724723 0.0081514389            4 
 4788000   0.47997618   -8.9904391    559.16779 0.0097321043 0.0081486321            3 
 4789000   0.47851685   -8.9738173    559.16258 0.0097299815  0.008145827            3 
 4790000    0.4799323   -8.9807009    558.40513 0.0097147727 0.0081430237            3 
 4791000   0.48494186   -8.9907187    559.04713 0.0097239116 0.0081402223            3 
 4792000   0.49371865   -8.9646057    559.18656 0.0097243071 0.0081374208            3 
 4793000   0.48788283   -8.9874233    559.46133 0.0097270556 0.0081346216            3 
 4794000   0.49254333   -8.9829594    558.66396  0.009711166 0.0081318216            1 
 4795000   0.47769327   -8.9860562    559.45389 0.0097228692 0.0081290227            4 
 4796000   0.48502007   -8.9904622    558.21946  0.009699393 0.0081262256            5 
 4797000   0.48026154   -8.9964678    559.49982 0.0097196133 0.0081234282            2 
 4798000   0.47676387   -8.9804217    558.64247 0.0097026968 0.0081206348            2 
 4799000   0.48127399   -8.9588888    559.37628 0.0097134174 0.0081178446            1 
 4800000   0.47874651   -8.9825548    558.72025 0.0097000043 0.0081150544            3 
 4801000   0.48935183   -8.9614567    559.05155 0.0097037345  0.008112267            3 
 4802000   0.48066286    -8.977705    559.47367  0.009709039 0.0081094786            3 
 4803000   0.48164471   -8.9749365     558.8745  0.009696622 0.0081066899            2 
 4804000   0.49888656   -8.9747299    559.02716 0.0096972516 0.0081039043            3 
 4805000   0.48640843   -8.9836709    559.41181 0.0097019044 0.0081011221            3 
 4806000   0.47981331   -8.9759507    559.06734 0.0096939128 0.0080983374            2 
 4807000   0.48054118   -8.9741836    558.62202 0.0096841762 0.0080955564            3 
 4808000   0.48053503   -9.0044715    558.72976 0.0096840294 0.0080927761            5 
 4809000   0.48477166   -9.0060821    558.38912 0.0096761129 0.0080899945            3 
 4810000   0.47646878    -8.964077    559.05178 0.0096855818 0.0080872174            1 
 4811000    0.4802369   -8.9790231    557.90237 0.0096636591 0.0080844385            2 
 4812000   0.47980148    -8.992892    558.25316 0.0096677258 0.0080816628            4 
 4813000   0.48602338   -8.9831172    557.95216 0.0096605056 0.0080788864            3 
 4814000   0.49339659   -8.9767757    559.46417 0.0096846726 0.0080761127            3 
 4815000   0.47923828    -8.995261    558.43079 0.0096647765 0.0080733401            3 
 4816000   0.48799513   -8.9982102    559.34626 0.0096786106 0.0080705693            3 
 4817000    0.4747206   -9.0131499    558.32172 0.0096588768 0.0080677978            2 
 4818000   0.48396309   -8.9778292    558.16929 0.0096542358  0.008065028            3 
 4819000   0.46891699    -8.990838    558.37223 0.0096557417 0.0080622609            1 
 4820000   0.48526487   -8.9859422    558.52981 0.0096564629 0.0080594949            3 
 4821000   0.47326866   -8.9925381    558.22004 0.0096491053 0.0080567297            2 
 4822000   0.47619415   -8.9915463    558.56909 0.0096531365 0.0080539662            3 
 4823000   0.47119128   -8.9882207    559.34796 0.0096645926 0.0080512059            2 
 4824000   0.47377162   -8.9935842    558.77459 0.0096526843 0.0080484441            2 
 4825000    0.4807726   -8.9819893     559.3193 0.0096600916 0.0080456858            2 
 4826000   0.48274122   -8.9832729    558.52376 0.0096443528 0.0080429271            1 
 4827000   0.48370883   -8.9984301    558.09463 0.0096349464 0.0080401702            4 
 4828000    0.4785382   -8.9843999    559.08257 0.0096500029 0.0080374129            2 
 4829000   0.47586585   -8.9936135    559.20457 0.0096501099   0.00803466            3 
 4830000   0.47811644   -8.9841386    558.67782 0.0096390239 0.0080319068            4 
 4831000   0.48263861   -8.9749713    558.97009 0.0096420702 0.0080291551            5 
 4832000   0.48726542    -8.971351    559.25571 0.0096450006 0.0080264031            1 
 4833000    0.4869812   -9.0139962    557.82239 0.0096182907 0.0080236508            4 
 4834000   0.48388208   -8.9836839    559.12932 0.0096388312  0.008020901            2 
 4835000   0.48485731    -8.978158    558.56957 0.0096271901 0.0080181524            2 
 4836000   0.47456469   -8.9865448    557.98219 0.0096150777 0.0080154033            3 
 4837000   0.47432506   -8.9817673    558.90812 0.0096290421 0.0080126573            4 
 4838000    0.4813896   -8.9870858    558.91515 0.0096271729   0.00800991            5 
 4839000   0.48758038    -8.995666    558.40514 0.0096164005 0.0080071667            2 
 4840000   0.47533872   -8.9976847     559.6368 0.0096356198 0.0080044222            2 
 4841000   0.47970635   -8.9905557    558.32206 0.0096109973  0.008001681            3 
 4842000   0.46725856   -8.9834966    558.98311 0.0096203895 0.0079989433            4 
 4843000   0.46836176   -9.0044644    559.85846 0.0096334652 0.0079962044            3 
 4844000   0.48233258   -8.9812486    559.65758 0.0096280206 0.0079934668            2 
 4845000    0.4774172   -8.9895198    558.69693 0.0096095104 0.0079907307            4 
 4846000   0.48086567   -8.9925257    558.99434 0.0096126418 0.0079879961            2 
 4847000    0.4759162   -8.9985202    557.99437 0.0095934662 0.0079852626            4 
 4848000   0.47185886   -9.0034874     558.3996  0.009598453 0.0079825279            2 
 4849000   0.48688767   -8.9999618    558.62646 0.0096003723 0.0079797942            2 
 4850000   0.47754684   -8.9999994    558.98772    0.0096046 0.0079770633            3 
 4851000   0.47900032    -8.992792    558.42059 0.0095928777 0.0079743337            3 
 4852000   0.48273046   -8.9973906    557.83287 0.0095808064 0.0079716035            2 
 4853000   0.47563366   -8.9753264    558.55681 0.0095912633 0.0079688745            3 
 4854000   0.47248035   -8.9976764    559.56382 0.0096065757 0.0079661475            3 
 4855000   0.48426426   -8.9763843    558.17695 0.0095807921 0.0079634218            4 
 4856000   0.48251747   -8.9981186    558.11621 0.0095777768  0.007960698            2 
 4857000   0.47393308   -8.9787087     558.5954 0.0095840265 0.0079579733            2 
 4858000   0.47114271   -8.9894075    558.60958 0.0095822969 0.0079552506            3 
 4859000   0.46028357   -9.0140444    557.84044 0.0095671339 0.0079525292            4 
 4860000   0.48636045   -8.9797947    558.53608 0.0095770933 0.0079498096            3 
 4861000   0.47870514   -9.0029767    557.80147 0.0095625295   0.00794709            2 
 4862000    0.4800585   -8.9989532     559.0564 0.0095820719 0.0079443728            2 
 4863000   0.46821795   -8.9888449    558.70348 0.0095740538 0.0079416568            1 
 4864000   0.47988723   -9.0000759    557.96001 0.0095593478 0.0079389426            3 
 4865000   0.47756068   -8.9916915    558.95811 0.0095744795 0.0079362317            4 
 4866000   0.46239341    -9.000023    558.24986 0.0095603826 0.0079335186            5 
 4867000   0.46568094   -8.9903996    559.40157  0.009578138  0.007930808            2 
 4868000   0.47319792   -8.9939284    558.78318 0.0095655844 0.0079280981            5 
 4869000   0.47749619   -9.0209553    559.17363 0.0095703024 0.0079253911            3 
 4870000   0.46859428   -8.9946732    558.25202 0.0095525671 0.0079226857            2 
 4871000   0.47809055   -8.9976862    558.15402 0.0095489294 0.0079199796            2 
 4872000   0.47096113    -9.000922    558.27427 0.0095490263  0.007917275            2 
 4873000   0.47424715   -8.9942557    558.54253 0.0095516542 0.0079145699            3 
 4874000   0.46378129   -8.9957903    558.87246 0.0095553354 0.0079118665            5 
 4875000   0.46914464   -8.9915951     558.0269 0.0095389214 0.0079091641            4 
 4876000   0.46852748   -9.0062319    558.61931 0.0095470896 0.0079064639            3 
 4877000   0.47167312   -8.9953231    558.77596 0.0095478087 0.0079037662            3 
 4878000   0.47542458   -8.9985179    558.83202 0.0095468091 0.0079010708            2 
 4879000   0.45678449    -9.010397    558.31759 0.0095360659 0.0078983741            4 
 4880000   0.47115009   -9.0035659    558.26411 0.0095331986 0.0078956762            3 
 4881000   0.47185995   -8.9994879    558.47289 0.0095348101  0.007892981            2 
 4882000   0.46556996   -9.0015531    559.42643 0.0095491334 0.0078902901            2 
 4883000   0.46225846   -8.9996665    559.26214 0.0095443741 0.0078875995            2 
 4884000   0.45722539   -8.9982981    558.35408  0.009526926  0.007884909            1 
 4885000   0.46068633   -8.9901283    558.94297 0.0095350217 0.0078822223            2 
 4886000   0.47496222   -9.0034063    558.61502 0.0095274769 0.0078795361            2 
 4887000   0.47408575    -9.003201    557.77281 0.0095111659 0.0078768482            5 
 4888000    0.4679761   -9.0060264    557.91419 0.0095116303 0.0078741633            2 
 4889000   0.47262074   -9.0057876    558.82114 0.0095251438   0.00787148            3 
 4890000   0.47932248   -8.9937497    558.02343 0.0095096017 0.0078687964            3 
 4891000    0.4679474   -8.9907993    558.97667 0.0095238988 0.0078661138            5 
 4892000   0.46189462   -9.0106325    559.06591 0.0095234722 0.0078634316            3 
 4893000   0.46324044   -9.0096864    558.15855 0.0095060725 0.0078607505            2 
 4894000   0.47365957    -8.992452    559.09127 0.0095200122 0.0078580727            4 
 4895000   0.45665118    -8.993713    557.12721 0.0094846307 0.0078553945            4 
 4896000   0.46806644    -9.007136    558.42228 0.0095047365 0.0078527167            2 
 4897000   0.47931692   -9.0056454    557.76315  0.009491579 0.0078500413            4 
 4898000   0.46966674   -9.0075268    559.56626 0.0095203188 0.0078473689            1 
 4899000   0.47149529   -9.0139429    558.23067 0.0094956568 0.0078446979            4 
 4900000   0.47205544   -9.0123536      557.445 0.0094803571 0.0078420257            2 
 4901000   0.47637755   -8.9907137    558.42114 0.0094950204 0.0078393567            3 
 4902000   0.46388818   -8.9871351    558.27729 0.0094906381 0.0078366873            2 
 4903000   0.46426566   -9.0129739    558.40507 0.0094908741 0.0078340186            3 
 4904000   0.46696359   -9.0036183    558.31894 0.0094874752 0.0078313541            3 
 4905000   0.46826715   -8.9975139    558.05616 0.0094810764 0.0078286889            1 
 4906000   0.45631459   -8.9963256    558.35317 0.0094841889 0.0078260266            2 
 4907000   0.46914572   -8.9921587    557.30469 0.0094644503 0.0078233647            5 
 4908000   0.46566982   -9.0031127    557.96074  0.009473661 0.0078207026            4 
 4909000   0.46186372   -8.9922125    558.33685 0.0094781159 0.0078180436            4 
 4910000   0.47371556   -9.0003954    559.01567 0.0094877066 0.0078153826            3 
 4911000   0.47024248   -9.0108865    557.60919 0.0094619084 0.0078127237            1 
 4912000   0.46232676   -8.9865122    558.42206 0.0094737728 0.0078100673            3 
 4913000   0.46179764   -9.0125285    558.58128 0.0094745451 0.0078074094            3 
 4914000   0.46158408   -9.0093901    557.88806 0.0094608612  0.007804753            2 
 4915000   0.46590428   -8.9973521     558.5917 0.0094708663 0.0078020985            2 
 4916000   0.47165097    -9.012005    557.81647 0.0094557985 0.0077994464            4 
 4917000   0.47855293   -9.0278303    557.95747 0.0094562652 0.0077967947            4 
 4918000   0.47085048    -8.983068    557.80572  0.009451771 0.0077941443            3 
 4919000   0.45969516   -8.9974025    558.45154 0.0094607905 0.0077914951            2 
 4920000   0.45712723    -9.020106    558.52979  0.009460193  0.007788846            2 
 4921000   0.46429695   -9.0096743    558.27753 0.0094539987 0.0077861978            3 
 4922000   0.46282958   -8.9999893    558.13183  0.009449611 0.0077835513            2 
 4923000   0.46552124   -8.9986459    557.82735 0.0094425375 0.0077809072            5 
 4924000   0.46700608   -9.0017863    558.10456 0.0094453114 0.0077782644            3 
 4925000   0.45861037   -9.0068573    558.79791 0.0094551253 0.0077756239            3 
 4926000   0.46584343   -9.0090783    558.31846  0.009445095 0.0077729833            3 
 4927000   0.47846486   -9.0009647    558.23357 0.0094417422 0.0077703457            2 
 4928000   0.46822306    -9.015762    558.69861 0.0094476902 0.0077677085            3 
 4929000   0.46130659   -9.0118107    558.71858 0.0094461111 0.0077650734            3 
 4930000   0.46139886   -9.0097398     558.3364  0.009437735 0.0077624387            3 
 4931000   0.46468526   -9.0110831    558.13937 0.0094324912 0.0077598034            4 
 4932000    0.4606068   -9.0113464    559.38072 0.0094515532 0.0077571692            2 
 4933000   0.46613237   -8.9944063    557.22558 0.0094132303 0.0077545361            3 
 4934000   0.45600103   -9.0064308    558.81697 0.0094382004 0.0077519043            2 
 4935000   0.46138355   -9.0100373    557.81013 0.0094192862 0.0077492742            3 
 4936000   0.46284057   -9.0300556    557.90695 0.0094190125 0.0077466435            3 
 4937000   0.45740492   -9.0095944    557.60636  0.009412031 0.0077440151            3 
 4938000     0.457504    -9.023146     557.6139 0.0094102521 0.0077413899            2 
 4939000   0.46851318   -9.0151982     558.0502 0.0094157083 0.0077387645            1 
 4940000   0.46209814   -9.0167296    557.17318 0.0093990078 0.0077361385            3 
 4941000   0.45464911   -9.0028779    558.04262 0.0094117692 0.0077335161            6 
 4942000   0.46562531   -9.0176164    557.68629 0.0094038563 0.0077308949            2 
 4943000   0.46838476   -9.0139723    557.79115 0.0094037215 0.0077282735            2 
 4944000   0.46553628   -9.0108425    557.68484 0.0094000276 0.0077256528            3 
 4945000   0.45857752   -9.0060359    558.99813 0.0094202584 0.0077230329            3 
 4946000   0.45939185    -9.005566    557.69526 0.0093964022 0.0077204151            2 
 4947000   0.46116921   -9.0307913     558.1731  0.009402552 0.0077177986            1 
 4948000   0.46474173   -9.0078504    558.65019 0.0094086869 0.0077151832            4 
 4949000   0.46679904   -9.0101193     556.9227 0.0093776975  0.007712568            4 
 4950000    0.4543855    -9.010922    557.69296 0.0093887704 0.0077099536            1 
 4951000   0.45324572    -9.011552    558.22456 0.0093958217 0.0077073412            3 
 4952000   0.45462086   -9.0124186    558.26411 0.0093945899 0.0077047305            3 
 4953000   0.45821103   -9.0175095    558.90364 0.0094034531 0.0077021199            3 
 4954000   0.46721884   -9.0184882    557.69523 0.0093812279 0.0076995108            3 
 4955000   0.46586752   -9.0334729    558.78338 0.0093976351 0.0076969015            2 
 4956000   0.46341256   -9.0123317    557.79352 0.0093790946 0.0076942975            2 
 4957000   0.46413284    -9.015391    556.94256 0.0093628969 0.0076916916            2 
 4958000   0.44575416   -9.0128216    557.55442 0.0093712926 0.0076890889            3 
 4959000   0.45652039     -9.02141     557.9471 0.0093760015 0.0076864877            3 
 4960000   0.45135803   -9.0228911    558.45497 0.0093826441 0.0076838863            3 
 4961000   0.45749843   -9.0063152    557.88464 0.0093711725 0.0076812851            3 
 4962000   0.44936112   -9.0144873    558.34433 0.0093770041 0.0076786849            3 
 4963000   0.46789257   -9.0268219    558.00593 0.0093694326 0.0076760864            2 
 4964000   0.45711866   -9.0183169    557.85788 0.0093650597 0.0076734903            2 
 4965000   0.44729235   -9.0130386    557.99908 0.0093655435 0.0076708962            3 
 4966000   0.45891113   -9.0174089    557.61171 0.0093571571 0.0076683016            2 
 4967000   0.44745679   -9.0005337     557.8923 0.0093599809 0.0076657066            2 
 4968000   0.45617435   -9.0309792    558.15722 0.0093625406 0.0076631165            2 
 4969000   0.44538496   -9.0180841    557.92194 0.0093567106 0.0076605258            3 
 4970000    0.4681123   -9.0214024    557.69321 0.0093509929 0.0076579378            2 
 4971000   0.45693546   -9.0176789     557.5976 0.0093475089 0.0076553491            4 
 4972000   0.45760815   -9.0322835    558.48986 0.0093605835 0.0076527637            2 
 4973000   0.45622135   -9.0076382    557.76477 0.0093465508 0.0076501767            3 
 4974000   0.44966042   -9.0309672    557.73374 0.0093441519 0.0076475917            3 
 4975000   0.44962675   -9.0077829    557.73544 0.0093423022 0.0076450075            2 
 4976000   0.46068024   -9.0258842    558.41808 0.0093518569  0.007642425            4 
 4977000   0.45846321   -9.0214888    557.66418 0.0093373548  0.007639842            1 
 4978000    0.4532473   -9.0316083    558.71086 0.0093530009 0.0076372601            2 
 4979000   0.45619319   -9.0240597    557.08172 0.0093238555 0.0076346781            2 
 4980000   0.45613449   -9.0202376    558.32037 0.0093427104 0.0076320985            1 
 4981000    0.4615807   -9.0163011    558.43754  0.009342795 0.0076295213            3 
 4982000   0.45255832   -9.0204663    557.30201 0.0093219257 0.0076269445            2 
 4983000    0.4540757   -9.0211187    558.09034 0.0093332387 0.0076243673            2 
 4984000   0.46504838   -9.0303109    557.46965 0.0093209879 0.0076217914            2 
 4985000   0.45891564   -9.0228611    557.68812 0.0093227703 0.0076192181            2 
 4986000   0.46485184    -9.014702     557.5369 0.0093183731 0.0076166453            2 
 4987000   0.46280824   -9.0269428    558.34969 0.0093300864  0.007614074            2 
 4988000   0.45694815   -9.0218651    558.07592 0.0093236421 0.0076115054            2 
 4989000   0.46143605   -9.0191743    557.74485 0.0093162432 0.0076089364            4 
 4990000   0.45178954     -9.02379    557.13158 0.0093041346 0.0076063666            1 
 4991000   0.45517933   -9.0240626    557.81592 0.0093136966 0.0076038009            3 
 4992000   0.45474783   -9.0108917    557.58456 0.0093079687 0.0076012357            2 
 4993000   0.46594911   -9.0261009    557.87722 0.0093109891 0.0075986725            1 
 4994000   0.45629894   -9.0227692    557.12968 0.0092966506 0.0075961082            2 
 4995000   0.44395528   -9.0105404    557.44921 0.0093001204 0.0075935447            2 
 4996000   0.44646358    -9.030107    557.61003 0.0093009413 0.0075909817            2 
 4997000   0.45559774   -9.0129363    557.12556 0.0092910005 0.0075884186            2 
 4998000   0.44612648   -9.0258504    557.20669 0.0092904944 0.0075858588            2 
 4999000   0.45609533   -9.0248173     557.0796 0.0092865173 0.0075832999            2 
 5000000   0.44770532   -9.0180401    557.69393 0.0092948988 0.0075807417            3 
 5001000   0.46202226   -9.0153559     557.1057 0.0092832383 0.0075781859            3 
 5002000   0.46244093   -9.0230001    558.33545   0.00930187 0.0075756315            4 
 5003000    0.4491559   -9.0320924    557.65535 0.0092886826 0.0075730778            2 
 5004000   0.44678863   -9.0371477    557.93816  0.009291536 0.0075705254            2 
 5005000   0.44979365    -9.026848    557.47984 0.0092820486 0.0075679743            3 
 5006000   0.44597227   -9.0286593    557.52091  0.009280878 0.0075654251            2 
 5007000    0.4465674   -9.0319607    557.72963 0.0092824984 0.0075628752            4 
 5008000   0.45489971    -9.027624    558.52646 0.0092939042 0.0075603278            3 
 5009000   0.45436292   -9.0406738    557.30665 0.0092717549  0.007557781            4 
 5010000   0.45239689   -9.0336136    558.10025 0.0092831046 0.0075552358            3 
 5011000    0.4484376   -9.0349045    557.51114 0.0092714551  0.007552691            3 
 5012000   0.44649948   -9.0356879    557.41413 0.0092679923 0.0075501463            2 
Loop time of 12427.9 on 48 procs for 5000000 steps with 4000 atoms

Performance: 69521.043 tau/day, 402.321 timesteps/s
99.4% CPU use with 48 MPI tasks x no OpenMP threads

MPI task timing breakdown:
Section |  min time  |  avg time  |  max time  |%varavg| %total
---------------------------------------------------------------
Pair    | 801.98     | 902.96     | 971.49     | 123.2 |  7.27
Neigh   | 81.252     | 85.092     | 88.788     |  21.0 |  0.68
Comm    | 777.71     | 855.1      | 964.82     | 137.8 |  6.88
Output  | 13.926     | 13.932     | 14.027     |   0.4 |  0.11
Modify  | 10441      | 10457      | 10479      |   8.9 | 84.14
Other   |            | 114.2      |            |       |  0.92

Nlocal:        83.3333 ave          90 max          77 min
Histogram: 2 4 5 8 5 5 12 3 2 2
Nghost:        2198.81 ave        2217 max        2176 min
Histogram: 2 0 2 7 6 11 9 5 3 3
Neighs:        14621.1 ave       16156 max       13305 min
Histogram: 2 7 6 6 6 9 4 2 4 2
FullNghs:      29241.6 ave       31720 max       27044 min
Histogram: 4 3 7 3 10 7 5 5 2 2

Total # of neighbors = 1403596
Ave neighs/atom = 350.89900
Neighbor list builds = 266938
Dangerous builds = 0

#clear
#
#next RN
#
#jump SELF
Total wall time: 3:27:11
