
units lj                  # Use reduced LJ style units
atom_style atomic         # Uncharged point particles
atom_modify map hash      # Needed for indexing of clusters etc
                          # Used to be able to find where atoms are in relation to each other.

lattice fcc 1.0 spacing 1 1 1
Lattice spacing in x,y,z = 1.5874011 1.5874011 1.5874011
region box block 0 10 0 10 0 10 units lattice
create_box 2 box
Created orthogonal box = (0.0000000 0.0000000 0.0000000) to (15.874011 15.874011 15.874011)
  3 by 4 by 4 MPI processor grid
create_atoms 1 box
Created 4000 atoms
  using lattice units in orthogonal box = (0.0000000 0.0000000 0.0000000) to (15.874011 15.874011 15.874011)
  create_atoms CPU = 0.002 seconds
set type 1 type/fraction 2 0.78 78393
Setting atom values ...
  3107 settings made for type/fraction
mass 1 1.0
mass 2 1.0
pair_style lj/cut  3.5
pair_modify tail  yes
pair_coeff 1  1  1.0  1.0   # Intearaction between 1 and 1 set with epsilon = 1 and sigma = 1
pair_coeff 1  2  1.5  0.8
pair_coeff 2  2  0.5  0.88

write_data data.0
System init for write_data ...
Neighbor list info ...
  update every 1 steps, delay 10 steps, check yes
  max neighbors/atom: 2000, page size: 100000
  master list distance cutoff = 3.8
  ghost atom cutoff = 3.8
  binsize = 1.9, bins = 9 9 9
  1 neighbor lists, perpetual/occasional/extra = 1 0 0
  (1) pair lj/cut, perpetual
      attributes: half, newton on
      pair build: half/bin/atomonly/newton
      stencil: half/bin/3d
      bin: standard
WARNING: Not all mixed pair coeffs generated from mixing. Use write_data with 'pair ij' option to store all pair coeffs. (../write_data.cpp:312)


#############################
#   M E L T   S Y S T E M   #
#############################

velocity all create 2.4 9580093 mom yes dist gaussian # Assign velocities
                                                    # Temperature 2.4, random number seed, zero linear momentum
                                                                                # Gaussian distribution

timestep 0.002   # simulation timestep
thermo 1000       # output thermodynamic data every 1000 steps bf 100

# Define a fix  in this case with index 1 applied to all
# particles in the simulation. This fix is for simulations
# in the anisotropic NPT ensemble. Note that we use the MTK
# correction.
fix 1 all npt temp 2.4 2.4 0.1 iso 5.68 5.68 0.5 mtk yes tchain 5 pchain 5 # Use NPT ensemble
                                                                         # Set temperature and pressure and damping
                                                                         # Numbers of thermostats in chain and in barostat
run 10000          # run for 10000 steps
Per MPI rank memory allocation (min/avg/max) = 3.642 | 3.644 | 3.648 Mbytes
Step Temp E_pair E_mol TotEng Press Volume 
       0          2.4   -3.8018078            0  -0.20270782   -3.3841895         4000 
    1000    2.3898082   -3.2815949            0   0.30222122    5.6449467    3711.7722 
    2000     2.410714   -3.2027387            0   0.41242837    5.8518943    3751.4046 
    3000    2.3823672   -3.2029182            0   0.36973922    5.7328342     3765.345 
    4000    2.4426003   -3.1560454            0   0.50693901    5.6380967     3816.127 
    5000    2.4339717   -3.2391543            0    0.4108905    5.4139906    3772.1548 
    6000    2.3968454   -3.2620998            0   0.33226949    5.4404294    3770.9421 
    7000    2.3211943    -3.220955            0   0.25996598    5.5262344    3775.6707 
    8000    2.4128366   -3.1732564            0   0.44509368    5.7580608    3781.4261 
    9000    2.4107702   -3.1851862            0   0.43006511    6.2578329    3714.9215 
   10000    2.4115195   -3.1796417            0   0.43673318    5.9283715    3747.7593 
Loop time of 2.62063 on 48 procs for 10000 steps with 4000 atoms

Performance: 659383.259 tau/day, 3815.875 timesteps/s
99.6% CPU use with 48 MPI tasks x no OpenMP threads

MPI task timing breakdown:
Section |  min time  |  avg time  |  max time  |%varavg| %total
---------------------------------------------------------------
Pair    | 1.1637     | 1.2338     | 1.4183     |   3.7 | 47.08
Neigh   | 0.21174    | 0.22181    | 0.25471    |   1.4 |  8.46
Comm    | 0.68672    | 0.89653    | 0.97531    |   5.5 | 34.21
Output  | 0.00027063 | 0.00027636 | 0.00033936 |   0.0 |  0.01
Modify  | 0.2067     | 0.25279    | 0.30947    |   6.0 |  9.65
Other   |            | 0.01542    |            |       |  0.59

Nlocal:        83.3333 ave          94 max          75 min
Histogram: 2 3 11 5 12 4 4 3 2 2
Nghost:        1718.00 ave        1747 max        1684 min
Histogram: 3 3 3 7 7 2 10 2 8 3
Neighs:        10187.8 ave       11589 max        9205 min
Histogram: 6 6 5 9 7 3 5 2 2 3

Total # of neighbors = 489013
Ave neighs/atom = 122.25325
Neighbor list builds = 907
Dangerous builds = 220

# Equilibrate just above the melting temperature to avoid step fn in T

fix 1 all npt temp 1.25 1.25 0.1 iso 5.68 5.68 0.5 mtk yes tchain 5 pchain 5
run 2000
Per MPI rank memory allocation (min/avg/max) = 3.644 | 3.646 | 3.649 Mbytes
Step Temp E_pair E_mol TotEng Press Volume 
   10000    2.4115195   -3.1796417            0   0.43673318    5.9283715    3747.7593 
   11000     1.248519   -4.7833138            0   -2.9110035    5.6825213     2871.506 
   12000    1.2533901   -4.8157593            0   -2.9361441    5.7440119     2859.155 
Loop time of 0.653093 on 48 procs for 2000 steps with 4000 atoms

Performance: 529174.285 tau/day, 3062.351 timesteps/s
99.7% CPU use with 48 MPI tasks x no OpenMP threads

MPI task timing breakdown:
Section |  min time  |  avg time  |  max time  |%varavg| %total
---------------------------------------------------------------
Pair    | 0.28782    | 0.31614    | 0.3607     |   2.5 | 48.41
Neigh   | 0.040471   | 0.043486   | 0.048792   |   0.8 |  6.66
Comm    | 0.19737    | 0.24299    | 0.27299    |   3.1 | 37.21
Output  | 5.2852e-05 | 5.4651e-05 | 6.8919e-05 |   0.0 |  0.01
Modify  | 0.041442   | 0.045556   | 0.047886   |   0.9 |  6.98
Other   |            | 0.004863   |            |       |  0.74

Nlocal:        83.3333 ave          91 max          76 min
Histogram: 2 1 5 6 13 6 7 0 7 1
Nghost:        2068.42 ave        2091 max        2049 min
Histogram: 1 2 7 9 9 8 6 2 2 2
Neighs:        13362.2 ave       14999 max       11822 min
Histogram: 3 2 1 10 9 10 7 1 3 2

Total # of neighbors = 641384
Ave neighs/atom = 160.34600
Neighbor list builds = 144
Dangerous builds = 16

#############################
# L I N E A R  Q U E N C H  #
#############################

# Define solid atoms. This closely follows ten Wolde  Ruiz-Montero and Frenkel  Faraday Discuss  1996  104  93-110
# Compute components of the per-atom q6 vector
compute q6 all orientorder/atom degrees 1 6 components 6 nnn NULL cutoff 1.3 # compute the Q6 parameter.
                                                                             # Use all neighbours within 1.3 unit cell.

# get number of connections
compute coord_number all coord/atom orientorder q6 0.5

# An atom is solid if it has 8 or more connections (of a possible 14)
variable is_solid atom c_coord_number>=8
group solid dynamic all var is_solid    # Must be dynamic to update
dynamic group solid defined

# do clustering
compute cluster solid cluster/atom 1.3 # Create a cluster where all atoms within are solid and max 1.3 units from another member

# define chunks one chunk per cluster
compute clus_chunks solid chunk/atom c_cluster nchunk every compress yes  # Says which atoms are in which chunk

# count the size of each chunk
compute size_chunks solid property/chunk clus_chunks count


# Find the maximum entry in the vector of chunk sizes
variable max_n equal max(c_size_chunks)


# Thermo style which includes this variable
# thermo_style custom step temp pe vol v_max_n

thermo ${N}  # Print the thermo information every 100 steps
thermo 1000  

# Reset the npt fix at a lower temperature (below freezing)
fix 1  all npt temp  ${temp} ${temp}  0.1  iso  5.68  5.68  0.5  mtk yes tchain  5  pchain  5
fix 1  all npt temp  0.45 ${temp}  0.1  iso  5.68  5.68  0.5  mtk yes tchain  5  pchain  5
fix 1  all npt temp  0.45 0.45  0.1  iso  5.68  5.68  0.5  mtk yes tchain  5  pchain  5

dump dmp2 all dcd ${N} traj.dcd
dump dmp2 all dcd 1000 traj.dcd


compute msd all msd com yes
variable twopoint equal c_msd[4]/6/(step*dt+1.0e-6)
fix 9 all vector 10 c_msd[4]
variable fit equal slope(f_9)/6/(10*dt)
thermo_style custom step temp pe c_msd[4] v_twopoint v_fit v_max_n

fix 1 all npt temp 1.25 ${temp} 0.1 iso 5.68 5.68 0.5 mtk yes tchain 5 pchain 5
fix 1 all npt temp 1.25 0.45 0.1 iso 5.68 5.68 0.5 mtk yes tchain 5 pchain 5
run 2000000 # 5000000  # Run for this many steps
Neighbor list info ...
  update every 1 steps, delay 10 steps, check yes
  max neighbors/atom: 2000, page size: 100000
  master list distance cutoff = 3.8
  ghost atom cutoff = 3.8
  binsize = 1.9, bins = 8 8 8
  4 neighbor lists, perpetual/occasional/extra = 1 3 0
  (1) pair lj/cut, perpetual
      attributes: half, newton on
      pair build: half/bin/atomonly/newton
      stencil: half/bin/3d
      bin: standard
  (2) compute orientorder/atom, occasional
      attributes: full, newton on
      pair build: full/bin/atomonly
      stencil: full/bin/3d
      bin: standard
  (3) compute coord/atom, occasional
      attributes: full, newton on
      pair build: full/bin/atomonly
      stencil: full/bin/3d
      bin: standard
  (4) compute cluster/atom, occasional
      attributes: full, newton on
      pair build: full/bin/atomonly
      stencil: full/bin/3d
      bin: standard
Per MPI rank memory allocation (min/avg/max) = 9.841 | 9.845 | 9.848 Mbytes
Step Temp PotEng c_msd[4] v_twopoint v_fit v_max_n 
   12000    1.2533901   -4.8157593            0            0 8.3333333e+20            4 
   13000    1.2508943   -4.7691608    0.7374039 0.0047269479  0.061317272            2 
   14000     1.268583   -4.7878684     1.483741 0.0088317911  0.061941052            2 
   15000    1.2662638   -4.7704104    2.1625715  0.012014285  0.060714019            2 
   16000     1.246159   -4.8124778    2.9789483  0.015515355  0.060891021            5 
   17000    1.2838158    -4.812022     3.799509  0.018625043   0.06255142            2 
   18000    1.2717687   -4.7831949    4.5285015  0.020965284  0.063377536            4 
   19000    1.2415313   -4.7818852    5.3026533  0.023257251  0.063538365            3 
   20000    1.2389946   -4.7974607    6.1666289  0.025694286  0.063956032            1 
   21000      1.23759   -4.7976903    6.9866539  0.027724816  0.064643533            1 
   22000    1.2280243   -4.7658362    7.8402991  0.029698102  0.065154727            3 
   23000    1.2334245   -4.7833894    8.4670882  0.030677855  0.065267164            2 
   24000    1.2492659   -4.7458768     9.272281  0.032195419  0.065336448            2 
   25000    1.2245048   -4.7955572     10.02414  0.033413799  0.065250554            2 
   26000    1.2232877   -4.7881475    10.709829  0.034326374  0.065033222            2 
   27000    1.2285548   -4.8413811    11.338014  0.034993869  0.064595016            3 
   28000    1.2655359   -4.7549832     12.18144  0.036254285   0.06428551            2 
   29000    1.2646284   -4.7579969    12.881655   0.03701625  0.063972873            5 
   30000      1.25034   -4.7711173    13.556499  0.037656941  0.063720782            1 
   31000    1.2408453   -4.8029477    14.299411  0.038439276   0.06344836            5 
   32000    1.2584772   -4.8033035    14.931533  0.038884201  0.063166289            2 
   33000     1.271133   -4.7787358    15.691063  0.039623897  0.062902534            3 
   34000    1.2378119   -4.7830335    16.328448  0.040020705  0.062641845            1 
   35000    1.2613668   -4.7864082    17.199769   0.04095183  0.062458797            2 
   36000    1.2389784   -4.8197165    17.874285  0.041375658  0.062271321            3 
   37000    1.2412372   -4.7964789     18.66929   0.04204795  0.062203859            5 
   38000    1.2491977   -4.8353102     19.51777  0.042802126  0.062238919            2 
   39000    1.2636194   -4.7815168    20.274904  0.043322444  0.062235172            3 
   40000    1.2303057   -4.7946749    21.144774  0.044051611  0.062262403            6 
   41000    1.2331331    -4.795773    21.898142  0.044508418  0.062306582            2 
   42000    1.2318377   -4.8054808      22.7362  0.045111507  0.062369279            2 
   43000     1.226554   -4.7957924    23.391554  0.045332468  0.062420651            8 
   44000    1.2366633   -4.7948438    24.312663  0.046046709  0.062508792            2 
   45000    1.2407619   -4.8167046      25.0673  0.046420925  0.062603807            4 
   46000    1.2354753   -4.7893765    25.923582   0.04696301  0.062699154            2 
   47000    1.2303837   -4.7515313     26.65066  0.047252942  0.062806992            4 
   48000    1.2422385   -4.8115647    27.340649  0.047466404  0.062855752            2 
   49000    1.2424478   -4.7994072    27.918011   0.04747961  0.062850103            2 
   50000    1.2533977   -4.8008646    28.756729  0.047927881  0.062859252            1 
   51000    1.2298656   -4.8025006     29.49157   0.04818884  0.062875997            2 
   52000    1.2098473   -4.8365155    30.264895  0.048501434  0.062916265            2 
   53000     1.219479   -4.7856406    31.050696  0.048821849  0.062922329            2 
   54000     1.231387   -4.7971129    31.802364  0.049077722  0.062913932            2 
   55000    1.2270961   -4.8150305    32.455151  0.049174471   0.06291208            3 
   56000    1.2558956   -4.8197899    33.035317  0.049159698   0.06288996            6 
   57000    1.2557912   -4.7503008     33.98651   0.04968788  0.062870423            3 
   58000    1.2426841   -4.8250582    34.423447  0.049458975  0.062809177            2 
   59000    1.2232417   -4.8264832    34.904735  0.049300472  0.062727876            2 
   60000    1.2195198   -4.8263561     35.78039  0.049694986  0.062647734            2 
   61000    1.2514562   -4.7569621    36.714374  0.050156248  0.062585964            1 
   62000    1.2353209   -4.7922215    37.510412   0.05041722  0.062559286            4 
   63000     1.214346    -4.857228    37.976395  0.050233327  0.062530265            2 
   64000    1.2083418   -4.8380106    38.482677  0.050107652  0.062444746            2 
   65000    1.2028196   -4.8558438    39.286138  0.050366843  0.062357617            2 
   66000    1.2152689   -4.7820581    40.315809  0.050903799  0.062288035            1 
   67000    1.2403994   -4.8103852     41.22243  0.051271679  0.062258506            1 
   68000    1.2355468   -4.8017639    41.690396  0.051091171  0.062224171            3 
   69000    1.2092846   -4.8147977     42.15041  0.050906292  0.062175823            1 
   70000    1.1895389   -4.7900593    43.183348  0.051408747  0.062128868            3 
   71000    1.2504536    -4.823147    43.699857  0.051290912  0.062069004            1 
   72000    1.2272337   -4.8275709    44.383355  0.051369623  0.062024501            2 
   73000    1.2150103   -4.8442931    45.167352  0.051560904  0.061959134            4 
   74000        1.216   -4.8393499    45.782908  0.051557329  0.061897373            2 
   75000    1.2309976   -4.8215985    46.658503   0.05184278  0.061838309            2 
   76000     1.234696   -4.7905366    47.478833  0.052060124  0.061783057            2 
   77000    1.2073941   -4.8451741    48.090563  0.052046063  0.061746316            2 
   78000    1.2178012   -4.8056444     49.03338   0.05238609  0.061717555            2 
   79000    1.2026705   -4.7965429    49.958007  0.052698319  0.061695631            3 
   80000    1.2352589   -4.8799844    50.233952  0.052327033  0.061669487            2 
   81000    1.2535669   -4.8171084    51.216814  0.052692196  0.061639167            3 
   82000    1.2243336   -4.8130122     51.59652  0.052435488  0.061590679            1 
   83000     1.217555   -4.8435412    52.165584  0.052375084   0.06151745            5 
   84000    1.2074619   -4.8104595    52.801884  0.052382821  0.061443388            2 
   85000    1.2277564   -4.8568966    53.352977   0.05230684  0.061376606            4 
   86000    1.2198508   -4.8553846    53.583725  0.051922214   0.06129837            3 
   87000    1.2078603   -4.8057268    54.649312  0.052346084  0.061205689            2 
   88000    1.2179671   -4.8449203    55.019908  0.052102186  0.061111721            5 
   89000    1.2458798   -4.8079449    56.038305  0.052470323  0.061029084            1 
   90000    1.2114916   -4.8289326    56.618781  0.052424797  0.060955773            1 
   91000    1.2132114   -4.8429034    56.994022  0.052192327  0.060879887            3 
   92000    1.2033845   -4.8726383    57.832647  0.052384643  0.060804424            1 
   93000     1.202444   -4.8343719    58.936657  0.052810625  0.060741907            3 
   94000    1.2201746   -4.8704375    59.308481  0.052578441  0.060686821            2 
   95000     1.224797   -4.8864149     60.00626   0.05263707   0.06063038            2 
   96000    1.2189556   -4.8306389     60.83469  0.052807891  0.060577073            3 
   97000    1.2524921   -4.8453892     61.60064  0.052921511  0.060534241            2 
   98000    1.2024345   -4.8655817    62.323976  0.052996578  0.060482366            4 
   99000    1.1930259   -4.8401436    63.339397   0.05331599   0.06044635            3 
  100000    1.2294759   -4.8712883    63.886445  0.053238704  0.060414422            2 
  101000    1.2246654    -4.840951    64.443173  0.053170935  0.060366063            1 
  102000    1.1896944   -4.8616925    65.219645  0.053284024  0.060313448            2 
  103000    1.2299663   -4.8208815    66.021653  0.053415577  0.060271714            2 
  104000    1.2324554   -4.8680921    66.557199  0.053331088   0.06023988            1 
  105000    1.2070244   -4.8393044    67.588038  0.053641299  0.060204731            2 
  106000    1.2120437   -4.8311162    68.226909  0.053637507  0.060168717            3 
  107000    1.1924064   -4.8633174    68.647281  0.053463614  0.060140103            4 
  108000    1.1931846   -4.7947576    69.228751  0.053417246  0.060100037            4 
  109000    1.1825786   -4.8414909    70.172986  0.053649072  0.060067351            2 
  110000    1.2242186   -4.8546774    71.039682   0.05381794  0.060042596            2 
  111000    1.2023979   -4.8402456     71.81646  0.053916261  0.060015504            5 
  112000     1.215484   -4.8660891    72.123415  0.053663255  0.059997901            1 
  113000    1.1820708    -4.872233    73.125728  0.053927528  0.059969613            4 
  114000    1.2218361   -4.8381761    73.917907  0.054033558  0.059945498            5 
  115000    1.1971571   -4.8541463    74.299758  0.053840404  0.059912127            3 
  116000    1.2142862   -4.8857777    74.598811    0.0535911  0.059876723            1 
  117000    1.1887274   -4.8653385    75.437246  0.053730232  0.059832579            2 
  118000    1.1905938   -4.8329244    76.073405  0.053724156  0.059789411            3 
  119000    1.2181821   -4.8395743    76.914876  0.053861958  0.059740139            3 
  120000    1.2134767    -4.841882    77.360253  0.053722398   0.05970132            3 
  121000    1.2207099   -4.8441131    78.083189  0.053776301  0.059668735            2 
  122000    1.2223932   -4.8542188    78.733578  0.053779766  0.059623394            1 
  123000    1.2096902   -4.8444126    79.340289  0.053753583  0.059581479            3 
  124000    1.1990992   -4.8557134    80.077061  0.053815229   0.05954947            1 
  125000    1.1776423   -4.8351688    80.543657  0.053695771  0.059502904            2 
  126000    1.2241901   -4.8506953     80.94677  0.053536223   0.05945073            2 
  127000    1.2374713   -4.8760114     81.55008  0.053510551  0.059390932            3 
  128000    1.1877891   -4.7954426    82.512911  0.053719343  0.059340272            2 
  129000    1.1885943   -4.8800151    82.593541  0.053355001  0.059279922            4 
  130000    1.1975841   -4.8655754    83.348103  0.053428271  0.059221323            5 
  131000    1.2109069   -4.8728173    84.255391  0.053597577   0.05916529            2 
  132000    1.2018259   -4.8452021    85.040407  0.053687126  0.059118948            2 
  133000    1.2137211   -4.8573638    86.345758  0.054101352  0.059081603            3 
  134000    1.2061937   -4.8462495    87.284825  0.054281607  0.059049786            3 
  135000    1.1956599   -4.8614264    87.839655  0.054222009  0.059023939            1 
  136000     1.219087   -4.8525655    88.950698  0.054504104  0.058996773            8 
  137000    1.2136426   -4.8890231    89.270721  0.054300925  0.058982565            2 
  138000    1.2089579   -4.8780219    89.921956  0.054300698  0.058964056            2 
  139000    1.2117441   -4.8381911    91.030802  0.054574821  0.058951796            2 
  140000     1.200339   -4.8572109     91.02935  0.054184136   0.05893425            3 
  141000    1.1896713   -4.8768395    91.863012   0.05429256  0.058913894            2 
  142000    1.2134572   -4.8672256    92.705732  0.054404772  0.058897184            4 
  143000    1.1997821   -4.8739209    93.445183  0.054455235  0.058881478            2 
  144000    1.2080199   -4.8553116    93.600799  0.054167129  0.058860001            4 
  145000    1.2053578   -4.8576574    95.136458  0.054676125  0.058843049            1 
  146000    1.1807808   -4.8831251    95.321887   0.05440747  0.058823755            2 
  147000    1.1847292   -4.8552476    95.662625  0.054230513  0.058802051            3 
  148000    1.2066344    -4.856474    96.885313  0.054552541  0.058783359            1 
  149000    1.1872603   -4.9107024    97.180045  0.054351255  0.058768948            2 
  150000    1.1971702   -4.8925502    97.538936  0.054188298  0.058745511            2 
  151000     1.207408   -4.8754749    98.273956  0.054235075  0.058717806            2 
  152000    1.1695807     -4.92352    99.029927  0.054292723  0.058692182            5 
  153000    1.1790271   -4.8995466    99.895845  0.054409501  0.058669589            4 
  154000     1.198566   -4.8523862    100.41153  0.054335245  0.058647879            2 
  155000    1.1649626   -4.8638747    101.00743  0.054305071  0.058618911            2 
  156000      1.19762   -4.8901527    100.65482  0.053768598  0.058587056            2 
  157000    1.2088388   -4.8850219    101.57863  0.053916472  0.058548522            2 
  158000    1.1759097   -4.8569117    102.70603  0.054169846  0.058511251            2 
  159000    1.1796957   -4.8876985    103.37763  0.054181147   0.05848225            3 
  160000    1.2075347   -4.9282219    104.28383  0.054314494  0.058456807            1 
  161000    1.1501111    -4.889095    104.92829  0.054310708  0.058428409            3 
  162000    1.1775109   -4.9124851    105.80381  0.054425826  0.058406077            4 
  163000    1.1660963   -4.8955782    105.87818  0.054129948  0.058386649            3 
  164000    1.1803856   -4.9122117    107.05884  0.054399817  0.058363601            3 
  165000    1.1790706   -4.8900071    107.72285  0.054405478   0.05834548            4 
  166000    1.1945247   -4.8476394    108.58466   0.05451037   0.05832893            2 
  167000    1.1842458    -4.870652     109.4189  0.054600251   0.05830921            2 
  168000    1.1778761   -4.8797154     109.7357  0.054432391  0.058291003            2 
  169000    1.2195908    -4.913055    110.20895  0.054343665  0.058270357            3 
  170000    1.1727638   -4.8857581    111.17107  0.054495623  0.058249258            5 
  171000    1.1758075   -4.9186521    111.34043  0.054259468  0.058225384            2 
  172000    1.1528331   -4.9052365    112.60404   0.05455622  0.058199442            2 
  173000    1.1950065   -4.8823398    113.34678  0.054598641   0.05818202            1 
  174000      1.18774   -4.9321424    114.00924  0.054602124  0.058167577            3 
  175000      1.18027   -4.9174335     114.9924  0.054758287  0.058152262            3 
  176000    1.1928561   -4.8707641    115.77567  0.054818025  0.058137781            1 
  177000    1.1703353   -4.8982919    116.02888  0.054627533  0.058121347            1 
  178000    1.1861294   -4.8932143     116.7361   0.05465173  0.058103226            1 
  179000    1.1860803   -4.9082383    117.16406  0.054545652  0.058083641            3 
  180000    1.1664055   -4.9283482    118.08987  0.054671236  0.058066642            2 
  181000    1.1716596   -4.9263417    118.53105  0.054572307  0.058051849            2 
  182000    1.1600874   -4.9184236    118.75525  0.054375116  0.058032965            2 
  183000    1.1725055   -4.9154356    119.71296  0.054514099  0.058012387            3 
  184000    1.1979558   -4.8905981    120.56694  0.054604591  0.057991051            2 
  185000    1.1794102   -4.8976885    120.87712  0.054449154  0.057969108            2 
  186000    1.1688718   -4.8814324    122.06547  0.054688831  0.057946016            2 
  187000    1.1790499    -4.928505    122.17345  0.054444497  0.057925803            1 
  188000    1.2052522   -4.8932746    123.09022   0.05456127  0.057901664            2 
  189000    1.1797269   -4.8781394    123.23692  0.054337265  0.057875191            2 
  190000    1.1880418   -4.8847085    124.15396  0.054453492  0.057849055            4 
  191000    1.1633889   -4.9276232    123.99604  0.054099494  0.057820388            2 
  192000    1.1837185    -4.888933    125.12392  0.054307256  0.057792958            1 
  193000     1.173437   -4.8816979    125.80634  0.054320525  0.057763014            2 
  194000    1.1788735   -4.9261256    125.72508  0.054005619  0.057732677            3 
  195000    1.1823318   -4.9015266     126.4999  0.054059785  0.057696974            2 
  196000    1.1945749   -4.8928408    127.35319  0.054146764  0.057667388            3 
  197000     1.175454    -4.935223    127.78282  0.054053648  0.057636278            2 
  198000     1.201993   -4.9130074    128.93556  0.054265807  0.057608668            1 
  199000    1.1595916   -4.9100873    129.17372  0.054092849  0.057579005            1 
  200000    1.1725078   -4.8973854    130.03257  0.054180238  0.057551411            2 
  201000    1.1693974   -4.9756388    130.07723    0.0539292  0.057519495            3 
  202000    1.1825508   -4.8905412    131.02269  0.054052266  0.057489729            2 
  203000    1.1638277   -4.9526022    131.40203  0.053941718  0.057459868            5 
  204000    1.1781382   -4.9460093    132.70809  0.054210821  0.057433169            3 
  205000    1.1614641    -4.891214    133.30659  0.054189671  0.057408551            3 
  206000    1.1750581   -4.9039927    133.92061  0.054175006   0.05738171            2 
  207000    1.1773521   -4.9340828    134.80591   0.05426969  0.057355925            2 
  208000    1.1901948   -4.9140407    135.06448  0.054112372  0.057330346            1 
  209000    1.1621666   -4.9430378    135.83546  0.054160868    0.0573045            4 
  210000    1.1755765   -4.9285935    136.93966  0.054341136   0.05728047            2 
  211000    1.1711256   -4.9284541    136.91841  0.054075203  0.057257818            2 
  212000    1.1800113   -4.9464745    137.97044  0.054233663  0.057233906            3 
  213000    1.1760545   -4.9355163    138.77579  0.054294127  0.057212277            3 
  214000    1.1612793   -4.9341907    138.92465  0.054098385   0.05719122            5 
  215000    1.1784234   -4.9575403    139.93971  0.054240199  0.057167548            3 
  216000    1.1610301   -4.9290254    139.78995  0.053931307   0.05714306            4 
  217000    1.1970035   -4.8767838    141.43821   0.05431575  0.057116936            2 
  218000    1.1617455   -4.9162711    141.86243  0.054228758  0.057090502            3 
  219000    1.1466376   -4.9131143    142.17623  0.054100544  0.057067356            4 
  220000    1.1424004   -4.9418826    143.36409   0.05430458  0.057042646            2 
  221000    1.1684069   -4.9175974    143.91851  0.054267914  0.057022212            2 
  222000    1.1525913    -4.901961    145.12117  0.054474914  0.057004928            3 
  223000    1.1640312   -4.9707102    144.64246  0.054051739  0.056985461            3 
  224000    1.1285504   -4.9641233    145.59197   0.05416368  0.056963697            2 
  225000    1.1580192   -4.9091726    146.91184  0.054411793  0.056944972            4 
  226000    1.1860276    -4.941604    147.19112  0.054274011  0.056925439            2 
  227000    1.1739356   -4.9381173    147.67731  0.054213403  0.056906904            1 
  228000    1.1326943   -4.9098469    148.53497  0.054289098  0.056886228            2 
  229000    1.1684944   -4.9484111    149.32298  0.054338786  0.056871198            2 
  230000    1.1576574   -4.9636562    149.45179  0.054149199  0.056854087            4 
  231000    1.1545612   -4.9376886    151.33884  0.054595541  0.056839401            3 
  232000    1.1621889   -4.9519005    150.83701  0.054179961  0.056825236            6 
  233000     1.171968   -4.9512466    152.30737  0.054473309  0.056812001            3 
  234000    1.1378259   -4.9259455    152.91892  0.054458304  0.056797929            2 
  235000    1.1414686   -4.9234857    153.85728  0.054559319  0.056786797            2 
  236000    1.1524436   -4.9596535    154.16013  0.054435076   0.05677428            2 
  237000    1.1416852   -4.9644989    155.47018  0.054666025  0.056764277            2 
  238000    1.1552323   -4.9389601    155.49065  0.054443504  0.056754592            5 
  239000    1.1310433   -4.9802124    155.82665  0.054332864  0.056746396           10 
  240000     1.152358   -4.9577335    156.83375  0.054456164  0.056733444            3 
  241000      1.11254   -4.9814627    157.59471  0.054493329  0.056723426            4 
  242000    1.1605225   -4.9667111    157.97662  0.054399662  0.056712463            3 
  243000    1.1652243   -4.9365109    159.31618  0.054635178  0.056703723            2 
  244000    1.1497351   -4.9344042    159.95576  0.054629701  0.056695951            2 
  245000    1.1569683   -4.9226518    160.08188  0.054449618  0.056687065            8 
  246000    1.1511622   -4.9459422    160.84525  0.054486872  0.056674674            2 
  247000    1.1430611   -4.8910893     161.5048  0.054488799  0.056664669            4 
  248000    1.1740506   -4.9471632    162.04902  0.054451954  0.056651072            5 
  249000     1.155229   -4.9844509    162.65476  0.054435997  0.056638752            5 
  250000    1.1666874   -4.9536331    162.80054  0.054266848  0.056624552            2 
  251000    1.1575869   -4.9807371    163.31628  0.054221871  0.056610168            3 
  252000    1.1734786   -4.9197691    164.41284  0.054369326   0.05659883            4 
  253000    1.1531495   -4.9627042    165.12737  0.054389778  0.056586976            7 
  254000    1.1557993   -4.9952267    165.42808  0.054274303  0.056573979            2 
  255000    1.1404611   -4.9249404     166.4818  0.054405816  0.056558001            3 
  256000      1.16305   -4.9797033    166.51368  0.054203671   0.05654281            2 
  257000    1.1411267   -4.9594983    166.96571  0.054139334  0.056525384            2 
  258000    1.1508191   -4.9331901    167.60368  0.054135554  0.056504525            1 
  259000    1.1469774   -4.9696351    168.60674  0.054249272  0.056485059            3 
  260000    1.1774731   -4.9576281     168.4922  0.054003909  0.056464747            2 
  261000    1.1429318   -4.9071721    170.49448  0.054436297  0.056445486            1 
  262000     1.145217   -4.9605101    169.66514  0.053964739  0.056425705            2 
  263000    1.1442995    -4.981046    170.23025  0.053938607  0.056404226            2 
  264000    1.1395188    -4.972384    170.66822  0.053872545  0.056382878            4 
  265000    1.1425865   -4.9789225    171.03631  0.053785003  0.056361175            2 
  266000     1.145483    -4.958022    172.02593  0.053892836  0.056338628            1 
  267000     1.127115   -5.0063755       172.01  0.053686017  0.056313175            4 
  268000    1.1550585   -5.0116409    172.56928  0.053659602   0.05628837            4 
  269000    1.1767225   -4.9807601    173.25978  0.053674033  0.056261661            1 
  270000    1.1498826    -4.959635    174.59383  0.053886986  0.056236136            3 
  271000    1.1507121   -4.9681272    174.80981  0.053754553  0.056212424            2 
  272000    1.1491748   -4.9607161    175.64905  0.053814046  0.056190229            2 
  273000    1.1361704   -4.9730472    176.25751  0.053802659  0.056167408            1 
  274000    1.1457283    -4.976188    177.02292  0.053839088  0.056142302            5 
  275000    1.1160962   -4.9988867    177.57028  0.053809174  0.056118277            2 
  276000    1.1347324   -4.9598789     177.8781  0.053707157  0.056093667            4 
  277000    1.1556695   -4.9661978    178.85448  0.053807003  0.056070908            1 
  278000    1.1326032   -4.9565397    179.21472   0.05372144  0.056044214            2 
  279000    1.1796604   -4.9774786    179.27629  0.053547279  0.056018197            2 
  280000    1.1828771   -4.9808697    179.55102  0.053437803  0.055991795            2 
  281000    1.1325614    -4.978323    180.49708  0.053528195  0.055965439            4 
  282000    1.1525102   -4.9867299    181.64444  0.053677435  0.055942066            3 
  283000    1.1598081   -4.9927324    181.53058  0.053454233  0.055916065            3 
  284000    1.1492271   -4.9991444    182.30825  0.053494205  0.055891012            3 
  285000    1.1377071   -4.9790028    183.36766  0.053616274  0.055867036            2 
  286000    1.1380568    -4.960393    184.57793  0.053781448  0.055843081            2 
  287000    1.1243818   -4.9662984     185.1943  0.053773024  0.055820389            1 
  288000    1.1502127   -4.9877521    184.65858  0.053431302  0.055797801            3 
  289000    1.1416462    -4.964743    185.06536  0.053363714   0.05577318            2 
  290000    1.1428316   -5.0028501    185.77553  0.053383772    0.0557457            3 
  291000    1.1360407   -4.9925187    186.32483  0.053357626  0.055718747            5 
  292000    1.1288617   -4.9766894    186.66836  0.053272935  0.055691864            4 
  293000     1.143599   -5.0051559    186.61842  0.053076913  0.055664181            4 
  294000    1.1469235   -4.9983125    187.59128  0.053172133  0.055638577            1 
  295000    1.1113995   -4.9722575     188.1161  0.053140142  0.055609381            2 
  296000    1.1462137   -5.0062926    189.06861  0.053228775  0.055581218            2 
  297000    1.1300861   -4.9822794    188.91232  0.053005701  0.055551488            2 
  298000    1.1173424   -4.9711251    189.68622  0.053044245  0.055522337            2 
  299000    1.1304115     -4.98789     190.2981  0.053037376  0.055491395            3 
  300000    1.1508926   -4.9913298    190.25699  0.052849164  0.055459341            2 
  301000    1.1130625   -5.0516605    191.15959  0.052923474  0.055426558            2 
  302000    1.1486963    -4.987419    191.61694  0.052874432  0.055393553            2 
  303000    1.1472173   -4.9981149    191.78416  0.052745917   0.05536007            3 
  304000    1.1322367   -5.0138199    192.76344  0.052840855  0.055327761            3 
  305000    1.1388491   -4.9557135     193.8926  0.052976121  0.055296477            5 
  306000    1.1505937   -4.9947407    194.25559  0.052901848  0.055265306            2 
  307000    1.1256377    -4.987143    194.71675   0.05285471  0.055234191            3 
  308000    1.1239476    -5.012639    194.63282  0.052660395  0.055202161            3 
  309000    1.1418821   -4.9805214     195.1258  0.052622923  0.055171037            2 
  310000    1.1215834   -5.0268141    196.75389   0.05289083    0.0551413            1 
  311000    1.1073503   -5.0283869    196.62523  0.052686288  0.055110598            2 
  312000    1.1579718   -4.9811864    197.79026  0.052828595  0.055080611            6 
  313000     1.127994   -4.9889179    198.32044  0.052800969   0.05505149            3 
  314000    1.1047176   -4.9917593    199.15991  0.052855602  0.055023713            4 
  315000    1.1204315   -5.0351375    198.46028  0.052502719   0.05499353            3 
  316000     1.147282   -4.9860924    200.07785  0.052763146  0.054963338            3 
  317000    1.1457445   -5.0545008    199.28207  0.052387504  0.054932061            4 
  318000    1.1378896   -5.0260797    200.24491  0.052475081  0.054898124            2 
  319000    1.1324516   -5.0068298     200.9729  0.052500757  0.054868567            2 
  320000    1.1140672   -4.9728134     202.9046   0.05283974  0.054838891            2 
  321000    1.1372637   -5.0231905    202.58083  0.052591078  0.054809516            2 
  322000    1.1180416   -5.0244561    203.15003  0.052575059  0.054780255            5 
  323000    1.1238679   -5.0187142    204.33185  0.052717194   0.05475526            3 
  324000    1.1316154   -4.9918812    204.26986  0.052538544  0.054728423            2 
  325000    1.1426923    -4.991009    205.22547  0.052621914  0.054700183            2 
  326000    1.1218115   -4.9945942    206.15661   0.05269852  0.054672015            2 
  327000    1.1522984   -5.0045823    206.65489  0.052664346  0.054644903            3 
  328000     1.095565   -5.0162416    206.58345  0.052485632  0.054616225            7 
  329000    1.1144434   -4.9804356    208.49917  0.052811339  0.054589174            4 
  330000    1.1508326    -4.987326    209.12395  0.052809079  0.054563833            2 
  331000     1.105578   -5.0089547    209.11001  0.052646024  0.054538494            2 
  332000    1.1003971   -5.0260557     208.9982  0.052459388  0.054513669            7 
  333000    1.1209108   -5.0467987    209.35394  0.052390876  0.054487873            3 
  334000    1.1483848   -5.0356535    210.12828  0.052427217  0.054461878            2 
  335000    1.1383857   -5.0407703    211.51784  0.052616377  0.054435896            3 
  336000    1.1199637   -5.0315979    212.04535  0.052590612  0.054411129            2 
  337000    1.1152051   -5.0020019    213.13554  0.052704139  0.054386277            1 
  338000     1.128463   -5.0199653    213.72128  0.052692624  0.054362747            5 
  339000    1.1267307    -5.055325    214.34158   0.05268967  0.054340034            3 
  340000    1.1049308   -5.0146096    214.56765  0.052590111  0.054317572            4 
  341000    1.1207507   -5.0352075    214.40223  0.052395463  0.054295288            3 
  342000    1.1162573   -5.0288429    214.70256  0.052315439  0.054271728            4 
  343000    1.1399318   -4.9856605    217.05742  0.052735039  0.054248226            4 
  344000    1.0741669   -5.0621243    216.28659  0.052395006  0.054224523            3 
  345000    1.1038393   -5.0401144    216.80652  0.052368724  0.054200815            3 
  346000    1.1249893   -5.0498894    217.98521  0.052501254  0.054177756            2 
  347000    1.1121397   -5.0126418    218.62003   0.05250241   0.05415525            6 
  348000     1.099302   -5.0056771    219.64838  0.052597791  0.054134908            3 
  349000    1.1033465   -5.0243549     219.1224  0.052321491  0.054112492            4 
  350000    1.1113159   -5.0519023    220.16109  0.052419307  0.054090592            3 
  351000    1.1167484   -5.0034691    221.50981  0.052590173  0.054067607            2 
  352000    1.1291142   -5.0783896    220.89206  0.052294521  0.054045164            1 
  353000     1.108612   -5.0137843    222.71133  0.052575857  0.054023713            4 
  354000    1.1158096   -5.0270255    222.72962  0.052431642  0.054003525            3 
  355000     1.091086   -5.0524937    222.37709  0.052201196  0.053982238            3 
  356000    1.1111312   -5.0425339    223.73899   0.05237336  0.053958562            2 
  357000    1.1086386   -5.0375639    223.54038  0.052180293  0.053937193            3 
  358000    1.1077288   -5.0527745     224.2163  0.052191877  0.053915349            5 
  359000    1.1038412   -4.9929587    225.75939  0.052404686  0.053892212            2 
  360000    1.1273679   -5.0262185    225.16461  0.052121438  0.053869022            3 
  361000    1.1240342   -5.0074211    225.60619   0.05207899  0.053843874            3 
  362000    1.1011999    -5.036192      226.472  0.052134439  0.053818681            1 
  363000     1.122849    -5.020849    226.62962  0.052027002  0.053793326            2 
  364000    1.0954978    -5.001995    226.71745  0.051904177  0.053766243            2 
  365000    1.1117935   -5.0513264    227.21071  0.051874592  0.053739115            2 
  366000    1.0949289   -5.0519692    227.08639  0.051704552  0.053709259            5 
  367000    1.1011634   -5.0481604    227.83844  0.051734432  0.053682448            3 
  368000    1.1008274   -5.0328921    227.96881  0.051623372  0.053654395            7 
  369000    1.1166231   -5.0536379    228.51993  0.051607934  0.053625965            2 
  370000    1.1149993   -5.0494873    229.73358  0.051741796  0.053597898            4 
  371000    1.1221943    -5.062477    230.68098  0.051815134  0.053570217            3 
  372000     1.073251   -5.0298512    230.40608  0.051614266  0.053544042            2 
  373000    1.0920424   -5.0232891    232.23068  0.051883529  0.053518403            2 
  374000    1.0947471   -5.0514368    232.58113  0.051822889   0.05349187            2 
  375000    1.1185422   -5.0446844    232.49899  0.051666442  0.053466115            3 
  376000    1.1021395   -5.0373558    233.21742  0.051688257  0.053440192            4 
  377000    1.1091192   -5.0465519    234.03368  0.051731584  0.053413796            7 
  378000    1.1023059   -5.0074824    235.74605  0.051972232  0.053388009            2 
  379000    1.0979675   -5.0572803     235.0847  0.051689687  0.053362683            2 
  380000    1.1264586    -5.080338    234.94711   0.05152349   0.05333533            2 
  381000    1.0777756   -5.0555383    236.14564  0.051650402  0.053309423            5 
  382000    1.0915637   -5.0844328    235.56797  0.051389173  0.053281721            2 
  383000    1.1030115   -5.0185675    237.13808  0.051596622  0.053256261            2 
  384000    1.0891918   -5.0428407    237.59881  0.051562241  0.053232359            3 
  385000      1.11208    -5.062376    239.23742  0.051782992  0.053208517            1 
  386000    1.0899265   -5.0302148    239.61297  0.051729916   0.05318464            2 
  387000    1.1225151   -5.0582284    239.09935  0.051485648   0.05316107            1 
  388000    1.0939548   -5.0727989    240.67503  0.051691372  0.053136891            2 
  389000    1.0847561   -5.0635489    240.68089  0.051559745  0.053113101            2 
  390000    1.1032717   -5.0542495     241.5444  0.051612051  0.053090091            4 
  391000    1.0942781   -5.0580509    242.32928  0.051647332  0.053065709            4 
  392000    1.0815184   -5.0214418    241.85709  0.051415199  0.053041395            3 
  393000    1.1073611   -5.0645239    242.64923   0.05145234  0.053017151            3 
  394000    1.0996555   -5.0971679    242.65519  0.051323009  0.052991887            3 
  395000    1.1136149   -5.0623203    244.36481  0.051553757  0.052967393            3 
  396000    1.1225919   -5.0933592    244.59937   0.05147293  0.052943258            3 
  397000    1.0958828   -5.0458247    244.93222  0.051413144  0.052918299            5 
  398000    1.0994701   -5.0844372    245.48989   0.05140073   0.05289457            4 
  399000    1.1091617   -5.0770818    245.39573  0.051252241  0.052869944            5 
  400000    1.0835577   -5.0713204    246.65173  0.051385778   0.05284587            2 
  401000    1.1034606   -5.0758174    247.15329  0.051361864  0.052821643            3 
  402000    1.0952364    -5.054383    248.14676  0.051440041   0.05279765            2 
  403000    1.0925964   -5.1002443    247.88335  0.051257931  0.052772966            2 
  404000    1.0705297   -5.0888946    247.57163  0.051066755  0.052748634            2 
  405000    1.0926197   -5.0364782    249.51258  0.051340038  0.052724134            1 
  406000    1.0882977   -5.0755873    249.32318  0.051174709  0.052700361            5 
  407000    1.0948382    -5.069953    249.67846  0.051121716  0.052674416            5 
  408000    1.0783715   -5.0713687    250.30852  0.051125105  0.052649925            2 
  409000    1.0868753   -5.0758184    250.13815  0.050965393  0.052623699            3 
  410000    1.0931649   -5.1151067    250.35389  0.050884938  0.052598127            2 
  411000    1.0879718    -5.098198    251.86926  0.051068383  0.052571048            3 
  412000    1.0926673   -5.0696335    251.99979  0.050970831  0.052545183            1 
  413000    1.0674345   -5.0785805    252.87965   0.05102495  0.052519786            1 
  414000    1.0943006   -5.0826198    253.69681  0.051066186  0.052494102            5 
  415000    1.0922065   -5.1005818    253.46442  0.050896469  0.052466399            2 
  416000    1.0888625   -5.1283821    252.02228  0.050485233  0.052438881            5 
  417000    1.0991884   -5.0760529    252.98292   0.05055614  0.052410027            4 
  418000    1.1151252   -5.0721578    255.00257  0.050837832  0.052381428            3 
  419000    1.0889131   -5.0746902    255.29268    0.0507742  0.052353305            3 
  420000    1.0865412   -5.0845543    254.74207  0.050544061  0.052325665            2 
  421000    1.0752892   -5.1343198    255.96976  0.050667015  0.052299267            3 
  422000    1.0737252     -5.09104    255.59326  0.050472602   0.05227226            3 
  423000    1.0789411   -5.1029065    256.69248  0.050569835  0.052245048            2 
  424000    1.1206807    -5.090512    257.77687  0.050663693  0.052217018            5 
  425000     1.076705    -5.108932    257.38895  0.050468422  0.052188552            2 
  426000    1.0811837   -5.1119405    257.93947  0.050457643  0.052159986            2 
  427000     1.094357   -5.0935361    258.25007  0.050400092  0.052130052            4 
  428000    1.0798072    -5.107549    258.87059  0.050403152    0.0521013            1 
  429000      1.07317   -5.0796983    259.85737  0.050477344  0.052072135            4 
  430000    1.0935974   -5.0671698    260.86875   0.05055596   0.05204387            2 
  431000    1.0615304   -5.0856814    261.48745  0.050558285  0.052014983            2 
  432000    1.0922984   -5.0981226    260.58813  0.050267771  0.051985294            4 
  433000    1.0655423    -5.089551    260.94608  0.050220569  0.051955744            5 
  434000    1.0592781   -5.1147062    261.20761  0.050155072  0.051926598            9 
  435000    1.0743163   -5.1272141    261.33234  0.050063667  0.051896657            3 
  436000    1.0523524   -5.1070159    262.14408   0.05010399   0.05186617            5 
  437000    1.0756869   -5.0939248    262.47858  0.050053123  0.051835933            1 
  438000    1.0844887   -5.1136705    263.33286  0.050101381  0.051805622            2 
  439000    1.0778746   -5.0784179    264.14404  0.050141239  0.051775541            4 
  440000    1.0874004   -5.0656842     265.1813  0.050223732  0.051746041            3 
  441000    1.0647453   -5.1051605    265.00177  0.050075921  0.051715947            4 
  442000    1.0662689   -5.1033673    264.48325  0.049864866  0.051686035            2 
  443000    1.0801677   -5.1241673    265.99435  0.050036559  0.051656526            3 
  444000     1.091511   -5.1162947    266.98591  0.050109969  0.051628345            4 
  445000    1.0988245   -5.0836647    267.21194   0.05003969  0.051599764            3 
  446000    1.0701516    -5.089096    267.16451   0.04991863  0.051572063            2 
  447000    1.0577113   -5.1098508    269.20621  0.050187587   0.05154369            2 
  448000    1.0930029   -5.1149583    268.99351  0.050035996  0.051515181            4 
  449000    1.0616962   -5.1003189    269.53154  0.050024413  0.051486161            3 
  450000    1.0755185   -5.1261712     270.0677  0.050012537  0.051459262            3 
  451000    1.0635412   -5.1384009     270.7179  0.050021785  0.051432345            3 
  452000    1.0743925   -5.1291256    270.95017   0.04995394   0.05140582            3 
  453000    1.0745781   -5.1127022    271.91397  0.050020966  0.051380348            4 
  454000    1.1043557   -5.1176101    271.98409  0.049923658  0.051353353            3 
  455000    1.0728998    -5.085007    273.83093  0.050152184  0.051326488            3 
  456000    1.0899471   -5.0917908    272.85904  0.049864591  0.051301262            4 
  457000    1.0705258   -5.1247569    273.24401  0.049825677  0.051274847            3 
  458000    1.0731332   -5.0986876    273.88091   0.04983277  0.051248154           11 
  459000    1.0523809   -5.0777291    274.71531  0.049875692  0.051220865            3 
  460000     1.065532   -5.1114846     275.2621  0.049866323  0.051193395            5 
  461000    1.0631545      -5.0697     275.7155  0.049840112  0.051165994            4 
  462000    1.0836222   -5.1196312    275.33181  0.049663026  0.051138739            2 
  463000    1.0678926   -5.1526624    275.42722  0.049572934  0.051111069            2 
  464000    1.0584652   -5.1697929    276.02069  0.049572681  0.051083105            3 
  465000    1.0554669   -5.1625557    276.99602  0.049640864  0.051054066            3 
  466000    1.0813118   -5.1271102    277.85109  0.049687247  0.051025808            3 
  467000    1.0701561   -5.1240141    277.38909   0.04949841   0.05099769            2 
  468000    1.0603396   -5.1137834    278.36722  0.049566813   0.05096863            5 
  469000    1.0791141   -5.1444326     277.6622  0.049335856  0.050939277            4 
  470000    1.0689355   -5.0948751    279.17334   0.04949882  0.050910479            1 
  471000    1.0580032   -5.1407614    277.83388  0.049156738  0.050880813            3 
  472000    1.0627588   -5.1274842    279.28128  0.049308135  0.050850452            4 
  473000    1.0457075   -5.1074128    280.37464  0.049396518  0.050820312            3 
  474000    1.0644378   -5.1308602    279.41049    0.0491228  0.050789832            3 
  475000    1.0506525   -5.1281209    280.76275  0.049256624  0.050759446            4 
  476000    1.0642438   -5.1292291    280.81261  0.049161872  0.050729439            2 
  477000    1.0734002   -5.1347096    281.54783  0.049187252  0.050699232            1 
  478000    1.0675058    -5.156407    281.09851  0.049006016  0.050668934            8 
  479000    1.0700144   -5.1230377    282.08816   0.04907588  0.050637903            3 
  480000     1.072245   -5.1476338    281.82407   0.04892779  0.050607177            2 
  481000    1.0517256   -5.1089354     282.4531  0.048935049  0.050575837            6 
  482000    1.0578678   -5.1244117    283.07237   0.04894059  0.050545297            3 
  483000    1.0850349    -5.136555    283.17736  0.048857377  0.050514621            3 
  484000    1.0575459   -5.1430631     284.0924   0.04891398  0.050484187            4 
  485000    1.0554785   -5.1614015     283.8548  0.048772303  0.050454454            2 
  486000    1.0443659   -5.1260708    285.10254  0.048885895  0.050423812            3 
  487000    1.0853282   -5.1471227    285.01247  0.048770101  0.050393222            2 
  488000    1.0467878   -5.0942249    287.49726  0.049094477  0.050363081            6 
  489000    1.0581914   -5.1727352    286.15548  0.048765419  0.050332363            5 
  490000    1.0297422   -5.1284009    286.56871  0.048736175  0.050302062            3 
  491000    1.0563113   -5.1172202    288.30025  0.048930796  0.050272995            5 
  492000    1.0593279   -5.1054332    289.76051  0.049078678  0.050245139            4 
  493000    1.0622024   -5.1577804    288.55089  0.048774661  0.050216389            2 
  494000    1.0670457   -5.1746243    288.95177  0.048743551  0.050187664            2 
  495000    1.0441543   -5.1241906    289.17647  0.048682908  0.050158713            3 
  496000    1.0546936   -5.1248775    290.68927  0.048838923  0.050130708           13 
  497000    1.0647552   -5.1428074    290.51907  0.048712118  0.050103034            7 
  498000    1.0621381   -5.1696505    291.38839   0.04875977  0.050075872            2 
  499000    1.0506904   -5.1308343    293.26465  0.048975392  0.050049196            3 
  500000    1.0732165   -5.1253157    293.31421  0.048885701   0.05002234            2 
  501000    1.0587393   -5.1281437    292.94915  0.048727403  0.049995957            2 
  502000    1.0408707   -5.1617855    292.56514   0.04856659  0.049967945            3 
  503000    1.0588425   -5.1841147    293.22424  0.048579232  0.049940981            2 
  504000    1.0621369   -5.1492683    294.78685  0.048741212  0.049913255           10 
  505000    1.0445521   -5.1278416    294.65119  0.048622308  0.049886209            6 
  506000    1.0502608   -5.1695213    295.08859  0.048598252   0.04985723            4 
  507000    1.0341251   -5.1246672    295.18561  0.048518345  0.049829234            5 
  508000    1.0726262   -5.1195821    296.71275  0.048673351  0.049801771            4 
  509000    1.0691641   -5.1598842     295.8654  0.048438997  0.049774637            3 
  510000    1.0510724   -5.1656147    295.69842  0.048316736  0.049747045            2 
  511000    1.0581443   -5.1752483    296.70555  0.048386424  0.049719633            3 
  512000    1.0300708   -5.1724741    297.20196  0.048372714  0.049692015            8 
  513000    1.0320107   -5.1601991    297.37981  0.048307311  0.049664186            3 
  514000    1.0582687   -5.1697918    297.58681  0.048246889  0.049635708            5 
  515000    1.0449011   -5.1676177    298.07889   0.04823283   0.04960789            2 
  516000     1.054355   -5.1865831    298.67919  0.048236303  0.049580109            2 
  517000     1.030192   -5.1663509    299.74312  0.048314494  0.049553055            6 
  518000    1.0497937   -5.1713142    301.16075  0.048449284  0.049526085            3 
  519000     1.042764   -5.1622963    300.79966  0.048297955  0.049498651            4 
  520000     1.050281   -5.1437229    302.34399  0.048452562  0.049472566            2 
  521000    1.0302636   -5.1773604    301.16023  0.048170223  0.049446282            2 
  522000    1.0502317   -5.1626433    301.44255  0.048123012  0.049419281            4 
  523000    1.0276649   -5.1993955    302.65558   0.04822428  0.049391663            8 
  524000    1.0382757   -5.1552161    303.04197  0.048193698  0.049364607            2 
  525000     1.052624    -5.126578     303.4827  0.048171858  0.049337999            3 
  526000     1.070546   -5.2130937     303.5054  0.048083872  0.049311356            3 
  527000    1.0235061   -5.1371939    304.88365  0.048210571  0.049285233            2 
  528000    1.0226509   -5.1523359    306.04432  0.048302449  0.049259123            2 
  529000    1.0560482   -5.1950021    304.86362  0.048025145  0.049233332            6 
  530000    1.0352698    -5.170089    305.79122   0.04808038  0.049205916            2 
  531000    1.0469432    -5.144078    306.38083  0.048082365  0.049179733            5 
  532000    1.0443171   -5.2115194    306.89231  0.048072104  0.049153665            4 
  533000    1.0406697   -5.1773891    306.79038  0.047965975  0.049126812            3 
  534000    1.0583963   -5.1643477    306.94994  0.047901051   0.04909943            6 
  535000    1.0521636   -5.1864624    307.37929  0.047878393   0.04907277            2 
  536000    1.0336867   -5.1544846    309.06627  0.048051349  0.049046028            9 
  537000    1.0354792   -5.1253179    309.49508  0.048028412  0.049019132            3 
  538000    1.0637767     -5.13826    309.40682  0.047925467  0.048991913            3 
  539000    1.0472126   -5.1691373    309.71646  0.047884425   0.04896451            2 
  540000    1.0404344   -5.1825036    310.41857  0.047904101  0.048937543            7 
  541000    1.0118483    -5.198745    309.70286  0.047705309  0.048910307            3 
  542000    1.0473003   -5.1920135    310.29716  0.047708665  0.048883359            1 
  543000    1.0516227   -5.1807171    310.75466  0.047691016  0.048856486            2 
  544000    1.0349407   -5.1863986    311.38259  0.047699538  0.048828652            9 
  545000    1.0273793   -5.1793496    312.76414  0.047823263  0.048801636            3 
  546000    1.0774755    -5.157203    312.14803   0.04764164  0.048774183            3 
  547000    1.0176147   -5.2021752    312.25263   0.04757048  0.048745819            6 
  548000    1.0508242   -5.1827294    311.80374  0.047415411  0.048717626            3 
  549000    1.0402464   -5.2095561    313.54827  0.047593848  0.048689882            2 
  550000    1.0232226   -5.1706381    314.17345  0.047602038  0.048662681            3 
  551000    1.0646718   -5.1844059    314.58374  0.047577699  0.048635677            3 
  552000    1.0399142   -5.1887351    314.99296  0.047553285  0.048609104            3 
  553000    1.0418381   -5.2161249    315.06877  0.047478717  0.048582642            2 
  554000    1.0210449   -5.2040942    315.88256  0.047515427   0.04855676            2 
  555000     1.033343   -5.1543777    316.04277   0.04745387  0.048531031            3 
  556000    1.0099533   -5.1897831    318.00699  0.047662918  0.048504803            1 
  557000    1.0230617   -5.2143828    317.91093  0.047562976  0.048478762            4 
  558000    1.0143469   -5.1552911    318.37058  0.047546382  0.048453944            4 
  559000    1.0441612   -5.2035994     319.2631   0.04759438  0.048428983            5 
  560000    1.0292942   -5.2025456    320.57849  0.047705132  0.048405186            3 
  561000     1.027434   -5.1702277    320.63124  0.047627933  0.048381019            3 
  562000    1.0251512   -5.1405863    321.55742   0.04768052  0.048357849            3 
  563000    1.0189146    -5.177311    321.32867   0.04756197  0.048334506            6 
  564000    1.0446121   -5.2399441    321.17196  0.047454486  0.048309396            4 
  565000    1.0394937   -5.1691293    322.76998  0.047606192  0.048285825            2 
  566000    1.0478198   -5.1808796    324.04603  0.047709957  0.048262519            6 
  567000    1.0284031   -5.2205985    322.65887  0.047421938  0.048239341            2 
  568000    1.0252667   -5.2119604    323.89751  0.047520175  0.048215883            3 
  569000    1.0232995   -5.1943755    324.64545  0.047546199  0.048192615            3 
  570000    1.0163555   -5.2068383    324.23546  0.047402845  0.048168953            2 
  571000    1.0238692   -5.2139469    325.59094  0.047517651  0.048146017            3 
  572000    1.0356171   -5.2315343    324.30555  0.047247312    0.0481226            2 
  573000    1.0363409    -5.250466    325.50457  0.047339233  0.048098459            2 
  574000    1.0115044   -5.1581828    326.97062  0.047469601   0.04807433            6 
  575000    1.0342773   -5.1871871    327.14626  0.047412501   0.04805102            2 
  576000    1.0148882   -5.1957756     327.4073  0.047367954  0.048027933            4 
  577000    1.0354191   -5.2300392    328.50053   0.04744375  0.048005065            5 
  578000    1.0097665   -5.2362061    327.05403  0.047153118  0.047982085            3 
  579000    1.0010147    -5.205375    328.92247  0.047340598  0.047959086            3 
  580000    1.0431609   -5.2399716    328.18816  0.047153471  0.047935657            3 
  581000    1.0383297   -5.2001748    330.48968  0.047402421  0.047912374            2 
  582000    1.0377434    -5.227786    329.53953  0.047184927  0.047889456            2 
  583000    1.0277563   -5.1754663    330.11662  0.047186481  0.047866301            5 
  584000     1.000991   -5.2096174    330.75226  0.047196384  0.047842867            5 
  585000     1.030282   -5.2032286    329.39735  0.046922699  0.047818875            3 
  586000    1.0141849   -5.2216629    331.20241  0.047099318   0.04779422            6 
  587000    1.0282793    -5.212845    330.58459  0.046931373  0.047769822            2 
  588000    1.0118798   -5.2212114    330.46492  0.046834598  0.047746255            8 
  589000    1.0295966    -5.242013    330.94392  0.046822853  0.047721733            2 
  590000    1.0150516   -5.2535108    331.12811  0.046769508  0.047696257            5 
  591000   0.99846834   -5.2091505    331.37644  0.046725386  0.047671371            3 
  592000    1.0236094   -5.2155271     332.1845  0.046760206   0.04764534            2 
  593000   0.99617682   -5.2240054    333.38971  0.046850718  0.047620612            4 
  594000    1.0125589   -5.1852205    333.65328  0.046808822  0.047595841            4 
  595000      1.01145   -5.2096918    333.48494  0.046706575   0.04757119            8 
  596000    1.0251108    -5.238865    334.62468  0.046787567  0.047546417            2 
  597000    1.0021317   -5.2408156    335.27913  0.046800548  0.047521401            5 
  598000    1.0205949    -5.206063    335.48053  0.046750352  0.047496365            2 
  599000    1.0343737   -5.2612861    334.87586  0.046588183  0.047470733            6 
  600000    1.0086327   -5.2144391    336.48327  0.046733788  0.047446469            6 
  601000    1.0073597   -5.2253022    336.19243    0.0466157  0.047422231            3 
  602000    1.0209803   -5.2240124    337.77082  0.046756758  0.047397084            6 
  603000    1.0139597    -5.204779    337.49431  0.046641005  0.047371924            3 
  604000    1.0109121   -5.2388602    338.22856  0.046665089  0.047347085            3 
  605000    1.0250524   -5.2179569    338.44774  0.046618145  0.047322011            2 
  606000     1.020783   -5.2213981    338.66069  0.046570501  0.047297009            1 
  607000    1.0228684   -5.2185038    337.33132  0.046311274  0.047271624            2 
  608000    1.0058444   -5.2222302    338.12155  0.046343414  0.047246358            3 
  609000   0.99326391   -5.2360201    339.56178  0.046464392  0.047221058            6 
  610000    1.0033218   -5.2429075    338.37537  0.046226144   0.04719628            3 
  611000     1.001665   -5.1936249    339.69223  0.046330092  0.047171724            3 
  612000    1.0343152   -5.2099892    340.86294    0.0464138  0.047146645            4 
  613000    1.0104588   -5.2405087    340.02033  0.046223536  0.047121501            4 
  614000    1.0049085   -5.2342415     340.5498  0.046220114  0.047095549            6 
  615000    1.0018608   -5.2268144    340.94726  0.046198815  0.047069788           10 
  616000    1.0137769    -5.274127    339.69336  0.045954188  0.047043444            4 
  617000   0.98267952   -5.2495931     341.5624  0.046132144  0.047017403            3 
  618000    1.0161807   -5.2436136    342.57512  0.046194056  0.046990913            5 
  619000    1.0117544   -5.2663675    342.16106  0.046063686  0.046965062            4 
  620000    1.0166178   -5.2330678    342.78896  0.046073785  0.046939623            3 
  621000    1.0246586   -5.2231846    342.90736  0.046015481  0.046913599            4 
  622000    1.0099078   -5.2662875    342.77052  0.045923167  0.046887169            4 
  623000    1.0243574   -5.2356787    344.85699  0.046128543  0.046861328            3 
  624000   0.98548003   -5.2669351    344.01855  0.045942649  0.046835636            7 
  625000    1.0048478   -5.2158129    345.12287  0.046016382  0.046810125            2 
  626000   0.99418071   -5.2432111    345.78507  0.046031027  0.046785015            5 
  627000    1.0037424   -5.2798218    344.86727  0.045835629  0.046759767            5 
  628000   0.99458652   -5.2472567    346.13482  0.045930841   0.04673466            6 
  629000    1.0127941    -5.275329    347.15808  0.045993386  0.046710188            2 
  630000     1.002561   -5.2761291    347.40928  0.045953609  0.046685022            7 
  631000    1.0133447   -5.2423337    348.23566  0.045989918    0.0466603            5 
  632000   0.99900932   -5.2497318    347.36698  0.045802607   0.04663531            3 
  633000   0.99604009   -5.2243411    348.02837  0.045817321  0.046610323            3 
  634000   0.99372969   -5.2496115    349.00752  0.045873753  0.046585208            4 
  635000    1.0021885   -5.2480435    348.82296  0.045777291  0.046559943            3 
  636000    1.0182048   -5.2580508    349.71146  0.045821732  0.046535288            4 
  637000     1.000942   -5.2586388     350.0965  0.045800171  0.046510094            2 
  638000    1.0161063   -5.2765743    348.29904  0.045493605  0.046484594            2 
  639000   0.99094525   -5.2681233    350.87194  0.045757947  0.046459276            2 
  640000   0.98459876    -5.277747    349.52975  0.045511686  0.046433377            7 
  641000   0.98071934   -5.2454095    351.86775  0.045744638  0.046408189            3 
  642000   0.98236987   -5.2855806    351.36977  0.045608745  0.046383419            6 
  643000    1.0098931   -5.2659283     351.5994  0.045567574  0.046358282            5 
  644000   0.98904102   -5.2675504    352.40496  0.045601055  0.046333064            2 
  645000   0.98325558   -5.2631636    352.36521   0.04552522  0.046308126            1 
  646000    1.0026424   -5.3056058     351.8519  0.045388533  0.046283979            4 
  647000    1.0091431    -5.241847    354.14957  0.045614318  0.046259574            2 
  648000   0.99895417   -5.2572719    353.96087  0.045519659  0.046235528            2 
  649000    1.0181335   -5.2549236    355.20755  0.045609598   0.04621167            8 
  650000   0.98856773   -5.2214283    355.01743  0.045515055  0.046187108            5 
  651000    1.0050982   -5.2748133    355.15856  0.045463205  0.046163176            5 
  652000   0.99437776   -5.2432335    356.15318    0.0455206  0.046138841            2 
  653000   0.99997903   -5.2790177    355.89627  0.045418105  0.046114638            3 
  654000   0.98807394   -5.2818701    357.23341  0.045519037   0.04609042            3 
  655000    1.0075143   -5.3242171    355.36587  0.045211942  0.046065727            3 
  656000   0.99419372    -5.283139    356.34141  0.045266948  0.046041264            4 
  657000    1.0350733   -5.2985975    357.13948  0.045299274  0.046016754            4 
  658000    1.0036996   -5.3002157    359.36173   0.04551187  0.045993191            6 
  659000    0.9871826   -5.2619168    358.59224  0.045345503   0.04596916            2 
  660000   0.99933287   -5.2569915    359.10917  0.045342066  0.045945503            5 
  661000   0.99464173   -5.2627154     360.5853  0.045459569  0.045921596            4 
  662000   0.97340676   -5.2678827    359.92972  0.045308373  0.045897854            3 
  663000   0.99404393   -5.2594647    360.17374  0.045270707  0.045873893            4 
  664000   0.99008428   -5.2905922    359.43089  0.045109298  0.045849291            4 
  665000   0.98059219   -5.3017196    360.37487  0.045159758  0.045824362            9 
  666000    1.0182265   -5.2653114    360.20302  0.045070448  0.045799312            3 
  667000   0.99530049   -5.2443915    361.77683  0.045199504   0.04577443            6 
  668000   0.98146263   -5.3172226     360.9208   0.04502505  0.045749958            3 
  669000   0.96018587   -5.2945993    360.35344  0.044887075  0.045724948            5 
  670000   0.97726621   -5.3008757     360.7737  0.044872351  0.045699898            5 
  671000   0.98340858   -5.2872982     362.9869   0.04508034  0.045674418            5 
  672000   0.99284364   -5.2954555    361.89122  0.044877384  0.045649116            5 
  673000   0.97136375   -5.2878851    363.51706  0.045012019  0.045624092            6 
  674000   0.98006072    -5.291438      363.465  0.044938798  0.045599213            4 
  675000   0.99020438   -5.2513945     364.8226  0.045039827  0.045574372            5 
  676000   0.98813697   -5.2942263    362.75328  0.044718106  0.045550066            6 
  677000   0.98875481   -5.2968686    364.68477  0.044889804   0.04552502            4 
  678000    1.0163093    -5.321184    364.16111  0.044759232   0.04549956            3 
  679000    0.9852407   -5.3041782    364.73921  0.044764262  0.045473732            4 
  680000   0.99243308   -5.2957977    364.13685  0.044624614  0.045448082            7 
  681000   0.97137492   -5.2962015     364.0891  0.044553242  0.045422307            2 
  682000   0.97130468   -5.3010615    364.85343  0.044581309  0.045395765            8 
  683000   0.99447797    -5.292591    365.52641  0.044598147  0.045369203            2 
  684000    1.0011728   -5.2967533    364.66771  0.044428327  0.045342741            2 
  685000   0.98830822   -5.3057687    366.37411  0.044571059  0.045316288            3 
  686000   0.98970717   -5.2987228    366.51505  0.044523208  0.045290431            7 
  687000   0.99779048   -5.3245738    365.99478   0.04439529  0.045264054            4 
  688000    0.9843505   -5.3607914    366.85332  0.044434753  0.045238166            6 
  689000   0.97158803   -5.3119774    367.03687  0.044392461  0.045212312            3 
  690000   0.97981768   -5.3194229    367.43618   0.04437635  0.045186621            4 
  691000   0.99615983   -5.3134623     368.0631  0.044387735  0.045161365            2 
  692000   0.98789011   -5.3044165     368.1842  0.044338174  0.045135652            7 
  693000   0.98240474   -5.3418601    367.52192  0.044194555  0.045109783            5 
  694000   0.99659564    -5.312913    368.22338  0.044215103  0.045083949            4 
  695000   0.96138527    -5.288048    370.90211  0.044472675  0.045058703            5 
  696000   0.97034897   -5.3400646    368.75704  0.044151944  0.045033689            2 
  697000    0.9892977   -5.3081284    371.59708  0.044428154  0.045008395            6 
  698000     0.971644   -5.3137664    372.66443  0.044491933  0.044983884            6 
  699000    0.9629598   -5.3260546       371.76  0.044320458  0.044959394            4 
  700000   0.95121524   -5.3463351    371.66373  0.044245683  0.044934654            2 
  701000   0.99331009    -5.324623    372.14603  0.044239898  0.044909899            3 
  702000   0.98049773   -5.3136135    373.62462    0.0443524   0.04488508            6 
  703000     1.002428   -5.3154909    373.72867  0.044301644  0.044860481            4 
  704000   0.94959964    -5.318912    373.26426  0.044183743  0.044836149            4 
  705000   0.96032189   -5.3386331    375.44808  0.044379206  0.044811985            4 
  706000   0.97448588   -5.3300141    373.77517  0.044118883  0.044787505            5 
  707000   0.96927353   -5.3180759    374.94505  0.044194372  0.044763651            2 
  708000   0.96960675   -5.3303543     375.1336  0.044154144  0.044739521            3 
  709000   0.96014232    -5.340677    376.20961  0.044218336  0.044715259            2 
  710000   0.99490555   -5.3379985    375.28637  0.044047696  0.044690673            4 
  711000   0.94657376   -5.3366871    375.10661  0.043964676  0.044665826            3 
  712000   0.96483325   -5.3378256    376.11025  0.044020395  0.044641246           11 
  713000   0.96574848   -5.3000294    377.46108  0.044116536   0.04461683            5 
  714000   0.97065207   -5.3182501    377.42752  0.044050832  0.044592239            4 
  715000   0.96676593   -5.2990397    376.73631  0.043908661  0.044567469            2 
  716000   0.95051707   -5.3262492    377.10801  0.043890597  0.044542825            4 
  717000   0.98119594   -5.3400832     378.1314  0.043948326  0.044517843            4 
  718000   0.95333365   -5.3340565     378.1295  0.043886896  0.044493048            4 
  719000   0.97187257   -5.2859406    378.03829  0.043815287  0.044468777            2 
  720000   0.97817575   -5.3397892    378.34088  0.043789454  0.044444449            2 
  721000   0.96106132   -5.3154828    379.35211  0.043845598  0.044419954            3 
  722000   0.95595289   -5.3252604     379.4181  0.043792486  0.044395069            3 
  723000   0.95964956   -5.3468446    379.68766  0.043762986  0.044369958            2 
  724000   0.96262141    -5.328342    378.50227    0.0435661   0.04434438            4 
  725000   0.97168577   -5.3371017    380.34962  0.043718347  0.044318497            4 
  726000   0.96311715   -5.3458421    380.35612  0.043658875  0.044293225            5 
  727000    0.9661494   -5.3027327    381.49428  0.043729284   0.04426806            4 
  728000   0.97031212   -5.3440343    379.29363  0.043417312  0.044242321            4 
  729000   0.96368935   -5.3517513    380.30989  0.043473924  0.044217053            4 
  730000   0.95831172   -5.3214616    380.93905  0.043486193   0.04419174            6 
  731000   0.96973858   -5.3581596    382.59503  0.043615484  0.044166178            5 
  732000   0.97213994   -5.3344317     381.9635  0.043484005  0.044140447            4 
  733000   0.95807327   -5.3287366    382.87486  0.043528292  0.044115622            6 
  734000   0.96030856   -5.3433182    383.58245  0.043549325  0.044090572            2 
  735000   0.94204116   -5.3535921    382.88216  0.043410676  0.044065898            5 
  736000   0.98186796   -5.3604446    382.70498  0.043331632  0.044041642            5 
  737000   0.95094583   -5.3450275    384.17443  0.043438991  0.044017143            2 
  738000   0.94437624   -5.3242948    384.69253  0.043438632   0.04399257            2 
  739000   0.96834945   -5.3244829    384.53407  0.043361983  0.043968373            8 
  740000   0.95783265   -5.3589211    384.13931  0.043258931  0.043943657            8 
  741000   0.96427836   -5.3661515    384.88526  0.043284442  0.043918788            7 
  742000   0.95177509   -5.3335621    386.01755  0.043353274  0.043894259            3 
  743000   0.94035576   -5.3320024    385.35624  0.043220754  0.043869232            4 
  744000   0.96174087   -5.3552954    386.15667  0.043252315  0.043843953            3 
  745000   0.96619331   -5.3654965    385.61318  0.043133465  0.043818775            3 
  746000   0.96596181   -5.3291847    386.44885  0.043168995  0.043793501           10 
  747000   0.95300562   -5.3497867    388.61754   0.04335314  0.043768462            5 
  748000   0.93577297   -5.3804831    387.27844  0.043145994  0.043743227            4 
  749000   0.95010515   -5.3175455    388.61306  0.043236878  0.043717885            4 
  750000   0.96318213   -5.3312274    387.55677  0.043061863  0.043692662            4 
  751000   0.96157464   -5.3413553    388.92954  0.043156851  0.043667551            6 
  752000   0.95922182   -5.3435801    388.89824  0.043095993  0.043642403            3 
  753000   0.94866662   -5.3505907    389.04113  0.043054573   0.04361749            4 
  754000     0.944523   -5.3562787    390.59431  0.043169133  0.043592522            3 
  755000   0.92838089   -5.3478086    390.09299  0.043056622  0.043568333            5 
  756000   0.95912123   -5.3505913    390.21741  0.043013383  0.043543809            8 
  757000   0.95273389   -5.3963672    389.50677  0.042878332  0.043519035            3 
  758000   0.94265493   -5.3692051    389.44235  0.042814682  0.043494311            3 
  759000   0.94924003   -5.3721979    390.13684  0.042834523  0.043469472            7 
  760000   0.92972674   -5.3459802    390.66536  0.042836114  0.043444907            4 
  761000   0.94609025   -5.3400204     391.8623  0.042910896  0.043420244            3 
  762000   0.95781312   -5.3619395    391.25347  0.042787999  0.043395682            4 
  763000    0.9517621   -5.3393773    392.64526   0.04288393  0.043371129            4 
  764000   0.95524657   -5.3656335    392.43309  0.042804656  0.043346946            3 
  765000   0.94893713   -5.3427231     395.5406  0.043087211  0.043323007            4 
  766000   0.96337908    -5.386293    394.27271  0.042893028  0.043298878            7 
  767000   0.95762994   -5.4033734    392.83595  0.042681003  0.043274754            4 
  768000   0.96308041   -5.3538353     395.0535  0.042866048  0.043250744            4 
  769000   0.91678215   -5.3456473      394.328  0.042731687  0.043226575            8 
  770000   0.93419633   -5.3480047    395.74784  0.042829853  0.043202459            4 
  771000    0.9325233   -5.3765635    396.01968  0.042803683  0.043178686            7 
  772000   0.96300436   -5.3690137    397.21598  0.042877373  0.043155108            4 
  773000   0.95759847   -5.3383835    396.03162  0.042694224  0.043131371            3 
  774000   0.93131158   -5.3747834    396.75461  0.042716905  0.043107458            6 
  775000   0.93290492   -5.3881487    395.70033  0.042548423  0.043083269            7 
  776000   0.95044336   -5.3530237    395.80694  0.042505041  0.043058973            5 
  777000   0.95010997   -5.4013204    397.33981  0.042614737  0.043034712            3 
  778000   0.94743256   -5.3976559     396.9353  0.042516635  0.043010702            5 
  779000   0.93733448   -5.3804013     398.8308  0.042664827  0.042987179            4 
  780000   0.94439677   -5.3678301    398.76107  0.042602679  0.042963808            5 
  781000   0.94710642   -5.3769277     398.9148  0.042564533  0.042940338            3 
  782000    0.9252707   -5.3872061     399.3154  0.042552792  0.042916885            5 
  783000   0.94125006   -5.4000421    398.29631  0.042389986  0.042892747            8 
  784000   0.93212706   -5.3648758    401.13562  0.042637715  0.042869517            7 
  785000   0.96138852   -5.3880641     399.3324  0.042391974  0.042846057            7 
  786000   0.91560368   -5.4018281    399.04354  0.042307415  0.042822101            8 
  787000   0.94582356   -5.3585517    400.12745   0.04236843  0.042798414            3 
  788000   0.94471409   -5.3976495    399.22787   0.04221953  0.042774404            3 
  789000   0.94136755   -5.3827893     401.5241  0.042408545  0.042750535            4 
  790000   0.92785948   -5.3797613    401.01445  0.042301102  0.042726577            5 
  791000   0.94958957   -5.4003203    400.70722  0.042215257  0.042702581            4 
  792000   0.92040022   -5.3712069    401.38826  0.042233613  0.042678792            7 
  793000   0.94360667   -5.4053013    403.02357  0.042352204  0.042654498            7 
  794000   0.93440076    -5.413484    401.87476  0.042178291  0.042630692            5 
  795000    0.9317463   -5.3996753    403.00716  0.042243937     0.042607            5 
  796000    0.9446215   -5.3786178    403.71611  0.042265087  0.042583482            4 
  797000   0.93035805   -5.3942676    403.14741  0.042152594  0.042560376            4 
  798000   0.95364724   -5.4095057    402.83399  0.042067042  0.042537027            3 
  799000   0.93004984   -5.4114592     404.3789  0.042175521  0.042513419            6 
  800000   0.94775964   -5.3862629    404.73116  0.042159496  0.042489632            5 
  801000   0.93671797   -5.3964904    405.11131  0.042146411  0.042466325            9 
  802000    0.9161501   -5.3854982    406.03822  0.042190172  0.042443071            5 
  803000   0.94551493   -5.4016936    404.57721  0.041986012  0.042420008            5 
  804000   0.92521806    -5.431985    404.81412  0.041958346  0.042396684            4 
  805000   0.94040971   -5.4007013    407.69351  0.042204297  0.042373616            6 
  806000   0.92849869   -5.3996902    406.92658  0.042072641  0.042350501            7 
  807000   0.92469885   -5.4185995    407.08718   0.04203709  0.042327435            4 
  808000   0.91909434   -5.4358894    406.70363  0.041945506  0.042304275           12 
  809000   0.92097532   -5.4330863    408.36194  0.042064476  0.042281101            4 
  810000   0.93111749   -5.4177096    408.07068   0.04198258  0.042258146            3 
  811000   0.92698247   -5.4103918    407.25606  0.041847108  0.042235108            6 
  812000   0.93461523   -5.4190393    408.51054  0.041924317  0.042211249            3 
  813000   0.94852868   -5.3622905     408.9224  0.041914965  0.042187692            4 
  814000   0.94008889   -5.3600956    408.94817  0.041866111  0.042164501            7 
  815000   0.91498684   -5.4062671    410.06768   0.04192921  0.042141181           11 
  816000   0.93317035   -5.4133337    409.89097  0.041859781  0.042117972            3 
  817000   0.91761899   -5.4057701    409.28041  0.041746268  0.042093823            6 
  818000   0.92241542   -5.4124896    408.94831  0.041661401  0.042070492            7 
  819000    0.9212281   -5.4546897     409.2548  0.041641718  0.042047069            4 
  820000    0.9201874   -5.3817978    409.60897  0.041626927  0.042023642            3 
  821000   0.92314784   -5.4124057     410.1589  0.041632044  0.042000519            6 
  822000   0.92802013   -5.4289389    410.48388  0.041614343  0.041976997            2 
  823000   0.95035351   -5.4254808    410.18132  0.041533143  0.041953783            2 
  824000   0.91748125   -5.4110073    412.70974  0.041738445  0.041930602            6 
  825000   0.92008467   -5.4279143    411.83267   0.04159926  0.041907384            3 
  826000   0.92044403   -5.3712243    412.56631  0.041622913  0.041884727            7 
  827000   0.92164298   -5.4220088    413.47152  0.041663797  0.041861981            5 
  828000   0.91853138    -5.413556    412.95293  0.041561285  0.041839069            3 
  829000    0.9317758   -5.4291915    413.98033  0.041614428  0.041816594            7 
  830000   0.92210954   -5.4203235    414.26526  0.041592897  0.041793845            5 
  831000   0.91926887   -5.4439095    413.88162  0.041504374  0.041771468            6 
  832000   0.93241649    -5.373177     416.4804  0.041714784  0.041749115            6 
  833000   0.93072138   -5.4408743    415.77517  0.041594155  0.041726921            5 
  834000   0.90055239   -5.4305915    415.34741   0.04150154   0.04170457            7 
  835000    0.9214872   -5.4144226    416.31131  0.041548035  0.041682616            3 
  836000   0.90962071   -5.4618081    414.81763  0.041349445   0.04166018           11 
  837000    0.9076408   -5.4206378    416.16957  0.041434645  0.041637815            3 
  838000    0.9117815   -5.4272169    417.40389  0.041507945  0.041615806            3 
  839000   0.89557469   -5.4002712    418.60217   0.04157749  0.041593871            5 
  840000   0.92815958   -5.4466915    417.70031  0.041438523   0.04157202            8 
  841000   0.88908844   -5.4093323    417.11798  0.041331548  0.041549968            4 
  842000   0.92338053   -5.4203749    418.74155  0.041443146  0.041527786            3 
  843000   0.93090291    -5.418154    418.15365  0.041335869  0.041505742            7 
  844000   0.90780605   -5.4262843    418.94183  0.041364714  0.041483827            3 
  845000   0.91072063   -5.4577464    418.26538  0.041249051   0.04146163            6 
  846000   0.90727293   -5.4319749    420.54672  0.041425012  0.041439342            4 
  847000   0.90752133    -5.425428    419.81302  0.041303918  0.041417024            4 
  848000   0.91551878   -5.4214384    420.88431  0.041360487  0.041394788            3 
  849000    0.9061775   -5.4527321    420.79274  0.041302782  0.041372872            4 
  850000   0.91839867   -5.4652219    420.30187  0.041206065  0.041350264            4 
  851000   0.88835017   -5.4498755    421.21955  0.041247508  0.041327775            4 
  852000   0.93032519   -5.4713231    420.09899  0.041089494  0.041305557            5 
  853000   0.90867567    -5.489842    419.57819  0.040990444  0.041283405            4 
  854000   0.90409612   -5.4225104    422.76693  0.041253604  0.041260948            4 
  855000   0.90786703   -5.4343088    421.54693  0.041086446  0.041238808            7 
  856000   0.90611929   -5.4242913    422.75487  0.041156043  0.041216832            9 
  857000   0.90150348   -5.4371108    422.44965   0.04107834  0.041194627            5 
  858000   0.91919632   -5.4628795    421.15589  0.040904806  0.041172578            2 
  859000    0.8847617   -5.4513018    423.74317  0.041108185  0.041150793            3 
  860000   0.90659116   -5.4606486    423.00258  0.040988623  0.041129228            5 
  861000   0.90446089   -5.4343209    423.86317   0.04102431  0.041107606            5 
  862000   0.91579239    -5.432901    424.53103  0.041041282  0.041086101            9 
  863000   0.91634256   -5.4499019    424.89769  0.041029132  0.041064861            3 
  864000    0.9166465   -5.4271617      424.892  0.040981096  0.041043817            4 
  865000   0.92389201   -5.4266661    426.01289  0.041041704  0.041022574            4 
  866000   0.91690886   -5.4413109    425.43556  0.040938757  0.041001423            5 
  867000   0.90677047   -5.4594084    426.02747  0.040948431  0.040979863            3 
  868000   0.89246736   -5.4900144    424.21525  0.040727271  0.040958264           11 
  869000   0.91849311   -5.4788236    425.10795   0.04076601  0.040936576            3 
  870000   0.92381363   -5.4642535    427.08462  0.040908489  0.040914366            5 
  871000   0.89170218   -5.4786827    426.07974  0.040765378    0.0408922            7 
  872000   0.89768201   -5.4670086    427.01376   0.04080789  0.040870421            2 
  873000   0.90665138   -5.4649656    427.25192  0.040783879    0.0408486            3 
  874000   0.90495388   -5.4460806    426.22987  0.040639766  0.040826995            4 
  875000   0.89774621   -5.4741555    427.94907  0.040757055  0.040805161            2 
  876000   0.90416396   -5.4580593    426.62462  0.040584534  0.040783433            5 
  877000    0.9042169   -5.4236289    430.39551   0.04089657  0.040761563            2 
  878000    0.8895636   -5.4477379    428.91705  0.040709667  0.040739893            9 
  879000   0.89101454   -5.4338327    429.41805   0.04071085  0.040718618            4 
  880000   0.89955573   -5.4474909    429.44361  0.040667008  0.040697171            6 
  881000   0.91069159   -5.4762219    428.71464  0.040551896  0.040675603            6 
  882000   0.92041834   -5.4728665    430.36011  0.040661386  0.040654025            5 
  883000   0.89700625   -5.4732871    429.10986  0.040497344  0.040631963            9 
  884000   0.89199617   -5.4484678    429.79539  0.040516157  0.040609459            2 
  885000   0.89529991   -5.4835756    428.92027  0.040387972  0.040586977            5 
  886000   0.89222801    -5.514663    429.03389  0.040353074  0.040564403            7 
  887000   0.90878837   -5.4787179    429.37413  0.040339546  0.040542168            5 
  888000   0.88881798   -5.4413844    431.19162  0.040464679  0.040520289            4 
  889000    0.8907751   -5.4914969    430.18337  0.040324651  0.040498222           17 
  890000   0.88448679   -5.5010697    430.52691  0.040311508  0.040475911            3 
  891000   0.89932259   -5.4720751    431.60809  0.040367386  0.040453292            5 
  892000   0.89565827   -5.4544965    430.63373  0.040231103  0.040431299            6 
  893000   0.90620697   -5.4394254    432.08093  0.040321102  0.040409032            3 
  894000   0.88478032   -5.4673105    430.72174  0.040149305  0.040386645            5 
  895000   0.89740995   -5.4534456    431.55304  0.040181848  0.040364435            5 
  896000   0.90383775   -5.4736073    430.59481   0.04004788  0.040341825           10 
  897000   0.90851006   -5.4794563    432.98303  0.040225105  0.040319321            5 
  898000   0.87664433   -5.4741624    432.50024  0.040135508  0.040296827            3 
  899000    0.8786735   -5.4811741    431.88124  0.040033485  0.040274996            4 
  900000   0.89999305   -5.4943222    433.36456  0.040126348  0.040252924            5 
  901000   0.88720046   -5.4996437    433.70516  0.040113315  0.040230599            5 
  902000   0.90721415   -5.4825254    433.86865  0.040083947  0.040208452            3 
  903000   0.88668102   -5.5064348    433.06683  0.039965562  0.040185861            4 
  904000   0.89041266   -5.4920741    433.22292  0.039935742  0.040163532            5 
  905000   0.90155019   -5.5135267    434.04704  0.039967499  0.040141182            5 
  906000     0.911419   -5.4751608    434.87323  0.039999377  0.040118901            4 
  907000    0.8762415   -5.5117486    434.56609  0.039927057  0.040096849            4 
  908000   0.90594594   -5.5258455    433.28773  0.039765761  0.040074757            2 
  909000   0.87578572   -5.5058705    434.70072  0.039851551  0.040052625            6 
  910000   0.90278954   -5.4885162    436.80151  0.040000138  0.040030492           13 
  911000   0.91846464   -5.4713197    436.33245  0.039913323  0.040008362            6 
  912000   0.90283059   -5.4832619    435.82992  0.039823641  0.039986247            6 
  913000   0.90700427   -5.4744659     436.7896  0.039867616  0.039963769            2 
  914000   0.89743796   -5.4963952    436.73757  0.039819253  0.039941116            3 
  915000   0.90588283   -5.4886676    436.01227  0.039709679  0.039918628            2 
  916000   0.88126118   -5.5019482    436.33295  0.039695502  0.039896239            5 
  917000   0.90586007   -5.5066897    437.80247  0.039785757  0.039873926           10 
  918000   0.87094376   -5.4904241    438.46854  0.039802882  0.039851873            7 
  919000   0.87287068   -5.5041914    437.74885  0.039694309   0.03982949            4 
  920000   0.87945903   -5.5243583    438.29158  0.039700324  0.039806982            4 
  921000   0.88081839   -5.4912119    436.89124  0.039530514  0.039784758            3 
  922000   0.87660195   -5.5443199    436.81709  0.039480938  0.039762299            4 
  923000   0.88190213   -5.4864532    436.77288  0.039434171  0.039739872            4 
  924000   0.87785982   -5.4730511    438.25589  0.039525243  0.039717503           10 
  925000   0.87674155   -5.4663478    440.61285  0.039694851  0.039695063            8 
  926000   0.88502082   -5.5017021    439.42287  0.039544894  0.039672864            9 
  927000   0.89271843   -5.4966544    440.10758  0.039563788  0.039650667            2 
  928000   0.89231301   -5.4999082    440.29171   0.03953769  0.039628437            5 
  929000   0.87228807   -5.4964577    440.00013  0.039468975  0.039606152            5 
  930000    0.8941468   -5.5174824    440.36915  0.039459601  0.039584006           11 
  931000   0.88743857     -5.51853    440.48304  0.039427411  0.039561993           16 
  932000   0.87596752   -5.5099451    442.16535  0.039535528  0.039539642            3 
  933000   0.87542641   -5.5167897    441.33064    0.0394186  0.039517703            7 
  934000   0.89127341   -5.5388854    441.83941  0.039421789   0.03949597           14 
  935000   0.88536676   -5.5198512    443.10069  0.039492041  0.039474271            6 
  936000   0.89155945   -5.5171883    442.23343  0.039372635  0.039452575            4 
  937000   0.87964041   -5.5209746     442.3404  0.039340128  0.039430624           12 
  938000   0.90254229   -5.5096146    443.05267  0.039361467  0.039408909            8 
  939000   0.89255184   -5.5205337    442.99599  0.039314518  0.039386834            8 
  940000   0.89499942   -5.5344798    442.80171   0.03925547  0.039364636            7 
  941000   0.88422895    -5.498962    442.35498  0.039174193   0.03934234            3 
  942000   0.85740636    -5.513393    443.16784  0.039204515   0.03932014            5 
  943000   0.87771482   -5.5336593    443.63116  0.039203885  0.039297888            7 
  944000   0.89632353   -5.5123512    443.56908  0.039156875  0.039275667            4 
  945000    0.8885482   -5.5179643    443.31682  0.039093194  0.039253419            5 
  946000   0.88507058   -5.5143627    443.95542  0.039108124  0.039231102            3 
  947000   0.87025605   -5.5090442    444.59131  0.039122784   0.03920888            9 
  948000   0.87525125   -5.5280646    444.69049  0.039090233  0.039186496            8 
  949000    0.8822379   -5.5204679    444.69308  0.039049269  0.039164141            4 
  950000   0.89703799   -5.5270176    443.47987  0.038901743  0.039141778            3 
  951000   0.85726392   -5.5654371    443.22229  0.038838266  0.039119238            5 
  952000   0.88955771   -5.5140611    444.88303  0.038942842  0.039096779            7 
  953000   0.89539804   -5.5419659    445.04759  0.038916369  0.039074574            5 
  954000    0.8889109   -5.5258896    446.18413  0.038974854    0.0390524            5 
  955000   0.88053387    -5.534425    446.16321  0.038932218  0.039030368            4 
  956000    0.8661595   -5.5536176    445.38176  0.038823375  0.039008077            3 
  957000    0.8681957   -5.5044466    446.14242  0.038849044  0.038985852            6 
  958000   0.87525044   -5.5403072    447.35534     0.038914  0.038963607            9 
  959000    0.8568587   -5.5264229    447.78415  0.038910684   0.03894156            9 
  960000   0.88645994   -5.5397095    448.13832  0.038900896  0.038919577            2 
  961000   0.86865103   -5.5403386    446.36812  0.038706913  0.038897421            6 
  962000   0.86755476   -5.5441895    447.61202   0.03877443  0.038875193            8 
  963000   0.87471248   -5.5233607    449.10452  0.038863319  0.038853074            6 
  964000   0.85232154   -5.5406834    448.22911   0.03874733  0.038831035            9 
  965000   0.87206762   -5.5339381    447.57434  0.038650634  0.038808761            3 
  966000   0.88398593   -5.5457736    448.37971    0.0386801  0.038786348            2 
  967000   0.86807998   -5.5715151    446.89569  0.038512211  0.038763734            9 
  968000   0.88763364   -5.5307776    448.30565  0.038593806  0.038740984            8 
  969000   0.86491464   -5.5148485    448.90002  0.038605093  0.038718573            4 
  970000   0.85614207   -5.5202172    449.46529  0.038613857   0.03869609            6 
  971000   0.85298609   -5.5185129     448.8357  0.038520057  0.038673354            6 
  972000   0.86060662   -5.5290135    449.80323  0.038563377  0.038650826            4 
  973000   0.87262592   -5.5526786    448.09515  0.038377454  0.038628158            6 
  974000   0.86180273   -5.5884546    449.21851  0.038434164  0.038605547            6 
  975000   0.86102271   -5.5653597    450.37896  0.038493928  0.038582894            5 
  976000   0.85221947   -5.5795309    449.61263  0.038389056  0.038560437           10 
  977000   0.87881891   -5.5430069    450.19648  0.038399563  0.038537843            4 
  978000    0.8662465   -5.5216386      452.425  0.038550188  0.038515484            7 
  979000   0.85554459   -5.5411745    448.73485  0.038196701  0.038492939            5 
  980000   0.84753086   -5.5477465    449.55936  0.038227836  0.038470206            4 
  981000   0.88390567   -5.5346334    451.09721  0.038319504  0.038447581            2 
  982000    0.8666734   -5.5220487    451.42011  0.038307884  0.038424856            5 
  983000   0.87122436   -5.5442686    451.10467  0.038242172  0.038402325            7 
  984000   0.88732791   -5.5520653    451.70673  0.038254296  0.038379723            8 
  985000   0.85708225    -5.545593    451.28445  0.038179733  0.038356829            4 
  986000     0.842106   -5.5580252    452.84742  0.038273109  0.038334535            5 
  987000   0.87336126    -5.558666    452.86597  0.038235898  0.038312356            6 
  988000   0.87787089    -5.579343    451.88628  0.038114565  0.038289759            3 
  989000   0.84936963   -5.5693809    452.14193  0.038097567  0.038267254            8 
  990000   0.86400417   -5.5735667    453.83225  0.038201368  0.038244778            8 
  991000   0.86422066   -5.5515447    454.79006  0.038243362  0.038222743            4 
  992000   0.85730955   -5.5812487    454.36645  0.038169224   0.03820062            3 
  993000   0.85008167   -5.5708808    453.11844  0.038026052  0.038178295            6 
  994000   0.85807138   -5.5451973     454.2609  0.038083576  0.038155957            4 
  995000   0.84511775   -5.5759214    453.78546  0.038005482  0.038133445            5 
  996000   0.85722166    -5.562978     453.6368  0.037954887  0.038110771            6 
  997000    0.8712104   -5.5645283    453.92895  0.037941236  0.038088504            4 
  998000   0.85003411   -5.5656929    454.19317  0.037925281  0.038066117            8 
  999000   0.87588237   -5.5706351     454.7263   0.03793179  0.038043942            5 
 1000000   0.85209212   -5.5914254    454.24745  0.037853954  0.038021793            6 
 1001000   0.82950971   -5.5787976    455.04529  0.037882558   0.03799932            5 
 1002000   0.86220589   -5.5367135    456.68979   0.03798152  0.037977439            7 
 1003000   0.83681728   -5.5424592    455.46389  0.037841799  0.037955494            5 
 1004000   0.85833881   -5.5637242    456.57033  0.037895944  0.037933797            7 
 1005000   0.86954528   -5.5889488    456.52213   0.03785424  0.037911749            6 
 1006000   0.85577701    -5.587306    456.12061  0.037783351  0.037889451           10 
 1007000   0.87332613   -5.5878745    456.88429  0.037809028  0.037867307            7 
 1008000   0.84878406   -5.5564896    457.97348  0.037861564  0.037845292            9 
 1009000   0.83754208   -5.5535663    457.95653   0.03782264  0.037823323            5 
 1010000   0.88279056   -5.6093361    455.32503  0.037568072  0.037800897            9 
 1011000   0.85555908   -5.5863408    458.02394  0.037753375  0.037778984            4 
 1012000   0.83838159   -5.5868107    458.09834  0.037722195  0.037757072            4 
 1013000   0.86839341   -5.5857198    457.18985  0.037610221  0.037734955            8 
 1014000   0.86249073   -5.6022754    456.94052  0.037552639  0.037712645            7 
 1015000   0.85168331   -5.5426997    458.23372  0.037621816  0.037690614            4 
 1016000    0.8487827   -5.5977911    457.17568  0.037498005  0.037668249            6 
 1017000   0.83910526   -5.6287004    457.56512  0.037493045  0.037645674            4 
 1018000   0.84044494   -5.5879311    457.46983  0.037448414  0.037623309            3 
 1019000   0.84597657   -5.6123786    458.96965  0.037534319  0.037600983            9 
 1020000   0.85653148   -5.5865361    458.60318   0.03746758  0.037578491            4 
 1021000   0.85048844   -5.5717929    458.64413  0.037434226   0.03755595            7 
 1022000   0.86009185   -5.5939378     459.5488  0.037471363   0.03753352            3 
 1023000   0.84770834   -5.5928188    459.12419  0.037400146  0.037511178           12 
 1024000   0.83302944   -5.5846422    459.41833  0.037387559  0.037488915            5 
 1025000   0.82116954   -5.5837609    458.98752  0.037316058   0.03746612            9 
 1026000   0.83703717   -5.6094444    459.82975  0.037348095  0.037443328            5 
 1027000     0.839611   -5.6032381    458.59196  0.037211292  0.037420671            8 
 1028000    0.8307311   -5.5997554    459.00488  0.037208567  0.037397834            7 
 1029000   0.83187288   -5.6005572    458.75848  0.037152452  0.037375188            4 
 1030000   0.85291597   -5.6127365    459.01335  0.037137002  0.037352398            5 
 1031000   0.82760657    -5.610774    459.10813  0.037108643  0.037329583            8 
 1032000   0.83155258   -5.5900301    460.74593  0.037204936  0.037306893            3 
 1033000   0.84701583   -5.6019908    460.58009  0.037155541  0.037284456            4 
 1034000   0.84475433   -5.5904633    460.97756   0.03715164  0.037261766            4 
 1035000   0.82060479   -5.6138947     460.0986  0.037044976  0.037238945            4 
 1036000   0.85163912   -5.5840565     461.8109  0.037146951  0.037216451            5 
 1037000   0.84640669   -5.5890816    462.64051  0.037177797  0.037194279            5 
 1038000   0.84988365   -5.6038365    461.30833   0.03703503  0.037172052            4 
 1039000   0.82378608    -5.582993    462.23509  0.037073716  0.037149809            5 
 1040000   0.82841022   -5.6057459    462.49277  0.037058715  0.037127583            8 
 1041000   0.83638742   -5.6045885    462.91814  0.037057168  0.037105305            6 
 1042000   0.84323255   -5.6144215    461.64997  0.036920183  0.037083168            6 
 1043000   0.85464345   -5.6127489    463.90725  0.037065137  0.037061044            6 
 1044000    0.8477539   -5.6096631    462.99845  0.036957092  0.037038957            8 
 1045000     0.842194   -5.5965927    462.82908   0.03690822  0.037016876            5 
 1046000   0.84651196   -5.6307629    463.33541  0.036913274  0.036994673            8 
 1047000   0.85044107   -5.6083317    463.36761  0.036880581  0.036972663            6 
 1048000   0.83848016   -5.6139166    462.97269  0.036813986  0.036950357            8 
 1049000   0.83906632   -5.6017226    464.11567  0.036869691  0.036928317            5 
 1050000    0.8467558   -5.6059791    464.44138  0.036860427  0.036906118            7 
 1051000   0.83063282   -5.6337231    462.83384  0.036697894  0.036883797            8 
 1052000   0.81460845   -5.6045545    465.14858   0.03684637  0.036861394            4 
 1053000   0.82122711   -5.5992597    465.20661  0.036815971  0.036839214           11 
 1054000   0.81915574    -5.605921    465.05034  0.036768686  0.036817222           19 
 1055000   0.81854026   -5.6504732    463.70234  0.036627357  0.036795056            6 
 1056000   0.82439327   -5.6338159    464.63303  0.036666117  0.036772666            5 
 1057000   0.84436028   -5.6020271    464.23909   0.03660037  0.036750537            8 
 1058000   0.82984521    -5.616813    464.46188  0.036583324  0.036728484            6 
 1059000   0.82376945   -5.6108034    466.67863  0.036723216  0.036706315            9 
 1060000   0.82457793   -5.6320834    465.74328  0.036615038  0.036684111            8 
 1061000   0.84052008   -5.6422684    465.06842  0.036527523  0.036661923            4 
 1062000    0.8348807   -5.6015147    467.48902  0.036683068  0.036639954            4 
 1063000   0.82543288   -5.6519853    466.03541  0.036534604  0.036617659            7 
 1064000   0.84357987   -5.6261342    465.26088  0.036439605  0.036595649            6 
 1065000    0.8429209   -5.6187747    465.92672   0.03645749  0.036573351            5 
 1066000   0.81152037    -5.645613    466.79966  0.036491531  0.036551132            6 
 1067000   0.81397936   -5.6082078    467.14481  0.036484287  0.036529087            6 
 1068000    0.8342804   -5.6331985    465.68916  0.036336545   0.03650714            7 
 1069000   0.82178461    -5.632993    465.82262  0.036312958  0.036484949            8 
 1070000   0.83696351   -5.6438335    467.14694   0.03638216  0.036462451            4 
 1071000   0.83604208   -5.6395614    467.35956  0.036364734   0.03644022            5 
 1072000   0.83183816   -5.6478901    467.45523  0.036338249  0.036417968            7 
 1073000   0.84078789    -5.624058    468.74774  0.036404764  0.036395643            5 
 1074000   0.81319557   -5.6424345    469.32537  0.036415686  0.036373394            5 
 1075000   0.81548805   -5.6487747    467.12566  0.036211291   0.03635103            3 
 1076000   0.83564027   -5.6405124    468.43943  0.036279386  0.036328548            9 
 1077000   0.80989059   -5.6333445    467.64739  0.036184416  0.036306146            5 
 1078000   0.82547265   -5.6418473    468.30924  0.036202013  0.036283818            6 
 1079000   0.81190921    -5.617463    468.62727  0.036193023  0.036261465            4 
 1080000   0.82147215    -5.603992    468.37069  0.036139714  0.036238994            7 
 1081000   0.83670291   -5.6477786    466.52942   0.03596434  0.036216223            5 
 1082000   0.82111963   -5.6504119    468.02583  0.036046352  0.036193428           10 
 1083000   0.82399572   -5.6565043    467.76937  0.035993334  0.036170886            4 
 1084000   0.83629864   -5.6365683     467.5472  0.035943051  0.036148251            8 
 1085000   0.81368965   -5.6492477    470.07815  0.036104313  0.036125974            5 
 1086000   0.82049245   -5.6597379    469.56747  0.036031881  0.036103472            7 
 1087000   0.82213342   -5.6465539    469.88402  0.036023001  0.036081256            7 
 1088000   0.83775308   -5.6521805    470.15965  0.036011003  0.036059107            4 
 1089000   0.83310365   -5.6520294    469.96107  0.035962739  0.036037133            4 
 1090000   0.84022659   -5.6419472    470.62012  0.035980131  0.036015281            7 
 1091000   0.82455664   -5.6582235    470.11183  0.035908328  0.035993192            8 
 1092000   0.80996369   -5.6640092    470.65115  0.035916602  0.035971066            7 
 1093000    0.8078286   -5.6254537    471.94254  0.035982201   0.03594907            3 
 1094000   0.81146108   -5.6509866    472.10862  0.035961961  0.035927297            5 
 1095000   0.80440251   -5.6548462    472.97235  0.035994852  0.035905538           10 
 1096000   0.79732073     -5.67296    472.10474  0.035896041  0.035883705            8 
 1097000   0.80849322   -5.6636215     472.1957   0.03587023  0.035861692           15 
 1098000   0.80970516   -5.6379211    471.80701  0.035808061  0.035839749           10 
 1099000   0.82113999   -5.6800288     471.2108   0.03573027   0.03581776           12 
 1100000   0.80329356   -5.6358076    472.52904  0.035797654  0.035796011            6 
 1101000   0.81506921   -5.6536893    473.18299  0.035814637  0.035774214            6 
 1102000   0.81608625   -5.6723537    471.46305  0.035652076  0.035752442            7 
 1103000   0.81269418   -5.6627835    472.80583  0.035721202  0.035730427            6 
 1104000   0.82737293   -5.6377404    472.75708  0.035685166    0.0357085            5 
 1105000   0.81831787    -5.664506    472.55147  0.035637366  0.035686509            6 
 1106000   0.81017636   -5.6379759    472.85669  0.035628141   0.03566457           12 
 1107000   0.82177584   -5.6654549    472.93499  0.035601851  0.035642622            4 
 1108000   0.81232509   -5.6676335    472.97811  0.035572963  0.035620795            6 
 1109000   0.82321879   -5.7055455    473.31744  0.035566384  0.035599129           11 
 1110000   0.79330094   -5.6691567    474.93759  0.035655975  0.035577495            4 
 1111000   0.78986716   -5.6683405    475.73978  0.035684052  0.035555987            7 
 1112000   0.81768763   -5.7074389    474.24031  0.035539591  0.035534435            6 
 1113000   0.82092852   -5.6818493    475.44958  0.035598201  0.035512685            3 
 1114000   0.81084699   -5.6928769    475.09351   0.03553961  0.035490882           10 
 1115000   0.80599131   -5.6703548    474.36236  0.035453091  0.035469204           10 
 1116000   0.79554486   -5.6570526    474.61214  0.035439975  0.035447343           12 
 1117000   0.80833301   -5.6761185    474.06187  0.035367194  0.035425406            7 
 1118000   0.80887844   -5.6810175    475.76866   0.03546278  0.035403445            7 
 1119000   0.78389655   -5.6715456    476.04943  0.035451998  0.035381487            5 
 1120000   0.80401088   -5.6699461    476.18351  0.035430321  0.035359717            3 
 1121000   0.81965907   -5.6729275    475.67634  0.035361012  0.035337961            5 
 1122000   0.80927746   -5.6745573    475.56368  0.035321129  0.035316207           11 
 1123000    0.8040957   -5.6433678    477.32649  0.035420488  0.035294395            7 
 1124000   0.81031758   -5.6595702    476.89586  0.035357048  0.035272834            5 
 1125000    0.8229905   -5.6776663    475.58075  0.035228204  0.035251088            7 
 1126000   0.81078752   -5.6843981    478.32572  0.035400068  0.035229278            8 
 1127000   0.79555907   -5.6930581    474.50109  0.035085854  0.035207332            6 
 1128000   0.78954652   -5.6947476    476.66499  0.035214612   0.03518547           11 
 1129000   0.79397725   -5.7112739    476.79472  0.035192997  0.035163565           10 
 1130000   0.79992879   -5.6751947    477.73793  0.035231411  0.035141628            4 
 1131000   0.81655604   -5.7218609    475.44191  0.035031087  0.035120035           11 
 1132000    0.8022886     -5.68363    476.95459  0.035111498  0.035098195            3 
 1133000   0.81549004   -5.6933063    477.64844  0.035131542  0.035076287            4 
 1134000   0.80724987   -5.6963936    476.21821  0.034995459  0.035054421           11 
 1135000    0.7956027   -5.7048028    477.50388  0.035059022  0.035032516           10 
 1136000    0.8157405   -5.6859003    476.62163  0.034963441  0.035010645            6 
 1137000   0.80495504   -5.6768323    478.48814  0.035069492  0.034988943           14 
 1138000    0.7967217   -5.7045303    478.12227  0.035011883  0.034967065           13 
 1139000     0.797449   -5.6836353    478.45306  0.035005346  0.034945336            8 
 1140000   0.79812302   -5.6994471    478.58232  0.034984087  0.034923622            8 
 1141000   0.79497792   -5.6695389    479.34466  0.035009105  0.034901985            6 
 1142000   0.79590231   -5.6788159    478.70271  0.034931604  0.034880603           10 
 1143000   0.80158939   -5.7340771    477.99487  0.034849437  0.034859113            9 
 1144000    0.8202527   -5.6852162    479.32535  0.034915891  0.034837533            5 
 1145000    0.7971304   -5.7233749    480.31976   0.03495777  0.034816067           16 
 1146000   0.79786807   -5.6881689    479.61688  0.034876155  0.034794663            7 
 1147000   0.77971464   -5.6781025    480.77343  0.034929776  0.034773252            8 
 1148000   0.78391017    -5.677762    481.16433  0.034927724  0.034752059            7 
 1149000   0.78097744   -5.6862227    480.06388  0.034817514  0.034730814           11 
 1150000   0.79600338   -5.7242859    480.29659    0.0348041  0.034709302            8 
 1151000   0.78666639   -5.7260612    479.48957  0.034715433  0.034687736            3 
 1152000   0.77282139   -5.7211228    479.71776  0.034701806  0.034666048            4 
 1153000   0.79807403   -5.7082585     480.5806  0.034734071  0.034644226            9 
 1154000   0.78998562   -5.7135589    481.74178  0.034787824  0.034622687            5 
 1155000   0.78025367   -5.7459858     480.0381  0.034634784  0.034601187           10 
 1156000   0.77265462   -5.7130757    480.93474  0.034669459   0.03457957            8 
 1157000   0.78537533   -5.7171259    481.83276  0.034704174  0.034558051            8 
 1158000   0.79730622   -5.7081934    479.66289  0.034518055   0.03453662            4 
 1159000   0.81288833   -5.6822682    481.20476  0.034599134  0.034515043            7 
 1160000   0.78130355    -5.714121    480.60647  0.034526327  0.034493492            6 
 1161000   0.80320769   -5.7047838    481.34094  0.034549306  0.034471929            6 
 1162000   0.79294079   -5.7269998    479.74112  0.034404842  0.034450237           11 
 1163000   0.80990594   -5.7269606    479.59679  0.034364917  0.034428585            6 
 1164000   0.77961737   -5.7404426    480.50247  0.034400234  0.034406785            5 
 1165000   0.78825511   -5.7283961    480.88763  0.034398257  0.034385099            8 
 1166000   0.76759291   -5.7191363    480.97587  0.034375062  0.034363522            8 
 1167000   0.77759521   -5.7404398     482.5823  0.034460318  0.034341948            9 
 1168000   0.79087981   -5.7245257    483.39661  0.034488913   0.03432047           13 
 1169000   0.79225043   -5.7221833    481.20497  0.034303177  0.034298911            7 
 1170000   0.79368212   -5.7388453     482.3103  0.034352585  0.034277092            6 
 1171000   0.78044498   -5.7490153    481.43583  0.034261018   0.03425525            5 
 1172000   0.81400255   -5.7421761    481.88972  0.034264059  0.034233612           10 
 1173000   0.79252149   -5.7146606     483.1944  0.034327536  0.034212185            7 
 1174000   0.80450317   -5.7291035    483.40102  0.034312963  0.034190872           11 
 1175000   0.77914727   -5.7300343    482.82922  0.034243207   0.03416945            5 
 1176000   0.77419334     -5.70286    483.84275  0.034285909  0.034148032            3 
 1177000   0.78983896   -5.7339547    483.18432  0.034210161   0.03412662            5 
 1178000   0.78840604   -5.7438829    482.99633  0.034167822  0.034105109           10 
 1179000   0.79979551   -5.7313726    482.51724  0.034104978   0.03408378            8 
 1180000   0.79254687   -5.7558215    483.31907  0.034132702  0.034062301            7 
 1181000   0.79022487   -5.7124059    484.57278  0.034192265    0.0340409            5 
 1182000   0.79387203   -5.7504843    483.82008  0.034110271  0.034019603            7 
 1183000   0.76065957   -5.7488634    483.99691  0.034093893  0.033998124           13 
 1184000   0.78505724   -5.7438698    483.45475  0.034026939  0.033976746           11 
 1185000    0.7639613   -5.7695736    482.95063  0.033962773  0.033955203            7 
 1186000   0.77756702   -5.7501213    483.08085  0.033943287  0.033933582           13 
 1187000   0.79766589   -5.7529356    483.92036  0.033973628  0.033912053            9 
 1188000   0.76630332   -5.7426956    484.07984  0.033956218  0.033890779            4 
 1189000   0.77975707   -5.7327582    484.08239  0.033927838  0.033869287            9 
 1190000   0.76981942   -5.7248054    485.59709  0.034005398  0.033847821           11 
 1191000   0.78826418   -5.7275656    484.65682  0.033911057  0.033826465           11 
 1192000   0.76426254   -5.7518568    483.49149  0.033801139  0.033805004           11 
 1193000    0.7696768   -5.7648294    484.68081  0.033855882  0.033783327            5 
 1194000   0.76503445   -5.7253507    485.61244  0.033892549  0.033761789            7 
 1195000   0.79267021   -5.7684036    484.55555  0.033790485  0.033740401            5 
 1196000   0.77738256   -5.7339946    485.97074  0.033860837  0.033718836            8 
 1197000   0.77874165     -5.76638    484.76913  0.033748895  0.033697175            5 
 1198000   0.78570453   -5.7578665    485.28122  0.033756345  0.033675483            5 
 1199000    0.7816356   -5.7848342     484.6945  0.033687413  0.033653943            8 
 1200000   0.77197332   -5.7631344    484.91668  0.033674769  0.033632396            5 
 1201000   0.77283147   -5.7723288     484.6679  0.033629469   0.03361068            9 
 1202000   0.77787737   -5.8173266    483.02146  0.033487345  0.033588956            5 
 1203000   0.77869012   -5.7524829    487.21842  0.033750237   0.03356716            4 
 1204000    0.8063853   -5.7296125    486.52425  0.033674159  0.033545554            9 
 1205000   0.76496535   -5.7705558    486.57663  0.033649836  0.033523991           11 
 1206000   0.75249481   -5.7484189    487.04013  0.033653961  0.033502482            6 
 1207000   0.77556074   -5.7717572    486.27098  0.033572976  0.033480996           12 
 1208000   0.75004434   -5.7201158    488.11958  0.033672708  0.033459555            5 
 1209000   0.77752248   -5.7684353    486.36229  0.033523731  0.033437998            6 
 1210000   0.75993304   -5.7534052    486.10335  0.033478192  0.033416563            5 
 1211000   0.77311979   -5.7679764    486.36841  0.033468787  0.033394886            4 
 1212000   0.79654412   -5.7758582    485.95637  0.033412841  0.033373266            7 
 1213000   0.75831434    -5.775968    486.29086  0.033408275  0.033351569            8 
 1214000   0.78033683   -5.7586744    485.47355  0.033324653  0.033330027            5 
 1215000   0.76284581   -5.7638861    486.19807  0.033346919  0.033308355           14 
 1216000   0.75938293   -5.7896592    486.28674  0.033325571   0.03328678           12 
 1217000   0.76329102   -5.7671914    486.17068  0.033290241  0.033265112            5 
 1218000   0.76808731   -5.7654633    485.99523  0.033250905  0.033243369           11 
 1219000   0.75552293   -5.7777103    485.03025   0.03315766  0.033221595            7 
 1220000    0.7578967   -5.7563732    487.67949   0.03331144  0.033199875            5 
 1221000   0.76075069   -5.7758127    486.77746  0.033222595  0.033178358            5 
 1222000   0.76411035   -5.7908038    486.88564  0.033202785  0.033156736           20 
 1223000   0.76668701   -5.7614866    489.16771  0.033331133  0.033135143            3 
 1224000   0.78495061   -5.8106281    485.68145  0.033066547  0.033113613            7 
 1225000   0.77551517   -5.7213958     489.0303  0.033267367  0.033091945           12 
 1226000   0.76777185    -5.796568    487.72688  0.033151637  0.033070346            5 
 1227000   0.75565647   -5.7811293     487.9503  0.033139792  0.033048576           12 
 1228000   0.75075533   -5.7730922    489.38983  0.033210494  0.033026924           14 
 1229000   0.76759004   -5.7932987    488.07529  0.033094338  0.033005343            9 
 1230000   0.76898456   -5.8021026    488.62001  0.033104336  0.032983717            6 
 1231000   0.74220223   -5.7821459    488.32845  0.033057707  0.032962216            8 
 1232000   0.77529508    -5.782557    488.02538  0.033010374  0.032940843            5 
 1233000   0.74291112    -5.768777    489.14848  0.033059508   0.03291934            6 
 1234000   0.74443845   -5.7881801    488.45747  0.032986052  0.032897764            9 
 1235000   0.76522008   -5.8169182    488.29823  0.032948599  0.032876127            8 
 1236000   0.73881891   -5.8026404    488.15482  0.032912272  0.032854409            9 
 1237000   0.75896276   -5.7897289    488.13974   0.03288465  0.032832817            8 
 1238000   0.76921056   -5.7967249    487.77766  0.032833714  0.032811276            9 
 1239000   0.75008242   -5.7775019    488.57651  0.032860944  0.032789547            8 
 1240000    0.7544041   -5.7860469    489.20133  0.032876434  0.032768024            6 
 1241000   0.75647093    -5.799821    488.06019  0.032773314  0.032746347            7 
 1242000   0.75672766   -5.7877743     487.8699  0.032734158  0.032724658           13 
 1243000   0.75788211   -5.8078314    488.14085  0.032725989  0.032702863            5 
 1244000   0.74735211   -5.7763108    488.04562  0.032693303  0.032681083            4 
 1245000   0.75372395   -5.7925706    488.28664  0.032683175  0.032659096            6 
 1246000   0.75415851   -5.7893674    489.10595  0.032711741  0.032637197           14 
 1247000   0.75943555   -5.7808485    488.21873  0.032626218  0.032615142            9 
 1248000   0.76300626   -5.8110622    487.93745  0.032581293   0.03259314            7 
 1249000   0.75867399   -5.7852149       487.64  0.032535362  0.032570968           11 
 1250000   0.75495342   -5.8007845    488.20365   0.03254691  0.032548772           11 
 1251000   0.74098176   -5.8319652    487.60655  0.032481118  0.032526533            5 
 1252000   0.75355227   -5.8089344    486.40635   0.03237529  0.032504239           12 
 1253000   0.74806862   -5.7941993    488.12277  0.032463605  0.032481969            7 
 1254000    0.7542908   -5.7932598    487.70012   0.03240963  0.032459813            6 
 1255000   0.76041751   -5.8441041    488.65915  0.032447486  0.032437644           10 
 1256000   0.75386649   -5.8172224    488.08496  0.032383556  0.032415462            8 
 1257000   0.77203171   -5.7979945     490.6117  0.032525305  0.032393541           11 
 1258000   0.74613086   -5.8014404    489.51582  0.032426856  0.032371617            7 
 1259000   0.74081944   -5.7907154    489.71436  0.032414241  0.032349812           11 
 1260000   0.75136417   -5.7786423    489.96984  0.032405413  0.032328025            7 
 1261000     0.749154   -5.7998579    491.04454  0.032450736  0.032306171           13 
 1262000   0.75363528   -5.8094976    488.87314  0.032281639  0.032284516            5 
 1263000    0.7411171   -5.8301735    491.08776  0.032402201   0.03226269            5 
 1264000   0.73697024   -5.8349467     489.5992  0.032278428  0.032240881           20 
 1265000   0.75914936   -5.8041591    489.65049   0.03225629  0.032219197            7 
 1266000   0.74275355   -5.7901633    491.02965  0.032321594  0.032197618            8 
 1267000   0.73428765   -5.8332914    490.75643  0.032278113  0.032175956           11 
 1268000   0.75335512   -5.8331219    489.87291  0.032194592  0.032154297            6 
 1269000   0.74502812   -5.7831497    491.97438  0.032307222   0.03213279            5 
 1270000   0.74526522   -5.8164269    490.11186  0.032159571  0.032111286           14 
 1271000   0.74251483   -5.7890949    490.72811  0.032174673  0.032089762            7 
 1272000   0.73142994   -5.8327632    490.16192  0.032112285  0.032068206            7 
 1273000   0.74343919   -5.8193026    490.45599   0.03210631  0.032046685           12 
 1274000   0.75748902   -5.8595147    488.66678  0.031964075  0.032025107           14 
 1275000    0.7298978   -5.8245655    491.42232  0.032119106  0.032003621           19 
 1276000   0.74719499   -5.8273985    491.82813  0.032120437  0.031982206            5 
 1277000    0.7541922   -5.8386482    491.08646  0.032046884  0.031960704           12 
 1278000   0.75629748   -5.8292965    492.19706  0.032094227  0.031939167            4 
 1279000   0.74998247   -5.8218571    492.53522  0.032091166   0.03191782            6 
 1280000   0.73367275   -5.8520545    491.81007  0.032018885  0.031896503            4 
 1281000   0.74877783   -5.8229796     494.1984  0.032149258  0.031875378            6 
 1282000   0.74984096   -5.8323361    493.03312  0.032048435  0.031854292            8 
 1283000   0.74882963   -5.8544085    490.47751  0.031857464  0.031832991            8 
 1284000   0.73916826   -5.8425672    492.03104  0.031933479  0.031811692            8 
 1285000   0.74468018   -5.8261723     492.4573  0.031936271  0.031790396            6 
 1286000   0.74661984   -5.8232086    493.04144   0.03194929  0.031769352            8 
 1287000   0.73419095   -5.8371704    492.98676  0.031920925  0.031748168            7 
 1288000   0.74589857   -5.8293859    493.52112  0.031930715  0.031726945            9 
 1289000   0.73374717   -5.8310734    494.33147  0.031958332  0.031705832            6 
 1290000   0.74964597   -5.8481724    493.43019  0.031875335  0.031684713            7 
 1291000   0.74202059   -5.8329456    495.21316  0.031965734  0.031663684            5 
 1292000   0.73306775   -5.8028106    494.67846  0.031906505  0.031642701            9 
 1293000   0.71929242   -5.8534714    493.37167  0.031797607  0.031621534            8 
 1294000   0.72644374   -5.8450984    493.37434  0.031773206  0.031600266            8 
 1295000   0.74348895    -5.834265    494.27535  0.031806651  0.031579203           13 
 1296000   0.73973871   -5.8446305    493.05651  0.031703736  0.031558092           10 
 1297000   0.73236955    -5.853219    494.28353   0.03175813   0.03153688            8 
 1298000   0.72877881   -5.8708358    492.84965  0.031641606  0.031515642            6 
 1299000   0.72954285   -5.8604886    494.48345  0.031722059  0.031494547           10 
 1300000   0.74052415   -5.8255518    494.12588  0.031674736  0.031473511            5 
 1301000   0.72890192   -5.8699386    492.80525  0.031565799  0.031452425            8 
 1302000   0.71408834   -5.8389315    492.64897  0.031531552  0.031431198            6 
 1303000   0.73409241   -5.8515424    493.04152  0.031532459   0.03141003           16 
 1304000      0.72909   -5.8637839    493.23882  0.031520885  0.031388776           12 
 1305000    0.7185228   -5.8360236    494.27845   0.03156312  0.031367537           13 
 1306000   0.73046194    -5.884786     493.3777  0.031481477  0.031346271            8 
 1307000   0.74116245   -5.8714336    493.41932  0.031460044  0.031324925            8 
 1308000    0.7423858   -5.8730939    492.99697  0.031409083  0.031303625            9 
 1309000    0.7260625   -5.8565637    494.59796   0.03148701  0.031282314           14 
 1310000   0.74712393   -5.8466542    493.26535  0.031378203  0.031261134           17 
 1311000   0.72570997   -5.8879616    494.51223  0.031433526  0.031239814            8 
 1312000   0.74104129   -5.8829628    494.56741  0.031413072  0.031218552            9 
 1313000     0.719544   -5.8737744    495.11487  0.031423894  0.031197512            5 
 1314000   0.74408291   -5.8716746    494.14674  0.031338581  0.031176316            9 
 1315000   0.73588934   -5.8460237    495.07699    0.0313737  0.031155142            9 
 1316000   0.72245804   -5.8726726    494.53669  0.031315647  0.031134058            4 
 1317000   0.71864456   -5.8237946    494.99843  0.031321085  0.031112857            9 
 1318000   0.73168763   -5.8439246    495.87146   0.03135252  0.031091955            6 
 1319000   0.72137642   -5.8655524    495.74737  0.031320911  0.031070854            9 
 1320000   0.72761426   -5.8785023    492.89192  0.031116914  0.031049879           22 
 1321000   0.72136948   -5.8634413    495.29739  0.031245104  0.031028887            3 
 1322000   0.74100902    -5.874486    493.62313  0.031115931  0.031007849           14 
 1323000   0.72029262   -5.8652443    494.67303  0.031158543  0.030986859           16 
 1324000   0.73097243   -5.8545587    494.80621  0.031143392  0.030965868            9 
 1325000   0.73632973   -5.8637577    496.65084  0.031235902   0.03094472            5 
 1326000   0.71857933   -5.8497135    495.39388  0.031133351  0.030923708           12 
 1327000   0.72874626   -5.8438626    495.16117  0.031095276  0.030902531           12 
 1328000   0.72576918   -5.8639152    494.36456  0.031021873  0.030881416            8 
 1329000   0.74649867   -5.8889812    494.69792  0.031019433  0.030860259            5 
 1330000   0.71164728    -5.870336    494.82619  0.031004147  0.030839016            6 
 1331000    0.7265786   -5.8692287    496.02188  0.031055715  0.030817967           13 
 1332000   0.71506345   -5.8771066    496.11366  0.031038142  0.030796875           10 
 1333000   0.72332246   -5.9168966    495.23849  0.030960146   0.03077577            7 
 1334000   0.72808656   -5.8728754    496.21273  0.030997796  0.030754727            7 
 1335000   0.73258229   -5.8929834    495.07693  0.030903679  0.030733673           11 
 1336000   0.70451077   -5.9008845    494.27112  0.030830284  0.030712548           15 
 1337000   0.72525598   -5.8970927    495.43111  0.030879526  0.030691446            6 
 1338000   0.73311814   -5.8879032      495.765  0.030877242   0.03067045           12 
 1339000   0.71914009   -5.8838047    496.48081  0.030898731  0.030649486           14 
 1340000   0.72537703   -5.8852845    496.23023  0.030860089  0.030628538            7 
 1341000   0.72088266   -5.8950362    496.28214  0.030840302  0.030607698           13 
 1342000   0.70743514   -5.8752646    496.29258   0.03081797  0.030586733           18 
 1343000   0.71147818   -5.9079377     495.0466  0.030717709  0.030565814           14 
 1344000   0.71128458   -5.9010352    495.60826  0.030729679  0.030544825           19 
 1345000   0.72094589   -5.8930282    496.35019    0.0307528  0.030523919            7 
 1346000   0.71318356   -5.8982955    497.51689  0.030802185  0.030502998           12 
 1347000   0.71079348   -5.8794347    496.72132  0.030730099  0.030482138            6 
 1348000   0.73206967   -5.8840548    496.37532  0.030685912  0.030461389            6 
 1349000   0.71908992   -5.9053148     497.5935  0.030738417  0.030440583           13 
 1350000   0.70284095    -5.897763    496.45271  0.030645229  0.030419779            7 
 1351000    0.7214034   -5.8746032    497.49929  0.030687101  0.030399084           10 
 1352000   0.70127078   -5.8917751    497.26816  0.030650158  0.030378374            7 
 1353000   0.70494794    -5.887355    497.94127  0.030668962  0.030357645            9 
 1354000   0.70345182   -5.8959863    497.32378  0.030608307  0.030336874           11 
 1355000   0.71764135   -5.9242267    498.08082  0.030632277  0.030316238            9 
 1356000   0.71317536   -5.8689659    498.21085  0.030617677  0.030295583           13 
 1357000   0.70216453   -5.8902522    497.30222  0.030539316  0.030274818            7 
 1358000   0.72424878   -5.9085755    498.90257  0.030615033  0.030254181            9 
 1359000   0.73534385   -5.9094798    497.66978  0.030516911  0.030233525           15 
 1360000   0.71284528   -5.9169645    497.37085  0.030476155  0.030212864            7 
 1361000   0.71348038   -5.9207373     497.4336  0.030457605  0.030192186            8 
 1362000   0.70214714   -5.8999386    497.39051  0.030432606  0.030171593           11 
 1363000   0.70624196   -5.8945532    496.41188  0.030350445   0.03015089            6 
 1364000   0.73516827   -5.9323351    498.04699  0.030428091  0.030130116            6 
 1365000   0.71328823   -5.9232578    497.66525  0.030382494  0.030109474            8 
 1366000   0.71192624   -5.8982677    498.50042  0.030411202  0.030088803            8 
 1367000   0.72997762   -5.9152625    496.71292  0.030279988  0.030068137           23 
 1368000   0.70347598   -5.9273981     497.6867  0.030317173  0.030047441           12 
 1369000   0.72455225   -5.9189991    498.31527  0.030333289  0.030026815            8 
 1370000    0.6998173   -5.8974847    498.53944  0.030324784  0.030006173            7 
 1371000   0.72662231   -5.9329346    497.92526  0.030265333  0.029985667           10 
 1372000   0.71416154   -5.9044188    499.51839  0.030340038  0.029965107            5 
 1373000   0.71511677   -5.9139429    497.92495  0.030221228  0.029944705           10 
 1374000   0.69502975   -5.9075462    499.99783  0.030324953  0.029924159            5 
 1375000   0.71213673   -5.9402023    497.87241  0.030174085  0.029903584            6 
 1376000   0.71784357   -5.9339997    497.81934  0.030148943  0.029882909            7 
 1377000   0.70187056   -5.9343648     498.6647  0.030178207  0.029862319            3 
 1378000   0.70677161   -5.8869474    499.15515  0.030185967  0.029841927           20 
 1379000   0.70152893   -5.8721939    499.96966  0.030213298  0.029821529            6 
 1380000   0.69474516   -5.9173986    498.17259  0.030082886  0.029801185           12 
 1381000   0.70609074   -5.9279841    497.09271  0.029995939   0.02978071           22 
 1382000   0.70704189   -5.9224682    499.24456  0.030103989  0.029760079           19 
 1383000   0.70003116    -5.946817    497.09839  0.029952904   0.02973931            8 
 1384000   0.70673454   -5.9460132    498.60466  0.030021957  0.029718536           27 
 1385000   0.69432847   -5.9594299    498.06544  0.029967836  0.029697897           11 
 1386000   0.68339041   -5.9746493    498.22469   0.02995579  0.029677177            8 
 1387000   0.68436356   -5.9343805    499.52898  0.030012556  0.029656579            6 
 1388000   0.70244994   -5.9418679    499.47246  0.029987539  0.029635869           18 
 1389000   0.70949881   -5.9521574    498.74111  0.029922073  0.029615273           12 
 1390000   0.70323633   -5.9591535    499.01154  0.029916759  0.029594689            7 
 1391000    0.6892455   -5.9423052    499.26848  0.029910645  0.029574181           10 
 1392000   0.69468453   -5.9289353    500.12716  0.029940563  0.029553806           10 
 1393000   0.70300735   -5.9350026    498.80194   0.02983979  0.029533344           11 
 1394000   0.68785049   -5.9123463    499.55676  0.029863508  0.029512807            6 
 1395000    0.6995827   -5.9393949    499.79838  0.029856534  0.029492301           13 
 1396000   0.69763614   -5.9484349    498.43728  0.029753897  0.029471801           19 
 1397000   0.70784645    -5.965891    498.38531  0.029729498  0.029451279            9 
 1398000   0.70240987   -5.9523819    499.83533  0.029794667  0.029430702           18 
 1399000    0.6912991   -5.9750975    497.80048  0.029652161  0.029410064           10 
 1400000    0.6896383   -5.9448143    498.88513  0.029695543  0.029389443            9 
 1401000   0.70671373    -5.956444    499.46279  0.029708707  0.029368847           12 
 1402000   0.69067937   -5.9398277     499.7234  0.029703008   0.02934831           11 
 1403000   0.70647716   -5.9366869    499.87159  0.029690639  0.029327764           10 
 1404000   0.71117575   -5.9311075    498.96068  0.029615425  0.029307232            9 
 1405000   0.69614394   -5.9747367    499.24016  0.029610923  0.029286661            8 
 1406000   0.68606871   -5.9547394    500.62447   0.02967191   0.02926611           11 
 1407000   0.68114367   -5.9430926    500.36158  0.029635251  0.029245734            8 
 1408000   0.69900621   -5.9261229    500.03633  0.029594953   0.02922542           11 
 1409000    0.6909931   -5.9443023    498.88525   0.02950587   0.02920498            7 
 1410000   0.67970128   -5.9625275    498.63346  0.029470063  0.029184349            7 
 1411000   0.69557866    -5.945057    498.13753  0.029419887  0.029163797           14 
 1412000   0.69650363   -5.9357541    499.65961  0.029488882  0.029143398            9 
 1413000    0.6870186   -5.9647549    500.20234   0.02950002  0.029123066            5 
 1414000   0.67505709   -5.9522255    500.18004  0.029477843  0.029102671            8 
 1415000   0.66973593   -5.9586078    500.27312  0.029462493  0.029082266           15 
 1416000    0.6898929   -5.9913236     499.5502  0.029399141  0.029061841           21 
 1417000   0.67817985   -5.9623661     500.2253  0.029418095  0.029041449            6 
 1418000   0.69259543   -5.9688105    499.37244  0.029347228  0.029021085           11 
 1419000   0.68179748   -5.9542071    500.44977  0.029389815    0.0290007           11 
 1420000    0.6973611   -5.9816594    499.57895  0.029318013  0.028980421           20 
 1421000   0.68951712   -5.9741013    499.90695  0.029316617   0.02896006           16 
 1422000   0.69963122   -5.9584834    499.43842  0.029268543  0.028939795            6 
 1423000    0.6813109   -5.9800695    499.94001  0.029277349  0.028919543           15 
 1424000   0.70184567   -5.9836651    499.94643  0.029257165  0.028899185           12 
 1425000   0.69319859   -5.9963295    498.69527  0.029163466  0.028878843           11 
 1426000   0.69095994   -5.9756323    499.25559  0.029175759  0.028858399           10 
 1427000   0.69148153   -5.9527835     501.3271  0.029276285  0.028838157            9 
 1428000   0.68237776   -5.9559623    500.40746  0.029202116  0.028817956            8 
 1429000   0.68621168   -5.9930831    500.91583  0.029211326  0.028797782            9 
 1430000   0.68392712   -5.9642784    500.51203  0.029167368  0.028777576           25 
 1431000    0.6797844   -5.9718183    501.26211  0.029190666  0.028757442           23 
 1432000   0.67058742   -5.9884301    500.99782  0.029154901  0.028737241           15 
 1433000   0.67026029   -5.9768766    499.65566  0.029056505  0.028717074           12 
 1434000    0.6849695   -5.9631184    502.23454  0.029186107  0.028696983           13 
 1435000   0.66804366     -5.99871      500.707  0.029077062  0.028676957           14 
 1436000   0.67783277   -5.9747715     499.5701  0.028990837  0.028656833            9 
 1437000   0.69107601   -5.9852336    501.10906  0.029059908  0.028636943           10 
 1438000   0.67017633   -5.9668501    501.27406  0.029049262  0.028616988           12 
 1439000   0.67752202   -5.9823346    501.74723  0.029056476  0.028597007            9 
 1440000   0.67991739   -5.9772464    501.52441  0.029023403  0.028577106           15 
 1441000   0.67739125   -5.9776004    502.29258  0.029047686  0.028557226            5 
 1442000   0.68978635   -5.9839403     500.9852  0.028951988  0.028537387            9 
 1443000   0.67693355   -6.0064144    501.45607  0.028959117  0.028517489           14 
 1444000   0.67726884   -5.9554424    502.81965  0.029017755  0.028497661           15 
 1445000   0.66617888   -6.0007836    502.19478  0.028961636  0.028477866            8 
 1446000   0.66249214   -5.9706611    502.28774  0.028946965  0.028458111           15 
 1447000   0.67553646   -5.9762434    502.65963  0.028948378  0.028438443           11 
 1448000   0.66862756   -5.9976846    501.35935  0.028853554   0.02841862           10 
 1449000   0.67667644   -5.9858306    502.93427  0.028924216  0.028398858            6 
 1450000   0.67273967   -6.0051311    502.66738   0.02888893  0.028379156            9 
 1451000   0.68666302    -5.984193    502.36896  0.028851881  0.028359483            5 
 1452000    0.6903805   -5.9902652    503.42487  0.028892612  0.028339792           18 
 1453000   0.66991978   -5.9913194    502.10064  0.028796779  0.028320096           15 
 1454000    0.6673104   -6.0017647      501.768  0.028757909  0.028300431           14 
 1455000   0.68221258   -6.0076908    502.17932  0.028761702  0.028280687            6 
 1456000   0.66832969   -5.9640062    503.57886   0.02882205  0.028261154            8 
 1457000   0.67427841   -5.9898271    502.46463   0.02873854  0.028241553           10 
 1458000    0.6593154    -6.013883    501.65044  0.028672293  0.028221879           15 
 1459000   0.67504293    -5.995409     502.6484  0.028709641  0.028202186           10 
 1460000   0.66253309   -5.9833092    502.71316  0.028693673  0.028182587           15 
 1461000   0.67502969     -6.01525    502.37384  0.028654679  0.028163057           17 
 1462000   0.67423824   -5.9926484    502.11949  0.028620582  0.028143477           14 
 1463000   0.68079201   -5.9914041    503.85759  0.028700022   0.02812385           13 
 1464000   0.66445213   -6.0130901    502.19571  0.028585821  0.028104194           11 
 1465000   0.68257276   -5.9974565    505.43733  0.028750702  0.028084587           16 
 1466000   0.66973526   -6.0118896    501.85082  0.028527218  0.028065016           11 
 1467000   0.69151801   -6.0219936    502.31307   0.02853403  0.028045377           13 
 1468000   0.66610314   -6.0174509    503.17725  0.028563649   0.02802583           17 
 1469000   0.65701717   -5.9973229      504.448  0.028616292  0.028006209            9 
 1470000   0.65772411   -6.0163853    503.20875  0.028526573  0.027986618           22 
 1471000   0.67216577   -6.0184305    502.92245  0.028490961  0.027966994           19 
 1472000    0.6637359    -6.012641    503.97991  0.028531471   0.02794747            8 
 1473000   0.66489372   -6.0314586    502.18976  0.028410826  0.027927954           12 
 1474000   0.65555066   -6.0110292    503.58812  0.028470608  0.027908507           17 
 1475000   0.68012053    -6.039008     502.9422  0.028414814  0.027889059           23 
 1476000   0.67161512   -6.0316847    502.99492  0.028398539  0.027869579            9 
 1477000   0.68329037   -5.9901147     504.6066  0.028470244  0.027850267            7 
 1478000   0.66148784   -6.0277983    502.88349  0.028353828  0.027830974           38 
 1479000   0.66373086   -6.0143984    503.77457  0.028384864  0.027811526           13 
 1480000   0.66361984   -5.9981735    504.25064  0.028392491  0.027791966           21 
 1481000   0.65494839   -6.0113626    502.43389  0.028271094  0.027772451            9 
 1482000   0.65277962   -6.0146731    503.36471  0.028304359  0.027753041           13 
 1483000   0.66848591   -6.0291934    502.72685   0.02824943  0.027733646           17 
 1484000   0.65509846   -6.0223183    504.63244  0.028337401  0.027714268            6 
 1485000   0.67011369   -6.0167625     505.8176  0.028384826  0.027694962           25 
 1486000   0.66233542   -6.0241916    504.39178  0.028285766  0.027675638           15 
 1487000   0.65627091   -6.0290868    503.83625  0.028235612   0.02765636           21 
 1488000   0.65915179   -6.0091053    504.31471  0.028243432  0.027637101           11 
 1489000   0.64627269   -6.0290736    504.29868  0.028223566  0.027617729            8 
 1490000   0.64748798   -6.0354473    505.02365  0.028245171  0.027598341           12 
 1491000   0.67710697   -6.0417489    504.62749  0.028204085  0.027578984           17 
 1492000   0.68000764   -6.0178298    504.72918  0.028190861  0.027559628           18 
 1493000   0.64580274   -6.0088424    503.38398  0.028096895  0.027540313           21 
 1494000   0.67056765   -6.0386364    503.97387  0.028110992  0.027520948           31 
 1495000   0.64893925   -6.0434205    502.66369  0.028019158   0.02750146           12 
 1496000   0.65922036   -6.0320894     503.8788  0.028068115  0.027482052           18 
 1497000   0.64030955   -6.0629477    503.43409   0.02802461  0.027462602           16 
 1498000   0.65821593      -6.0558    502.52639  0.027955407  0.027443162           15 
 1499000   0.64665952   -6.0408753    504.36967   0.02803923  0.027423704           17 
 1500000   0.65295657   -6.0472912    502.84683  0.027935935  0.027404239           10 
 1501000   0.65870788   -6.0567689    502.85643  0.027917856    0.0273847           13 
 1502000   0.65281302   -6.0758096    501.39539  0.027818209  0.027365169           14 
 1503000   0.65060356   -6.0237671    502.50581  0.027861267    0.0273456            7 
 1504000   0.65854824   -6.0272469    502.75005  0.027856275   0.02732599           24 
 1505000   0.65049793   -6.0342621    502.98585  0.027850822  0.027306408           21 
 1506000   0.67358401   -6.0345484    503.43821   0.02785736  0.027286939            7 
 1507000   0.65273188   -6.0457255    503.06195  0.027818069  0.027267491           15 
 1508000   0.63538113   -6.0520022    502.46049  0.027766384  0.027247929           11 
 1509000   0.64862879    -6.068017    502.82097  0.027767891  0.027228326            5 
 1510000   0.63544949     -6.04336    502.39931  0.027726231  0.027208688           10 
 1511000   0.66563876   -6.0527268    501.56044  0.027661617  0.027188993            9 
 1512000   0.65740045   -6.0488028    502.64126  0.027702892  0.027169363           10 
 1513000   0.65662074   -6.0768816     501.6263  0.027628679  0.027149633           22 
 1514000   0.63702373   -6.0837394    501.93731  0.027627549  0.027129958           20 
 1515000   0.65074272    -6.070094    501.74294  0.027598622  0.027110306           25 
 1516000   0.65552506   -6.0710006    502.32683  0.027612513  0.027090659           15 
 1517000   0.65531388   -6.0757891    501.39298  0.027543012  0.027070956           11 
 1518000   0.64244237   -6.0819698    500.93339  0.027499637  0.027051237           14 
 1519000   0.64902991   -6.0612205      501.135  0.027492594  0.027031447           43 
 1520000   0.65883131   -6.0510616    502.42166  0.027545047    0.0270117           18 
 1521000   0.65062799   -6.0517222    501.86232  0.027496292   0.02699203           11 
 1522000   0.63755837   -6.0501787    502.26313  0.027500171  0.026972398           14 
 1523000   0.64101598   -6.0832298    501.97875  0.027466554   0.02695278           26 
 1524000   0.64738367   -6.0588053    502.73593  0.027489935  0.026933148           13 
 1525000   0.64196153   -6.0434974    502.13271  0.027438946  0.026913567           15 
 1526000   0.65337635   -6.0599252    501.49218  0.027385986  0.026894043            6 
 1527000   0.64726627   -6.0842383    501.53712  0.027370504  0.026874487            9 
 1528000    0.6376902   -6.0567444    502.15002  0.027386018  0.026854847           16 
 1529000   0.63348412    -6.071936    503.08183  0.027418892  0.026835313           10 
 1530000    0.6401179   -6.0742588    501.74324  0.027328063  0.026815779           21 
 1531000   0.65181609   -6.0783944    501.68302  0.027306936  0.026796319           17 
 1532000   0.63842616   -6.0665633    502.82513  0.027351236  0.026776928           11 
 1533000   0.64027147   -6.0672998    502.41496  0.027311098  0.026757496            9 
 1534000   0.62507489   -6.0826296    502.23357   0.02728344  0.026738079           57 
 1535000   0.64680736   -6.0981818    502.55704  0.027283227  0.026718665           36 
 1536000   0.62632296    -6.085674    502.70334  0.027273401  0.026699243           10 
 1537000   0.64020972   -6.0728637     503.6133  0.027304994  0.026679845           21 
 1538000   0.62245473   -6.0621896    503.58929  0.027285939  0.026660526           25 
 1539000   0.62290115    -6.067881    503.54161  0.027265627  0.026641327           15 
 1540000   0.63653342   -6.0843119    503.39628  0.027240058  0.026622188           20 
 1541000   0.63296835   -6.0905743    502.51836  0.027174906  0.026603047           47 
 1542000   0.63425045   -6.0792377    502.59844   0.02716161  0.026583902           32 
 1543000   0.64080907    -6.092374     503.2942  0.027181584   0.02656477           11 
 1544000   0.63830818   -6.1045826    503.26439   0.02716237  0.026545634           15 
 1545000   0.62166981   -6.0937514      503.661  0.027166181   0.02652653           24 
 1546000   0.62627083   -6.0789778    504.85414  0.027212923  0.026507427           18 
 1547000   0.64014139   -6.0994122    502.99571  0.027095222  0.026488418           22 
 1548000   0.64383731   -6.0735829    504.96437  0.027183698  0.026469418           23 
 1549000   0.64089517   -6.1158167    503.77572  0.027102201  0.026450389           22 
 1550000   0.63135101   -6.1061352    504.27771  0.027111705  0.026431344           15 
 1551000   0.64460027   -6.1185941    503.09411  0.027030631  0.026412343           18 
 1552000   0.64633761   -6.0834218    504.74556  0.027101888  0.026393446           37 
 1553000   0.63224236   -6.0748622    505.82166   0.02714218  0.026374696           22 
 1554000   0.62902556   -6.0928388    505.54984  0.027110137  0.026355964           18 
 1555000    0.6312827   -6.1136884    504.85804  0.027055629  0.026337269           16 
 1556000   0.63496354   -6.0886134    504.30192  0.027008458  0.026318539           15 
 1557000    0.6260869   -6.1004851    504.04065  0.026977128  0.026299773           17 
 1558000   0.63012967   -6.1073549    504.13017    0.0269646  0.026281043           26 
 1559000   0.63509117   -6.0954508    503.92731  0.026936461  0.026262322           16 
 1560000   0.62469663   -6.1344648    503.79022  0.026911871   0.02624349           21 
 1561000   0.61739594   -6.0893226    504.17493  0.026915168  0.026224626           25 
 1562000   0.63539044   -6.0954434    505.67479  0.026977955  0.026205873           19 
 1563000   0.63723729   -6.0851589    505.16026  0.026933262  0.026187066           21 
 1564000   0.62189858   -6.1147284     504.8399  0.026898972  0.026168276           14 
 1565000   0.63728882   -6.1203863    504.21049  0.026848269   0.02614947           28 
 1566000   0.62210761   -6.1095671     503.9757   0.02681863  0.026130677           16 
 1567000   0.62136478   -6.1162271    503.62855  0.026783054  0.026111811           11 
 1568000   0.61094381   -6.1099136    504.54527  0.026814693  0.026093061           13 
 1569000   0.63864915   -6.0998985     505.1062  0.026827396  0.026074337           16 
 1570000   0.62459861   -6.0960955     505.0266  0.026806083  0.026055583           25 
 1571000   0.62822609   -6.1273138    503.79371  0.026723621  0.026036874           20 
 1572000   0.62054795   -6.1110958    504.72722  0.026756108   0.02601818           15 
 1573000   0.64968934   -6.0994595    504.88006  0.026747195  0.025999505           19 
 1574000   0.62748257   -6.0977354    503.63997  0.026664547  0.025980903           13 
 1575000   0.61820606   -6.1386227    503.82111  0.026657202  0.025962206           13 
 1576000   0.63260564   -6.1368336    503.99896  0.026649691  0.025943545           16 
 1577000   0.63620853   -6.1360742    504.38446  0.026653163  0.025924854           21 
 1578000   0.63519328   -6.0949139    505.08192  0.026673105  0.025906226           24 
 1579000   0.63023754   -6.1447382    504.72791  0.026637529  0.025887693           20 
 1580000   0.62783982    -6.116254    504.76794  0.026622782  0.025869139            8 
 1581000   0.62260628   -6.0986645    505.39086  0.026638776  0.025850611           15 
 1582000   0.61889289   -6.1183753    505.27211  0.026615682  0.025832177           22 
 1583000   0.61172149   -6.1103492     504.5389  0.026560271  0.025813695           12 
 1584000   0.62672987   -6.1122919    505.82833  0.026611339  0.025795272           11 
 1585000   0.62576016   -6.1212962    505.54059  0.026579421  0.025776828           13 
 1586000   0.62472093   -6.1036441    505.59996  0.026565782  0.025758446           21 
 1587000     0.613429   -6.1058822    504.02055  0.026466107  0.025739977           18 
 1588000   0.61843677   -6.1245267    504.65318  0.026482639  0.025721529           13 
 1589000   0.62138195   -6.1325942    506.12139  0.026542972  0.025703097           11 
 1590000   0.61863037   -6.1277729    505.62222  0.026500116  0.025684656            8 
 1591000   0.61983283   -6.1327166     504.6781  0.026434009  0.025666226           14 
 1592000   0.60536015   -6.1137229    506.35709  0.026505291  0.025647865           11 
 1593000   0.63202696   -6.1287435    504.87288  0.026411011  0.025629504           15 
 1594000   0.63049631   -6.1379417     504.7955  0.026390396  0.025611085           24 
 1595000   0.61511158   -6.1372607    505.69542  0.026420868  0.025592756           22 
 1596000   0.60008065   -6.1428691    505.41238  0.026389535  0.025574463           33 
 1597000   0.61022945   -6.1629097    504.10858  0.026304977  0.025556136           15 
 1598000   0.60679178   -6.1510869    506.33999  0.026404881  0.025537855           23 
 1599000   0.61777993   -6.1337035    506.22002  0.026382115  0.025519558           26 
 1600000   0.60815793   -6.1414916    505.09097  0.026306821  0.025501314           16 
 1601000   0.61816543   -6.1203173    505.84559  0.026329668   0.02548302           23 
 1602000   0.60785339    -6.123639    505.42691  0.026291454  0.025464689           18 
 1603000   0.61475138   -6.1393824     506.1331  0.026311764  0.025446397           14 
 1604000   0.60132681   -6.1386057    505.82572  0.026279391  0.025428073           23 
 1605000   0.62266639   -6.1334371    505.65975    0.0262544  0.025409801           57 
 1606000   0.61248902    -6.154703    505.34434  0.026221686  0.025391596           43 
 1607000    0.6112249   -6.1533945    506.07216  0.026243111  0.025373341           35 
 1608000   0.60027964   -6.1522929    505.96883  0.026221436  0.025355126           14 
 1609000   0.60233766   -6.1493423    504.48063  0.026128062  0.025336867           22 
 1610000   0.61977904   -6.1444139     505.5672  0.026168074  0.025318652           23 
 1611000   0.63141719   -6.1532589    504.74614   0.02610936    0.0253004           11 
 1612000   0.60981241   -6.1661236    505.28882  0.026121217  0.025282197           19 
 1613000   0.61127694    -6.178955    504.59236  0.026069041  0.025263984           10 
 1614000   0.60860161   -6.1484514    507.00857  0.026177642  0.025245786           14 
 1615000   0.60267731   -6.1640441    504.84338   0.02604971  0.025227635           12 
 1616000   0.61960791    -6.151286    505.92699  0.026089469  0.025209499           16 
 1617000    0.6144238    -6.170679    505.51246  0.026051972  0.025191423           34 
 1618000   0.60032046   -6.1828382    505.48603  0.026034509  0.025173266           43 
 1619000   0.60772433   -6.1490005    506.31631  0.026061165  0.025155164           15 
 1620000   0.60696784   -6.1382121    506.86236  0.026073166  0.025137098           16 
 1621000   0.61177668     -6.14857    505.58319  0.025991322  0.025119057           19 
 1622000   0.60736529   -6.1670786    504.74396  0.025932181  0.025101047           25 
 1623000   0.60875441   -6.1547673    505.12515  0.025935775  0.025082966           28 
 1624000   0.60541815    -6.176149    505.26033  0.025926741  0.025064912           10 
 1625000   0.61217657   -6.1708608    505.68489  0.025932559  0.025046859            8 
 1626000   0.60278038    -6.166411    505.11658  0.025887484  0.025028782           16 
 1627000   0.61592148   -6.1531406    504.46875  0.025838391  0.025010726           13 
 1628000   0.60020597   -6.1779357    504.60861  0.025829679  0.024992717           22 
 1629000   0.59745674   -6.1798983    505.75156  0.025872292  0.024974729           17 
 1630000   0.60292655    -6.181841     505.6732  0.025852413   0.02495673           11 
 1631000   0.59473712   -6.1404053    506.23253   0.02586514  0.024938811            8 
 1632000   0.60738914   -6.1792828    505.81033  0.025827734  0.024920884           15 
 1633000   0.60375561   -6.1605256      505.919  0.025817463  0.024902873           35 
 1634000   0.61693491   -6.1872087    505.02841  0.025756243  0.024884941           21 
 1635000    0.6085093   -6.1908657    504.59945  0.025718626   0.02486699           34 
 1636000   0.59760949    -6.204226    506.37309   0.02579325  0.024848987           39 
 1637000   0.61504905   -6.1886996    506.94756  0.025806738  0.024831088           26 
 1638000    0.5924906   -6.1509853    506.43329  0.025764819  0.024813251           38 
 1639000   0.59020617   -6.1738764    506.16613  0.025735516  0.024795437           32 
 1640000   0.60940531   -6.1689825    505.43788  0.025682819  0.024777601           73 
 1641000   0.60348442   -6.1680241    506.86454  0.025739617  0.024759768           26 
 1642000    0.5993822   -6.1831603    505.70387  0.025665036  0.024741978           73 
 1643000   0.60834993   -6.1685585    506.36473  0.025682934  0.024724152           31 
 1644000   0.58645639   -6.1740005    505.71351  0.025634302  0.024706306           35 
 1645000   0.58769171    -6.191705     505.3188  0.025598723   0.02468852           25 
 1646000   0.57863157   -6.1991291    505.14066  0.025574153  0.024670705           32 
 1647000   0.58899853   -6.1828457    505.14215    0.0255587  0.024652935           18 
 1648000    0.6048508   -6.1761609    505.72263  0.025572544  0.024635177           22 
 1649000   0.59277748   -6.1880457    506.49134  0.025595883  0.024617454           16 
 1650000   0.59748871   -6.2136147    505.76774  0.025543825  0.024599684           19 
 1651000   0.58716353   -6.1826824    505.20838   0.02550012  0.024581906           16 
 1652000   0.58601252   -6.1901933    505.85263  0.025517183  0.024564129           21 
 1653000   0.60213272   -6.1808952    506.56138  0.025537476  0.024546406           26 
 1654000   0.59129763   -6.2204898    506.10118   0.02549885  0.024528678           37 
 1655000   0.59754521   -6.1731005    506.67673  0.025512424  0.024510876           14 
 1656000   0.59998581   -6.1799782    506.66837  0.025496597  0.024493258           21 
 1657000   0.60018651   -6.2002374    505.60708  0.025427835  0.024475567           21 
 1658000    0.5989749   -6.1821926    505.71565  0.025417956  0.024457909           28 
 1659000   0.59202106   -6.1966156    505.28833   0.02538117  0.024440196           26 
 1660000   0.58311081   -6.2104127    504.71577  0.025337137  0.024422539           77 
 1661000   0.59151661   -6.1850002    505.30787  0.025351589  0.024404854           26 
 1662000    0.5835274   -6.2124573    506.00505  0.025371292  0.024387157           23 
 1663000    0.6031707   -6.2042214    505.99946  0.025355755  0.024369413           14 
 1664000   0.59260397   -6.2109776    505.26959  0.025303966   0.02435168           25 
 1665000    0.5755965   -6.2169801    504.54083  0.025252294  0.024333972           19 
 1666000   0.59848598   -6.2122163    505.89036   0.02530464   0.02431625           24 
 1667000   0.59200112   -6.2200319    504.88617  0.025239261  0.024298546           17 
 1668000   0.57640851   -6.2344594    504.37116  0.025198399  0.024280743           19 
 1669000   0.58778316   -6.2356625    505.60047  0.025244681  0.024263022           26 
 1670000     0.575749   -6.2282028    504.77616  0.025188431  0.024245278           37 
 1671000    0.5903771   -6.2108108    506.22873  0.025245798  0.024227567           40 
 1672000    0.5967264   -6.2291172     504.9723  0.025168077  0.024209876           32 
 1673000   0.59273357   -6.2207068    504.91384  0.025150122  0.024192206           32 
 1674000   0.58839379   -6.2161623    504.50669  0.025114829  0.024174549           35 
 1675000   0.56260553   -6.2118002    504.41083  0.025095066  0.024156909           14 
 1676000   0.58968196   -6.2028244    504.82317  0.025100595  0.024139303           16 
 1677000   0.58413487   -6.2184825     504.2623  0.025057757   0.02412175           46 
 1678000   0.57776006   -6.2116358    504.98178  0.025078555  0.024104165           26 
 1679000   0.57412024   -6.2062937    506.42726  0.025135361  0.024086604           33 
 1680000   0.57913043   -6.2097517    504.73658  0.025036537  0.024069029           40 
 1681000   0.58609029   -6.2317256    504.10332   0.02499025  0.024051438           39 
 1682000   0.58749876   -6.2193537    504.76611   0.02500823  0.024033861           18 
 1683000   0.58178013   -6.2156327    505.76742   0.02504295  0.024016314           33 
 1684000   0.59075653   -6.2086757    505.94518  0.025036875  0.023998806           18 
 1685000   0.59447648   -6.2152126     505.5525  0.025002596  0.023981342           18 
 1686000   0.58050643    -6.246039    505.54883  0.024987585   0.02396386           44 
 1687000   0.58911597    -6.224375    504.54222   0.02492305  0.023946397           30 
 1688000    0.5829027    -6.234054    504.69163  0.024915661  0.023928951           32 
 1689000   0.57535168   -6.2417181    503.17196  0.024825931  0.023911481           11 
 1690000   0.59311909   -6.2075019    505.02178  0.024902454  0.023894058           15 
 1691000   0.59111112   -6.2397277    505.35148  0.024903976  0.023876574           28 
 1692000   0.59605657   -6.2299702    504.80982   0.02486258  0.023859122           10 
 1693000   0.58505182   -6.2175892     505.2622  0.024870162  0.023841737           12 
 1694000   0.59375824   -6.2226961    505.03379  0.024844244  0.023824346           30 
 1695000   0.58176582   -6.2506533     504.4997  0.024803328  0.023806988           19 
 1696000   0.56574616    -6.227706    505.78978  0.024852092  0.023789623           22 
 1697000    0.5722671   -6.2369784    504.97172  0.024797276  0.023772213           23 
 1698000   0.56551233   -6.2485584    505.31661  0.024799598  0.023754829           20 
 1699000    0.5867476   -6.2054679    504.68114  0.024753833  0.023737497           21 
 1700000   0.57361286   -6.2349434    504.77748  0.024743994  0.023720183           11 
 1701000    0.5886703   -6.2500622     504.4648  0.024714129  0.023702898           36 
 1702000   0.56960275   -6.2363357    505.43649  0.024747184  0.023685602           22 
 1703000   0.57643812   -6.2315393    505.63916   0.02474257  0.023668275           59 
 1704000   0.57562036   -6.2325571    504.44677  0.024669736   0.02365095          100 
 1705000   0.58080977   -6.2262703    505.20341  0.024692249  0.023633678           27 
 1706000   0.57631085   -6.2280401    505.37596  0.024686204  0.023616387           61 
 1707000     0.568447   -6.2544206    504.25746  0.024617138  0.023599034           34 
 1708000   0.58759586   -6.2566813    503.51092  0.024566302  0.023581677           50 
 1709000   0.56011079   -6.2381148    504.14637  0.024582913  0.023564369           38 
 1710000   0.57779863   -6.2491427    504.65627  0.024593385    0.0235471           31 
 1711000   0.57719833   -6.2330252    506.56568  0.024672009  0.023529904           92 
 1712000   0.57238508   -6.2554411    504.58831  0.024561347  0.023512662           27 
 1713000   0.55213267   -6.2652899    504.25671  0.024530877  0.023495408           70 
 1714000   0.57034837   -6.2150123    505.35891  0.024570153  0.023478162           40 
 1715000    0.5695127   -6.2377942     504.3266  0.024505666  0.023460946           74 
 1716000   0.58108315    -6.261752    505.13269  0.024530531  0.023443688           59 
 1717000   0.55714274   -6.2677244    504.67436  0.024493999  0.023426405          123 
 1718000   0.56252606    -6.264884    504.47858  0.024470245   0.02340914           65 
 1719000   0.56583256   -6.2520297    503.70779  0.024418644   0.02339186           63 
 1720000   0.56903311   -6.2624386    503.92163  0.024414808  0.023374599           62 
 1721000   0.54503037     -6.27629    502.99979  0.024355984  0.023357366           71 
 1722000   0.55605382   -6.2639085     503.4125  0.024361813  0.023340133           58 
 1723000   0.56804507   -6.2662526    504.25205  0.024388278  0.023322919           46 
 1724000   0.56418015   -6.2680226    504.09432  0.024366508   0.02330573           74 
 1725000   0.56517718   -6.2759706    503.68018  0.024332376  0.023288565           51 
 1726000   0.56361167   -6.2580964    503.08233  0.024289413  0.023271387           39 
 1727000   0.57403774   -6.2612407    505.23175  0.024379065  0.023254181           91 
 1728000   0.55675708   -6.2512194    505.87278  0.024395871  0.023237044           20 
 1729000   0.54869093   -6.2772373    504.57698  0.024319307  0.023219904           20 
 1730000   0.56558484   -6.2785932    504.29814  0.024291818  0.023202805           11 
 1731000   0.56738139   -6.2605305    503.72653  0.024250266  0.023185658           23 
 1732000   0.56216954   -6.2522527    504.36893  0.024267173  0.023168517           23 
 1733000   0.55166464   -6.2869331    503.77324  0.024224526   0.02315138           15 
 1734000   0.55575182   -6.2785871    503.45391  0.024195209  0.023134212           18 
 1735000   0.56438612   -6.2719236    504.57857  0.024235282  0.023117082           19 
 1736000   0.56674422   -6.2815903    503.56368  0.024172604  0.023099972           18 
 1737000   0.55903405   -6.2938323    504.23437  0.024190864  0.023082842           37 
 1738000   0.55178891   -6.2858232    503.23455  0.024129006  0.023065725           27 
 1739000    0.5572273   -6.2533507    503.19207  0.024113095  0.023048648           22 
 1740000   0.56108864   -6.2771883    503.17915  0.024098618  0.023031546           28 
 1741000   0.56930514   -6.2826589     504.2236  0.024134769  0.023014491           19 
 1742000   0.55800398   -6.2708742     504.3173  0.024125397  0.022997439           28 
 1743000   0.56076742   -6.2738496    502.56882   0.02402796  0.022980428           61 
 1744000   0.55896757   -6.2967065    503.17029  0.024042923  0.022963405           16 
 1745000   0.55254397   -6.2977213    503.78532  0.024058516  0.022946339           26 
 1746000   0.55237812   -6.2755091    503.40964  0.024026806  0.022929295           31 
 1747000   0.57141796   -6.2969397    504.17795  0.024049702  0.022912306           55 
 1748000   0.55175179   -6.2732419    505.02427  0.024076291  0.022895304           18 
 1749000   0.54866455   -6.2821727    503.96281   0.02401195  0.022878364           38 
 1750000   0.54757431   -6.2867658    504.03835  0.024001826  0.022861407           47 
 1751000   0.55054363    -6.303719    503.30379   0.02395316  0.022844442           57 
 1752000   0.55108715   -6.2749273    503.89412  0.023967566  0.022827508          129 
 1753000   0.54588217     -6.29892    503.18562  0.023920214  0.022810588           34 
 1754000   0.55513576   -6.2848932    504.14987  0.023952388  0.022793659           47 
 1755000   0.55893509   -6.3070792    503.47395  0.023906645   0.02277674           49 
 1756000   0.55742589   -6.2925398    502.73863  0.023858136  0.022759794           57 
 1757000   0.54616934   -6.2924341    502.94821  0.023854497  0.022742899           21 
 1758000   0.55927577   -6.3248682    503.57245  0.023870518  0.022726003           52 
 1759000   0.54847859   -6.3153832    503.68233  0.023862153  0.022709112           51 
 1760000   0.55226254   -6.3413051    503.21938  0.023826675  0.022692184           57 
 1761000   0.56087977   -6.2906108    504.31309  0.023864901  0.022675287           20 
 1762000   0.54534442   -6.3079243    503.14769  0.023796239  0.022658491           54 
 1763000   0.57211146   -6.3187033    502.71402  0.023762243  0.022641694           34 
 1764000   0.53127814   -6.3090847     503.2785  0.023775439  0.022624867           39 
 1765000   0.54625111   -6.3030664    501.99582  0.023701408   0.02260803           36 
 1766000   0.54101201   -6.3176021    503.92644  0.023779088  0.022591245           39 
 1767000   0.55195267    -6.313044    503.41275  0.023741405  0.022574422           54 
 1768000   0.55009134   -6.3358174    503.13305  0.023714793  0.022557612           28 
 1769000   0.55731047   -6.3151728    503.14126  0.023701774  0.022540808           61 
 1770000   0.53975382   -6.3066689     503.2825  0.023695033  0.022524003           29 
 1771000   0.55597599   -6.3294021    504.35211  0.023731983  0.022507247           65 
 1772000   0.55535178   -6.3438186    502.22776  0.023618687  0.022490499           98 
 1773000   0.53762976   -6.3412763    503.00439  0.023641868  0.022473742           53 
 1774000   0.54114631   -6.3334947     504.1453  0.023682136  0.022456996           79 
 1775000   0.54055732   -6.3244235    503.08786  0.023619148   0.02244024           69 
 1776000   0.53411177   -6.3165871    503.33581  0.023617484  0.022423497           93 
 1777000   0.55396268   -6.3355114    502.84744   0.02358129  0.022406783          110 
 1778000    0.5508303   -6.3422902    502.39896  0.023547008  0.022390074           43 
 1779000   0.54726995   -6.3495629    503.01549  0.023562652  0.022373376           80 
 1780000    0.5367732   -6.3349602    502.45318  0.023523089  0.022356672           41 
 1781000   0.54881543   -6.3245967    503.25508  0.023547402  0.022339975           57 
 1782000   0.54569926   -6.3480732    503.03781  0.023524028   0.02232328           72 
 1783000   0.55135856   -6.3248969    502.74665  0.023497226  0.022306631           30 
 1784000   0.54080258   -6.3417705    502.47127  0.023471192  0.022289974           95 
 1785000   0.53706716   -6.3301614    502.73258  0.023470242  0.022273305           87 
 1786000   0.54032177   -6.3624792    503.07935  0.023473281  0.022256602          108 
 1787000   0.54695884   -6.3208113    502.15007   0.02341681  0.022239941          108 
 1788000   0.55132216   -6.3171624     502.9869  0.023442715  0.022223327           56 
 1789000   0.53813661   -6.3554549    501.39934  0.023355661   0.02220671           87 
 1790000   0.54270308   -6.3345122    502.87636  0.023411376  0.022190082           89 
 1791000   0.54027918   -6.3340371    502.34966  0.023373798  0.022173502           53 
 1792000   0.53562331   -6.3356649    503.88737  0.023432262   0.02215695           39 
 1793000   0.52718527   -6.3429879     503.0096  0.023378397  0.022140381           37 
 1794000   0.52723674   -6.3329995    503.16561  0.023372613  0.022123828           32 
 1795000   0.54245382    -6.335198    502.41675  0.023324826  0.022107278           52 
 1796000   0.53937405   -6.3472401     502.6714  0.023323655  0.022090756           54 
 1797000    0.5402294   -6.3541002    502.18214  0.023287987   0.02207424           44 
 1798000    0.5347378   -6.3564015    502.55766  0.023292439  0.022057726           95 
 1799000   0.53358883    -6.334637    502.52108  0.023277797  0.022041195           83 
 1800000   0.54016747   -6.3519829    501.82327  0.023232559  0.022024686           58 
 1801000   0.53455559   -6.3587781    503.06129  0.023276943  0.022008192           64 
 1802000     0.534174   -6.3598485    501.83903  0.023207502  0.021991701           48 
 1803000   0.52940279   -6.3358668    502.61453  0.023230474  0.021975208          108 
 1804000   0.52360232   -6.3347936    502.56295  0.023215214  0.021958766           98 
 1805000   0.53335849   -6.3510714    502.14914  0.023183248  0.021942332           53 
 1806000   0.53228922   -6.3395687    502.41149  0.023182516   0.02192591           64 
 1807000   0.52388175   -6.3294162     503.6235  0.023225581  0.021909514           74 
 1808000   0.53641708   -6.3343615    502.70521   0.02317041  0.021893139          116 
 1809000   0.53210586   -6.3817598    502.46418  0.023146498  0.021876726          134 
 1810000   0.53641713   -6.3637859    502.25313  0.023123993  0.021860348           97 
 1811000   0.54168145   -6.3549688    502.47594  0.023121477  0.021843981           88 
 1812000    0.5245714   -6.3576354    501.37247  0.023057969  0.021827617          102 
 1813000   0.52328152    -6.360942     502.1916  0.023082901  0.021811269           66 
 1814000   0.52540009   -6.3648467    502.84106  0.023100012  0.021794966           67 
 1815000   0.53050795   -6.3676474    501.92344  0.023045154  0.021778662          104 
 1816000   0.53568912   -6.3676678    501.68061   0.02302132  0.021762376          120 
 1817000    0.5384288   -6.3501628    502.03785  0.023025034  0.021746046          147 
 1818000   0.51885213   -6.3400762    502.66593  0.023041159  0.021729799          114 
 1819000   0.53048925   -6.3568121    502.89348  0.023038917  0.021713565           95 
 1820000   0.52868371   -6.3682242    501.69578  0.022971419  0.021697345           96 
 1821000   0.53285763   -6.3695682    502.60356  0.023000346  0.021681093           40 
 1822000    0.5256975   -6.3797553    503.08714   0.02300984  0.021664838          265 
 1823000   0.51906956   -6.3628674     502.2181  0.022957492  0.021648621           90 
 1824000   0.52385063   -6.3690335     501.5358  0.022913734  0.021632362          167 
 1825000   0.52438019   -6.3812498    501.64983  0.022906385  0.021616101          214 
 1826000   0.51989901   -6.3729726    501.70159  0.022896203  0.021599839          109 
 1827000   0.52063618   -6.3796984     500.6485  0.022835637  0.021583633          159 
 1828000    0.5232018   -6.3730834    501.35922  0.022855544  0.021567451          158 
 1829000    0.5187257    -6.371269    501.86167  0.022865941  0.021551275          190 
 1830000   0.51943416   -6.3700552    502.33976  0.022875217  0.021535156          187 
 1831000   0.52996427   -6.3604519    502.24233  0.022858289  0.021519054           95 
 1832000   0.51640109   -6.3690192    501.12502  0.022794988  0.021502976          230 
 1833000   0.52105966   -6.3641996    500.97028  0.022775518  0.021486889           48 
 1834000   0.51134966   -6.3610902    502.80463  0.022846448  0.021470845           90 
 1835000   0.52284698   -6.3939061    502.69312  0.022828934  0.021454792           78 
 1836000   0.51828325   -6.3930672     501.7541  0.022773879  0.021438728          124 
 1837000   0.51928876   -6.3893779    502.16121   0.02277995   0.02142269           90 
 1838000   0.51442113   -6.3843744    501.46857  0.022736152  0.021406679          338 
 1839000   0.52142186   -6.3813032    502.44017  0.022767816  0.021390716          160 
 1840000   0.51785866   -6.3751267     502.6947   0.02276697  0.021374765          114 
 1841000    0.5254948   -6.3889344    502.11596  0.022728407  0.021358835          147 
 1842000   0.51694986   -6.3970355    501.71648  0.022697995  0.021342912          377 
 1843000   0.51367092   -6.3720734    502.53909  0.022722874  0.021326947          162 
 1844000   0.52732113   -6.3867005    502.05562  0.022688703  0.021311022          182 
 1845000   0.52870101   -6.4023438     502.2487  0.022685127  0.021295059          338 
 1846000   0.51441687   -6.4142102    501.10238   0.02262109  0.021279125          335 
 1847000   0.51552733   -6.3859493    501.79082  0.022639903  0.021263169          374 
 1848000   0.53093021    -6.393436     501.4548    0.0226125  0.021247214          187 
 1849000   0.51678562   -6.3928665    500.79125  0.022570365   0.02123126          284 
 1850000   0.50687871   -6.4125059    500.51202  0.022545587  0.021215322          276 
 1851000   0.51359148   -6.3976904    502.24587  0.022611465  0.021199422          431 
 1852000   0.52378675   -6.3989504     502.3045  0.022601894  0.021183568          216 
 1853000   0.51579701   -6.4053506    501.99499  0.022575777  0.021167708          359 
 1854000   0.50439617   -6.3989931    500.69304  0.022505081   0.02115189          297 
 1855000   0.50975548   -6.4100816    501.62371  0.022534758  0.021136047          321 
 1856000   0.50570265   -6.3816479    501.87005  0.022533677  0.021120184          189 
 1857000   0.49836824   -6.4138654    500.75806  0.022471642  0.021104332          333 
 1858000   0.50255279   -6.3945317    500.51513  0.022448651  0.021088484          361 
 1859000   0.52026373   -6.4049589    500.52393   0.02243697   0.02107266          313 
 1860000   0.50662915   -6.4229166    501.94401  0.022488531  0.021056837          483 
 1861000   0.51970184   -6.4102744    501.21423  0.022443768   0.02104103          386 
 1862000   0.50126354   -6.3950056    501.43595  0.022441638   0.02102522          330 
 1863000   0.50302777   -6.4043764    501.98263  0.022454045  0.021009431          294 
 1864000    0.5060533   -6.4249741    501.07379  0.022401368  0.020993652          239 
 1865000   0.51345317   -6.4285474    501.14911  0.022392722  0.020977896          279 
 1866000   0.49296522   -6.4217951    501.92278  0.022415272   0.02096217          317 
 1867000   0.50490916   -6.4087102    500.69537  0.022348481  0.020946471          320 
 1868000    0.5095112   -6.4210031     501.3588  0.022366114  0.020930767          301 
 1869000   0.50680102   -6.4319587    500.99494  0.022337923  0.020915065          351 
 1870000   0.50825663   -6.4244903     501.3078   0.02233992  0.020899396          462 
 1871000     0.507743   -6.4153867    501.63101  0.022342375  0.020883701          427 
 1872000   0.49493371   -6.4117317      500.794   0.02229318   0.02086799          356 
 1873000    0.5064234   -6.4115573    500.57814  0.022271674  0.020852304          490 
 1874000     0.508484   -6.4404763    500.94902  0.022276282  0.020836614          556 
 1875000   0.50345423   -6.4285358    500.02264  0.022223229  0.020820958          432 
 1876000   0.50061837   -6.4312302    500.13781  0.022216498  0.020805304          554 
 1877000   0.50337705   -6.4457304    501.03648   0.02224456   0.02078965          560 
 1878000   0.49774397   -6.4208973    499.96875  0.022185337  0.020774019          632 
 1879000   0.49843508   -6.4314255    500.93096  0.022216204  0.020758381          538 
 1880000   0.49937909   -6.4292994    500.49389  0.022185013  0.020742788          490 
 1881000   0.51244613   -6.4190439    500.27875  0.022163687  0.020727191          581 
 1882000   0.51025497   -6.4185011    500.47824  0.022160744  0.020711622          494 
 1883000   0.49300482   -6.4209225    500.59587  0.022154181  0.020696035          510 
 1884000   0.48827271   -6.4396897     500.2598  0.022127557   0.02068048          370 
 1885000   0.49101002   -6.4491069    500.84556  0.022141713  0.020664944          385 
 1886000   0.49088258   -6.4374887    501.37895  0.022153541  0.020649415          391 
 1887000   0.49413264    -6.423779    500.45822   0.02210114  0.020633889          556 
 1888000   0.49497916   -6.4287349    500.51828  0.022092085  0.020618399          488 
 1889000   0.49918378   -6.4427844    499.97453  0.022056402  0.020602905          638 
 1890000   0.49218937   -6.4444178    499.92228  0.022042429  0.020587404          536 
 1891000   0.49659456   -6.4438617    500.95788  0.022076409  0.020571896          614 
 1892000   0.50168557   -6.4590744    499.76738  0.022012305  0.020556403          632 
 1893000   0.49682545     -6.43041    500.74162  0.022043565  0.020540909          445 
 1894000   0.49957913   -6.4309978    501.20839  0.022052463  0.020525438          465 
 1895000   0.48804169   -6.4427001    500.81743  0.022023634      0.02051          463 
 1896000    0.4942461    -6.440626    500.22181  0.021985839  0.020494565          432 
 1897000    0.4989908   -6.4349136    500.47291   0.02198528  0.020479141          463 
 1898000   0.49866946   -6.4570588    500.15307  0.021959654   0.02046372          469 
 1899000   0.50897621   -6.4331778    499.59301  0.021923513  0.020448318          635 
 1900000   0.49243327   -6.4479758    499.84662  0.021923097  0.020432933          577 
 1901000   0.50151608   -6.4462359    500.32554  0.021932559  0.020417556          456 
 1902000   0.49606708    -6.443995    500.45448  0.021926677  0.020402199          566 
 1903000   0.48042498   -6.4346675    500.75861  0.021928473  0.020386849          630 
 1904000   0.49298899   -6.4670988    499.84983  0.021877181  0.020371513          545 
 1905000   0.49569811   -6.4569274    499.74579  0.021861146  0.020356169          480 
 1906000    0.4931733   -6.4615216    500.36565  0.021876777  0.020340845          543 
 1907000    0.5015623    -6.473787    498.88015  0.021800391  0.020325513          627 
 1908000   0.48438093   -6.4532339    498.42398  0.021769042  0.020310192          508 
 1909000   0.49235742   -6.4604896    500.12251  0.021831784  0.020294862          535 
 1910000   0.49195708   -6.4560521    499.58144  0.021796747  0.020279557          663 
 1911000   0.48529119   -6.4600155    499.34374  0.021774976  0.020264234          559 
 1912000   0.49747092   -6.4839078    499.36352  0.021764449  0.020248945          516 
 1913000   0.49952146   -6.4501058    499.71506  0.021768386  0.020233664          615 
 1914000   0.48421611   -6.4557854    499.98946  0.021768959  0.020218388          684 
 1915000   0.49081283   -6.4647552    498.12671  0.021676532  0.020203109          518 
 1916000   0.48601306   -6.4709562    499.72429  0.021734703  0.020187864          557 
 1917000    0.4833038   -6.4592412    498.53646  0.021671729  0.020172626          573 
 1918000   0.48386151   -6.4786683    498.76812  0.021670496   0.02015741          589 
 1919000   0.47906364   -6.4702416    499.54396  0.021692894  0.020142185          625 
 1920000   0.47607496   -6.4537982    499.72004  0.021689238   0.02012697          681 
 1921000   0.48028048   -6.4881624    498.68735  0.021633149  0.020111785          665 
 1922000   0.48889027   -6.4592647    499.08113  0.021638967  0.020096595          674 
 1923000   0.48178592   -6.4497443    499.26594  0.021635723  0.020081446          626 
 1924000   0.48821387   -6.4445183    499.06264  0.021615672  0.020066312          643 
 1925000   0.48764615   -6.4745106     499.5716  0.021626476  0.020051177          652 
 1926000   0.48196077   -6.4568739    500.19006  0.021642007  0.020036072          632 
 1927000   0.47957713   -6.4733284    499.40072  0.021596641  0.020020964          648 
 1928000   0.48611748    -6.463157    499.19399  0.021576504  0.020005845          703 
 1929000   0.48360251   -6.4783625    499.06449  0.021559724  0.019990768          593 
 1930000    0.4863597   -6.4560995    499.33965  0.021560434  0.019975704          590 
 1931000   0.48428743   -6.4701484    498.67045  0.021520389  0.019960629          760 
 1932000   0.48013866   -6.4666602    499.26064  0.021534707  0.019945558          693 
 1933000   0.48508871    -6.480689    499.07022  0.021515357  0.019930492          658 
 1934000   0.48140764   -6.4729117     499.0633  0.021503934  0.019915447          732 
 1935000   0.49150126   -6.4822431    498.75813  0.021479678  0.019900381          633 
 1936000   0.49329724   -6.4731042    498.42463  0.021454228  0.019885351          684 
 1937000   0.48593464   -6.4820554    499.40484  0.021485323   0.01987035          663 
 1938000   0.47764298   -6.4788272    499.58163  0.021481838  0.019855371          630 
 1939000   0.48046271   -6.4687747    498.09694  0.021406951  0.019840401          684 
 1940000   0.47591648   -6.4948096    498.84161  0.021427904  0.019825414          684 
 1941000   0.48327754   -6.4814197    498.43586  0.021399444  0.019810464          670 
 1942000   0.47289842   -6.4920351    499.47715  0.021433108  0.019795513          583 
 1943000    0.4763198   -6.4884818     498.6521  0.021386692  0.019780585          698 
 1944000   0.47553277   -6.4682673    498.58018  0.021372607  0.019765653          728 
 1945000   0.48232908   -6.4725926    498.43653  0.021355464  0.019750759          706 
 1946000   0.47044241   -6.4896511    498.54383  0.021349085  0.019735853          669 
 1947000    0.4828697   -6.4991336    498.42641  0.021333094  0.019720958          705 
 1948000    0.4815224   -6.4790923    498.18637  0.021311874  0.019706066          576 
 1949000   0.47831866   -6.4726743    500.17231  0.021385852  0.019691215          645 
 1950000   0.47780489   -6.4699146    498.87418   0.02131941   0.01967637          614 
 1951000   0.47433815   -6.4830094    499.05142  0.021316052  0.019661542          668 
 1952000   0.47083198   -6.4959412    498.63504  0.021287357  0.019646712          553 
 1953000    0.4726872   -6.4857373    498.91562  0.021288429  0.019631896          694 
 1954000   0.46249727   -6.4872883    498.92128  0.021277776  0.019617066          559 
 1955000    0.4822188   -6.5032154    498.50662  0.021249216  0.019602265          552 
 1956000   0.47095329   -6.4870726     499.0598  0.021261921    0.0195875          577 
 1957000   0.46985159    -6.475044    499.47134   0.02126858  0.019572756          553 
 1958000   0.47169236   -6.4913154    497.50238  0.021173918  0.019558008          757 
 1959000   0.47329884   -6.4737879    498.56104  0.021208144  0.019543263          552 
 1960000   0.45735136   -6.4867763    498.08724  0.021177179  0.019528545          593 
 1961000   0.48177899   -6.4810908    498.43819  0.021181293  0.019513825          625 
 1962000   0.47635118    -6.507917     498.9962  0.021194198  0.019499117          565 
 1963000   0.46695561   -6.4728008    498.84669  0.021177054  0.019484405          744 
 1964000   0.46288315   -6.4972681    499.45197  0.021191954  0.019469706          672 
 1965000   0.46884122   -6.4918819    497.98558  0.021118981  0.019455008          640 
 1966000   0.46580731   -6.4953056    498.48932  0.021129591  0.019440299          704 
 1967000   0.46899529   -6.4968137    498.70328  0.021127914  0.019425621          664 
 1968000   0.47435625   -6.5078789    499.08696  0.021133425  0.019410953          663 
 1969000   0.46656771   -6.5030741    498.34569  0.021091319  0.019396301          571 
 1970000   0.45947826    -6.490132    498.75811  0.021098059  0.019381668          694 
 1971000   0.46465551   -6.4950439    498.08089  0.021058722  0.019367064          719 
 1972000   0.46599924   -6.4839366    498.27011  0.021056039   0.01935247          779 
 1973000    0.4647922   -6.4992101    498.33586  0.021048144  0.019337887          689 
 1974000   0.47274409   -6.5070392    498.14243  0.021029316  0.019323303          711 
 1975000   0.47443279   -6.4990804    499.05874  0.021057331  0.019308724          797 
 1976000   0.46881279   -6.4893336    498.12571  0.021007326  0.019294154          871 
 1977000   0.45492135   -6.5054533    498.45489  0.021010575  0.019279595          800 
 1978000    0.4678164   -6.5141076    498.34955  0.020995515  0.019265044          849 
 1979000   0.45833804   -6.5269644     497.9701  0.020968928  0.019250481          757 
 1980000   0.46826348   -6.4995276    498.19098  0.020967634  0.019235939          755 
 1981000    0.4525233   -6.5061189    497.68703   0.02093585  0.019221432          723 
 1982000   0.46621404   -6.5103381    497.33474  0.020910475   0.01920692          766 
 1983000   0.47090153   -6.5031201    497.63357  0.020912488  0.019192436          811 
 1984000   0.45763705   -6.5119738    497.92899  0.020914356  0.019177953          895 
 1985000   0.46516533   -6.5167168    497.61276  0.020890544  0.019163483          844 
 1986000   0.45781388   -6.5332408    497.34904  0.020868959  0.019149006          812 
 1987000    0.4602713   -6.5106123    498.08196  0.020889195  0.019134561          813 
 1988000   0.45626921    -6.524552    496.82195   0.02082587  0.019120126          803 
 1989000    0.4537052   -6.5115502    497.62302  0.020848962  0.019105689          914 
 1990000   0.46140211   -6.5173907    497.20458  0.020820962  0.019091281          850 
 1991000     0.466533   -6.5193343     497.0686  0.020804813  0.019076874          895 
 1992000   0.46776447   -6.5245447    497.16206  0.020798279  0.019062494          889 
 1993000   0.46113801   -6.5105736    497.72698  0.020811464  0.019048124          908 
 1994000   0.44172125   -6.5230356    497.35561  0.020785507   0.01903378          864 
 1995000   0.45444721   -6.5191846    497.78498  0.020793023  0.019019428          984 
 1996000      0.45243   -6.5088805    498.16777  0.020798588   0.01900508          899 
 1997000   0.44907825   -6.5129324    498.32229  0.020794621  0.018990754          817 
 1998000   0.45556561   -6.5225297    498.63624  0.020797307   0.01897645          896 
 1999000   0.45876761   -6.5183705    498.16039  0.020767066  0.018962144          866 
 2000000   0.45797237   -6.5228264    497.38005  0.020724169  0.018947862          895 
 2001000   0.44913865     -6.50446     497.8689  0.020734171  0.018933587          892 
 2002000   0.45312553   -6.5034058    497.70609  0.020717037  0.018919321          836 
 2003000   0.45895349   -6.5248789    497.50134  0.020698175  0.018905081          841 
 2004000   0.46436834   -6.5111688    497.53578  0.020689279  0.018890834          869 
 2005000   0.44395287   -6.5286078    498.05066   0.02070036  0.018876608          853 
 2006000   0.45903738   -6.5179114    497.80618  0.020679885  0.018862395          835 
 2007000   0.45533647   -6.5285318    497.33809  0.020650145  0.018848183          858 
 2008000   0.45811819   -6.5443339    497.47991  0.020645746  0.018833985          925 
 2009000   0.44534367   -6.5339774    497.93119  0.020654189   0.01881979          882 
 2010000   0.46023076     -6.53073     497.3247  0.020618769  0.018805605          724 
 2011000   0.45288654   -6.5505187    496.52516  0.020575384  0.018791443          909 
 2012000   0.44711058   -6.5183987    498.10941  0.020630774  0.018777281          837 
Loop time of 5141.9 on 48 procs for 2000000 steps with 4000 atoms

Performance: 67212.514 tau/day, 388.961 timesteps/s
99.4% CPU use with 48 MPI tasks x no OpenMP threads

MPI task timing breakdown:
Section |  min time  |  avg time  |  max time  |%varavg| %total
---------------------------------------------------------------
Pair    | 371.19     | 395.53     | 418.43     |  50.5 |  7.69
Neigh   | 35.293     | 36.597     | 39.744     |  14.3 |  0.71
Comm    | 330.74     | 353.26     | 380.37     |  60.4 |  6.87
Output  | 4.5084     | 4.5106     | 4.5647     |   0.4 |  0.09
Modify  | 4292.7     | 4304.5     | 4318.9     |  10.7 | 83.71
Other   |            | 47.53      |            |       |  0.92

Nlocal:        83.3333 ave          89 max          77 min
Histogram: 3 1 3 5 8 13 4 4 2 5
Nghost:        2380.15 ave        2401 max        2362 min
Histogram: 1 6 4 10 7 8 4 3 2 3
Neighs:        16297.6 ave       18321 max       13795 min
Histogram: 1 1 7 4 10 3 7 6 7 2
FullNghs:      32594.9 ave       34948 max       29946 min
Histogram: 2 2 3 6 11 8 5 4 2 5

Total # of neighbors = 1564555
Ave neighs/atom = 391.13875
Neighbor list builds = 107364
Dangerous builds = 0

#clear
#
#next RN
#
#jump SELF
Total wall time: 1:25:45
