
units lj                  # Use reduced LJ style units
atom_style atomic         # Uncharged point particles
atom_modify map hash      # Needed for indexing of clusters etc
                          # Used to be able to find where atoms are in relation to each other.

lattice fcc 1.0 spacing 1 1 1
Lattice spacing in x,y,z = 1.5874011 1.5874011 1.5874011
region box block 0 10 0 10 0 10 units lattice
create_box 2 box
Created orthogonal box = (0.0000000 0.0000000 0.0000000) to (15.874011 15.874011 15.874011)
  3 by 4 by 4 MPI processor grid
create_atoms 1 box
Created 4000 atoms
  using lattice units in orthogonal box = (0.0000000 0.0000000 0.0000000) to (15.874011 15.874011 15.874011)
  create_atoms CPU = 0.002 seconds
set type 1 type/fraction 2 0.89 78393
Setting atom values ...
  3550 settings made for type/fraction
mass 1 1.0
mass 2 1.0
pair_style lj/cut  3.5
pair_modify tail  yes
pair_coeff 1  1  1.0  1.0   # Intearaction between 1 and 1 set with epsilon = 1 and sigma = 1
pair_coeff 1  2  1.5  0.8
pair_coeff 2  2  0.5  0.88

write_data data.0
System init for write_data ...
Neighbor list info ...
  update every 1 steps, delay 10 steps, check yes
  max neighbors/atom: 2000, page size: 100000
  master list distance cutoff = 3.8
  ghost atom cutoff = 3.8
  binsize = 1.9, bins = 9 9 9
  1 neighbor lists, perpetual/occasional/extra = 1 0 0
  (1) pair lj/cut, perpetual
      attributes: half, newton on
      pair build: half/bin/atomonly/newton
      stencil: half/bin/3d
      bin: standard
WARNING: Not all mixed pair coeffs generated from mixing. Use write_data with 'pair ij' option to store all pair coeffs. (../write_data.cpp:312)


#############################
#   M E L T   S Y S T E M   #
#############################

velocity all create 2.4 6583654 mom yes dist gaussian # Assign velocities
                                                    # Temperature 2.4, random number seed, zero linear momentum
                                                                                # Gaussian distribution

timestep 0.002   # simulation timestep
thermo 1000       # output thermodynamic data every 1000 steps bf 100

# Define a fix  in this case with index 1 applied to all
# particles in the simulation. This fix is for simulations
# in the anisotropic NPT ensemble. Note that we use the MTK
# correction.
fix 1 all npt temp 2.4 2.4 0.1 iso 5.68 5.68 0.5 mtk yes tchain 5 pchain 5 # Use NPT ensemble
                                                                         # Set temperature and pressure and damping
                                                                         # Numbers of thermostats in chain and in barostat
run 10000          # run for 10000 steps
Per MPI rank memory allocation (min/avg/max) = 3.642 | 3.644 | 3.648 Mbytes
Step Temp E_pair E_mol TotEng Press Volume 
       0          2.4   -3.2438273            0   0.35527274   -2.6679874         4000 
    1000    2.4410604   -2.3367996            0    1.3238757    5.5812669    3989.6218 
    2000    2.4621748   -2.2776747            0    1.4146642    5.9918682    3962.4621 
    3000    2.4201174   -2.3001221            0    1.3291464    5.6770131    3994.8691 
    4000    2.4052921   -2.3094981            0    1.2975382    5.5367359    4016.9985 
    5000     2.372212   -2.3091524            0     1.248276     5.791032    3977.1686 
    6000    2.3811993   -2.3597839            0    1.2111221    5.5281452    3964.8846 
    7000     2.366029   -2.3264671            0    1.2216892    5.7138636    3962.9317 
    8000    2.4235302   -2.3371755            0     1.297211     5.687552    3976.7651 
    9000     2.414399    -2.321722            0    1.2989711    5.8663752    3962.1307 
   10000    2.4382952   -2.3018576            0    1.3546707    5.7400129    4001.1779 
Loop time of 2.48689 on 48 procs for 10000 steps with 4000 atoms

Performance: 694842.517 tau/day, 4021.079 timesteps/s
99.6% CPU use with 48 MPI tasks x no OpenMP threads

MPI task timing breakdown:
Section |  min time  |  avg time  |  max time  |%varavg| %total
---------------------------------------------------------------
Pair    | 1.1007     | 1.1622     | 1.2459     |   3.2 | 46.73
Neigh   | 0.20708    | 0.21619    | 0.22699    |   0.9 |  8.69
Comm    | 0.75162    | 0.84901    | 0.93807    |   4.0 | 34.14
Output  | 0.00025285 | 0.00026504 | 0.00033613 |   0.0 |  0.01
Modify  | 0.22176    | 0.24399    | 0.26027    |   2.1 |  9.81
Other   |            | 0.01521    |            |       |  0.61

Nlocal:        83.3333 ave          92 max          68 min
Histogram: 1 0 1 1 3 15 8 12 3 4
Nghost:        1640.46 ave        1660 max        1619 min
Histogram: 1 5 2 7 7 6 9 5 1 5
Neighs:        9541.27 ave       10860 max        7398 min
Histogram: 1 0 1 2 8 8 10 13 3 2

Total # of neighbors = 457981
Ave neighs/atom = 114.49525
Neighbor list builds = 907
Dangerous builds = 212

# Equilibrate just above the melting temperature to avoid step fn in T

fix 1 all npt temp 1.25 1.25 0.1 iso 5.68 5.68 0.5 mtk yes tchain 5 pchain 5
run 2000
Per MPI rank memory allocation (min/avg/max) = 3.643 | 3.645 | 3.649 Mbytes
Step Temp E_pair E_mol TotEng Press Volume 
   10000    2.4382952   -2.3018576            0    1.3546707    5.7400129    4001.1779 
   11000    1.2696992   -3.4601423            0   -1.5560697    5.7941212    3072.3353 
   12000    1.2267956   -3.4401053            0    -1.600372    5.7922232    3077.8765 
Loop time of 0.613119 on 48 procs for 2000 steps with 4000 atoms

Performance: 563675.409 tau/day, 3262.010 timesteps/s
99.6% CPU use with 48 MPI tasks x no OpenMP threads

MPI task timing breakdown:
Section |  min time  |  avg time  |  max time  |%varavg| %total
---------------------------------------------------------------
Pair    | 0.26903    | 0.29642    | 0.32718    |   2.5 | 48.35
Neigh   | 0.039647   | 0.042205   | 0.045349   |   0.8 |  6.88
Comm    | 0.1937     | 0.2247     | 0.25589    |   3.2 | 36.65
Output  | 5.2914e-05 | 5.4336e-05 | 7.2198e-05 |   0.0 |  0.01
Modify  | 0.041148   | 0.044913   | 0.047861   |   0.9 |  7.33
Other   |            | 0.004827   |            |       |  0.79

Nlocal:        83.3333 ave          91 max          75 min
Histogram: 1 1 3 8 8 13 5 3 4 2
Nghost:        1958.81 ave        1977 max        1945 min
Histogram: 9 6 6 2 4 5 3 5 6 2
Neighs:        12387.5 ave       14204 max       10742 min
Histogram: 2 4 4 7 14 5 4 4 2 2

Total # of neighbors = 594601
Ave neighs/atom = 148.65025
Neighbor list builds = 144
Dangerous builds = 11

#############################
# L I N E A R  Q U E N C H  #
#############################

# Define solid atoms. This closely follows ten Wolde  Ruiz-Montero and Frenkel  Faraday Discuss  1996  104  93-110
# Compute components of the per-atom q6 vector
compute q6 all orientorder/atom degrees 1 6 components 6 nnn NULL cutoff 1.3 # compute the Q6 parameter.
                                                                             # Use all neighbours within 1.3 unit cell.

# get number of connections
compute coord_number all coord/atom orientorder q6 0.5

# An atom is solid if it has 8 or more connections (of a possible 14)
variable is_solid atom c_coord_number>=8
group solid dynamic all var is_solid    # Must be dynamic to update
dynamic group solid defined

# do clustering
compute cluster solid cluster/atom 1.3 # Create a cluster where all atoms within are solid and max 1.3 units from another member

# define chunks one chunk per cluster
compute clus_chunks solid chunk/atom c_cluster nchunk every compress yes  # Says which atoms are in which chunk

# count the size of each chunk
compute size_chunks solid property/chunk clus_chunks count


# Find the maximum entry in the vector of chunk sizes
variable max_n equal max(c_size_chunks)


# Thermo style which includes this variable
# thermo_style custom step temp pe vol v_max_n

thermo ${N}  # Print the thermo information every 100 steps
thermo 1000  

# Reset the npt fix at a lower temperature (below freezing)
fix 1  all npt temp  ${temp} ${temp}  0.1  iso  5.68  5.68  0.5  mtk yes tchain  5  pchain  5
fix 1  all npt temp  0.45 ${temp}  0.1  iso  5.68  5.68  0.5  mtk yes tchain  5  pchain  5
fix 1  all npt temp  0.45 0.45  0.1  iso  5.68  5.68  0.5  mtk yes tchain  5  pchain  5

dump dmp2 all dcd ${N} traj.dcd
dump dmp2 all dcd 1000 traj.dcd


compute msd all msd com yes
variable twopoint equal c_msd[4]/6/(step*dt+1.0e-6)
fix 9 all vector 10 c_msd[4]
variable fit equal slope(f_9)/6/(10*dt)
thermo_style custom step temp pe c_msd[4] v_twopoint v_fit v_max_n

fix 1 all npt temp 1.25 ${temp} 0.1 iso 5.68 5.68 0.5 mtk yes tchain 5 pchain 5
fix 1 all npt temp 1.25 0.45 0.1 iso 5.68 5.68 0.5 mtk yes tchain 5 pchain 5
run 5000000 # 5000000  # Run for this many steps
Neighbor list info ...
  update every 1 steps, delay 10 steps, check yes
  max neighbors/atom: 2000, page size: 100000
  master list distance cutoff = 3.8
  ghost atom cutoff = 3.8
  binsize = 1.9, bins = 8 8 8
  4 neighbor lists, perpetual/occasional/extra = 1 3 0
  (1) pair lj/cut, perpetual
      attributes: half, newton on
      pair build: half/bin/atomonly/newton
      stencil: half/bin/3d
      bin: standard
  (2) compute orientorder/atom, occasional
      attributes: full, newton on
      pair build: full/bin/atomonly
      stencil: full/bin/3d
      bin: standard
  (3) compute coord/atom, occasional
      attributes: full, newton on
      pair build: full/bin/atomonly
      stencil: full/bin/3d
      bin: standard
  (4) compute cluster/atom, occasional
      attributes: full, newton on
      pair build: full/bin/atomonly
      stencil: full/bin/3d
      bin: standard
Per MPI rank memory allocation (min/avg/max) = 9.824 | 9.830 | 9.835 Mbytes
Step Temp PotEng c_msd[4] v_twopoint v_fit v_max_n 
   12000    1.2267956   -3.4401053 1.1402984e-30 7.9187388e-33 8.3333333e+20            1 
   13000     1.254208   -3.4330783    1.0089941 0.0064679105  0.085712367            1 
   14000    1.2321311   -3.4671664     2.016362  0.012002155  0.085852525            2 
   15000    1.2595627    -3.475218     3.091258  0.017173655  0.086589531            1 
   16000    1.2497429   -3.4639816    4.2395206  0.022080836   0.08854956            2 
   17000    1.2393343   -3.4487502    5.2206573  0.025591456  0.088728277            1 
   18000    1.2534884   -3.4973287    6.2904544  0.029122473  0.088047022            1 
   19000    1.2579999   -3.4672225     7.493484  0.032866157  0.088665415            1 
   20000    1.2704706   -3.4804291     8.584222  0.035767591  0.089296033            1 
   21000    1.2490299   -3.4679844    9.7952691  0.038870115  0.090400574            1 
   22000    1.2281931   -3.4502747    10.977518  0.041581508  0.091323459            2 
   23000    1.2578861   -3.4648043    12.042449   0.04363206   0.09202516            3 
   24000    1.2376221    -3.469268     13.11521  0.045538924  0.092312681            3 
   25000    1.2460984   -3.4705002    14.075304  0.046917681  0.092244029            1 
   26000    1.2258158   -3.4810247    15.039785  0.048204438  0.091813921            3 
   27000    1.2289412   -3.4468749    16.140735  0.049817083   0.09134701            2 
   28000    1.2431433   -3.4867303    17.120014  0.050952423  0.090946933            2 
   29000    1.2430579     -3.43612    18.306845  0.052605875  0.090651765            1 
   30000    1.2353169   -3.4640198    19.360589  0.053779413  0.090439773            3 
   31000    1.2642474   -3.4698224    20.141228  0.054143086  0.090168457            2 
   32000    1.2382459   -3.4427039    21.169776  0.055129625  0.089722847            1 
   33000    1.2369915   -3.4688873    22.278791  0.056259571   0.08937801            3 
   34000    1.2640406    -3.453307    23.267786  0.057028886  0.089095863            1 
   35000    1.2421276   -3.4746448    24.190731  0.057596977  0.088852033            1 
   36000    1.2406237   -3.4706496    25.328067  0.058629784  0.088577688            2 
   37000    1.2380888    -3.447179    26.487754  0.059657103  0.088425592            2 
   38000    1.2896378    -3.479476    27.432439  0.060158857  0.088273712            2 
   39000    1.2619318    -3.454264    28.554987  0.061014928  0.088135866            3 
   40000    1.2375768   -3.4696544    29.603494  0.061673945  0.088022856            2 
   41000     1.255357   -3.4429028    30.762024  0.062524439  0.087978987            1 
   42000    1.2474926   -3.4454355    31.702957  0.062902692   0.08799333            2 
   43000    1.2357998   -3.4413697    32.731201  0.063432559  0.087989008            1 
   44000    1.2671503   -3.4899216    33.809403  0.064032959   0.08791863            1 
   45000    1.2520225   -3.4431884    34.902373  0.064634023  0.087862932            2 
   46000    1.2316121   -3.4685838    36.017753  0.065249552   0.08780207            2 
   47000    1.2282796   -3.5073611    36.919871  0.065460764  0.087769869            3 
   48000    1.2374633   -3.4508878    38.409971  0.066683976  0.087776109            2 
   49000    1.2564978   -3.4434163    39.521752  0.067213864  0.087892821            2 
   50000     1.223309   -3.4615422    40.366662  0.067277769  0.087950262            1 
   51000    1.2299602   -3.4624431    41.260276  0.067418751  0.087962527            2 
   52000    1.2473205    -3.466952    42.443485  0.068018405  0.087972727            1 
   53000    1.2531503   -3.4892589    43.243686  0.067993217  0.087975846            2 
   54000    1.2327279   -3.4774376    44.540797  0.068735797  0.087978034            3 
   55000    1.2509997   -3.4519875    45.593258  0.069080693   0.08798501            2 
   56000    1.2481509   -3.4366623    46.911607  0.069808938  0.088017209            2 
   57000    1.2409403   -3.4676918    47.557215  0.069528091  0.088022035            4 
   58000    1.2453779   -3.5110024    48.396242   0.06953483  0.087957964            2 
   59000    1.2305357   -3.4467618    49.366819  0.069727144  0.087903225            2 
   60000    1.2433433   -3.4579391    50.313558  0.069879941  0.087835943            3 
   61000    1.2526687   -3.4610407     51.46142  0.070302486  0.087775275            1 
   62000    1.2742405   -3.4628228    53.021317   0.07126521  0.087744403            2 
   63000     1.232689   -3.4522979    53.535747  0.070814479  0.087741998            1 
   64000    1.2432745   -3.4885353    54.881335  0.071460072  0.087718742            3 
   65000    1.2449265   -3.4707059    56.083302  0.071901669  0.087706665            2 
   66000    1.2610579   -3.4870279     56.88423  0.071823522  0.087689975            1 
   67000    1.2442227   -3.4607015    58.239092  0.072436681  0.087688033            1 
   68000     1.247514   -3.4524753    59.333666  0.072712825  0.087708723            2 
   69000    1.2177943   -3.4551459    60.200291  0.072705665  0.087710511            2 
   70000    1.2150134   -3.4660299    61.019684  0.072642481  0.087689132            2 
   71000    1.2705947   -3.4929062    61.508173  0.072192691   0.08761192            3 
   72000    1.2371707   -3.4508182    62.556853  0.072403764  0.087535178            1 
   73000    1.2405848   -3.5181767    63.370907  0.072341218  0.087417646            2 
   74000    1.2428062    -3.448629    64.411468  0.072535436  0.087329332            2 
   75000    1.2367939   -3.5057758     66.09569  0.073439655   0.08726945            2 
   76000    1.2286867   -3.4786233    66.877012  0.073330057  0.087241684            1 
   77000    1.2413515   -3.4718722    67.937387   0.07352531  0.087188958            1 
   78000    1.2194254    -3.455184    69.001251  0.073719284  0.087158655            1 
   79000    1.2375056   -3.4839915    70.084626   0.07392893  0.087130024            2 
   80000     1.252106    -3.476049    70.885749  0.073839321  0.087102597            1 
   81000    1.2581349   -3.4705956     72.05206  0.074127633  0.087055742            2 
   82000      1.25256   -3.4376946    73.338721   0.07453122  0.087023977            1 
   83000     1.210811   -3.4920831    74.332064  0.074630586  0.087016877            3 
   84000    1.2234951   -3.5008979    75.100561  0.074504524  0.086981193            2 
   85000    1.2324068    -3.446998    76.556269  0.075055165  0.086960127            1 
   86000    1.2261547   -3.4413136    77.858254  0.075444044  0.086951298            3 
   87000    1.2443346   -3.4872069    79.070028  0.075737574  0.086969429            3 
   88000    1.2247336   -3.5069008    80.420295  0.076155582  0.087018196            2 
   89000    1.2218336   -3.5038968    81.702723  0.076500676  0.087079746            3 
   90000    1.2408634   -3.4653828    82.632877  0.076511922  0.087158004            2 
   91000     1.233933   -3.4485339    83.904479  0.076835603  0.087221671            1 
   92000     1.252057   -3.4753766    84.977583  0.076972448  0.087264695            1 
   93000    1.2263103   -3.4936183    85.522424  0.076632996  0.087311533            2 
   94000    1.2554585   -3.4753317    87.082524  0.077200818  0.087359779            1 
   95000    1.2035667   -3.4859925    88.202656  0.077370751  0.087407833            2 
   96000    1.2457367   -3.4979591    88.606924  0.076915732  0.087448816            2 
   97000    1.2303481   -3.4859222    90.388681  0.077653506  0.087479789            5 
   98000    1.2426287    -3.485262    90.913836  0.077307683  0.087511428            2 
   99000    1.2170774   -3.5083876    91.707863  0.077195171  0.087542463            1 
  100000    1.2437938     -3.46262    93.209427  0.077674522  0.087565846            1 
  101000    1.2231557    -3.458957    94.559008  0.078018983  0.087602025            2 
  102000    1.2232437   -3.4673071    95.250966  0.077819417  0.087642893            1 
  103000    1.2032088   -3.4529771     96.57885  0.078138228  0.087685537            1 
  104000    1.2452362   -3.4878588    97.392565  0.078038914  0.087700745            2 
  105000    1.2234313     -3.45429    98.589959  0.078245999  0.087717745            1 
  106000    1.2233953   -3.4777145    99.255657  0.078031177  0.087738112            7 
  107000    1.2366788   -3.4776984    100.71214  0.078436242  0.087751804            4 
  108000     1.246874   -3.5172486    101.13952  0.078039752  0.087761892            1 
  109000    1.2377521   -3.5298256    102.33489  0.078237686  0.087756858            2 
  110000    1.2386681   -3.4480599    103.24348   0.07821476  0.087753584            3 
  111000    1.2257572   -3.4860114    103.98038  0.078063344  0.087756185            1 
  112000    1.2317626   -3.4938484    104.71742  0.077914745  0.087731167            5 
  113000    1.2229885   -3.4579746    105.74594  0.077983733  0.087714182            2 
  114000    1.2347404   -3.4638373    106.90968  0.078150351  0.087689234            2 
  115000    1.2324552   -3.4830473    108.08962   0.07832581  0.087667871            2 
  116000    1.2263819     -3.47074    109.24682  0.078481913  0.087653219            3 
  117000    1.2448176    -3.450209    110.59317  0.078770065  0.087635103            1 
  118000    1.2412873   -3.4810128    111.76612  0.078930879  0.087614692            2 
  119000    1.2420429   -3.4548668    112.10564  0.078505351  0.087585784            2 
  120000    1.2100978   -3.4818754    112.92479  0.078419991  0.087559891            1 
  121000     1.215115   -3.4813897    114.57558  0.078908803  0.087531271            1 
  122000    1.2381677   -3.4766483    114.79951  0.078414963  0.087511286            1 
  123000    1.2235327   -3.4786341    115.82801  0.078474262  0.087487008            2 
  124000    1.2285696   -3.4926247    116.95544  0.078599085  0.087453872            4 
  125000    1.2004122   -3.4787525    117.66204   0.07844136  0.087409383            4 
  126000    1.2902495   -3.4679847    118.54259  0.078401184  0.087367004            1 
  127000    1.2223544   -3.4789007    119.66058  0.078517441  0.087304419            1 
  128000    1.2481088   -3.4641553    120.56701  0.078494148   0.08725739            2 
  129000    1.2366641   -3.5051982    121.64738  0.078583576  0.087197136            1 
  130000    1.2417531   -3.4760894    122.02574  0.078221629  0.087141771            1 
  131000    1.2371888   -3.4812017    123.27549  0.078419525  0.087083518            1 
  132000    1.2434161   -3.4470472    124.37194  0.078517637  0.087035335            2 
  133000    1.2251695   -3.4691977    125.10713  0.078387929  0.086995406            2 
  134000    1.2239767   -3.5178802    126.06796  0.078400474  0.086943597            3 
  135000    1.2453865   -3.4719355    127.08335  0.078446514  0.086892669            1 
  136000    1.2254834   -3.4638302    128.28345  0.078605056  0.086842745            2 
  137000    1.2325144   -3.4953844    129.27335  0.078633422  0.086794941            2 
  138000    1.2286221   -3.5106737    129.89204  0.078437221  0.086733619            4 
  139000    1.2339917   -3.4839214    131.70932  0.078962421  0.086686059            1 
  140000    1.2151701    -3.492376    132.85757  0.079081885  0.086648656            1 
  141000    1.2153025   -3.4920898    134.06866  0.079236797  0.086615601            1 
  142000    1.2345315   -3.4723919    134.83614  0.079129188  0.086592368            3 
  143000    1.2371615   -3.4766301    136.15777  0.079346017   0.08657173            4 
  144000     1.190093   -3.4819484    137.52362  0.079585428  0.086561076            1 
  145000    1.2241129   -3.4867251    139.17335  0.079984682  0.086557653            2 
  146000     1.240854   -3.4738812    140.39803  0.080135863  0.086561956            2 
  147000    1.2604863   -3.4945674    140.35441  0.079565993  0.086555343            1 
  148000    1.2405256   -3.4963206    141.69986  0.079785956   0.08654739            2 
  149000    1.2581224   -3.4699692    142.13605  0.079494432  0.086542659            2 
  150000    1.2287862   -3.4940191    144.86533  0.080480737  0.086548501            2 
  151000    1.2263793   -3.5062978    145.07302  0.080062375  0.086559018            2 
  152000    1.2180184   -3.4728956    146.73802  0.080448476  0.086567978            2 
  153000    1.2384972   -3.4802973    147.10504  0.080122573  0.086573954            1 
  154000    1.2576339   -3.5127125    147.54859  0.079842311   0.08657225            1 
  155000    1.2320653   -3.5105939    148.89114     0.080049  0.086560981            1 
  156000    1.2326603   -3.4832774    149.90075  0.080075186  0.086551442            1 
  157000    1.2468101    -3.476545    151.53546  0.080432836  0.086544647            1 
  158000    1.2325173   -3.4950543    152.22477  0.080287328  0.086543011            3 
  159000    1.2310828   -3.4952102    153.24042  0.080314687  0.086530962            1 
  160000    1.2254979   -3.5017602    154.73066  0.080588884  0.086532593            2 
  161000    1.2203109   -3.5045743    155.78179  0.080632396  0.086533262            1 
  162000    1.2231144    -3.477574    156.84873  0.080683505  0.086538631            3 
  163000     1.231826   -3.4632213    157.68269   0.08061487  0.086543495            2 
  164000    1.2645329   -3.4888556    158.70555  0.080643065  0.086543097            3 
  165000    1.2244681   -3.5195438    159.06967  0.080338216   0.08654381            2 
  166000    1.2312968   -3.5043741    160.77192  0.080708794   0.08654157            2 
  167000    1.2186681   -3.4828901    162.69905   0.08118715  0.086541845            1 
  168000    1.2143381   -3.4967256    163.02948  0.080867796  0.086543063            2 
  169000    1.2480534   -3.4758913    163.86912  0.080803315  0.086542705            2 
  170000    1.2081526   -3.5097962     165.2511  0.081005443  0.086547297            1 
  171000    1.2042696   -3.4811079     165.9198  0.080857604  0.086559935            2 
  172000    1.2060227   -3.5033669    166.67318  0.080752511  0.086571166            2 
  173000    1.2190441   -3.4709274    168.54909  0.081189349  0.086583694            2 
  174000    1.2009798   -3.4632814     170.1787   0.08150321  0.086596354            1 
  175000    1.2376926   -3.5341592    170.52871  0.081204146  0.086612689            1 
  176000    1.2093054   -3.5013657    171.54735   0.08122507  0.086627868            3 
  177000    1.2289905   -3.5035551    171.68054  0.080828881  0.086634282            1 
  178000    1.2320955   -3.4715756    173.69752  0.081319061  0.086637987            3 
  179000    1.2371375   -3.4935158    174.69373   0.08132855  0.086647007            3 
  180000    1.2198757    -3.487783    175.82858  0.081402119  0.086655344            5 
  181000    1.2069487   -3.5415429    176.30015  0.081169498  0.086661928            1 
  182000    1.2324009   -3.4839022    177.58767  0.081313036  0.086671918            2 
  183000     1.222665   -3.4425447    179.52431  0.081750594  0.086677791            1 
  184000    1.2285815   -3.4964425    180.23395  0.081627694  0.086681238            2 
  185000    1.2226467   -3.5265525    180.94472  0.081506632   0.08667862            1 
  186000     1.205197   -3.4804713     181.4818  0.081309049  0.086683171            4 
  187000    1.2198819    -3.484012    182.22542  0.081205623  0.086676185            2 
  188000     1.226111   -3.5308455    182.28499  0.080800086   0.08666586            2 
  189000    1.2331979   -3.4784876    183.78143  0.081032375  0.086653039            1 
  190000    1.2231984   -3.4974235    184.04674  0.080722252  0.086634618            2 
  191000    1.2174451   -3.4774971    185.60993  0.080981646    0.0866149            1 
  192000    1.2208637   -3.5074686    186.18708  0.080810364   0.08659583            1 
  193000    1.2282178    -3.478308    188.36064  0.081330154  0.086585414            1 
  194000    1.2304785   -3.4659149    189.78505  0.081522789   0.08658014            2 
  195000    1.2000127   -3.4872858    189.64359  0.081044271  0.086574241            1 
  196000    1.2258279    -3.487717    190.37266  0.080940755  0.086562353            2 
  197000     1.234424   -3.4987272    192.02337  0.081228159  0.086549901            2 
  198000    1.2074356   -3.4977208    193.87938  0.081599066  0.086538918            3 
  199000      1.22015   -3.4915722    194.02089   0.08124828  0.086524757            3 
  200000    1.2437062    -3.479635    194.46761  0.081028169  0.086513649            1 
  201000    1.2500473   -3.4897922    196.36859   0.08141318  0.086501704            1 
  202000    1.2110887    -3.493139    197.75554  0.081582319  0.086489501            2 
  203000    1.2158429   -3.5038504    197.43949  0.081050692   0.08648313            1 
  204000    1.2340459    -3.500908     199.6718  0.081565278  0.086481461            1 
  205000    1.1979165   -3.5110892    200.07356  0.081330715  0.086471529            1 
  206000    1.2262143   -3.5097319    200.53102  0.081120961  0.086454565            1 
  207000    1.2422473    -3.504821    202.02845  0.081331904  0.086440222       -1e+20 
  208000    1.2244173   -3.5024516    202.97023  0.081318203  0.086428176            3 
  209000    1.2025739   -3.4852409    204.40445  0.081500976  0.086419458            2 
  210000    1.2024621   -3.4798834    206.25085  0.081845577  0.086412663            2 
  211000    1.2691557   -3.5155956    206.49587  0.081554453  0.086401803            3 
  212000     1.209051    -3.508232     205.8812  0.080928143  0.086384435            4 
  213000    1.2091131   -3.4896186    208.45384  0.081554711  0.086368812            3 
  214000    1.2265545    -3.522335     208.1647  0.081061019   0.08635339            1 
  215000     1.216148   -3.5011952     210.4278  0.081561162  0.086340136            2 
  216000    1.2477235   -3.4820618    211.07116  0.081431773  0.086325054            1 
  217000    1.1773607   -3.4946324    213.13247  0.081848105   0.08631014            1 
  218000    1.2305112   -3.5209888    213.09874  0.081459762  0.086293832            2 
  219000    1.2263623   -3.5251988    213.36971  0.081190909  0.086282083            2 
  220000     1.231579   -3.4896077    216.01932  0.081825501  0.086271263            2 
  221000    1.2421215   -3.4881875    216.31272  0.081565881  0.086266128            2 
  222000    1.1985413   -3.5183085    216.96218   0.08144226  0.086255709            1 
  223000    1.2259002   -3.4950292    219.81562  0.082143356  0.086246274            1 
  224000    1.2292154   -3.4977114    219.34339  0.081600962  0.086237003            3 
  225000    1.2501407   -3.4865375    220.88913  0.081810791  0.086227919            4 
  226000    1.2184089    -3.509687    221.19239  0.081560614  0.086211842            1 
  227000    1.2080294   -3.5044656    221.14921  0.081185467  0.086197446            3 
  228000    1.2065996   -3.4979564    223.05779   0.08152697  0.086186029            1 
  229000    1.2192263    -3.519717    223.83318  0.081453122  0.086172018            1 
  230000    1.2023898   -3.5313065    225.03815  0.081535563  0.086162065            2 
  231000    1.2347481   -3.5081643    226.12107  0.081573259  0.086147253            2 
  232000    1.2140187   -3.5054554    227.92453  0.081869442  0.086136303            2 
  233000    1.1953612   -3.5015677     227.7753  0.081464699   0.08612575            3 
  234000    1.2084465   -3.4942325     229.1456   0.08160456   0.08611427            1 
  235000    1.2340555   -3.5119919    230.60432   0.08177458  0.086105806            1 
  236000     1.198835   -3.4990472    232.25383  0.082010533  0.086102442            2 
  237000    1.2215204   -3.5066549    232.95503   0.08191105  0.086100768            1 
  238000    1.2014797   -3.5104616    234.29834  0.082037232  0.086096565            2 
  239000    1.1729072   -3.4964834     234.6887  0.081830092  0.086089356            2 
  240000    1.2081554   -3.5017004    235.80771  0.081877677    0.0860854            2 
  241000    1.2112014   -3.5288962    237.45801  0.082108578  0.086076348            4 
  242000    1.2179302   -3.4939541    237.63828  0.081831363  0.086065524            1 
  243000     1.223405   -3.4949597    238.00344  0.081619835  0.086053084            2 
  244000    1.2195555   -3.4846631    239.18554  0.081689051  0.086040178            3 
  245000     1.218672   -3.5101085    240.08601  0.081661907  0.086028485            1 
  246000    1.2298857    -3.489993    241.17929    0.0817003  0.086014161            2 
  247000    1.2331453   -3.5032177    242.34152  0.081761647  0.086002441            2 
  248000    1.2156406   -3.5285963    244.35902  0.082109887  0.085997999            1 
  249000     1.190334   -3.5480098    245.22759  0.082070815  0.085993679            2 
  250000    1.2126086   -3.4698117    247.75816  0.082586052  0.085993206            2 
  251000     1.213836   -3.4882352    249.17292  0.082726733  0.085999086            4 
  252000    1.1961714   -3.5100037    249.13595  0.082386228   0.08600394            3 
  253000    1.1956545   -3.4986408     250.7404  0.082589065   0.08600574            3 
  254000    1.2112241   -3.5251152    251.59466  0.082544178   0.08600996            3 
  255000    1.2047807   -3.5508067    250.73333  0.081938997  0.086010463            2 
  256000    1.2482419   -3.4916134    253.85054  0.082633638  0.086010323            2 
  257000    1.2160841   -3.4830881    254.49195  0.082520089   0.08601641            2 
  258000    1.2041362   -3.5401267    255.34216  0.082474859  0.086017779            3 
  259000    1.2292037   -3.5114379    257.10307  0.082722994  0.086019656            2 
  260000    1.1829577   -3.5329698    256.45124  0.082195912   0.08602184            3 
  261000    1.2193303   -3.5192651    258.54876   0.08255069  0.086018179            2 
  262000    1.2137085   -3.5081451    259.24495  0.082457044  0.086016411            1 
  263000    1.1996241    -3.502522    260.15044  0.082430431  0.086009644            1 
  264000     1.225776   -3.5174031    259.20067  0.081818392   0.08600325            3 
  265000    1.2212411   -3.4743122    260.70379  0.081982323  0.085994001            2 
  266000     1.190409   -3.5252324    262.05236  0.082096604  0.085984408            4 
  267000    1.1943475   -3.5254315    262.11127  0.081807514  0.085972701            2 
  268000    1.2015379   -3.5187312     262.6469  0.081668813  0.085953406            2 
  269000    1.2171586    -3.495819    264.79088  0.082029394  0.085936906            1 
  270000    1.1815636   -3.5062248    264.26003  0.081561739  0.085924047            2 
  271000    1.2454999   -3.5399037    264.75484  0.081412926  0.085906607            3 
  272000    1.2057575   -3.5476157    265.99057  0.081492208  0.085889927            4 
  273000    1.2092702   -3.4974902    267.47762  0.081647624  0.085872081            1 
  274000     1.223853   -3.5286629    268.23133  0.081578871  0.085849258            2 
  275000    1.1936598   -3.4855525    269.21365  0.081579894  0.085829087            2 
  276000     1.188812   -3.5256388    269.49909  0.081370497  0.085807764            3 
  277000    1.2144891   -3.4761388    272.54347  0.081992619  0.085786534            3 
  278000    1.2309668   -3.4898799    273.01584  0.081839281  0.085763889            6 
  279000    1.1852077   -3.5403494    272.74158  0.081464032  0.085739256            1 
  280000    1.2130087   -3.5083346    272.97616  0.081242905  0.085715248            4 
  281000    1.2195847   -3.5166839    275.02661  0.081561865   0.08568768            1 
  282000    1.1965018   -3.5165201    274.33708  0.081068877  0.085660784            1 
  283000    1.1976482   -3.5135991    276.87952  0.081531071  0.085635692            1 
  284000     1.215595   -3.4973354    277.29703  0.081366499  0.085610787            1 
  285000    1.2145531   -3.5010912    278.58759  0.081458358  0.085585556            1 
  286000    1.1890459   -3.5082136    278.97294  0.081285821  0.085560178            1 
  287000    1.1999592   -3.5303137    279.38941  0.081123522  0.085531825            2 
  288000    1.2127896   -3.5345753    279.78251  0.080955587  0.085500591            3 
  289000    1.2254287   -3.5193584     280.9631  0.081015889  0.085473973            3 
  290000      1.20271   -3.5242041    281.57723  0.080912997  0.085442857            2 
  291000    1.2118878   -3.5107475    284.14713  0.081370884  0.085413334            2 
  292000    1.2241347    -3.514417    285.94896  0.081606437  0.085388734            3 
  293000    1.2199496   -3.5095124    286.64309  0.081525339  0.085366595            1 
  294000    1.2305141   -3.5021996    288.56296  0.081792221   0.08534412            1 
  295000    1.2007255   -3.5074414    288.44727  0.081482279  0.085323037            2 
  296000    1.2125909   -3.5312361    291.05219  0.081940368  0.085305953            1 
  297000    1.2062556   -3.5528292    291.72707  0.081853834  0.085288773            2 
  298000    1.1851139   -3.5179943    290.59995  0.081263967  0.085271599            5 
  299000    1.2252643   -3.5079235    292.89908  0.081632964  0.085254735            5 
  300000    1.2003038   -3.5315167    293.73221  0.081592279  0.085238484            3 
  301000    1.1823734   -3.5659043    294.82491  0.081623729  0.085219861            3 
  302000    1.1835624   -3.5151708    295.77309   0.08161509  0.085201379            2 
  303000    1.2188159   -3.4892528    296.14909  0.081449145  0.085183027            2 
  304000    1.2071813   -3.5185181    298.28986  0.081768054   0.08516285            2 
  305000    1.1902373   -3.5199168    298.52626  0.081564552  0.085141014            2 
  306000    1.1778761   -3.5262241    298.47586  0.081284274  0.085122881            5 
  307000     1.187621   -3.4906908    298.54298  0.081037726  0.085100188            2 
  308000    1.1763537   -3.5186505    300.31916  0.081255183  0.085076811            1 
  309000    1.2065813   -3.5064364    301.75921  0.081380585   0.08505311            3 
  310000    1.2145478   -3.5476888    301.48178   0.08104349  0.085031512            1 
  311000    1.2214628   -3.5254087    303.22619  0.081250318  0.085010017            2 
  312000    1.1988576   -3.4890962     304.9967  0.081462793  0.084989306            2 
  313000    1.1899292   -3.5007642    306.32535  0.081556271  0.084967569            2 
  314000    1.1965737   -3.5060082    306.99226  0.081473529  0.084946523            2 
  315000    1.1685324   -3.5106265    307.16507    0.0812606  0.084924404            2 
  316000    1.1924818   -3.5415091    307.82041  0.081176269  0.084904204            2 
  317000    1.2043679   -3.5625292    308.38115  0.081067601  0.084882999            5 
  318000     1.177097   -3.5183231     310.4227  0.081347666  0.084859991            2 
  319000    1.2017496   -3.5577764    307.74307  0.080392653  0.084836687            4 
  320000    1.1834237   -3.5100354    311.37431   0.08108706  0.084812507            1 
  321000    1.2012237   -3.5332984    312.61485  0.081156502  0.084789931            1 
  322000    1.2061871   -3.5385231    313.59666  0.081158555  0.084769758            2 
  323000    1.1797587   -3.5007951    315.94827  0.081514001  0.084750223            1 
  324000    1.1673247   -3.5264225    315.98755  0.081272518   0.08473112            4 
  325000     1.233836   -3.5235417    317.74367  0.081472735  0.084711878            1 
  326000    1.1944065   -3.5492618    318.25831  0.081354374  0.084693992            4 
  327000    1.1962832   -3.5260172    319.46914  0.081414155  0.084677367            3 
  328000    1.2085558   -3.5318213    321.64506  0.081718765   0.08466236            2 
  329000    1.1626994   -3.5238036    321.56272  0.081449523  0.084648049            3 
  330000    1.1986813   -3.5316383    321.77254  0.081255691  0.084633974            2 
  331000    1.2257418   -3.5267615    322.85111  0.081281749  0.084617199            2 
  332000    1.2174841   -3.5375016    324.09905  0.081350162  0.084602359            2 
  333000    1.2136842   -3.5409898    324.53396  0.081214704  0.084587296            3 
  334000    1.1886276   -3.5444882    325.77065  0.081280102  0.084570087            1 
  335000    1.2084537    -3.551841     327.3799  0.081437785  0.084553076            1 
  336000    1.2181158   -3.5408912    328.68699  0.081519592   0.08453918            2 
  337000    1.1854387   -3.5580808     328.8815  0.081325792  0.084524454            4 
  338000    1.2075869   -3.5159307    330.61587  0.081512789  0.084509841            2 
  339000    1.1987476   -3.5311762    331.87985   0.08158305  0.084496453            1 
  340000    1.2113058   -3.5166619    333.40489  0.081716884    0.0844856            2 
  341000    1.2086511   -3.5274292    333.89642  0.081597366  0.084471836            2 
  342000     1.173184   -3.5307045    333.79626  0.081334372  0.084457277            2 
  343000    1.1915433   -3.5667577     334.5912  0.081290378  0.084441109            1 
  344000    1.1997838   -3.4837104    336.10064  0.081419728  0.084422697            2 
  345000    1.2091786   -3.5204032    335.36283  0.081005514  0.084403839            2 
  346000    1.2142327   -3.5540045    336.95192  0.081154124  0.084384464            3 
  347000    1.1733774    -3.542342    337.30551  0.081005166  0.084368856            1 
  348000      1.18155   -3.5145193    338.38592  0.081031111  0.084350681            3 
  349000    1.1800349    -3.516871    341.40941  0.081520873  0.084333061            1 
  350000    1.1792606   -3.5242088    340.78567  0.081139445  0.084316338            3 
  351000    1.1976871   -3.5045938    340.75414  0.080900793  0.084298746            1 
  352000    1.1875296   -3.5000052    343.19589  0.081249027  0.084280155            3 
  353000    1.1993791   -3.5416422    342.37175  0.080824303  0.084263015            1 
  354000     1.193135   -3.5245994    344.25564  0.081039464  0.084244175            2 
  355000    1.1978129   -3.5452001    344.49916  0.080868347  0.084223379            4 
  356000    1.1988877   -3.5027935    346.56457  0.081124665  0.084202942            2 
  357000    1.2041354   -3.5317734    348.00963  0.081234742  0.084182766            2 
  358000    1.1820121    -3.542831    347.15876  0.080809768  0.084160798            3 
  359000    1.1653203    -3.514574     349.0292  0.081018847  0.084141396            2 
  360000    1.1877553   -3.5232279    351.14567   0.08128372  0.084122005            4 
  361000    1.2294703   -3.5075486    349.99387  0.080792676  0.084098729            2 
  362000    1.1797588   -3.5456672    349.96097  0.080561916  0.084075126            2 
  363000    1.2171995     -3.53033     351.1295   0.08060824  0.084052434            3 
  364000    1.2038155     -3.53608    353.75915  0.080988817  0.084030243            1 
  365000    1.1888778   -3.5400104    354.60436    0.0809599   0.08401264            1 
  366000    1.1654147   -3.5479613    357.38974  0.081372892  0.083994979            2 
  367000    1.1889505   -3.5417997    357.65963   0.08121245  0.083978243            4 
  368000    1.1834736   -3.5572909     358.4551  0.081171898  0.083962208            2 
  369000     1.196675   -3.5653782    358.98413  0.081071392  0.083948372            3 
  370000    1.1984147   -3.5384985    360.89106  0.081281769  0.083933744            5 
  371000    1.2149665   -3.5429773    360.96864  0.081080108  0.083917136            2 
  372000    1.2165937   -3.5360694    363.14875  0.081350527  0.083904259            2 
  373000    1.1932459   -3.5131682    364.18342  0.081363588  0.083892373            1 
  374000    1.2116351   -3.5628824    363.43289  0.080978809  0.083879201            1 
  375000    1.1938282   -3.5420551    364.64732  0.081032738  0.083863828            2 
  376000    1.1895294    -3.530628    366.00725  0.081118628  0.083850236            1 
  377000    1.1960239   -3.5531419    366.79454  0.081077484  0.083833867            2 
  378000    1.1982335   -3.4828846    369.19643   0.08139251  0.083818064            3 
  379000    1.2042238   -3.5262233    368.70158   0.08106895  0.083801299            1 
  380000    1.2002489   -3.5536661    369.20362  0.080965706  0.083786185            1 
  381000    1.1930396   -3.5370395    369.43273  0.080803308  0.083768464            2 
  382000    1.1652647   -3.5348348    371.31767  0.081002981  0.083750126            3 
  383000    1.1866978   -3.5534532    372.01001  0.080942126  0.083734251            6 
  384000    1.2046785   -3.5416535    373.74732   0.08110836  0.083719658            1 
  385000    1.2091414   -3.5442299    374.53691  0.081068596  0.083704203            4 
  386000    1.1755138   -3.5245652    375.53468  0.081073981  0.083687871            3 
  387000    1.1902613   -3.5406407    375.77392  0.080916003  0.083671913            2 
  388000    1.1726581    -3.530706    377.66274  0.081113131  0.083656748            2 
  389000    1.1811054   -3.5453149    376.77674   0.08071481  0.083640978            2 
  390000    1.1922281   -3.5135399    380.91363  0.081391801  0.083624331            1 
  391000    1.1828742   -3.5481284    379.05853  0.080788263   0.08360975            2 
  392000    1.1806537   -3.5337046    380.37625  0.080862297  0.083593854            2 
  393000    1.2015163   -3.5653745    380.64692  0.080713936  0.083579239            1 
  394000    1.1940411   -3.5668006    380.68658  0.080517465  0.083560122            1 
  395000    1.1999338    -3.561503    380.72728   0.08032221  0.083538591            2 
  396000    1.1810237   -3.5407784    383.40014  0.080681848  0.083517961            4 
  397000    1.1901832   -3.5447645    385.29229  0.080875796  0.083498891            2 
  398000    1.2211551   -3.5245248    384.77937  0.080565196  0.083478018            1 
  399000    1.2101492   -3.5110437    385.45436  0.080504252  0.083460787            2 
  400000    1.2060709   -3.5549767    386.20451  0.080459273  0.083441403            1 
  401000    1.1633539   -3.5206105    387.02794  0.080429747  0.083422716            2 
  402000    1.1791913   -3.5330034     390.4504  0.080939138  0.083403949            2 
  403000    1.1650078   -3.5308462    388.81308  0.080399728  0.083381808            4 
  404000    1.1604293   -3.5601101     389.1737  0.080275103  0.083360955            5 
  405000    1.1802261   -3.5393557    391.79714  0.080616695  0.083340105            2 
  406000    1.2059379   -3.5386243    391.50472  0.080358112  0.083319908            1 
  407000    1.2044434   -3.5511827    392.06781  0.080275964  0.083299297            2 
  408000    1.2017577    -3.551786    393.53248  0.080378366   0.08327842            5 
  409000    1.1865496   -3.5596103    394.99978  0.080480803  0.083259868            2 
  410000    1.1842604   -3.5337269    399.12123  0.081122202  0.083240072            1 
  411000    1.1930424    -3.517281    398.50218  0.080799307  0.083220977            4 
  412000    1.1972206   -3.5761673    398.79853  0.080663132  0.083204721            1 
  413000    1.1610522   -3.5728409     399.0866  0.080525949  0.083188655            2 
  414000    1.1843895   -3.5583861     400.7523  0.080666727  0.083173854            2 
  415000    1.1938514   -3.5576053    401.35047  0.080592464  0.083157539            2 
  416000    1.1680222   -3.5775537    400.80493  0.080289449  0.083142919            2 
  417000    1.1835883   -3.5788564    404.27571   0.08079051  0.083126423            2 
  418000    1.1666899   -3.5507898    406.81091  0.081102654  0.083111148            3 
  419000    1.1595123     -3.53291     407.7587  0.081097594  0.083098724            3 
  420000    1.1797551   -3.5436424    409.17828  0.081186167   0.08308609            2 
  421000    1.1995394   -3.5686285    406.03858  0.080371848   0.08307122            2 
  422000    1.1778882   -3.5513494    408.86123   0.08073879  0.083056505            2 
  423000    1.1839507   -3.5692604    407.61828  0.080303051  0.083040411            1 
  424000    1.1773665   -3.5492764    409.83864  0.080550047  0.083025363            4 
  425000    1.1855194   -3.5669892    409.70291  0.080333905  0.083011251            2 
  426000    1.1968518   -3.5599952    410.81917  0.080363687   0.08299415            3 
  427000    1.1767821   -3.5593446    412.15577  0.080436332  0.082977663            2 
  428000    1.1733311    -3.552379    416.13343  0.081022863  0.082963988            1 
  429000    1.1929534     -3.52448     416.2778  0.080862043  0.082947872            1 
  430000    1.1613387   -3.5183183    416.65957  0.080747979  0.082934017            2 
  431000    1.1825523    -3.550333    419.34924  0.081080673  0.082921863            1 
  432000    1.1894591   -3.5396337    418.43385  0.080716406  0.082909776            2 
  433000      1.19243   -3.5415629    419.61499   0.08075731  0.082897332            1 
  434000    1.1941443   -3.5872883    419.99162  0.080643553   0.08288526            2 
  435000    1.1796762   -3.5598696    420.83039  0.080618848  0.082872268            3 
  436000    1.1933576   -3.5495544    423.08983  0.080865793  0.082859632            3 
  437000    1.1907333    -3.580289    423.92105  0.080839254  0.082847964            3 
  438000     1.168634   -3.5407333    424.98568  0.080857244  0.082836752            2 
  439000    1.1890888   -3.5525641     427.3379   0.08111957   0.08282587            2 
  440000    1.1829272   -3.5519655    427.46917  0.080960069  0.082814191            1 
  441000    1.1716554   -3.5703823    428.14918  0.080904985  0.082801819            1 
  442000    1.1735713   -3.5651407    429.02907  0.080887833  0.082790811            1 
  443000    1.1960032    -3.536452    429.95157  0.080878775  0.082779434            2 
  444000    1.1524024   -3.5376784    430.29202  0.080760515  0.082767922            2 
  445000    1.1729294   -3.6076331    427.80402  0.080113113   0.08275441            3 
  446000    1.1711762   -3.5515261    431.97055  0.080711986   0.08274106            1 
  447000    1.1673891   -3.5698381    432.91684  0.080707838  0.082729947            1 
  448000    1.2004982   -3.5331452    433.65738  0.080665435  0.082718058            1 
  449000    1.1682297   -3.5413981    432.65795  0.080300288  0.082705575            3 
  450000    1.1938372   -3.5604768    434.25629  0.080417832  0.082693139            2 
  451000      1.17945   -3.5597377    437.17876  0.080779519  0.082681076            2 
  452000    1.1884392   -3.5433316    435.84517  0.080354936  0.082668704            6 
  453000    1.1768532   -3.5553408    436.39087  0.080277938  0.082653899            2 
  454000     1.170831   -3.5575715    437.77422  0.080355032  0.082639776            1 
  455000    1.1791913   -3.5534287    438.97511  0.080398371  0.082625916            5 
  456000    1.1718176   -3.5555003     440.1092  0.080429313  0.082612457            1 
  457000    1.1623931    -3.565232    440.96707  0.080409751  0.082597099            1 
  458000    1.1942312   -3.5785175    441.64418  0.080357383  0.082581861            3 
  459000    1.1804996   -3.5596526    442.81199  0.080394334   0.08256633            2 
  460000    1.1940918    -3.565288    443.52463  0.080348665  0.082550342            6 
  461000    1.2028244   -3.5603726    442.13792  0.079923702  0.082533311            3 
  462000    1.1709826   -3.5492214    444.54132   0.08018422  0.082515555            3 
  463000    1.1753543   -3.5506431    443.34189  0.079795156  0.082498654            2 
  464000    1.1778852   -3.5467992    446.30331  0.080155048  0.082481169            3 
  465000    1.1706102   -3.5629296    447.78144  0.080247569  0.082461249            3 
  466000    1.1721165   -3.5092649    448.63097  0.080227283  0.082442411            1 
  467000    1.1618934   -3.5759518    447.50632  0.079854803  0.082422469            2 
  468000    1.1814735   -3.5517175    448.53753  0.079867793   0.08240113            1 
  469000    1.1648577   -3.5704941    450.03972  0.079964414  0.082382401            2 
  470000    1.1428521   -3.5300255    451.38158  0.080032195  0.082362807            3 
  471000    1.1778944   -3.5502796    450.55926  0.079716784  0.082343019            1 
  472000    1.1649083   -3.5518898    450.86183  0.079601311  0.082324635            2 
  473000    1.1620151   -3.5533944    453.94321    0.0799759  0.082305241            2 
  474000    1.1666342    -3.577523    453.81744  0.079785063  0.082284904            3 
  475000    1.1822331   -3.5789005    453.96001  0.079642107  0.082265677            2 
  476000    1.1791009   -3.5632915    454.01029  0.079483594  0.082244591            2 
  477000    1.1764092   -3.5577082    454.74387  0.079445121  0.082222847            1 
  478000    1.1849541   -3.5681392    454.86963  0.079300841  0.082199263            3 
  479000      1.15654   -3.5351783    458.84242  0.079826447  0.082177992            2 
  480000    1.1599575   -3.5794976    458.04979  0.079522533  0.082156633            2 
  481000    1.1630151   -3.5596767    459.62835  0.079630691  0.082134029            2 
  482000    1.1845366   -3.5508619    459.42306  0.079429989  0.082110499            1 
  483000    1.1852106    -3.547124    460.38471  0.079431455  0.082085915            2 
  484000    1.1594966   -3.5894042    461.69544  0.079493016  0.082062111            4 
  485000    1.2045238   -3.5773313    462.41803  0.079453269   0.08203965            1 
  486000    1.1676938   -3.5519917    466.85035  0.080049785  0.082019033            1 
  487000    1.1872155   -3.5500324    466.35899  0.079801333  0.081998106            1 
  488000    1.1759819   -3.6118017     466.8767  0.079726213  0.081978882            2 
  489000    1.1537621   -3.5947992    464.86978  0.079221162  0.081957584            2 
  490000     1.174135   -3.5687475    467.65654  0.079533425  0.081935733            2 
  491000    1.1748908   -3.5960056    466.64333  0.079199478  0.081916312            2 
  492000    1.1640727   -3.5436862    468.84549    0.0794115   0.08189602            2 
  493000    1.1762528   -3.5644744    468.89788  0.079259276  0.081877211            3 
  494000    1.1518462   -3.5483576    470.82003  0.079423082  0.081856549            1 
  495000    1.2184374   -3.5581353    471.88643  0.079442159  0.081837295            1 
  496000    1.2192133   -3.5512543    474.62886  0.079742752  0.081819057            2 
  497000    1.1383112   -3.5587682    476.27276   0.07985794  0.081799848            2 
  498000    1.1723775   -3.5803239    474.11285  0.079336153  0.081781233            3 
  499000    1.1505119   -3.5310854    478.67253  0.079938632  0.081761538            2 
  500000    1.1617597   -3.5334797    477.68173  0.079613622  0.081742961            1 
  501000    1.1509018   -3.5540049    477.42872  0.079412629  0.081722404            2 
  502000    1.1692754   -3.5622267    476.18397  0.079047803  0.081701241            1 
  503000    1.1594116   -3.5542113    480.16159  0.079549634  0.081681787            1 
  504000    1.1716211   -3.5758905    479.76097  0.079325556   0.08166069            3 
  505000    1.1684291   -3.5353161    482.05231  0.079546586  0.081641042            1 
  506000    1.1557713    -3.567054    482.11031  0.079398932  0.081621216            3 
  507000    1.1549404   -3.5846574    481.21748  0.079095576   0.08160266            2 
  508000    1.1850707   -3.5664656    484.32059  0.079448915  0.081582786            3 
  509000    1.1855642   -3.5560923    483.81767   0.07921049   0.08156256            1 
  510000    1.1913996   -3.5749927    484.83975  0.079222181  0.081540734            3 
  511000    1.1850815   -3.5520784    488.29814  0.079631138   0.08152116            3 
  512000    1.1897769   -3.5900887    485.08723  0.078952999   0.08150046            5 
  513000     1.143139   -3.5506169    485.25221  0.078825895  0.081479966            2 
  514000    1.1951605   -3.5803608    487.01261  0.078957946   0.08145749            1 
  515000    1.1944574   -3.6013791    487.43464   0.07887292   0.08143373            3 
  516000    1.1682267   -3.5631234    489.74488  0.079093165  0.081410174            1 
  517000    1.1847299   -3.5707046    490.70189  0.079094438  0.081389186            4 
  518000    1.1790164   -3.5507667    491.90342  0.079135042  0.081366588            1 
  519000     1.165869   -3.5934819     490.0832  0.078690302  0.081344751            2 
  520000    1.1580223   -3.5551016    492.65666  0.078951388  0.081322376            1 
  521000    1.2199617   -3.5640794    492.76182   0.07881667  0.081299701            1 
  522000    1.1479053   -3.5757276    492.81894  0.078674799  0.081279258            1 
  523000    1.1817185   -3.5729187    495.48358  0.078948945  0.081257273            2 
  524000    1.1794069   -3.5904625    495.88531  0.078862167  0.081237146            2 
  525000    1.1658117   -3.5711401    496.34867  0.078785503    0.0812162            3 
  526000    1.1651563   -3.5631924     499.9075   0.07919954  0.081198826            1 
  527000    1.1428999   -3.5699891    501.34967  0.079277303  0.081181338            6 
  528000    1.1595327   -3.5940424    501.28116  0.079116345  0.081163019            2 
  529000     1.158041   -3.5614608     503.3066  0.079285854  0.081147052            2 
  530000    1.1739288   -3.5821615    502.89766  0.079071959  0.081129169            2 
  531000    1.1665528   -3.5766514    501.43344  0.078693258  0.081111319            2 
  532000    1.1897892    -3.600417    507.03426   0.07942266  0.081093692            3 
  533000    1.1780514   -3.5618052    506.49458  0.079189271  0.081076846            3 
  534000    1.1930814   -3.5942947    507.41975  0.079185353  0.081060194            7 
  535000    1.1460363   -3.5422042    508.90622  0.079268882  0.081043881            2 
  536000    1.1688268   -3.5340784    509.71265   0.07924637  0.081026644            1 
  537000    1.1797187   -3.5497467    511.71125  0.079408946  0.081010669            1 
  538000    1.1725941   -3.5865462    511.34602  0.079204773  0.080995488            3 
  539000    1.1764259   -3.5700629    512.00262  0.079159341  0.080981005            2 
  540000    1.1783253   -3.5836543     513.4965  0.079243287  0.080967334            4 
  541000    1.1551922   -3.6218803    513.06549   0.07903042  0.080954384            2 
  542000    1.1769287   -3.5930587    517.20207  0.079520613  0.080939163            1 
  543000    1.1593905   -3.5897417    517.98831   0.07949483  0.080924754            4 
  544000    1.1721894   -3.5239945    517.89455  0.079334336  0.080910243            2 
  545000    1.1667524   -3.6226583    517.77494   0.07917048  0.080896411            1 
  546000    1.1683539   -3.5504442    519.97796  0.079361716  0.080881848            4 
  547000    1.1920962   -3.5674423    520.30736  0.079266812  0.080867044            3 
  548000    1.1874854   -3.5443428    520.63893  0.079172586  0.080852435            2 
  549000    1.1320563   -3.5722762    521.19939  0.079113447  0.080836363            2 
  550000    1.1543351   -3.5801326    521.70715  0.079046538   0.08082066            2 
  551000    1.1714411   -3.5975409    523.99387  0.079248921  0.080803546            1 
  552000    1.1776134   -3.5793964    524.77092  0.079222663  0.080787978            3 
  553000      1.17222    -3.553051    524.13696   0.07898387  0.080771361            3 
  554000      1.14146   -3.5520631    525.55999  0.079055353  0.080756329            4 
  555000     1.177983    -3.569221    526.34982  0.079031504  0.080740862            1 
  556000    1.1548145   -3.5827896    528.54644  0.079218592    0.0807261            2 
  557000    1.1773936   -3.5441095    529.74118  0.079255114  0.080710758            2 
  558000    1.1500186   -3.5634347    530.56667   0.07923636  0.080696064            1 
  559000    1.1724028   -3.5564161    529.38341  0.078918218  0.080681479            3 
  560000    1.1830048   -3.5988335    532.01142  0.079168367  0.080666724            4 
  561000    1.1894744   -3.5808258    531.47345  0.078947334  0.080652013            3 
  562000     1.174754   -3.5967327    530.50225  0.078662849   0.08063665            1 
  563000    1.1559611   -3.5953583     532.9577  0.078886575   0.08061926            2 
  564000    1.1722001   -3.5835889    534.35581  0.078953281  0.080603408            2 
  565000    1.1733877   -3.5766083    535.25142  0.078945638  0.080586693            4 
  566000    1.1721935   -3.5710606    535.52837  0.078846933  0.080569277            2 
  567000    1.1655808   -3.5724176    537.10451  0.078939522   0.08055277            6 
  568000    1.1661378   -3.5725603    536.34991  0.078689835  0.080536863            2 
  569000    1.1629692    -3.588412    536.38069  0.078556048  0.080521692            2 
  570000    1.1824662   -3.5925914    539.63087  0.078893402  0.080506024            1 
  571000    1.1791894   -3.5668649    539.50318    0.0787366  0.080490163            2 
  572000    1.1695565   -3.5670589    542.72535  0.079068379  0.080474163            1 
  573000    1.1701099    -3.587267    542.94067  0.078961704  0.080461751            3 
  574000     1.162168   -3.5613702    545.48975  0.079194215  0.080447532            1 
  575000    1.1621708   -3.5606491    546.24595  0.079166079  0.080433109            2 
  576000    1.1420645   -3.5793874    547.41893   0.07919834  0.080419486            3 
  577000    1.1627875   -3.6168887    543.50317  0.078495547  0.080404907            2 
  578000     1.171607   -3.5995909    547.99705  0.079007649   0.08038974            2 
  579000    1.1660705   -3.5665309    544.84154  0.078417032  0.080375546            2 
  580000    1.1530686   -3.5842306     546.4613  0.078514554  0.080360229            3 
  581000    1.1359261   -3.5737828    549.25649  0.078780334   0.08034404            2 
  582000    1.1642515   -3.5906322    548.93849   0.07859944  0.080327242            2 
  583000    1.1585892   -3.5767859    549.85298  0.078595337  0.080311907            6 
  584000    1.1520237   -3.5588364    551.57239  0.078706106  0.080297206            4 
  585000    1.1452208   -3.6394757    549.86411  0.078328221   0.08027975            2 
  586000    1.1698044    -3.567211    553.98622  0.078780748  0.080263258            1 
  587000    1.1721844   -3.5628272    554.05127  0.078655773  0.080246594            2 
  588000     1.174117   -3.5913019    553.89845  0.078500347  0.080229895            4 
  589000     1.180384   -3.6049308    555.27191   0.07856139   0.08021338            2 
  590000    1.1241275   -3.5844984    556.81937  0.078646804  0.080197097            1 
  591000    1.1584331   -3.6272306    556.53028  0.078472967    0.0801802            3 
  592000    1.1652351   -3.5720948    559.80495  0.078801373  0.080164601            1 
  593000    1.1551502   -3.5690508    560.23168  0.078728454  0.080149365            4 
  594000    1.1397178   -3.6176845    560.11125  0.078579019  0.080134288            2 
  595000    1.1535804   -3.5848486    562.81292  0.078825339  0.080119101            1 
  596000    1.1708876   -3.6035336    565.36925   0.07905051  0.080105967            1 
  597000    1.1558893   -3.5581011    564.08542  0.078738891  0.080092068            3 
  598000    1.1516991   -3.5462651    565.92119  0.078863043   0.08007784            2 
  599000    1.1430421   -3.5996516    564.71847  0.078564061  0.080062632            1 
  600000    1.1397313   -3.5756042    566.92673  0.078739823  0.080047413            1 
  601000    1.1816676   -3.5917909    567.21718  0.078649083  0.080033899            2 
  602000    1.1509802   -3.5536011    568.38312  0.078679834  0.080020153            2 
  603000    1.1628373   -3.5866031    568.36502  0.078546852  0.080006063            3 
  604000    1.1458939   -3.5936519    569.88807  0.078626941   0.07999095            2 
  605000    1.1490541   -3.5946557    570.09541  0.078525539  0.079977343            2 
  606000    1.1490337    -3.613103    569.60802  0.078328936  0.079962283            2 
  607000    1.1711563   -3.5604735    574.70706  0.078899926  0.079949155            2 
  608000    1.1456016   -3.5850832    573.14709  0.078556344  0.079936193            1 
  609000    1.1421729   -3.6001513    574.67787  0.078636819  0.079923202            3 
  610000    1.1497111   -3.5934654    577.11696  0.078841115  0.079909145            3 
  611000    1.1511358    -3.620868    575.73525  0.078523629  0.079896879            5 
  612000    1.1720221   -3.5863824    575.73794  0.078395689  0.079884022            3 
  613000    1.1416483   -3.6057816    579.74351  0.078812332  0.079871489            3 
  614000    1.1774102   -3.5941144    579.35274  0.078630936  0.079858241            1 
  615000    1.1512454   -3.5892743    578.00093   0.07831991  0.079844975            1 
  616000    1.1782713   -3.6377374    577.97155  0.078188792  0.079831672            3 
  617000     1.161517   -3.6090638    581.55017  0.078545404  0.079819138            3 
  618000    1.1426357   -3.5822784    582.04053  0.078484429  0.079806961            2 
  619000    1.1325563   -3.6055674    582.38659  0.078404226  0.079794451            2 
  620000    1.1659935   -3.5983993    583.79349  0.078466867   0.07978399            4 
  621000    1.1603586   -3.5801187    584.35614  0.078416014  0.079772911            4 
  622000    1.1666244   -3.5847498    589.15736  0.078933194  0.079761874            4 
  623000    1.1675893   -3.6224528    587.91592  0.078640439   0.07975123            1 
  624000    1.1600347    -3.581268    588.93677  0.078650743  0.079740531            1 
  625000    1.1769608   -3.6109216    587.81739  0.078375651  0.079731235            3 
  626000    1.1594192   -3.5951852    592.60054  0.078887186  0.079720862            1 
  627000    1.1251268   -3.5890684    591.34342  0.078594288  0.079710875            1 
  628000    1.1650886   -3.6299494    594.08132  0.078832447   0.07970246            4 
  629000    1.1366049   -3.5925101    597.12226  0.079109997  0.079693455            2 
  630000    1.1424914   -3.5871195    598.12695  0.079117322  0.079685204            2 
  631000    1.1184061   -3.5920672    596.20853   0.07873858  0.079675181            3 
  632000    1.1525416   -3.5997396    596.34238  0.078631643  0.079666158            2 
  633000    1.1592878   -3.6264683    597.77141  0.078695552  0.079656765            4 
  634000    1.1456053   -3.6007294    598.57266  0.078676743  0.079647505            2 
  635000    1.1497193   -3.5787323    599.30566  0.078649037  0.079636127            3 
  636000    1.1241417   -3.6130499    599.17007  0.078507608  0.079626862            3 
  637000    1.1820785   -3.5967228    604.25421  0.079049478   0.07961664            3 
  638000      1.12784   -3.6066565     602.7346   0.07872709  0.079608101            3 
  639000    1.1220624   -3.5905403    601.53768  0.078447793  0.079597955            4 
  640000     1.145551   -3.5931857    604.63982  0.078729143  0.079587194            3 
  641000    1.1379932   -3.6502907    604.57271  0.078597596  0.079577038            2 
  642000     1.132916   -3.6070123    606.21699  0.078688602  0.079566152            3 
  643000    1.1634197   -3.6006335    602.27676  0.078055568  0.079554257            3 
  644000    1.1472942   -3.6427659    602.95419  0.078022022  0.079541524            2 
  645000    1.1588845   -3.6097198    605.60901  0.078244058  0.079529569            2 
  646000    1.1646756    -3.580535     608.9202  0.078550077  0.079517308            3 
  647000    1.1600033   -3.5625605     608.5114  0.078376018  0.079504962            2 
  648000    1.1793746   -3.5537197    611.87729  0.078687923  0.079493107            2 
  649000    1.1796621   -3.6195017    608.38151  0.078117811  0.079480226            3 
  650000    1.1387597   -3.6041743    607.44642  0.077877747  0.079466587            1 
  651000    1.1474066    -3.578426    611.50815  0.078278053  0.079453134            2 
  652000    1.1594089   -3.5985271    612.67216  0.078306768  0.079440572            2 
  653000    1.1382602   -3.5513749    610.89729  0.077960348  0.079427951            1 
  654000    1.1225151   -3.6116427    614.63661  0.078317611  0.079415107            1 
  655000    1.1613757   -3.6253431    612.62144  0.077941659  0.079401623            4 
  656000     1.134413    -3.620758    613.90076  0.077985361  0.079388304            1 
  657000    1.1605726   -3.5903528    615.61783  0.078084453  0.079375587            3 
  658000    1.1562988   -3.5960059    617.67901  0.078226825  0.079362308            2 
  659000    1.1281886   -3.6021622    617.69278   0.07810986  0.079349502            1 
  660000    1.1315834   -3.5870039    620.68765  0.078369652  0.079336722            1 
  661000    1.1457027   -3.6270926    620.20808  0.078190631  0.079324351            4 
  662000    1.1236791   -3.6057022    622.21256  0.078324843   0.07931211            1 
  663000    1.1509896    -3.605188    623.58577  0.078379307  0.079300329            1 
  664000    1.1400965   -3.5941477    625.69459  0.078525928  0.079289669            1 
  665000    1.1328579   -3.6082169    625.72477  0.078411625  0.079278576            2 
  666000     1.146866   -3.5870094    622.92779  0.077943918  0.079266317            3 
  667000    1.1667085   -3.5651114    624.55148   0.07802992  0.079254144            1 
  668000    1.1477458   -3.5817725    625.48234  0.078029233   0.07924227            2 
  669000    1.1429555   -3.6040369    627.35625   0.07814602  0.079229984            4 
  670000    1.1572203   -3.5945652    626.82338  0.077963107  0.079217391            1 
  671000    1.1442605   -3.5926534    627.86733  0.077976569  0.079205258            3 
  672000    1.1805563   -3.5889967    630.58803   0.07819792  0.079193651            2 
  673000      1.17829    -3.580643     631.5745  0.078203876  0.079182221            2 
  674000      1.13341   -3.6392933    630.92999  0.078008159  0.079169757            3 
  675000     1.128574   -3.6189621    631.86085  0.078007512  0.079157252            2 
  676000    1.1705764    -3.608812    632.75925  0.078002866  0.079145097            2 
  677000    1.1585502   -3.6271829     633.4295  0.077970151  0.079133307            2 
  678000    1.1214466   -3.6081745    636.22412  0.078198638  0.079121956            2 
  679000    1.1440794   -3.6235272    636.53077  0.078121106  0.079109874            4 
  680000    1.1317451   -3.6178229    636.96972  0.078060014  0.079097925            3 
  681000    1.1418592   -3.6266239    636.90385  0.077937328  0.079085534            2 
  682000    1.1662074   -3.6113291     637.2714  0.077867962  0.079072995            4 
  683000    1.1430836   -3.6041267    636.00721  0.077599709  0.079060102            2 
  684000    1.1642532   -3.6055803    640.12222  0.077987599  0.079047154            2 
  685000    1.1573146   -3.6159756    642.46596  0.078158876  0.079034113            3 
  686000    1.1624357     -3.61137    641.00583  0.077867569  0.079021294            2 
  687000    1.1176258   -3.6212778    640.16472  0.077652198  0.079008119            2 
  688000    1.1472998   -3.5845716     645.6041  0.078198171  0.078994569            2 
  689000    1.1581919   -3.5978986    643.58125  0.077840016  0.078982269            1 
  690000    1.1537345   -3.5915984    642.95043  0.077651018  0.078969555            3 
  691000    1.1615167   -3.5987414    647.46421  0.078082997  0.078957124            8 
  692000    1.1199377   -3.5825851    646.36353  0.077837612  0.078945653            3 
  693000    1.1364608   -3.6020355    645.78156   0.07765531  0.078933401            4 
  694000    1.1310783   -3.5968712    648.72832  0.077897252  0.078920346            2 
  695000    1.1559367   -3.6224331     646.8952  0.077565371  0.078909501            1 
  696000    1.1405098   -3.6051487    650.84345  0.077926658  0.078898083            1 
  697000    1.1248486   -3.5800431    653.57986   0.07814202  0.078888093            2 
  698000    1.1175031   -3.6325843    652.57024  0.077909531  0.078877811            2 
  699000    1.1432177   -3.6202459    651.34772  0.077652327    0.0788671            2 
  700000    1.1752536   -3.6140487    656.09335  0.078106351  0.078854816            3 
  701000    1.1242146   -3.5768908    657.77144  0.078194417  0.078844413            2 
  702000    1.1297031   -3.6252423    656.18682  0.077894921  0.078834664            4 
  703000    1.1342462   -3.5992903    659.19153  0.078140295  0.078824154            1 
  704000    1.1437739   -3.5966041     659.9391  0.078117791  0.078814006            2 
  705000    1.1450493   -3.5962091    657.13195  0.077675172  0.078802769            2 
  706000    1.1365855   -3.6101412    660.70365  0.077986739  0.078791368            6 
  707000    1.1412488   -3.5999986    660.13766  0.077809719  0.078780329            7 
  708000    1.1251224   -3.6166598    662.90078  0.078025044  0.078771572            4 
  709000    1.1160782   -3.6327463    664.89657  0.078149573  0.078761421            3 
  710000     1.122892   -3.6264812    661.39856  0.077628939  0.078752389            5 
  711000    1.1384316   -3.5790722    666.01326  0.078060626  0.078742874            2 
  712000    1.1311391   -3.6067834    668.10769  0.078196125  0.078733799            2 
  713000    1.1286918    -3.633424    667.04748  0.077962538  0.078724095            2 
  714000    1.1370731    -3.648986    665.69466  0.077695456  0.078714277            4 
  715000    1.1404516   -3.6355314    667.05105  0.077744877  0.078703988            1 
  716000    1.1355345   -3.5958315    670.56881  0.078045718  0.078694205            2 
  717000    1.1385244   -3.5995779    671.93564  0.078095728  0.078685276            1 
  718000    1.1206817   -3.5745834    670.41167  0.077810083  0.078675998            3 
  719000    1.1240959   -3.6122802    673.52275  0.078062442  0.078666902            2 
  720000    1.1220812   -3.6129316    672.84016  0.077875019  0.078656052            3 
  721000    1.1309838   -3.6334318    673.22139  0.077811072  0.078645793            2 
  722000    1.1257702   -3.5957024    674.24644  0.077821611  0.078636128            2 
  723000    1.1383098   -3.6034417    676.01868  0.077918244  0.078626898            2 
  724000    1.1288179   -3.6229734    673.90507  0.077567342  0.078616773            2 
  725000    1.1251075   -3.5771772    677.91555  0.077921328   0.07860638            2 
  726000    1.1324674   -3.6199361    677.97185   0.07782046  0.078595946            2 
  727000    1.1286435   -3.6206394    678.53043  0.077777445  0.078585187            2 
  728000    1.1278511   -3.6059833    683.09335   0.07819292  0.078574587            1 
  729000    1.1376518   -3.6400526    679.84255  0.077714054  0.078564831            2 
  730000    1.1352039    -3.577262    684.60216  0.078150931    0.0785566            1 
  731000     1.122623   -3.6568541    681.77139  0.077721316   0.07854744            2 
  732000    1.1495911   -3.6150609    683.38061  0.077798339  0.078537392            2 
  733000    1.1320863   -3.6084898     687.5308  0.078164029  0.078528144            2 
  734000    1.1661923   -3.5991168    690.46783  0.078390989  0.078519993            3 
  735000    1.1297526   -3.5855626    690.36437  0.078272604  0.078511994            1 
  736000    1.1361663   -3.6016707    690.23284  0.078151363   0.07850357            1 
  737000      1.13501   -3.5924919    687.71326  0.077760432  0.078494531            2 
  738000    1.1573179   -3.6339804     688.3386  0.077725677  0.078485729            2 
  739000    1.1255852     -3.63498    690.91018  0.077910485  0.078476269            2 
  740000    1.1348981   -3.6205219     690.3962   0.07774732  0.078465944            1 
  741000    1.1294381   -3.6349727    691.25302  0.077738756  0.078456486            1 
  742000    1.1313596   -3.5815346    693.33696  0.077868032  0.078446802            3 
  743000    1.1320812   -3.6257795    692.48776  0.077667986  0.078437142            9 
  744000    1.1129455   -3.5844476    692.73919  0.077591755  0.078427931            2 
  745000    1.1357524   -3.6437157    694.73142   0.07771045  0.078418858            3 
  746000       1.1328   -3.5913898    696.29225  0.077780636  0.078410092            1 
  747000    1.1274861    -3.604919    698.19615  0.077888905  0.078401166            1 
  748000    1.0988882   -3.6091695    697.90332  0.077752152  0.078392729            4 
  749000    1.1413113   -3.6536467    698.05736  0.077665483  0.078382951            2 
  750000     1.145845    -3.611424    700.75573  0.077861748   0.07837364            2 
  751000    1.1409499   -3.6247323    697.56041  0.077403507   0.07836365            2 
  752000    1.1344347   -3.6624298    698.30442  0.077383025  0.078352768            2 
  753000    1.1148369    -3.630808    701.11929  0.077591776  0.078343465            1 
  754000    1.1567932   -3.6266175     700.5114  0.077421685   0.07833433            3 
  755000    1.1308473   -3.6051478    707.14498  0.078051322  0.078327056            3 
  756000      1.13541    -3.604955    710.44347  0.078311669  0.078319997            2 
  757000    1.1181059   -3.6313283    709.79035  0.078136322  0.078312759            2 
  758000    1.1236967   -3.6226428    707.18402  0.077746704   0.07830527            2 
  759000    1.1214619   -3.6240222    708.76118  0.077817432  0.078297077            1 
  760000    1.1541583   -3.6622842    711.86695  0.078055587  0.078289984            1 
  761000    1.1339012   -3.5827255    711.49389  0.077912164  0.078283479            3 
  762000    1.1400951   -3.6260354    709.23569  0.077562958  0.078276764            2 
  763000     1.131951   -3.6388138    710.13234  0.077559233  0.078269307            4 
  764000    1.1433995   -3.6219324    713.95522  0.077874696  0.078262274            3 
  765000    1.1339914   -3.6128974    717.52368  0.078161621  0.078256733            1 
  766000    1.1277321   -3.6385142    716.69455  0.077969381   0.07825123            1 
  767000    1.1167217   -3.5912889    721.94208  0.078437862  0.078244546            2 
  768000    1.1071453   -3.6208657    717.89868  0.077896993  0.078238626            1 
  769000    1.1285388   -3.6136235     720.9953  0.078131263  0.078232035            2 
  770000    1.1175552   -3.6081231    720.50737  0.077976988  0.078225453            6 
  771000    1.1230812   -3.6600324    718.72458  0.077683159  0.078218505            2 
  772000    1.1171703   -3.6383132    720.24787  0.077746963  0.078211861            1 
  773000    1.1096003   -3.6276681    722.71537  0.077912394  0.078205618            4 
  774000    1.1454212   -3.6426244    719.25551  0.077439224  0.078199067            3 
  775000    1.1315161   -3.6408662    719.97614  0.077416789  0.078192435            1 
  776000    1.1337394   -3.6090086    727.61078  0.078136896  0.078186012            3 
  777000       1.1252   -3.6178869    722.93904   0.07753529   0.07817951            2 
  778000    1.1138054    -3.629482    723.49938  0.077495649  0.078172188            2 
  779000    1.1113262     -3.66548    725.25277  0.077583736  0.078165276            1 
  780000    1.1218826   -3.6595874    724.73396  0.077428842  0.078157877            3 
  781000      1.11771   -3.6419943    727.23614  0.077596686  0.078149784            1 
  782000    1.1355487   -3.6447561    729.14857  0.077701254  0.078140682            1 
  783000    1.1267619   -3.6177701    728.57175  0.077540629  0.078132533            1 
  784000    1.1164881   -3.6315582    731.39839  0.077742176  0.078124109            1 
  785000    1.1434605   -3.6254942     730.7238  0.077571528  0.078116181            3 
  786000     1.133295   -3.6046998    730.01467  0.077397653   0.07810917            1 
  787000    1.1212681   -3.6438183    734.20448  0.077742957  0.078101887            2 
  788000    1.1119749   -3.6199437    734.91529  0.077719468  0.078094763            1 
  789000    1.1366425   -3.6536872    732.46772  0.077362454  0.078087697            1 
  790000    1.1270663   -3.6349016    733.84865  0.077410195  0.078079959            4 
  791000    1.1322112   -3.6171211    737.63267  0.077710985  0.078072727            3 
  792000    1.1269095   -3.6070291    737.79107  0.077629531  0.078064957            2 
  793000    1.1372343   -3.6402921    736.85544  0.077433316  0.078057038            2 
  794000    1.1407373   -3.6051241    740.06977  0.077673149  0.078048952            2 
  795000    1.1019228   -3.6531677    737.39413  0.077294982  0.078041798            3 
  796000    1.1147695   -3.6476019    742.45291  0.077727482  0.078033904            2 
  797000    1.1392267   -3.6122263     741.5186  0.077532266  0.078026074            5 
  798000    1.1422729   -3.6196888    740.68646   0.07734821  0.078018157            4 
  799000    1.1259404   -3.6677573    741.74697  0.077362012  0.078010082            2 
  800000    1.1333345   -3.6569759    741.43257  0.077232559  0.078001589            2 
  801000    1.1389614   -3.6317525    743.60552  0.077362205  0.077993655            2 
  802000    1.1030634   -3.6512732    746.08977  0.077523874  0.077984914            2 
  803000    1.1128069   -3.6464718    745.53339  0.077369592  0.077976201            1 
  804000     1.124512   -3.6637523    747.27672  0.077454055  0.077966449            1 
  805000    1.1213715   -3.6291667    746.88024  0.077316795   0.07795728            3 
  806000    1.1261243   -3.6166003    748.63354  0.077402144  0.077948454            4 
  807000     1.135228   -3.6331734    750.70352  0.077519984  0.077938684            1 
  808000    1.1156351    -3.623576    751.59282  0.077515761  0.077929334            4 
  809000    1.1146568   -3.6628583    748.45011  0.077096221    0.0779205            1 
  810000    1.1204322   -3.6284994    752.27133   0.07739417  0.077911771            3 
  811000    1.1503695   -3.6539599    753.24811  0.077399107  0.077902972            1 
  812000     1.139739   -3.6260895    754.53693  0.077436056  0.077894414            3 
  813000    1.1166966   -3.6315743    753.13234  0.077196837  0.077885665            1 
  814000    1.1231105   -3.6485068    753.02486  0.077090998  0.077877771            1 
  815000    1.0957635   -3.6356762     755.0315  0.077201584  0.077870414            3 
  816000    1.1155999    -3.648843    758.38655  0.077449606  0.077862364            8 
  817000    1.1411589   -3.6136886    758.89243  0.077406409  0.077854014            2 
  818000    1.1262217   -3.6197878    758.39682   0.07726129  0.077845863            3 
  819000    1.1062373   -3.6354015    760.66131  0.077397366   0.07783786            2 
  820000    1.1110473   -3.6238178    758.78367  0.077112162   0.07782908            2 
  821000    1.1331162   -3.6351876    762.05021  0.077349798  0.077820409            1 
  822000      1.16149   -3.6381513    764.10463  0.077463973  0.077812089            2 
  823000    1.1413059   -3.6286102     762.6661   0.07722419  0.077804334            3 
  824000    1.1221573   -3.6402208    764.75669  0.077341898  0.077796126            1 
  825000    1.1333509    -3.658149    765.97397  0.077371108  0.077787677            5 
  826000    1.1012124   -3.6611349    761.38951  0.076814922  0.077779338            2 
  827000    1.1395862   -3.6408338    764.93941  0.077079747   0.07777149            1 
  828000    1.0967699   -3.6529666    767.11686  0.077205803   0.07776315            1 
  829000    1.1262493   -3.6474488    768.82705  0.077284585  0.077754484            2 
  830000    1.1047031   -3.6292297    766.55694  0.076963548  0.077745984            2 
  831000    1.1162212   -3.6033403    765.66101  0.076781088  0.077737543            2 
  832000       1.1229    -3.628354    771.84012  0.077307704  0.077729333            1 
  833000      1.11254   -3.6664155    770.14206  0.077045024  0.077721218            3 
  834000    1.1306273   -3.6265284    774.47303  0.077385395  0.077712491            2 
  835000    1.0830121   -3.6582686    772.46048  0.077091864  0.077703886            5 
  836000     1.120672    -3.613532    772.16727  0.076970421  0.077694939            1 
  837000    1.1264775   -3.6455193    774.39555  0.077100314   0.07768637            3 
  838000     1.127292   -3.6614887    774.71654  0.077040229  0.077678076            2 
  839000    1.1265966   -3.6320087    779.24298  0.077397991  0.077669607            1 
  840000    1.1161034   -3.6486265     780.9653  0.077476716  0.077661499            3 
  841000    1.1001574   -3.6402088    778.88247  0.077178207  0.077653851            4 
  842000    1.1189456   -3.6391557    780.97064  0.077293215  0.077646011            3 
  843000    1.1214947   -3.6359182    780.22873  0.077128186  0.077638155            3 
  844000    1.1283118   -3.6417596    782.69593  0.077280404  0.077630824            2 
  845000    1.1067516   -3.6475594     783.0703  0.077225868  0.077623051            1 
  846000    1.1319748   -3.6508261    784.69177  0.077294303  0.077614796            3 
  847000    1.1465192   -3.6173761    785.64068  0.077296407  0.077607397            2 
  848000    1.1176889   -3.6375499     785.0059  0.077142876   0.07760047            2 
  849000    1.1356248   -3.6519374     786.1461  0.077163928  0.077592322            4 
  850000     1.084218   -3.6301016    787.64372  0.077219972  0.077585165            1 
  851000    1.1039998   -3.6096273    790.09579  0.077369349  0.077577763            3 
  852000    1.0986059   -3.6572276    789.61006  0.077231031   0.07757001            3 
  853000    1.0864124   -3.6336433    789.02723  0.077083551  0.077562189            3 
  854000    1.1117947   -3.6644497    791.05405  0.077191066  0.077554852            4 
  855000     1.127419    -3.640245    789.86351  0.076984748   0.07754736            3 
  856000    1.1302326   -3.6282552    788.38313  0.076750694  0.077538475            1 
  857000    1.1178427   -3.6410566    793.74737  0.077182747  0.077529414            4 
  858000    1.1118569   -3.6286608    793.76414  0.077094419  0.077520467            2 
  859000    1.1099848   -3.6326688    791.85201  0.076819171  0.077511603            2 
  860000    1.1119579   -3.6284001    794.17012  0.076954469  0.077503239            2 
  861000    1.1284136   -3.6280606     794.2726   0.07687501  0.077494456            2 
  862000    1.1063974   -3.6190519    799.63062  0.077303811  0.077485389            1 
  863000    1.1186642    -3.639065     796.5729  0.076918974  0.077476672            1 
  864000    1.0894707   -3.6663479    797.95412  0.076963168   0.07746709            3 
  865000    1.1126147   -3.6288899    801.56092  0.077221668  0.077458088            2 
  866000    1.1091617   -3.5939191     801.0135  0.077079821  0.077449046            2 
  867000    1.1009911   -3.6484561    796.12059  0.076520626  0.077440845            1 
  868000     1.098999   -3.6672455    799.14858  0.076723174  0.077431219            1 
  869000    1.1354727   -3.6533874    802.31405   0.07693844  0.077421749            2 
  870000    1.1098045   -3.6386718    804.41611  0.077051352   0.07741237            3 
  871000    1.1191501   -3.6240395    805.99955  0.077114384   0.07740336            3 
  872000    1.1024246   -3.6407572    804.52402   0.07688494  0.077395064            3 
  873000    1.1057277   -3.6651883    805.92916  0.076931001  0.077386433            5 
  874000    1.1144324   -3.6596099    803.85622   0.07664533   0.07737812            3 
  875000     1.088929   -3.6134107    805.24961  0.076690439  0.077368552            3 
  876000    1.0949033    -3.670528    806.68378  0.076739324  0.077359422            4 
  877000    1.1249517   -3.6423152    807.12154  0.076693419  0.077349745            2 
  878000    1.1201271   -3.6570323    805.84933   0.07648532  0.077339425            2 
  879000    1.1081103   -3.6400618    810.70606  0.076858746   0.07732954            2 
  880000    1.1276957   -3.6502801    809.08617  0.076618008  0.077319003            2 
  881000    1.0960032   -3.6410953    807.87629  0.076416599  0.077308744            3 
  882000    1.1221851    -3.651736    812.91358  0.076805894  0.077298598            1 
  883000    1.1345057   -3.6800637     811.4098  0.076576991  0.077288029            2 
  884000    1.1156352   -3.6399674    810.52365   0.07640683   0.07727804            5 
  885000    1.0899824   -3.6879157    811.53583  0.076415803   0.07726756            2 
  886000    1.0866276   -3.6613697    814.61146  0.076618835  0.077256091            5 
  887000    1.0960944   -3.6417712    814.89516  0.076559109  0.077245958            2 
  888000    1.1355581   -3.6412754    816.92499  0.076663381  0.077235551            4 
  889000    1.1376468   -3.6576196    816.24523  0.076513426  0.077224924            1 
  890000    1.1237629   -3.6477331    819.04914  0.076689995  0.077214965            2 
  891000    1.1208097   -3.6509535    817.85983  0.076492689  0.077205318            2 
  892000    1.0999192   -3.6566885    816.79778  0.076307715  0.077195272            1 
  893000    1.1312234   -3.6425402    820.07937  0.076528497  0.077185687            3 
  894000    1.1047961   -3.6588655    821.35694  0.076561982    0.0771761            3 
  895000    1.1212504   -3.6449411    824.05976  0.076728096  0.077166551            2 
  896000    1.1288859   -3.6801685    822.49375  0.076496815  0.077157176            2 
  897000    1.1057376   -3.6493063     823.3988  0.076495615  0.077147846            3 
  898000    1.1049548   -3.6567239    822.53627  0.076330388  0.077138267            2 
  899000    1.1136484   -3.6470046    828.32471  0.076782046  0.077129015            2 
  900000    1.1071667    -3.650722    828.03667  0.076670062    0.0771204            3 
  901000    1.0975115   -3.6552398    827.13971  0.076502008  0.077111567            1 
  902000    1.1026181   -3.6817108    824.42406  0.076166303  0.077102114            7 
  903000    1.0895298   -3.6796872    826.92603  0.076312849  0.077092295            3 
  904000     1.080016   -3.6914189     823.3115  0.075895234   0.07708248            3 
  905000    1.1194107   -3.6332248     835.4829  0.076932127  0.077072717            1 
  906000    1.1194261   -3.6268684    831.36111  0.076468093  0.077063699            2 
  907000    1.1118677   -3.6444249    832.80249  0.076516216  0.077054232            3 
  908000    1.1002279   -3.6712923    830.63194  0.076232741  0.077044803            2 
  909000    1.1083472   -3.6325896    835.13484  0.076561683  0.077034972            5 
  910000    1.0958031   -3.6592264    833.57787  0.076334969   0.07702528            2 
  911000    1.1020827   -3.6578191    835.58912  0.076435155  0.077015115            2 
  912000    1.1176433   -3.6451076    839.32225  0.076692457  0.077005106            2 
  913000    1.1077466   -3.6468428    838.33676  0.076518507  0.076994756            1 
  914000    1.0966213   -3.6636548    834.58358  0.076092595  0.076984449            2 
  915000    1.1071268   -3.6728522    835.02093  0.076049265  0.076974052            2 
  916000    1.1312438    -3.654279    836.14399  0.076068412  0.076963381            5 
  917000    1.0902584   -3.6547952    839.87438  0.076324462  0.076953591            3 
  918000    1.0758117   -3.6833142    838.56166  0.076122155  0.076943706            2 
  919000     1.122755   -3.6849058    844.10995  0.076542433  0.076933512            1 
  920000    1.0928295   -3.6520721    841.59166  0.076231129  0.076923398            3 
  921000    1.1142315   -3.6547965    843.52118  0.076322944  0.076912908            3 
  922000    1.1261757   -3.6446164     846.1871  0.076481119  0.076903418            2 
  923000    1.1076245   -3.6733647    844.62146  0.076256903  0.076893458            2 
  924000    1.0992125   -3.6495643    845.53832  0.076257063  0.076883556            2 
  925000    1.1209021   -3.6878388    846.88888  0.076296295  0.076873535            1 
  926000    1.1045941   -3.6745092    849.25883   0.07642718  0.076863618            2 
  927000    1.1152035   -3.6729173    848.10478  0.076240991  0.076853802            4 
  928000    1.0979786   -3.6447137    849.31498  0.076267509  0.076844452            2 
  929000     1.125804   -3.6381084     852.1888  0.076443201  0.076835935            3 
  930000    1.1150403   -3.6725676    852.53628   0.07639214  0.076826816            2 
  931000    1.0973011   -3.6464213    851.93368  0.076256147  0.076818014            5 
  932000    1.1276634    -3.643355    853.78396  0.076339768  0.076808855            2 
  933000    1.0937259   -3.6415091    855.28528   0.07639204       0.0768            1 
  934000    1.0999763   -3.6794129    853.94978  0.076191094  0.076790491            1 
  935000     1.102038   -3.6586052    858.53129   0.07651794  0.076782087            1 
  936000    1.0744595   -3.6902973    859.57258  0.076528898  0.076772822            2 
  937000    1.0954638   -3.6708354    858.58918  0.076359763  0.076764534            4 
  938000    1.0786117   -3.6119403     861.2073  0.076510954  0.076756209            2 
  939000    1.1133529    -3.646802    864.42734  0.076715241  0.076747538            3 
  940000     1.080531   -3.6639047    861.98601  0.076417199  0.076738495            2 
  941000    1.1195601    -3.698639      857.922  0.075976089  0.076728743            2 
  942000    1.1021167   -3.6755006    859.57633  0.076041784  0.076719538            3 
  943000    1.1008846   -3.6745577    861.69471  0.076148349  0.076709938            3 
  944000    1.1016052   -3.6464998    864.52671  0.076317683  0.076700477            1 
  945000    1.0961741   -3.6757973    859.26713  0.075773116  0.076691169            2 
  946000    1.0925062   -3.6486163     860.7649  0.075824955  0.076681628            2 
  947000    1.1022738   -3.6558606    862.07724   0.07586037  0.076671534            2 
  948000    1.1164109   -3.6683227    865.53146  0.076083989  0.076662264            2 
  949000    1.1343913   -3.6708874    868.55254  0.076269102   0.07665282            3 
  950000    1.0865675   -3.6701417    866.33169  0.075994008  0.076643873            2 
  951000    1.1081713    -3.623534     866.3176  0.075912864  0.076634062            2 
  952000    1.0891912   -3.6659129    867.95071  0.075976078  0.076624463            1 
  953000    1.0890514   -3.6544012    870.04336  0.076079342  0.076614453            1 
  954000    1.1052783   -3.6542629    866.35529  0.075677436  0.076604477            1 
  955000    1.1239553   -3.6709775    870.62737  0.075970974  0.076594625            2 
  956000     1.093194   -3.6536265    870.76941  0.075903888  0.076584995            2 
  957000     1.096242   -3.6786883    871.11758  0.075854892  0.076574958            1 
  958000    1.1397514   -3.6604989    875.04441  0.076117294   0.07656505            2 
  959000      1.10136   -3.6432716    875.04177  0.076037693  0.076555545            3 
  960000    1.1023227   -3.6916185    874.80581  0.075938004  0.076545652            5 
  961000    1.1031533   -3.6892342    874.51889  0.075834104  0.076535521            3 
  962000    1.0948201    -3.681362     875.0568  0.075801871  0.076524882            3 
  963000    1.1205637   -3.6712285    880.17125  0.076165736  0.076514096            3 
  964000    1.1028446    -3.699683    877.73655  0.075876258  0.076503365            2 
  965000    1.1049547   -3.6505387    880.07327  0.075999419  0.076493406            2 
  966000    1.1042787   -3.6809071    880.50143   0.07595768    0.0764829            3 
  967000    1.0912091   -3.6549977    881.36758  0.075953773  0.076473228            2 
  968000    1.0769885   -3.7006862    881.15663  0.075857148  0.076463235            6 
  969000    1.1082775   -3.6737487    880.27808  0.075703309  0.076453426            2 
  970000    1.1067018   -3.6713825    881.55742  0.075735173  0.076443758            3 
  971000    1.0857973   -3.6430176    882.97387  0.075778739  0.076433719            3 
  972000    1.0931775   -3.6410721    886.85996  0.076033947  0.076424304            2 
  973000    1.0714335   -3.6671352    887.14192  0.075979952  0.076414683            3 
  974000    1.0828161   -3.6783561    886.22754  0.075823711  0.076404446            4 
  975000    1.1030394   -3.6380937    888.66617  0.075954374  0.076394718            1 
  976000    1.0897684   -3.6679819    893.35927   0.07627726  0.076385457            1 
  977000     1.078049   -3.6824415    889.78847  0.075894615  0.076375956            4 
  978000    1.0798807   -3.6968571    890.57619  0.075884134  0.076366177            6 
  979000    1.0724375   -3.6830413    891.19521  0.075859313   0.07635654            1 
  980000     1.117503   -3.6476111    892.93936  0.075930218  0.076346842            3 
  981000    1.1166213   -3.6318753    895.30706  0.076053947  0.076337348            1 
  982000    1.1116523    -3.711976    886.35207  0.075216571  0.076327048            2 
  983000    1.1260244   -3.6289799    892.24862   0.07563993  0.076316674            1 
  984000    1.0908398   -3.6674683    889.30312  0.075313611  0.076306259            2 
  985000    1.1043432   -3.6704544    894.99628  0.075718806  0.076295761            3 
  986000    1.0938096   -3.6773004    892.89042  0.075464031   0.07628527            4 
  987000    1.0949703   -3.7084571    894.72373  0.075542362  0.076274601            3 
  988000    1.0974177   -3.6570331    894.75042  0.075468153  0.076264298            3 
  989000    1.0703044   -3.6763177    897.12969  0.075592323  0.076253323            3 
  990000    1.0782742      -3.6451    895.32341  0.075363924  0.076242453            1 
  991000    1.0853354   -3.7187294    896.33844  0.075373229  0.076231626            3 
  992000    1.0929071    -3.652051    899.89846  0.075596309  0.076220361            1 
  993000     1.110686   -3.6462238    899.58495  0.075493869  0.076209232            5 
  994000    1.1154578   -3.6815504      898.789   0.07535119  0.076197798            2 
  995000    1.0813005   -3.7213476     899.4272  0.075328911  0.076185407            2 
  996000    1.1230589   -3.6549596    902.68396  0.075525766  0.076173818            1 
  997000    1.0972017   -3.6624872    903.36149  0.075506644  0.076162563            3 
  998000    1.0996408   -3.6513714    903.05463  0.075405363  0.076150793            2 
  999000    1.0764928   -3.6730132    906.32742  0.075602888  0.076139764            2 
 1000000    1.1062845   -3.6718561    905.20646  0.075433872  0.076128275            1 
 1001000    1.0993191   -3.6933399     901.6492  0.075062371  0.076116531            2 
 1002000    1.0963614   -3.6565105    902.72636  0.075077043  0.076104945            2 
 1003000    1.0684851   -3.6791303    904.14454  0.075120018   0.07609295            1 
 1004000    1.0987377   -3.6877906    901.17872  0.074799031    0.0760804            3 
 1005000    1.1032125    -3.676127    904.84461  0.075028575  0.076068158            4 
 1006000    1.0950863   -3.6892229    904.69456  0.074941564   0.07605596            4 
 1007000    1.1160331   -3.6896646    903.50151  0.074768413  0.076043726            2 
 1008000    1.0922538   -3.6448901    910.36396   0.07526157  0.076031837            2 
 1009000    1.1436463    -3.686763     908.9517  0.075070342  0.076019966            2 
 1010000    1.0701004   -3.6840626     910.4244  0.075117524  0.076007316            5 
 1011000    1.0890714   -3.6959679    908.64321  0.074896407  0.075995001            3 
 1012000    1.1165686   -3.7029076    912.29222  0.075122877  0.075982474            3 
 1013000    1.1013196   -3.6871073    908.99349  0.074777352  0.075969237            4 
 1014000    1.0833201   -3.7233087    909.90466   0.07477849  0.075956345            2 
 1015000    1.0797352   -3.6983987    909.74439  0.074691658  0.075942754            5 
 1016000    1.0919271   -3.6993431    910.18663  0.074654415   0.07592847            2 
 1017000    1.0792065    -3.655777    910.08052  0.074572314  0.075914203            2 
 1018000    1.0743611    -3.674664     909.9428  0.074487786  0.075899169            2 
 1019000    1.0938547   -3.6859418    913.90507   0.07473872  0.075884868            3 
 1020000     1.089466   -3.6870698    917.99945  0.074999955  0.075871703            4 
 1021000    1.0709292   -3.6747609    917.41307  0.074878638  0.075858492            4 
 1022000    1.0808885   -3.6779613    915.23911  0.074628108  0.075845196            3 
 1023000    1.0741538    -3.649628    918.00159  0.074780188  0.075832415            4 
 1024000    1.0954355   -3.6840587    917.67349  0.074680459  0.075818967            1 
 1025000    1.1028001   -3.7052384    919.42746    0.0747502  0.075805235            2 
 1026000     1.083813   -3.6617144     923.9143  0.075041772  0.075791967            3 
 1027000    1.0961755    -3.670153    918.46051  0.074526169  0.075779104            4 
 1028000    1.1036145   -3.6796051    919.16176  0.074510519  0.075765462            3 
 1029000    1.0871633   -3.6945578    918.57676  0.074390732  0.075751533            2 
 1030000    1.0638307   -3.6826033    920.68442  0.074489031  0.075737883            6 
 1031000    1.1121542   -3.6868952    924.41398  0.074718233   0.07572491            2 
 1032000    1.1064264   -3.6719195    923.36326  0.074560987  0.075712124            2 
 1033000    1.1355168   -3.6918351    922.33585  0.074405925  0.075699708            2 
 1034000    1.0856525   -3.7151696     926.2436  0.074648904  0.075686782            2 
 1035000    1.0885547   -3.6610715    931.29787  0.074983725  0.075674007            1 
 1036000    1.0875589   -3.6624604     930.2454  0.074826689  0.075661656            1 
 1037000    1.0968449   -3.6699165    930.11223  0.074743831  0.075649289            1 
 1038000    1.0968869   -3.6870054    932.42664   0.07485763  0.075637134            1 
 1039000    1.0873432   -3.6636527    932.05179  0.074755518  0.075624734            3 
 1040000    1.0774264   -3.6817509    936.51428  0.075041208  0.075612707            3 
 1041000    1.0903841   -3.6524258    931.56082  0.074572592  0.075600729            3 
 1042000    1.1023616   -3.6938175    935.79837  0.074839921  0.075588567            2 
 1043000    1.0686886   -3.6879885    932.27483  0.074486643  0.075576123            4 
 1044000    1.0764254   -3.6844064    933.94274   0.07454843  0.075563785            3 
 1045000    1.0735056   -3.6987724    935.84667  0.074628921  0.075550874            3 
 1046000     1.099696   -3.7120973    934.18632  0.074425297  0.075538317            2 
 1047000    1.0731893    -3.692147    937.50056  0.074618001  0.075525498            1 
 1048000    1.1119846   -3.7386969    937.50698  0.074547311  0.075513288            2 
 1049000    1.0834535   -3.6940502    940.10979  0.074683015  0.075500734            5 
 1050000    1.1002826   -3.6700638     941.2524  0.074702572  0.075487894            2 
 1051000    1.1043397   -3.6777566    938.13575  0.074384376  0.075475273            2 
 1052000    1.1167894   -3.6870737    939.14223  0.074393396  0.075462432            2 
 1053000    1.0855196   -3.6812468    942.35112  0.074576695  0.075450095            3 
 1054000    1.0991607    -3.697647    943.74342   0.07461602  0.075437006            1 
 1055000    1.0956626   -3.6842032    944.27093  0.074586962  0.075424142            3 
 1056000     1.110486   -3.6837578    944.74421  0.074553678  0.075411262            2 
 1057000    1.0820268   -3.7059504    939.76794  0.074090818  0.075398713            1 
 1058000    1.0812545     -3.68797    945.09866  0.074440663  0.075386199            4 
 1059000    1.0846316    -3.699551    949.79908  0.074740249  0.075373562            3 
 1060000    1.0943954   -3.6900441    948.11002  0.074536951  0.075360987            1 
 1061000    1.0859092   -3.7136661    949.18108  0.074550823  0.075348668            4 
 1062000     1.101595   -3.6861575    950.46912  0.074581695  0.075336088            2 
 1063000    1.0903645   -3.6712517    949.77605  0.074457201  0.075324263            3 
 1064000    1.0985072   -3.6912182    950.52872  0.074446172  0.075312284            1 
 1065000    1.0925036   -3.6942777    952.19183  0.074506403       0.0753            3 
 1066000    1.0937529   -3.7173662    950.88496  0.074334346  0.075287995            2 
 1067000    1.0855053   -3.6775127    955.50646  0.074625622  0.075276267            2 
 1068000    1.0948414   -3.6969415    952.40959  0.074314107  0.075264437            1 
 1069000    1.0682655   -3.7188018    950.48903  0.074094873  0.075252267            2 
 1070000    1.0714881   -3.6523228    960.19923  0.074781871  0.075240598            2 
 1071000    1.0605702   -3.6963325    952.14553  0.074085398  0.075228152            2 
 1072000    1.0998195   -3.7266535    955.52708  0.074279157  0.075215009            2 
 1073000    1.0806735   -3.6837525    955.51219  0.074208775  0.075202065            2 
 1074000    1.0674019   -3.7405451    951.44917  0.073824423  0.075188307            3 
 1075000    1.0736193   -3.6900334    957.27406  0.074207292  0.075174465            2 
 1076000    1.0797627   -3.6801207     957.1189  0.074126309  0.075161568            3 
 1077000    1.1028658   -3.6921361    957.08233  0.074054652  0.075147914            1 
 1078000    1.0942093   -3.6842072    956.73588  0.073959174  0.075134338            2 
 1079000    1.0947148   -3.6696066    958.35008  0.074015298  0.075121536            1 
 1080000    1.0869333   -3.6642786    961.93557  0.074223423  0.075108221            3 
 1081000    1.0818229   -3.7061958    958.65851  0.073902136  0.075094894            2 
 1082000    1.0751889   -3.6857192    960.64231  0.073986623  0.075081569            2 
 1083000    1.0934787   -3.6889117    963.32978  0.074125099  0.075067664            2 
 1084000    1.1027001   -3.6622595    963.46033  0.074066753  0.075054468            2 
 1085000    1.0858273    -3.698547    960.57881  0.073777174  0.075040859            2 
 1086000    1.0948863   -3.7002886    964.58811   0.07401689  0.075027242            2 
 1087000    1.1055299   -3.7259075     967.6836  0.074186108  0.075013737            3 
 1088000    1.0601737   -3.6877716    964.55868  0.073878575  0.074999664            2 
 1089000    1.0789149    -3.697006    963.85576  0.073756945  0.074985948            3 
 1090000    1.0709908   -3.6663453    971.46884  0.074271318  0.074972273            2 
 1091000    1.1026556   -3.6858325    967.68782  0.073914438  0.074958636            3 
 1092000    1.0671164   -3.7231151    963.52108  0.073528776  0.074944457            6 
 1093000    1.0721629   -3.6903811     968.3636  0.073830711  0.074930543            1 
 1094000    1.0829528   -3.6942437    961.73754  0.073258496  0.074916234            2 
 1095000     1.079531   -3.6878932    969.57295  0.073787896  0.074902077            2 
 1096000    1.0717453   -3.7086919    969.48928  0.073714209  0.074888067            1 
 1097000     1.080413   -3.7246606    968.36529  0.073561629   0.07487447            4 
 1098000    1.0714079    -3.687919    970.56853   0.07366185  0.074860523            4 
 1099000    1.0717345   -3.7038894    971.85409  0.073692303   0.07484641            2 
 1100000    1.0635881   -3.7133527    971.97778   0.07363468   0.07483219            3 
 1101000    1.0564765   -3.7029116    976.08197  0.073878442  0.074818116            4 
 1102000    1.0688471   -3.6974771    975.32715  0.073754321  0.074803866            4 
 1103000    1.0855136   -3.6928166    972.21817  0.073452567  0.074789183            2 
 1104000    1.0614827   -3.7140498    973.97301  0.073518494  0.074775128            3 
 1105000    1.0623875   -3.6664194    981.18002  0.073995477  0.074760922            6 
 1106000    1.0505349   -3.7250057    975.22545  0.073479916  0.074746729            5 
 1107000    1.0834753   -3.7188613    978.86702  0.073687671  0.074732484            3 
 1108000     1.071414   -3.7089731    979.16952  0.073643917  0.074718636            1 
 1109000     1.085772   -3.6808547    982.08566  0.073796638  0.074705404            1 
 1110000    1.0645087   -3.7022045    980.67792  0.073624468  0.074691959            2 
 1111000    1.0641035   -3.6969538    980.99678  0.073582116  0.074678706            3 
 1112000    1.0846783   -3.6822637    984.99088  0.073815263  0.074665311           10 
 1113000    1.0777871   -3.7055333    981.79241  0.073509464  0.074651474            2 
 1114000    1.0727224   -3.7065708    986.42927  0.073790341  0.074638173            8 
 1115000    1.0628331   -3.7203786    982.00839  0.073393751  0.074624468            2 
 1116000    1.0772963    -3.682104    988.20192  0.073790466  0.074611191            2 
 1117000    1.0836936   -3.6947153    987.58112   0.07367809  0.074598097            2 
 1118000    1.0907711   -3.7284347    984.77807  0.073403255   0.07458545            4 
 1119000    1.0782024   -3.7508987    984.82337  0.073341031  0.074571781            5 
 1120000    1.0649921   -3.7278551    992.25882  0.073828781  0.074559309            2 
 1121000    1.0408434   -3.6972783    991.79337  0.073728321  0.074547082            2 
 1122000    1.0642916   -3.7104062     989.9044  0.073522311  0.074534523            3 
 1123000    1.0729744   -3.6913392    994.46064  0.073794942  0.074522392            3 
 1124000    1.0790579   -3.7180703    995.57902  0.073812205  0.074509804            2 
 1125000    1.0518467   -3.7129859     995.1266  0.073713082  0.074497329            2 
 1126000    1.0656296   -3.7299838    998.09602  0.073867378  0.074485337            3 
 1127000    1.0784671   -3.7002713     995.0106  0.073573691  0.074472628            4 
 1128000    1.0559304   -3.6971221    994.18833  0.073447719  0.074460051            4 
 1129000    1.0780396    -3.715578    997.03847  0.073593037  0.074447495            1 
 1130000     1.074476   -3.7220082    999.61837  0.073718169  0.074434908            4 
 1131000    1.0839034   -3.6963725    997.21417  0.073475845  0.074422642            1 
 1132000     1.045731   -3.7164072    999.67297  0.073591944   0.07441019            2 
 1133000    1.0611063   -3.6960357    999.80163  0.073536454   0.07439726            4 
 1134000    1.0688287   -3.6952986    999.75815  0.073468412  0.074384402            3 
 1135000    1.0798001   -3.7211946    999.39076  0.073376708   0.07437143            2 
 1136000    1.0705189   -3.7286921     1000.761  0.073412631  0.074358545            1 
 1137000    1.0596482   -3.7212747     1002.166  0.073451038  0.074345905            3 
 1138000    1.0839931   -3.7076197    1003.0118  0.073448432  0.074333133            3 
 1139000    1.0789435   -3.6745498    1009.2608  0.073841149   0.07432075            3 
 1140000    1.0594747   -3.6846784    1007.4615  0.073644843   0.07430864            2 
 1141000    1.0595499   -3.7172719    1008.5473  0.073659604  0.074296064            2 
 1142000    1.0693447   -3.7180635    1009.1109  0.073636229  0.074283799            3 
 1143000    1.0864456   -3.7065952    1005.4152  0.073302363  0.074272062            3 
 1144000    1.0635412   -3.6965908    1008.9733  0.073497475  0.074259533            7 
 1145000    1.0447916   -3.6954541    1007.5376  0.073328795  0.074246693            2 
 1146000    1.0561988   -3.7326052    1009.0586   0.07337541   0.07423412            1 
 1147000     1.075935   -3.6914281    1010.5584  0.073420402  0.074221785            3 
 1148000    1.0711467   -3.7290657    1008.6654  0.073219034   0.07420879            2 
 1149000    1.0553564   -3.7100952    1009.8283  0.073239653  0.074195726            2 
 1150000    1.0725899   -3.7022854    1008.2734  0.073063289  0.074182598            5 
 1151000     1.081734   -3.6892249    1012.2746  0.073289503  0.074169258            2 
 1152000    1.0733955   -3.7340561    1008.5049  0.072953193   0.07415612            4 
 1153000    1.0391287   -3.7260191    1011.6655  0.073118352  0.074142703            3 
 1154000    1.0739984   -3.7036235    1012.2928  0.073100288  0.074128931            3 
 1155000    1.0801283   -3.7348819    1008.4773  0.072761709  0.074115597            3 
 1156000    1.0629537   -3.7291414    1016.0203  0.073242524  0.074102588            6 
 1157000    1.0521124   -3.7199771    1014.8109  0.073092114  0.074089399            2 
 1158000    1.0542146    -3.691724    1017.3295   0.07321024   0.07407558            2 
 1159000    1.0821191   -3.7012886    1017.4798   0.07315788  0.074062735            2 
 1160000    1.0644892    -3.720396    1017.7504  0.073114254   0.07405028            2 
 1161000    1.0803681   -3.6862273    1023.5231  0.073465626  0.074037387            2 
 1162000    1.0596704   -3.7231759    1020.4213  0.073179952  0.074025085            2 
 1163000    1.0949813   -3.7621959    1021.7379   0.07321137  0.074012146            2 
 1164000    1.0674979   -3.7173492    1022.7083  0.073217949  0.073999787            2 
 1165000    1.0592145    -3.749748    1017.9929  0.072817802  0.073986708            1 
 1166000    1.0812983   -3.7349497    1022.7468  0.073095113  0.073974314            2 
 1167000    1.0544873   -3.7184773    1024.6646   0.07316942  0.073961829            3 
 1168000    1.0801196   -3.7147626    1023.5002  0.073023703  0.073949414            4 
 1169000    1.0651874   -3.7419377    1026.7502  0.073192911  0.073936779            2 
 1170000    1.0666709   -3.7106175    1031.6949  0.073482542  0.073924292            9 
 1171000    1.0763211   -3.7040933    1029.3098  0.073250054  0.073912049            1 
 1172000    1.0744914   -3.7244649    1029.0811  0.073171297  0.073900484            2 
 1173000    1.0895446   -3.7113536    1030.0081  0.073174773   0.07388822            2 
 1174000    1.0734329   -3.7102708    1030.4456    0.0731435  0.073875733            6 
 1175000    1.0485993   -3.7353274    1028.2169  0.072923184  0.073863465            2 
 1176000    1.0552922   -3.7225094    1027.6411  0.072820375  0.073849836            3 
 1177000    1.0439673   -3.7478768     1029.171  0.072866823  0.073836628            2 
 1178000    1.0617861   -3.6964369    1031.6704  0.072981779  0.073823614            3 
 1179000    1.0479677   -3.7242417    1030.5317   0.07283939  0.073811168            5 
 1180000    1.0607522   -3.7094358    1031.6425  0.072856112  0.073798421            3 
 1181000    1.0526839   -3.7076629    1031.3243  0.072771966  0.073785515            2 
 1182000    1.0540435   -3.6898579    1036.8551  0.073100331  0.073773484            2 
 1183000    1.0598065   -3.7194599    1036.6352  0.073023048  0.073761197            2 
 1184000    1.0547465    -3.715276    1035.3205  0.072868839  0.073748342            3 
 1185000      1.07351   -3.6848429    1035.4788  0.072818479  0.073735524            2 
 1186000    1.0730392   -3.7054608    1036.8537   0.07285369  0.073722391            2 
 1187000    1.0618619   -3.7461819    1043.4932   0.07325844  0.073709878            3 
 1188000     1.060114   -3.7205721    1034.4955  0.072565621  0.073697768            4 
 1189000    1.0312719   -3.7140678    1043.0686  0.073105453  0.073685098            6 
 1190000    1.0392717   -3.7149014    1039.1821  0.072771854  0.073673234            2 
 1191000    1.0487103   -3.7022199    1046.5948  0.073229414   0.07366125            3 
 1192000     1.061851   -3.7358198    1044.0794  0.072992128   0.07364942            2 
 1193000    1.0616781   -3.7526437    1040.8132  0.072702796  0.073636801            3 
 1194000    1.0344544   -3.7231642    1040.7287  0.072636008  0.073624033            2 
 1195000    1.0512573   -3.7146622    1044.0125  0.072804222  0.073611425            1 
 1196000    1.0736482   -3.7158584    1044.5195  0.072778672   0.07359859            3 
 1197000    1.0480179   -3.7272132    1043.6709   0.07265879  0.073585283            1 
 1198000    1.0523615   -3.7187845    1045.1406  0.072700379  0.073572016            4 
 1199000    1.0676491     -3.70672    1044.9903  0.072629293  0.073559094            2 
 1200000    1.0503554   -3.7540861    1042.9392  0.072426331  0.073545781            2 
 1201000    1.0532292   -3.7125052    1048.6951  0.072765409  0.073532433            4 
 1202000    1.0628728   -3.7131395    1046.6277  0.072561545  0.073518859            3 
 1203000    1.0505747   -3.7466878    1050.2159  0.072749785  0.073505355            2 
 1204000    1.0549535   -3.7375732    1045.7178  0.072378031  0.073491562            2 
 1205000    1.0610161   -3.6940811    1052.1523   0.07276295   0.07347786            1 
 1206000    1.0352283   -3.7592709    1047.7119  0.072395791  0.073464594            2 
 1207000    1.0796158    -3.694262    1052.6293  0.072675316  0.073451514            6 
 1208000    1.0698785   -3.7187887    1051.0324  0.072504992  0.073438226            3 
 1209000    1.0783053   -3.7411885    1048.4718  0.072268528  0.073425225            4 
 1210000    1.0555189   -3.7202508    1049.4349   0.07227513  0.073411578            2 
 1211000    1.0697536   -3.7395093    1056.3149   0.07268889  0.073398569            1 
 1212000    1.0380558   -3.7166187    1054.4887  0.072503346  0.073385411            4 
 1213000     1.066535   -3.7541709    1055.0425  0.072481626  0.073372542            3 
 1214000    1.0608445   -3.7255321    1061.0059  0.072831268  0.073359225            2 
 1215000    1.0370414   -3.6858599    1063.8962  0.072969564  0.073346073            2 
 1216000    1.0641082   -3.7124008    1057.0206  0.072438363  0.073333692            2 
 1217000    1.0486977   -3.7036655    1063.9486  0.072853235  0.073320973            3 
 1218000    1.0817591   -3.7359189    1059.7936  0.072509142  0.073308143            2 
 1219000    1.0560985   -3.7444331    1060.1344  0.072472957  0.073295163            1 
 1220000    1.0525887   -3.7391975    1059.8072  0.072391202  0.073282886            2 
 1221000    1.0208986   -3.7283444    1059.8177   0.07233263  0.073270251            2 
 1222000    1.0721764   -3.7174004    1062.3133  0.072443623  0.073257143            2 
 1223000    1.0628264   -3.7054456    1064.0405   0.07250208   0.07324421            4 
 1224000    1.0671291   -3.7256196    1061.1986  0.072249362  0.073231313            6 
 1225000    1.0534199   -3.7244945    1065.3739  0.072474413  0.073218952            2 
 1226000    1.0542782   -3.7029567    1065.2188  0.072404759   0.07320612            3 
 1227000    1.0339254   -3.7473467     1065.737  0.072380946   0.07319337            2 
 1228000    1.0505186   -3.7237928    1070.7801  0.072664233  0.073180558            2 
 1229000    1.0572045    -3.730811    1066.4486  0.072311403    0.0731674            2 
 1230000    1.0539303   -3.7470685      1064.86  0.072144989   0.07315481            8 
 1231000    1.0496358   -3.7597972    1065.9045  0.072157089  0.073141573            1 
 1232000    1.0366129   -3.7225353     1063.666  0.071947104  0.073127917            5 
 1233000    1.0484368   -3.7391818    1068.0087  0.072182258  0.073114503            2 
 1234000    1.0440005   -3.7284976    1071.6013  0.072366374  0.073101386            2 
 1235000    1.0662859   -3.7141097    1072.4035  0.072361906  0.073088834            2 
 1236000    1.0469508   -3.7373702    1072.5548  0.072313563  0.073075829            2 
 1237000    1.0548803   -3.7149201    1075.2507  0.072436719  0.073062786            2 
 1238000    1.0392015   -3.7196728    1076.6563  0.072472825  0.073050162            2 
 1239000    1.0416029   -3.7656079    1067.0734    0.0717698  0.073037282            2 
 1240000    1.0551501   -3.7465734     1074.647  0.072220901  0.073024288            4 
 1241000    1.0681683   -3.7429232    1073.4425   0.07208182  0.073010967            3 
 1242000    1.0430194   -3.7318858    1076.0616  0.072199519  0.072998269            2 
 1243000    1.0597627   -3.7439138    1077.9414  0.072267461  0.072985632            3 
 1244000    1.0428853   -3.7371547    1076.5299   0.07211481  0.072972874            5 
 1245000    1.0316021   -3.7732834    1073.8959  0.071880584  0.072960464            1 
 1246000    1.0297138   -3.7327224    1079.2156  0.072178677  0.072948335            1 
 1247000    1.0541541   -3.7239082    1080.8552  0.072230369   0.07293633            3 
 1248000    1.0487795    -3.755395    1079.8054  0.072102388  0.072923887            3 
 1249000    1.0517199   -3.7584561    1083.8242  0.072312796  0.072911231            2 
 1250000    1.0552657   -3.7841225    1082.5773  0.072171823   0.07289851            1 
 1251000    1.0617987   -3.7330579    1087.1297  0.072417377  0.072886226            3 
 1252000    1.0506038   -3.7523544    1085.3954  0.072244103  0.072874017            2 
 1253000    1.0509256   -3.7498093    1086.4727  0.072258093  0.072862061            2 
 1254000    1.0220316   -3.7044636    1088.0786   0.07230719  0.072849479            1 
 1255000    1.0577183   -3.7136708    1089.2477  0.072327207  0.072837177            3 
 1256000    1.0549381   -3.7235103    1080.0442   0.07165898  0.072824656            3 
 1257000    1.0639025   -3.7537575    1084.1573  0.071874658  0.072812183            1 
 1258000    1.0547344   -3.7309709    1082.3702  0.071699141  0.072799293            1 
 1259000    1.0442494   -3.7429614    1090.6835  0.072192445  0.072786643            4 
 1260000    1.0469459   -3.7265507    1088.5436  0.071993623  0.072773984            1 
 1261000    1.0464226   -3.7526812    1086.8831  0.071826795  0.072761299            2 
 1262000     1.063689   -3.7550273    1086.7839  0.071763331  0.072748531            3 
 1263000    1.0541072   -3.7221477    1089.6548  0.071895938  0.072735916            3 
 1264000    1.0767114   -3.7527467    1092.5738  0.072031501   0.07272346            3 
 1265000      1.08252   -3.7454693    1091.5282  0.071905676  0.072710687            2 
 1266000    1.0572783   -3.7595716     1089.895  0.071741376  0.072698229            2 
 1267000    1.0435144   -3.7912417    1096.7614  0.072136375  0.072685455            6 
 1268000    1.0313367    -3.725872    1097.4941  0.072127636    0.0726729            3 
 1269000    1.0559266   -3.7668136    1097.9108   0.07209816  0.072660282            2 
 1270000    1.0472251   -3.7546255    1094.1511  0.071794694  0.072647485            4 
 1271000    1.0545754   -3.7284976    1098.6689  0.072034416  0.072635027            1 
 1272000    1.0396453   -3.7595961    1097.0699  0.071873029  0.072622155            5 
 1273000    1.0546177   -3.7720237    1094.4001  0.071641795  0.072609686            5 
 1274000     1.040525   -3.7698354    1099.8193  0.071940038   0.07259724            2 
 1275000    1.0682637    -3.735426     1099.437  0.071858624  0.072585369            3 
 1276000    1.0561465   -3.7097692    1108.9573  0.072424065  0.072573626            2 
 1277000     1.042858   -3.7303965     1102.045  0.071916275  0.072562103            5 
 1278000    1.0310645   -3.7671442     1099.269   0.07167899  0.072550215            2 
 1279000    1.0391259   -3.7503849    1109.1357  0.072265814  0.072538468            2 
 1280000    1.0586077    -3.765115     1102.823  0.071798375  0.072526541            3 
 1281000    1.0471348   -3.7335904    1102.7409  0.071736984  0.072514197            2 
 1282000    1.0584871   -3.7489868    1107.6196  0.071998156  0.072502222            5 
 1283000    1.0478649   -3.7520405    1107.5579  0.071938027  0.072490054            2 
 1284000    1.0151777     -3.75708    1103.8098  0.071638743  0.072477454            3 
 1285000    1.0175175   -3.7748342    1105.7869  0.071711214  0.072465041            2 
 1286000    1.0359209   -3.7577836    1110.5919  0.071966814  0.072452617            5 
 1287000    1.0389024   -3.7360402     1108.384  0.071767934  0.072440377            1 
 1288000     1.054773      -3.7787    1108.2241  0.071701867  0.072428096            1 
 1289000    1.0614862   -3.7626358    1111.0649    0.0718299  0.072416146            3 
 1290000    1.0544777   -3.7630266    1108.7263  0.071623147  0.072404087            2 
 1291000    1.0241713   -3.7680388    1108.8839  0.071577837  0.072391746            2 
 1292000    1.0403686   -3.7644169    1110.5729  0.071631382  0.072379419            3 
 1293000    1.0455759   -3.7415204    1117.7189  0.072036535   0.07236733            6 
 1294000    1.0698108   -3.7310605    1114.4391   0.07176965  0.072355873            2 
 1295000    1.0516203    -3.740366    1113.8174  0.071674224  0.072343995            2 
 1296000     1.038169   -3.7350576    1116.9846  0.071822572  0.072332185            2 
 1297000    1.0421221   -3.7466885    1117.6527  0.071810119   0.07232065            2 
 1298000    1.0419017   -3.7328846    1117.4812  0.071743784  0.072308812            2 
 1299000    1.0599228   -3.7599512    1122.8593  0.072033568  0.072297129            1 
 1300000    1.0249391   -3.7353621    1118.6332  0.071707254  0.072285718            3 
 1301000    1.0590513     -3.75466    1121.0233   0.07180523  0.072274365            2 
 1302000    1.0423479   -3.7031142    1124.2527  0.071956777  0.072262917            3 
 1303000    1.0312647   -3.7620102    1118.2095   0.07151506  0.072251384            2 
 1304000    1.0268627   -3.7543112    1122.1909  0.071714652  0.072239111            4 
 1305000    1.0143383   -3.7519463    1123.9387  0.071771306  0.072227937            4 
 1306000    1.0517046   -3.7701093    1126.0805  0.071853017  0.072216173            4 
 1307000    1.0515216   -3.7561857     1120.535  0.071444464  0.072204757            1 
 1308000    1.0366353   -3.7394303    1129.4812   0.07195981  0.072193804            2 
 1309000    1.0487936   -3.7739761    1128.6149  0.071849687  0.072182179            2 
 1310000    1.0184015   -3.7413071    1131.4382  0.071974442  0.072170893            5 
 1311000    1.0436967   -3.7437501    1128.0091  0.071701572  0.072159623            4 
 1312000    1.0571907   -3.7636958    1124.1008  0.071398681  0.072148167            2 
 1313000    1.0461901   -3.7543872    1130.1595  0.071728836  0.072136319            1 
 1314000    1.0446078   -3.7650444    1125.3158  0.071367059  0.072124949            2 
 1315000    1.0400804   -3.7562373    1129.0513  0.071549511  0.072113073            2 
 1316000    1.0363339   -3.7742742    1130.3285  0.071576018  0.072101412            2 
 1317000    1.0180531   -3.7552985    1128.4705  0.071404105  0.072089552            1 
 1318000    1.0666024   -3.7396928    1127.8711  0.071312035  0.072077796            3 
 1319000    1.0126726   -3.7285298    1134.2351   0.07166004  0.072066107            1 
 1320000    1.0550151   -3.7248504    1136.4784  0.071747373  0.072054266            2 
 1321000    1.0379476   -3.7260641    1135.9356  0.071658818  0.072042697            4 
 1322000    1.0530145   -3.7774462    1134.3687  0.071505846  0.072031167            2 
 1323000    1.0466053   -3.7420222    1132.7189  0.071347876  0.072019356            2 
 1324000    1.0359576   -3.7669014    1129.5587  0.071095087  0.072007147            2 
 1325000    1.0343975   -3.7892011     1130.888  0.071125031  0.071994128            2 
 1326000    1.0150263   -3.7426477    1135.1478  0.071339105  0.071981823            2 
 1327000    1.0316307   -3.7244748    1134.6874  0.071256432  0.071969293            2 
 1328000    1.0500742   -3.7520204    1135.0127  0.071223189  0.071956884            1 
 1329000    1.0249492   -3.7563106    1137.0833  0.071299432    0.0719441            2 
 1330000    1.0379482   -3.7813075    1136.4377  0.071205371  0.071931987            3 
 1331000    1.0365266   -3.7891912    1132.2604  0.070890335  0.071919375            4 
 1332000    1.0458441   -3.7809003    1135.7365  0.071054583   0.07190686            6 
 1333000    1.0308601   -3.7674879    1136.7697  0.071065873  0.071894296            3 
 1334000    1.0196426    -3.785117    1136.7061  0.071008626  0.071881939            1 
 1335000    1.0391649   -3.7631909    1144.5139  0.071442816  0.071869464            3 
 1336000    1.0149713   -3.7593416    1141.2919  0.071188367  0.071856812            3 
 1337000    1.0412693   -3.7502308    1140.8286  0.071106245  0.071844236            2 
 1338000    1.0639284   -3.7621809    1145.8524  0.071365997  0.071831977            4 
 1339000    1.0454023    -3.743323    1144.2944  0.071215732  0.071819615            2 
 1340000    1.0406325   -3.7780157    1137.2138   0.07072225  0.071806754            2 
 1341000    1.0405959   -3.7813178    1138.5444  0.070752201  0.071793818            4 
 1342000    1.0215496   -3.7501816    1145.8875  0.071155458  0.071780873            2 
 1343000    1.0325861   -3.7644671    1146.0393  0.071111897  0.071767706            2 
 1344000    1.0094656   -3.7598612    1140.5473  0.070718461  0.071754591            3 
 1345000    1.0161885   -3.7641858    1146.6491  0.071043933  0.071741806            2 
 1346000    1.0284166   -3.7668054    1146.6465  0.070990992  0.071728437            4 
 1347000    1.0185821    -3.773583    1145.7305  0.070881618  0.071715327            3 
 1348000    1.0243626    -3.747711    1148.3262  0.070989503  0.071702347            2 
 1349000    1.0344231   -3.7537851    1149.0703  0.070982848  0.071689289            6 
 1350000    1.0520717   -3.7641034    1147.7235  0.070847128  0.071676441            5 
 1351000    1.0339449   -3.7589086    1149.8693   0.07092705  0.071663356            2 
 1352000     1.028019    -3.727539    1149.2828  0.070838436  0.071650133            3 
 1353000    1.0375895   -3.7538381    1152.0916  0.070959078  0.071636933            3 
 1354000    1.0236143   -3.7855044    1145.4203  0.070496077  0.071623084            1 
 1355000    1.0468248    -3.749602    1148.7724  0.070650212  0.071609518            3 
 1356000    1.0567761     -3.76905    1152.2779  0.070813536  0.071595978            3 
 1357000    1.0287508   -3.7483865     1155.196  0.070940557  0.071582761            2 
 1358000    1.0263775   -3.7694581    1153.7561  0.070799957  0.071569431            2 
 1359000    1.0159661   -3.7646149    1154.4071  0.070787782  0.071556082            3 
 1360000    1.0353036   -3.7816404     1155.179  0.070783026  0.071542726            2 
 1361000    1.0423374   -3.7354878    1155.6612  0.070760542  0.071529245            1 
 1362000    1.0064386   -3.7387562    1157.1589  0.070800229  0.071516297            2 
 1363000     1.018527   -3.7571199    1159.0278  0.070862544  0.071503346            4 
 1364000     1.030237   -3.7489113    1159.6719  0.070849946   0.07149046            4 
 1365000    1.0447151   -3.7590697     1157.185  0.070646216  0.071476873            3 
 1366000    1.0566608   -3.7836584    1157.9225  0.070639487  0.071463655            5 
 1367000     1.030089   -3.7805186    1159.3224  0.070673155  0.071450234            2 
 1368000      1.02921   -3.7766747    1157.1079   0.07048659  0.071436628            1 
 1369000    1.0379323   -3.7826224    1157.7699  0.070475403  0.071423268            2 
 1370000    1.0287579   -3.7690283    1160.8119  0.070608997  0.071410198            2 
 1371000     1.024806   -3.7441003    1159.3289  0.070467352  0.071396941            2 
 1372000    1.0438424   -3.7622384    1155.4811  0.070182284  0.071383426            3 
 1373000    1.0155622   -3.7758344     1160.519  0.070436937  0.071370262            7 
 1374000    1.0431369    -3.751977    1159.9937  0.070353812  0.071357111            2 
 1375000    1.0249519   -3.7616666     1166.897  0.070721033  0.071344005            1 
 1376000     1.018454   -3.7703301    1166.6054  0.070651974  0.071331094            1 
 1377000    1.0316492   -3.7887005    1161.4307  0.070287504  0.071317237            1 
 1378000    1.0283381   -3.7760942    1161.2767   0.07022718  0.071303795            4 
 1379000    1.0445703   -3.7653093    1167.3151  0.070541159  0.071289959            3 
 1380000     1.028655   -3.7706517    1165.6855  0.070391634  0.071276619            2 
 1381000    1.0460502   -3.7927462    1165.5031   0.07032966  0.071263672            3 
 1382000    1.0415384     -3.75524    1170.4379  0.070576332  0.071250108            1 
 1383000    1.0422147   -3.7362569    1168.7563  0.070423978  0.071236787            3 
 1384000    1.0417334   -3.7723498    1168.5048  0.070357948  0.071224063            3 
 1385000    1.0348792   -3.8088439    1166.7305  0.070200393  0.071210808            4 
 1386000    1.0446395   -3.7858391    1170.6889  0.070387738  0.071197516            2 
 1387000    1.0508565   -3.7764788    1165.6093    0.0700318  0.071184303            4 
 1388000    1.0375564   -3.7655187    1172.8482  0.070415956  0.071171238            5 
 1389000    1.0306437   -3.7444132    1175.5073  0.070524795  0.071158125            2 
 1390000    1.0472223   -3.7752586    1170.7321  0.070187778  0.071144741            3 
 1391000    1.0501051   -3.7540279    1177.8432  0.070563337  0.071131865            3 
 1392000    1.0242729   -3.7669334    1177.3178   0.07048119   0.07111906            2 
 1393000    1.0214417   -3.7968812    1172.0812  0.070117326  0.071106203            5 
 1394000    1.0440381   -3.8208298    1176.8453  0.070351823  0.071092775            3 
 1395000    1.0395532   -3.7914151    1177.2026  0.070322738  0.071079003            1 
 1396000   0.99738181    -3.791741    1176.6563  0.070239751  0.071065797            4 
 1397000    1.0397805   -3.7674244    1178.7731  0.070315739   0.07105281            4 
 1398000    1.0367309   -3.7986769    1179.5763  0.070313323  0.071040067            5 
 1399000    1.0418425   -3.7607526     1181.223  0.070361151  0.071027607            5 
 1400000     1.017974   -3.7857156    1176.8892   0.07005293  0.071014818            3 
 1401000    1.0357191   -3.7908899    1178.1802  0.070079718  0.071002013            7 
 1402000   0.99403002   -3.7584473    1181.9998  0.070256764  0.070989227            2 
 1403000     1.016944   -3.8121325    1179.5307  0.070060035  0.070976152            2 
 1404000     1.016625   -3.7793481    1186.3328  0.070413864  0.070963218            4 
 1405000    1.0133859    -3.777154    1182.7957  0.070153955  0.070950121            8 
 1406000    1.0244261   -3.7925214    1184.0834  0.070180384  0.070936768            2 
 1407000    1.0525313   -3.7605067    1183.7007  0.070107834  0.070923732            3 
 1408000    1.0361168   -3.7965763    1186.9873  0.070252562  0.070910667            2 
 1409000    1.0257328   -3.7595686    1188.0848  0.070267611  0.070897866            4 
 1410000    1.0286187   -3.7847451    1185.9487  0.070091529  0.070884994            2 
 1411000    1.0427686   -3.7915297    1190.6856  0.070321619  0.070871965            3 
 1412000     1.038736   -3.7606444    1193.4125  0.070432751  0.070858912            3 
 1413000    1.0290618   -3.7942627    1189.5404   0.07015454   0.07084623            4 
 1414000    1.0286586   -3.7968422    1194.7206  0.070410221  0.070833527            3 
 1415000    1.0215018   -3.7769632    1190.5519  0.070114953  0.070820925            2 
 1416000    1.0449219   -3.7960543    1187.3283  0.069875727  0.070808127            3 
 1417000    1.0373596   -3.7624642    1194.0199  0.070219943  0.070795324            2 
 1418000    1.0052704   -3.8053202    1197.8777  0.070397136  0.070783016            6 
 1419000    1.0320327   -3.7961021    1193.9567  0.070117259  0.070770724            7 
 1420000    1.0341605   -3.7835536     1194.923  0.070124591  0.070758378            3 
 1421000    1.0381049   -3.7551629    1196.0534  0.070141529  0.070745929            3 
 1422000    1.0176396   -3.8052438    1195.9407    0.0700856  0.070733503            2 
 1423000    1.0126359   -3.7856329    1195.1986  0.069992891  0.070721172            2 
 1424000    1.0166129   -3.8192832    1197.3885  0.070071891   0.07070855            2 
 1425000    1.0472298   -3.7835701    1196.6009  0.069976659   0.07069632            3 
 1426000    1.0399871   -3.7834778    1197.9332  0.070005446  0.070684091            3 
 1427000    1.0296008   -3.7880916    1198.9464  0.070015555  0.070671978            2 
 1428000    1.0229861   -3.7965616    1199.2664  0.069985199  0.070659156            2 
 1429000    1.0313241   -3.8161481    1197.2356  0.069817797   0.07064695            2 
 1430000    1.0211568   -3.7806711    1202.1717  0.070056624  0.070634726            4 
 1431000     1.030032   -3.7847047    1204.6088  0.070149593  0.070622298            5 
 1432000    1.0152147   -3.7721881    1202.8899  0.070000578  0.070610208            4 
 1433000    1.0291918   -3.7723367    1204.8224  0.070064108  0.070597547            2 
 1434000     1.017659   -3.7816309    1207.8851  0.070193231  0.070585691            2 
 1435000    1.0268803   -3.7542971    1206.5395  0.070066176  0.070573609            7 
 1436000    1.0314499   -3.7533065    1207.0126  0.070044838  0.070561585            3 
 1437000    1.0625017   -3.7593886    1203.9849  0.069820511  0.070549519            2 
 1438000    1.0497378    -3.790405    1203.4975  0.069743712  0.070537079            4 
 1439000    1.0420594     -3.76918    1204.5348  0.069755316  0.070524052            1 
 1440000    1.0219797   -3.7975139    1206.3559  0.069812263  0.070511599            2 
 1441000    1.0154433   -3.8039907    1208.1615  0.069868232  0.070498748            1 
 1442000    1.0257225   -3.8181267    1204.0246  0.069580708  0.070486013            4 
 1443000   0.99821334    -3.793558    1203.6231  0.069509305  0.070473036            4 
 1444000    1.0098145   -3.7837707    1212.5008  0.069973501  0.070459657            2 
 1445000    1.0063292   -3.8168331    1206.2278  0.069563309  0.070446142            2 
 1446000     1.032511   -3.8132089    1205.8577  0.069493876  0.070432733            2 
 1447000    1.0148649   -3.7729869    1205.9992  0.069453996  0.070419029            2 
 1448000    1.0117512    -3.781916    1210.1579   0.06964537  0.070405459            2 
 1449000    1.0228898   -3.7659156    1206.4132  0.069381943  0.070391828            3 
 1450000    1.0247395   -3.7977329    1207.1184  0.069374618  0.070378441            3 
 1451000    1.0408677   -3.7960665    1209.5915  0.069468844  0.070364687            3 
 1452000   0.99991118   -3.7797882    1212.3092  0.069576976  0.070351092            4 
 1453000    1.0083269   -3.7953485    1206.6922   0.06920694  0.070336773            3 
 1454000    1.0168747   -3.7788629    1211.7632  0.069449976  0.070322856            2 
 1455000    1.0210703   -3.8213279    1206.5222  0.069102075  0.070308742            4 
 1456000     1.018009   -3.8080192     1211.167  0.069320456  0.070294241            4 
 1457000    1.0084749   -3.7799818    1213.9082  0.069429662  0.070280235            3 
 1458000   0.99757901   -3.7814094    1218.5262  0.069645987  0.070266368            6 
 1459000    1.0031569   -3.7724796     1217.241  0.069524845  0.070252587            2 
 1460000   0.99569535   -3.7830842    1219.3407  0.069597074  0.070238553            6 
 1461000    1.0187844   -3.8127172    1215.3625  0.069322526  0.070224935            5 
 1462000    1.0126299   -3.7755318    1215.3265  0.069273057  0.070210867            2 
 1463000    1.0408398   -3.7842624    1213.3555  0.069113435  0.070196645            1 
 1464000    1.0097053   -3.7753112    1216.6137  0.069251691  0.070182006            4 
 1465000    1.0255807    -3.797074    1215.4228  0.069136677  0.070167693            2 
 1466000    1.0083015   -3.7639245    1216.1008  0.069128057  0.070153192            4 
 1467000    1.0159757    -3.798516    1218.5557  0.069220386  0.070138823            2 
 1468000    1.0204596   -3.8001108    1215.1651  0.068980761  0.070124474            1 
 1469000    1.0191505   -3.7770961     1211.751  0.068740132  0.070109836            4 
 1470000    1.0117711   -3.7910193     1217.603  0.069025115  0.070095069            5 
 1471000    1.0012321   -3.7932637    1219.9582  0.069111612  0.070080371            4 
 1472000    0.9908769   -3.7830154    1215.3648  0.068804617  0.070065517            2 
 1473000    1.0130413    -3.804039    1218.7116  0.068947249  0.070050437            3 
 1474000    1.0009025   -3.7786684    1219.9463  0.068970277  0.070035385            7 
 1475000    1.0097902   -3.7743608    1219.5691   0.06890221  0.070020339            3 
 1476000    1.0245284   -3.8179294    1221.7065  0.068976205  0.070005581            6 
 1477000   0.99565077   -3.8098657    1220.5426  0.068863834  0.069990782            5 
 1478000    1.0183805   -3.7693193    1225.2166  0.069080773  0.069975899            4 
 1479000    1.0159754   -3.7855429    1222.7719  0.068896323  0.069961382            2 
 1480000    1.0199787   -3.7704618    1222.2624  0.068821083    0.0699468            2 
 1481000    1.0121555   -3.7782515    1226.8532   0.06903293  0.069932386            2 
 1482000   0.99128395   -3.7769438    1222.9447   0.06876657  0.069917741            4 
 1483000    1.0270546   -3.8125483    1223.1475  0.068731594  0.069903532            2 
 1484000    1.0380442   -3.8047175    1222.8228  0.068667048  0.069888644            3 
 1485000    1.0140306   -3.7998761    1229.2788  0.068983097  0.069874154            2 
 1486000    1.0010589   -3.7821741    1229.3713  0.068941865  0.069859631            2 
 1487000    1.0093271   -3.7874921    1230.3413  0.068949858  0.069845182            2 
 1488000     1.031149    -3.767201    1227.7545   0.06875865  0.069830488            2 
 1489000    1.0270689   -3.7860606    1223.1093    0.0684525  0.069815644            1 
 1490000   0.99953287   -3.7950343    1229.4153  0.068759247   0.06980097            6 
 1491000    1.0109382   -3.7805791    1230.4991  0.068773704  0.069786393            5 
 1492000    1.0243554   -3.7945425    1228.4833  0.068615018  0.069771774            4 
 1493000    1.0068168   -3.7824569    1231.0675    0.0687133  0.069756571            7 
 1494000    1.0249563   -3.7663482    1233.6615  0.068811996  0.069742093            3 
 1495000    1.0021511   -3.7753769    1231.3834  0.068638986  0.069727512            4 
 1496000    1.0000747   -3.7976682    1229.8382  0.068507029  0.069712506            4 
 1497000    1.0122778   -3.7745239    1231.0425  0.068528305  0.069697609            4 
 1498000    1.0304108   -3.7618193    1235.2861  0.068718633  0.069682487            2 
 1499000     1.015421   -3.8182822    1232.6984  0.068528928  0.069666897            2 
 1500000    1.0120874   -3.8002643    1234.6183  0.068589908  0.069651705            5 
 1501000    1.0089256   -3.7947492    1234.4562  0.068535212  0.069636096            3 
 1502000    1.0124704   -3.7898569    1230.1309  0.068249608  0.069620735            2 
 1503000    0.9895664   -3.7804969    1227.1461  0.068038704  0.069605538            3 
 1504000    1.0126934   -3.7747986    1229.9791   0.06815044  0.069589931            4 
 1505000    1.0264406   -3.7921461    1230.4162  0.068129357  0.069574149            2 
 1506000    1.0026384   -3.8074638    1232.4361  0.068195891  0.069558033            2 
 1507000    1.0135032   -3.7931837    1233.0283  0.068183381  0.069542298            2 
 1508000    1.0076053   -3.8050462     1235.746  0.068288352  0.069526196            2 
 1509000   0.99752596   -3.8246567    1235.0638  0.068205424  0.069510629            1 
 1510000    0.9985704   -3.7763239    1236.9321  0.068263362  0.069495192            2 
 1511000    1.0010291   -3.7910671    1242.3153  0.068515071  0.069479885            2 
 1512000    1.0110012   -3.8199198    1232.7377  0.067941893  0.069464632            6 
 1513000   0.99172928   -3.7758568    1241.5702  0.068383468    0.0694492            2 
 1514000     1.006698   -3.8128015    1235.6266  0.068011153  0.069433873            4 
 1515000    1.0316863    -3.796396    1238.9224  0.068147545  0.069418335           10 
 1516000    1.0228212   -3.8189215    1236.3883  0.067963297  0.069402829            7 
 1517000   0.98991242    -3.785829    1244.0603  0.068339939  0.069387721            1 
 1518000    1.0104301   -3.8378079    1241.6193  0.068160919  0.069372821            2 
 1519000    1.0340601   -3.8073614     1244.638  0.068281655  0.069357996            2 
 1520000    1.0073453   -3.7931848    1243.3471   0.06816596  0.069343046            3 
 1521000    1.0178539   -3.8032712    1243.5384  0.068131626  0.069328282            2 
 1522000    1.0078302   -3.8263091    1249.3621  0.068405719  0.069313422            5 
 1523000    1.0175676   -3.8193249    1244.1084  0.068073341  0.069299023            2 
 1524000   0.98911177    -3.807572    1248.6189  0.068275312  0.069284462            4 
 1525000    1.0042517   -3.7807473    1249.6928  0.068289225   0.06927012            1 
 1526000    1.0170769   -3.8455933     1244.497  0.067960735  0.069255595            5 
 1527000    1.0125177   -3.7879975    1248.5053  0.068134976  0.069240704            2 
 1528000    1.0056487   -3.7989264    1249.0412  0.068119613   0.06922567            3 
 1529000    1.0106903   -3.8081697    1254.4742  0.068371167  0.069210784            3 
 1530000    1.0024288   -3.8070553    1256.8603  0.068456443  0.069196267            2 
 1531000    1.0027593     -3.78256    1252.1616  0.068155975  0.069181718            3 
 1532000   0.99756841   -3.8132672      1258.71  0.068467687   0.06916724            4 
 1533000   0.98939835   -3.8065568    1256.8286  0.068320755   0.06915226            3 
 1534000    1.0046789   -3.8093061    1249.9241  0.067901137  0.069137448            5 
 1535000   0.98066632   -3.7949884    1250.9651  0.067913415   0.06912269            2 
 1536000   0.99466083   -3.8087649    1253.5007  0.068006768  0.069107994            5 
 1537000    1.0086831   -3.7940273    1254.8605  0.068036244  0.069092919            3 
 1538000    1.0128427   -3.8136466    1254.7217  0.067984487  0.069078141            5 
 1539000    1.0095174   -3.8055338    1256.7913  0.068052375  0.069063299            2 
 1540000    1.0133031   -3.7742688    1250.9405  0.067691586  0.069048549            4 
 1541000    1.0137431     -3.81444    1250.2989  0.067612964  0.069033405            2 
 1542000   0.98827318   -3.8042105    1253.8875  0.067763052  0.069018252            3 
 1543000   0.99374212   -3.8323913    1254.7735  0.067766983  0.069002929            2 
 1544000    1.0105235   -3.8391778    1255.6865  0.067772372  0.068987887            2 
 1545000   0.99306453   -3.8050263    1257.9784  0.067852126  0.068973021            3 
 1546000    1.0295428   -3.8277698    1257.6418  0.067790092  0.068957702            3 
 1547000   0.99543728   -3.8179861    1256.4331   0.06768116  0.068942286            5 
 1548000     0.998183    -3.826691    1254.3478  0.067525183  0.068926996            6 
 1549000   0.99181438    -3.810789     1263.454  0.067971487  0.068912211            3 
 1550000   0.99059628   -3.8186672    1258.8738  0.067681387  0.068897169            4 
 1551000    1.0105087   -3.8319349    1257.1062  0.067542779  0.068882231            3 
 1552000   0.99661862   -3.8080198    1261.9268  0.067758095   0.06886757            3 
 1553000    1.0140245   -3.7948541    1267.4942  0.068013212  0.068853063            5 
 1554000    1.0094871   -3.8064707    1265.7584  0.067876361  0.068838452            3 
 1555000    1.0177778   -3.7727403    1272.4517  0.068191411  0.068824137            5 
 1556000   0.99957708   -3.8228953    1263.4685  0.067666478  0.068809669            6 
 1557000   0.99811349   -3.8148067    1268.1819  0.067875289  0.068794874            2 
 1558000   0.98710721   -3.7946526    1267.0035  0.067768694  0.068780383            6 
 1559000   0.99298306   -3.8145166    1266.0923  0.067676517  0.068766091            4 
 1560000   0.99731894    -3.798931    1268.5856  0.067766326  0.068751496            2 
 1561000   0.99797519   -3.8448101    1265.5141  0.067558944  0.068736726            3 
 1562000    1.0120475   -3.8198369    1264.3962  0.067456051  0.068721995            2 
 1563000     0.995407   -3.8381061    1266.5521  0.067527836  0.068707386            4 
 1564000    1.0051393   -3.7955108    1271.3533  0.067740478   0.06869302            2 
 1565000   0.99116851   -3.8043189    1274.7069  0.067875767  0.068678468            3 
 1566000     1.001931   -3.8355603    1267.3823   0.06744265  0.068663578            6 
 1567000    1.0283568   -3.8256802    1271.2995  0.067607928  0.068648945            5 
 1568000   0.99934061   -3.8134006    1273.7475  0.067694916  0.068634216            3 
 1569000   0.98916799   -3.8320474    1270.2961  0.067468457  0.068619564            2 
 1570000    1.0216403   -3.8135846    1276.0064  0.067728576  0.068605251            4 
 1571000    1.0277767   -3.8196117    1272.3071  0.067489239  0.068590724            3 
 1572000   0.98466011   -3.8141942    1275.1445  0.067596721  0.068576407            4 
 1573000    1.0023616   -3.8315496    1275.7139  0.067583911  0.068562079            4 
 1574000    1.0128956   -3.8120303    1275.5348   0.06753149  0.068548053            1 
 1575000    1.0073581   -3.8241238    1276.2182  0.067524773  0.068533401            2 
 1576000    1.0098597    -3.803838    1277.5896   0.06755444  0.068519243            3 
 1577000    1.0112109   -3.8390431    1282.4324  0.067767513  0.068504741            2 
 1578000   0.99557319   -3.8590521    1278.6148  0.067522963  0.068490579            3 
 1579000    1.0005554    -3.814392    1283.5857   0.06774254  0.068476774            2 
 1580000   0.99572226   -3.8407889    1287.2073  0.067890682  0.068462724            3 
 1581000   0.99009501    -3.814552    1282.8675  0.067618992   0.06844873            3 
 1582000   0.99845954   -3.7974393    1282.8076  0.067573092  0.068434629            3 
 1583000   0.99315279   -3.8149826    1284.7527  0.067632804  0.068420831            2 
 1584000   0.99983226   -3.8314412    1286.4328  0.067678495  0.068406402            2 
 1585000    1.0049233   -3.8180263    1281.3859  0.067370446  0.068392069            2 
 1586000   0.99027983   -3.8304463    1282.4517  0.067383971  0.068377796            3 
 1587000     1.001874   -3.8330357    1280.8802  0.067258989  0.068363158            3 
 1588000    1.0069902   -3.8078806    1288.2425  0.067602988  0.068348456            3 
 1589000    1.0130473   -3.8117832     1279.792  0.067117266  0.068334073            3 
 1590000   0.99067809   -3.8447167    1285.2511  0.067361168  0.068319546            1 
 1591000    1.0032162    -3.847017    1291.8241  0.067663113   0.06830514            7 
 1592000   0.99583553   -3.8281758     1287.241  0.067380705  0.068290801            8 
 1593000    1.0288133   -3.8377151    1289.4407  0.067453481  0.068276628            3 
 1594000   0.99096207   -3.8155897    1285.1723  0.067188013  0.068262352            2 
 1595000   0.99491857   -3.8351783    1289.9487  0.067395441  0.068248028            4 
 1596000    0.9831679   -3.8273429    1290.0935   0.06736077  0.068233873            3 
 1597000   0.99889088   -3.8149989    1285.4673   0.06707719  0.068219822            3 
 1598000    1.0026667   -3.8369458    1292.2728  0.067390114  0.068205855            1 
 1599000    1.0152364   -3.8322074    1291.3502  0.067299884  0.068191414            4 
 1600000   0.99686558   -3.8133533     1295.281  0.067462553  0.068177225            2 
 1601000   0.99684661   -3.8162369    1294.9743  0.067404451  0.068162992            7 
 1602000    1.0110892   -3.7858144    1293.5956   0.06729066  0.068149228            2 
 1603000   0.98021483   -3.8367011    1294.0578  0.067272706  0.068135323            4 
 1604000   0.98991593    -3.840831    1292.6053  0.067155302  0.068121173            3 
 1605000    1.0135613   -3.8522606    1295.0724  0.067241558  0.068107307            2 
 1606000    1.0003226   -3.8090391    1301.5046  0.067533445  0.068093806            2 
 1607000   0.99129542   -3.8014495    1300.0539  0.067416197  0.068080493            3 
 1608000   0.97626253   -3.8144931    1300.0944  0.067376369   0.06806693            3 
 1609000    1.0104527   -3.8544944    1298.0963   0.06723101   0.06805344            3 
 1610000   0.97958366   -3.8084035    1299.1526  0.067243924  0.068039763            3 
 1611000    1.0000724   -3.8330592    1298.9744  0.067192965  0.068025931            2 
 1612000   0.97551891   -3.8286002    1298.8397  0.067144316  0.068012185            2 
 1613000   0.99481629   -3.8144698    1298.1794   0.06706858  0.067998528            2 
 1614000    1.0102509   -3.8193792    1302.6069  0.067255621  0.067984732            2 
 1615000    1.0157363   -3.8356896    1302.7195   0.06721979  0.067970882            2 
 1616000   0.98579468    -3.827564    1304.5616  0.067273185  0.067956987            4 
 1617000    1.0000199   -3.8110137    1308.5046  0.067434785  0.067943359            3 
 1618000    1.0070461   -3.8555406    1302.7773  0.067098133  0.067929299            4 
 1619000   0.99402209   -3.8496737    1301.2172  0.066976383  0.067915271            2 
 1620000   0.99683023    -3.831422    1303.1833  0.067036178  0.067901509            2 
 1621000    1.0018453   -3.8042499     1305.161  0.067096496  0.067887744            4 
 1622000   0.97603408   -3.8150807    1307.6271   0.06718183  0.067873783            3 
 1623000   0.99981901   -3.8095704    1307.4002  0.067128783   0.06785998            3 
 1624000   0.97776195   -3.7964287    1306.2652  0.067029209  0.067846287            5 
 1625000    1.0056561   -3.8076882    1309.1358  0.067135169  0.067832423            4 
 1626000   0.99621687   -3.8503814    1306.7112  0.066969616  0.067818664            5 
 1627000   0.98674844   -3.8406421    1310.1104  0.067102562  0.067805019            4 
 1628000    0.9713923   -3.8069712     1305.787   0.06684004  0.067790982            4 
 1629000    1.0123448   -3.8052556    1309.2468  0.066975999  0.067777072            2 
 1630000   0.98298188   -3.8257001    1309.7654  0.066961419  0.067763198            3 
 1631000    1.0032774   -3.8180591    1311.5087  0.067009438  0.067748982            4 
 1632000   0.98857061   -3.8357704    1313.0992  0.067049594  0.067735222            3 
 1633000   0.98041664   -3.8286032    1315.6283  0.067137596  0.067721633            3 
 1634000   0.99935968   -3.8530125    1315.8578  0.067108211  0.067707619            2 
 1635000    1.0068003   -3.8448702    1318.0752  0.067180186  0.067694094            2 
 1636000   0.97997648   -3.8248794    1314.0649  0.066934848  0.067680616            4 
 1637000    1.0027573   -3.8440269    1314.1443  0.066897999   0.06766658            4 
 1638000    1.0098632   -3.8081483    1314.4793  0.066874202  0.067653031            8 
 1639000   0.96598263   -3.8072949    1316.0875  0.066915169  0.067639676            2 
 1640000   0.98091135   -3.8207357    1316.4905  0.066894843  0.067625762            4 
 1641000   0.98814403   -3.8758918    1313.9108  0.066723077  0.067611929            4 
 1642000     0.970112   -3.8196203     1315.262  0.066751017  0.067598097            4 
 1643000   0.99283942   -3.8311122    1321.2871   0.06701598  0.067584096            3 
 1644000   0.99546478   -3.8055643    1317.3942   0.06677789  0.067570474            3 
 1645000   0.98279015   -3.8189109    1321.0376  0.066921867  0.067557073            2 
 1646000   0.96873791   -3.8705619    1314.6182  0.066556207  0.067543123            3 
 1647000   0.99062465   -3.8381177    1316.6265  0.066617412  0.067529063            3 
 1648000   0.96794035   -3.8232534    1321.3041  0.066813516  0.067515034            2 
 1649000   0.99763771   -3.8320242    1319.2213  0.066667743  0.067501221            3 
 1650000    1.0014919   -3.8208408    1320.8366  0.066708919  0.067487297            2 
 1651000   0.98395645   -3.8516269    1320.1555  0.066634134  0.067473577            2 
 1652000    0.9968352   -3.8276064    1321.6772   0.06667056  0.067459991            3 
 1653000   0.96547507   -3.8350264    1326.0746  0.066851916  0.067446069            2 
 1654000    1.0098259   -3.8366316    1322.7515  0.066644071  0.067432365            6 
 1655000   0.98642611   -3.8230726    1324.4436  0.066689001  0.067418767            4 
 1656000   0.96894681   -3.8465422     1322.202  0.066535929  0.067404745            4 
 1657000   0.98997437   -3.8385666    1322.8343  0.066527573  0.067390685            1 
 1658000   0.99146891   -3.8256302    1323.6333   0.06652761  0.067376867            5 
 1659000   0.99281847   -3.7929313    1329.6154  0.066787997  0.067363228            1 
 1660000   0.97743604   -3.8597254     1325.182  0.066525199   0.06734974            4 
 1661000   0.98368898   -3.8375913    1332.9032  0.066872526  0.067336344            2 
 1662000   0.97139238   -3.8141563    1334.3659  0.066905631    0.0673227            3 
 1663000   0.99871053   -3.8078202     1328.298  0.066561333  0.067309178            3 
 1664000    1.0115904   -3.8418428    1331.3382  0.066673588  0.067295327            3 
 1665000   0.98842134   -3.8511077    1330.1652  0.066574833  0.067281533            5 
 1666000    1.0143952   -3.8489635    1327.3133  0.066392223  0.067267597            4 
 1667000   0.96993281   -3.8103721    1331.7914  0.066576256  0.067253551            3 
 1668000   0.99079856    -3.838713     1327.909  0.066342378  0.067239535            2 
 1669000   0.96531362   -3.8377353    1328.9198  0.066353094  0.067225796            2 
 1670000    1.0030187   -3.8083413    1335.0651  0.066620015  0.067212065            3 
 1671000    1.0055863   -3.8351518    1328.8147  0.066268436  0.067198428            3 
 1672000    0.9853477   -3.8296577    1333.8045  0.066477498  0.067184608            8 
 1673000     0.985291   -3.8531698    1329.1432  0.066205581  0.067170759            1 
 1674000   0.97537588   -3.8426989    1330.7142  0.066244233  0.067156858            2 
 1675000   0.99700345   -3.8441633    1333.1279   0.06632477  0.067142874            2 
 1676000   0.96920108   -3.8060281    1341.4258  0.066697781  0.067129301            2 
 1677000   0.98487808   -3.8414955    1335.2831  0.066352767  0.067115743            2 
 1678000   0.97100617   -3.8507474    1332.6145  0.066180695  0.067101593            5 
 1679000    1.0037355     -3.87841    1329.3097  0.065977252  0.067087635            3 
 1680000    0.9737182   -3.8399565    1337.9521  0.066366671  0.067073836            7 
 1681000   0.97878674   -3.8594944     1338.301  0.066344485  0.067060154            4 
 1682000   0.96732358   -3.8514003    1342.9082  0.066533304  0.067046462            2 
 1683000    0.9762734   -3.8124542    1341.4995   0.06642402  0.067032667            5 
 1684000   0.97149055   -3.8295685    1340.7141  0.066345709  0.067019068            6 
 1685000   0.95869714   -3.8518009    1342.2006  0.066379853  0.067005583            4 
 1686000   0.97129029   -3.8704029    1344.1277   0.06643573  0.066992198            2 
 1687000   0.97840709   -3.8245603    1340.9304  0.066238414   0.06697863            3 
 1688000   0.97270757    -3.841554    1340.9886  0.066202043  0.066965329            2 
 1689000    1.0000795   -3.8592345    1341.4211  0.066184188  0.066951748            2 
 1690000   0.98721772   -3.8730668    1346.3125  0.066386217  0.066938361            4 
 1691000   0.98476041   -3.8606818    1340.4367  0.066057399  0.066924979            3 
 1692000   0.97324886   -3.8266443    1345.1689  0.066251425  0.066911331            4 
 1693000   0.99504671   -3.8389558     1350.755  0.066487251  0.066897794            3 
 1694000   0.96973858   -3.8468549    1344.0936  0.066120309  0.066883992            3 
 1695000   0.96823906   -3.8887472    1341.1314  0.065935662  0.066870187            3 
 1696000   0.98975995   -3.8840619     1341.476  0.065913717   0.06685656            4 
 1697000   0.97902808   -3.8484065    1347.1624  0.066154116  0.066842821            3 
 1698000   0.98138934   -3.8648386    1345.8364  0.066050079  0.066829333            3 
 1699000   0.97209138   -3.8501777    1348.4775  0.066140743  0.066815866            5 
 1700000   0.97096428   -3.8531457    1349.4708  0.066150531  0.066802158            2 
 1701000   0.97469311   -3.8803645    1344.5346   0.06586981  0.066788247            4 
 1702000   0.98691089   -3.8355805    1350.9107  0.066143295  0.066774444            3 
 1703000   0.96152277   -3.8396481    1347.2308  0.065924388  0.066760617            3 
 1704000   0.98514989    -3.868216    1351.8529  0.066111741  0.066747021            4 
 1705000   0.98869796   -3.8808316    1348.1972   0.06589429  0.066732977            4 
 1706000   0.98958328   -3.8045824    1353.2835  0.066104118  0.066719191            1 
 1707000   0.98668585   -3.8511754    1348.9537  0.065854017  0.066705784            3 
 1708000   0.96716077   -3.8533824    1359.0873  0.066309882  0.066692252            3 
 1709000   0.95382756   -3.8434966    1351.5714  0.065904592  0.066679057            4 
 1710000   0.97727286   -3.8512199    1353.6203  0.065965903  0.066665644            3 
 1711000   0.98152567    -3.855436    1353.5433  0.065923595  0.066652386            5 
 1712000   0.97875891     -3.82286     1360.345  0.066216169  0.066638938            7 
 1713000    1.0050658   -3.8467515    1354.4748  0.065891946  0.066625645            2 
 1714000   0.97599102   -3.8806382    1358.9193  0.066069589  0.066612534            2 
 1715000   0.97037288   -3.8430583     1360.687   0.06611696  0.066599538            6 
 1716000   0.97601099   -3.8760736    1355.1537  0.065809717  0.066586197            2 
 1717000   0.96199126   -3.8418714    1367.1126  0.066351805  0.066573087            1 
 1718000   0.97036489   -3.8668989    1361.7811  0.066054573  0.066560204            3 
 1719000   0.97519608   -3.8592296    1364.2691  0.066136763  0.066547223            3 
 1720000   0.98339848   -3.8539255    1365.2283  0.066144781  0.066534223            2 
 1721000   0.96260436   -3.8714656    1358.3752  0.065774512  0.066521082            2 
 1722000   0.98148219   -3.8601962    1360.7365  0.065850586   0.06650757            3 
 1723000   0.96697225   -3.8516238    1361.9026  0.065868765   0.06649413            3 
 1724000   0.97171494   -3.8284561    1365.6108  0.066009801   0.06648082            2 
 1725000   0.98610267    -3.863591    1363.4203  0.065865714  0.066467599            4 
 1726000   0.98130769   -3.8281292    1366.8371  0.065992523  0.066454348            3 
 1727000   0.97115024   -3.8537259    1363.5339  0.065794921  0.066441526            6 
 1728000   0.97095085   -3.8894971    1361.4835  0.065657963  0.066428117            3 
 1729000   0.97368295   -3.8668128    1365.4537  0.065811339  0.066414441            3 
 1730000   0.97947418   -3.8939152    1362.3121  0.065621972  0.066400497            3 
 1731000   0.98536582   -3.8425561    1360.9277  0.065517414  0.066386564            2 
 1732000   0.96920095    -3.872447    1363.8357  0.065619501  0.066372885            3 
 1733000   0.97143859   -3.8533246    1366.4342  0.065706586   0.06635895            2 
 1734000   0.95248948   -3.8229151    1370.4276  0.065860611  0.066345618            3 
 1735000   0.97937616   -3.8448219    1367.0643  0.065661108  0.066332168            6 
 1736000   0.97607669   -3.8649376    1369.4171  0.065736228  0.066318858            3 
 1737000    0.9746842   -3.8718447    1373.5831   0.06589825  0.066305726            3 
 1738000   0.97583451   -3.8664998    1371.3728  0.065754353  0.066291954            2 
 1739000   0.96579918   -3.8949682    1366.5541   0.06548563  0.066278249            2 
 1740000   0.96543213   -3.8615154    1373.7603  0.065793116  0.066264683            5 
 1741000   0.95933744   -3.8677333    1373.8221  0.065758286   0.06625122            3 
 1742000    0.9835507   -3.8610116    1370.7789  0.065574958  0.066237242            3 
 1743000   0.97177595   -3.8428293    1370.0103  0.065500586  0.066223389            1 
 1744000   0.98266256   -3.8692942    1377.1162   0.06580257  0.066209889            5 
 1745000   0.98315838     -3.86001    1371.7131  0.065506835  0.066195852            3 
 1746000   0.98236861    -3.851661    1372.8921  0.065525588  0.066182028            3 
 1747000   0.97881128   -3.8650737    1369.5002  0.065326281  0.066168077            3 
 1748000   0.96607567   -3.8741541    1370.8381  0.065352693  0.066154132            2 
 1749000   0.96626257   -3.8619354    1373.3985  0.065437321  0.066140496            2 
 1750000   0.96279902   -3.8453977    1375.0845  0.065480213   0.06612675            2 
 1751000   0.96106229   -3.8669076    1373.6356   0.06537386  0.066112948            7 
 1752000   0.98424125   -3.8510127    1378.6801  0.065576491  0.066099188            8 
 1753000    0.9869723   -3.8658526    1372.8449  0.065261687  0.066085388            7 
 1754000   0.95632879   -3.8442574    1380.4203  0.065584391  0.066071856            2 
 1755000   0.94852558   -3.8471258    1375.0671  0.065292834  0.066058166            2 
 1756000   0.96421014   -3.8436992    1379.0607  0.065445175  0.066044805            4 
 1757000   0.94209883   -3.8910634    1372.1184  0.065078657  0.066031077            8 
 1758000   0.96691266   -3.8268278    1381.8652  0.065503661  0.066017375            4 
 1759000   0.97566843    -3.864441    1379.3354  0.065346568  0.066003651            6 
 1760000   0.96388742   -3.8816845    1379.1011  0.065298349  0.065990221            2 
 1761000   0.95919402   -3.8553891     1381.996  0.065398261  0.065976691            3 
 1762000   0.96317015   -3.8787602    1373.5706  0.064962667  0.065963002            6 
 1763000   0.96330135   -3.8467207    1383.8901    0.0654136  0.065949392            1 
 1764000   0.97659739    -3.859842    1385.3236  0.065444237  0.065935564            4 
 1765000   0.97314346   -3.8669754    1380.4207   0.06517567  0.065921621            6 
 1766000   0.95930304   -3.8597389    1378.5771  0.065051769  0.065907821            2 
 1767000   0.98874381   -3.8532878    1381.3078  0.065143738  0.065894275            2 
 1768000     0.956834    -3.883494    1383.4516  0.065207937  0.065880707            4 
 1769000   0.97727057   -3.8660354    1388.2898  0.065398992  0.065867098            2 
 1770000    0.9816951    -3.870088    1386.9421  0.065298591  0.065853548            5 
 1771000   0.96389975   -3.8752588    1380.4781  0.064957563  0.065839955            2 
 1772000   0.98062879   -3.8571215    1385.3705  0.065150985  0.065826366            6 
 1773000   0.96157844   -3.8445118    1386.0495  0.065146149  0.065812688            5 
 1774000    1.0011392   -3.8424624    1386.0765  0.065110695   0.06579912            5 
 1775000   0.98374881   -3.8663078    1388.8328  0.065203416  0.065785792            3 
 1776000   0.95293419   -3.8598667    1389.8412  0.065214022  0.065772095            4 
 1777000   0.96395267   -3.8767727      1387.51  0.065067996  0.065758494            1 
 1778000   0.98955227     -3.88133    1385.8469  0.064953456  0.065744786            3 
 1779000   0.95860108   -3.8576418    1389.6554  0.065095342  0.065731483            4 
 1780000   0.97064978    -3.862078    1390.8677  0.065115528   0.06571815            2 
 1781000   0.99381068   -3.8707089    1387.5109    0.0649219  0.065704992            2 
 1782000   0.98117605     -3.84739     1388.971  0.064953749  0.065691668            2 
 1783000   0.98593063   -3.8786374    1394.0858  0.065156377  0.065678317            3 
 1784000   0.96663483   -3.8424037     1392.192  0.065031388  0.065664964            2 
 1785000   0.96420612   -3.8800643    1392.9618  0.065030897   0.06565165            3 
 1786000    0.9528655   -3.8634964    1390.9871  0.064902347  0.065638112            5 
 1787000   0.96538232   -3.8828138    1395.1187  0.065058695   0.06562471            3 
 1788000   0.96019056    -3.864626    1394.6747  0.065001615  0.065611156            2 
 1789000   0.95924488   -3.8739929    1394.5674  0.064960286  0.065597702            3 
 1790000   0.94140283   -3.8710231    1387.9271  0.064614857  0.065583857            3 
 1791000   0.94013227   -3.8713542    1393.9964  0.064861174  0.065570533            2 
 1792000   0.97698586   -3.8957915    1393.7208  0.064812164  0.065557137            5 
 1793000    0.9503875   -3.8769139    1403.0728  0.065210671  0.065543812            4 
 1794000   0.96197288   -3.8529875    1404.8741  0.065257995  0.065530754            3 
 1795000   0.97964684   -3.9063988    1396.4735  0.064831638  0.065517462            4 
 1796000   0.95469818   -3.8784036     1399.659  0.064943344  0.065504187            6 
 1797000   0.94106662   -3.9120691    1398.7104  0.064863218  0.065490481            3 
 1798000   0.97616857   -3.9051694     1398.354  0.064810622  0.065476889            4 
 1799000   0.99292556   -3.8785089     1403.629  0.065018946  0.065463194            2 
 1800000   0.95268254   -3.8686618    1397.5623  0.064701957  0.065449773            4 
 1801000    0.9778067   -3.8760432    1400.7182  0.064812058  0.065436076            3 
 1802000   0.95055056   -3.8461884    1402.4219   0.06485488  0.065422513            4 
 1803000   0.94362596   -3.8639119    1402.1678  0.064807164  0.065409103            4 
 1804000   0.96356615   -3.9187416    1400.7084  0.064703824  0.065395472            5 
 1805000   0.96386211   -3.8910655    1402.4031  0.064746217  0.065381631            4 
 1806000   0.96894159    -3.864016    1402.1573  0.064699028  0.065368034            4 
 1807000    0.9746425   -3.8723665    1401.6474  0.064639709  0.065354602            5 
 1808000   0.98972461    -3.876831    1406.3158  0.064819126  0.065341033            3 
 1809000   0.95032967   -3.8499168    1404.2985  0.064690367  0.065327179            6 
 1810000   0.95451876   -3.8741401    1401.2446  0.064514024   0.06531372            4 
 1811000   0.96727444   -3.8607398    1406.2319  0.064707891  0.065300214            2 
 1812000   0.97164444   -3.8781163    1407.8782  0.064747892  0.065287042            3 
 1813000   0.95359486   -3.8710068    1405.7743  0.064615477   0.06527351            5 
 1814000    0.9681509   -3.8651745    1409.2024  0.064737341  0.065259985            6 
 1815000    0.9704838   -3.8482124    1409.3719  0.064709455  0.065246505            4 
 1816000   0.96518659   -3.8715285     1407.517  0.064588704  0.065232979            7 
 1817000   0.97099729   -3.8913909    1409.9075  0.064662793   0.06521922            5 
 1818000   0.96047512   -3.8943697    1411.6795  0.064708449   0.06520579            4 
 1819000   0.98748448   -3.8671883     1413.961  0.064777397  0.065192553            2 
 1820000   0.96430144   -3.9035651     1409.847  0.064553433  0.065179196            2 
 1821000    0.9624228   -3.8810907    1415.8821  0.064794167  0.065166065            4 
 1822000   0.95715675   -3.8699025    1411.8549  0.064574411   0.06515267            3 
 1823000   0.95645993   -3.8726071     1414.565  0.064662873  0.065139569            2 
 1824000   0.97116888   -3.8651869    1412.1113  0.064515319  0.065125931            3 
 1825000   0.94922808   -3.8974037    1417.8784  0.064743307  0.065112654            4 
 1826000   0.97590498   -3.8563722     1415.527  0.064600539    0.0650993            1 
 1827000   0.94897689   -3.9213476    1414.5107  0.064518825   0.06508605            5 
 1828000   0.95918167   -3.9019355    1413.0033  0.064414811  0.065072729            2 
 1829000   0.96422844   -3.8556466    1420.1384  0.064704686  0.065059626            2 
 1830000    0.9764288   -3.8885584    1420.1958   0.06467194  0.065046429            2 
 1831000   0.94593523   -3.8770551     1416.481  0.064467547  0.065033305            3 
 1832000   0.97328429   -3.8738473    1418.3561  0.064517652  0.065020464            3 
 1833000   0.94150469   -3.8663907    1423.1874  0.064702099  0.065007614            2 
 1834000   0.95059832   -3.8968329    1421.2777   0.06458005  0.064994576            9 
 1835000   0.97267956   -3.9040034     1419.283   0.06445427  0.064981475            5 
 1836000   0.96556486   -3.8908439    1418.6417  0.064390057  0.064968398            3 
 1837000   0.96326573    -3.901878    1421.5961  0.064489027  0.064955425            2 
 1838000    0.9715252   -3.9080282    1417.8297  0.064283173  0.064942278            2 
 1839000   0.97104922   -3.8978655    1421.9522  0.064435029  0.064929046            3 
 1840000   0.94737748    -3.881784    1422.0551   0.06440467  0.064916234            1 
 1841000   0.93835992   -3.8838676    1425.7491  0.064536897  0.064903292            3 
 1842000   0.96272837    -3.895238    1423.9789  0.064421774  0.064890322            3 
 1843000   0.97759391    -3.857677    1423.0798  0.064346164  0.064877141            2 
 1844000   0.96394113   -3.8544638    1420.4171   0.06419094  0.064864033            2 
 1845000   0.94264067   -3.8648189    1422.8464  0.064265871  0.064851108            3 
 1846000    0.9534525   -3.8779959    1432.5162  0.064667581  0.064838063            3 
 1847000   0.94162747   -3.8910218     1430.888  0.064559103  0.064825139            2 
 1848000   0.94588326     -3.89115    1425.6366  0.064287366  0.064811979            5 
 1849000    0.9590839   -3.8667776    1417.3102  0.063877331  0.064798691            5 
 1850000   0.95981856   -3.8922082    1428.5064  0.064347135  0.064785206            4 
 1851000   0.94190372   -3.8692207    1424.6201  0.064137408   0.06477184            2 
 1852000    0.9543063     -3.88332    1430.7973  0.064380728  0.064758584            3 
 1853000   0.97521763   -3.8807445    1429.0535  0.064267561  0.064745278            3 
 1854000   0.96030649   -3.8563188    1434.4687  0.064476299  0.064732453            3 
 1855000   0.94651918    -3.876459    1434.1305  0.064426346  0.064719289            3 
 1856000   0.95944195   -3.8699967    1427.6936  0.064102624  0.064706039            2 
 1857000   0.97486177   -3.8814014    1428.6122  0.064109326  0.064692558            2 
 1858000   0.96276368   -3.8606478    1434.1443  0.064322939  0.064679187            4 
 1859000   0.93279969    -3.863878    1429.2182   0.06406752  0.064666327            3 
 1860000    0.9657274   -3.8790173    1432.2058  0.064166925  0.064653201            2 
 1861000   0.94011789   -3.8960609    1431.3419  0.064093762  0.064639965            4 
 1862000   0.97403299   -3.8826407    1435.7649  0.064257289  0.064626653            2 
 1863000   0.95149796   -3.8704944    1429.7386  0.063953238   0.06461323            2 
 1864000   0.97282537   -3.8939085    1431.6511  0.064004432  0.064599778            3 
 1865000   0.94376297    -3.865174    1442.7105  0.064464277  0.064586676            2 
 1866000   0.96404741   -3.8856554    1431.3137  0.063920761  0.064573256            2 
 1867000   0.95667649   -3.8830113    1432.8749  0.063956211  0.064559727            2 
 1868000   0.96249628    -3.877444    1432.6126  0.063910269  0.064546133            3 
 1869000   0.94326619   -3.8283658    1436.2831   0.06403973  0.064532674            1 
 1870000   0.93844643   -3.9015648    1431.8691  0.063808784   0.06451901            7 
 1871000     0.933454   -3.8886957    1433.1081  0.063829863  0.064505345            1 
 1872000   0.93947574   -3.8717481    1437.3061  0.063982643   0.06449189            2 
 1873000   0.95857004    -3.882927    1438.7402  0.064012288   0.06447831            3 
 1874000   0.95982655   -3.9051275    1437.5654  0.063925891  0.064464684            4 
 1875000   0.94603539   -3.8874598    1439.2766  0.063967847  0.064451059            5 
 1876000   0.94933342   -3.8715206    1436.1945  0.063796844  0.064437471            3 
 1877000   0.94443139   -3.8706433    1442.8167  0.064056858  0.064423916            7 
 1878000   0.94676883   -3.9004993    1431.9213  0.063539285  0.064410324            5 
 1879000   0.93668565    -3.937817    1431.6657  0.063494134  0.064396636            3 
 1880000    0.9457197   -3.8830857    1442.7368  0.063951097  0.064382979            5 
 1881000   0.95711458   -3.9082965    1439.5233  0.063774734  0.064369232            9 
 1882000   0.95350111   -3.9042981    1435.3397  0.063555601  0.064355699            4 
 1883000   0.96124869    -3.898495    1435.9398  0.063548406   0.06434212            3 
 1884000   0.94487506   -3.8765029    1437.3069  0.063575148  0.064328569            4 
 1885000   0.94418953   -3.8725982    1443.2068  0.063802247  0.064314937            3 
 1886000   0.97022363   -3.9051181    1446.1318  0.063897657  0.064301277            3 
 1887000    0.9536724   -3.8748539    1443.0913   0.06372952  0.064287665            3 
 1888000   0.94358012   -3.8842134    1448.5523  0.063936807  0.064274271            2 
 1889000   0.92805091   -3.8945243    1443.5523  0.063682383    0.0642607            3 
 1890000   0.94544947   -3.8938449    1444.6004  0.063694904  0.064246916            3 
 1891000   0.95258698   -3.8936375    1443.9494  0.063632532  0.064233212            4 
 1892000   0.97928867   -3.8988053    1449.7526    0.0638545  0.064219585            3 
 1893000   0.94784962   -3.9030495    1446.3175  0.063669549  0.064205762            3 
 1894000   0.94243952   -3.8889753    1445.9658  0.063620459  0.064192415            4 
 1895000   0.95733915   -3.8758127    1446.8075  0.063623899  0.064178423            2 
 1896000   0.93959272   -3.8819198    1445.5473  0.063534956  0.064164735            2 
 1897000   0.93728077   -3.9051991    1445.7776  0.063511578  0.064151128            2 
 1898000   0.93994374   -3.9176981    1444.3147  0.063413886  0.064137258            3 
 1899000   0.94619562   -3.9019852    1451.6424  0.063702055  0.064123552            5 
 1900000   0.96631576   -3.9271461    1446.8433  0.063458038  0.064110056            2 
 1901000   0.96441272   -3.9210032    1446.4695  0.063408272  0.064096252            4 
 1902000   0.94565461   -3.9104107    1443.9808  0.063265894  0.064082566            3 
 1903000   0.94614353   -3.8898058    1450.8184  0.063532073  0.064069132            7 
 1904000   0.94298487   -3.8927515    1447.9369  0.063372588  0.064055667            5 
 1905000    0.9545094   -3.9293241    1446.7248  0.063286301  0.064042034            3 
 1906000   0.93205443    -3.875375     1455.691  0.063645112  0.064028548            5 
 1907000   0.95351429   -3.8648525    1458.6844  0.063742543  0.064015097            2 
 1908000   0.94523341   -3.9035732    1453.2643  0.063472412  0.064001641            3 
 1909000   0.94254968   -3.9056209    1448.5348  0.063232706  0.063987942            4 
 1910000   0.94854056   -3.8739086    1450.5699   0.06328839  0.063974193            6 
 1911000   0.96072705   -3.9058011    1451.0902  0.063277959  0.063960643            3 
 1912000   0.94531841   -3.9252022    1451.3098  0.063254439  0.063947021            8 
 1913000   0.94623163   -3.8841394    1451.7052  0.063238595  0.063933438            3 
 1914000   0.95248389   -3.9151275      1455.65  0.063377307  0.063919901            2 
 1915000   0.94125024    -3.923732    1453.3121  0.063242478  0.063906458            2 
 1916000   0.94552419   -3.8783033    1453.9654  0.063237884   0.06389288            2 
 1917000   0.95169498   -3.8881375    1458.9388  0.063421092  0.063879338            4 
 1918000   0.94331424    -3.941533    1454.7201  0.063204731  0.063866035            4 
 1919000   0.94244465   -3.9109116    1452.1437  0.063059913  0.063852596            4 
 1920000   0.97310796    -3.906295    1459.5077  0.063346687  0.063839208            4 
 1921000   0.93698828   -3.9233887    1458.3369  0.063262921  0.063825663            2 
 1922000   0.95261726    -3.895238     1456.348  0.063143775   0.06381205            3 
 1923000   0.91380324    -3.895946    1459.7983  0.063260457  0.063798422            4 
 1924000   0.94264268   -3.8912216     1461.309   0.06329301  0.063784984            4 
 1925000   0.92811264   -3.9028814    1465.6139  0.063446487  0.063771482            2 
 1926000   0.93681129   -3.8634051    1464.6649  0.063372486  0.063758291            3 
 1927000   0.96543661   -3.9191301    1466.3532  0.063412611    0.0637452            2 
 1928000   0.93987232   -3.9298537    1462.2675  0.063203127  0.063731819            2 
 1929000   0.94151811   -3.9038606     1459.935  0.063069594  0.063718346            2 
 1930000   0.93136051   -3.9058756     1464.474  0.063232904  0.063705016            3 
 1931000   0.92874084    -3.902634     1466.944  0.063306749  0.063691838            2 
 1932000   0.94926204   -3.9005137    1465.1345  0.063195932  0.063678636            5 
 1933000   0.92578534    -3.870554    1463.6324  0.063098483  0.063665444            6 
 1934000   0.94040801   -3.8885564    1474.7098  0.063543165  0.063652227            2 
 1935000   0.94105965   -3.9067437    1466.2093  0.063144243  0.063639406            3 
 1936000   0.93945452   -3.9088255    1464.8506  0.063053141  0.063626379            7 
 1937000   0.95205777   -3.8864058    1473.7276  0.063402494  0.063613566            5 
 1938000   0.93974498   -3.8838385    1471.0843  0.063256118  0.063600736            5 
 1939000   0.94973532   -3.9136521    1471.4904  0.063240948  0.063587743            4 
 1940000   0.95532489   -3.9198162    1474.1402  0.063322172  0.063574959            5 
 1941000   0.92884522   -3.8860104    1467.4765  0.063003455  0.063562111            3 
 1942000    0.9256773   -3.9448968    1471.1436  0.063128373   0.06354929            6 
 1943000   0.95215765   -3.8917842    1473.1132  0.063180359  0.063536398            3 
 1944000   0.95307241   -3.9397486    1471.0926  0.063061241  0.063523524            3 
 1945000    0.9231328   -3.9190385    1473.8518  0.063147035   0.06351029            4 
 1946000   0.92721607   -3.9129274    1469.5386  0.062929882  0.063497438            2 
 1947000    0.9525142   -3.8925245    1475.1696   0.06313857  0.063484498            3 
 1948000   0.96933715   -3.9280886     1473.292   0.06302584  0.063471479            3 
 1949000   0.91426596   -3.8790457     1476.997  0.063151917  0.063458459            2 
 1950000   0.94521018    -3.913939    1473.2237  0.062958276  0.063445439            2 
 1951000   0.93700252    -3.899048    1472.8001  0.062907915  0.063432228            1 
 1952000   0.94432977   -3.9010916    1473.4268  0.062902444  0.063418982            3 
 1953000   0.94159782   -3.9091693    1476.4303   0.06299839  0.063405652            2 
 1954000   0.94175066   -3.9202774    1474.8196  0.062897459  0.063392243            2 
 1955000   0.92504918   -3.9042942    1480.6081  0.063112023  0.063378856            3 
 1956000    0.9453384   -3.8993472    1478.4955  0.062989755  0.063365616            3 
 1957000   0.92132679   -3.8952674     1477.141  0.062899888  0.063352498           11 
 1958000   0.94640771   -3.9177838    1479.4163  0.062964601  0.063339511            2 
 1959000   0.93460646   -3.8984174    1482.3244  0.063056167  0.063326165            2 
 1960000   0.92276012   -3.8965856     1480.274  0.062936821  0.063312896            2 
 1961000   0.93807465   -3.9242073    1481.2023  0.062944172  0.063299596            4 
 1962000   0.95043739   -3.8943156     1479.022  0.062819487  0.063286387            5 
 1963000   0.92252433   -3.8639987    1481.7809  0.062904607  0.063273042            4 
 1964000   0.92490662    -3.915666    1478.8348  0.062747572  0.063259852            2 
 1965000   0.92965644   -3.9085188    1482.7077  0.062879885  0.063246452            2 
 1966000   0.90950749    -3.915235    1481.8176  0.062810173  0.063232847            4 
 1967000   0.94152645   -3.9374321    1475.1185  0.062494431   0.06321912            3 
 1968000   0.93208612   -3.9177273    1481.7538  0.062743641  0.063205393            2 
 1969000   0.92051234   -3.9132133    1482.3132   0.06273545  0.063191934            4 
 1970000    0.9404326   -3.9264145     1480.945  0.062645726   0.06317834            2 
 1971000   0.92547332   -3.9495978    1474.5427  0.062343258  0.063164527            5 
 1972000   0.91912698   -3.9197213    1480.0047  0.062542458  0.063150482            4 
 1973000   0.94543939   -3.9313309    1477.8843    0.0624212  0.063136642            2 
 1974000   0.93404013   -3.9373108    1482.8356  0.062598596  0.063122704            5 
 1975000   0.94649223   -3.8903026    1480.6622    0.0624752  0.063108811            3 
 1976000   0.93675954   -3.9205451    1479.8908  0.062411048  0.063094815            2 
 1977000    0.9418915   -3.9388437    1477.6301   0.06228419  0.063080961            5 
 1978000    0.9425448   -3.9071174    1482.1524  0.062443224  0.063067242            4 
 1979000   0.93271331   -3.9096223    1484.9349  0.062528841  0.063053583            1 
 1980000   0.93907952   -3.9019617    1484.1078  0.062462448  0.063040185            2 
 1981000   0.95004432   -3.9040324    1484.9696   0.06246717  0.063026706            2 
 1982000   0.93013395    -3.927514    1487.1227  0.062526181  0.063013119            4 
 1983000   0.93901367   -3.9397526    1485.4355  0.062423749  0.062999797            3 
 1984000   0.93148602   -3.9366621    1488.2152  0.062509037   0.06298653            5 
 1985000   0.93669326   -3.9410173     1485.988  0.062384045  0.062973208            2 
 1986000   0.94154984   -3.9138944    1487.6127  0.062420808  0.062959664            6 
 1987000   0.92940771   -3.9378837    1486.1137  0.062326528  0.062946173            1 
 1988000   0.93612503    -3.923449     1492.272  0.062553322  0.062932588            3 
 1989000   0.94589039   -3.9436883    1488.5781  0.062367106  0.062918832            1 
 1990000   0.96058309   -3.9137434    1492.7063  0.062508638  0.062905315            3 
 1991000   0.90834462   -3.9136805    1491.6051  0.062431153  0.062891808            5 
 1992000   0.93117366   -3.9196556    1486.1584  0.062171953  0.062878019            1 
 1993000   0.93560159   -3.9248887    1489.4354   0.06227778   0.06286451            2 
 1994000    0.9092893   -3.9227549    1488.7863  0.062219423  0.062851067            4 
 1995000   0.94694077   -3.9369797    1494.0339  0.062407432  0.062837665            3 
 1996000   0.93792518   -3.9416614     1491.962  0.062289661  0.062824169            3 
 1997000   0.93343654   -3.9223506    1497.0176  0.062469437  0.062811015            5 
 1998000   0.93029958   -3.9342405    1495.2489  0.062364401  0.062797591            3 
 1999000   0.93312691   -3.9074584     1501.948  0.062612471  0.062784583            7 
 2000000   0.90606178   -3.9033011     1495.528  0.062313665  0.062771755            2 
 2001000   0.92562773   -3.9261696    1497.5731  0.062367697  0.062758352            4 
 2002000    0.9144592   -3.9287349    1494.2628  0.062198751  0.062745257            7 
 2003000   0.92700273   -3.9071715    1495.9396  0.062237461  0.062732063            4 
 2004000   0.93318831    -3.889916    1503.7547  0.062531382   0.06271919            3 
 2005000    0.9339622    -3.921378    1497.4457  0.062237974  0.062705968            3 
 2006000   0.95313191   -3.9206268    1500.6072  0.062338287  0.062692949            5 
 2007000   0.91653807    -3.910601    1499.7306  0.062270828  0.062679519            3 
 2008000   0.94569786   -3.9246676     1496.783  0.062117488  0.062666148            3 
 2009000   0.92588747   -3.9329888    1497.7792  0.062127893  0.062652557            5 
 2010000   0.92967941   -3.9452652    1503.6125  0.062338827  0.062639047            4 
 2011000   0.93161822   -3.9329348     1497.457  0.062052753  0.062625625            9 
 2012000   0.93854464    -3.934554    1498.6225  0.062070181  0.062612226            7 
 2013000   0.92226701   -3.9534033    1501.1215  0.062142799  0.062598798            2 
 2014000   0.91951476   -3.9295288    1500.1441  0.062071503  0.062585247            4 
 2015000   0.92430018    -3.935944    1501.4553  0.062094924  0.062572127            4 
 2016000   0.93293005   -3.9203449    1503.5746  0.062151729  0.062558749            5 
 2017000    0.9273524   -3.9349425    1503.3331  0.062110938  0.062545453            2 
 2018000   0.93350262   -3.9493424    1506.7902  0.062222919  0.062532102            3 
 2019000   0.93357991   -3.9630711    1501.5054  0.061973974  0.062518534            4 
 2020000   0.90043319   -3.9232358    1506.7892  0.062161269  0.062505341            3 
 2021000   0.92101405   -3.9148939    1504.6844  0.062043726  0.062492253            3 
 2022000   0.92028582   -3.9157754    1504.7238  0.062014663  0.062479296            1 
 2023000   0.93346468   -3.9144626    1502.3717  0.061887119  0.062465983            3 
 2024000   0.94968001   -3.9380616    1505.1919  0.061972657  0.062452905            2 
 2025000   0.94033788   -3.8981486     1509.508   0.06211967    0.0624397            3 
 2026000    0.9177397   -3.9315404    1508.2981  0.062039242  0.062426812            5 
 2027000   0.93298373   -3.8894343      1512.98  0.062201118  0.062413806            2 
 2028000   0.93297001   -3.9097514    1511.5664  0.062112361  0.062400805            2 
 2029000   0.90666207   -3.9339205    1505.5892  0.061836259   0.06238755            6 
 2030000   0.91890099   -3.9121044    1511.8603  0.062063231  0.062374503            2 
 2031000   0.92126381   -3.9385951    1505.6743  0.061778855  0.062361226            1 
 2032000   0.92050627   -3.9263256    1510.6443  0.061952277  0.062348208            2 
 2033000   0.93158063   -3.9443459    1512.8961  0.062014106  0.062335148            3 
 2034000   0.91648994   -3.9060266     1514.529  0.062050517  0.062322216            3 
 2035000   0.93778897   -3.9314062    1506.8316  0.061704817  0.062309283            2 
 2036000   0.91654275   -3.9555962    1508.4435  0.061740483   0.06229602            4 
 2037000   0.91750843   -3.9088246    1510.2493  0.061784051   0.06228276            7 
 2038000     0.926315   -3.9315603    1509.0717  0.061705581   0.06226981            1 
 2039000   0.93199271   -3.9561265    1508.8932  0.061668023  0.062256796            4 
 2040000    0.9299824   -3.9328262     1515.563  0.061910255  0.062243447            2 
 2041000   0.88124852    -3.947864    1518.1932  0.061987309  0.062230392            2 
 2042000   0.95186532   -3.9350299    1519.2597  0.062000479  0.062217369            3 
 2043000   0.92170615   -3.9259854    1518.3499  0.061933019  0.062204129            4 
 2044000   0.92238037   -3.9594856    1515.7668  0.061797407  0.062190968            5 
 2045000   0.93732646   -3.9457565    1520.3956  0.061955813  0.062178051            3 
 2046000   0.93143043   -3.9029399    1523.0627  0.062034159  0.062165264            5 
 2047000   0.94421852   -3.8851734     1526.928  0.062161212  0.062152614            4 
 2048000    0.9170827   -3.9105282    1521.8824  0.061925554  0.062140025            3 
 2049000   0.92352685   -3.9228697    1520.3995  0.061835021  0.062127254            2 
 2050000   0.91578853   -3.9672705    1518.5008  0.061727675  0.062114452            2 
 2051000   0.93889607   -3.9434371    1517.1359  0.061642121  0.062101478            4 
 2052000   0.94624613   -3.9307501    1528.1663  0.062060037  0.062088827            3 
 2053000   0.90503001    -3.967194    1524.0193  0.061861475  0.062075816            6 
 2054000   0.91983823   -3.9361335    1524.0864  0.061834082  0.062062879            2 
 2055000    0.9426395   -3.9591971    1517.3321  0.061530093  0.062049866            3 
 2056000   0.92405433    -3.944934    1521.1419  0.061654586  0.062036737            3 
 2057000   0.94054108   -3.9493166    1520.6343  0.061604047  0.062023748            2 
 2058000   0.91457563   -3.9346135     1525.089  0.061754493  0.062010899            3 
 2059000   0.92140527   -3.9332939    1525.7953   0.06175309  0.061997898            5 
 2060000   0.91885708   -3.9390276     1528.808  0.061844984   0.06198477            2 
 2061000   0.94363083   -3.9557026    1517.1609  0.061344046  0.061971724            5 
 2062000   0.92150787   -3.9275585    1521.7057  0.061497967  0.061958551            2 
 2063000   0.90470347   -3.9417534    1526.3527  0.061655871  0.061945193            2 
 2064000   0.91674912   -3.9180134    1524.7838  0.061562655  0.061932226            4 
 2065000   0.92720083   -3.9534466     1527.289   0.06163394  0.061919123            4 
 2066000   0.92579202   -3.9299998    1523.2703  0.061442008  0.061906184            3 
 2067000   0.92354543   -3.9196172     1529.026  0.061644332  0.061893553            5 
 2068000   0.91424058   -3.9291759    1523.5912   0.06139552  0.061880561            3 
 2069000    0.9247051   -3.9379788     1530.489   0.06164367  0.061867675            4 
 2070000   0.89337518   -3.9326199    1534.1575  0.061761575   0.06185474            9 
 2071000   0.93568821   -3.8996718    1531.9064   0.06164117  0.061842074            3 
 2072000   0.90752396   -3.9512788    1535.1783  0.061743014  0.061829301            8 
 2073000   0.91305091   -3.9379694    1530.4525  0.061523254  0.061816291            6 
 2074000   0.90815613   -3.9343286    1534.7596  0.061666651  0.061803597            3 
 2075000   0.91473786    -3.949098    1530.7644  0.061476484  0.061790621            5 
 2076000   0.93012017   -3.9251666    1535.7004  0.061645006  0.061777716            3 
 2077000   0.90960313   -3.9637742    1529.4562  0.061364797  0.061764948            6 
 2078000    0.9326231   -3.9237826    1535.3912  0.061573274  0.061752222            2 
 2079000   0.92681801   -3.9352578    1529.1895  0.061295073  0.061739594            2 
 2080000   0.90122273   -3.9707806    1533.6471  0.061444196  0.061726832            2 
 2081000    0.9337146   -3.9460122    1536.8903   0.06154454  0.061713872            2 
 2082000    0.9312338   -3.9369227    1533.9558  0.061397527  0.061700853            7 
 2083000   0.92380751   -3.9596098    1530.6715  0.061236659  0.061687975            5 
 2084000   0.91718775    -3.955921     1530.534  0.061201774  0.061674887            3 
 2085000   0.94364989   -3.9875726    1536.4321  0.061408157  0.061661891            4 
 2086000   0.91520275   -3.9554543    1529.4676  0.061100494   0.06164888            5 
 2087000   0.91946145   -3.9446234    1537.5217  0.061392816  0.061635727            3 
 2088000   0.91442014   -3.9407181    1537.0872  0.061346075  0.061622826            3 
 2089000   0.92312879   -3.9544715     1534.785  0.061224868  0.061609944            4 
 2090000   0.91623953   -3.9715747    1531.2922  0.061056306  0.061596832            3 
 2091000   0.92910519   -3.9380549    1534.9222  0.061171775  0.061583892            5 
 2092000    0.9362074   -3.9249294    1537.9739  0.061264099  0.061571006            4 
 2093000    0.9320671   -3.9432931     1533.457  0.061054986  0.061557917            2 
 2094000   0.90795284   -3.9345934    1537.6747  0.061193678  0.061544806            4 
 2095000    0.9134915   -3.9806182    1536.2967  0.061109654   0.06153177            5 
 2096000   0.92032341   -3.9522674    1540.8902   0.06126313  0.061518456            2 
 2097000   0.91480771   -3.9483199    1539.3348  0.061172102    0.0615054            5 
 2098000   0.92336103   -3.9477014    1544.3395  0.061341735    0.0614924            2 
 2099000   0.91342966   -3.9415506    1543.6254  0.061284159  0.061479301            3 
 2100000   0.89477223   -3.9531983       1543.4  0.061246033  0.061466247            9 
 2101000   0.91944806   -3.9453958    1541.1652  0.061128242  0.061453314            3 
 2102000   0.92382835   -3.9380811    1536.8157  0.060926724  0.061440159            2 
 2103000   0.90827973   -3.9584757    1542.9518  0.061140904  0.061427144            2 
 2104000   0.89909166   -3.9424642    1538.7453  0.060945234  0.061414016            3 
 2105000   0.91058688   -3.9656133    1542.4445  0.061062729   0.06140086            3 
 2106000   0.90621202   -3.9123653    1543.2753  0.061066609  0.061387754            2 
 2107000   0.89564149   -3.9459197    1541.8809  0.060982475  0.061374695            6 
 2108000    0.8941293    -3.967616    1539.9938  0.060878943  0.061361583            2 
 2109000    0.9071444   -3.9559703    1541.9869  0.060928833  0.061348324            3 
 2110000    0.9264814   -3.9598267    1539.8303  0.060814784  0.061335014            4 
 2111000    0.9041941   -3.9504757    1541.5964  0.060855693  0.061321815            4 
 2112000    0.9276592   -3.9794909     1539.282  0.060735561  0.061308497            6 
 2113000   0.91405013   -3.9800319    1544.1586  0.060899139  0.061295294            4 
 2114000   0.90231631   -3.9855308    1537.1994  0.060596003  0.061281942            3 
 2115000   0.92397805   -3.9514394    1544.9733  0.060873653  0.061268572            4 
 2116000   0.91748579   -3.9680684    1545.5185  0.060866355  0.061255132            3 
 2117000   0.90580559   -3.9561716     1543.839  0.060771493  0.061242058            6 
 2118000   0.90938056   -3.9434343    1545.8499  0.060821921  0.061228825            3 
 2119000   0.90954477   -3.9810148    1541.9309  0.060639094  0.061215421            2 
 2120000   0.89983476   -3.9537924    1543.3067  0.060664572  0.061201941            4 
 2121000   0.91148882    -3.918917    1548.3342    0.0608335  0.061188548            5 
 2122000   0.92842425   -3.9551088    1553.1226  0.060992875  0.061175417            3 
 2123000   0.92730058   -3.9758571    1546.3327  0.060697626  0.061162265            3 
 2124000   0.91239494   -3.9778051     1548.092  0.060738071  0.061149306            2 
 2125000     0.895471   -3.9685052    1548.7593   0.06073566  0.061135829            2 
 2126000    0.9209604   -3.9673157    1546.0725  0.060601776  0.061122494            7 
 2127000   0.89423094   -3.9605453    1548.8714  0.060682942  0.061109204            3 
 2128000   0.90484658   -3.9430407    1546.4448  0.060559399  0.061095769            4 
 2129000   0.93214761   -3.9582287    1548.7969  0.060623019  0.061082378            5 
 2130000   0.92561843   -3.9602132    1549.1286  0.060607533  0.061068954            1 
 2131000   0.90811627   -3.9666913    1550.5456  0.060634505  0.061055609            3 
 2132000   0.93360352   -3.9630657    1552.6151  0.060686958  0.061042224            3 
 2133000   0.94006814   -3.9555477    1551.0115  0.060595853  0.061028912            5 
 2134000   0.90998846   -3.9882613    1550.2705  0.060538522  0.061015862            4 
 2135000   0.90786314   -3.9634402    1547.7785  0.060412901  0.061002705            3 
 2136000   0.92832421   -3.9768302     1560.377  0.060876132  0.060989462            4 
 2137000   0.90173883   -3.9561517    1552.3135  0.060533203  0.060976131            3 
 2138000   0.90637732    -3.958169    1555.8587  0.060643072  0.060962813            8 
 2139000   0.90942662   -3.9614099    1551.0564   0.06042763  0.060949591            3 
 2140000   0.89819763   -3.9552614    1553.4549  0.060492794  0.060936243            4 
 2141000   0.92399196   -3.9780233    1555.2033  0.060532588  0.060922793            5 
 2142000   0.92728906   -3.9569042    1548.5166  0.060244186  0.060909333            5 
 2143000   0.90007129   -3.9589925     1551.188  0.060319957  0.060895999            3 
 2144000   0.92081265   -3.9602308    1553.2663  0.060372601    0.0608826            5 
 2145000   0.90016431   -3.9586929    1553.2955  0.060345589  0.060869066            2 
 2146000   0.93249802   -3.9865097    1556.6891  0.060449252  0.060855517            2 
 2147000   0.90232609   -3.9590595    1553.7634  0.060307537   0.06084203            4 
 2148000   0.92690364   -3.9328594    1558.5659   0.06046578  0.060828704            8 
 2149000   0.90461394   -3.9662313    1555.1326  0.060304505  0.060815145            7 
 2150000   0.88973734   -3.9703505    1548.2278   0.06000883  0.060801452            4 
 2151000    0.8940956   -3.9616594    1552.4177  0.060143255  0.060788144            6 
 2152000   0.91101853   -3.9651188    1551.8203  0.060092175   0.06077455            3 
 2153000   0.89619345   -3.9638699    1561.3657  0.060433724   0.06076094            2 
 2154000   0.90415991   -3.9475544    1558.8971  0.060310163  0.060747494            3 
 2155000    0.9138972   -3.9637962    1556.2329  0.060179154  0.060733875            4 
 2156000   0.91852866   -3.9990156    1556.9235  0.060177932  0.060720159           13 
 2157000   0.93960068   -3.9789596    1553.7894  0.060028954  0.060706684            4 
 2158000   0.88984506   -3.9524316    1556.0671  0.060089093  0.060693167            2 
 2159000   0.90552232   -3.9372825    1564.7649  0.060396977  0.060679608            2 
 2160000   0.89402262   -3.9612859    1554.6979  0.059980629  0.060666085            6 
 2161000   0.90335237   -3.9683836    1557.8374  0.060073941  0.060652699            5 
 2162000   0.91121355   -3.9677327    1559.6227  0.060114969  0.060639363            4 
 2163000   0.90593197   -3.9834505    1563.6516  0.060242396  0.060625938            3 
 2164000    0.9113517   -3.9639602    1563.9237  0.060225035  0.060612559            2 
 2165000   0.90556171    -3.971603    1560.3927  0.060061303  0.060599253            3 
 2166000   0.87714834   -3.9743783    1565.0574  0.060213043  0.060585937            3 
 2167000   0.92392909   -3.9823105    1566.6521  0.060246581  0.060572629            4 
 2168000   0.90629157   -3.9443739    1564.3511  0.060130346   0.06055924            5 
 2169000   0.91676713    -3.967092    1567.8978  0.060238889  0.060546088            5 
 2170000   0.89730186   -3.9597332    1567.6444  0.060201396  0.060532898            5 
 2171000   0.91534648   -3.9610686    1566.8405  0.060142812  0.060519661            4 
 2172000   0.89597608   -3.9326395    1571.4575   0.06029226  0.060506629            4 
 2173000   0.90227193    -3.972649    1568.8179  0.060163289  0.060493436            3 
 2174000   0.90710862   -3.9746937    1564.4987   0.05997005  0.060480307            4 
 2175000   0.90469078   -3.9454958    1572.5432  0.060250697  0.060467105            3 
 2176000   0.87726248   -3.9846668    1565.5879  0.059956646   0.06045403            2 
 2177000   0.89936792   -3.9925917    1568.5057  0.060040794  0.060440883            4 
 2178000   0.89148781   -3.9621799    1572.7636  0.060176142  0.060428036            3 
 2179000   0.90200763   -3.9824926    1575.7255  0.060261799  0.060415076            3 
 2180000   0.90188397   -3.9419606    1576.7072  0.060271681  0.060401934            4 
 2181000   0.89584652   -3.9478675    1575.0368  0.060180223   0.06038892            4 
 2182000   0.90651073   -3.9660975    1569.0892  0.059925498  0.060375929            3 
 2183000   0.87393371   -3.9906285    1571.4501  0.059988169  0.060362823            4 
 2184000   0.89294228   -4.0003408    1572.6616  0.060006931   0.06034984            4 
 2185000   0.90149034   -3.9475759    1570.0778  0.059880923  0.060336622            8 
 2186000   0.91277007   -3.9939543    1569.1948  0.059819868  0.060323539            3 
 2187000   0.90495924   -3.9692179    1577.6892  0.060116188  0.060310537            3 
 2188000   0.89846369   -3.9767462    1571.4589  0.059851419  0.060297377            2 
 2189000    0.8943196   -3.9462543    1581.0208  0.060188092  0.060284367            4 
 2190000   0.89525868   -3.9446551    1579.8554  0.060116263   0.06027135            2 
 2191000   0.90330402   -3.9772239    1576.3256   0.05995457   0.06025832            3 
 2192000   0.89270314   -3.9764131    1579.8693  0.060061941  0.060245426            5 
 2193000   0.91678924   -3.9649021    1575.9702  0.059886389  0.060232623            3 
 2194000   0.91479776   -3.9693432    1569.7044  0.059621103  0.060219709            9 
 2195000   0.88906684   -3.9798189     1577.776  0.059900381  0.060206754            5 
 2196000    0.9025261   -4.0095753    1571.1749  0.059622606  0.060193827            1 
 2197000   0.88787416   -4.0063752    1576.3685  0.059792463  0.060180873            3 
 2198000   0.91079995   -3.9280153    1582.5073  0.059998003  0.060167871            3 
 2199000   0.90796643   -3.9819933     1576.582  0.059746171  0.060154786            2 
 2200000   0.89794262   -3.9769509    1580.0404  0.059850014  0.060141738            2 
 2201000   0.90109356   -4.0042867    1577.2684  0.059717869  0.060128648           13 
 2202000   0.90161069   -4.0029545    1580.3768  0.059808385  0.060115349            5 
 2203000   0.89323298   -3.9760352    1575.0313  0.059579032  0.060102269            4 
 2204000   0.89782878   -3.9993019    1580.5174  0.059759431  0.060089044            2 
 2205000   0.89148865   -4.0203012    1572.7169  0.059437524  0.060075613            3 
 2206000   0.88145288   -3.9832352    1579.4859  0.059666286  0.060062368            3 
 2207000   0.92351726    -3.945748    1581.3587  0.059709966  0.060049304            6 
 2208000   0.89165966   -3.9923041    1579.0721  0.059596622  0.060036151            5 
 2209000   0.90556518   -4.0009344    1584.3229  0.059767727   0.06002284            4 
 2210000   0.90694663   -3.9657104    1582.8063  0.059683497  0.060009599            5 
 2211000   0.88851442   -3.9510283    1579.7093  0.059539776  0.059996374            2 
 2212000   0.89802465   -4.0019955    1582.9329  0.059634303  0.059983305            3 
 2213000   0.91251221   -3.9754752    1581.6217   0.05955798  0.059970159            4 
 2214000   0.87572453   -4.0066188    1581.9481  0.059543364  0.059956763            3 
 2215000   0.90918787   -3.9743525    1581.9155  0.059515254  0.059943737            3 
 2216000   0.90454163   -3.9903587    1587.1162  0.059683971  0.059930659            3 
 2217000   0.90656284   -3.9666608    1585.8636  0.059609969  0.059917651            3 
 2218000   0.88994483   -3.9964483    1587.4924  0.059644288  0.059904667            3 
 2219000   0.92848748   -3.9812326    1587.3632   0.05961256  0.059891611            4 
 2220000   0.89680764   -3.9917569    1587.5758  0.059593687   0.05987857            8 
 2221000   0.89392892   -3.9689246    1587.1785  0.059551947  0.059865477            4 
 2222000   0.90163503   -4.0019187    1586.6755   0.05950628  0.059852454            5 
 2223000    0.9015485   -3.9929554     1589.063  0.059569013  0.059839478            3 
 2224000   0.88652424   -3.9783623    1589.0205  0.059540636   0.05982662            2 
 2225000   0.88746988   -3.9851339    1587.6493  0.059462519    0.0598138            3 
 2226000   0.91493938   -3.9817646    1587.2457  0.059420698  0.059800731            2 
 2227000   0.89058205   -4.0113468    1587.0578  0.059386985  0.059787652            3 
 2228000   0.90928956   -3.9523866    1589.5592   0.05945389  0.059774685            3 
 2229000   0.89473458   -3.9904131    1586.9071  0.059328065  0.059761658            4 
 2230000   0.90767971   -3.9959007    1585.5351   0.05925019   0.05974859            3 
 2231000   0.90183018   -3.9891629    1589.9266  0.059387668  0.059735426            5 
 2232000   0.91345467   -3.9705238    1595.8079   0.05958064  0.059722473            4 
 2233000   0.88606181   -3.9669451    1590.7301   0.05936446  0.059709547            4 
 2234000   0.88886116   -3.9960772    1589.7578   0.05930162  0.059696485            4 
 2235000   0.87919086    -3.983403    1592.2245  0.059367058  0.059683249            2 
 2236000   0.91369879   -3.9965449    1592.8905  0.059365328  0.059670114            2 
 2237000   0.89018309   -4.0055605    1588.4932  0.059174982  0.059657113            5 
 2238000   0.89637336   -4.0135711    1590.9472  0.059239918  0.059644076            2 
 2239000   0.88931038   -4.0122237    1588.1083  0.059107797  0.059631034            3 
 2240000   0.90506503   -4.0207221    1583.9098  0.058925215  0.059617784            5 
 2241000   0.89387733   -3.9902934     1594.164   0.05928023  0.059604577            3 
 2242000   0.90461832   -4.0050466    1594.1992  0.059255098  0.059591541            2 
 2243000   0.89915019   -3.9899188    1600.0573  0.059446326  0.059578676            4 
 2244000   0.89246406   -3.9825513    1594.9061  0.059228538  0.059565784            2 
 2245000   0.87668247   -4.0025839    1596.3755  0.059256702   0.05955265            4 
 2246000   0.90232508   -3.9714487    1597.5043  0.059272198  0.059539442            3 
 2247000   0.90039954   -3.9799302    1599.1884  0.059308278  0.059526269            2 
 2248000   0.88441841   -4.0075217    1596.8995  0.059197046  0.059513118            4 
 2249000   0.89491347   -3.9862918    1595.9201  0.059134435  0.059499785            6 
 2250000   0.89848083   -3.9664247    1591.8426  0.058957134  0.059486485            4 
 2251000   0.89571059   -3.9743829    1598.4895  0.059177015  0.059473176            3 
 2252000   0.91504389   -3.9955281    1596.0446  0.059060266  0.059459935            4 
 2253000   0.88277409   -4.0126178    1596.3996   0.05904718  0.059446551            4 
 2254000   0.87469063    -3.964158    1601.0923  0.059194479  0.059433172            4 
 2255000   0.88787823   -4.0032721    1596.5427  0.059000099  0.059419915            5 
 2256000   0.91220514   -3.9881292    1597.3681  0.059004435    0.0594064            3 
 2257000   0.87927307   -3.9840019    1601.4584  0.059129317  0.059393044           10 
 2258000   0.88465726   -3.9912949    1599.1118  0.059016525  0.059379797            3 
 2259000   0.89044585   -3.9992961     1592.927  0.058762249  0.059366402            3 
 2260000   0.88641574   -4.0012383    1596.1166  0.058853858   0.05935307            4 
 2261000   0.90444608   -4.0008147    1596.7185   0.05885001  0.059339641            6 
 2262000   0.87907223    -4.000846    1597.6256  0.058857411  0.059326251            3 
 2263000   0.89502727   -4.0315599    1595.0711  0.058737335  0.059312645            4 
 2264000    0.8953171   -3.9853261    1600.0327  0.058894019   0.05929902            3 
 2265000    0.8876883   -4.0272665    1593.7952  0.058638529  0.059285422            3 
 2266000   0.90600009   -3.9738393    1603.8359  0.058981902  0.059271985            3 
 2267000   0.87866394   -3.9999019    1600.5291  0.058834328  0.059258559            3 
 2268000   0.88899733   -3.9811651    1601.5295  0.058845147  0.059245105            3 
 2269000   0.89644436   -3.9909407    1599.9611   0.05876161  0.059231772            4 
 2270000   0.89442415   -3.9885976    1601.0352  0.058775153  0.059218174            6 
 2271000   0.88762302   -3.9745111    1602.3529  0.058797627  0.059204831            3 
 2272000   0.87237524   -3.9980951    1595.5274  0.058521399  0.059191478            3 
 2273000   0.90190356   -3.9928951    1598.7834  0.058615024   0.05917785            2 
 2274000   0.88811005   -3.9996051    1603.9671   0.05877921  0.059164369            3 
 2275000   0.89685919   -3.9940448    1603.3814  0.058731918  0.059150957            5 
 2276000   0.88398405    -3.993465    1603.2332  0.058700689  0.059137415            3 
 2277000   0.90088132   -3.9867013    1604.1695  0.058709175  0.059123907            2 
 2278000   0.89769615   -3.9787222    1602.3944  0.058618467  0.059110442            4 
 2279000   0.89290187    -3.983362    1604.8552  0.058682726  0.059097125            2 
 2280000   0.88767285   -4.0201216    1600.6303  0.058502568  0.059083539            4 
 2281000   0.89167901   -3.9941583    1605.0931  0.058639964  0.059070082            3 
 2282000   0.88245816   -3.9827578     1605.338   0.05862321  0.059056675            4 
 2283000   0.89730613   -4.0019554    1604.1792  0.058555234   0.05904319            5 
 2284000   0.89617305   -4.0098413    1604.1334  0.058527928  0.059029675            2 
 2285000   0.88320924    -4.019395    1605.5392  0.058553581  0.059016053            3 
 2286000   0.89303906    -3.955312    1608.6189  0.058640235  0.059002621            3 
 2287000   0.88807767   -3.9929413    1609.2032  0.058635883  0.058989199            2 
 2288000   0.88545358   -3.9961783    1607.6666  0.058554292  0.058975816            4 
 2289000   0.87766812   -3.9853643    1606.1823  0.058474674  0.058962518            3 
 2290000   0.89580307   -3.9989227    1606.6526  0.058466252  0.058949043            4 
 2291000   0.88262524   -4.0280008    1605.4771  0.058397975  0.058935576            4 
 2292000   0.88632487   -3.9953537    1610.2758  0.058546966  0.058922276            2 
 2293000   0.88569727   -4.0012174    1612.4967  0.058602148  0.058909062            2 
 2294000   0.88821773   -3.9671181    1605.0625  0.058306541  0.058895543            3 
 2295000   0.89746463   -3.9581647    1606.4892   0.05833294  0.058882159           10 
 2296000   0.90560194   -4.0341934    1607.8665  0.058357524  0.058868826            3 
 2297000   0.87410132   -3.9832616    1616.0179  0.058627843  0.058855342            2 
 2298000   0.89167502   -4.0263677    1610.0995  0.058387712  0.058842078            3 
 2299000   0.87376574   -4.0179526    1608.5801  0.058307239  0.058828711            5 
 2300000   0.90094943   -3.9873236    1613.8357  0.058472307  0.058815346            5 
 2301000    0.8972654   -4.0081972    1612.2243  0.058388539  0.058802039            9 
 2302000   0.89011276   -4.0188537    1611.5997  0.058340563  0.058788778            6 
 2303000   0.87030714   -3.9906124     1613.061  0.058368108  0.058775522            4 
 2304000   0.87718261   -4.0136083    1617.8406  0.058515648  0.058762296            3 
 2305000    0.8730861   -3.9949337     1615.015  0.058388104  0.058749303            4 
 2306000   0.86278196   -4.0095339    1615.1668  0.058368271  0.058736264            2 
 2307000   0.89482256   -4.0142278    1611.8921  0.058224681  0.058723236            4 
 2308000   0.88639459   -3.9963017    1618.7941  0.058448659  0.058710129            5 
 2309000   0.88739235    -4.032753    1614.5297  0.058269441   0.05869715            2 
 2310000   0.87182665   -4.0233526    1618.8183  0.058398927  0.058684103            6 
 2311000   0.88544685     -4.02003    1619.5357  0.058399529  0.058671029            4 
 2312000   0.87628683   -4.0190837    1615.3778  0.058224402   0.05865794            5 
 2313000   0.88708575   -4.0075044    1620.0603  0.058367931  0.058644909            6 
 2314000   0.86688569   -4.0238761    1621.1737  0.058382803  0.058631884            7 
 2315000   0.88481194   -4.0289664    1616.8697  0.058202651  0.058618816            5 
 2316000   0.88617074   -4.0261914    1617.3684  0.058195468   0.05860597            5 
 2317000   0.89220217   -4.0005952    1627.2388  0.058525349  0.058593021            4 
 2318000   0.89915028   -4.0115289    1628.4542  0.058543796  0.058580087            2 
 2319000   0.86594053   -4.0101816    1622.8537  0.058317296  0.058567246            3 
 2320000   0.88034872   -4.0188729    1621.8426  0.058255839  0.058554518           12 
 2321000   0.89289782    -4.011172     1626.706  0.058405356  0.058541493            3 
 2322000   0.89385423    -3.993409    1624.7478  0.058309928  0.058528589            3 
 2323000   0.87428016   -4.0132407    1625.2311  0.058302162  0.058515738            2 
 2324000   0.87073322   -4.0077961    1627.2135  0.058348159  0.058502903            5 
 2325000   0.88450417   -3.9855104     1624.834  0.058237778  0.058490189            3 
 2326000      0.89611   -4.0178456    1624.9182  0.058215758  0.058477347            4 
 2327000   0.89390438   -4.0291807    1622.4972  0.058104041  0.058464523            4 
 2328000   0.88040019   -4.0140293    1625.8903  0.058200542  0.058451875            4 
 2329000   0.88368294   -4.0023748    1629.2622  0.058296201  0.058439165            7 
 2330000   0.89369695   -4.0397185    1629.4414  0.058277588  0.058426467            5 
 2331000   0.87111001   -4.0220535    1631.8103  0.058337275  0.058413676            2 
 2332000   0.87397116   -4.0080883    1631.2498  0.058292232  0.058401021            4 
 2333000   0.88631884   -4.0104836    1632.9681  0.058328621  0.058388292            4 
 2334000    0.8961029    -4.018552    1628.1863  0.058132903  0.058375657            2 
 2335000   0.87331405   -3.9842162    1627.1088  0.058069552  0.058363057            5 
 2336000   0.87947501   -4.0282619    1628.2225  0.058084422  0.058350425            4 
 2337000   0.90013602    -4.017373    1633.2922  0.058240342   0.05833762            4 
 2338000   0.86406412   -4.0324946    1631.4264  0.058148932  0.058324826            4 
 2339000   0.87148878   -4.0400878     1629.983  0.058072646  0.058311976            2 
 2340000   0.87600354   -4.0003224    1631.0396  0.058085457  0.058299067            3 
 2341000    0.8943035   -3.9818865    1636.3836  0.058250875   0.05828625            2 
 2342000   0.89191683   -4.0191524    1636.9316  0.058245501  0.058273528            4 
 2343000   0.86924829   -4.0293208    1629.4956  0.057956166  0.058260747            4 
 2344000   0.86835808   -3.9904333    1634.8611  0.058122193  0.058247987            3 
 2345000   0.87796677   -4.0056337    1640.9267  0.058312958  0.058235373            4 
 2346000   0.87634387   -4.0101359    1636.4771  0.058130047  0.058222869            5 
 2347000   0.86844673   -4.0219802    1636.5356  0.058107358  0.058210372            4 
 2348000   0.88300327   -4.0305514    1633.5413  0.057976337   0.05819763            4 
 2349000   0.85502363   -3.9847788    1629.2985  0.057801137  0.058184819            6 
 2350000   0.86966355   -4.0203036    1632.9616  0.057906439  0.058171878            5 
 2351000   0.87659853   -3.9917741    1640.6536   0.05815446  0.058159107            5 
 2352000   0.88271283   -4.0091093    1637.7691  0.058027533  0.058146416            5 
 2353000    0.8709626   -4.0234525     1640.173  0.058088007  0.058133811            2 
 2354000   0.85253758   -4.0170724    1640.2553  0.058066245  0.058121256            6 
 2355000   0.88120128   -3.9886763    1640.9372  0.058065718  0.058108612            7 
 2356000   0.87043865   -4.0149282    1638.2843  0.057947239  0.058095916            4 
 2357000   0.88615039   -4.0134321    1637.7711  0.057904509   0.05808312            5 
 2358000   0.84287342   -4.0177336    1641.5018  0.058011797  0.058070381            4 
 2359000   0.88899774   -4.0248156    1640.1751   0.05794034  0.058057574            3 
 2360000   0.87468699   -4.0172561    1640.1075    0.0579134   0.05804497            3 
 2361000   0.88498218   -4.0243794    1641.4384  0.057935846    0.0580324            1 
 2362000   0.86514433   -4.0297099    1643.8095  0.057994971  0.058019801            7 
 2363000   0.87693675    -4.015968    1645.8501  0.058042393  0.058007295            2 
 2364000   0.86035359   -4.0548114    1635.7876  0.057663129  0.057994855            3 
 2365000   0.86973767   -4.0188947    1647.0359   0.05803509  0.057982206            4 
 2366000   0.88658472   -4.0374932    1641.5113  0.057815981  0.057969771            7 
 2367000   0.86400667   -4.0132358    1644.6218  0.057901064  0.057957082            3 
 2368000   0.87724607   -4.0096843    1642.5816  0.057804815  0.057944304            5 
 2369000   0.89246153    -4.044748    1639.6023  0.057675612  0.057931757            1 
 2370000   0.86518243   -4.0189614    1641.7862  0.057728065  0.057919021            2 
 2371000   0.86866176   -4.0171723     1648.751   0.05794851  0.057906374            4 
 2372000   0.87636983   -4.0489056    1644.0246  0.057758031  0.057893562            3 
 2373000   0.86133163   -4.0321747    1644.3296  0.057744401  0.057880808            2 
 2374000   0.87030251   -3.9925271    1647.0278  0.057814791  0.057868244            3 
 2375000   0.89429056    -3.993723    1648.0804  0.057827382  0.057855619            5 
 2376000   0.87715068   -4.0277926    1645.8715  0.057725572  0.057842759            5 
 2377000   0.87427071   -4.0343576    1641.9285  0.057563053  0.057829945            5 
 2378000   0.87950467   -4.0248991    1644.3075  0.057622214   0.05781704            3 
 2379000   0.86581141   -3.9891018    1643.2343  0.057560401  0.057804267            3 
 2380000   0.87714935   -3.9959843    1644.2351  0.057571258  0.057791438            1 
 2381000   0.88330109   -3.9936459    1645.0476  0.057575515  0.057778768            5 
 2382000   0.86109028   -4.0148753    1641.5403  0.057428643  0.057766094            3 
 2383000   0.87560613   -4.0121144    1644.3655  0.057503339   0.05775331            4 
 2384000   0.86295252   -4.0306903    1646.6725   0.05755986  0.057740306            4 
 2385000   0.86056459   -4.0516111    1641.2279   0.05734549  0.057727484            6 
 2386000   0.85988318   -4.0646666    1643.0806  0.057386164  0.057714474            6 
 2387000   0.86199809   -4.0226265    1650.0477  0.057605353  0.057701621            4 
 2388000   0.85816503   -4.0187258    1646.3987  0.057453892  0.057688987            3 
 2389000   0.87857323   -4.0198396    1647.0431  0.057452318  0.057676191            3 
 2390000    0.8720782    -4.017655    1648.7267  0.057486985  0.057663364            3 
 2391000   0.85585581   -4.0428579    1647.9788  0.057436874  0.057650563            5 
 2392000   0.87166577   -4.0314291    1646.7701  0.057370753   0.05763768            3 
 2393000   0.87300103   -4.0151572    1654.1504   0.05760379  0.057625139            5 
 2394000   0.88103268   -4.0415876    1648.8273  0.057394433  0.057612445            7 
 2395000   0.88068298   -4.0289669    1651.2479  0.057454693  0.057599863            4 
 2396000   0.87022762   -4.0339566    1658.7312  0.057690985  0.057587135            6 
 2397000   0.87905635   -4.0231903    1651.2367  0.057406367  0.057574422            3 
 2398000   0.86214465    -4.011212     1653.355   0.05745604  0.057561801            3 
 2399000    0.8770742   -3.9966393    1659.3408  0.057640016  0.057549518            4 
 2400000   0.88290988   -4.0137717    1653.7839  0.057423051  0.057536933            5 
 2401000   0.88114104   -4.0416138    1650.5403  0.057286557  0.057524298            5 
 2402000   0.85891119   -4.0438258    1653.8996  0.057379255  0.057511643            5 
 2403000   0.88093714   -4.0058133    1653.6213  0.057345724  0.057498929            3 
 2404000   0.85433904   -4.0290794    1649.7789  0.057188674  0.057486033            5 
 2405000   0.86130432   -4.0287158    1652.9281  0.057274015  0.057473263            4 
 2406000   0.88549801   -4.0525918    1648.8112  0.057107619  0.057460521            6 
 2407000   0.85942214   -4.0338595    1655.1576  0.057303613  0.057447799            3 
 2408000   0.89380356   -4.0399936    1651.8675  0.057165956  0.057435039            5 
 2409000   0.86771271   -4.0400489    1656.3606  0.057297653  0.057422244            3 
 2410000   0.85127214   -4.0270954    1654.9959   0.05722669  0.057409635            3 
 2411000   0.86124875   -4.0500184    1663.9305  0.057511768  0.057396856            2 
 2412000   0.87055728   -4.0399843    1655.0714  0.057181847  0.057384217            6 
 2413000   0.88520448   -4.0467133    1655.3415  0.057167477  0.057371494            9 
 2414000   0.85630186   -4.0346566    1659.1498  0.057275263  0.057358825            4 
 2415000   0.87661293   -4.0282342    1657.0013   0.05717741   0.05734596            2 
 2416000   0.87755804   -4.0025102    1661.6855   0.05731531  0.057333296            9 
 2417000   0.84731249   -4.0192218    1653.7471  0.057017899  0.057320733            6 
 2418000    0.8445843   -4.0232043    1662.7916  0.057306025  0.057308037            3 
 2419000   0.87397408    -4.035198    1665.0611  0.057360518  0.057295441            6 
 2420000   0.86098105   -4.0709878    1660.0787  0.057165245   0.05728277            3 
 2421000   0.86119424   -4.0589409    1660.8332  0.057167602  0.057269948            2 
 2422000   0.88029662   -4.0251498    1662.8205  0.057212377  0.057257206            5 
 2423000   0.84720941   -4.0218698    1660.2461  0.057100223  0.057244442            5 
 2424000   0.84964832     -4.01353    1662.5276    0.0571551  0.057231606            5 
 2425000    0.8687329   -4.0260191    1661.9885  0.057113008  0.057219087            2 
 2426000   0.85614576   -4.0077563    1663.7553  0.057150156  0.057206468           12 
 2427000    0.8521166   -4.0377272    1659.2688   0.05697256  0.057193804            4 
 2428000   0.86156222   -4.0386481    1662.0128  0.057043272   0.05718099            2 
 2429000    0.8472218   -4.0569578    1662.1297  0.057023801  0.057168298            2 
 2430000   0.85569412   -4.0644987    1659.4586  0.056908732  0.057155515            6 
 2431000   0.87072656   -4.0408722    1666.1796  0.057115713  0.057142851            4 
 2432000   0.87469778   -4.0422794    1657.0943  0.056780918  0.057130173            3 
 2433000   0.85254425   -4.0361233    1661.5672  0.056910781  0.057117363            3 
 2434000   0.86129134   -4.0477548    1663.3669  0.056949016  0.057104564            2 
 2435000   0.88362983   -4.0546233    1660.0446  0.056811929  0.057091903            3 
 2436000    0.8620222   -4.0460898     1659.649  0.056775074  0.057079194            3 
 2437000   0.85919967   -4.0349009    1669.0459  0.057073104  0.057066426            4 
 2438000   0.85479753   -4.0573358     1663.756  0.056868881  0.057053744            3 
 2439000   0.88799497   -4.0290629    1665.9061  0.056919028  0.057041092            8 
 2440000   0.86024576   -4.0613883    1662.8788  0.056792309  0.057028406            3 
 2441000   0.86038997    -4.033176    1666.0531  0.056877409  0.057015744            5 
 2442000   0.85828215    -4.047153    1664.9165  0.056815334  0.057002837            5 
 2443000   0.84591091   -4.0225877    1672.8116  0.057061387  0.056990139            9 
 2444000   0.85323321   -4.0358953     1673.509  0.057061819  0.056977503            3 
 2445000   0.86544741    -4.054171    1669.6119  0.056905655  0.056964819            4 
 2446000   0.85998801   -4.0189325    1669.9724  0.056894673  0.056951933            4 
 2447000   0.86543688   -4.0794781    1668.6692  0.056827039  0.056939176            4 
 2448000   0.88993355   -4.0236719    1667.0072   0.05674725  0.056926461            5 
 2449000   0.87778286   -4.0466999    1669.7023  0.056815784  0.056913873            4 
 2450000    0.8573359   -4.0314915    1679.3628  0.057121183  0.056901353            4 
 2451000    0.8630318   -4.0270111    1673.6788  0.056904625  0.056888942            4 
 2452000   0.84178882   -4.0764309    1672.2282  0.056832116  0.056876448            4 
 2453000   0.87412847   -4.0613213    1667.8218  0.056659252  0.056863877            4 
 2454000   0.86902616   -4.0659981    1670.5578  0.056729074  0.056851163            6 
 2455000   0.86897014   -4.0700109    1666.1031  0.056554757  0.056838537            4 
 2456000    0.8682072   -4.0333158    1670.9017  0.056694548  0.056825902            2 
 2457000   0.86727515   -4.0470891    1668.3328  0.056584345  0.056813169            3 
 2458000   0.86760709   -4.0542138    1669.5616  0.056602984  0.056800601            5 
 2459000   0.88227479   -4.0418592    1672.0212  0.056663318   0.05678799            5 
 2460000   0.85322592    -4.058366    1668.3843  0.056517083   0.05677528            6 
 2461000   0.85690112   -4.0330508    1664.9173  0.056376719  0.056762683            1 
 2462000   0.86319691   -4.0339132    1670.2602  0.056534666  0.056750069            2 
 2463000   0.84857567   -4.0499139    1672.5057  0.056587688  0.056737359            4 
 2464000   0.83526964   -4.0374139    1674.9996  0.056649065  0.056724772            4 
 2465000   0.84868994   -4.0601594    1671.9979  0.056524609  0.056712045            4 
 2466000   0.87859651   -4.0542853    1671.9446  0.056499885  0.056699244            2 
 2467000   0.85049346   -4.0473731    1670.4084  0.056425093  0.056686545            4 
 2468000   0.87944592   -4.0473368    1674.2759  0.056532815  0.056673754            7 
 2469000   0.85745229   -4.0651816    1673.2138  0.056474071   0.05666085            2 
 2470000   0.84724638   -4.0506976    1675.3367  0.056522829  0.056648157            5 
 2471000   0.85354073   -4.0202399    1677.0908  0.056559112  0.056635644            2 
 2472000    0.8615491   -4.0468908    1682.3108  0.056712205  0.056622996            6 
 2473000   0.85590779   -4.0563542    1674.5142  0.056426546  0.056610328            5 
 2474000   0.87271208    -4.046033    1672.7336  0.056343762  0.056597532            3 
 2475000   0.85998569   -4.0303063    1670.8174  0.056256479  0.056584721            7 
 2476000   0.86338891   -4.0523506    1681.3252  0.056587412  0.056571983            6 
 2477000   0.87558777    -4.064441    1672.8746  0.056280265  0.056559177            4 
 2478000   0.84996299   -4.0418748    1673.1985  0.056268444  0.056546388            5 
 2479000   0.84510736   -4.0528976    1680.4348  0.056489002  0.056533626            2 
 2480000   0.85423739   -4.0500771    1674.1446  0.056254858  0.056521066            8 
 2481000   0.87467811   -4.0520073     1674.814  0.056254668  0.056508341            3 
 2482000   0.86486399   -4.0678487    1682.0842  0.056476102  0.056495642            5 
 2483000   0.84347296    -4.059778    1675.6594   0.05623773  0.056482836            4 
 2484000   0.83974473   -4.0706846    1679.6639  0.056349434  0.056470161            6 
 2485000   0.85252395   -4.0514289    1677.6434  0.056259002  0.056457375            6 
 2486000   0.85948209   -4.0700632    1678.7758  0.056274328  0.056444666            6 
 2487000   0.83815273   -4.0734132    1677.8592  0.056220988    0.0564318            8 
 2488000   0.85575204   -4.0463869     1679.254  0.056245111  0.056418993            3 
 2489000   0.84781985   -4.0756199    1673.9734  0.056045715   0.05640604            4 
 2490000   0.86372137    -4.017577    1677.2614  0.056133247  0.056393134            2 
 2491000   0.85752635   -4.0506975    1682.3848   0.05628211  0.056380476            3 
 2492000   0.85288466   -4.0485149    1680.6084  0.056200119  0.056367529            6 
 2493000   0.83829118   -4.0297464    1680.8522  0.056185727  0.056354893            3 
 2494000   0.84863464   -4.0559516    1676.1658  0.056006611  0.056342289            6 
 2495000   0.85772388   -4.0405674    1683.8506  0.056240835  0.056329297            4 
 2496000   0.84145368   -4.0787882    1680.5084  0.056106718  0.056316371            3 
 2497000   0.85547182    -4.068184    1674.4334  0.055881506  0.056303227            8 
 2498000   0.85111406   -4.0642344    1682.8743  0.056140723  0.056290385            2 
 2499000   0.85700846   -4.0533467    1682.7394  0.056113759  0.056277442            3 
 2500000   0.86951802   -4.0683229    1682.5207  0.056084024  0.056264583            3 
 2501000   0.86058726   -4.0633835    1679.6837  0.055967071  0.056251639            2 
 2502000   0.86139989   -4.0614511    1687.9261  0.056219229  0.056238702            2 
 2503000   0.84834934   -4.0483895    1685.0766  0.056101899  0.056225804            4 
 2504000   0.84705815   -4.0588166    1682.2148  0.055984251  0.056212957            7 
 2505000   0.84954854   -4.0663162    1689.1991  0.056194249  0.056200152            4 
 2506000   0.84693941   -4.0472463     1685.983  0.056064876  0.056187446            3 
 2507000   0.86162484   -4.0656953    1688.4873  0.056125757  0.056174668            4 
 2508000   0.86796941   -4.0373618    1682.7894  0.055914055  0.056161845            8 
 2509000   0.85442208   -4.0730194    1685.6859  0.055987972  0.056149155            4 
 2510000   0.84031454   -4.0485102    1683.8018  0.055903114  0.056136276            2 
 2511000   0.83322192   -4.0295459    1685.8026  0.055947252  0.056123563            3 
 2512000   0.85492802   -4.0627978    1692.0329  0.056131666  0.056110943            5 
 2513000   0.85501669   -4.0649357    1681.6271  0.055764262  0.056098121            6 
 2514000   0.84438231   -4.0522151    1684.8824  0.055849987  0.056085168            3 
 2515000   0.85011511   -4.0425084    1689.2596  0.055972815   0.05607237            3 
 2516000   0.86356032   -4.0658159    1687.4418  0.055890361  0.056059585            4 
 2517000   0.84265865   -4.0505641    1684.8505  0.055782363  0.056046869            6 
 2518000   0.84897727   -4.0668711    1687.1452  0.055836154   0.05603411            4 
 2519000   0.83203638   -4.0807936    1689.5249   0.05589271  0.056021342            2 
 2520000   0.84115723   -4.0619353    1692.0456   0.05595389  0.056008517            4 
 2521000   0.85990868   -4.0658703    1686.4702  0.055747397  0.055995859            4 
 2522000   0.85964569   -4.0867767    1688.8148  0.055802764  0.055983189            6 
 2523000   0.85943482   -4.0754528     1694.876  0.055980844  0.055970615            3 
 2524000   0.84870244   -4.0912659    1693.2877  0.055906223  0.055957962            7 
 2525000   0.84541783   -4.0695198    1690.6882   0.05579829  0.055945295            4 
 2526000   0.84016004       -4.085    1686.2147  0.055628618  0.055932632            3 
 2527000   0.86472842   -4.0378451    1691.2802  0.055773651  0.055920129           10 
 2528000   0.85768123    -4.077562    1694.6937   0.05586411  0.055907586            4 
 2529000   0.84943241   -4.0458084    1695.2557  0.055860543  0.055895009            2 
 2530000   0.86334601    -4.055773    1697.7659  0.055921142  0.055882579            5 
 2531000   0.84725712   -4.0688788    1695.8802  0.055836961  0.055870083            4 
 2532000    0.8270136   -4.0527225    1696.1542  0.055823926  0.055857513            3 
 2533000    0.8411085   -4.0554423    1692.3698  0.055677385   0.05584501           11 
 2534000   0.84435738   -4.0592709    1697.6044  0.055827559  0.055832631            3 
 2535000   0.86153453   -4.0901813    1698.1592  0.055823775  0.055820253            3 
 2536000    0.8266699   -4.0979548    1691.3819   0.05557906   0.05580763            3 
 2537000   0.85202315    -4.053537    1696.6103  0.055728888  0.055795152            3 
 2538000   0.85002761   -4.0482871    1703.5898  0.055936099  0.055782805            3 
 2539000   0.85790913    -4.049827    1700.6452  0.055817422  0.055770337            5 
 2540000   0.83938477   -4.0724968    1704.2467  0.055913604  0.055757969            8 
 2541000   0.84029858   -4.0815791    1704.8927  0.055912787  0.055745556            5 
 2542000   0.86723781   -4.0547985    1696.8856  0.055628298   0.05573332            5 
 2543000   0.84244264    -4.066332    1699.4176  0.055689397  0.055720924            3 
 2544000   0.84333413   -4.0529199     1702.748    0.0557766  0.055708489            6 
 2545000   0.81832938   -4.0703729    1701.9079  0.055727175  0.055696101            5 
 2546000   0.84706782   -4.0563037     1707.886  0.055900957  0.055683676            2 
 2547000   0.83946589   -4.0711778    1701.4195  0.055667434   0.05567128            3 
 2548000   0.82000458   -4.0639669    1701.3766  0.055644186  0.055658826            5 
 2549000   0.84305378   -4.0619387    1700.0863  0.055580173  0.055646407            2 
 2550000   0.86493944    -4.086651    1696.7885  0.055450606  0.055633997            3 
 2551000   0.84103072   -4.0910487    1698.4285  0.055482441  0.055621482            5 
 2552000   0.86420454   -4.0818081    1705.6309  0.055695889  0.055609071            5 
 2553000    0.8493913   -4.0883629    1705.8787   0.05568216  0.055596684            3 
 2554000   0.83226581   -4.0499787    1702.3226  0.055544328  0.055584311            5 
 2555000   0.85675259   -4.0621005    1706.0884  0.055645413  0.055571992            3 
 2556000   0.83207045   -4.0614355    1701.7992  0.055483804  0.055559619            5 
 2557000   0.83984269   -4.0946735    1698.7748  0.055363537  0.055547033            4 
 2558000   0.84512907   -4.0830091    1700.7893  0.055407523  0.055534544            3 
 2559000   0.84874135   -4.0558834    1701.5425  0.055410398  0.055522058            2 
 2560000   0.83431594   -4.0832178     1703.637  0.055456934  0.055509455            4 
 2561000   0.84468904   -4.0675176    1701.2232  0.055356737  0.055496887            7 
 2562000   0.84589514   -4.0585496    1709.6319  0.055608634    0.0554843            4 
 2563000   0.84435922   -4.0641891    1703.2812  0.055380453  0.055471844            3 
 2564000   0.84756079   -4.0764504    1702.8348  0.055344344  0.055459309            9 
 2565000   0.82816165   -4.0914342      1702.58   0.05531449  0.055446685            2 
 2566000   0.84303347   -4.0888607     1695.249  0.055054852  0.055434179            4 
 2567000   0.83446866   -4.0702515    1707.4847  0.055430616  0.055421704            5 
 2568000   0.85337446   -4.0831963    1705.5083  0.055344896  0.055409188            5 
 2569000   0.83361717   -4.0749157    1704.8218  0.055301082  0.055396761            5 
 2570000   0.82131042   -4.0728122    1707.3576  0.055361791  0.055384352            5 
 2571000   0.84127453   -4.1061529    1706.9058  0.055325612  0.055371913            3 
 2572000   0.84716236   -4.0969445    1707.2844  0.055316367  0.055359335            2 
 2573000   0.85304847    -4.067856    1710.9872  0.055414796  0.055347034            2 
 2574000   0.82967677   -4.0920737    1704.9605   0.05519815   0.05533461            4 
 2575000   0.83646839   -4.0665739    1711.0616  0.055374163  0.055322111            4 
 2576000   0.83211955   -4.0531064    1716.3557  0.055523928   0.05530973            7 
 2577000    0.8423536   -4.0703967    1712.6243  0.055381719  0.055297303            4 
 2578000   0.84573814   -4.0754748    1713.0062  0.055372582  0.055284769            4 
 2579000   0.82506371   -4.0793815    1707.0319  0.055158069   0.05527221            3 
 2580000   0.82914594   -4.0944275    1701.9448  0.054972378  0.055259651            6 
 2581000   0.86367533   -4.0571024    1713.3759  0.055320158  0.055247291            3 
 2582000   0.81733126   -4.0555739    1715.7928  0.055376735  0.055234852            3 
 2583000   0.84625575   -4.1023633     1711.461  0.055215543  0.055222587            5 
 2584000   0.83646748   -4.0826716     1717.054  0.055374549  0.055210197            7 
 2585000   0.83560063   -4.0879235    1714.0107  0.055255019  0.055197901            7 
 2586000   0.85282278   -4.1109136    1714.1081  0.055236792  0.055185615            4 
 2587000   0.85340704   -4.0778331    1715.9727  0.055275501  0.055173287            4 
 2588000     0.836241   -4.0800816    1714.1202  0.055194494  0.055161002            4 
 2589000   0.84065902   -4.0914487    1718.6641  0.055319432  0.055148701            4 
 2590000   0.83408003   -4.1015224    1714.4427  0.055162249  0.055136433            5 
 2591000   0.84204794    -4.083607    1711.0407  0.055031542  0.055124026            5 
 2592000    0.8526166   -4.0982663    1711.3786  0.055021173   0.05511181            8 
 2593000   0.84444256   -4.1192722    1712.4689  0.055034996  0.055099441            6 
 2594000   0.81962601    -4.078598    1717.7228  0.055182561  0.055087069            4 
 2595000   0.82293598   -4.0868174    1716.7444  0.055129879  0.055074784            4 
 2596000   0.84533215   -4.0624385    1719.9425  0.055211304  0.055062488            3 
 2597000   0.81428378   -4.0995718    1716.1696  0.055068977  0.055050048            7 
 2598000    0.8330372   -4.1007056    1707.6327  0.054773951  0.055037638           10 
 2599000   0.83197044   -4.0826097    1718.4261  0.055098953  0.055025357            6 
 2600000   0.85080216   -4.0727672    1722.7882   0.05521757  0.055013058            5 
 2601000   0.83433478   -4.0641564    1716.5893  0.054997735  0.055000866            5 
 2602000   0.83471671    -4.064717    1715.9403  0.054955812   0.05498848            4 
 2603000   0.82690479   -4.0834758    1715.8176  0.054930772  0.054976099            3 
 2604000   0.84087551   -4.0807628    1716.3782  0.054927619  0.054963777            2 
 2605000   0.82688357   -4.0975334    1716.0095  0.054894737  0.054951283            3 
 2606000   0.85683806   -4.0839176    1711.0456   0.05471494  0.054938822            6 
 2607000   0.82861044   -4.0939447    1715.4911  0.054836052   0.05492631            4 
 2608000   0.82887081   -4.0768266    1717.0042  0.054863377  0.054913851            6 
 2609000   0.84971393   -4.0689537    1721.6408  0.054990444  0.054901437            5 
 2610000   0.85240007    -4.080966    1718.8571  0.054880495  0.054889043            3 
 2611000   0.82656349   -4.0880384     1724.987  0.055055119  0.054876621            7 
 2612000   0.83937342   -4.0923662     1722.015  0.054939223  0.054864225            7 
 2613000   0.84651327   -4.0954162    1718.3219  0.054800417  0.054851686            5 
 2614000    0.8403505   -4.0788299    1716.4726  0.054720498  0.054839105            4 
 2615000   0.83418172   -4.1105372    1716.9553  0.054714955  0.054826717            5 
 2616000   0.80809185   -4.0985858    1718.6632  0.054748444  0.054814363            9 
 2617000   0.83072043   -4.1005225     1725.412  0.054942427  0.054802083            4 
 2618000   0.81715796   -4.0884815    1721.1064  0.054784389  0.054789943            5 
 2619000   0.85066131   -4.0895854    1721.5568  0.054777804  0.054777635            9 
 2620000   0.85067906   -4.1027807    1723.4803  0.054818075  0.054765392            7 
 2621000    0.8358428   -4.1013561    1722.4491  0.054764373  0.054753121            5 
 2622000   0.82886185   -4.0829193    1729.1056  0.054955046  0.054740876            4 
 2623000   0.83151758   -4.0895577    1723.4097  0.054753137  0.054728656            2 
 2624000    0.8315296   -4.0826108    1726.5469  0.054831901  0.054716456            4 
 2625000   0.82316678   -4.0992835    1728.0709  0.054859393  0.054704106            5 
 2626000   0.84748104   -4.0943732    1726.3049  0.054782462  0.054691914            6 
 2627000    0.8609679   -4.1062993     1722.183  0.054630853  0.054679783            3 
 2628000   0.81126822   -4.0972478    1726.8993  0.054759617  0.054667619            6 
 2629000   0.82515844   -4.0881946     1725.064  0.054680614   0.05465545            2 
 2630000   0.81240436   -4.0914856    1721.5894  0.054549728   0.05464334           10 
 2631000   0.83201469   -4.1076344    1731.8653   0.05485447  0.054631194            5 
 2632000   0.83347274   -4.0913082    1731.5878  0.054824842  0.054619089            3 
 2633000    0.8207217   -4.1015099    1731.3167  0.054795439    0.0546073            5 
 2634000   0.84751298   -4.1003847     1733.448  0.054842065  0.054595283            5 
 2635000   0.81359763   -4.0921949    1731.5782  0.054762119  0.054583365            9 
 2636000   0.83514528   -4.1208635    1731.5205  0.054739519  0.054571325            5 
 2637000   0.81668565   -4.1177266    1726.6319  0.054564275  0.054559314            5 
 2638000   0.83498053   -4.0923845    1739.4248  0.054947713  0.054547348            6 
 2639000   0.83139684   -4.0822653    1732.6839  0.054714029  0.054535386            4 
 2640000   0.82053747   -4.0908057    1732.1648  0.054676918  0.054523295            4 
 2641000   0.82796142   -4.1017791    1730.1788  0.054593549  0.054511318            6 
 2642000   0.84218515   -4.1148824    1735.2147  0.054731729  0.054499417            3 
 2643000   0.82952319    -4.104379    1738.0812    0.0548014  0.054487508            4 
 2644000   0.83173039    -4.078229    1740.9052   0.05486968  0.054475545            4 
 2645000   0.81998585   -4.0977368    1734.4473  0.054645474  0.054463601            2 
 2646000   0.83735483   -4.1004136    1732.4775  0.054562783  0.054451617           10 
 2647000   0.81321005   -4.0989751     1734.405  0.054602851   0.05443974            3 
 2648000   0.81983692   -4.1226495    1733.0348  0.054539112  0.054427768            4 
 2649000   0.81625688   -4.0756467    1736.2206  0.054618743  0.054415834            3 
 2650000   0.84818944   -4.1095599    1732.9331  0.054494751   0.05440384            4 
 2651000   0.81044739   -4.1066384    1733.7717  0.054500556  0.054391872            5 
 2652000   0.82740747    -4.100972    1735.7174  0.054541146  0.054379678            3 
 2653000    0.8236175    -4.125401    1729.0226  0.054310297  0.054367582            3 
 2654000   0.82190092   -4.0960893    1736.2388  0.054516414  0.054355483            3 
 2655000   0.82490609   -4.1054044    1739.9361  0.054611931  0.054343365            7 
 2656000   0.82045354   -4.0888591    1740.6919  0.054615081  0.054331312            5 
 2657000    0.8296905   -4.1029395    1737.0639  0.054480738  0.054319338            3 
 2658000    0.8350368   -4.1158021    1743.9186   0.05467515  0.054307337            7 
 2659000    0.8354416    -4.101489    1739.3159  0.054510338  0.054295449            9 
 2660000   0.83033605   -4.1068106    1735.0915  0.054357504  0.054283526            7 
 2661000   0.83093413   -4.0866635    1738.9969  0.054459378  0.054271354            9 
 2662000   0.83263778   -4.0889892    1742.2128  0.054539594  0.054259296            5 
 2663000   0.82179143   -4.1204069    1740.2254  0.054456922  0.054247195            4 
 2664000   0.82925166    -4.107554    1738.2184  0.054373699   0.05423514            3 
 2665000   0.83281547   -4.0981184     1738.553  0.054363759  0.054223045            4 
 2666000   0.80715574   -4.0816643    1738.8976  0.054354138  0.054210961            3 
 2667000   0.83737087    -4.064443    1742.2551  0.054438666     0.054199            3 
 2668000   0.82307835   -4.1134387    1733.5571  0.054146585  0.054186895            4 
 2669000   0.84677841   -4.0908026    1737.8777  0.054261199  0.054174764            3 
 2670000   0.83506998   -4.0994647    1738.7407  0.054267813  0.054162572            3 
 2671000   0.80957148     -4.10413    1741.5745  0.054335906  0.054150352            3 
 2672000   0.82676746   -4.1179007    1737.2691  0.054181298  0.054138095            3 
 2673000   0.81798135   -4.1040144    1737.6519  0.054172962  0.054125773            4 
 2674000   0.82864998    -4.107919    1737.0419  0.054133692  0.054113595            6 
 2675000   0.82490856   -4.0899231    1739.3893  0.054186582   0.05410145            7 
 2676000    0.8279227   -4.1013135    1735.3285  0.054039875  0.054089235            4 
 2677000   0.82515693   -4.1151889    1737.8952  0.054099591  0.054077078            5 
 2678000   0.83671699   -4.0991916    1738.3485  0.054093493  0.054064869            5 
 2679000   0.81148266   -4.1284387    1740.1932  0.054130683  0.054052747            5 
 2680000   0.83581295   -4.1034125    1740.2863  0.054113382   0.05404058            3 
 2681000   0.82040978    -4.107941     1749.203  0.054370352  0.054028394            6 
 2682000   0.82086088   -4.1143262    1739.3608   0.05404427  0.054016325            7 
 2683000   0.82364056    -4.125539    1739.4375   0.05402651  0.054004163            3 
 2684000   0.81229106   -4.1116449    1745.3553  0.054190119  0.053991923            2 
 2685000   0.81046606   -4.1122566    1737.7807  0.053934844  0.053979634            5 
 2686000   0.81815152   -4.1159339    1744.0727  0.054109973  0.053967444            3 
 2687000   0.81428217   -4.0913542    1744.6659  0.054108233  0.053955281            2 
 2688000   0.80686243   -4.1182822    1743.1913  0.054042389  0.053943094            8 
 2689000   0.82096467   -4.1120119    1741.1932   0.05396037  0.053930749            4 
 2690000   0.81852464    -4.104583    1744.4834  0.054042238  0.053918401            2 
 2691000   0.82720098   -4.1281892    1738.0145  0.053821828  0.053906043            5 
 2692000   0.81924902    -4.090417    1744.8943  0.054014806   0.05389365            4 
 2693000   0.82684138   -4.1217731    1742.0201  0.053905809  0.053881363            6 
 2694000   0.79876382    -4.119849    1742.1487  0.053889775  0.053869009            3 
 2695000   0.81454329   -4.0897992    1745.7573  0.053981363  0.053856798            6 
 2696000   0.83288784   -4.1427841      1739.29  0.053761438  0.053844397            5 
 2697000    0.8044399   -4.1296883    1744.0293  0.053887939  0.053832045            6 
 2698000   0.82856095   -4.1275861    1742.6125  0.053824207  0.053819606            3 
 2699000    0.8353227   -4.1292548    1742.0073  0.053785577  0.053807035            5 
 2700000   0.81392193   -4.1002617    1744.9195   0.05385554   0.05379461            4 
 2701000   0.79311804   -4.1143783    1740.1764  0.053689264  0.053782149            2 
 2702000   0.82210731   -4.0950942    1743.3658  0.053767758  0.053769746            6 
 2703000   0.81750574    -4.132134    1742.7719  0.053729558  0.053757343            2 
 2704000    0.8183196   -4.0920992    1750.6283  0.053951809  0.053745061            2 
 2705000   0.83700171    -4.115295    1739.8117  0.053598634  0.053732643            3 
 2706000   0.82177202   -4.1303345    1742.1234  0.053650019  0.053720262            5 
 2707000   0.82147815   -4.1242848     1747.346  0.053790975  0.053707804            4 
 2708000    0.8234893   -4.0986343    1743.6304  0.053656771  0.053695366            5 
 2709000   0.81405163   -4.0964286    1744.4858  0.053663278   0.05368301            4 
 2710000    0.7991184   -4.1008289    1745.8586  0.053685688  0.053670724            6 
 2711000   0.82429886   -4.1445903    1742.6824  0.053568254  0.053658418           10 
 2712000   0.82304412   -4.0931954    1748.0605  0.053713755  0.053645982            4 
 2713000   0.80961921   -4.1301821    1746.9109  0.053658646  0.053633618            4 
 2714000   0.83414113   -4.1319466    1747.3231  0.053651531  0.053621226            5 
 2715000   0.83661235    -4.124194    1747.8389  0.053647601  0.053608846            6 
 2716000   0.82820617   -4.1021897    1744.3134  0.053519679  0.053596436            7 
 2717000   0.81095406   -4.1086882    1745.9249  0.053549409  0.053583957            5 
 2718000   0.82631763   -4.1249819     1740.882  0.053375093  0.053571471            8 
 2719000    0.8031551   -4.0883748    1747.9526  0.053572164   0.05355898            5 
 2720000   0.82042717   -4.1171795    1750.3894  0.053627128  0.053546588           12 
 2721000   0.82485239   -4.1317501    1746.4495  0.053486754  0.053534156            4 
 2722000   0.81959031   -4.1031145    1752.3575  0.053647976  0.053521723            5 
 2723000   0.81697219   -4.1171561    1750.1795  0.053561619  0.053509272            5 
 2724000   0.82570328   -4.1105679    1749.9671   0.05353546  0.053496848            7 
 2725000   0.82497351   -4.1233231    1749.4312  0.053499424  0.053484412            5 
 2726000   0.80024146    -4.099396    1748.8337  0.053461533  0.053471925            3 
 2727000   0.80173186    -4.127825    1745.4031  0.053337097   0.05345947            7 
 2728000   0.81432171   -4.1047858    1750.7894   0.05348208  0.053447054            7 
 2729000   0.80858715   -4.1482758    1744.9438  0.053283981  0.053434575            5 
 2730000   0.81076039   -4.1321211    1747.1206   0.05333091  0.053421945            5 
 2731000   0.80255158   -4.1156437    1750.8432  0.053424972  0.053409377            8 
 2732000   0.80944412   -4.0981036    1752.7528  0.053463666  0.053397123            4 
 2733000    0.8179468   -4.1305748    1751.9342  0.053419143  0.053384762            3 
 2734000   0.82609107   -4.1259138     1752.769  0.053425048  0.053372407            5 
 2735000   0.79531119   -4.1182091    1747.6115  0.053248368  0.053360005            5 
 2736000   0.81887877   -4.1045566    1759.9847  0.053605772  0.053347637            5 
 2737000   0.80886771   -4.1113414    1749.5727  0.053269172  0.053335266            3 
 2738000   0.81713895   -4.1040094    1751.1271  0.053297027  0.053322836            3 
 2739000   0.82738638   -4.1258563    1752.2656  0.053312205  0.053310395            3 
 2740000   0.83165889   -4.1130004    1754.2654  0.053353571  0.053298118            4 
 2741000   0.82696945   -4.1226654    1756.3881   0.05339864  0.053285898            3 
 2742000   0.81235952   -4.1468041     1751.685  0.053236233  0.053273653            8 
 2743000   0.82052182   -4.1165026    1753.0811  0.053259237  0.053261235            5 
 2744000    0.8170904   -4.1339117    1747.6015  0.053073418  0.053248874           11 
 2745000   0.80604323   -4.1199351    1760.8676   0.05345682  0.053236472            3 
 2746000   0.81818097   -4.1037741    1756.3603  0.053300567  0.053224239            6 
 2747000   0.80789757   -4.1218581    1756.5382  0.053286562   0.05321189            4 
 2748000   0.80464713   -4.1131281     1751.354   0.05310996  0.053199513            9 
 2749000   0.82742044    -4.095751    1756.3378  0.053241717  0.053187341            4 
 2750000   0.79561003   -4.1257142    1755.0045  0.053181954  0.053174999            6 
 2751000   0.81132955   -4.1335383    1752.6386  0.053090956  0.053162569            7 
 2752000    0.7988494   -4.1398789    1754.7877  0.053136739  0.053150105            2 
 2753000   0.80596929   -4.1464592    1752.4401  0.053046376  0.053137593            5 
 2754000   0.81166362    -4.126522    1752.8287  0.053038872  0.053125119            3 
 2755000   0.80650131   -4.1170848    1752.1011  0.052997612  0.053112691            5 
 2756000   0.80671595   -4.1333075    1752.2641  0.052983313  0.053100325            7 
 2757000   0.81899448   -4.1234937    1756.0665  0.053079025  0.053087879            7 
 2758000    0.8146633   -4.1196786    1756.6829  0.053078406  0.053075567            3 
 2759000   0.81610563   -4.0986045    1761.6421  0.053208954  0.053063261            4 
 2760000   0.81202949   -4.1162862     1764.725  0.053282761  0.053050876            7 
 2761000   0.82327664   -4.1321248    1758.3776  0.053071882  0.053038404            5 
 2762000   0.80528816   -4.1332525    1755.5183  0.052966399  0.053026023            4 
 2763000   0.78957102   -4.1333846    1758.0462  0.053023472  0.053013621           15 
 2764000   0.82086285   -4.1254695    1761.0452  0.053094705  0.053001243            4 
 2765000   0.80084705   -4.1458049    1763.6378  0.053153641  0.052988843            6 
 2766000   0.81256219   -4.1252396     1757.447   0.05294791  0.052976616            4 
 2767000   0.84851613   -4.1492064    1763.6627  0.053115971  0.052964354            3 
 2768000   0.79860303   -4.1209837    1767.2811  0.053205719  0.052952178            4 
 2769000   0.81263973   -4.1605913    1760.0559  0.052969058  0.052939909            5 
 2770000   0.81218068   -4.1294547    1761.1234  0.052982053   0.05292778            4 
 2771000   0.81176576   -4.1275398    1761.1391  0.052963405   0.05291556            4 
 2772000   0.81909956   -4.1288796    1762.9348  0.052998281  0.052903414           11 
 2773000   0.79458261   -4.1427574    1761.7022  0.052942128    0.0528912            5 
 2774000   0.80391576   -4.1198121    1765.7549  0.053044787  0.052879069            3 
 2775000   0.79985749   -4.1503453    1765.1415  0.053007251  0.052866846            4 
 2776000   0.80759386   -4.1379881    1765.1587  0.052988675  0.052854544            5 
 2777000   0.81355131   -4.1539824    1763.9177  0.052932353  0.052842349            5 
 2778000   0.81894407   -4.1255051    1766.4322  0.052988727  0.052830153            6 
 2779000   0.80168618   -4.1432463    1763.6268  0.052885534  0.052818025            5 
 2780000   0.80470068   -4.1278972     1764.442  0.052890946   0.05280585            8 
 2781000   0.80044823   -4.1156301    1768.9726   0.05300769  0.052793704            2 
 2782000   0.80982578   -4.1368022    1769.1547   0.05299409  0.052781574            4 
 2783000   0.82017398   -4.1274719     1765.868  0.052876631  0.052769617            6 
 2784000   0.80216258    -4.156594    1764.8093  0.052825949  0.052757672            4 
 2785000    0.7856589   -4.1432223    1773.5238  0.053067738  0.052745637            4 
 2786000   0.77204737    -4.136778    1763.4194  0.052746452  0.052733693            5 
 2787000   0.81074773   -4.1479149    1768.1679   0.05286951  0.052721662            4 
 2788000   0.80792295   -4.1284926    1770.6655  0.052925199  0.052709691            6 
 2789000   0.81292592   -4.1262068    1770.6388  0.052905425  0.052697712            2 
 2790000   0.79674324   -4.1160229    1775.4237   0.05302938  0.052685838            4 
 2791000   0.80532196   -4.1005427    1775.9393  0.053025776  0.052673905            3 
 2792000   0.80249736    -4.123263    1771.5569  0.052875982  0.052662012            6 
 2793000   0.79902316   -4.1562531    1765.8171  0.052685795  0.052650058            4 
 2794000   0.81899519   -4.1793517    1767.4484  0.052715592  0.052638001            3 
 2795000   0.79360373   -4.1433563    1771.1159  0.052806078  0.052625983            5 
 2796000   0.80388186   -4.1243891    1773.6422  0.052862489  0.052614195            4 
 2797000   0.81894494   -4.1424882    1769.3717  0.052716355  0.052602336            4 
 2798000   0.80186036    -4.142245    1776.0474  0.052896338  0.052590483            5 
 2799000   0.80179701   -4.1157302    1778.1167  0.052939047  0.052578563           11 
 2800000   0.81988034    -4.134037    1775.6289  0.052846099  0.052566739            7 
 2801000   0.80202305   -4.1338021    1778.5343  0.052913671  0.052555014            2 
 2802000   0.81493893   -4.1267825    1781.3324  0.052978005  0.052543213            8 
 2803000     0.815803   -4.1430753    1774.1158  0.052744554  0.052531439            3 
 2804000   0.81135321   -4.1362557    1775.5024  0.052766953  0.052519604            2 
 2805000   0.80888405   -4.1303762    1779.5543  0.052868519  0.052507834            4 
 2806000     0.785346   -4.1339916    1776.1568  0.052748777  0.052496165           12 
 2807000   0.80173993   -4.1638201    1776.3757  0.052736483   0.05248435            4 
 2808000   0.80522028   -4.1428817    1781.3657  0.052865792  0.052472579            6 
 2809000   0.80020333   -4.1414248    1780.9272  0.052833962  0.052460938            4 
 2810000   0.80160346   -4.1360632    1787.0902  0.052997931    0.0524493            4 
 2811000   0.79217322   -4.1431854    1783.4664  0.052871648  0.052437543            6 
 2812000   0.81238284    -4.152036    1781.6593  0.052799293  0.052425843            6 
 2813000    0.7944661   -4.1354443    1786.4779   0.05292327  0.052414119            4 
 2814000   0.79372746   -4.1289429    1785.1627  0.052865515  0.052402601            7 
 2815000   0.80029829   -4.1353185    1781.9552  0.052751781  0.052391064            6 
 2816000   0.80760833   -4.1679047    1784.9399  0.052821375  0.052379494            6 
 2817000   0.80421967   -4.1292656    1785.5277  0.052820014  0.052367805            6 
 2818000   0.79631179   -4.1480978    1786.8018  0.052838946  0.052356146            3 
 2819000   0.79504046   -4.1306696    1787.7513  0.052848269  0.052344508            3 
 2820000   0.79820081   -4.1551895    1784.1353  0.052722675  0.052332826            4 
 2821000   0.79844965   -4.1473632    1781.9637  0.052639835  0.052321224            5 
 2822000   0.80246752   -4.1334232    1784.5537  0.052697666  0.052309729            5 
 2823000   0.79493966   -4.1501285    1788.0309   0.05278164  0.052298068            7 
 2824000   0.79209666   -4.1317582    1786.7503  0.052725162  0.052286457            4 
 2825000   0.80446035   -4.1528354    1781.1755  0.052542049  0.052274856            3 
 2826000    0.7981965   -4.1549398    1786.7225  0.052687028  0.052263207            7 
 2827000   0.80541296   -4.1375789    1785.5671  0.052634333  0.052251602            5 
 2828000   0.78997051   -4.1667244    1783.1433  0.052544298  0.052240076           15 
 2829000   0.80459639   -4.1478549    1786.0595  0.052611628  0.052228461            6 
 2830000   0.79326447   -4.1409548     1786.003  0.052591371  0.052216705            7 
 2831000   0.81235087    -4.152575    1787.7339  0.052623747  0.052205146            3 
 2832000   0.78506047   -4.1472243    1789.9014  0.052668943  0.052193649            8 
 2833000   0.79750821   -4.1576215    1781.3923  0.052400054  0.052182002            3 
 2834000   0.81843398    -4.167401    1786.1125  0.052520363  0.052170352            6 
 2835000   0.80010091   -4.1426717    1785.3689   0.05247998  0.052158788            9 
 2836000   0.79014703   -4.1718167    1784.2124  0.052427491  0.052147113           11 
 2837000    0.8000105   -4.1479521    1789.1044  0.052552708  0.052135585            4 
 2838000   0.79219732   -4.1552881     1789.841   0.05255582  0.052123882            6 
 2839000   0.77886276   -4.1704539    1788.8666  0.052508705  0.052112249            7 
 2840000   0.80444254   -4.1622352     1785.853  0.052401789   0.05210046            5 
 2841000   0.80272817   -4.1450755    1785.2492  0.052365634  0.052088674            8 
 2842000   0.79958314    -4.120225    1793.6757   0.05259429  0.052077025            3 
 2843000   0.80875959   -4.0875993    1790.9843  0.052496902  0.052065414            4 
 2844000   0.79063756   -4.1593677    1789.5323  0.052435899   0.05205386            4 
 2845000   0.80478059   -4.1763269    1781.3683  0.052178333  0.052042124            4 
 2846000   0.81447421   -4.1655131    1784.1412  0.052241193  0.052030387            4 
 2847000   0.79962293   -4.1545418    1788.8793  0.052361528  0.052018787           10 
 2848000   0.79608777   -4.1830805    1789.6307  0.052365132  0.052007127            5 
 2849000   0.79353517   -4.1406161    1794.2026  0.052480478  0.051995467            2 
 2850000    0.7930277   -4.1549641    1791.9463   0.05239609  0.051983933            4 
 2851000   0.80632097   -4.1329173    1796.5384  0.052511937  0.051972443            2 
 2852000   0.80078637   -4.1655629    1791.7367  0.052353223  0.051960781            6 
 2853000   0.79137854   -4.1521015    1789.2682  0.052262769  0.051949231            6 
 2854000   0.79265868   -4.1721618     1787.735  0.052199692  0.051937649            8 
 2855000   0.78099677   -4.1423213     1796.227  0.052429277  0.051926092            4 
 2856000   0.80658921    -4.151624    1792.9589  0.052315562  0.051914563           11 
 2857000   0.79056105   -4.1380001     1798.493   0.05245867  0.051903209            6 
 2858000   0.79234772   -4.1518156    1792.0372  0.052252076  0.051891814            7 
 2859000   0.78884641   -4.1740278    1798.4914  0.052421926  0.051880273            5 
 2860000   0.77982058    -4.155319    1796.6591  0.052350208  0.051868851            3 
 2861000   0.81195389   -4.1453072    1795.9651  0.052311696  0.051857345            6 
 2862000   0.79509826   -4.1411064    1790.3729  0.052130588  0.051845803            3 
 2863000   0.79386254   -4.1633339    1789.7702  0.052094837  0.051834188            6 
 2864000   0.80207552   -4.1447948    1793.7856  0.052193482  0.051822641            3 
 2865000   0.80145428   -4.1778624    1800.1405  0.052360107  0.051811102            3 
 2866000   0.80031522    -4.131383    1796.3011  0.052230203   0.05179956            6 
 2867000   0.80371623   -4.1759218    1798.2655  0.052269081   0.05178805            3 
 2868000   0.78463753   -4.1394582    1798.1923   0.05224873  0.051776469            5 
 2869000   0.78754187   -4.1414752    1803.9577  0.052397983  0.051764918            6 
 2870000   0.79648277   -4.1309262    1796.1516  0.052153068  0.051753406            4 
 2871000      0.78577   -4.1732473    1798.3818  0.052199633  0.051741932            5 
 2872000   0.78683224   -4.1531689    1794.5776  0.052071078   0.05173044            2 
 2873000   0.79522415     -4.15639    1794.2631   0.05204383   0.05171897            4 
 2874000   0.80112366   -4.1671911    1800.0969  0.052194875  0.051707526            7 
 2875000   0.78275127   -4.1774685    1791.7953  0.051936095   0.05169594            6 
 2876000   0.79084528    -4.143748     1802.496  0.052228094  0.051684527            6 
 2877000   0.78710362   -4.1577457    1796.0654  0.052023676  0.051673065            4 
 2878000   0.79023153   -4.1609237    1794.9004  0.051971866  0.051661587            9 
 2879000   0.78696292   -4.1794036    1796.6066    0.0520032  0.051649979            7 
 2880000   0.80511746   -4.1600185     1796.517  0.051982553   0.05163836            3 
 2881000   0.78545935   -4.1527366    1793.8132  0.051886302  0.051626722            6 
 2882000   0.80995135    -4.141039    1799.6526  0.052037145  0.051615084            4 
 2883000   0.79672231   -4.1416189     1803.767  0.052138021  0.051603473            4 
 2884000   0.78945593    -4.139479    1797.3156   0.05193353  0.051591796            5 
 2885000   0.79097061   -4.1513214    1796.8939  0.051903348  0.051580109            3 
 2886000   0.80160281   -4.1892901    1794.4483  0.051814748  0.051568337            4 
 2887000   0.80134581   -4.1801536    1796.6569  0.051860551  0.051556558            3 
 2888000   0.77946466   -4.1484213     1804.463  0.052067839  0.051544794            3 
 2889000   0.79036967   -4.1453983    1800.9166  0.051947519  0.051533231            3 
 2890000   0.79158174   -4.1692118    1793.1025  0.051704224  0.051521647            6 
 2891000   0.78888132   -4.1473723    1800.7517  0.051906829  0.051509972            2 
 2892000   0.80534767   -4.1494098    1797.3478  0.051790797  0.051498406            2 
 2893000   0.80816423   -4.1599235    1797.0301  0.051763744  0.051486807            4 
 2894000    0.7671799   -4.1618253     1796.144  0.051720341  0.051475198            3 
 2895000   0.79305586   -4.1806114    1798.0787  0.051758167  0.051463458            4 
 2896000   0.77813694   -4.1653721    1800.6321  0.051813769  0.051451698           13 
 2897000   0.79539192   -4.1547454    1796.3266  0.051672035  0.051439899            9 
 2898000    0.7941866   -4.1999435    1796.6903  0.051664662  0.051428166            5 
 2899000   0.79889833   -4.1393309    1803.5456  0.051843899  0.051416511            3 
 2900000   0.77977242   -4.1722207    1804.3585  0.051849382  0.051404905            6 
 2901000   0.78951768   -4.1561746    1800.8684  0.051731253   0.05139313            6 
 2902000   0.77834282   -4.1680262     1800.485  0.051702418  0.051381473            4 
 2903000   0.78114588   -4.1595089    1801.7341  0.051720464  0.051369816            4 
 2904000   0.78476418   -4.1476476    1809.3481  0.051921146  0.051358348            4 
 2905000   0.80197285   -4.1499835    1808.6883  0.051884347  0.051346787            3 
 2906000   0.77756128   -4.1797991    1802.0715  0.051676747  0.051335151            5 
 2907000   0.77565881    -4.148613    1808.1059  0.051831954  0.051323487            3 
 2908000   0.78074322   -4.1634075    1806.4442  0.051766512  0.051312025            7 
 2909000   0.78925584    -4.192085    1804.8361   0.05170265  0.051300485           17 
 2910000   0.78697611   -4.1846448    1800.6975  0.051566367  0.051289062            9 
 2911000   0.80281628     -4.18849    1808.8178  0.051781111  0.051277444            6 
 2912000   0.78529387   -4.1783628    1804.3939  0.051636729  0.051265987            4 
 2913000   0.78627725   -4.1761764    1806.1053  0.051667962  0.051254418            4 
 2914000   0.80785612    -4.179803     1806.028   0.05164802  0.051243031           10 
 2915000    0.7986197   -4.1552437    1806.5874  0.051646294  0.051231479            4 
 2916000   0.77031691   -4.1596646    1814.5741  0.051856828  0.051220046            4 
 2917000   0.77641149   -4.2000323     1803.449  0.051521226  0.051208586            4 
 2918000   0.77512415   -4.2059425      1803.87  0.051515594  0.051197093            3 
 2919000    0.7701376   -4.1839491     1804.918  0.051527864  0.051185516            4 
 2920000   0.78694986   -4.1730937    1811.4446  0.051696478  0.051173963            4 
 2921000   0.78344088   -4.1717696    1807.8365  0.051575844  0.051162524            4 
 2922000   0.77996652   -4.1896434    1812.5693   0.05169317  0.051151184            3 
 2923000   0.78555362   -4.1825014     1810.332  0.051611699  0.051139782            8 
 2924000   0.79214143   -4.1606306    1812.9688  0.051669196   0.05112837            5 
 2925000   0.77068116   -4.1901022    1810.5546  0.051582752  0.051117057            5 
 2926000   0.79166011   -4.1635838    1811.2555  0.051585085  0.051105731            6 
 2927000   0.77328219   -4.1649001    1806.4169  0.051429703  0.051094414            5 
 2928000    0.7786123   -4.1717362    1809.4288   0.05149786  0.051083103            6 
 2929000   0.79366721   -4.1909305    1809.9203  0.051494261  0.051071654            4 
 2930000   0.77904072   -4.1736455    1806.4525  0.051378057  0.051060197            3 
 2931000   0.77665009   -4.1718263    1820.0594  0.051747396   0.05104877           13 
 2932000    0.7762983   -4.1904702    1803.2104  0.051250864  0.051037445            6 
 2933000   0.78070422   -4.1696641    1813.8666  0.051536157  0.051026151            3 
 2934000   0.77393961   -4.1599294    1815.2742  0.051558573  0.051014873            5 
 2935000   0.78490047   -4.1939538    1813.6107  0.051493775  0.051003441           10 
 2936000   0.79216456   -4.1777823    1808.0347  0.051317971  0.050991962            9 
 2937000     0.785856   -4.1748637    1811.1503  0.051388898  0.050980626            4 
 2938000   0.77353229   -4.1572867    1816.9055  0.051534647  0.050969301            5 
 2939000   0.77707623   -4.2102905    1816.0686  0.051493382  0.050957926            8 
 2940000   0.77868745   -4.2101723    1813.3558  0.051398975  0.050946472            6 
 2941000   0.77049927   -4.1820244    1817.8666  0.051509311   0.05093512            3 
 2942000   0.77416448   -4.1688001    1815.8599  0.051434962  0.050923758            6 
 2943000    0.7787256   -4.1796304    1818.0027  0.051478159  0.050912512            5 
 2944000   0.77655626    -4.196484    1810.8124  0.051257145  0.050901236            5 
 2945000   0.77207396   -4.1979669    1817.0465  0.051416144  0.050889759            3 
 2946000    0.7784447   -4.2006623    1813.4685  0.051297479   0.05087837            4 
 2947000   0.77935049   -4.1735764    1818.5694  0.051424314  0.050867072            6 
 2948000   0.78221078   -4.1537159    1815.1632  0.051310584  0.050855661            3 
 2949000   0.78053206   -4.1929321     1816.374  0.051327399  0.050844346            4 
 2950000   0.77429689   -4.1849305    1816.9634   0.05132665  0.050832935           12 
 2951000   0.77484192   -4.2009049    1812.7763  0.051191017  0.050821612            3 
 2952000     0.783514   -4.1936208    1810.5746  0.051111523   0.05081028            3 
 2953000    0.7799077   -4.2037763     1812.164  0.051139067  0.050798916            3 
 2954000   0.76959118   -4.1928746    1815.1379   0.05120565  0.050787481            5 
 2955000   0.78686661   -4.1934381    1810.3938  0.051054536   0.05077614            3 
 2956000   0.77669211   -4.1745789    1816.5701  0.051211381  0.050764835            9 
 2957000    0.7813179   -4.1922024    1814.8778  0.051146372  0.050753655            3 
 2958000   0.78929911   -4.2079448    1813.9987  0.051104313  0.050742351            6 
 2959000   0.77786168   -4.2059318     1817.042  0.051172748  0.050731043            3 
 2960000    0.7739295   -4.1888747    1822.0772  0.051297218  0.050719803            3 
 2961000   0.78190379   -4.1919259    1819.6017  0.051210226  0.050708544            6 
 2962000   0.78517594   -4.1809181    1828.2986  0.051437616  0.050697218            3 
 2963000   0.77509412   -4.2035688    1821.7161  0.051235124  0.050685996            8 
 2964000   0.77615991   -4.1825063    1823.1526  0.051258227  0.050674862            4 
 2965000   0.77795664   -4.1475225     1832.859  0.051513744  0.050663738            3 
 2966000   0.77110931   -4.1881477    1821.0573  0.051164793  0.050652597            3 
 2967000   0.78504694   -4.1696695    1824.5398  0.051245361  0.050641532            4 
 2968000   0.77148738   -4.1849241    1820.3924  0.051111647   0.05063056            3 
 2969000   0.78352084     -4.18684    1820.2954   0.05109171  0.050619431           10 
 2970000   0.79495324   -4.1990421    1825.7767  0.051228302  0.050608224            4 
 2971000   0.78088202   -4.2079717    1829.8796  0.051326141  0.050597248            9 
 2972000   0.78118188   -4.2170798    1819.6447  0.051021891  0.050586157            8 
 2973000   0.79363628    -4.203932    1824.6025  0.051143697  0.050574987            2 
 2974000   0.78553185   -4.1963131    1821.8249  0.051048668   0.05056396            5 
 2975000    0.7898366   -4.2078728    1820.3444  0.050990039  0.050552871            6 
 2976000   0.78953824   -4.1852458    1830.7571  0.051264481  0.050541728            3 
 2977000   0.76294344   -4.1916857    1824.5845  0.051074472  0.050530564            6 
 2978000   0.77155475    -4.179272    1828.9394  0.051179187  0.050519494            5 
 2979000   0.75540794   -4.1851061    1826.6434   0.05109778  0.050508465            4 
 2980000   0.77648479   -4.1833778    1828.1186  0.051121884  0.050497499            3 
 2981000   0.77879844    -4.171117    1829.3746  0.051139846  0.050486484            5 
 2982000   0.77323181   -4.2033802    1825.6458  0.051018495  0.050475423            6 
 2983000   0.77911475   -4.1866252     1832.786  0.051200859  0.050464458            5 
 2984000   0.77330095   -4.1947385    1827.0374  0.051023161  0.050453413            5 
 2985000    0.7665351   -4.1806633    1834.6198  0.051217751  0.050442428            8 
 2986000   0.77568061    -4.184658    1831.2665  0.051107012   0.05043149            3 
 2987000   0.77119393   -4.1869582    1826.6253  0.050960419  0.050420544            9 
 2988000   0.77924868   -4.2042892    1827.7455  0.050974608  0.050409427            4 
 2989000   0.77458826    -4.189116      1828.13  0.050968272  0.050398427           19 
 2990000   0.78171186   -4.1990227    1838.7792  0.051248027  0.050387451            4 
 2991000   0.76299414   -4.1884492    1836.9559  0.051180094  0.050376548            7 
 2992000   0.78983913   -4.2016095    1829.6237  0.050958772  0.050365443            8 
 2993000   0.78302481   -4.2123449    1825.8989  0.050838037  0.050354387            5 
 2994000   0.80521369    -4.171075    1831.9413  0.050989237  0.050343415            5 
 2995000     0.763234   -4.2169185    1829.2899   0.05089844  0.050332346            3 
 2996000   0.78496736   -4.1822795     1835.097  0.051042974  0.050321307            4 
 2997000   0.77298235   -4.1896591    1831.4707  0.050925111  0.050310295           12 
 2998000   0.74756154   -4.2098413    1828.9069   0.05083686  0.050299339            3 
 2999000   0.77784433   -4.1894094    1833.5222  0.050948155  0.050288278            2 
 3000000     0.758815   -4.2152476    1824.2294  0.050673038  0.050277222            2 
 3001000   0.76941927   -4.2298105    1832.6557  0.050890139  0.050266178           10 
 3002000   0.75112933   -4.1867713    1831.7138  0.050847041  0.050255175            1 
 3003000   0.76536173   -4.1850067    1833.4453  0.050878159  0.050244021            6 
 3004000   0.75982726    -4.193946    1837.0214  0.050960424  0.050233174            8 
 3005000   0.76354642   -4.1997146    1835.5671  0.050903136  0.050222151            7 
 3006000   0.76767605   -4.2197167    1832.3914  0.050798164  0.050211074            5 
 3007000   0.77237647   -4.2266321    1830.1459  0.050719043  0.050199989            6 
 3008000    0.7792324   -4.2401663    1829.6468  0.050688353  0.050188888            7 
 3009000   0.78530896   -4.1851213     1836.949  0.050873739   0.05017785            3 
 3010000   0.77689403   -4.1601131    1834.6921  0.050794356  0.050166803            3 
 3011000   0.75823527   -4.1864478    1832.1533  0.050707222  0.050155758            5 
 3012000   0.78443212   -4.1731659    1834.4756  0.050754638  0.050144823            4 
 3013000   0.75015111   -4.2081593    1827.8829  0.050555453  0.050133723            4 
 3014000   0.77851655   -4.2023201    1834.3967  0.050718778  0.050122592            9 
 3015000   0.75111009   -4.2010607    1832.7771  0.050657188  0.050111444            6 
 3016000   0.77439394   -4.2270629    1830.5586  0.050579095  0.050100336            4 
 3017000    0.7720984   -4.2006784    1840.2804  0.050830859  0.050089091            2 
 3018000   0.77504233   -4.2183868    1829.8257  0.050525339  0.050077948            5 
 3019000   0.78926491   -4.1940035    1835.4915  0.050664996  0.050066729            5 
 3020000   0.77522196   -4.2155714    1833.6119  0.050596356  0.050055616            6 
 3021000   0.75332804    -4.203703    1831.7517  0.050528295  0.050044541            5 
 3022000   0.75677748   -4.2311844     1833.051  0.050547402   0.05003338            8 
 3023000   0.76224808   -4.2040522    1840.1525  0.050726445  0.050022436            4 
 3024000   0.75124017   -4.1793922    1842.8647  0.050784412   0.05001145            5 
 3025000   0.76581116   -4.1977913    1836.2675  0.050585882  0.050000405            4 
 3026000   0.76902411   -4.2143729    1838.4768  0.050630008  0.049989255            5 
 3027000   0.76726202   -4.2200952      1834.91  0.050515088  0.049978149            3 
 3028000    0.7669208   -4.1772293    1838.8805  0.050607676  0.049966976            5 
 3029000    0.7551023   -4.2060136    1837.5541  0.050554475  0.049956006            5 
 3030000    0.7577688   -4.2176623    1838.9162  0.050575253  0.049944764            5 
 3031000   0.78073856   -4.2025972    1838.4489  0.050545721  0.049933496            4 
 3032000   0.75330105    -4.195974    1838.9576  0.050543029  0.049922293           13 
 3033000   0.76577575   -4.2072239    1832.2314  0.050341559  0.049911099            6 
 3034000   0.77148861   -4.2273926    1832.7196  0.050338376  0.049899874            7 
 3035000   0.77491825   -4.1979572    1836.9427  0.050437746  0.049888553            5 
 3036000   0.76073298   -4.1781249    1838.6879  0.050469034    0.0498773            3 
 3037000   0.77005056   -4.1959082    1835.3471  0.050360747  0.049866014            4 
 3038000    0.7672776   -4.1979959    1838.5215  0.050431246  0.049854803            7 
 3039000   0.79628677   -4.2113513    1836.5318  0.050360091  0.049843571            4 
 3040000   0.77161761    -4.218363    1832.7188  0.050239003  0.049832285            5 
 3041000   0.75126726   -4.2005662    1834.1176  0.050260813   0.04982103            4 
 3042000   0.78108093   -4.2006277    1839.4909  0.050391488  0.049809926            9 
 3043000   0.77165525   -4.1949019    1837.5395  0.050321489  0.049798824            5 
 3044000   0.76500396   -4.1993797    1840.1916  0.050377563  0.049787657            4 
 3045000   0.77625426   -4.1751263    1839.7898  0.050350023  0.049776425           10 
 3046000    0.7641486   -4.2119727    1847.8753  0.050554699  0.049765285            4 
 3047000   0.76297055   -4.1869735    1839.2735  0.050302852  0.049754122            7 
 3048000   0.74788762   -4.2067574     1831.991  0.050087244   0.04974293            7 
 3049000   0.75435609   -4.2022007    1846.2211  0.050459745   0.04973174            5 
 3050000   0.75650828   -4.2071411    1839.9342  0.050271427  0.049720623            5 
 3051000   0.77366539   -4.2094517    1834.4367  0.050104794  0.049709318           10 
 3052000   0.78452815   -4.2021332    1839.0603  0.050214622  0.049698075            5 
 3053000   0.76122321   -4.1892173    1846.8073  0.050409634  0.049686964            5 
 3054000   0.76550761   -4.1857751    1838.6091  0.050169426  0.049675799            5 
 3055000   0.76570438   -4.2198713    1840.4999  0.050204579  0.049664464           10 
 3056000   0.75169751   -4.1703212    1840.8404  0.050197437  0.049653215            6 
 3057000   0.76720748   -4.2218701    1840.6309  0.050175305  0.049642075            8 
 3058000   0.78094257    -4.206901     1843.691  0.050242288  0.049630828            3 
 3059000   0.77083491   -4.2242998    1842.5934  0.050195964  0.049619592            4 
 3060000   0.76446714   -4.2259047    1839.2709  0.050089078  0.049608289            9 
 3061000   0.75906651   -4.2284193    1842.7033  0.050166158  0.049596955            6 
 3062000   0.75148114   -4.2162559    1839.5936  0.050065143  0.049585771            3 
 3063000   0.76051163   -4.2146581    1841.5957  0.050103268  0.049574437            3 
 3064000   0.75736934   -4.2310957    1839.4932  0.050029731  0.049563146            4 
 3065000   0.77612202   -4.1934286    1840.6031  0.050043586  0.049551838           16 
 3066000   0.74141301   -4.2137841    1840.7685   0.05003176  0.049540694            5 
 3067000   0.75071095   -4.2192997    1843.6944  0.050094947  0.049529481            6 
 3068000   0.77543675   -4.2229637    1846.2793  0.050148829   0.04951823            4 
 3069000   0.75646755   -4.2356089    1836.2398  0.049859884  0.049506948            5 
 3070000   0.76475326    -4.226351    1845.0918  0.050083924  0.049495622            4 
 3071000   0.76654096    -4.181671    1847.9281  0.050144581  0.049484454            7 
 3072000   0.74707992   -4.2120739    1845.3802   0.05005914  0.049473179            6 
 3073000    0.7599571   -4.2167346    1844.7745  0.050026426  0.049462002            5 
 3074000   0.75184777   -4.1758497    1843.9686  0.049988305  0.049450746            5 
 3075000   0.75256559   -4.2009456    1847.2736  0.050061614   0.04943954            5 
 3076000   0.75217358    -4.224944    1845.8831  0.050007669  0.049428304            2 
 3077000   0.75563371   -4.1921826    1843.3283  0.049922226  0.049417059            3 
 3078000   0.77413324   -4.2187933    1845.6933  0.049970037  0.049405881           18 
 3079000   0.77010716   -4.2194617    1844.4034  0.049918897  0.049394695           15 
 3080000   0.75633646   -4.2221332    1846.7811  0.049967022  0.049383497            5 
 3081000   0.77073433   -4.2055389     1846.526  0.049943903  0.049372271            6 
 3082000   0.75812563    -4.224489    1844.2647  0.049866555  0.049361122           15 
 3083000   0.74654818   -4.2152529    1839.8885  0.049732093  0.049350006            6 
 3084000   0.75446309   -4.2346315    1843.6397  0.049817329  0.049338863            4 
 3085000   0.75042558   -4.2123616     1841.517  0.049743841  0.049327628            6 
 3086000   0.75475983   -4.2184686    1848.9465  0.049928346  0.049316458            6 
 3087000   0.73943718   -4.2017123    1847.4341  0.049871344  0.049305219           14 
 3088000   0.75569587   -4.2169851    1842.4129  0.049719692   0.04929386            4 
 3089000   0.76531376   -4.2305203    1838.7757  0.049605474  0.049282571            5 
 3090000   0.75097314   -4.2096101     1848.322  0.049846872  0.049271319            7 
 3091000   0.75597023   -4.2478661    1841.1927  0.049638538  0.049260085            6 
 3092000    0.7696925   -4.2169525    1851.4078  0.049897797   0.04924882            8 
 3093000   0.75139444    -4.199239    1850.2854  0.049851422  0.049237586            8 
 3094000   0.74790665   -4.2114669    1846.0461  0.049721131  0.049226368            7 
 3095000   0.74391498   -4.2405421    1841.4295  0.049580761  0.049215139            5 
 3096000   0.76343277   -4.2452497    1849.6952  0.049787232  0.049203853            4 
 3097000   0.78521533   -4.2296941    1847.5191  0.049712602  0.049192685            5 
 3098000   0.75139299    -4.209143    1843.4294  0.049586544  0.049181569            4 
 3099000   0.75264864   -4.2453308    1845.5341  0.049627139  0.049170363            7 
 3100000   0.76985526   -4.2248333    1851.3105   0.04976641  0.049159142            4 
 3101000   0.74804928   -4.2064094    1848.0814  0.049663588  0.049147941            5 
 3102000   0.75334795   -4.2336739    1850.5621  0.049714219  0.049136727            6 
 3103000   0.75991315   -4.2337626    1852.6329  0.049753812  0.049125577            4 
 3104000   0.75225162   -4.2330674    1849.3931  0.049650803  0.049114352            5 
 3105000    0.7536091    -4.222809    1843.5676  0.049478464  0.049103188            5 
 3106000   0.75370593   -4.2210901    1845.3346  0.049509944  0.049091909            5 
 3107000   0.74778071   -4.2243373    1848.7623  0.049585944  0.049080727            6 
 3108000   0.76193994   -4.2246808     1850.644  0.049620442  0.049069493            6 
 3109000   0.75262691   -4.2228098     1851.033  0.049614908  0.049058305            7 
 3110000   0.75748593   -4.2337256    1852.7871  0.049645956  0.049047133            6 
 3111000   0.77167438    -4.218195     1852.024  0.049609559  0.049035925            8 
 3112000   0.75427651   -4.2483891    1845.7835  0.049426508  0.049024731            7 
 3113000    0.7459903   -4.2048412     1852.608  0.049593319  0.049013593            3 
 3114000   0.75137292   -4.2604772    1850.0384  0.049508628   0.04900246            3 
 3115000   0.76221552   -4.2278726    1850.2269  0.049497776  0.048991182            8 
 3116000   0.74865944   -4.2354276    1852.4817  0.049542194  0.048979934            5 
 3117000   0.75252102     -4.24507    1853.4661  0.049552618  0.048968824            7 
 3118000   0.74962237   -4.2339543    1856.0879  0.049606796  0.048957763            3 
 3119000   0.74867777   -4.2229213    1851.3062  0.049463135  0.048946552            5 
 3120000   0.76397634   -4.2412965    1851.8926  0.049462942  0.048935373            6 
 3121000   0.74954628   -4.2313118    1851.0955  0.049425813  0.048924226            4 
 3122000   0.74227765   -4.2089001    1857.8246  0.049589595  0.048913071            6 
 3123000   0.74045067    -4.257214     1852.616  0.049434732  0.048901936           10 
 3124000   0.74893944   -4.2465536     1853.626  0.049445849  0.048890701            7 
 3125000   0.75417156   -4.2598593    1852.9403  0.049411741  0.048879545            5 
 3126000    0.7625512   -4.2439721    1857.4874  0.049517152  0.048868381            6 
 3127000   0.74340058    -4.237971    1848.9747  0.049274457  0.048857142            7 
 3128000   0.76448446   -4.2417633    1854.9785   0.04941865  0.048846079            5 
 3129000   0.75861248   -4.2280949    1851.3854  0.049307163  0.048834867           10 
 3130000   0.73986967   -4.2549381    1857.3708  0.049450767  0.048823616            9 
 3131000   0.73586967   -4.2448631    1855.3389  0.049380893  0.048812386           10 
 3132000   0.73911103   -4.2498561    1857.0038  0.049409424  0.048801314            5 
 3133000   0.73787246   -4.2634261    1858.8208  0.049441983  0.048790228            8 
 3134000   0.74408125   -4.2538524    1854.7104  0.049316912  0.048779233            4 
 3135000   0.74848553   -4.2437523    1862.4179  0.049506058  0.048768195            3 
 3136000   0.74271646   -4.2374303    1862.7228  0.049498374  0.048757173            8 
 3137000   0.75184294   -4.2434948    1856.1077  0.049306868  0.048746088            7 
 3138000   0.76684278   -4.2416104    1861.7107  0.049439949  0.048735027            8 
 3139000   0.74807761   -4.2341376    1860.3546  0.049388196  0.048724012            5 
 3140000   0.73431613    -4.236263    1860.6352  0.049379914   0.04871295            5 
 3141000   0.75321769   -4.2471187    1856.6823  0.049259321  0.048701897            5 
 3142000   0.75419283   -4.2298704    1860.2804  0.049339072  0.048690832            6 
 3143000   0.74935258   -4.2347738    1859.0196  0.049289945  0.048679852            5 
 3144000   0.75796079   -4.2304135    1860.5129   0.04931385   0.04866893            6 
 3145000   0.76165184   -4.2121667    1863.8565  0.049386764  0.048657997            5 
 3146000   0.74254091    -4.258897    1855.3541   0.04914585  0.048647087            6 
 3147000   0.75866527   -4.2216698    1861.1852  0.049284641   0.04863611            4 
 3148000   0.75798813   -4.2384235     1857.176  0.049162854   0.04862513            7 
 3149000   0.73805519   -4.2438121    1857.1874  0.049147545  0.048614133            9 
 3150000   0.72478843   -4.2562351     1858.544   0.04916783  0.048603102            7 
 3151000   0.72334172   -4.2288146    1856.8478  0.049107369  0.048592105            5 
 3152000   0.74176879   -4.2145124    1859.5007  0.049161926  0.048581123           10 
 3153000   0.73850166   -4.2427299    1859.5126  0.049146648  0.048570108           13 
 3154000   0.73706304   -4.2249824    1856.4809  0.049050963  0.048559016            5 
 3155000    0.7484191   -4.2277637    1860.8134  0.049149853  0.048547945            4 
 3156000   0.74836787   -4.2370554    1858.1475  0.049063887  0.048536917           11 
 3157000   0.74418221    -4.254258    1858.5633  0.049059321  0.048525778           11 
 3158000   0.75984831   -4.2563039    1857.3961  0.049012986  0.048514577            5 
 3159000   0.76217349   -4.2389044    1860.4668  0.049078474  0.048503503           10 
 3160000   0.73541144   -4.2229398    1861.3242  0.049085554  0.048492442            3 
 3161000   0.74920518   -4.2323969    1863.1375   0.04911783  0.048481346           11 
 3162000   0.73139637   -4.2418391    1857.5353  0.048954651  0.048470145            6 
 3163000   0.75550278   -4.2461844    1858.9789  0.048977208  0.048458904           10 
 3164000   0.74912626    -4.261248    1860.8768  0.049011715  0.048447696            6 
 3165000   0.75087673   -4.2350522    1858.8599  0.048943126  0.048436463            5 
 3166000    0.7317472   -4.2424546    1854.2279  0.048805747  0.048425227            3 
 3167000   0.74916541   -4.2597853    1858.4008  0.048900136  0.048414021            4 
 3168000   0.75129677    -4.234617    1861.5978  0.048968798  0.048402767            7 
 3169000   0.75075444   -4.2636859     1860.094    0.0489138  0.048391638            4 
 3170000   0.72611514   -4.2658003    1856.5403  0.048804949  0.048380352            5 
 3171000    0.7421394   -4.2673871    1860.0597  0.048882048  0.048369115            7 
 3172000   0.74189073   -4.2266182    1859.0062  0.048838961  0.048357955            6 
 3173000   0.72911392   -4.2636282    1855.7638  0.048738412   0.04834668            7 
 3174000   0.73850642   -4.2631439    1862.9697  0.048912248  0.048335564            5 
 3175000   0.74918403   -4.2221181    1867.2466  0.049009097  0.048324444            4 
 3176000   0.75205135   -4.2574073    1859.1822  0.048782068  0.048313207            5 
 3177000   0.74277496   -4.2557794    1859.2618  0.048768802  0.048301892            6 
 3178000   0.73861458   -4.2551878    1860.5111  0.048786214  0.048290707           12 
 3179000   0.75743924   -4.2627663    1861.1632  0.048787963  0.048279434            4 
 3180000   0.73725093   -4.2573428    1860.7137  0.048760842  0.048268223            9 
 3181000   0.74442266   -4.2472823    1864.5093  0.048844946  0.048256987            9 
 3182000   0.75088395   -4.2439856    1862.7404  0.048783271  0.048245807            3 
 3183000   0.74267397   -4.2501539    1863.5831  0.048790007  0.048234495            4 
 3184000   0.73462219   -4.2733232     1855.622  0.048566322  0.048223245            4 
 3185000   0.73661118   -4.2524264    1855.4277   0.04854599  0.048211884           11 
 3186000   0.75167896   -4.2427272    1860.1298   0.04865374  0.048200585            8 
 3187000   0.74203616   -4.2539504    1859.9633   0.04863412  0.048189323            9 
 3188000   0.72652936   -4.2343832    1864.0616  0.048725992  0.048178044            8 
 3189000   0.75478129   -4.2359605    1861.5993  0.048646371   0.04816681           11 
 3190000   0.74369856   -4.2583679    1857.7949  0.048531738  0.048155641            5 
 3191000   0.73402823   -4.2431639    1865.8109  0.048725867   0.04814435            7 
 3192000   0.73431235    -4.267725    1867.5194  0.048755205  0.048133094            4 
 3193000   0.75333358   -4.2422068     1868.168  0.048756863   0.04812183            4 
 3194000   0.73931625    -4.270028    1861.7414  0.048573926  0.048110518            8 
 3195000   0.74633764    -4.264814    1861.9352  0.048563776   0.04809926            6 
 3196000   0.73423618   -4.2594934    1862.4484  0.048561963  0.048087932            6 
 3197000   0.72328372   -4.2566783    1862.5629  0.048549757  0.048076675            3 
 3198000   0.73648078   -4.2558326    1862.5005  0.048532951  0.048065454            5 
 3199000   0.72222215   -4.2658376    1868.3225  0.048669442  0.048054202            2 
 3200000   0.76272825   -4.2570267    1863.0922  0.048518027  0.048042996            4 
 3201000   0.75297463    -4.265303    1862.7854  0.048494882   0.04803181            3 
 3202000   0.74353837   -4.2567641    1864.2161  0.048516972  0.048020621            3 
 3203000   0.74717877   -4.2583748    1867.5817  0.048589389  0.048009389            4 
 3204000   0.74652233   -4.2555865    1865.8237  0.048528498  0.047998142            9 
 3205000   0.74872795   -4.2386037    1865.3205  0.048500272  0.047986983            4 
 3206000   0.73268741   -4.2645328    1859.2908  0.048328416  0.047975724            6 
 3207000   0.73838476   -4.2465573    1861.9422  0.048382243  0.047964549            4 
 3208000   0.73742618   -4.2658933    1864.5795  0.048435668  0.047953251            7 
 3209000   0.74154021   -4.2665405    1866.2668  0.048464393  0.047941963            5 
 3210000   0.74854282   -4.2746426    1867.3132  0.048476458  0.047930675            5 
 3211000   0.73771813   -4.2426724    1864.5068  0.048388529  0.047919376            8 
 3212000   0.73896866   -4.2680531    1861.6564  0.048299512  0.047908121            5 
 3213000   0.74564126   -4.2392215    1872.0572  0.048554238  0.047896894            7 
 3214000   0.73967538   -4.2507148    1866.0875  0.048384347  0.047885821            6 
 3215000   0.72731733   -4.2691798    1867.3837  0.048402894  0.047874657            4 
 3216000   0.73665173   -4.2570615    1864.7619  0.048319908  0.047863427           10 
 3217000   0.73146624   -4.2884175    1866.2949  0.048344599   0.04785233            9 
 3218000   0.74082192   -4.2559447    1862.7453  0.048237656  0.047841211            6 
 3219000   0.72343542   -4.2847485    1866.1883  0.048311801  0.047830097            7 
 3220000   0.73497827   -4.2601131    1864.1869  0.048245002  0.047818944            9 
 3221000   0.75924771   -4.2569373    1865.1508  0.048254963   0.04780781           13 
 3222000   0.74268524   -4.2604705    1873.2982  0.048450709  0.047796642            5 
 3223000   0.74084693    -4.274213    1868.2621  0.048305464  0.047785472            4 
 3224000   0.73356831    -4.258339    1869.9692  0.048334604  0.047774348           12 
 3225000   0.72903951   -4.2659786    1874.6066  0.048439447  0.047763319            4 
 3226000   0.74841761   -4.2808946    1868.4584  0.048265612  0.047752215            4 
 3227000   0.74804486   -4.2352409    1871.3634  0.048325675  0.047741141            7 
 3228000   0.75357428   -4.2711002    1870.1434  0.048279208  0.047730068           14 
 3229000   0.74184995   -4.2701587    1869.1015  0.048237368   0.04771893            8 
 3230000   0.73093571   -4.2542234    1876.5446  0.048414464  0.047707851            3 
 3231000   0.74201018   -4.2506759    1871.3881  0.048266482  0.047696716            8 
 3232000   0.75459173   -4.2847232    1874.8729  0.048341401  0.047685523            6 
 3233000   0.75380169   -4.2592056    1870.1615  0.048205009  0.047674393            4 
 3234000   0.73551422   -4.2363895    1876.8612  0.048362739  0.047663372            7 
 3235000   0.73367296   -4.2613346    1871.7915  0.048217195  0.047652385            6 
 3236000   0.73160437   -4.2576364    1873.1606  0.048237553  0.047641353            7 
 3237000   0.75059718   -4.2618312    1871.1246  0.048170234   0.04763044            7 
 3238000   0.75790494   -4.2612976    1869.5104  0.048113815  0.047619421            3 
 3239000   0.73917832   -4.2706652    1874.2297  0.048220378  0.047608434            5 
 3240000   0.74118941   -4.2650334    1865.9105  0.047991525  0.047597372            5 
 3241000   0.73640524   -4.2456187    1875.8449  0.048232154  0.047586306            8 
 3242000   0.72032563   -4.2744276    1872.9001  0.048141582  0.047575176            8 
 3243000   0.72814947   -4.2769817    1871.4518  0.048089521  0.047564072            8 
 3244000   0.71406545   -4.2725656    1876.4487  0.048203058  0.047552982            4 
 3245000   0.71946014   -4.3004916    1873.5939  0.048114892  0.047541903            7 
 3246000   0.73970757    -4.256651    1875.3574  0.048145342   0.04753078            2 
 3247000   0.73873381   -4.2770218    1872.2962   0.04805195  0.047519717            7 
 3248000   0.73300844   -4.2701721    1873.7099  0.048073428  0.047508651            4 
 3249000   0.72675622   -4.2890871    1866.7765  0.047880797  0.047497509            6 
 3250000   0.73691224   -4.2595646    1877.9325  0.048152114  0.047486404            7 
 3251000   0.71655792   -4.2803981    1879.5609  0.048179046  0.047475272           17 
 3252000    0.7358313   -4.2948324     1873.245  0.048002382  0.047464143            5 
 3253000   0.73655645    -4.277693    1872.8776  0.047978215  0.047452984            8 
 3254000   0.73079489    -4.250557    1871.6985  0.047933275  0.047441964            6 
 3255000   0.73161685   -4.2765017    1868.0484  0.047825101  0.047430784            4 
 3256000    0.7358378    -4.249069    1872.9164  0.047935002  0.047419572           10 
 3257000   0.71223593   -4.2598517    1875.9293  0.047997372  0.047408468            6 
 3258000   0.72739995   -4.2622362    1878.7149  0.048053891  0.047397371            8 
 3259000   0.71224352   -4.2645528    1874.1136  0.047921488  0.047386203            5 
 3260000    0.7094508   -4.2893543    1875.1575  0.047933473  0.047375112            9 
 3261000   0.73721339   -4.2925478    1873.1075  0.047866388   0.04736413            4 
 3262000   0.73767614    -4.245273    1875.3379  0.047908695  0.047353114           22 
 3263000   0.72736906   -4.2918731    1877.5492  0.047950484  0.047342088            8 
 3264000   0.74098482    -4.275644    1873.9427  0.047843717  0.047331043            4 
 3265000   0.71816827   -4.2592993    1874.3777  0.047840166  0.047319993            5 
 3266000   0.73058875   -4.2618419    1880.7348  0.047987723  0.047308976            6 
 3267000   0.72706011   -4.2759135    1883.7444  0.048049801  0.047297967            5 
 3268000   0.73091335   -4.2530138     1881.134  0.047968534  0.047286985            5 
 3269000   0.74158129   -4.2838584    1873.8092  0.047767134  0.047275908            7 
 3270000    0.7176655   -4.2873886    1878.4003  0.047869529  0.047264853            7 
 3271000   0.72740328   -4.2329182      1880.35  0.047904566  0.047253851            4 
 3272000   0.73897372    -4.260551    1878.2598   0.04783669  0.047242898            6 
 3273000    0.7509126   -4.2334233    1883.3192  0.047950892  0.047231957           13 
 3274000   0.73369368   -4.2587821    1885.6454  0.047995454  0.047220996            8 
 3275000   0.72921891    -4.296778    1874.1977  0.047689508  0.047209956            4 
 3276000   0.73299299   -4.2848789    1879.5229  0.047810411  0.047198949           13 
 3277000   0.72788379   -4.2789319    1874.5558   0.04766951  0.047187913            7 
 3278000   0.71056922   -4.2876536    1877.0293  0.047717848  0.047176905            9 
 3279000    0.7334107   -4.3066067    1879.4255  0.047764193  0.047165851           10 
 3280000   0.73518738   -4.2855079    1880.1265  0.047767442  0.047154804            4 
 3281000    0.7261243   -4.2843346    1880.8476  0.047771197  0.047143722            7 
 3282000   0.71615125   -4.2674233    1876.8738  0.047655744  0.047132746            4 
 3283000   0.73315422   -4.2856831    1882.6233  0.047787168  0.047121785            5 
 3284000   0.72382358   -4.2945694    1877.2097  0.047635244  0.047110718            7 
 3285000   0.71830754   -4.2871668    1875.1713  0.047569032  0.047099624            6 
 3286000     0.741466   -4.2894667    1880.1996  0.047682077  0.047088551            4 
 3287000    0.7274797   -4.2816495    1882.1114  0.047716038   0.04707755            4 
 3288000   0.73526793   -4.3086877    1877.6525  0.047588517  0.047066546           11 
 3289000   0.72689146   -4.2937129     1877.538  0.047571146  0.047055474            7 
 3290000    0.7335544   -4.2912462    1878.7693  0.047587875  0.047044366            8 
 3291000   0.73171469   -4.2708204    1877.7769  0.047548286   0.04703334            5 
 3292000   0.74326298   -4.2891663    1878.4765  0.047551552  0.047022291           10 
 3293000   0.72166769   -4.2667017    1883.1343  0.047654984  0.047011316            6 
 3294000   0.73236959   -4.2954334    1882.4283  0.047622655  0.047000321            6 
 3295000   0.73845471   -4.2932202    1881.3096  0.047579908  0.046989191            3 
 3296000   0.73063824   -4.2928326    1882.7352  0.047601516   0.04697815           11 
 3297000   0.71950413   -4.2632003     1883.423  0.047604463  0.046967146            3 
 3298000   0.72246572    -4.294997    1882.7807    0.0475738  0.046956116           11 
 3299000    0.7228412   -4.3105536    1886.0233  0.047641288  0.046945083            8 
 3300000   0.70211296   -4.2896875    1880.3404  0.047483344  0.046933965            5 
 3301000   0.72779349   -4.2894569    1873.0795  0.047285659  0.046922904           14 
 3302000   0.74267176   -4.2661397     1887.345   0.04763136  0.046911926            8 
 3303000   0.71893942    -4.302913     1877.727   0.04737428  0.046900927            4 
 3304000   0.71672157   -4.2807648    1883.1316  0.047496256  0.046889932            5 
 3305000   0.71815948   -4.2533184    1888.2864   0.04761186  0.046878924            4 
 3306000   0.71241252   -4.2976088    1883.9837  0.047489002  0.046867946            6 
 3307000   0.72023818   -4.2808459    1882.0728   0.04742649  0.046856914            7 
 3308000   0.73224718   -4.2824157    1886.4785  0.047523138  0.046845871            9 
 3309000   0.73277087    -4.280504    1878.2514  0.047301586  0.046834862            3 
 3310000    0.7107254    -4.295918    1883.9475  0.047430702  0.046823769            8 
 3311000    0.7170296   -4.3044331    1881.9394  0.047365836  0.046812862           10 
 3312000   0.70990879   -4.2840109    1891.1941  0.047584393  0.046801904           10 
 3313000   0.72780841    -4.303005    1888.3496  0.047498481  0.046790885            5 
 3314000   0.71910155   -4.2767526    1885.0884  0.047402143  0.046779913            5 
 3315000   0.71949478   -4.2910067     1882.888  0.047332529  0.046769017            7 
 3316000   0.71092584   -4.2719563    1886.7008  0.047414074  0.046758171            3 
 3317000   0.72795538   -4.3047638    1885.1636   0.04736116  0.046747266            4 
 3318000   0.73736732   -4.2892116    1887.7076   0.04741078  0.046736386            8 
 3319000   0.73040917   -4.2995141    1885.5831  0.047343153  0.046725543            4 
 3320000   0.71625833    -4.297794    1888.6301  0.047405375  0.046714686            5 
 3321000   0.72021693   -4.2956421    1890.1302  0.047428741  0.046703925            4 
 3322000   0.71715619   -4.3048271    1889.2623  0.047392693  0.046693113            7 
 3323000   0.72838742   -4.2885826    1890.3532  0.047405787   0.04668234            7 
 3324000   0.73073489   -4.3049118    1888.2328  0.047338368  0.046671541            9 
 3325000   0.71793106   -4.2752881    1892.6003  0.047433592   0.04666081           13 
 3326000   0.73281418   -4.2993208    1893.0752  0.047431229  0.046650127           11 
 3327000   0.69546068   -4.2910519    1894.0587  0.047441607  0.046639375            5 
 3328000   0.71520231   -4.2907018    1897.0489  0.047502226  0.046628675           10 
 3329000   0.71570412   -4.2906135    1894.8848  0.047433783  0.046617997            3 
 3330000   0.71635461   -4.3051858    1896.5701  0.047461713  0.046607392            4 
 3331000   0.72362842   -4.3146379    1896.3896   0.04744295  0.046596705            7 
 3332000   0.70283912   -4.2858959    1894.4158  0.047379347  0.046586121            6 
 3333000   0.71958109   -4.2962838    1891.0291  0.047280457   0.04657546            5 
 3334000   0.72359126   -4.2990672    1892.8639  0.047312135  0.046564779            5 
 3335000   0.71980327   -4.3287493    1891.2278  0.047257065  0.046554071            3 
 3336000   0.72416042    -4.287102    1900.9276  0.047485203  0.046543411            6 
 3337000   0.70705232   -4.3129525     1895.469  0.047334657  0.046532789            8 
 3338000   0.70550071   -4.2924735    1899.4405  0.047419626  0.046522246            5 
 3339000    0.7175042   -4.3143602    1898.6529  0.047385766  0.046511702            6 
 3340000   0.71409157   -4.3137733     1899.382   0.04738977  0.046501134            5 
 3341000   0.70615514   -4.3008536    1896.6535  0.047307531  0.046490523            4 
 3342000   0.70926847   -4.3081185    1897.5224  0.047315041  0.046479932            7 
 3343000   0.72922679   -4.3134622    1898.1547  0.047316649  0.046469344            7 
 3344000   0.70681392   -4.3097866     1893.114  0.047176883   0.04645879            6 
 3345000    0.7116857    -4.291796    1896.1291  0.047237894  0.046448201            2 
 3346000   0.72352678   -4.2918723    1891.9247  0.047119064  0.046437658            4 
 3347000   0.70165979   -4.3043928    1897.0659  0.047232992  0.046426973            5 
 3348000   0.70073616   -4.3134696    1901.5068  0.047329421  0.046416243            6 
 3349000   0.72344491   -4.2824322    1899.0808  0.047254923  0.046405678            3 
 3350000    0.7085071   -4.2872614    1898.1618  0.047217954  0.046395086           12 
 3351000   0.71713655   -4.2922967    1898.0845  0.047201943  0.046384467            8 
 3352000   0.69812443   -4.2920394    1895.1561  0.047115058  0.046373757            9 
 3353000    0.7276018   -4.3345206    1898.2626  0.047178213  0.046363065            6 
 3354000   0.73246421   -4.3039284    1896.5236  0.047120941  0.046352342            4 
 3355000   0.71124629   -4.3270751    1899.1587  0.047172347  0.046341599            3 
 3356000   0.71485364   -4.3071352    1898.2114  0.047134768  0.046330891            5 
 3357000    0.7158167   -4.2972391    1899.7195  0.047158166  0.046320348            5 
 3358000   0.70499243   -4.3152902    1902.7969  0.047220492  0.046309733            4 
 3359000   0.70147848    -4.300316    1900.3458  0.047145623  0.046299157            6 
 3360000   0.72319049   -4.3109513    1898.4216  0.047083869  0.046288618            6 
 3361000     0.694489   -4.2887979    1902.6283  0.047174161  0.046278062            8 
 3362000    0.7122781   -4.3238643    1899.1408  0.047073686  0.046267452            5 
 3363000   0.72440976   -4.3071119    1899.6399  0.047072057  0.046256896            7 
 3364000   0.71712283   -4.3078864    1899.1443  0.047045786  0.046246343            5 
 3365000   0.71458264   -4.3036184    1894.2171  0.046909784  0.046235718            5 
 3366000   0.71806259   -4.3151451    1902.0423  0.047089579  0.046225062            8 
 3367000   0.70986765   -4.3112852    1902.4479  0.047085633  0.046214435            3 
 3368000   0.71197719   -4.3113052    1901.2243  0.047041378  0.046203826            7 
 3369000   0.71503651   -4.3144671    1898.5901  0.046962257  0.046193241            6 
 3370000   0.71360907   -4.3076961    1905.9574    0.0471305  0.046182684            5 
 3371000   0.70716131   -4.3179401    1902.7084    0.0470362  0.046172075            3 
 3372000   0.69548598   -4.3199242    1898.0286    0.0469066  0.046161512            7 
 3373000   0.71209039    -4.304565    1905.3429    0.0470734  0.046150853           10 
 3374000   0.70875485   -4.3265436    1905.3676  0.047060056  0.046140231            5 
 3375000   0.71546845   -4.2884508    1900.2737  0.046920338   0.04612963            3 
 3376000   0.70722368   -4.3161087    1903.0413  0.046974756  0.046118955            3 
 3377000   0.70420489   -4.3006381    1904.9798  0.047008681  0.046108355            4 
 3378000   0.72225901   -4.2926927    1903.0098  0.046946166  0.046097757            4 
 3379000   0.71048032   -4.2868435    1900.9015  0.046880279  0.046087141           10 
 3380000   0.71103063   -4.3120657    1904.3714  0.046951957  0.046076485            4 
 3381000    0.7225614   -4.3180714    1897.8021  0.046776154  0.046065932            5 
 3382000   0.70932288   -4.3105569    1896.9349  0.046740955  0.046055357            5 
 3383000   0.70725372   -4.3154765    1905.1205  0.046928774  0.046044843            4 
 3384000     0.722114   -4.3174765    1902.4226  0.046848469  0.046034276            8 
 3385000   0.70763218   -4.3020808    1901.4689  0.046811149  0.046023786            5 
 3386000   0.72598399   -4.3104812    1901.3844  0.046795245  0.046013297            6 
 3387000   0.71960267   -4.3161123    1904.1481  0.046849426  0.046002773            5 
 3388000   0.71533912   -4.3451406     1899.681  0.046725724  0.045992197            4 
 3389000   0.70373499    -4.292779    1903.7228   0.04681132  0.045981622           10 
 3390000   0.70752779   -4.2915614    1907.4921   0.04689017  0.045971202           10 
 3391000   0.71604769   -4.3277923    1904.4617   0.04680187  0.045960725            5 
 3392000   0.70819111    -4.309767    1907.3793   0.04685975  0.045950183            7 
 3393000   0.70178778   -4.3045317    1908.3506  0.046869795   0.04593966            4 
 3394000   0.71202957   -4.3191062    1908.7196  0.046865047  0.045929123            8 
 3395000   0.70865555   -4.3166803    1904.2629  0.046741848  0.045918592           18 
 3396000   0.73232716   -4.3216138    1906.2306  0.046776369  0.045908156            8 
 3397000   0.71300794    -4.326991    1904.5717  0.046721904  0.045897645            7 
 3398000   0.71597355    -4.300082    1902.9871  0.046669292  0.045887091            7 
 3399000   0.70779511   -4.3122252     1903.087  0.046658013  0.045876494            6 
 3400000   0.71035265   -4.2911334    1904.9359  0.046689606  0.045865934            5 
 3401000    0.7040157   -4.3084609     1910.077  0.046801846  0.045855382            4 
 3402000   0.71348464   -4.3009469    1910.2839  0.046793157  0.045844878            8 
 3403000   0.70114044   -4.3380926    1903.1311  0.046604249  0.045834286            8 
 3404000   0.71359498   -4.3240048    1902.8515  0.046583713  0.045823608            8 
 3405000    0.7137467    -4.313109     1906.087  0.046649216  0.045813083            4 
 3406000   0.69951938   -4.3255218    1907.6535  0.046673847  0.045802563            7 
 3407000   0.71936643   -4.2786044    1905.8765  0.046616684  0.045792057            9 
 3408000   0.69074928   -4.3197361    1903.9509   0.04655592  0.045781521           13 
 3409000   0.70536325   -4.2961826    1907.1295  0.046619963  0.045770889           11 
 3410000   0.72047531   -4.3191558    1909.5166  0.046664629  0.045760342            6 
 3411000   0.70252015   -4.3047275    1911.0977  0.046689575  0.045749771           10 
 3412000   0.70790653   -4.3232657     1905.089  0.046529138  0.045739265            4 
 3413000   0.68766678   -4.3249683    1906.9497  0.046560935  0.045728649            4 
 3414000   0.70722825   -4.3171962    1902.0374  0.046427393  0.045717995            8 
 3415000   0.70509149    -4.299935    1904.7014  0.046478805  0.045707327           14 
 3416000   0.69604912   -4.3033017    1913.8347  0.046688006  0.045696719            6 
 3417000   0.69001478   -4.3237441    1908.5474  0.046545396  0.045686214            8 
 3418000   0.69245586   -4.3430603    1907.9693  0.046517684  0.045675682           11 
 3419000   0.71323853   -4.3068938    1904.5298  0.046420243   0.04566512           15 
 3420000   0.70824012    -4.324747    1907.9467  0.046489929  0.045654591            4 
 3421000   0.70493715   -4.3173923    1909.6201  0.046517103  0.045644054           11 
 3422000   0.68275024   -4.3223799    1907.0191  0.046440168  0.045633454           10 
 3423000   0.71670335   -4.3450336    1904.9245  0.046375609  0.045622853            7 
 3424000   0.70306748   -4.3522226     1901.734  0.046284413  0.045612244            6 
 3425000   0.68946893   -4.3099207     1913.038  0.046545938  0.045601592            3 
 3426000   0.69758211    -4.308752    1910.5858  0.046472704  0.045591015            8 
 3427000   0.70647669   -4.3437892    1905.0455  0.046324421   0.04558036            4 
 3428000   0.70613198   -4.3191097    1908.9065  0.046404768  0.045569772            4 
 3429000   0.69216663   -4.3248148    1906.0372  0.046321502  0.045559159           12 
 3430000    0.6982239   -4.3440976     1909.824  0.046400001  0.045548632            3 
 3431000   0.69103505   -4.3446504    1914.5232  0.046500611  0.045538094            4 
 3432000   0.68609493   -4.3241699    1914.1192  0.046477253  0.045527562            6 
 3433000   0.71007338   -4.3038157    1908.9015  0.046337061  0.045517042            6 
 3434000   0.69781839   -4.2912207    1916.2353  0.046501537  0.045506537            8 
 3435000   0.68514439   -4.3316291     1911.374  0.046370063  0.045496008           19 
 3436000   0.69618804   -4.3372631    1906.0221  0.046226768  0.045485502           11 
 3437000   0.71381435   -4.3349235    1907.6727  0.046253338  0.045474999            8 
 3438000   0.70140695   -4.3289766    1909.7575  0.046290417  0.045464477            9 
 3439000   0.69101517   -4.3293509    1912.1658  0.046335315  0.045454005            4 
 3440000   0.69512194   -4.3235574    1917.5131  0.046451382  0.045443474           18 
 3441000   0.70416082    -4.315783    1908.0453  0.046208595  0.045432983           12 
 3442000   0.70102605   -4.2921531    1916.9211  0.046410059  0.045422606            5 
 3443000    0.6942629   -4.3421594     1914.143  0.046329339  0.045412216           12 
 3444000   0.69762768   -4.3290261    1911.5495  0.046253133  0.045401746            8 
 3445000   0.71146889   -4.3412279    1914.5185  0.046311527  0.045391293           15 
 3446000   0.69205571   -4.3252045    1913.7851  0.046280352  0.045380842            9 
 3447000   0.68788434   -4.3144736    1915.7793  0.046315137  0.045370439            4 
 3448000    0.7138072   -4.3246471    1909.7936  0.046157037  0.045359997            5 
 3449000   0.71756987   -4.3320266    1911.8543  0.046193446  0.045349526            6 
 3450000   0.68754069   -4.3390002    1912.3355  0.046191679  0.045339091            8 
 3451000   0.70742117     -4.32323    1912.0486  0.046171365  0.045328617            4 
 3452000   0.69868675   -4.3079174    1917.6524  0.046293271  0.045318191            4 
 3453000   0.70995066   -4.3281442    1911.7299  0.046136932  0.045307711            8 
 3454000   0.69746318   -4.3513563    1909.0923  0.046059938  0.045297212           16 
 3455000   0.70796829   -4.3340081     1914.454  0.046175927  0.045286785            6 
 3456000   0.69896475   -4.3467394    1910.9674  0.046078495  0.045276385            5 
 3457000   0.69344582   -4.3322913    1918.0337  0.046235504  0.045266008            3 
 3458000   0.70158781   -4.3482143     1922.493  0.046329599  0.045255643            8 
 3459000   0.71116242   -4.3342751    1912.4275  0.046073708  0.045245243           22 
 3460000   0.67938377    -4.326213    1916.6877  0.046162999  0.045234842            4 
 3461000   0.70088501   -4.3475032    1910.9257  0.046010924  0.045224466            7 
 3462000   0.71762273   -4.3384772    1919.5301  0.046204749  0.045213979            5 
 3463000    0.7145266   -4.3282765    1916.8434  0.046126754  0.045203538            4 
 3464000   0.69863239   -4.3064012    1915.4764  0.046080552  0.045193141            5 
 3465000   0.69760781   -4.3189233    1915.7119  0.046072917  0.045182715            5 
 3466000    0.6902614   -4.3410806    1913.6134   0.04600917   0.04517224            8 
 3467000   0.71035127   -4.3421346    1913.3875  0.045990469    0.0451617           10 
 3468000   0.70060866   -4.3313585    1911.6062  0.045934405  0.045151199            6 
 3469000   0.69845737   -4.3208638    1916.7292  0.046044231  0.045140756            7 
 3470000   0.70632549   -4.3164931    1916.8149  0.046033018  0.045130312           13 
 3471000   0.70367736    -4.321256    1913.1196  0.045931037   0.04511985            6 
 3472000   0.70000065    -4.352395    1914.6524  0.045954599  0.045109331           13 
 3473000   0.68212224   -4.3370102      1911.08  0.045855648  0.045098829            8 
 3474000   0.69229709   -4.3230465    1920.0664  0.046058012  0.045088333            8 
 3475000    0.7018943   -4.3119701    1915.7725  0.045941787  0.045077965            5 
 3476000   0.70612627   -4.3252671    1916.3806  0.045943148   0.04506748            4 
 3477000   0.70184754   -4.3186779    1918.4022  0.045978386  0.045057009            8 
 3478000   0.71223371    -4.332143    1914.2292  0.045865182  0.045046557            6 
 3479000   0.69997021   -4.3438365    1918.8346  0.045962312  0.045036113            7 
 3480000   0.68437829   -4.3421492    1910.9201   0.04575958  0.045025656            3 
 3481000   0.71000319   -4.3587251    1915.2712  0.045850598  0.045015188            5 
 3482000   0.70185267   -4.3395912    1908.0082  0.045663609  0.045004643            5 
 3483000   0.68930254   -4.3334008    1913.7379  0.045787586   0.04499411            8 
 3484000   0.66941465   -4.3524016    1916.5913  0.045842693   0.04498357            6 
 3485000   0.67785092   -4.3329333    1914.2089  0.045772572  0.044973073           12 
 3486000    0.6983797   -4.3294369    1917.4684  0.045837359  0.044962616            6 
 3487000   0.69100958   -4.3536703    1912.7885  0.045712372  0.044952143            7 
 3488000   0.67317907   -4.3397038    1918.4301  0.045834052  0.044941713            6 
 3489000    0.6935607   -4.3553619    1916.8436  0.045783023  0.044931244           10 
 3490000   0.70889077    -4.336115    1914.5238  0.045714514   0.04492071            5 
 3491000   0.69069981    -4.349134    1913.9026   0.04568659  0.044910204            5 
 3492000   0.68362525   -4.3476177    1916.4776  0.045734957  0.044899761            7 
 3493000   0.68900316   -4.3517589    1914.3785  0.045671783  0.044889352            8 
 3494000   0.68429448   -4.3534544    1918.8217  0.045764685  0.044878928            4 
 3495000   0.69937367   -4.3270135    1922.4087  0.045837118  0.044868456            5 
 3496000   0.69137095   -4.3446104    1916.1011  0.045673653  0.044857939           25 
 3497000   0.69772514   -4.3561093    1916.9592   0.04568104   0.04484741            3 
 3498000   0.70394327   -4.3593935    1917.5913  0.045683041  0.044836951            3 
 3499000   0.67532991   -4.3355887    1922.3413  0.045783113  0.044826528           12 
 3500000   0.67077176   -4.3143347    1924.7086  0.045826395  0.044816138            5 
 3501000   0.67409656   -4.3454177    1915.4791  0.045593619  0.044805691            6 
 3502000   0.68766227   -4.3484975    1919.0694  0.045666033  0.044795223            7 
 3503000   0.69372933   -4.3591788    1918.5446  0.045640513   0.04478479           11 
 3504000   0.69214562   -4.3412831    1919.8126  0.045657643  0.044774359            6 
 3505000   0.69114159   -4.3348218    1923.0412  0.045721378   0.04476391            7 
 3506000   0.69029719   -4.3561591    1916.5466  0.045553969  0.044753438            7 
 3507000   0.68843832   -4.3560708    1917.9465  0.045574244  0.044742986            6 
 3508000   0.68888592     -4.33652    1915.4286  0.045501439  0.044732532            7 
 3509000   0.69483427   -4.3536181    1922.1402  0.045647863  0.044722081            6 
 3510000   0.69147429   -4.3635647    1919.0739  0.045562059  0.044711586            7 
 3511000   0.68409882   -4.3325338    1924.8951  0.045687247  0.044701113            4 
 3512000   0.69625444   -4.3404997    1918.8221  0.045530138  0.044690693            7 
 3513000   0.69834515   -4.3533518    1918.6878  0.045513991  0.044680288            8 
 3514000   0.69990106   -4.3662781    1917.3527  0.045469378  0.044669827           10 
 3515000   0.69469446   -4.3656519    1916.9298  0.045446415  0.044659339            8 
 3516000   0.69703375   -4.3401893    1919.8211  0.045502016   0.04464883            6 
 3517000   0.68186739    -4.335535    1921.4533  0.045527752  0.044638408            7 
 3518000   0.70321923   -4.3535014    1918.0445  0.045434066  0.044628056            6 
 3519000   0.70311533   -4.3627158    1917.4139  0.045406222  0.044617593           23 
 3520000    0.6945097   -4.3461938    1919.3926  0.045440166  0.044607174            7 
 3521000   0.69391869   -4.3606621    1923.7331   0.04552999  0.044596723            7 
 3522000   0.69602124   -4.3465932    1921.3628  0.045460979  0.044586265            5 
 3523000   0.69737648   -4.3774997    1920.1099  0.045418439   0.04457583            7 
 3524000   0.68509035   -4.3554784    1919.8957  0.045400486  0.044565483            5 
 3525000    0.6852012   -4.3679287    1919.8509  0.045386547  0.044555014           12 
 3526000   0.67259804   -4.3808423    1918.3206  0.045337506  0.044544556            6 
 3527000   0.67525271   -4.3554427    1918.6281  0.045331917  0.044534062            7 
 3528000   0.67742692   -4.3337106    1921.4033  0.045384622  0.044523648           14 
 3529000     0.676219   -4.3708938    1924.8765  0.045453777  0.044513176            9 
 3530000   0.68401299   -4.3313319     1926.357  0.045475849  0.044502793            5 
 3531000   0.69263621   -4.3621381    1922.2757   0.04536665  0.044492408            4 
 3532000    0.6838639   -4.3671247     1924.133  0.045397627  0.044481975           12 
 3533000   0.68580251   -4.3555214    1921.8493  0.045330911  0.044471504           10 
 3534000   0.69142032   -4.3650453    1918.6811  0.045243376  0.044461078            6 
 3535000   0.69514913    -4.350708    1927.5349  0.045439295  0.044450653            7 
 3536000   0.68504248   -4.3510506    1923.9285  0.045341452  0.044440272           10 
 3537000   0.66921437   -4.3709097     1922.841   0.04530301  0.044429901            8 
 3538000   0.69253013   -4.3721307    1927.9905  0.045411497  0.044419509            6 
 3539000    0.6785741    -4.347227    1924.8805  0.045325433  0.044409117           19 
 3540000   0.67518434    -4.337504     1926.851  0.045359016  0.044398825           15 
 3541000   0.68824492   -4.3482869    1923.6916  0.045271853   0.04438853            4 
 3542000   0.67362526   -4.3717849    1923.1608  0.045246583  0.044378219            4 
 3543000   0.67916843   -4.3525709    1925.3687  0.045285745  0.044367804           14 
 3544000    0.7012628   -4.3611458    1924.0472  0.045241892  0.044357397           13 
 3545000   0.68306865   -4.3775068    1921.6052  0.045171725  0.044346965            8 
 3546000   0.68951014   -4.3655511    1922.6178  0.045182783  0.044336557           14 
 3547000   0.69428935   -4.3688598    1930.4003  0.045352888  0.044326165            2 
 3548000   0.70202618   -4.3612166    1922.7781  0.045161079  0.044315788            3 
 3549000   0.70815038   -4.3591474    1921.6971  0.045122972    0.0443054            9 
 3550000   0.67457105   -4.3674726    1924.1017  0.045166708  0.044295069            3 
 3551000   0.68871014   -4.3734971    1922.2647  0.045110876  0.044284657           12 
 3552000   0.69064331    -4.349705    1924.8023  0.045157712  0.044274313            7 
 3553000   0.67732468   -4.3498839    1926.9258  0.045194808  0.044264004           10 
 3554000   0.67042814   -4.3727305    1924.2686  0.045119784  0.044253738            6 
 3555000   0.67431442    -4.349469     1931.964  0.045287483  0.044243515            4 
 3556000   0.67976292   -4.3613409    1927.4927  0.045169964   0.04423318           11 
 3557000   0.68933646   -4.3706628    1923.9212  0.045073591  0.044222828            6 
 3558000   0.69290545   -4.3706975    1930.9268  0.045225005  0.044212599           11 
 3559000   0.67929993   -4.3718366    1928.2305  0.045149164  0.044202427            4 
 3560000   0.67166048    -4.390826    1924.2462  0.045043217  0.044192121           19 
 3561000   0.68876462   -4.3775962    1924.5765  0.045038296  0.044181767           26 
 3562000   0.67481204   -4.3582892    1926.6735  0.045074711  0.044171521            4 
 3563000    0.6661848    -4.355189      1930.74  0.045157172  0.044161261            4 
 3564000   0.67708156   -4.3594022    1930.5541  0.045140153  0.044150984            8 
 3565000   0.68012186     -4.36833      1932.91  0.045182562  0.044140773           12 
 3566000   0.67965297   -4.3555895    1933.2382  0.045177562  0.044130605            4 
 3567000   0.67695067   -4.3569144    1928.4715  0.045053535   0.04412038            3 
 3568000   0.67100873   -4.3637525     1930.015  0.045076957  0.044110023            5 
 3569000   0.68745652   -4.3719379    1931.3586    0.0450957  0.044099771            8 
 3570000   0.68151982   -4.3915539    1930.8649  0.045071544  0.044089499            6 
 3571000   0.67443707   -4.3529106    1930.7279  0.045055725  0.044079267            6 
 3572000   0.68193943   -4.3367799     1929.037  0.045003664  0.044069015           10 
 3573000   0.67951939   -4.3674529    1932.0093   0.04506039  0.044058679            3 
 3574000   0.67805795   -4.3750769      1929.58  0.044991139  0.044048391            9 
 3575000   0.67048039    -4.369163    1931.4357  0.045021811  0.044038107           14 
 3576000   0.68097189   -4.3796379    1930.4471  0.044986183  0.044027879           15 
 3577000   0.67879685   -4.3718632    1932.4127  0.045019398  0.044017638            6 
 3578000   0.68890354   -4.3869299    1933.9522  0.045042672  0.044007331            5 
 3579000   0.69579471   -4.3538604     1935.123  0.045057347  0.043997091            8 
 3580000   0.67908742   -4.3690618    1939.1882  0.045139391  0.043986837            9 
 3581000   0.66697465   -4.3829473    1931.1189  0.044939004  0.043976546            7 
 3582000   0.65932026   -4.3910062    1931.1803  0.044927886  0.043966349            9 
 3583000   0.68966229   -4.3741592    1927.2917  0.044824907  0.043956053            8 
 3584000   0.68196787   -4.3685522    1932.6008  0.044935845  0.043945828            5 
 3585000    0.6802894   -4.3844957    1930.5022  0.044874528  0.043935618            6 
 3586000    0.6920641   -4.3713091     1930.493  0.044861801  0.043925378            8 
 3587000    0.6845549   -4.3674967    1936.0609  0.044978648  0.043915164            8 
 3588000   0.68557494   -4.3418682    1932.9821  0.044894604  0.043904911            4 
 3589000   0.67187335   -4.3907099    1933.1498   0.04488599  0.043894653            9 
 3590000    0.6730829   -4.3853052    1927.8397  0.044750225  0.043884296           11 
 3591000    0.6792237   -4.3770972     1931.493  0.044822542  0.043874019            6 
 3592000   0.68198822   -4.3674511    1937.0387  0.044938723  0.043863769            4 
 3593000   0.66185669   -4.3598386    1932.0904  0.044811447  0.043853563            9 
 3594000   0.67435655     -4.34261    1935.5476   0.04487914  0.043843352            7 
 3595000   0.67490549   -4.3565266    1934.9001  0.044851648  0.043833142            6 
 3596000   0.66496059   -4.3734159    1936.2127  0.044869593  0.043822905            6 
 3597000   0.68520841   -4.3728734    1933.7438  0.044799922  0.043812639           12 
 3598000   0.68498404   -4.3746372    1931.7624  0.044741579  0.043802414            6 
 3599000   0.67105702   -4.3455932    1932.9919  0.044757615  0.043792189           10 
 3600000   0.68871258   -4.3817556    1931.5879  0.044712683  0.043782006            9 
 3601000   0.67733456   -4.3835646     1932.696  0.044725909  0.043771762            3 
 3602000    0.6693143   -4.3626909    1939.7505  0.044876701  0.043761573           10 
 3603000   0.68056568   -4.3793102    1933.4931  0.044719519   0.04375141            8 
 3604000   0.66598105   -4.3578753    1933.1805  0.044699883  0.043741222           10 
 3605000   0.69033755   -4.3695463    1936.5559  0.044765508  0.043731075            5 
 3606000   0.67458824   -4.3775994     1938.901  0.044807289  0.043720832           12 
 3607000    0.6767199   -4.3541194    1937.6745   0.04476653  0.043710755            5 
 3608000   0.67786816   -4.3736503    1936.7155  0.044731973  0.043700608           14 
 3609000   0.67260214   -4.3788661    1934.9188  0.044678091  0.043690441            6 
 3610000    0.6625311   -4.3661278    1937.7474  0.044731011  0.043680252           15 
 3611000   0.64987308   -4.3746842    1939.6658  0.044762896  0.043670095           10 
 3612000   0.66963092   -4.3703957    1937.7084  0.044705343  0.043659878            7 
 3613000   0.68437525    -4.384317    1936.9158  0.044674688  0.043649718            9 
 3614000   0.66845813   -4.3930225    1935.8636  0.044638064  0.043639517            6 
 3615000   0.67924212   -4.4062712    1933.0871  0.044561712  0.043629332            6 
 3616000   0.68458101   -4.3912527     1937.705  0.044655813  0.043619106            3 
 3617000    0.6657773    -4.385758    1939.4768  0.044684286   0.04360889           10 
 3618000   0.67567977   -4.3755582    1939.3391  0.044668765  0.043598724            6 
 3619000   0.69150659   -4.3723837    1938.8468  0.044645087  0.043588558            5 
 3620000   0.67729416   -4.3890565    1938.1274  0.044616191  0.043578411            4 
 3621000   0.65714776   -4.4103073    1940.5921  0.044660593  0.043568179            6 
 3622000   0.66831388   -4.4057947    1939.1599  0.044615311  0.043557947           16 
 3623000   0.65595668   -4.3600748    1941.1346  0.044648419  0.043547837            7 
 3624000   0.67222491   -4.3720827    1942.6071  0.044669957  0.043537733            9 
 3625000   0.67176457   -4.4068722    1941.7068  0.044636938  0.043527579            5 
 3626000   0.66308654   -4.3715067    1939.9584  0.044584445  0.043517431            8 
 3627000   0.67037087   -4.3749285    1940.7048  0.044589303  0.043507316            6 
 3628000   0.66410816   -4.3880592    1937.6983  0.044507955  0.043497224           14 
 3629000   0.67856742   -4.3798371    1945.4802  0.044674387  0.043487158            5 
 3630000   0.67409994   -4.3878286    1942.7676  0.044599808  0.043477089            6 
 3631000   0.66560097   -4.3860597    1941.6645  0.044562208  0.043467013            7 
 3632000   0.67414629   -4.3922677    1936.3692  0.044428442  0.043456967            9 
 3633000   0.66481842   -4.4187035    1944.3999   0.04460042  0.043446911           16 
 3634000     0.660225   -4.3814733    1943.5481  0.044568614  0.043436858            9 
 3635000    0.6636037   -4.4019478    1939.5777  0.044465331  0.043426789            5 
 3636000   0.67838096   -4.4077889    1935.4789   0.04435916  0.043416753            6 
 3637000   0.67492245   -4.3946897    1939.5854  0.044441055  0.043406665           13 
 3638000   0.67831079   -4.3909424    1943.8158  0.044525741  0.043396559            7 
 3639000   0.67860992   -4.4012045     1942.531  0.044484083  0.043386466           10 
 3640000    0.6737366    -4.394175    1947.0144  0.044574505  0.043376359           10 
 3641000   0.66404202   -4.4004105    1946.3919  0.044548017  0.043366346            4 
 3642000   0.66969051   -4.3672524     1937.922  0.044341982   0.04335629            9 
 3643000   0.66120217   -4.4050151     1938.805  0.044350009  0.043346153            7 
 3644000   0.66418669   -4.3863251    1943.1367  0.044436899  0.043336071            8 
 3645000    0.6576469   -4.3725393     1941.954  0.044397669  0.043325982            6 
 3646000   0.65242259   -4.3812106    1937.4189  0.044281836  0.043315864            6 
 3647000   0.66886961   -4.3863793    1941.5913  0.044365034  0.043305803            5 
 3648000   0.64462913   -4.3956197    1941.8561  0.044358921  0.043295782           21 
 3649000   0.67227972   -4.3830586    1938.9403  0.044280175  0.043285744            4 
 3650000   0.67184747   -4.3715774    1940.8638  0.044311959  0.043275627            7 
 3651000   0.65656749   -4.3846222    1939.6509  0.044272137  0.043265512            7 
 3652000   0.67547491   -4.4066031    1939.4629  0.044255726  0.043255339            5 
 3653000   0.66626743   -4.4134674    1938.4957  0.044221545   0.04324515           11 
 3654000    0.6699669    -4.380921    1941.2055  0.044271244   0.04323504            5 
 3655000    0.6678481   -4.3870914    1939.6281  0.044223166  0.043224904            6 
 3656000   0.65720331   -4.3948037     1943.568  0.044300875  0.043214831           14 
 3657000   0.66154324   -4.3972183     1942.991  0.044275612   0.04320476            4 
 3658000   0.67979945   -4.3933247    1944.0287  0.044287149  0.043194638           16 
 3659000    0.6731205    -4.399099    1944.2355  0.044279756  0.043184495           14 
 3660000   0.66538434   -4.3814904     1944.259  0.044268192  0.043174353            9 
 3661000   0.67149182   -4.3871828    1945.1878  0.044277243   0.04316424            9 
 3662000   0.66386939   -4.3863772    1939.8538   0.04414377   0.04315416           18 
 3663000   0.66044075   -4.3856241    1941.1401  0.044160982  0.043144083            5 
 3664000   0.66163694   -4.4042061    1944.7931  0.044232011  0.043133939           11 
 3665000    0.6512973   -4.3858935     1942.423  0.044166053  0.043123823            7 
 3666000   0.66655081   -4.3859822      1940.06   0.04410029  0.043113752            3 
 3667000   0.65621809   -4.4024969    1945.5598  0.044213248  0.043103706           15 
 3668000   0.66900793   -4.3625384    1948.9612  0.044278473  0.043093671            6 
 3669000   0.67098835   -4.3815012    1949.6581  0.044282231  0.043083679            9 
 3670000   0.67967183   -4.4020493    1944.1322  0.044144692   0.04307363            6 
 3671000   0.66425582   -4.4025921    1945.6499  0.044167118  0.043063504            8 
 3672000   0.68665984   -4.4041032    1944.3876  0.044126442  0.043053416            9 
 3673000   0.65428813     -4.39834    1945.0277  0.044128951  0.043043318            4 
 3674000   0.66287346    -4.401442     1947.653  0.044176489  0.043033221            9 
 3675000   0.65522059   -4.3831391    1946.0173  0.044127376  0.043023167            6 
 3676000   0.67268436    -4.415227    1942.8683  0.044043986  0.043013039            8 
 3677000   0.65196731   -4.3835533    1942.4363  0.044022216  0.043002943            7 
 3678000   0.66144173   -4.3853427    1944.5874  0.044058987  0.042992883            4 
 3679000   0.65695021   -4.4041222      1944.42  0.044043218  0.042982737            6 
 3680000   0.65970298   -4.3966311    1947.2131  0.044094499  0.042972721           15 
 3681000   0.66094688   -4.4085586    1941.8146  0.043960304  0.042962678            9 
 3682000   0.66093891    -4.435187    1943.9383  0.043996431  0.042952577            5 
 3683000   0.66459997   -4.3884716      1944.64  0.044000362  0.042942472            9 
 3684000   0.67080189    -4.386465    1947.4883  0.044052849  0.042932401           10 
 3685000     0.668228   -4.3960757    1947.1181  0.044032522  0.042922416            4 
 3686000   0.65567429   -4.4094023     1946.659  0.044010195   0.04291228            9 
 3687000   0.65779764    -4.429429    1943.9367   0.04393673  0.042902242           13 
 3688000   0.65353857   -4.4161478    1942.9816  0.043903236  0.042892151            9 
 3689000   0.65416773   -4.4337619    1940.1441  0.043827237  0.042882062            9 
 3690000   0.66591175   -4.3996219     1948.873  0.044012489  0.042872029            4 
 3691000   0.64494559   -4.4064707    1949.8971  0.044023686  0.042862004            5 
 3692000   0.65783961   -4.3927162    1947.2028  0.043950948  0.042851974            4 
 3693000   0.65983939   -4.4057401    1947.5641  0.043947199  0.042841902            7 
 3694000   0.66358252   -4.4440729    1944.5175  0.043866575  0.042831781            6 
 3695000   0.67314629   -4.4075924    1946.1714  0.043892003   0.04282175           26 
 3696000   0.66770362   -4.3999873    1943.2554   0.04381438  0.042811678            8 
 3697000   0.65916507   -4.3902975    1946.9182  0.043885092  0.042801662            6 
 3698000   0.67147293   -4.4003146    1945.4674  0.043840532  0.042791661            6 
 3699000   0.66914699   -4.4092941    1947.7203  0.043879434  0.042781612            6 
 3700000   0.65737773   -4.4129937    1949.3762  0.043904869  0.042771577           15 
 3701000   0.66183988   -4.4150278    1949.2734  0.043890692  0.042761532            8 
 3702000   0.65961061   -4.3977047    1947.0846  0.043829564  0.042751501            4 
 3703000   0.66308246    -4.418248    1945.5008  0.043782086  0.042741473            7 
 3704000   0.66940364   -4.4165101    1947.8542  0.043823214  0.042731423            7 
 3705000   0.64898081   -4.4363315     1946.751  0.043786573  0.042721381            5 
 3706000   0.66156301   -4.4129051    1945.9252  0.043756189  0.042711319            7 
 3707000   0.66736227   -4.4115348    1948.9567  0.043812532  0.042701344            7 
 3708000   0.64930752   -4.4211589    1955.2147  0.043941359  0.042691285            6 
 3709000   0.66173534   -4.4196743    1948.5165  0.043779018  0.042681314            8 
 3710000   0.66116199   -4.4023405    1943.9908  0.043665562  0.042671259            9 
 3711000   0.67497364   -4.4286287    1946.8553   0.04371812  0.042661251            4 
 3712000   0.66288096   -4.4132411    1948.5716  0.043744872  0.042651238            5 
 3713000   0.68222394   -4.4346996    1949.3587  0.043750757   0.04264125            8 
 3714000   0.65146087   -4.4209179    1950.8616  0.043772698  0.042631227           14 
 3715000   0.65477553    -4.416417    1947.0638  0.043675725  0.042621185           12 
 3716000   0.65788823   -4.4230432    1944.2569  0.043601024  0.042611162            9 
 3717000   0.67148081   -4.4117709    1949.2963  0.043702275  0.042601069           28 
 3718000   0.64786376   -4.4127575    1951.2687   0.04373473  0.042591066            7 
 3719000   0.66115479   -4.4061422    1951.0665  0.043718439  0.042581018            5 
 3720000   0.65122749   -4.4150608    1946.6562  0.043607889  0.042571084            8 
 3721000   0.65808038   -4.4168853    1947.8296  0.043622449     0.042561            4 
 3722000   0.66690464   -4.4235404    1944.4855  0.043535856  0.042550948            4 
 3723000    0.6509583   -4.4284769    1949.1485  0.043628536  0.042540951           10 
 3724000   0.65231003   -4.4307322    1943.3644  0.043487389  0.042530861            9 
 3725000   0.64351707   -4.3958528    1949.2567  0.043607532  0.042520838            5 
 3726000   0.66674307    -4.418207    1944.1127   0.04348078  0.042510831            6 
 3727000   0.64900608   -4.3877011    1954.2466  0.043695703  0.042500818            4 
 3728000   0.65138946   -4.4303446    1949.6503  0.043581239  0.042490779           14 
 3729000   0.65279771   -4.4165826    1947.5673  0.043523003  0.042480732            6 
 3730000   0.65174683   -4.4276176    1954.6572  0.043669732  0.042470702            9 
 3731000   0.65866042   -4.4221995    1945.9318  0.043463142  0.042460735            7 
 3732000   0.65608901   -4.3962441    1953.3036  0.043616104  0.042450769            5 
 3733000   0.64044238   -4.4257344    1951.1501  0.043556346  0.042440785           11 
 3734000   0.65885417   -4.4342843    1953.2935  0.043592516   0.04243076            5 
 3735000   0.66443961   -4.4064606    1949.0206   0.04348551  0.042420785            6 
 3736000   0.67208313   -4.3988365     1950.128  0.043498573  0.042410821           10 
 3737000   0.65555665   -4.4155253    1947.5245  0.043428876    0.0424008            4 
 3738000   0.65375635   -4.4151369    1951.5565  0.043507146  0.042390758            4 
 3739000   0.64263571    -4.429482    1946.7663  0.043388747  0.042380695            5 
 3740000   0.65862964   -4.4022454    1951.7367  0.043487893  0.042370638           10 
 3741000   0.65939663   -4.4206646    1953.1403  0.043507536  0.042360636           12 
 3742000   0.65144059   -4.3955431    1950.6024   0.04343939  0.042350675           10 
 3743000   0.65471941   -4.4436876    1946.7032  0.043340975  0.042340645            4 
 3744000   0.64844632   -4.4070139    1947.5334  0.043347877   0.04233067            6 
 3745000   0.65537921    -4.435882    1947.2128  0.043329168  0.042320694           13 
 3746000   0.65615533   -4.4166682    1949.9266  0.043377972  0.042310733            5 
 3747000   0.64456093   -4.4051403    1951.5032  0.043401458  0.042300782            7 
 3748000   0.66112437   -4.4333107    1944.2972  0.043229659  0.042290744            6 
 3749000   0.67279971   -4.4286992    1950.4122  0.043354055  0.042280752            8 
 3750000   0.65230461   -4.4216094    1953.3738  0.043408307  0.042270803           16 
 3751000   0.64371064   -4.4348602    1949.3194  0.043306661  0.042260764            8 
 3752000    0.6503731   -4.4284896    1951.5433  0.043344513  0.042250798            6 
 3753000   0.65675198   -4.4320901     1953.934  0.043386047  0.042240864           10 
 3754000   0.64774834   -4.4262343    1949.3883  0.043273582  0.042230905            7 
 3755000   0.64555312   -4.4196268    1955.3004  0.043393263  0.042220908           12 
 3756000   0.64774062   -4.4316659    1951.4317  0.043295875  0.042210945           16 
 3757000   0.66305537   -4.4191127    1955.7624  0.043380409  0.042200984            9 
 3758000   0.65870607   -4.4500096    1952.7905  0.043302965  0.042190995            7 
 3759000   0.64693559   -4.4342268    1952.1382  0.043276983  0.042180983            4 
 3760000   0.67161498   -4.4349332    1952.6545  0.043276918  0.042171066            8 
 3761000   0.64710633   -4.4235957    1952.7461   0.04326744  0.042161113            8 
 3762000   0.66136735   -4.4379799    1952.8644  0.043258559  0.042151145            8 
 3763000   0.64037072   -4.4379957    1954.1945  0.043276519  0.042141187           16 
 3764000   0.65862076   -4.4337225     1951.202  0.043198769   0.04213121           11 
 3765000   0.65174807    -4.424942    1953.4887  0.043237909   0.04212118            5 
 3766000   0.64821924   -4.4586456    1951.9482   0.04319234  0.042111228            6 
 3767000   0.64345342   -4.4395026    1949.1073  0.043118026  0.042101254            8 
 3768000   0.63787288   -4.4293273    1951.9324  0.043169065  0.042091222            8 
 3769000   0.66428141   -4.4436081    1951.0807   0.04313878   0.04208122           21 
 3770000    0.6508135   -4.4321528    1949.0957  0.043083458  0.042071244            4 
 3771000   0.66316257   -4.4305546    1953.8519  0.043177139  0.042061271            5 
 3772000   0.64720446   -4.4270539    1953.0763  0.043148556  0.042051315           14 
 3773000   0.65530783   -4.4205134     1954.434  0.043167109  0.042041337            5 
 3774000   0.66017594   -4.4114225    1956.3919  0.043198902  0.042031445            6 
 3775000   0.64422694   -4.4341551    1951.3346   0.04307582  0.042021503            5 
 3776000   0.64602995    -4.444251    1953.6301  0.043115071  0.042011523           17 
 3777000   0.63545824   -4.4247133    1955.9819  0.043155544  0.042001555            9 
 3778000   0.64993873   -4.4383898    1952.1133   0.04305879  0.041991586           16 
 3779000    0.6397633   -4.4266953    1950.9182  0.043021042  0.041981628            5 
 3780000   0.63999309   -4.4156176    1952.6984  0.043048907  0.041971715            9 
 3781000   0.64333536   -4.4228826    1947.0641  0.042913341   0.04196175            7 
 3782000   0.64928188   -4.4554366    1952.2414  0.043016071  0.041951766           13 
 3783000   0.64290252   -4.4309498    1952.1568  0.043002838   0.04194179            5 
 3784000   0.62756664     -4.44202    1955.2764  0.043060175  0.041931879            7 
 3785000   0.64460117   -4.4233867    1957.6287  0.043100587   0.04192196           15 
 3786000   0.64220756   -4.4442893    1961.0834  0.043165246  0.041912086            7 
 3787000   0.65916288   -4.4258792    1950.6466  0.042924183  0.041902139           11 
 3788000   0.63417352   -4.4346457    1953.1662  0.042968281  0.041892168           14 
 3789000   0.64890316   -4.4455874     1951.855  0.042928104  0.041882225           10 
 3790000   0.64816209   -4.4480406     1955.281  0.042992107  0.041872302            5 
 3791000   0.64606037    -4.435666    1956.5188  0.043007975  0.041862296            7 
 3792000   0.64960473   -4.4356068    1953.2726  0.042925294  0.041852292            4 
 3793000   0.65154046   -4.4478481    1956.3318  0.042981189  0.041842349            5 
 3794000   0.63683469   -4.4329132    1959.0016  0.043028501  0.041832509           14 
 3795000   0.64238604   -4.4511298    1952.9683  0.042884679  0.041822598            7 
 3796000   0.64109243   -4.4408049    1955.2526   0.04292353  0.041812697            7 
 3797000   0.64520901   -4.4214451    1954.5937  0.042897763  0.041802802            8 
 3798000   0.65092158   -4.4335398    1952.9093  0.042849511  0.041792848            7 
 3799000   0.64323078   -4.4465852    1955.5895  0.042897024  0.041782914            3 
 3800000   0.63500117   -4.4374699    1959.9475  0.042981306  0.041772999            7 
 3801000   0.63611812   -4.4549164     1955.854   0.04288025  0.041763064           17 
 3802000   0.64012638   -4.4314975    1956.3096  0.042878959  0.041753182            8 
 3803000   0.65331875   -4.4401234    1953.4671  0.042805398  0.041743263            5 
 3804000   0.63848623   -4.4317282    1961.2823  0.042965351  0.041733416           15 
 3805000   0.64738405   -4.4646522    1956.7517  0.042854833  0.041723562           13 
 3806000    0.6505994   -4.4357764     1959.763  0.042909508  0.041713672            9 
 3807000   0.65373931   -4.4294141     1958.769  0.042876478  0.041703835           11 
 3808000   0.62801073   -4.4398065     1963.818   0.04297571  0.041693983            9 
 3809000   0.63833239   -4.4269607    1953.8256  0.042745812  0.041684122            7 
 3810000   0.64106112   -4.4606353    1955.5857   0.04277309  0.041674262           11 
 3811000   0.65533599   -4.4428779    1957.1167  0.042795345   0.04166437           27 
 3812000   0.63088864   -4.4379573    1956.7004  0.042775018  0.041654555            7 
 3813000   0.64028893   -4.4388781    1955.6143  0.042740063  0.041644777           12 
 3814000   0.65664226   -4.4361761    1961.4254  0.042855825  0.041634981           10 
 3815000   0.65407978   -4.4135951    1964.1283  0.042903632  0.041625185            4 
 3816000   0.63589174   -4.4487047    1963.7804  0.042884791  0.041615415           16 
 3817000   0.63204278   -4.4443032    1965.1515  0.042903492  0.041605635            8 
 3818000   0.63721436   -4.4466153     1959.845  0.042776433  0.041595848            7 
 3819000   0.64393905   -4.4575243    1963.5948  0.042847053  0.041586048            5 
 3820000   0.64569866   -4.4467974    1962.9317  0.042821373  0.041576252           12 
 3821000   0.63689672   -4.4381197    1958.9555  0.042723446  0.041566441           11 
 3822000   0.63422708   -4.4478322    1957.3566  0.042677406  0.041556635            6 
 3823000   0.65415023   -4.4302936    1961.6348  0.042759499  0.041546872            8 
 3824000   0.63594886    -4.424344    1965.7057  0.042837032  0.041537157            8 
 3825000   0.65825179   -4.4372302    1962.7053  0.042760464  0.041527455           15 
 3826000   0.63697335   -4.4451082    1963.5498  0.042767682  0.041517658           20 
 3827000   0.62804305   -4.4599185     1960.813  0.042696912  0.041507784            4 
 3828000   0.63289262    -4.477553    1959.5028  0.042657237  0.041497984            9 
 3829000   0.62421432   -4.4324211    1960.6904  0.042671943  0.041488183            8 
 3830000   0.65424654   -4.4339451    1959.5289  0.042635528   0.04147837           12 
 3831000   0.63965732   -4.4339989    1960.9672  0.042655686  0.041468585            7 
 3832000   0.65978151   -4.4409472    1958.5861  0.042592774  0.041458848           11 
 3833000   0.63584195   -4.4220634    1962.8094   0.04267348  0.041449104            6 
 3834000   0.64108233   -4.4532878    1958.8414  0.042576104   0.04143933           11 
 3835000   0.65217619   -4.4697302    1968.4172  0.042773082  0.041429527            9 
 3836000   0.63992616   -4.4290847    1962.2331  0.042627588  0.041419757            9 
 3837000   0.63351974   -4.4452208    1959.8404  0.042564513  0.041410046            5 
 3838000   0.63887396   -4.4821254    1957.6969   0.04250688  0.041400241            7 
 3839000   0.66233469   -4.4313753    1960.4115  0.042554734  0.041390434            9 
 3840000   0.63681832   -4.4467167    1967.9467  0.042707177  0.041380664            6 
 3841000   0.63120843   -4.4558488     1957.737   0.04247455  0.041370897            9 
 3842000   0.64142167   -4.4503777    1959.0169  0.042491257  0.041361062            8 
 3843000   0.63031388   -4.4486004    1965.2323  0.042614978  0.041351227            5 
 3844000   0.62825359    -4.451367     1963.921  0.042575464  0.041341392            6 
 3845000   0.64601351   -4.4571971    1962.3367  0.042530055  0.041331547           24 
 3846000   0.63043375   -4.4572573    1956.3315  0.042388877  0.041321663           11 
 3847000   0.62781145   -4.4684086    1952.3358  0.042291305  0.041311857           15 
 3848000   0.64111967   -4.4546427    1961.9817  0.042489208  0.041301996            5 
 3849000   0.63536829    -4.465333    1959.2471  0.042418963  0.041292217            6 
 3850000   0.63179231   -4.4459104    1958.7609  0.042397423  0.041282399           10 
 3851000   0.62894874    -4.462785    1965.7727  0.042538143  0.041272585            6 
 3852000   0.62473078   -4.4396609    1965.2064   0.04251485  0.041262846            7 
 3853000   0.63539865   -4.4654141    1963.5985  0.042469039  0.041253082            9 
 3854000   0.63561647   -4.4587527    1961.1759  0.042405638  0.041243393           24 
 3855000   0.63803404   -4.4412491    1965.1254  0.042480012   0.04123363           10 
 3856000    0.6318405   -4.4361651    1964.3335  0.042451883  0.041223845           11 
 3857000   0.64394283   -4.4515252     1960.738  0.042363193  0.041214044           11 
 3858000   0.62645503   -4.4585562    1961.0556  0.042359071  0.041204234            9 
 3859000   0.63790234   -4.4691865    1959.1927  0.042307867  0.041194425            7 
 3860000   0.64631465   -4.4925074    1956.6835  0.042242736  0.041184638           18 
 3861000   0.64511664     -4.45676    1964.3068  0.042396331  0.041174837           10 
 3862000   0.64342363    -4.474086    1966.9029  0.042441371  0.041165095            8 
 3863000   0.64044381   -4.4647557    1965.4533  0.042399114  0.041155328            6 
 3864000   0.62750324   -4.4821203    1959.3182  0.042255827  0.041145619            7 
 3865000   0.62373172   -4.4711384    1965.0692  0.042368891  0.041135891           11 
 3866000    0.6223513   -4.4571586    1967.9573  0.042420188  0.041126195            5 
 3867000   0.64524962     -4.46288    1964.0471  0.042324953  0.041116456            7 
 3868000   0.64315397   -4.4606644    1963.6046  0.042304478  0.041106796           11 
 3869000   0.62927436   -4.4658986    1965.6753  0.042338144   0.04109708            7 
 3870000   0.62641098   -4.4630956    1965.9046  0.042332141  0.041087358           17 
 3871000   0.62443134   -4.4492212    1968.9985  0.042387809   0.04107769           15 
 3872000   0.64304537   -4.4536029    1969.6659  0.042391225  0.041068062            6 
 3873000   0.64005522   -4.4637492     1967.712  0.042338239  0.041058413           11 
 3874000   0.63718765   -4.4553676    1972.5996  0.042432448  0.041048734           19 
 3875000   0.64306174   -4.4658123    1968.3264    0.0423296  0.041039096            6 
 3876000   0.63934245   -4.4695787    1965.3832  0.042255401  0.041029385           13 
 3877000   0.62944077   -4.4699797    1965.8748  0.042255067  0.041019698           10 
 3878000   0.64805243   -4.4672111    1968.2716  0.042295677  0.041010029            9 
 3879000   0.61864406   -4.4518581    1967.9757  0.042278417  0.041000354            9 
 3880000   0.63867625   -4.4529585    1969.3878  0.042297849  0.040990674            8 
 3881000   0.62263445   -4.4682351    1969.3216  0.042285527  0.040981008            6 
 3882000   0.62935636   -4.4663834    1964.9084  0.042179898  0.040971334            7 
 3883000   0.63389621   -4.4747232    1971.3151   0.04230653  0.040961598            8 
 3884000   0.62601827   -4.4599475     1964.655  0.042152742  0.040951917            4 
 3885000   0.62506137   -4.4597587    1965.2041  0.042153671  0.040942261            4 
 3886000   0.62888188   -4.4896229    1965.5669  0.042150603  0.040932593           15 
 3887000    0.6251152   -4.4690566    1969.6395  0.042227072  0.040922913            9 
 3888000   0.64535955   -4.4555177    1969.8282  0.042220255  0.040913223            5 
 3889000   0.62195312    -4.502343    1964.2064  0.042088934  0.040903522           10 
 3890000   0.62066737   -4.4477157    1969.1084  0.042183127  0.040893859            5 
 3891000   0.62477842   -4.4598712    1962.4345  0.042029352  0.040884191            5 
 3892000   0.63032218   -4.4712488    1972.6265  0.042236778  0.040874486           12 
 3893000   0.64116027   -4.4601183    1964.5816  0.042053719  0.040864792           13 
 3894000   0.62316805   -4.4474646    1968.4162  0.042124982  0.040855138            6 
 3895000   0.63265699   -4.4867807    1963.6473  0.042012138  0.040845489           13 
 3896000   0.61903149   -4.4677252    1969.4458   0.04212538  0.040835761            8 
 3897000   0.62322905   -4.4748023    1962.7633  0.041971672  0.040826023            8 
 3898000   0.62819817   -4.4751951    1967.3402  0.042058753  0.040816292           12 
 3899000    0.6318591   -4.4668042    1970.2098  0.042109297  0.040806591            7 
 3900000   0.63941845   -4.4639647     1963.839  0.041962372  0.040796921            9 
 3901000   0.64176459   -4.4839164    1965.8425  0.041994413   0.04078726            5 
 3902000   0.64234912   -4.4680422    1962.7943  0.041918552  0.040777583            8 
 3903000   0.63220556   -4.4710974    1963.7093  0.041927348  0.040767881           10 
 3904000   0.62906284   -4.4598402    1966.7584  0.041981693  0.040758273            8 
 3905000   0.62519299   -4.4698517    1963.4122  0.041899534  0.040748638            6 
 3906000   0.63620892   -4.4780957    1973.0846  0.042095165   0.04073893           13 
 3907000   0.63344702   -4.4916799    1967.4649  0.041964527  0.040729266            6 
 3908000   0.63244643   -4.4898279    1965.3023  0.041907675  0.040719518            6 
 3909000   0.62333015   -4.4585675    1964.0425  0.041870096  0.040709852            9 
 3910000   0.63044508   -4.4716141    1967.8929  0.041941451  0.040700184            8 
 3911000   0.63349898   -4.4574475    1966.8302  0.041908083  0.040690467           17 
 3912000   0.60539786   -4.4704376    1963.8067  0.041832964  0.040680741           38 
 3913000   0.61970544   -4.4833864    1962.2006  0.041788071  0.040671007           10 
 3914000   0.61177146   -4.4743349    1968.8316  0.041918575  0.040661314            9 
 3915000   0.63178239   -4.4763259     1971.147  0.041957151  0.040651619            9 
 3916000   0.61461837   -4.4750216    1974.5258   0.04201834  0.040642003           15 
 3917000   0.62266319    -4.469738     1968.261  0.041874331  0.040632387            6 
 3918000    0.6257226   -4.4778392    1963.9459  0.041771863  0.040622745           14 
 3919000   0.63556773   -4.4930461    1963.3979  0.041749551  0.040613057           10 
 3920000   0.61708719   -4.4736685    1968.7213  0.041852068   0.04060338           11 
 3921000   0.63153888   -4.4679504    1963.3329  0.041726874  0.040593665            8 
 3922000   0.61430172   -4.4869609     1959.802  0.041641213  0.040583974            8 
 3923000   0.62349414   -4.4804864     1965.093   0.04174299  0.040574322           15 
 3924000   0.61439334   -4.4887534    1970.8981  0.041855634  0.040564639           10 
 3925000   0.63221029   -4.4813282    1966.6603  0.041754997  0.040554887            8 
 3926000   0.61293063   -4.4875501    1967.1257  0.041754238  0.040545213            6 
 3927000   0.64051517   -4.4730903    1971.8214  0.041843253  0.040535571           11 
 3928000   0.62026272   -4.4972202    1965.7226  0.041703213  0.040525924            7 
 3929000   0.62691738    -4.466118    1966.3688  0.041706304  0.040516284            6 
 3930000    0.6311235   -4.4837332    1970.3703  0.041780541  0.040506649            3 
 3931000   0.61416525   -4.4670383    1961.8621  0.041589546  0.040496948            8 
 3932000   0.62976192   -4.4584999    1966.0362  0.041667434  0.040487276            9 
 3933000   0.61422095   -4.4626276    1967.9381  0.041697137  0.040477566           10 
 3934000   0.62175795   -4.4964069    1961.6857  0.041554095  0.040467829           10 
 3935000   0.60638579   -4.4814016    1968.9775  0.041697957  0.040458133           11 
 3936000   0.62134332   -4.4921166    1968.6485  0.041680396  0.040448402           15 
 3937000   0.63487241   -4.4738292    1963.6619  0.041564259  0.040438629            7 
 3938000   0.60763806   -4.4824195    1968.7147  0.041660629   0.04042888            5 
 3939000   0.61763128   -4.4654618    1966.8656  0.041610932  0.040419138           16 
 3940000   0.61985749   -4.4703195    1966.7019   0.04159691  0.040409456            8 
 3941000   0.61228595   -4.4745798    1973.0401  0.041720377  0.040399735            9 
 3942000   0.61639771   -4.4827555    1966.9063  0.041580127  0.040390015            9 
 3943000   0.61732627    -4.480315    1972.8965  0.041696181  0.040380282            9 
 3944000   0.62299113   -4.4689934    1972.7946  0.041683456  0.040370607            9 
 3945000   0.60334024   -4.4815429    1966.9128  0.041548643  0.040360895           15 
 3946000   0.63195983   -4.4695881    1966.6011  0.041531532  0.040351227           11 
 3947000   0.61550952    -4.466388     1966.028   0.04150891  0.040341599           26 
 3948000   0.62688005   -4.4919379    1968.8104  0.041557125  0.040331965           11 
 3949000   0.61703943   -4.4695097    1966.1698   0.04149088   0.04032234            9 
 3950000   0.62155863   -4.4617494    1967.3831  0.041505973  0.040312729           19 
 3951000   0.63163674   -4.4645193    1971.0263   0.04157231  0.040303123            5 
 3952000    0.6240892   -4.4597162    1972.2627  0.041587861  0.040293503           10 
 3953000   0.62180651   -4.4937061    1968.1361  0.041490346  0.040283854           10 
 3954000   0.62253723   -4.4843163    1969.2637  0.041503618   0.04027422            8 
 3955000   0.61510582   -4.4989862    1966.3822  0.041432411  0.040264619           17 
 3956000   0.60101102   -4.4915094      1967.84  0.041452645  0.040254959            5 
 3957000   0.61572222   -4.4821987    1969.5252  0.041477661  0.040245309            6 
 3958000    0.6213337   -4.4909619    1972.8217  0.041536585  0.040235626           11 
 3959000   0.60930915   -4.4871701    1971.3616  0.041495362  0.040225971           12 
 3960000   0.61790704   -4.5013197     1970.378  0.041464184  0.040216315            5 
 3961000   0.61516133     -4.49719    1973.8885  0.041527571  0.040206684           17 
 3962000    0.6134221   -4.5013321    1966.0114   0.04135141  0.040197006            9 
 3963000   0.62119365   -4.4847851    1967.1535  0.041364992  0.040187339            9 
 3964000   0.61844188   -4.5004244    1973.5311   0.04148863  0.040177673            5 
 3965000   0.61417747    -4.496152    1968.8213  0.041379179     0.040168           15 
 3966000   0.60860528   -4.4883107    1963.2622  0.041251937  0.040158336            9 
 3967000   0.61091218   -4.4866791    1975.1311  0.041490864  0.040148608           10 
 3968000   0.61991384   -4.4895294    1966.8971  0.041307483  0.040138933           15 
 3969000   0.61824307   -4.4819561    1975.0322  0.041467879  0.040129303            7 
 3970000    0.6348865   -4.4865046     1973.167  0.041418282  0.040119672            8 
 3971000    0.6264273   -4.4792461    1973.4795  0.041414411  0.040110074            7 
 3972000   0.61114594   -4.4892066    1969.3314  0.041316957  0.040100427           10 
 3973000   0.61431473   -4.4908872    1972.2512  0.041367798  0.040090813           26 
 3974000    0.6078444   -4.4983209    1973.2469   0.04137827  0.040081243           12 
 3975000    0.6202706    -4.533203    1970.8727  0.041318085   0.04007166           12 
 3976000   0.61718861   -4.5101813    1966.7814  0.041221945  0.040062046            6 
 3977000   0.60853977   -4.4817304    1979.7978  0.041484322  0.040052462            6 
 3978000   0.60547675   -4.4604843    1984.0541  0.041563056  0.040042993            6 
 3979000   0.61835945   -4.4783739      1975.08  0.041364664  0.040033541            8 
 3980000     0.606604   -4.4817382    1972.7927   0.04130638  0.040024032            8 
 3981000   0.61576746   -4.4985042    1971.1094  0.041260767  0.040014514           11 
 3982000   0.61672774   -4.5039192    1979.3041    0.0414219  0.040004965           12 
 3983000   0.61755778   -4.5033675    1973.9062  0.041298564  0.039995399           10 
 3984000    0.6241755   -4.5001622    1971.2894  0.041233464   0.03998584            9 
 3985000    0.6225907   -4.4975561    1976.5852  0.041333859  0.039976316            8 
 3986000   0.62133669   -4.5088711    1974.9603   0.04128952   0.03996675            7 
 3987000   0.61166159   -4.5209189    1973.0106  0.041238412  0.039957233           16 
 3988000    0.6102293    -4.521621    1971.4077  0.041194578  0.039947682           14 
 3989000   0.61646645   -4.4823826    1974.8694  0.041256569   0.03993812            7 
 3990000   0.62046587   -4.4974477    1971.7392  0.041180852  0.039928599            9 
 3991000   0.60983131   -4.5081225    1977.3427  0.041287537  0.039919102            8 
 3992000   0.60966272   -4.4990141    1973.2457  0.041191668  0.039909538           11 
 3993000   0.61803077   -4.5095177    1971.7416  0.041149963  0.039900026           16 
 3994000   0.60593085   -4.4896179    1978.9217   0.04128947  0.039890502            9 
 3995000   0.61270079   -4.5086221    1978.1132  0.041262269   0.03988104            6 
 3996000   0.60579728   -4.5055147    1974.4743  0.041176057  0.039871588           18 
 3997000   0.61189864   -4.5096383    1973.9463  0.041154746  0.039862039            8 
 3998000     0.607193   -4.5001303    1972.0769  0.041105488  0.039852578            9 
 3999000   0.61972619   -4.5049512    1975.7102  0.041170921  0.039843099           10 
 4000000   0.61253081   -4.4982927     1974.177  0.041128688  0.039833663            7 
 4001000   0.61949324   -4.5171134    1980.1075  0.041241929  0.039824219           13 
 4002000   0.61504967   -4.5068477    1974.9864  0.041124988  0.039814752            8 
 4003000   0.61593719   -4.4977373    1978.2115  0.041181852  0.039805286            8 
 4004000   0.60871436   -4.4970758    1980.6544  0.041222411  0.039795827            5 
 4005000   0.61731465   -4.4951304    1975.5967  0.041106881  0.039786372           13 
 4006000   0.59304888   -4.4936213    1979.6761  0.041181479  0.039776903            9 
 4007000   0.62228443   -4.5112946    1973.9662  0.041052454  0.039767463            7 
 4008000   0.60515664   -4.5160884     1977.135  0.041108096  0.039757978            8 
 4009000   0.60667027   -4.5099692    1980.0296  0.041158012  0.039748464           10 
 4010000   0.60491982   -4.5093883    1978.0372  0.041106342  0.039738953            8 
 4011000   0.60728857   -4.5050275     1975.647  0.041046436  0.039729484           11 
 4012000   0.59886482   -4.5117474     1977.694  0.041078722  0.039720047           13 
 4013000   0.60169495   -4.5031729    1975.5478  0.041023918  0.039710653           17 
 4014000   0.59209434   -4.5153843    1973.5283  0.040971772  0.039701214           15 
 4015000   0.58743732   -4.5001051    1978.1689  0.041057886  0.039691793           12 
 4016000   0.60393293   -4.5056112    1978.0827  0.041045873  0.039682305           11 
 4017000    0.6065769   -4.5206453     1977.769  0.041029146  0.039672863            9 
 4018000   0.59354664   -4.4914828    1982.2994  0.041112895  0.039663436           16 
 4019000   0.61626139    -4.499911    1977.3133  0.040999281  0.039653991           11 
 4020000   0.61970573   -4.5048421    1971.5844  0.040870324  0.039644525            8 
 4021000   0.59661126   -4.4827353    1977.6227  0.040985301  0.039635126           11 
 4022000   0.59815247   -4.5224809    1978.6444   0.04099628   0.03962569           13 
 4023000   0.59959021   -4.5053178    1974.6604  0.040903564   0.03961626           11 
 4024000   0.59400415   -4.5052083    1978.8658  0.040980489  0.039606805            9 
 4025000   0.61125353   -4.5268398    1969.7864  0.040782327  0.039597328           26 
 4026000   0.60733683   -4.4800622    1975.8533  0.040897775  0.039587863            7 
 4027000   0.59989525   -4.5166995    1977.9176  0.040930338  0.039578413            9 
 4028000    0.6000932   -4.5251001    1972.7205  0.040812656  0.039568898            9 
 4029000     0.600515   -4.4798332    1976.2812  0.040876173  0.039559447           10 
 4030000   0.60114421   -4.5162451     1975.511  0.040850104  0.039549982           20 
 4031000   0.60903077   -4.5245895     1972.397  0.040775593  0.039540496           17 
 4032000    0.5963246   -4.5080437    1978.6102  0.040893895  0.039531077           17 
 4033000    0.6041533   -4.5168069    1977.4527  0.040859838  0.039521624            9 
 4034000   0.60167492   -4.5028033     1983.795  0.040980726  0.039512208           18 
 4035000    0.6015321   -4.5092741    1980.4464  0.040901414  0.039502823            4 
 4036000   0.58770251   -4.5271981    1975.7713  0.040794749  0.039493372           25 
 4037000   0.62154842   -4.5269049    1980.5612  0.040883519  0.039483927            9 
 4038000   0.59933946   -4.5237928    1976.2871  0.040785189  0.039474514           17 
 4039000   0.59722338   -4.5054723      1975.02  0.040748949  0.039465113           13 
 4040000   0.60552663   -4.5073602    1982.1277  0.040885473  0.039455711           10 
 4041000   0.60288509   -4.5188984    1980.4464  0.040840682  0.039446327           17 
 4042000   0.59646621   -4.5407986    1972.8675  0.040674326   0.03943687           25 
 4043000   0.61037239   -4.5041755    1986.6665  0.040948687  0.039427459           16 
 4044000   0.60761815   -4.4945814    1981.9655  0.040841688  0.039418124           14 
 4045000   0.61009288   -4.5105094     1975.574  0.040699917   0.03940873           10 
 4046000   0.61511433    -4.538241    1972.1355  0.040619038  0.039399314            9 
 4047000   0.59261497   -4.4909185    1977.9479  0.040728686  0.039389916           16 
 4048000   0.60419685   -4.5278298    1977.3838  0.040707011  0.039380493           11 
 4049000   0.61331628   -4.5168578    1981.4716  0.040781091   0.03937112            6 
 4050000    0.5984992   -4.5310771    1979.7309  0.040735205  0.039361719           15 
 4051000   0.61284541   -4.5435264    1976.7794  0.040664434  0.039352235           14 
 4052000   0.59728473   -4.5224452    1978.3135  0.040685948  0.039342752           11 
 4053000   0.60047738   -4.4981546     1982.904  0.040770294  0.039333286           13 
 4054000   0.59580305   -4.5215884    1979.2326  0.040684768  0.039323821           19 
 4055000   0.59901929   -4.5285406    1981.6018  0.040723425  0.039314363           14 
 4056000   0.59585971   -4.5185288    1980.5857  0.040692506   0.03930491           11 
 4057000   0.61160532   -4.5046637     1977.838  0.040626038  0.039295476           10 
 4058000   0.61581325   -4.5331332    1974.5592  0.040548694  0.039286052           12 
 4059000   0.59839096   -4.4882159    1978.6848  0.040623406  0.039276696           15 
 4060000   0.61362417   -4.5176969    1983.4741  0.040711702  0.039267328            9 
 4061000    0.6081837   -4.5195502    1983.3829  0.040699804  0.039257936            9 
 4062000   0.59143124   -4.5298714    1977.8071  0.040575396   0.03924852            9 
 4063000   0.59080447   -4.5165782     1975.193  0.040511793  0.039239063           11 
 4064000   0.61402052   -4.5257047    1981.4097    0.0406293  0.039229666            9 
 4065000   0.60202463   -4.5398818    1976.1323  0.040511117  0.039220242           13 
 4066000    0.5901889   -4.5204603    1986.1655  0.040706787  0.039210903           19 
 4067000   0.60258763   -4.5052707    1986.8774  0.040711364  0.039201602           19 
 4068000    0.6077369   -4.5309826    1986.4398  0.040692392  0.039192281            9 
 4069000   0.61998637   -4.5036769    1988.9471  0.040733741  0.039183005            6 
 4070000   0.59047994   -4.5324952    1988.6299  0.040717238  0.039173706            9 
 4071000   0.59190448   -4.5444547    1985.2068  0.040637166  0.039164354           12 
 4072000   0.59029293   -4.5098738    1987.3747  0.040671551   0.03915505            6 
 4073000   0.60365592   -4.5079475    1980.1921   0.04051461  0.039145793           11 
 4074000   0.60387951   -4.5233751    1985.9905  0.040623271  0.039136538            9 
 4075000   0.60016535    -4.518833    1980.7876  0.040506903  0.039127251            7 
 4076000   0.60503652   -4.5441136     1985.202  0.040587217  0.039117983            9 
 4077000   0.59505855   -4.5325748    1987.0578  0.040615195  0.039108649           13 
 4078000   0.60907778   -4.5377783    1984.8077  0.040559254  0.039099358            5 
 4079000   0.60485494   -4.5034081    1979.9183  0.040449422  0.039090099           14 
 4080000    0.5947116   -4.5285497    1984.2113  0.040527192  0.039080827           22 
 4081000   0.60274848   -4.5381991    1984.1668  0.040516353  0.039071559            6 
 4082000   0.60861389   -4.5440451    1983.5441  0.040493713  0.039062318            8 
 4083000   0.58810212   -4.5322548    1979.6014  0.040403327  0.039053026           28 
 4084000   0.59406867   -4.5366814    1982.4027  0.040450593  0.039043682           20 
 4085000   0.59376533   -4.5048916    1991.4014  0.040624263  0.039034351           15 
 4086000   0.59600418   -4.5323745    1985.2928  0.040489738  0.039025049           14 
 4087000   0.59745425   -4.5134374    1988.2984  0.040541114  0.039015777           13 
 4088000   0.58532606   -4.5257355    1984.4412  0.040452568  0.039006567           10 
 4089000   0.59832659   -4.5123364    1987.5085  0.040505187  0.038997318           12 
 4090000   0.59534779   -4.5393025     1980.001  0.040342319  0.038988055           17 
 4091000   0.58658047   -4.5322838    1981.7684   0.04036846  0.038978649            7 
 4092000   0.59882131   -4.5567777    1982.6353  0.040376248  0.038969293           16 
 4093000     0.589679   -4.5285672    1985.1741  0.040418073  0.038959941           14 
 4094000   0.60557234   -4.5282539    1978.5284  0.040272928  0.038950651           11 
 4095000   0.58358106   -4.5395194    1985.1186  0.040397204  0.038941371            8 
 4096000   0.59051967   -4.5554023    1982.5257   0.04033459  0.038932034           10 
 4097000   0.59618243   -4.5120494    1988.4144   0.04044452  0.038922737           11 
 4098000   0.59320207   -4.5428295    1983.3783  0.040332242  0.038913408           11 
 4099000   0.59444681   -4.5376302    1988.1334  0.040419073  0.038904093            5 
 4100000   0.59475409   -4.5384411    1985.9821  0.040365489   0.03889479           14 
 4101000   0.58003453   -4.5300303    1982.6449  0.040287834  0.038885484            9 
 4102000   0.59521685   -4.5187258    1983.6821  0.040299084  0.038876196           13 
 4103000   0.58854797   -4.5515598    1986.9184  0.040354992  0.038866867           14 
 4104000   0.60029712   -4.5471353    1984.6525   0.04029915  0.038857463            5 
 4105000   0.59714732   -4.5267869    1981.0113  0.040215414  0.038848176            6 
 4106000    0.6164062   -4.5459675    1987.0574  0.040328329  0.038838882           12 
 4107000   0.59806012   -4.5476859    1985.0603  0.040277986  0.038829537           10 
 4108000   0.59087779    -4.540586    1981.7144  0.040200308  0.038820237            7 
 4109000   0.60441767    -4.542353    1984.8699   0.04025452  0.038810949           17 
 4110000   0.60136671   -4.5141497    1988.0004    0.0403082  0.038801643           13 
 4111000   0.60081331   -4.5289183    1982.1408  0.040179615  0.038792377           18 
 4112000    0.5910849    -4.549792    1981.4834  0.040156522  0.038783041            9 
 4113000   0.59028477    -4.556791    1987.3786  0.040266202  0.038773706           14 
 4114000   0.58935024    -4.559782    1983.8583  0.040185106  0.038764371           12 
 4115000   0.58718233   -4.5409337    1987.0842  0.040240667  0.038755064           14 
 4116000   0.58941647   -4.5449501     1987.673  0.040242813  0.038745754           15 
 4117000   0.58351953   -4.5307247    1989.0701  0.040261317  0.038736452            7 
 4118000   0.60359641   -4.5324517    1989.6706  0.040263692  0.038727211           12 
 4119000   0.59913584   -4.5250264     1987.084  0.040201587  0.038717947            6 
 4120000   0.59368436   -4.5238317    1989.2533  0.040235707  0.038708723           14 
 4121000   0.57348549   -4.5405468    1990.4728  0.040250603  0.038699467           22 
 4122000     0.592989   -4.5475029    1986.5708  0.040161952   0.03869019           10 
 4123000   0.59384104   -4.5547188    1982.6761  0.040073491  0.038680909           11 
 4124000   0.58867833    -4.548126    1988.7407  0.040186323  0.038671641           24 
 4125000   0.58639347   -4.5233961    1984.0596  0.040082012  0.038662364            7 
 4126000   0.57899276   -4.5459473     1986.553  0.040122658  0.038653083           16 
 4127000   0.58921675   -4.5313985    1989.1273  0.040164915  0.038643808            5 
 4128000   0.59034114    -4.549243    1985.2995  0.040077912  0.038634527            6 
 4129000    0.6050911   -4.5649276    1986.4932  0.040092297   0.03862524            8 
 4130000   0.59499204    -4.531885    1983.5166  0.040022531  0.038615948           14 
 4131000   0.59484706   -4.5506975    1986.2468  0.040067918  0.038606658           10 
 4132000   0.58849884   -4.5442954    1985.8509  0.040050237  0.038597361           12 
 4133000   0.60297136   -4.5580979    1981.7191  0.039957236  0.038588036           11 
 4134000   0.59984176   -4.5680954    1983.5373  0.039984222  0.038578698           13 
 4135000   0.58546235   -4.5612797    1982.8823  0.039961353  0.038569391           10 
 4136000   0.58856322    -4.541288    1981.4179  0.039922185  0.038560086            9 
 4137000   0.57195526   -4.5392982    1986.7778  0.040020502  0.038550747           17 
 4138000    0.5824377   -4.5550355     1984.452  0.039963991  0.038541423            7 
 4139000   0.58354093   -4.5517315    1986.0753  0.039987019  0.038532094           16 
 4140000   0.59165209   -4.5578262    1981.0705  0.039876621  0.038522788            8 
 4141000   0.58574239   -4.5411197    1982.0958  0.039887623  0.038513465           28 
 4142000   0.57978408   -4.5632789    1980.5233  0.039846356  0.038504135            7 
 4143000   0.59426736   -4.5415961    1987.1695  0.039970421  0.038494836           15 
 4144000   0.58876511   -4.5353969    1985.2055  0.039921281  0.038485518           17 
 4145000   0.59205288   -4.5600207    1978.7382  0.039781628    0.0384762           16 
 4146000   0.58122896   -4.5296114    1982.4205  0.039846047  0.038466943            5 
 4147000   0.58940352   -4.5453958    1984.9756  0.039887782  0.038457682           10 
 4148000   0.58907954   -4.5645942    1986.7144  0.039913098  0.038448405           13 
 4149000   0.58619347   -4.5603317    1982.7903  0.039824663  0.038439131            7 
 4150000   0.58454003   -4.5655755    1981.8739  0.039796665  0.038429815           19 
 4151000   0.59425637   -4.5683091    1984.6327  0.039842462  0.038420436           13 
 4152000   0.58352744   -4.5791387    1979.2067  0.039723962  0.038411115           32 
 4153000   0.58219074   -4.5384816    1985.5233  0.039841146  0.038401771           12 
 4154000   0.58844528   -4.5509718      1988.02   0.03988164  0.038392469            8 
 4155000   0.58719601   -4.5583674    1984.8572  0.039808609  0.038383171           11 
 4156000   0.57309577   -4.5899646    1983.1787  0.039765372  0.038373829            8 
 4157000   0.59727625   -4.5241351    1989.3285   0.03987909  0.038364543            3 
 4158000    0.5824802     -4.54447    1982.8045  0.039738747  0.038355261           11 
 4159000   0.59597068   -4.5617131    1981.3269  0.039699585  0.038345936           10 
 4160000    0.5831529   -4.5650988    1986.3735  0.039791136  0.038336604           12 
 4161000   0.58207617   -4.5480327    1982.1463  0.039696914  0.038327267           10 
 4162000   0.58425959     -4.55204    1986.0101  0.039764739  0.038317955           15 
 4163000   0.57719884    -4.555286    1984.0349  0.039715647  0.038308639            7 
 4164000    0.5762972   -4.5653829     1983.608  0.039697566  0.038299343            8 
 4165000   0.57865693   -4.5545599    1986.7822  0.039751544  0.038290051            9 
 4166000   0.60414821     -4.55971    1981.2445  0.039631232  0.038280737           11 
 4167000   0.57969214   -4.5626455     1986.177  0.039720363  0.038271452           16 
 4168000   0.58896176   -4.5340931    1979.5002   0.03957734  0.038262135            8 
 4169000   0.58469484   -4.5651061    1980.5975   0.03958978  0.038252782            8 
 4170000    0.5914895   -4.5720767    1983.6972  0.039642231  0.038243459            7 
 4171000   0.58711294   -4.5345393    1977.5448  0.039509805  0.038234159           11 
 4172000   0.58055541   -4.5599874     1985.314  0.039655521  0.038224847            8 
 4173000   0.58859901   -4.5500743    1981.9918  0.039579675  0.038215506           23 
 4174000   0.59436914   -4.5780369    1978.7808  0.039506085  0.038206175           17 
 4175000   0.59318399   -4.5672129     1984.021  0.039601217  0.038196855           15 
 4176000   0.58450177   -4.5683321    1979.5937  0.039503386  0.038187508            7 
 4177000   0.59136504    -4.556618    1984.7092  0.039595986   0.03817816           16 
 4178000   0.57968107   -4.5492585    1988.7016   0.03966614  0.038168854           16 
 4179000   0.60040248   -4.5569327      1983.04  0.039543751   0.03815952            8 
 4180000   0.58091692   -4.5562022    1984.8034  0.039569446  0.038150157            9 
 4181000    0.5843789   -4.5667245    1980.2958  0.039470138   0.03814083            9 
 4182000    0.5849774    -4.545533    1983.9304  0.039533126  0.038131517            9 
 4183000   0.56874216   -4.5675869    1983.2699  0.039510517  0.038122203            9 
 4184000   0.59243161   -4.5652333    1978.8988  0.039414013   0.03811285           25 
 4185000   0.57603885   -4.5631697     1982.861  0.039483493  0.038103519           12 
 4186000   0.57744148   -4.5768073     1976.554  0.039348503  0.038094147           10 
 4187000   0.58668318   -4.5391694    1981.4058  0.039435669  0.038084797           16 
 4188000   0.57070694   -4.5632832    1988.8565  0.039574508  0.038075462           13 
 4189000   0.57535659   -4.5439137    1984.9581   0.03948751  0.038066154            8 
 4190000   0.59590465    -4.552967    1982.4378  0.039427959  0.038056834           10 
 4191000    0.5720218    -4.572404    1981.3293  0.039396511  0.038047551            7 
 4192000   0.58823893   -4.5737964    1985.1116  0.039462302  0.038038198           14 
 4193000   0.58212207   -4.5760776    1985.0614  0.039451893  0.038028916           11 
 4194000   0.58142972    -4.592067    1980.6081     0.039354  0.038019574           23 
 4195000    0.5713162   -4.5743978    1986.1986  0.039455674  0.038010228           43 
 4196000   0.58535331   -4.5753942    1982.0209  0.039363301  0.038000911           14 
 4197000   0.58292808   -4.5762532    1981.9617  0.039352745  0.037991576           10 
 4198000   0.58074749   -4.5819767    1981.5092  0.039334389  0.037982259            9 
 4199000   0.58774656   -4.5644601    1982.3851  0.039342405  0.037972925           17 
 4200000    0.5896176   -4.5613863    1982.8583  0.039342426  0.037963598            9 
 4201000   0.58550392   -4.5592234    1986.9669  0.039414562  0.037954269           13 
 4202000   0.58669009   -4.5720057    1986.0511  0.039387019  0.037944964           11 
 4203000   0.57053215    -4.550044    1987.8524  0.039413364  0.037935759            9 
 4204000   0.58261231   -4.5405742     1988.515  0.039417122  0.037926529           15 
 4205000   0.57201813    -4.567626    1984.3926  0.039326053  0.037917271            8 
 4206000   0.57699931   -4.5719676     1989.904    0.0394259  0.037908008           16 
 4207000   0.58233568   -4.5844783    1984.5973  0.039311411  0.037898729           13 
 4208000   0.58549481   -4.5476739    1988.8155  0.039385606  0.037889507           11 
 4209000   0.58055334   -4.5638013     1986.279  0.039326028  0.037880258           11 
 4210000   0.58589566   -4.5937845    1980.7634   0.03920751  0.037870937           23 
 4211000    0.5701766   -4.5809878    1981.5135  0.039213044   0.03786167           13 
 4212000   0.57352231   -4.5640742    1981.6807  0.039207042  0.037852368           14 
 4213000   0.57592169   -4.5737316    1985.8264  0.039279738   0.03784306           18 
 4214000   0.58033402   -4.5798127    1984.5286  0.039244752  0.037833862            9 
 4215000   0.56679382   -4.5815137    1978.7149    0.0391205  0.037824583           22 
 4216000   0.57293916   -4.5783464    1979.9215   0.03913507  0.037815292           23 
 4217000   0.57432027   -4.5959683    1981.8325  0.039163553  0.037805985           12 
 4218000   0.58261011   -4.5952635    1981.6036  0.039149748   0.03779667            7 
 4219000   0.57821845   -4.5592653    1991.2277  0.039330561  0.037787394           13 
 4220000   0.58064061    -4.568713    1985.5619  0.039209358  0.037778118           24 
 4221000   0.55950544   -4.5846446    1985.2916  0.039194732  0.037768823           21 
 4222000   0.57210151   -4.5727162    1985.5982    0.0391915  0.037759536            8 
 4223000   0.57931696   -4.5945703    1985.2655  0.039175656  0.037750287            9 
 4224000   0.56591017   -4.5837599    1983.3595  0.039128778  0.037740983           15 
 4225000   0.57578395   -4.5905722    1986.6699  0.039184812  0.037731703           13 
 4226000   0.57375729   -4.5765901    1987.8045  0.039197911  0.037722444           16 
 4227000   0.58624033    -4.547491    1986.5724  0.039164349  0.037713196            6 
 4228000   0.56901123   -4.5688714    1983.2351  0.039089307  0.037703963           11 
 4229000   0.56430904   -4.5751891    1985.4233  0.039123183  0.037694729           26 
 4230000   0.58045087   -4.5712164    1982.4725  0.039055802  0.037685473            9 
 4231000   0.56457574   -4.5813374    1984.3634  0.039083815  0.037676206           17 
 4232000   0.57693318   -4.5825543    1989.6943   0.03917955  0.037666875            7 
 4233000   0.56195552   -4.5839693    1985.2972  0.039083731  0.037657615           10 
 4234000   0.58155855   -4.5753957     1985.697  0.039082369  0.037648379           11 
 4235000   0.58119053     -4.59691    1982.4497  0.039009243  0.037639131            9 
 4236000   0.57849298   -4.5784921    1989.3373  0.039135531  0.037629839           12 
 4237000    0.5744761   -4.5723988    1988.3468  0.039106814  0.037620565           10 
 4238000   0.56783763   -4.5732677    1986.2633  0.039056616  0.037611357            9 
 4239000   0.58289891   -4.5816329     1983.131  0.038985825  0.037602162           17 
 4240000   0.58453079   -4.6134497     1982.836  0.038970834  0.037592858           23 
 4241000   0.56293822   -4.5691414    1988.8005  0.039078843   0.03758357            7 
 4242000   0.57761736   -4.6062412    1981.2066  0.038920451  0.037574285            6 
 4243000   0.57549889   -4.5858196    1981.5163   0.03891736  0.037564997           15 
 4244000   0.56955003   -4.5787887     1983.501   0.03894716  0.037555678            9 
 4245000   0.57383869   -4.5724481    1983.8911  0.038945644  0.037546441            8 
 4246000   0.57791139   -4.5941632    1982.8447  0.038915935  0.037537103           14 
 4247000   0.57520496   -4.5818826    1978.0435  0.038812563  0.037527775            9 
 4248000   0.57263185   -4.5916725    1981.4341   0.03886994  0.037518463            9 
 4249000   0.58527902   -4.5820801    1977.9623  0.038792703  0.037509141            9 
 4250000   0.58071847   -4.5665787    1984.2617  0.038907092  0.037499809            8 
 4251000   0.58631766   -4.5689564    1990.9952  0.039029939  0.037490492           15 
 4252000   0.58069483   -4.5777738    1987.0937  0.038944295   0.03748124           14 
 4253000   0.58145506   -4.5843511    1983.0159  0.038855237  0.037471994           10 
 4254000   0.57865441   -4.5984917    1980.0273  0.038787558  0.037462696           10 
 4255000   0.58014234   -4.5723553    1985.8668  0.038892809  0.037453391           10 
 4256000   0.57523042   -4.5787347    1984.1022  0.038849119  0.037444075           38 
 4257000   0.55807585   -4.5759143    1981.4334   0.03878775  0.037434773           12 
 4258000   0.57958834   -4.5888085    1979.7237  0.038745179  0.037425402            7 
 4259000   0.57315591    -4.585651    1982.8408  0.038797073  0.037416069           14 
 4260000    0.5762318   -4.5807504    1980.2593  0.038737467  0.037406772            9 
 4261000   0.57471933   -4.5863447    1982.8619  0.038779275  0.037397464           14 
 4262000    0.5675293   -4.5962084    1985.3474  0.038818775  0.037388154           49 
 4263000   0.56526182   -4.6104024    1978.8648  0.038682947  0.037378842           19 
 4264000   0.55984175   -4.5706723    1981.7738  0.038730726  0.037369553            9 
 4265000   0.56999514   -4.5868913    1981.3152  0.038712685  0.037360254            7 
 4266000   0.57681288   -4.5960412     1981.569  0.038708568  0.037350994           10 
 4267000   0.57042333    -4.609373    1979.6782  0.038662569  0.037341707            7 
 4268000   0.58027142    -4.586106    1990.1272  0.038857529  0.037332426           23 
 4269000   0.57507969   -4.5847715    1982.8376  0.038706129  0.037323173           16 
 4270000   0.56810396    -4.593892    1987.5168  0.038788383  0.037313895           21 
 4271000   0.57049934   -4.5850317    1985.1437     0.038733   0.03730463           21 
 4272000   0.55525715   -4.5798889    1985.9252  0.038739178  0.037295383           26 
 4273000   0.58018189   -4.5811908    1984.1676  0.038695835  0.037286136           24 
 4274000   0.56800637    -4.614293    1979.1211  0.038588385  0.037276893           10 
 4275000   0.57214745   -4.5844232    1981.8807  0.038633152  0.037267579           26 
 4276000   0.55735596   -4.5832251    1980.7162  0.038601423  0.037258293           10 
 4277000    0.5704287   -4.6026907    1985.4047  0.038683748  0.037248973           13 
 4278000   0.56614465   -4.5946961    1986.8994  0.038703821  0.037239749            9 
 4279000   0.55576397   -4.5795715     1977.681  0.038515248  0.037230466            9 
 4280000   0.55786281   -4.5810595    1983.1249  0.038612245  0.037221224           12 
 4281000   0.56699019   -4.6200428    1983.0372  0.038601519  0.037211907            7 
 4282000   0.55900576   -4.6033411     1982.126   0.03857477  0.037202599           10 
 4283000   0.56322053   -4.5996774    1985.3115  0.038627743  0.037193312           10 
 4284000   0.56789882   -4.6140812    1987.2473  0.038656383  0.037184076           13 
 4285000   0.56414933   -4.5634992    1985.7158  0.038617578  0.037174835           13 
 4286000   0.56672323   -4.5990277    1979.0037  0.038478063  0.037165571           17 
 4287000   0.55288863   -4.5903223    1984.9196  0.038584084  0.037156324           11 
 4288000   0.56330243   -4.5799416    1985.3484  0.038583419  0.037147073           30 
 4289000   0.56681553   -4.6018434    1987.0848   0.03860816  0.037137793           13 
 4290000    0.5720488   -4.6106558    1984.7076  0.038552984   0.03712847           12 
 4291000   0.56515275   -4.5931765    1980.5547  0.038463349   0.03711919           14 
 4292000   0.56743779   -4.5980097    1980.0661  0.038444899  0.037109911           12 
 4293000   0.56774018   -4.6110847    1985.3442    0.0385384  0.037100665            7 
 4294000   0.56110823   -4.5992241    1984.6251  0.038515469  0.037091451           23 
 4295000   0.55596039   -4.6089115    1985.7889  0.038529081  0.037082185           13 
 4296000   0.58070153   -4.5841862    1983.4949  0.038475615  0.037072904            9 
 4297000   0.55708426      -4.6115    1981.6581  0.038431039  0.037063634           13 
 4298000   0.56384751    -4.605108    1980.2673  0.038395131  0.037054365            9 
 4299000   0.57039272   -4.6168937    1981.4259  0.038408659  0.037045078           11 
 4300000   0.57012908   -4.6067103    1986.2097  0.038492436  0.037035779           15 
 4301000   0.56249094   -4.6114739    1979.5584  0.038354614  0.037026494           12 
 4302000   0.54987373   -4.6008042     1982.888  0.038410198  0.037017246           15 
 4303000   0.55998549   -4.5993174    1984.6388  0.038435177  0.037008027           12 
 4304000   0.56378034   -4.6070327    1980.8778  0.038353428  0.036998779           30 
 4305000   0.56242616   -4.6201597    1984.7592  0.038419652  0.036989525           13 
 4306000   0.55394474   -4.6162211    1986.7047   0.03844838  0.036980267            7 
 4307000   0.56768787   -4.5997857    1985.8797  0.038423492  0.036971034            7 
 4308000   0.56565959   -4.6073558    1985.6354  0.038409847  0.036961802           38 
 4309000   0.56058357   -4.5919867     1990.491  0.038494836  0.036952569           25 
 4310000   0.56743433   -4.5889755    1989.5216  0.038467161  0.036943368           26 
 4311000   0.55606895   -4.5998836    1984.1101  0.038353632  0.036934189            8 
 4312000   0.56083618   -4.6081357    1978.0386    0.0382274  0.036924954            7 
 4313000   0.56179636   -4.5988528    1983.9705   0.03833315  0.036915712           13 
 4314000   0.56735168   -4.6248333    1981.3042  0.038272759  0.036906448           10 
 4315000   0.56228222   -4.6036921    1983.1923  0.038300354  0.036897189           13 
 4316000   0.56298332   -4.5991618    1985.1501  0.038329281  0.036887959            7 
 4317000   0.55939147    -4.587172    1986.4962  0.038346387  0.036878724           10 
 4318000   0.55972727   -4.5924651    1983.3582  0.038276945  0.036869486           10 
 4319000   0.55245353   -4.5971836    1977.8602  0.038162002  0.036860241           10 
 4320000   0.56652214   -4.5953177    1985.5045  0.038300628  0.036851018            5 
 4321000   0.56887505   -4.6022115    1985.5416  0.038292479  0.036841781           14 
 4322000    0.5760743   -4.6154651    1982.3245  0.038221589  0.036832538           11 
 4323000   0.56847662   -4.6124591    1988.4322  0.038330484  0.036823304           13 
 4324000   0.55817498   -4.6117216     1982.642  0.038210029  0.036814063           12 
 4325000   0.55778608   -4.5972724    1986.2062  0.038269869  0.036804868           16 
 4326000   0.56048775   -4.6040807    1985.7065  0.038251397  0.036795671           10 
 4327000    0.5632118   -4.6063092    1985.8686  0.038245678  0.036786479           16 
 4328000   0.55034641   -4.5959583    1985.8245  0.038235993  0.036777274            9 
 4329000    0.5525583   -4.6087277    1981.2808  0.038139694  0.036768066           16 
 4330000    0.5684251   -4.5908242    1982.9807  0.038163601  0.036758857            7 
 4331000   0.54542725   -4.6025163    1986.5063  0.038222626   0.03674965            8 
 4332000   0.54811588    -4.610417    1984.2684  0.038170752  0.036740397           14 
 4333000    0.5539278   -4.6083306    1986.7991  0.038210613  0.036731123           16 
 4334000   0.56648938   -4.6232862    1977.7425   0.03802766  0.036721843           17 
 4335000   0.56952728   -4.6054613     1982.102  0.038102691  0.036712614           10 
 4336000   0.55888307   -4.6292002    1980.2885  0.038059051  0.036703354            6 
 4337000   0.55652985   -4.6231601    1981.7145  0.038077675  0.036694092            9 
 4338000   0.55191857   -4.6138226    1980.2179  0.038040147  0.036684843            8 
 4339000   0.54590672   -4.5988552    1988.1392  0.038183514   0.03667565            9 
 4340000   0.56218954   -4.5995922    1980.5932  0.038029823  0.036666431            7 
 4341000    0.5470879   -4.6238742    1985.8324  0.038121638  0.036657263           12 
 4342000   0.55786663   -4.6004532    1980.8363  0.038016971  0.036648048           18 
 4343000   0.56149215   -4.5999282    1989.2426  0.038169519  0.036638886           16 
 4344000   0.54591119   -4.5988341    1986.7211   0.03811236  0.036629675           14 
 4345000   0.56266697   -4.6295435    1983.2863  0.038037712  0.036620458            7 
 4346000   0.56044819   -4.6198245    1985.6618  0.038074509  0.036611251           13 
 4347000   0.55340567    -4.615861     1984.153  0.038036826  0.036602038           10 
 4348000    0.5658043   -4.6082579     1986.367  0.038070511  0.036592806           10 
 4349000   0.55600961   -4.6278018    1980.8016  0.037955115  0.036583555           16 
 4350000   0.55846382   -4.6210016    1987.6902  0.038078357   0.03657431            8 
 4351000   0.57382339   -4.6119556    1982.6682  0.037973419  0.036565096           11 
 4352000   0.54688068   -4.6060854    1985.0098  0.038009532  0.036555863            7 
 4353000   0.56283509   -4.6348941    1982.3792  0.037950441  0.036546625           12 
 4354000   0.54691189   -4.6115111    1983.1179  0.037955862  0.036537403           15 
 4355000   0.55929837   -4.6149968    1982.8369  0.037941771  0.036528221           13 
 4356000   0.55608671   -4.6089826    1983.4397  0.037944592  0.036519002           17 
 4357000   0.55185813   -4.6063625    1981.1263  0.037891637  0.036509786           34 
 4358000   0.53622106   -4.6345269    1982.7304  0.037913616  0.036500562           14 
 4359000   0.55430022   -4.6168868    1984.8481  0.037945402  0.036491358           13 
 4360000   0.55531541   -4.6324251    1977.2049  0.037790613  0.036482109           29 
 4361000   0.55713996   -4.6062141    1983.7616  0.037907239  0.036472889            5 
 4362000   0.54651184   -4.6103903    1984.2635  0.037908136  0.036463668            9 
 4363000   0.55562081   -4.6196426    1988.2765  0.037976096  0.036454464           13 
 4364000   0.56136332   -4.6147421    1981.9568  0.037846715  0.036445245           28 
 4365000    0.5687736    -4.618047    1983.7334  0.037871963   0.03643604           27 
 4366000   0.56219006    -4.627336    1981.4009  0.037818768   0.03642681            7 
 4367000   0.55528127   -4.6359169    1985.1024  0.037880743  0.036417575            9 
 4368000   0.55480712   -4.6239445    1983.9232  0.037849574  0.036408384           12 
 4369000   0.54994772   -4.5962286    1985.1575  0.037864452  0.036399192           13 
 4370000   0.54751354    -4.600427    1985.0933  0.037854563  0.036390016           18 
 4371000   0.55124286   -4.6145367    1980.3791  0.037756027   0.03638084           12 
 4372000   0.54439301   -4.6266023    1982.9357  0.037796121  0.036371666           13 
 4373000   0.54767272   -4.5978614    1984.1113   0.03780988    0.0363625            9 
 4374000   0.53993977   -4.6269443    1983.8228  0.037795739  0.036353316           19 
 4375000   0.55447692   -4.6211625    1983.0145  0.037771705  0.036344149           12 
 4376000   0.55312463   -4.6135605    1979.4804  0.037695772  0.036334977           10 
 4377000   0.54303238   -4.6336136    1983.3748  0.037761306  0.036325765           15 
 4378000   0.54556625   -4.6347125     1981.119  0.037709742  0.036316592           12 
 4379000   0.55680036   -4.6197919    1986.6579  0.037806536  0.036307432            8 
 4380000   0.56430753   -4.6049274    1984.7602  0.037761801  0.036298302           11 
 4381000   0.55109671   -4.6091396    1986.6497  0.037789121  0.036289177           16 
 4382000   0.56459335   -4.6346234    1980.8217  0.037669666  0.036280021            7 
 4383000   0.55731148   -4.6393046    1981.7232  0.037678212  0.036270847            9 
 4384000   0.55179115   -4.6318429    1984.4973  0.037722349  0.036261669            8 
 4385000   0.55645484   -4.6326774    1980.9434  0.037646207  0.036252512           23 
 4386000   0.55881338   -4.6438164    1983.9691   0.03769511  0.036243394           19 
 4387000   0.55473972   -4.6262031    1984.7645  0.037701629  0.036234282           11 
 4388000   0.56191505    -4.625504    1981.7146  0.037635115  0.036225128           20 
 4389000   0.55072291   -4.6130411    1988.7932  0.037760941  0.036215982           11 
 4390000   0.55553017   -4.5993955    1981.2318  0.037608804  0.036206864           11 
 4391000   0.53396209   -4.6415145    1979.6014  0.037569297  0.036197721           13 
 4392000   0.55093413   -4.6231093    1983.4071  0.037632953  0.036188571           12 
 4393000   0.55786693   -4.6103193    1984.0162   0.03763594  0.036179424           15 
 4394000   0.53964945   -4.6226178    1981.9997   0.03758913  0.036170246           11 
 4395000   0.54322024   -4.6427891    1982.7485  0.037594776   0.03616111           13 
 4396000   0.53892355    -4.623166    1982.8379  0.037587919  0.036151951           14 
 4397000   0.54706132   -4.6256078    1982.9644  0.037581768   0.03614282           11 
 4398000   0.55517536   -4.6231382    1976.8745  0.037457832  0.036133676           18 
 4399000   0.54289404   -4.6473688    1978.2424  0.037475229  0.036124488           20 
 4400000   0.55963435   -4.6235595    1982.2868  0.037543311  0.036115331           20 
 4401000   0.53725521   -4.6344728    1983.4941   0.03755764  0.036106177           20 
 4402000   0.53280418   -4.6251977     1977.905  0.037443303  0.036096984           30 
 4403000   0.55347182    -4.645564    1987.9422  0.037624768  0.036087809           39 
 4404000   0.54797765    -4.634797    1986.5394  0.037589679  0.036078665           43 
 4405000   0.53590611   -4.6414674    1984.0984  0.037534967  0.036069509           25 
 4406000   0.55151555   -4.6437752    1981.5113  0.037477517  0.036060343           12 
 4407000   0.53980812   -4.6382371    1980.7324  0.037454284  0.036051185           26 
 4408000     0.552402   -4.6377418    1987.5166  0.037574044  0.036042081           15 
 4409000   0.54366603   -4.6417278    1980.9522  0.037441449  0.036032982           14 
 4410000   0.54198445   -4.6183083    1982.4096  0.037460499  0.036023863           12 
 4411000   0.53622698   -4.6192102    1982.1836  0.037447738  0.036014769            7 
 4412000   0.55618942   -4.6402153    1985.5768  0.037503339  0.036005648           12 
 4413000   0.53633973   -4.6282676    1986.3303   0.03750907  0.035996539           16 
 4414000   0.54575985   -4.6041536    1982.5929  0.037430012  0.035987407           15 
 4415000   0.53594411   -4.6527305    1977.2462  0.037320616  0.035978256           11 
 4416000   0.53992084   -4.6533889    1983.9545  0.037438756  0.035969087           24 
 4417000   0.54346883   -4.6351352    1981.3579  0.037381291  0.035959957           10 
 4418000   0.53967192   -4.6463048    1984.3315  0.037428917  0.035950832           11 
 4419000   0.54304072   -4.6337497    1982.3896  0.037383827  0.035941705           11 
 4420000   0.54964471   -4.6357165    1986.1771  0.037446777  0.035932558           10 
 4421000   0.54745874   -4.6247676    1985.9654  0.037434317   0.03592342           13 
 4422000   0.53921268   -4.6457551    1986.3281  0.037432686  0.035914327           11 
 4423000   0.53193621   -4.6325104    1980.5499  0.037315357    0.0359052           26 
 4424000   0.54808653   -4.6514626    1977.8126  0.037255361  0.035896073           12 
 4425000   0.54141182   -4.6488901     1983.935  0.037362242  0.035886893           22 
 4426000   0.53777654   -4.6280085     1981.473  0.037307444  0.035877736           16 
 4427000   0.53958224   -4.6367045    1980.6408  0.037283353  0.035868578           30 
 4428000    0.5470789   -4.6501762    1984.3626  0.037344975  0.035859459           27 
 4429000   0.54988033   -4.6470883    1986.8918  0.037384131  0.035850339           24 
 4430000   0.54675162   -4.6351712    1984.3407  0.037327703  0.035841263           22 
 4431000   0.53211966   -4.6401308    1981.7425  0.037270414  0.035832195           11 
 4432000   0.53977278   -4.6353238    1983.4186   0.03729352  0.035823111           14 
 4433000   0.54131836   -4.6271391    1985.0785   0.03731631  0.035814038           10 
 4434000   0.54347658   -4.6320498    1983.0159  0.037269131  0.035804958           21 
 4435000   0.54307938   -4.6528914    1984.0494  0.037280146   0.03579586           14 
 4436000   0.54508619   -4.6386554     1986.125  0.037310735  0.035786779           27 
 4437000   0.54885772   -4.6494113    1984.5363  0.037272487   0.03577769           19 
 4438000   0.53488653   -4.6554272    1979.4715  0.037168986  0.035768572           22 
 4439000   0.55010655   -4.6532937    1981.9493  0.037207129  0.035759434           20 
 4440000   0.53769053   -4.6580708    1982.0247  0.037200164  0.035750292           43 
 4441000    0.5499613    -4.626593     1981.923  0.037189878  0.035741171           79 
 4442000   0.53438928   -4.6480422    1987.7617  0.037291042  0.035732045           19 
 4443000   0.53481089   -4.6602609    1982.5523  0.037184941  0.035722935           26 
 4444000   0.53728058   -4.6570971    1979.9098  0.037127021  0.035713851           27 
 4445000   0.54242724   -4.6548219    1982.9765  0.037176163  0.035704757           31 
 4446000   0.54402518    -4.632988    1981.0847  0.037132341  0.035695635           31 
 4447000   0.55194304   -4.6388388    1983.4196  0.037167746  0.035686549           16 
 4448000   0.55696274   -4.6299048    1982.7759  0.037147331  0.035677492           17 
 4449000   0.53430255   -4.6435399    1980.9023  0.037103887  0.035668405           15 
 4450000   0.53608584   -4.6357188     1982.994   0.03713472  0.035659302           13 
 4451000     0.543079   -4.6531839    1982.3717  0.037114725   0.03565023           13 
 4452000   0.54428385   -4.6550283    1983.4403   0.03712639   0.03564114           13 
 4453000   0.53903028   -4.6500531    1985.3192  0.037153216  0.035632102           18 
 4454000    0.5444694   -4.6431586    1979.7387  0.037040463  0.035623017           14 
 4455000   0.53514925   -4.6652578    1982.9247  0.037091746  0.035613906           18 
 4456000   0.54570673   -4.6664538     1985.457  0.037130778  0.035604785           23 
 4457000   0.54344249   -4.6548612    1978.1581  0.036985979  0.035595685           16 
 4458000   0.53704598   -4.6589449     1984.423  0.037094792  0.035586613           26 
 4459000   0.52918341   -4.6453064    1984.5651  0.037089129  0.035577531           45 
 4460000   0.52468955   -4.6405209    1983.0011   0.03705159  0.035568492           57 
 4461000   0.54167694   -4.6390931    1980.1105  0.036989287  0.035559447           18 
 4462000    0.5329558   -4.6444336    1986.2867  0.037096346  0.035550409           30 
 4463000   0.53430189   -4.6460621    1977.0722  0.036915979  0.035541345           11 
 4464000   0.54877607   -4.6543317    1982.5773  0.037010478  0.035532281           23 
 4465000   0.52568777    -4.637731    1985.4249  0.037055337  0.035523216            7 
 4466000   0.53888391   -4.6560177    1982.1981  0.036986828  0.035514146           27 
 4467000   0.53800418   -4.6499954    1984.0603  0.037013289  0.035505072           19 
 4468000   0.53219226   -4.6494963    1981.0387  0.036948648  0.035496011           35 
 4469000   0.53397228   -4.6434158    1984.0946  0.036997363  0.035486969           11 
 4470000   0.53971994   -4.6564807    1985.9077  0.037022888   0.03547792           24 
 4471000    0.5278394   -4.6349618    1979.1642  0.036888918  0.035468843           13 
 4472000   0.53698266   -4.6655649    1983.1413   0.03695478  0.035459795           13 
 4473000   0.54686546    -4.668132    1981.1853  0.036910076  0.035450742           11 
 4474000   0.54562292   -4.6702826    1985.3655  0.036979688   0.03544169           15 
 4475000   0.53131913    -4.677288    1979.4085  0.036860494  0.035432647           40 
 4476000   0.53871929   -4.6789191    1987.5497  0.037003829  0.035423625           29 
 4477000   0.53789898   -4.6657067    1984.7116  0.036942736  0.035414597           29 
 4478000   0.53507156   -4.6433377    1984.9888  0.036939646  0.035405606           11 
 4479000   0.52896989   -4.6615255     1983.345  0.036900815   0.03539661           21 
 4480000   0.52711603   -4.6477688    1985.4701  0.036932108  0.035387582           18 
 4481000   0.52053411   -4.6567793    1979.0043   0.03680362  0.035378579           23 
 4482000   0.52704553   -4.6521786    1983.2862  0.036875023  0.035369551            9 
 4483000   0.55072927   -4.6435978    1988.7438  0.036968246  0.035360573           37 
 4484000   0.53241293   -4.6735617    1982.4905  0.036843787  0.035351583           20 
 4485000   0.53498371   -4.6626225    1987.4382  0.036927502   0.03534258           15 
 4486000   0.53520382   -4.6569515    1991.1748  0.036988684  0.035333604           21 
 4487000   0.52791874   -4.6530387    1986.1147  0.036886462  0.035324594           29 
 4488000   0.54489527   -4.6717717    1986.7166   0.03688942  0.035315596            9 
 4489000   0.52919444   -4.6601444    1984.7947  0.036845524  0.035306633           13 
 4490000   0.53393123   -4.6375649    1984.0108  0.036822769  0.035297647           28 
 4491000   0.53582858   -4.6467059    1982.4443  0.036785502  0.035288644           23 
 4492000   0.53184849   -4.6540134    1982.5541  0.036779351  0.035279685           36 
 4493000   0.52735409   -4.6511702    1990.0287  0.036909799  0.035270721           10 
 4494000   0.51582125   -4.6434591    1980.7448  0.036729432  0.035261761           22 
 4495000   0.53212348   -4.6509427    1984.5853   0.03679246   0.03525277           13 
 4496000   0.53505404   -4.6657336    1983.3512  0.036761402  0.035243767           13 
 4497000   0.54192776   -4.6445652     1986.625  0.036813895  0.035234771           22 
 4498000   0.52905041   -4.6447777    1982.8606  0.036735967  0.035225782           19 
 4499000   0.53957547   -4.6584718    1983.6806  0.036742991  0.035216814           16 
 4500000   0.53166594   -4.6703993    1984.4992  0.036749985  0.035207837           41 
 4501000   0.53488693   -4.6619161    1983.3405  0.036720367  0.035198848           36 
 4502000   0.53127684   -4.6590202    1985.2109  0.036746834  0.035189852           16 
 4503000   0.53071999   -4.6736895    1983.9614  0.036715548  0.035180866           22 
 4504000   0.54094999   -4.6856993    1987.1579  0.036766539  0.035171876           32 
 4505000   0.53903066   -4.6793654     1983.726  0.036694895  0.035162891            7 
 4506000   0.52883068   -4.6675971    1984.5029  0.036701118  0.035153876            7 
 4507000   0.50168494   -4.6673162    1983.7653  0.036679337  0.035144899           29 
 4508000   0.52904288   -4.6557745    1982.3367  0.036644792  0.035135951           25 
 4509000   0.52456847   -4.6608749     1982.227  0.036634638  0.035127009           23 
 4510000   0.53133554   -4.6694548    1985.2953  0.036683209  0.035118074           25 
 4511000   0.52291112   -4.6651174    1989.7586  0.036757529  0.035109125           27 
 4512000    0.5198151   -4.6792804    1985.5659  0.036671946  0.035100176           11 
 4513000   0.52244658   -4.6767251    1986.9156  0.036688744  0.035091213           13 
 4514000   0.52339844   -4.6616838    1984.7026  0.036639761   0.03508228           12 
 4515000   0.52466419   -4.6916695    1983.6213  0.036611688  0.035073322           12 
 4516000   0.52951909   -4.6582799    1986.9334  0.036664699  0.035064356           12 
 4517000   0.52946555   -4.6959741    1984.1179   0.03660464  0.035055398           14 
 4518000   0.52931507   -4.6629356     1981.777  0.036553362   0.03504641           18 
 4519000   0.51979916   -4.6652247    1982.4315   0.03655734  0.035037459           14 
 4520000   0.53150731     -4.67654    1984.0325   0.03657877  0.035028481           23 
 4521000   0.53103092   -4.6766401     1981.567  0.036525234  0.035019495           21 
 4522000   0.52770971    -4.680639     1979.982  0.036487948  0.035010505           44 
 4523000   0.52398083   -4.6751417    1981.1943  0.036502216  0.035001529           13 
 4524000   0.52285291   -4.6715559    1978.8356    0.0364507  0.034992552           62 
 4525000   0.53414997   -4.6785196    1983.5088  0.036528707  0.034983567           26 
 4526000   0.53217084   -4.6759003    1985.3682  0.036554871   0.03497455           20 
 4527000   0.53068435   -4.6648681     1978.299  0.036416667  0.034965517           24 
 4528000   0.53188056   -4.6967916    1978.6972  0.036415953  0.034956493           44 
 4529000   0.53461981   -4.6850339    1984.1233  0.036507751  0.034947472           17 
 4530000   0.53735204   -4.6914645    1979.2029  0.036409178  0.034938458           21 
 4531000   0.52935441    -4.689983    1983.3417  0.036477262  0.034929446            7 
 4532000   0.52864889    -4.684099    1979.9056  0.036406031  0.034920458           45 
 4533000   0.52868551   -4.6864351    1980.7718  0.036413924  0.034911431           24 
 4534000   0.53393574   -4.6890347    1982.4243  0.036436264  0.034902407           16 
 4535000    0.5217797   -4.6893149    1986.9609  0.036511593  0.034893409           19 
 4536000   0.51674928   -4.6776855    1981.5398   0.03640395  0.034884442           14 
 4537000   0.52442012   -4.6564262    1988.3065  0.036520214  0.034875458           18 
 4538000   0.52914755   -4.6638035    1984.0622  0.036434226   0.03486653           22 
 4539000   0.52918787   -4.6598843    1982.1022  0.036390214  0.034857593           23 
 4540000   0.53221976   -4.7009225    1979.2454   0.03632976  0.034848658           14 
 4541000   0.52751822   -4.6788076     1981.597  0.036364916  0.034839678           14 
 4542000   0.53050507   -4.6800799    1983.0315  0.036383229    0.0348307           23 
 4543000     0.525815   -4.6853569    1983.3799  0.036381611  0.034821743           22 
 4544000   0.52262647   -4.6626182     1985.997  0.036421599  0.034812789            9 
 4545000   0.52344505   -4.6854367    1983.8463  0.036374153  0.034803845           26 
 4546000   0.52893266    -4.678839    1984.6038  0.036380038  0.034794932           23 
 4547000   0.52420978   -4.6848249    1984.0605  0.036362079  0.034785963           24 
 4548000   0.51861812   -4.6790231    1982.6953  0.036329069  0.034776993           11 
 4549000   0.51981466   -4.6940722    1986.1526  0.036384418  0.034768056           19 
 4550000   0.51708092   -4.6771133    1986.7477  0.036387321  0.034759109           12 
 4551000   0.52397557   -4.6886959    1976.8594  0.036198261  0.034750164           15 
 4552000   0.53034432   -4.6666648    1985.1899  0.036342815  0.034741219           25 
 4553000   0.51643154   -4.6872265    1984.5355  0.036322856  0.034732289           13 
 4554000   0.53038488   -4.6740581    1981.4025  0.036257548  0.034723346           56 
 4555000   0.51964794   -4.6904739    1980.2214   0.03622798  0.034714381           39 
 4556000   0.52114516   -4.6776638    1985.6082  0.036318558  0.034705413           42 
 4557000   0.51953725   -4.6674375    1987.9785  0.036353934  0.034696493           27 
 4558000   0.52607351   -4.6897388    1981.5423  0.036228286  0.034687612           13 
 4559000   0.53409276   -4.6867445     1983.284  0.036252175  0.034678726           27 
 4560000     0.518625   -4.6909182    1981.5868   0.03621321  0.034669822           19 
 4561000   0.52050344   -4.6897902    1984.4872  0.036258262  0.034660929           19 
 4562000   0.52748942   -4.6998217      1984.19  0.036244885  0.034651994           37 
 4563000   0.52706663   -4.7061184    1983.1887  0.036218656  0.034643051           21 
 4564000   0.53051945   -4.6775312     1986.888  0.036278265  0.034634125           13 
 4565000   0.51479836   -4.7014099    1985.8686  0.036251708  0.034625224           18 
 4566000   0.52459953   -4.6980915    1980.4462  0.036144806  0.034616311           17 
 4567000   0.51609655   -4.6913511    1981.8921  0.036163275  0.034607393           10 
 4568000   0.52386076   -4.6829371    1983.4258  0.036183336  0.034598525           11 
 4569000   0.51801583   -4.6731172    1987.1702  0.036243712  0.034589674           12 
 4570000   0.52219424   -4.6720951     1984.867  0.036193782  0.034580834            8 
 4571000     0.520107   -4.6920546    1982.1409  0.036136164  0.034572005           12 
 4572000   0.52376794   -4.7009497    1979.4866  0.036079881  0.034563122           10 
 4573000   0.51755761   -4.7077556    1977.8255  0.036041722  0.034554203           19 
 4574000   0.51926327   -4.7020609    1981.3233  0.036097568  0.034545285           30 
 4575000    0.5243895   -4.7057948    1986.3706  0.036181615  0.034536343           27 
 4576000   0.52660667   -4.6871438    1984.7034  0.036143346   0.03452743           17 
 4577000   0.51215495   -4.6810825    1984.2845  0.036127822  0.034518557           25 
 4578000   0.51605775    -4.679817    1983.8252   0.03611157  0.034509694           19 
 4579000    0.5203196   -4.6663033    1986.5436  0.036153157  0.034500847           31 
 4580000   0.53037388    -4.698294    1986.2841   0.03614054  0.034491956           20 
 4581000    0.5197511   -4.6925228    1984.5892  0.036101819  0.034483093           10 
 4582000    0.5149494   -4.6993867    1983.6211  0.036076334  0.034474201           17 
 4583000   0.52393518   -4.6866462    1984.7375  0.036088761  0.034465339           15 
 4584000   0.52771867   -4.7028101    1983.8724  0.036065162  0.034456483           14 
 4585000   0.51985056   -4.7074379     1984.598  0.036070484  0.034447608           22 
 4586000   0.51189123   -4.7011086    1980.3652  0.035985704  0.034438734           21 
 4587000   0.51505756   -4.6908407    1984.0915  0.036045555  0.034429893           27 
 4588000   0.52640741   -4.6916389    1979.9141  0.035961823  0.034421045           13 
 4589000   0.52393008   -4.6857128    1985.0081   0.03604649  0.034412207           30 
 4590000   0.51455394   -4.6866091    1982.6895  0.035996542  0.034403384           33 
 4591000   0.52846517   -4.6981757    1983.5163  0.036003708   0.03439457           39 
 4592000   0.51576512   -4.7031514    1983.5316  0.035996145  0.034385711           20 
 4593000   0.50995128   -4.7168978     1985.648  0.036026707  0.034376873           48 
 4594000   0.50633254   -4.7048424    1984.9781  0.036006714     0.034368           14 
 4595000   0.51230854   -4.7122098    1980.8066  0.035923224  0.034359128           19 
 4596000   0.50957612   -4.7184531      1981.62  0.035930156  0.034350255           16 
 4597000   0.51590387   -4.7191492     1980.238  0.035897288  0.034341381           29 
 4598000   0.52160726   -4.7011516    1986.8622  0.036009536  0.034332521           29 
 4599000   0.52121752   -4.7256021    1984.8062  0.035964453  0.034323687           12 
 4600000   0.51726046   -4.6938561    1981.3519  0.035894057  0.034314836           19 
 4601000   0.50743764   -4.6962785    1982.1959  0.035901542  0.034305999           31 
 4602000   0.51057033   -4.6895996    1986.7481  0.035976172  0.034297188           24 
 4603000   0.51740981   -4.6896343    1982.1563  0.035885225  0.034288428           17 
 4604000   0.51298305   -4.6891765    1986.3583  0.035953487  0.034279676           13 
 4605000   0.51543784   -4.6978622    1982.8099  0.035881468  0.034270896           32 
 4606000   0.51493891   -4.6969979    1984.3787  0.035902061  0.034262089           23 
 4607000   0.51302838   -4.6808477    1987.0874  0.035943263  0.034253306           13 
 4608000   0.51473821   -4.6835861     1988.371  0.035958676  0.034244527           17 
 4609000   0.52814854   -4.7031253    1982.1731  0.035838814   0.03423574           16 
 4610000   0.51925927   -4.7127773    1983.1775  0.035849195  0.034226931           25 
 4611000   0.50924844   -4.7071879    1987.7031  0.035923212  0.034218127           36 
 4612000   0.51786762   -4.7126732    1981.1954  0.035797835  0.034209326           13 
 4613000   0.51199161   -4.7034291    1984.5986  0.035851554  0.034200489           14 
 4614000   0.51958514    -4.700711    1984.8472  0.035848273  0.034191716            9 
 4615000   0.52108691   -4.7004491    1986.3996  0.035868537  0.034182927           18 
 4616000   0.52505006   -4.6978876    1986.8905  0.035869629  0.034174113           16 
 4617000   0.51075884   -4.7364121    1987.3055  0.035869351  0.034165305           18 
 4618000   0.50635269   -4.7090641    1985.1665  0.035822985  0.034156487           18 
 4619000   0.53464096   -4.7163841    1980.5237  0.035731465  0.034147671           20 
 4620000   0.51097427    -4.698019    1984.7424  0.035799826  0.034138866           23 
 4621000   0.51103567   -4.6970138     1982.793  0.035756924  0.034130079           23 
 4622000   0.51182801   -4.7008446    1982.6536  0.035746676  0.034121264           25 
 4623000   0.51658461   -4.7182805    1985.5294  0.035790781  0.034112473           16 
 4624000    0.5142238   -4.7146106    1984.2811  0.035760545  0.034103661           12 
 4625000   0.53063909   -4.6967611    1982.7716  0.035725615  0.034094894           12 
 4626000   0.51113219   -4.7132605    1984.1614  0.035742927  0.034086109           40 
 4627000   0.50687545   -4.7276994    1979.7278  0.035655354  0.034077308            8 
 4628000   0.49978853   -4.7114149    1981.0128  0.035670787  0.034068506           15 
 4629000   0.50797068   -4.7190412    1989.2931  0.035812147  0.034059719           20 
 4630000   0.51173918   -4.7193185    1981.7802   0.03566919  0.034050938           27 
 4631000   0.50931894   -4.7089982     1987.291  0.035760653   0.03404218           30 
 4632000   0.50430907   -4.7247074    1982.5506   0.03566765  0.034033425           30 
 4633000   0.50787328   -4.7032421    1984.4269  0.035693699  0.034024659           13 
 4634000    0.5134962   -4.7022826    1986.4092  0.035721644  0.034015908           14 
 4635000   0.51190491   -4.7176395    1987.1068   0.03572648  0.034007194           29 
 4636000   0.50469356   -4.7093741    1982.8295  0.035641889  0.033998459           25 
 4637000   0.50780794   -4.7188482     1986.149  0.035693857  0.033989716            9 
 4638000   0.51238434   -4.7138474    1981.6101  0.035604608  0.033980956           24 
 4639000   0.50445124   -4.7173885    1982.1805   0.03560718  0.033972189           31 
 4640000   0.51438787   -4.7249347    1981.7425  0.035591639  0.033963415           20 
 4641000   0.50606276   -4.7204607    1985.0815  0.035643926  0.033954651           22 
 4642000   0.51306286   -4.7223609    1987.9357  0.035687486  0.033945911           15 
 4643000   0.50886434   -4.7143786    1981.1953  0.035558821  0.033937167           22 
 4644000   0.51279869   -4.7023285    1986.3523  0.035643704   0.03392844           27 
 4645000   0.50983459   -4.7146833     1987.367  0.035654235  0.033919698            8 
 4646000   0.51314696   -4.7011744     1986.833  0.035636982  0.033910971           16 
 4647000   0.52312796   -4.7045572    1983.9471  0.035577561  0.033902224           18 
 4648000   0.51256705   -4.7219214    1978.1804  0.035466516  0.033893453           20 
 4649000   0.51360645   -4.7388669    1983.1575  0.035548102  0.033884682           10 
 4650000   0.51281471    -4.723675    1984.7133  0.035568338  0.033875908            7 
 4651000   0.50233971   -4.7370936    1982.0728  0.035513381  0.033867147            7 
 4652000   0.50463472   -4.7089302    1987.8544  0.035609316  0.033858388           12 
 4653000   0.50829261   -4.7132587    1983.2869  0.035519859  0.033849653           25 
 4654000   0.50308428   -4.7251255    1978.7018  0.035430128  0.033840936           13 
 4655000   0.50476088   -4.7299522    1982.6763  0.035493667  0.033832201           12 
 4656000   0.51448247   -4.7181634    1982.5393  0.035483594  0.033823442           19 
 4657000   0.50436972   -4.7214561    1984.1444  0.035504695    0.0338147           21 
 4658000   0.50455036   -4.7176044    1980.6686   0.03543489  0.033805943           11 
 4659000   0.50174103   -4.7131802    1985.4039  0.035511982  0.033797193            8 
 4660000   0.51587039   -4.7264789    1984.1456   0.03548186  0.033788418           16 
 4661000   0.49849779   -4.6999348    1984.1601  0.035474507  0.033779685           27 
 4662000   0.50555045   -4.7171385    1979.8838  0.035390458  0.033770951           14 
 4663000   0.49812026   -4.7379018    1980.2803  0.035389955  0.033762196           20 
 4664000   0.50307735   -4.7364401    1983.9146  0.035447302   0.03375345           11 
 4665000   0.51063847   -4.7279418    1980.5674   0.03537991  0.033744714           12 
 4666000   0.50221733   -4.7304417    1980.7846  0.035376208  0.033735952           40 
 4667000   0.51045847   -4.7321285     1981.247  0.035376883  0.033727166           34 
 4668000   0.49905513   -4.7322726    1981.8112  0.035379377  0.033718385           87 
 4669000   0.50734361   -4.7450464    1980.4196  0.035346962  0.033709584           61 
 4670000   0.50912924   -4.7364733    1981.0483  0.035350611  0.033700839           34 
 4671000   0.51201687   -4.7274524    1983.2434  0.035382206   0.03369209           15 
 4672000   0.50865994   -4.7258317    1979.8545  0.035314185  0.033683346           13 
 4673000   0.50117316   -4.7376247    1981.0686   0.03532828  0.033674594           17 
 4674000    0.5009414   -4.7285589    1979.7586  0.035297365  0.033665848           21 
 4675000   0.50389988   -4.7264705    1982.6753  0.035341805  0.033657079           37 
 4676000   0.51326903   -4.7200349    1984.8153  0.035372386   0.03364833           14 
 4677000   0.50528204   -4.7223909    1982.7047  0.035327216  0.033639606           20 
 4678000   0.50231451   -4.6993433    1982.4844  0.035315741  0.033630898           36 
 4679000   0.50946184   -4.7330917    1983.0943  0.035319056  0.033622201           39 
 4680000   0.50823399   -4.7161067    1986.9877  0.035380835  0.033613548           33 
 4681000    0.5026452   -4.7324351    1986.5626  0.035365708  0.033604906           14 
 4682000   0.50707898   -4.7252351    1984.1834  0.035315808  0.033596231            9 
 4683000   0.50493301   -4.7278001     1981.578  0.035261905  0.033587534           20 
 4684000   0.49664296   -4.7166639    1988.9494  0.035385521  0.033578883           21 
 4685000   0.48770747   -4.7072345    1986.1625  0.035328398  0.033570214            8 
 4686000   0.49684548   -4.7271341    1984.6969  0.035294794  0.033561531           17 
 4687000    0.5130658   -4.7207341    1981.0849  0.035223045  0.033552824           17 
 4688000   0.50797234   -4.7356049    1986.5214   0.03531217  0.033544132           40 
 4689000   0.50653072   -4.7245704    1979.2294  0.035175045  0.033535403           21 
 4690000   0.50293142   -4.7396743    1984.6549  0.035263947  0.033526707           27 
 4691000   0.50497526   -4.7396793    1980.1378  0.035176185  0.033518012           36 
 4692000   0.50255528   -4.7276637    1985.3343  0.035260981  0.033509331           64 
 4693000   0.50206328   -4.7264946    1979.9598  0.035158033  0.033500617          127 
 4694000   0.50313883   -4.7420179    1980.4517  0.035159276  0.033491901           96 
 4695000   0.50255697   -4.7214129    1983.2936  0.035202229  0.033483192           52 
 4696000    0.4907824    -4.735244    1986.0896  0.035244349  0.033474506           39 
 4697000   0.49553449   -4.7176602    1984.3906  0.035206704  0.033465876           57 
 4698000   0.50977937   -4.7377965    1988.1332  0.035265596  0.033457246           68 
 4699000   0.48212287   -4.7438652    1984.9248  0.035201192   0.03344862           29 
 4700000   0.50656886   -4.7436879    1984.0759  0.035178651  0.033439987           27 
 4701000   0.49466116   -4.7431112    1978.3141  0.035069029  0.033431324           42 
 4702000   0.51525621   -4.7479852    1986.1441  0.035200341  0.033422631           67 
 4703000   0.51087827   -4.7460167    1981.8392  0.035116579   0.03341395           32 
 4704000   0.50336048   -4.7382509    1980.5237  0.035085809  0.033405261           22 
 4705000   0.49510989    -4.728531    1984.1165  0.035141986  0.033396611           34 
 4706000   0.49836548   -4.7412601    1981.9056  0.035095368  0.033387966           63 
 4707000   0.48154923   -4.7431587    1983.1586  0.035110094  0.033379325           23 
 4708000   0.50352326   -4.7239574    1985.5492  0.035144952  0.033370684           28 
 4709000   0.50089754    -4.742566    1982.4292  0.035082274  0.033362035           29 
 4710000   0.49230759   -4.7463837    1984.7485  0.035115861  0.033353379           47 
 4711000   0.49901495    -4.740397     1979.593  0.035017211  0.033344728           33 
 4712000   0.48573886   -4.7371624    1980.5826  0.035027281  0.033336065           60 
 4713000   0.51353804   -4.7450277    1982.8227  0.035059459  0.033327358           48 
 4714000   0.49456712   -4.7451593    1981.2248  0.035023774  0.033318721           41 
 4715000   0.50468424   -4.7441654    1981.6858  0.035024492  0.033310081           57 
 4716000   0.49727637   -4.7576518    1979.8854  0.034985253    0.0333014           39 
 4717000   0.49038783   -4.7530292    1981.9459  0.035014237  0.033292697           39 
 4718000   0.49632282   -4.7455213    1979.2863   0.03495984  0.033284019           64 
 4719000   0.50434045   -4.7375216    1980.8951  0.034980841  0.033275356           13 
 4720000   0.49421092   -4.7390928     1984.856  0.035043362  0.033266702           12 
 4721000   0.49948304   -4.7575425    1978.2416  0.034919184  0.033258065           34 
 4722000   0.48285066    -4.750446    1983.4978  0.035004549  0.033249425           50 
 4723000   0.49502123    -4.754039    1982.3704  0.034977246  0.033240776           25 
 4724000   0.50080974   -4.7406139    1982.8311  0.034977969  0.033232134           22 
 4725000   0.50238335    -4.746806    1980.5756  0.034930787  0.033223507           11 
 4726000   0.49557053   -4.7335153    1985.2649  0.035006081  0.033214912           29 
 4727000   0.50586655   -4.7531932    1983.6262  0.034969788  0.033206329           19 
 4728000   0.49535629   -4.7349056     1979.757  0.034894194   0.03319775           22 
 4729000   0.49474879   -4.7331881    1983.9671  0.034961005  0.033189155           35 
 4730000   0.48046879   -4.7410896    1983.3534    0.0349428  0.033180561           48 
 4731000   0.50424792   -4.7454672    1983.2738  0.034934014  0.033171944           40 
 4732000   0.49454946   -4.7343353    1986.1003  0.034976406  0.033163326           44 
 4733000   0.50320956   -4.7358743    1981.1389  0.034881662  0.033154724           33 
 4734000   0.49465964   -4.7403233    1981.0751  0.034873171  0.033146135           17 
 4735000   0.49977374   -4.7467217    1982.9588  0.034898959  0.033137527           18 
 4736000   0.49318598   -4.7614571    1983.9073  0.034908279  0.033128913           36 
 4737000   0.49183631   -4.7353103    1982.5386  0.034876831  0.033120327           47 
 4738000   0.48954993    -4.750293    1984.7797  0.034908887   0.03311171           31 
 4739000   0.48902813   -4.7418175    1982.6766   0.03486454  0.033103134           38 
 4740000   0.49553442   -4.7518592    1975.8463  0.034737102  0.033094536           67 
 4741000   0.49809256   -4.7545603    1979.5856    0.0347955  0.033085932           67 
 4742000   0.48879044   -4.7313027    1985.1133  0.034885303  0.033077344           50 
 4743000    0.4877678   -4.7412575    1980.5142  0.034797143  0.033068767           12 
 4744000   0.47743643   -4.7461536    1985.1591  0.034871401  0.033060169           22 
 4745000   0.49787013   -4.7403366    1988.2777  0.034918821  0.033051572           12 
 4746000   0.48274311   -4.7381319    1981.0552  0.034784647  0.033042966           28 
 4747000   0.50423255   -4.7498308    1980.9686  0.034775799  0.033034387           17 
 4748000    0.4920361   -4.7613358    1982.3867  0.034793363  0.033025807           56 
 4749000   0.48561603   -4.7470747    1982.2148   0.03478302  0.033017244           12 
 4750000   0.49633249   -4.7432504    1985.7194  0.034837183  0.033008662           14 
 4751000   0.49445525   -4.7321137    1980.3039  0.034734862  0.033000106           24 
 4752000   0.48496892   -4.7594597    1983.3317  0.034780649  0.032991521           45 
 4753000   0.50614421   -4.7410227    1983.9564  0.034784283  0.032982935           32 
 4754000   0.49364353   -4.7463216    1984.5173  0.034786798   0.03297436           33 
 4755000   0.49330061   -4.7738893    1978.7475  0.034678365  0.032965773           29 
 4756000   0.49456707    -4.759955     1983.745  0.034758638  0.032957166           31 
 4757000   0.49194936   -4.7592424    1978.0469  0.034651511    0.0329486            9 
 4758000    0.4890898   -4.7586958    1981.7673  0.034709389  0.032939989           13 
 4759000   0.49825401   -4.7625936    1984.6454  0.034752494  0.032931421           34 
 4760000   0.49617764   -4.7429877    1982.4357  0.034706508  0.032922831           13 
 4761000   0.49225414   -4.7459769    1978.9787  0.034638708  0.032914248           41 
 4762000   0.48659914   -4.7585126    1982.7413  0.034697279  0.032905653           29 
 4763000    0.4982413   -4.7772617    1978.4129  0.034614264  0.032897037           26 
 4764000   0.48590564   -4.7594299    1975.3138  0.034552788  0.032888405           22 
 4765000   0.47861708   -4.7676236    1977.0738  0.034576318   0.03287977           11 
 4766000   0.48388449   -4.7514526     1979.898  0.034618442  0.032871168           18 
 4767000   0.50199255   -4.7742738    1979.6136  0.034606209  0.032862544           49 
 4768000   0.49775704   -4.7727977    1977.2829  0.034558215  0.032853924           16 
 4769000   0.48343247   -4.7662628    1980.3949  0.034605348  0.032845334           17 
 4770000   0.48182673   -4.7603162    1978.7017  0.034568514  0.032836753           19 
 4771000   0.48451561   -4.7592818    1982.9867  0.034636112  0.032828182           12 
 4772000   0.49928458   -4.7797502    1979.7726  0.034572727  0.032819612           18 
 4773000   0.48904645   -4.7755163    1979.5918  0.034562326   0.03281104           38 
 4774000   0.49264608    -4.760139    1981.5612  0.034589464  0.032802479           15 
 4775000   0.48054589   -4.7575711    1979.0581  0.034538536  0.032793919           12 
 4776000   0.48425845   -4.7542689    1983.3058   0.03460542  0.032785378           25 
 4777000     0.492194   -4.7450198    1980.1866  0.034543761  0.032776864           20 
 4778000    0.4931422   -4.7581992    1976.9688   0.03448041  0.032768329           12 
 4779000   0.48474371   -4.7661313    1979.7074  0.034520949  0.032759793           33 
 4780000   0.49746815     -4.78462    1982.3598  0.034559969  0.032751243           11 
 4781000   0.49516832   -4.7605293    1981.7178  0.034541549    0.0327427           21 
 4782000    0.4837946   -4.7619412    1980.8362  0.034518964  0.032734174           28 
 4783000   0.48361945   -4.7616604     1980.147  0.034499738  0.032725648           44 
 4784000   0.48849336   -4.7347498    1981.1507  0.034510011  0.032717124           24 
 4785000   0.49134267   -4.7558493    1979.2464  0.034469635  0.032708599           24 
 4786000   0.49953456   -4.7726314    1979.8185  0.034472393  0.032700045           16 
 4787000   0.48163272   -4.7477557      1979.19  0.034454252   0.03269149           23 
 4788000   0.48955195   -4.7647502    1981.8161  0.034492761  0.032682944           22 
 4789000   0.49005398   -4.7622665    1983.9867  0.034523329  0.032674403           27 
 4790000   0.48546271   -4.7700138    1978.9629  0.034428721  0.032665864           25 
 4791000   0.48751867   -4.7522018    1978.9119  0.034420648  0.032657318           22 
 4792000   0.48482973   -4.7785137    1982.1229  0.034469305  0.032648775           25 
 4793000   0.49480823   -4.7527193    1980.6798  0.034437022  0.032640229           34 
 4794000   0.48714501   -4.7620665    1982.9598  0.034469472  0.032631707           30 
 4795000   0.48674229   -4.7632375    1975.7394  0.034336798  0.032623175           44 
 4796000   0.48540702   -4.7710287    1985.7783  0.034504071  0.032614638           34 
 4797000   0.48518358   -4.7673088     1977.526   0.03435352  0.032606121           59 
 4798000   0.46932323   -4.7437773    1981.8623  0.034421675  0.032597618           37 
 4799000    0.4807262   -4.7687163    1980.2598  0.034386674    0.0325891           24 
 4800000   0.48422669   -4.7661283     1977.148  0.034325487  0.032580594           43 
 4801000   0.47866824   -4.7592025    1978.0719  0.034334374  0.032572089           15 
 4802000   0.48119385   -4.7419481     1980.347  0.034366706  0.032563564           61 
 4803000   0.48088931   -4.7461572    1982.1502  0.034390836  0.032555108           55 
 4804000   0.48753159   -4.7415619    1980.4356  0.034353934  0.032546616           67 
 4805000   0.48397859   -4.7572708     1983.088  0.034392786   0.03253814           20 
 4806000   0.48056212   -4.7594732    1978.6128  0.034308031  0.032529644           19 
 4807000    0.4825932   -4.7686408    1980.0995  0.034326668  0.032521137           24 
 4808000   0.48205076   -4.7608205    1980.8589  0.034332691  0.032512623           27 
 4809000   0.47923782    -4.762075    1980.0196  0.034311008    0.0325041           30 
 4810000   0.47796162   -4.7740462    1978.6938  0.034280904  0.032495584           42 
 4811000   0.48321266   -4.7717976    1977.3539  0.034250569  0.032487036           52 
 4812000   0.48797666    -4.770801    1979.6984  0.034284054  0.032478514           45 
 4813000   0.49655554   -4.7703265    1982.9969  0.034334041  0.032469968           80 
 4814000   0.48344455    -4.754515     1978.965  0.034257114  0.032461433          120 
 4815000   0.48222022   -4.7672225    1982.7553  0.034315599  0.032452898           53 
 4816000   0.47845278   -4.7754967    1976.3463  0.034197576   0.03244436           62 
 4817000   0.46642748    -4.780108    1973.5453   0.03414202  0.032435808           59 
 4818000   0.48480219   -4.7705781    1977.1784  0.034197771  0.032427256          103 
 4819000    0.4818973   -4.7704129    1978.0858  0.034206367  0.032418712           76 
 4820000   0.48424166   -4.7793643    1975.6452  0.034157075  0.032410196           64 
 4821000   0.47405268   -4.7769981    1978.3593  0.034196904  0.032401667           47 
 4822000   0.49006531   -4.7860629    1973.5864  0.034107327  0.032393158           92 
 4823000   0.47275436   -4.7743695    1983.4357  0.034270435  0.032384645           83 
 4824000   0.49039466   -4.7743808    1977.0086  0.034152304   0.03237613           24 
 4825000    0.4726739   -4.7656784    1975.0843  0.034111991  0.032367617           58 
 4826000    0.4792699   -4.7693714    1981.3689  0.034213442  0.032359081           85 
 4827000   0.48115098   -4.7791081    1977.6961  0.034142948  0.032350548           81 
 4828000   0.47325922   -4.7813573    1976.4263  0.034113959  0.032342031           46 
 4829000   0.47558052   -4.7675102    1974.3175  0.034070502   0.03233352           73 
 4830000   0.47545808   -4.7821129    1976.3901  0.034099208  0.032324981           49 
 4831000   0.48644937    -4.785619    1979.3132  0.034142573  0.032316464          115 
 4832000   0.47513018   -4.7708861    1975.4756  0.034069323  0.032307953           93 
 4833000   0.49208125   -4.7902131     1977.255  0.034092955  0.032299463           43 
 4834000   0.47500808   -4.7764998    1976.3857  0.034070916   0.03229097           77 
 4835000   0.47185372   -4.7813812    1980.6777  0.034137844  0.032282472           86 
 4836000   0.46976841   -4.7976853    1978.2335  0.034088667  0.032273981          153 
 4837000   0.47607437   -4.7703402    1978.5462  0.034087007  0.032265505           78 
 4838000   0.48863552   -4.7718648    1975.2953  0.034023965  0.032257035          103 
 4839000   0.47639802    -4.786399    1977.8486  0.034060905  0.032248542          112 
 4840000   0.48537383   -4.7707213    1976.0095  0.034022202  0.032240052          113 
 4841000   0.47693078   -4.7782219    1978.2345  0.034053476  0.032231576          101 
 4842000     0.473151   -4.7742846    1972.8259  0.033953357  0.032223085          113 
 4843000   0.47886935   -4.7695339    1977.0271  0.034018636  0.032214573          118 
 4844000   0.47151906   -4.7762504    1978.4007  0.034035245  0.032206091           91 
 4845000    0.4777231   -4.7800652    1976.1746  0.033989931  0.032197612           86 
 4846000   0.47941317   -4.7770047     1975.039  0.033963389  0.032189136          100 
 4847000   0.47540783   -4.7919817    1975.7043   0.03396782  0.032180657          113 
 4848000   0.47779391   -4.7767002    1976.5061  0.033974596  0.032172176           77 
 4849000   0.48600781   -4.7789003    1980.7171  0.034039958  0.032163677           60 
 4850000   0.47311874   -4.7869168    1973.9552  0.033916756  0.032155178           72 
 4851000   0.47254894   -4.8036993     1974.878  0.033925616  0.032146688          112 
 4852000   0.47463874   -4.7920632     1977.836  0.033969429  0.032138181           63 
 4853000   0.47606396   -4.7876412     1974.038  0.033897211  0.032129664           76 
 4854000   0.48150281   -4.7848819    1976.5162  0.033932774  0.032121189           71 
 4855000   0.47688781   -4.7770882    1980.1077   0.03398743  0.032112735           48 
 4856000   0.45946468   -4.7951523    1980.8845  0.033993761  0.032104288           60 
 4857000   0.47483248   -4.7769351    1977.6331  0.033930977  0.032095817           54 
 4858000   0.46991909   -4.7826658    1979.1647  0.033950267  0.032087356           81 
 4859000   0.47983266   -4.7912506    1975.1502  0.033874429  0.032078902           56 
 4860000   0.47478357   -4.7853102    1980.5791  0.033960548  0.032070439           34 
 4861000   0.47663277   -4.7910252    1977.2341  0.033896216  0.032061993           89 
 4862000   0.47655921   -4.7913374    1978.4136  0.033909461  0.032053562           31 
 4863000   0.47473217   -4.7808242    1980.2297  0.033933609  0.032045127           44 
 4864000   0.48212192   -4.7724829    1977.3126  0.033876655  0.032036699           27 
 4865000   0.46478343   -4.7801836    1978.4892  0.033889846   0.03202827           22 
 4866000   0.46883956   -4.7861501    1974.4984  0.033814537  0.032019842           25 
 4867000   0.47386127   -4.8013103    1975.8073  0.033829999  0.032011411           58 
 4868000    0.4854651   -4.8092362    1979.7471  0.033890495  0.032002953           40 
 4869000   0.48189964   -4.7835542    1976.2863  0.033824302  0.031994476           20 
 4870000   0.47667111   -4.7859411    1974.8421  0.033792643  0.031986033           60 
 4871000    0.4768875   -4.7833574    1974.2467  0.033775519  0.031977581           23 
 4872000   0.47504168   -4.7753908    1978.5436  0.033842084  0.031969164           71 
 4873000   0.46677944   -4.7734379    1975.6986  0.033786488  0.031960744           47 
 4874000   0.46486954   -4.7750772    1979.6826  0.033847672  0.031952327           41 
 4875000    0.4691704   -4.7817628     1976.611  0.033788221  0.031943909            9 
 4876000   0.46803386   -4.7850733    1981.4973  0.033864802  0.031935495           11 
 4877000   0.47215176   -4.7729131    1974.8315   0.03374396  0.031927085           18 
 4878000   0.47370844   -4.7894958    1977.0167  0.033774374  0.031918667           29 
 4879000    0.4732404   -4.7777373    1975.1921  0.033736287  0.031910244           20 
 4880000   0.46669133   -4.7783756    1977.6621  0.033771552  0.031901818           35 
 4881000   0.47777894   -4.7842737    1971.9177  0.033666559  0.031893384           38 
 4882000   0.47637566   -4.7894205    1969.2618  0.033614329  0.031884948           41 
 4883000   0.45791199   -4.8049848    1974.8263  0.033702407  0.031876508           39 
 4884000   0.47618263   -4.7856177    1979.2618  0.033771188  0.031868093           51 
 4885000   0.45217161   -4.7963792    1971.9272  0.033639154  0.031859671           56 
 4886000   0.47340454    -4.814121    1972.6882  0.033645248  0.031851248           34 
 4887000   0.46706098   -4.8072997    1973.7478  0.033656432  0.031842808           38 
 4888000   0.45608278   -4.8036979    1975.5033  0.033679475  0.031834392           40 
 4889000   0.47613337   -4.8035096    1971.2605  0.033600267  0.031825965           54 
 4890000   0.48022019   -4.8065078    1980.5926   0.03375243   0.03181753           58 
 4891000   0.47532734   -4.8006368    1973.6591  0.033627396  0.031809108           35 
 4892000   0.46986536   -4.8134461    1971.1855  0.033578384   0.03180067          171 
 4893000   0.46039869   -4.8060206    1978.4097  0.033694558  0.031792235           51 
 4894000   0.46601605   -4.8027915    1973.4611  0.033603411  0.031783788          145 
 4895000   0.46801565   -4.7910594    1977.7718  0.033669931  0.031775384           46 
 4896000   0.47803987   -4.7734462    1972.6963  0.033576666  0.031766974          137 
 4897000   0.47665419   -4.8041102    1975.7373   0.03362156  0.031758563          174 
 4898000   0.46325387   -4.7981884    1974.0178   0.03358544  0.031750146          147 
 4899000   0.47450828   -4.7990279    1975.6579  0.033606482   0.03174172          209 
 4900000   0.46098492    -4.807666    1976.4057  0.033612342  0.031733317          206 
 4901000   0.46278776   -4.8058807    1975.9333  0.033597451  0.031724895          213 
 4902000    0.4626407   -4.8113317    1970.8927  0.033504908  0.031716464           80 
 4903000    0.4654316   -4.7906651    1974.7832  0.033564199  0.031708055          258 
 4904000   0.47010682   -4.7997971    1976.1727  0.033580966  0.031699658          200 
 4905000   0.46720851    -4.794401    1971.3032   0.03349139  0.031691242          176 
 4906000    0.4707772   -4.8310933    1976.1954  0.033567662  0.031682825          374 
 4907000   0.47206418   -4.7956751    1970.1199  0.033457644  0.031674394          134 
 4908000   0.46387068   -4.8013521    1972.0569  0.033483716   0.03166598          233 
 4909000   0.46755014   -4.8261872    1973.0644  0.033493997  0.031657533          262 
 4910000   0.47342252   -4.8065788    1974.6327  0.033513793  0.031649088          172 
 4911000   0.46889412   -4.8160577    1976.4574  0.033537931  0.031640668          161 
 4912000   0.46650372   -4.8031116    1972.9011  0.033470771  0.031632292          268 
 4913000   0.46250753   -4.8045294    1975.3412  0.033505346  0.031623904          204 
 4914000   0.46809064   -4.8081534    1973.7945  0.033472298  0.031615512          161 
 4915000   0.46445795    -4.805474    1970.1586  0.033403842  0.031607109          226 
 4916000   0.46723431   -4.8052696      1975.96  0.033495389  0.031598734          151 
 4917000   0.45989143   -4.7988359    1973.8858  0.033453423  0.031590365          116 
 4918000   0.46177988   -4.8074421    1972.0511  0.033415532  0.031581995          116 
 4919000   0.47981234   -4.8135887    1981.2612   0.03356477  0.031573636           93 
 4920000   0.47180012   -4.8008259    1974.6511  0.033445988  0.031565259          130 
 4921000   0.45229227    -4.813367     1975.436  0.033452482  0.031556887          131 
 4922000   0.47488405   -4.7992331    1979.0012  0.033506048  0.031548543          144 
 4923000   0.46728554   -4.8011314    1976.6935  0.033460179  0.031540187          138 
 4924000   0.46866947   -4.8060369    1970.3551  0.033346112  0.031531848          100 
 4925000   0.46300344   -4.8080381     1976.561  0.033444349  0.031523509          101 
 4926000   0.47831976   -4.8079794    1978.3645   0.03346807  0.031515189           89 
 4927000   0.46106939   -4.8027284    1974.3624  0.033393587  0.031506871           83 
 4928000   0.46674881   -4.8073117     1974.948  0.033396712  0.031498529          156 
 4929000   0.45963319   -4.8065512    1973.8814  0.033371904  0.031490197          122 
 4930000   0.45504366   -4.7988685    1977.8977  0.033433024  0.031481906           97 
 4931000   0.46253927   -4.8144415    1977.1186  0.033413077  0.031473589           63 
 4932000   0.46302724    -4.796999    1972.7215  0.033332008  0.031465267          113 
 4933000   0.46657047   -4.8022003    1977.2253  0.033401333  0.031456981           84 
 4934000   0.46053227   -4.8139003    1974.0821  0.033341475  0.031448683           90 
 4935000   0.46520766   -4.8000853    1975.3586  0.033356275  0.031440373           94 
 4936000   0.45801545   -4.8210578    1972.9353  0.033308606  0.031432043           67 
 4937000   0.45970322   -4.8006144    1974.4419  0.033327288  0.031423724          116 
 4938000   0.46735775   -4.8108309    1976.3113  0.033352088  0.031415424           71 
 4939000   0.46600408   -4.8056007    1974.0357   0.03330694  0.031407124           64 
 4940000   0.45191102    -4.822735    1973.7388  0.033295188  0.031398803           93 
 4941000   0.45985671   -4.8190576    1972.9528  0.033275194  0.031390503           77 
 4942000   0.45973312   -4.8209898    1973.3602   0.03327533  0.031382193           92 
 4943000   0.45837408   -4.8122893    1976.1278  0.033315258   0.03137389          123 
 4944000   0.45274195   -4.8381222    1973.7678  0.033268739  0.031365586           40 
 4945000   0.46888615   -4.8058326    1974.7474   0.03327852  0.031357292           78 
 4946000     0.462065   -4.8169412    1975.9629  0.033292272  0.031349003           95 
 4947000   0.45945787   -4.8157257    1975.2351  0.033273282  0.031340739           38 
 4948000   0.45674803   -4.8070309    1975.2317    0.0332665  0.031332456           47 
 4949000   0.45639581   -4.8314006    1971.9545  0.033204596  0.031324142           26 
 4950000   0.45954775   -4.8122154    1974.1791  0.033235339  0.031315854           29 
 4951000    0.4495113   -4.8079505    1977.6703  0.033287388  0.031307556           17 
 4952000   0.46364604   -4.8197738     1974.666  0.033230108  0.031299265           11 
 4953000   0.46001906   -4.8280952    1976.4271  0.033253031  0.031290972           29 
 4954000   0.46681014   -4.8061382    1977.5196  0.033264694  0.031282695           43 
 4955000   0.46093024   -4.7966381    1976.8805  0.033247233  0.031274421           59 
 4956000   0.45193834   -4.7968275    1980.1327   0.03329521   0.03126617           36 
 4957000   0.45702272   -4.8064044    1979.1524  0.033272013  0.031257931           11 
 4958000   0.47030412     -4.80998    1977.1362  0.033231414  0.031249674           51 
 4959000   0.46230159   -4.8046209    1973.0107  0.033155385  0.031241422           39 
 4960000   0.45193419   -4.8149009     1975.671  0.033193397  0.031233157           49 
 4961000   0.45665549   -4.8090698      1973.32  0.033147215  0.031224889           21 
 4962000   0.46020748   -4.8315472    1973.9246  0.033150688  0.031216619           23 
 4963000   0.47274532    -4.810105    1972.6547  0.033122687  0.031208351           42 
 4964000   0.45855576   -4.8093503    1977.4054  0.033195767  0.031200104           30 
 4965000   0.44625585   -4.8106973    1975.9564   0.03316476  0.031191851           59 
 4966000   0.45895305   -4.8144877    1976.7427  0.033171276  0.031183592           31 
 4967000   0.46691701   -4.8279341    1973.9382  0.033117546  0.031175358           15 
 4968000   0.45750537   -4.8162166    1972.8294  0.033092281  0.031167116           17 
 4969000   0.44682435   -4.8127725    1972.6804  0.033083122  0.031158866           23 
 4970000   0.46421165   -4.8194227    1970.4352  0.033038819  0.031150608           19 
 4971000   0.44645263   -4.8149945    1973.8238  0.033088979  0.031142365           38 
 4972000   0.45599743   -4.8195461    1972.7654  0.033064584  0.031134116           16 
 4973000   0.45532884   -4.8047643    1976.3009   0.03311718  0.031125869           37 
 4974000   0.47104852   -4.8151094    1974.9393  0.033087711   0.03111762           27 
 4975000   0.45754835   -4.8158328    1972.0942  0.033033403  0.031109382           30 
 4976000   0.45486844   -4.8270938    1977.8441   0.03312306  0.031101126           33 
 4977000   0.45449512   -4.8058071    1976.1831  0.033088592  0.031092881           34 
 4978000   0.46154383   -4.8042366    1976.3184  0.033084211  0.031084644           11 
 4979000   0.45233727   -4.8161491    1973.9698  0.033038258  0.031076424           20 
 4980000   0.45694946   -4.8196857    1973.5831  0.033025152  0.031068187           11 
 4981000   0.45754203   -4.8193917     1973.449  0.033016278  0.031059967           15 
 4982000   0.45752387   -4.8258564    1975.4131  0.033042505  0.031051743           27 
 4983000   0.44810718   -4.8167627    1975.4935  0.033037218   0.03104351           35 
 4984000    0.4614797   -4.8162176    1973.1975    0.0329922  0.031035285           21 
 4985000   0.44701027     -4.80866    1974.9091  0.033014195   0.03102707           31 
 4986000   0.45397795   -4.8184366     1972.098  0.032960589  0.031018842           14 
 4987000   0.45700092   -4.8082287    1974.7193  0.032997782  0.031010615           38 
 4988000   0.45435682   -4.8081956    1974.8461  0.032993285  0.031002395           38 
 4989000   0.45401726   -4.8055166    1971.2432  0.032926492  0.030994177           23 
 4990000   0.46454766   -4.8020472    1971.8999   0.03293086  0.030985978           23 
 4991000   0.46066998   -4.8161182    1973.8462  0.032956758  0.030977772           26 
 4992000   0.46665412   -4.8257915    1974.7797   0.03296574   0.03096956           41 
 4993000   0.45144153   -4.8251879    1971.0303  0.032896561  0.030961346           27 
 4994000   0.45003365   -4.8409848    1972.3461   0.03291193  0.030953115           55 
 4995000   0.44523976   -4.8410403    1975.4456   0.03295705  0.030944898           16 
 4996000   0.46316361    -4.825195    1969.8091  0.032856438  0.030936675           32 
 4997000   0.45297639   -4.8308169    1975.7064  0.032948208  0.030928469           39 
 4998000   0.44238852   -4.8264169    1970.0175  0.032846764  0.030920278           25 
 4999000   0.45984256   -4.8572186    1976.2522  0.032944125  0.030912069           29 
 5000000   0.44951156   -4.8425134    1974.4858  0.032908097  0.030903883           15 
 5001000   0.45094754    -4.813777    1974.2873  0.032898208  0.030895683           25 
 5002000   0.44542695   -4.8462239     1972.789  0.032866669  0.030887482           44 
 5003000   0.44918222   -4.8337465     1975.942  0.032912619  0.030879289           18 
 5004000   0.44670703   -4.8347042    1974.1919  0.032876897   0.03087109           30 
 5005000   0.45903369   -4.8247236    1973.8686  0.032864945  0.030862897           40 
 5006000   0.44902961   -4.8472969    1973.9471  0.032859687  0.030854698           28 
 5007000   0.45360911   -4.8382895    1971.6892  0.032815545  0.030846496           44 
 5008000   0.44760815   -4.8365562     1974.435  0.032854683  0.030838284           25 
 5009000   0.45074114    -4.840039    1976.5521  0.032883345  0.030830092           46 
 5010000   0.45283895   -4.8582631      1965.84  0.032698602  0.030821882           33 
 5011000   0.44924956   -4.8404172    1972.4534  0.032802058  0.030813658           11 
 5012000   0.44377095    -4.848408    1968.4853  0.032729538  0.030805445           46 
Loop time of 12388.6 on 48 procs for 5000000 steps with 4000 atoms

Performance: 69741.707 tau/day, 403.598 timesteps/s
99.4% CPU use with 48 MPI tasks x no OpenMP threads

MPI task timing breakdown:
Section |  min time  |  avg time  |  max time  |%varavg| %total
---------------------------------------------------------------
Pair    | 848.86     | 895.74     | 957.58     |  86.5 |  7.23
Neigh   | 83.737     | 87.067     | 90.762     |  19.0 |  0.70
Comm    | 790.37     | 855.3      | 908.2      |  90.6 |  6.90
Output  | 14.341     | 14.345     | 14.433     |   0.3 |  0.12
Modify  | 10388      | 10421      | 10446      |  13.7 | 84.12
Other   |            | 114.7      |            |       |  0.93

Nlocal:        83.3333 ave          88 max          76 min
Histogram: 1 4 1 0 3 16 5 9 3 6
Nghost:        2278.79 ave        2297 max        2260 min
Histogram: 1 2 5 8 8 7 5 8 2 2
Neighs:        15335.4 ave       16428 max       13669 min
Histogram: 2 1 2 4 7 6 8 9 4 5
FullNghs:      30672.0 ave       32512 max       27702 min
Histogram: 1 4 1 0 3 11 11 9 4 4

Total # of neighbors = 1472254
Ave neighs/atom = 368.06350
Neighbor list builds = 270171
Dangerous builds = 0

#clear
#
#next RN
#
#jump SELF
Total wall time: 3:26:32
