
units lj                  # Use reduced LJ style units
atom_style atomic         # Uncharged point particles
atom_modify map hash      # Needed for indexing of clusters etc
                          # Used to be able to find where atoms are in relation to each other.

lattice fcc 1.0 spacing 1 1 1
Lattice spacing in x,y,z = 1.5874011 1.5874011 1.5874011
region box block 0 10 0 10 0 10 units lattice
create_box 2 box
Created orthogonal box = (0.0000000 0.0000000 0.0000000) to (15.874011 15.874011 15.874011)
  3 by 4 by 4 MPI processor grid
create_atoms 1 box
Created 4000 atoms
  using lattice units in orthogonal box = (0.0000000 0.0000000 0.0000000) to (15.874011 15.874011 15.874011)
  create_atoms CPU = 0.006 seconds
set type 1 type/fraction 2 0.08 78393
Setting atom values ...
  344 settings made for type/fraction
mass 1 1.0
mass 2 1.0
pair_style lj/cut  3.5
pair_modify tail  yes
pair_coeff 1  1  1.0  1.0   # Intearaction between 1 and 1 set with epsilon = 1 and sigma = 1
pair_coeff 1  2  1.5  0.8
pair_coeff 2  2  0.5  0.88

write_data data.0
System init for write_data ...
Neighbor list info ...
  update every 1 steps, delay 10 steps, check yes
  max neighbors/atom: 2000, page size: 100000
  master list distance cutoff = 3.8
  ghost atom cutoff = 3.8
  binsize = 1.9, bins = 9 9 9
  1 neighbor lists, perpetual/occasional/extra = 1 0 0
  (1) pair lj/cut, perpetual
      attributes: half, newton on
      pair build: half/bin/atomonly/newton
      stencil: half/bin/3d
      bin: standard
WARNING: Not all mixed pair coeffs generated from mixing. Use write_data with 'pair ij' option to store all pair coeffs. (../write_data.cpp:312)


#############################
#   M E L T   S Y S T E M   #
#############################

velocity all create 2.4 9622624 mom yes dist gaussian # Assign velocities
                                                    # Temperature 2.4, random number seed, zero linear momentum
                                                                                # Gaussian distribution

timestep 0.002   # simulation timestep
thermo 1000       # output thermodynamic data every 1000 steps bf 100

# Define a fix  in this case with index 1 applied to all
# particles in the simulation. This fix is for simulations
# in the anisotropic NPT ensemble. Note that we use the MTK
# correction.
fix 1 all npt temp 2.4 2.4 0.1 iso 5.68 5.68 0.5 mtk yes tchain 5 pchain 5 # Use NPT ensemble
                                                                         # Set temperature and pressure and damping
                                                                         # Numbers of thermostats in chain and in barostat
run 10000          # run for 10000 steps
Per MPI rank memory allocation (min/avg/max) = 3.642 | 3.644 | 3.648 Mbytes
Step Temp E_pair E_mol TotEng Press Volume 
       0          2.4   -7.8205278            0   -4.2214278   -2.8943486         4000 
    1000    2.3996426     -4.53184            0  -0.93327598    5.7018621    4927.0066 
    2000    2.4136687   -4.5552171            0  -0.93561925    5.5746602      4930.44 
    3000    2.3144852    -4.599616            0   -1.1287561    5.5128888    4898.3542 
    4000    2.3926561    -4.601246            0    -1.013159    5.6247458    4899.1016 
    5000    2.4242732   -4.6118444            0  -0.97634371    5.6014519    4893.0204 
    6000    2.4386828   -4.5204285            0  -0.86331874    5.8177149    4918.3566 
    7000    2.3820907   -4.5962707            0   -1.0240279     5.683448     4885.944 
    8000    2.4438964   -4.6085787            0  -0.94365053    5.5433447    4901.2108 
    9000    2.4228926   -4.5947113            0  -0.96128096    5.6134721    4898.6987 
   10000    2.3841861   -4.5252261            0  -0.94984108    5.7786696    4920.2121 
Loop time of 2.16556 on 48 procs for 10000 steps with 4000 atoms

Performance: 797946.312 tau/day, 4617.745 timesteps/s
99.6% CPU use with 48 MPI tasks x no OpenMP threads

MPI task timing breakdown:
Section |  min time  |  avg time  |  max time  |%varavg| %total
---------------------------------------------------------------
Pair    | 0.87519    | 0.94355    | 1.1114     |   3.6 | 43.57
Neigh   | 0.18978    | 0.19732    | 0.22544    |   1.2 |  9.11
Comm    | 0.58252    | 0.75405    | 0.84067    |   5.0 | 34.82
Output  | 0.00024236 | 0.00024645 | 0.00030897 |   0.0 |  0.01
Modify  | 0.21642    | 0.25626    | 0.30016    |   5.3 | 11.83
Other   |            | 0.01414    |            |       |  0.65

Nlocal:        83.3333 ave          91 max          72 min
Histogram: 1 0 1 5 9 12 5 8 3 4
Nghost:        1434.46 ave        1457 max        1412 min
Histogram: 3 3 5 7 5 6 7 6 3 3
Neighs:        7750.52 ave        8835 max        6366 min
Histogram: 1 0 3 7 10 10 2 6 5 4

Total # of neighbors = 372025
Ave neighs/atom = 93.006250
Neighbor list builds = 910
Dangerous builds = 219

# Equilibrate just above the melting temperature to avoid step fn in T

fix 1 all npt temp 1.25 1.25 0.1 iso 5.68 5.68 0.5 mtk yes tchain 5 pchain 5
run 2000
Per MPI rank memory allocation (min/avg/max) = 3.642 | 3.644 | 3.648 Mbytes
Step Temp E_pair E_mol TotEng Press Volume 
   10000    2.3841861   -4.5252261            0  -0.94984108    5.7786696    4920.2121 
   11000    1.2501168   -6.1455625            0   -4.2708562    5.6044834    4050.1399 
   12000    1.2562061   -6.1343218            0   -4.2504837    5.6223324    4052.8575 
Loop time of 0.464131 on 48 procs for 2000 steps with 4000 atoms

Performance: 744617.802 tau/day, 4309.131 timesteps/s
99.7% CPU use with 48 MPI tasks x no OpenMP threads

MPI task timing breakdown:
Section |  min time  |  avg time  |  max time  |%varavg| %total
---------------------------------------------------------------
Pair    | 0.20624    | 0.21956    | 0.23611    |   1.6 | 47.31
Neigh   | 0.031084   | 0.032842   | 0.034513   |   0.5 |  7.08
Comm    | 0.14561    | 0.16024    | 0.17349    |   1.9 | 34.53
Output  | 5.0592e-05 | 5.1748e-05 | 6.4859e-05 |   0.0 |  0.01
Modify  | 0.041497   | 0.046972   | 0.051686   |   1.2 | 10.12
Other   |            | 0.004459   |            |       |  0.96

Nlocal:        83.3333 ave          95 max          77 min
Histogram: 3 11 8 11 4 4 2 2 2 1
Nghost:        1621.27 ave        1648 max        1596 min
Histogram: 1 5 2 7 11 8 6 5 2 1
Neighs:        9399.00 ave       10710 max        8422 min
Histogram: 4 5 7 8 8 5 4 1 4 2

Total # of neighbors = 451152
Ave neighs/atom = 112.78800
Neighbor list builds = 142
Dangerous builds = 6

#############################
# L I N E A R  Q U E N C H  #
#############################

# Define solid atoms. This closely follows ten Wolde  Ruiz-Montero and Frenkel  Faraday Discuss  1996  104  93-110
# Compute components of the per-atom q6 vector
compute q6 all orientorder/atom degrees 1 6 components 6 nnn NULL cutoff 1.3 # compute the Q6 parameter.
                                                                             # Use all neighbours within 1.3 unit cell.

# get number of connections
compute coord_number all coord/atom orientorder q6 0.5

# An atom is solid if it has 8 or more connections (of a possible 14)
variable is_solid atom c_coord_number>=8
group solid dynamic all var is_solid    # Must be dynamic to update
dynamic group solid defined

# do clustering
compute cluster solid cluster/atom 1.3 # Create a cluster where all atoms within are solid and max 1.3 units from another member

# define chunks one chunk per cluster
compute clus_chunks solid chunk/atom c_cluster nchunk every compress yes  # Says which atoms are in which chunk

# count the size of each chunk
compute size_chunks solid property/chunk clus_chunks count


# Find the maximum entry in the vector of chunk sizes
variable max_n equal max(c_size_chunks)


# Thermo style which includes this variable
# thermo_style custom step temp pe vol v_max_n

thermo ${N}  # Print the thermo information every 100 steps
thermo 1000  

# Reset the npt fix at a lower temperature (below freezing)
fix 1  all npt temp  ${temp} ${temp}  0.1  iso  5.68  5.68  0.5  mtk yes tchain  5  pchain  5
fix 1  all npt temp  0.45 ${temp}  0.1  iso  5.68  5.68  0.5  mtk yes tchain  5  pchain  5
fix 1  all npt temp  0.45 0.45  0.1  iso  5.68  5.68  0.5  mtk yes tchain  5  pchain  5

dump dmp2 all dcd ${N} traj.dcd
dump dmp2 all dcd 1000 traj.dcd


compute msd all msd com yes
variable twopoint equal c_msd[4]/6/(step*dt+1.0e-6)
fix 9 all vector 10 c_msd[4]
variable fit equal slope(f_9)/6/(10*dt)
thermo_style custom step temp pe c_msd[4] v_twopoint v_fit v_max_n

fix 1 all npt temp 1.25 ${temp} 0.1 iso 5.68 5.68 0.5 mtk yes tchain 5 pchain 5
fix 1 all npt temp 1.25 0.45 0.1 iso 5.68 5.68 0.5 mtk yes tchain 5 pchain 5
run 2000000 # 5000000  # Run for this many steps
Neighbor list info ...
  update every 1 steps, delay 10 steps, check yes
  max neighbors/atom: 2000, page size: 100000
  master list distance cutoff = 3.8
  ghost atom cutoff = 3.8
  binsize = 1.9, bins = 9 9 9
  4 neighbor lists, perpetual/occasional/extra = 1 3 0
  (1) pair lj/cut, perpetual
      attributes: half, newton on
      pair build: half/bin/atomonly/newton
      stencil: half/bin/3d
      bin: standard
  (2) compute orientorder/atom, occasional
      attributes: full, newton on
      pair build: full/bin/atomonly
      stencil: full/bin/3d
      bin: standard
  (3) compute coord/atom, occasional
      attributes: full, newton on
      pair build: full/bin/atomonly
      stencil: full/bin/3d
      bin: standard
  (4) compute cluster/atom, occasional
      attributes: full, newton on
      pair build: full/bin/atomonly
      stencil: full/bin/3d
      bin: standard
Per MPI rank memory allocation (min/avg/max) = 9.744 | 9.750 | 9.754 Mbytes
Step Temp PotEng c_msd[4] v_twopoint v_fit v_max_n 
   12000    1.2562061   -6.1343218 1.0162501e-30 7.0572918e-33 8.3333333e+20            2 
   13000    1.2624026   -6.1211936   0.58271539 0.0037353549  0.048033392            3 
   14000    1.2401892   -6.1323972    1.1650163 0.0069346203  0.048786654            3 
   15000    1.2241439   -6.1509688    1.6759788  0.009310993  0.046787186            7 
   16000    1.2552237   -6.1563232    2.1995933  0.011456214  0.045652236            3 
   17000    1.2495617   -6.1425924    2.7837358  0.013645763  0.045526198            3 
   18000    1.2522794   -6.1278428    3.3623031  0.015566217  0.045749369            2 
   19000    1.2232863    -6.111261    3.9159984  0.017175431  0.046135427            3 
   20000    1.2448522   -6.1841181    4.5028467  0.018761861  0.046334034            3 
   21000    1.2533576   -6.1306745    5.1093087  0.020275034   0.04667755            2 
   22000    1.2597783   -6.1321784    5.6672701  0.021466932    0.0469344            1 
   23000    1.2662749    -6.155554    6.2167567   0.02252448  0.046997079            4 
   24000      1.23548    -6.088748    6.7656638  0.023491888  0.047054197            2 
   25000    1.2517057   -6.1028487    7.2624444  0.024208148  0.046911023            3 
   26000    1.2553557   -6.1259466    7.7401355  0.024808126  0.046665972            2 
   27000    1.2435554   -6.1275301    8.3789707   0.02586102  0.046460079            3 
   28000    1.2313361   -6.1470958    8.9450277  0.026622106  0.046430028            2 
   29000    1.2252866   -6.1787596    9.5675679  0.027493011   0.04648405            1 
   30000    1.2602697   -6.1573046    10.153674  0.028204648  0.046594889            2 
   31000    1.2801381   -6.1449306    10.716934  0.028808962  0.046640649            2 
   32000    1.2556385   -6.1392072    11.353046  0.029565224   0.04673263            2 
   33000    1.2020592    -6.174835     12.01386  0.030338031  0.046952887            2 
   34000      1.23294   -6.1687156    12.634831  0.030967722  0.047187037            1 
   35000    1.2344181   -6.1791483    13.163846   0.03134249  0.047392655            3 
   36000     1.241152   -6.2049324    13.658635  0.031617211  0.047522759            5 
   37000      1.22641   -6.1598092     14.39195    0.0324143  0.047580662            8 
   38000    1.2566726   -6.1302561    14.956515  0.032799375  0.047695624            1 
   39000    1.2491439   -6.1520014    15.620307  0.033376724  0.047821307            3 
   40000      1.25254   -6.0993182    16.014414  0.033363361  0.047907999            1 
   41000    1.2401002   -6.1672514    16.490692  0.033517667  0.047902272            3 
   42000     1.264568   -6.1855707    16.846942  0.033426472  0.047791086            3 
   43000    1.2359344   -6.1577966    17.314962  0.033556128  0.047610501            4 
   44000    1.2229992   -6.1444278    17.975461  0.034044434  0.047478678            4 
   45000    1.2289233   -6.1344186    18.415317  0.034102439  0.047369211            1 
   46000    1.2475961   -6.1632176    18.941995  0.034315208   0.04724936            4 
   47000    1.2206954   -6.1294843    19.735662  0.034992309  0.047144603            4 
   48000    1.2273475   -6.1949038    20.073622  0.034850038   0.04707878            4 
   49000    1.2183379   -6.2032329    20.809002  0.035389459  0.047026036            2 
   50000    1.2397608   -6.1748028    21.414097  0.035690161  0.047041622            6 
   51000    1.2192314    -6.201007    21.807791  0.035633645  0.047012476            2 
   52000    1.2486352   -6.1363888    22.324411  0.035776299  0.046949622            2 
   53000    1.2544249   -6.1541713    22.785256  0.035825874  0.046869177            6 
   54000    1.2188547   -6.1852439    23.304309   0.03596344  0.046786966            2 
   55000    1.2358515   -6.1693542    23.806448  0.036070375  0.046711772            5 
   56000    1.2355602   -6.1818621     24.18472  0.035989167  0.046618585            2 
   57000    1.2662558   -6.1639756    24.814367  0.036278313  0.046521485            3 
   58000    1.2298814   -6.1651556    25.537359  0.036691607  0.046435092            4 
   59000     1.216739   -6.1822497    25.937308  0.036634616   0.04637234            2 
   60000    1.2353811     -6.15609    26.484354  0.036783824  0.046300182            2 
   61000    1.2445221   -6.1818842    26.861024  0.036695388  0.046220445            3 
   62000    1.2496558   -6.1782493    27.617226  0.037119926  0.046141105            4 
   63000    1.2235198   -6.1517153    28.013674  0.037055123  0.046072731            2 
   64000    1.2239026   -6.1604476     28.60592  0.037247292  0.046000939            3 
   65000    1.2380686   -6.1735548    28.987083  0.037162926  0.045915092            2 
   66000    1.2474499   -6.1694305    29.555975   0.03731815  0.045842345            4 
   67000     1.246571   -6.1789146    29.922506  0.037217047  0.045764601            5 
   68000    1.2332905   -6.2316176    30.487057  0.037361589  0.045684597            3 
   69000    1.2423785   -6.1927577    30.843541  0.037250653  0.045598458            5 
   70000    1.2101711   -6.1699449     31.48327  0.037480083  0.045518511            2 
   71000    1.2232852   -6.1971608    32.097016  0.037672553  0.045460815            3 
   72000    1.2287812   -6.1681926    32.640401  0.037778242  0.045403016            5 
   73000    1.2377537   -6.1524612    33.151228  0.037843867   0.04534214            2 
   74000    1.1971977   -6.1828198    33.663588  0.037909446  0.045287864            2 
   75000    1.2173864   -6.1503041    34.109881  0.037899868  0.045223222            2 
   76000    1.2279667    -6.213193    34.550124  0.037883908   0.04516036            5 
   77000    1.2163281   -6.1433268    35.299557  0.038202983  0.045113653            5 
   78000    1.2324385   -6.1757755    35.755369   0.03820018  0.045072642            4 
   79000     1.214295   -6.2016001    36.200498  0.038186179  0.045029184            3 
   80000    1.2373755   -6.1831483    36.602464  0.038127566  0.044976219            3 
   81000    1.1989988   -6.2345394    37.092276  0.038160777  0.044928855            4 
   82000    1.2138956    -6.199065    37.692715  0.038305605  0.044875438            6 
   83000     1.195242   -6.1728946    38.066998  0.038219877  0.044823107            5 
   84000    1.2156054   -6.1659399    38.529945  0.038224151   0.04476396            2 
   85000    1.2277415   -6.2168628    39.331231   0.03856003  0.044719434            4 
   86000    1.2094037   -6.1606437    39.558597  0.038331973  0.044671783            4 
   87000    1.2374571   -6.1881662     40.12428  0.038433218  0.044619592            4 
   88000    1.2258488    -6.223022    40.725884  0.038566178  0.044581839            3 
   89000    1.2095554   -6.2054892    41.228746  0.038603695   0.04454378            3 
   90000    1.2132209   -6.2186596    41.953804  0.038846115  0.044511734            3 
   91000    1.2363168   -6.2069699    42.473301  0.038894964  0.044485772            2 
   92000     1.204688   -6.1902657    43.002527  0.038951564  0.044466063            5 
   93000    1.1920605   -6.1944865    43.642917  0.039106556  0.044446598            3 
   94000    1.2167203   -6.1994164    44.283574  0.039258487  0.044431646            5 
   95000    1.2457695    -6.220868     44.69826     0.039209  0.044427466            4 
   96000    1.2334122   -6.1920462    45.419919  0.039427013   0.04442624            2 
   97000    1.1934182   -6.1951276    45.829876  0.039372745  0.044425995            2 
   98000    1.2229941   -6.2375315    46.532482  0.039568437  0.044431683            6 
   99000    1.1876788   -6.1836328    47.098693  0.039645364    0.0444374            3 
  100000    1.2243265    -6.189968    47.376186  0.039480155  0.044432093            3 
  101000    1.1692492   -6.2170778     47.81689  0.039452879  0.044426119            4 
  102000    1.1995064   -6.1885076    48.322619  0.039479264  0.044411446            2 
  103000    1.2231244   -6.2135111    48.923151  0.039581837  0.044402212            5 
  104000    1.2009319   -6.2107422    49.268206  0.039477729  0.044388573            2 
  105000    1.2089074   -6.1884153       49.773  0.039502381  0.044369411            2 
  106000    1.2195972     -6.24368    49.943449  0.039263717  0.044338636            3 
  107000    1.1976497   -6.2139257    50.584759  0.039396229  0.044304076            4 
  108000    1.2108039   -6.1900483    51.045688  0.039387105  0.044269676            2 
  109000    1.1906185   -6.2116419    51.321158  0.039236359  0.044233643            1 
  110000    1.2123061   -6.2235872    52.052511  0.039433721  0.044200191            3 
  111000    1.1740435    -6.224177    52.778317  0.039623361   0.04417166            1 
  112000    1.1980236   -6.2187623    52.943675  0.039392615  0.044139132            5 
  113000    1.2138029   -6.1976326    53.695251  0.039598267  0.044106093            3 
  114000    1.1882012    -6.206369    53.749085  0.039290267  0.044071374            1 
  115000    1.2083056   -6.2183779     54.29536  0.039344464  0.044030073            4 
  116000    1.1960285   -6.2330168    54.834606  0.039392676  0.043983765            5 
  117000    1.2119964   -6.2111524    55.346742  0.039420757  0.043948857            3 
  118000    1.2051961   -6.2221782    55.832348  0.039429624  0.043912591            3 
  119000    1.2046975   -6.1860486    56.587511  0.039627109   0.04388371            2 
  120000    1.1945049   -6.2219402    57.109195  0.039659163  0.043859388            3 
  121000    1.2164793   -6.1993224     57.47594   0.03958398  0.043833775            3 
  122000    1.2262036    -6.220693    57.515892  0.039286811  0.043799372            4 
  123000    1.2189114   -6.2232297    57.938984  0.039254054  0.043756132            3 
  124000     1.213076   -6.2199846     58.53203  0.039336041  0.043705654            2 
  125000    1.2047531   -6.2296524    58.589322  0.039059548  0.043656957            4 
  126000    1.2199373   -6.2091251    59.366021  0.039263242   0.04360127            2 
  127000     1.213179   -6.1880108    59.744732   0.03920258  0.043545193            2 
  128000    1.1746595   -6.2001321    60.128652  0.039146258  0.043496196            3 
  129000    1.2106769   -6.2447769    60.589612  0.039140576  0.043448568            4 
  130000    1.2050208   -6.2361184    61.058572   0.03914011  0.043398459            1 
  131000    1.2018213   -6.2182446    61.722672  0.039263786  0.043353782            2 
  132000    1.1959907    -6.259799    62.330967  0.039350358  0.043307873            1 
  133000    1.1908834   -6.1914994    62.886102  0.039402319  0.043267452            4 
  134000    1.2025679   -6.2234473     63.34502  0.039393669   0.04322776            3 
  135000    1.2012761   -6.1952217    63.718478  0.039332394  0.043185728            2 
  136000    1.2036294   -6.2312513    64.232114  0.039357913  0.043146613            3 
  137000    1.1727085   -6.2030659    64.706909  0.039359433  0.043111815            3 
  138000    1.1852814   -6.2426557    65.612098  0.039620832   0.04308267            2 
  139000    1.1948077   -6.2298483     65.99575  0.039565797  0.043053768            3 
  140000    1.2298325   -6.2063351    66.541186  0.039607849  0.043025628            2 
  141000    1.2261356   -6.2598046     67.02251  0.039611413  0.042996228            2 
  142000    1.2018742   -6.2321059    67.257634  0.039470442  0.042966055            6 
  143000    1.1977677   -6.2603653    67.517678  0.039345966  0.042936514            6 
  144000    1.2071231   -6.2566746    68.022584  0.039364921  0.042902723            4 
  145000    1.1939108   -6.2197661    68.393969  0.039306879  0.042867101            2 
  146000    1.2376072   -6.2319738    68.961974  0.039361857  0.042835674            2 
  147000    1.1695098   -6.2349363    69.132315  0.039190654  0.042798473            5 
  148000    1.2026535    -6.259439    69.781602  0.039291442  0.042763611            3 
  149000    1.2022057   -6.2599893    70.261114  0.039295925  0.042729966            3 
  150000    1.1973649   -6.2235888    71.016675  0.039453708  0.042697649            3 
  151000    1.1964521   -6.2173306    71.696718  0.039567725  0.042670267            2 
  152000    1.1799863   -6.2873778    71.991031  0.039468767  0.042646561            4 
  153000    1.2073957   -6.2318922    72.552147   0.03951642  0.042620471            3 
  154000    1.2441087   -6.2279145    73.066941  0.039538388  0.042597789            1 
  155000    1.1946868   -6.2345471    73.487985  0.039509669  0.042567006            3 
  156000    1.1708936   -6.2578482    73.851522  0.039450599  0.042537303            3 
  157000    1.1892772   -6.2344601    74.608558  0.039601145  0.042511866            2 
  158000    1.1683355   -6.2465929    75.115933  0.039618108  0.042489695            1 
  159000    1.1764315   -6.2225705    75.455899  0.039547117   0.04246974            3 
  160000    1.2007574   -6.2352907    76.166184  0.039669887  0.042454129            3 
  161000    1.1643753   -6.2198795     76.87685   0.03979133  0.042438883            4 
  162000    1.1940991   -6.2615962    77.414824   0.03982244  0.042424431            2 
  163000    1.1854827   -6.2702599    77.865042  0.039808304  0.042413189            1 
  164000    1.2156623   -6.2599226    78.081154  0.039675383  0.042401681            3 
  165000    1.1877639   -6.2544253    78.763441  0.039779516  0.042391337            5 
  166000    1.1747551   -6.2264204    79.488184  0.039903707  0.042380468            2 
  167000    1.1850416   -6.2350716     79.73788  0.039789361  0.042371955            3 
  168000    1.1684661   -6.2598753    80.175067  0.039769378  0.042359051            3 
  169000      1.18431   -6.2301387    80.592205  0.039739746  0.042348609            2 
  170000    1.1741428   -6.2303357    81.520168  0.039960867  0.042334626            3 
  171000    1.1730769   -6.2164419    81.719272  0.039824207  0.042322492            2 
  172000    1.1870187   -6.2481844    82.331342  0.039889216  0.042309735            2 
  173000    1.1801757   -6.2883283    83.032524  0.039996399  0.042299435            3 
  174000    1.2001278    -6.247733    83.463978  0.039973169  0.042293121            4 
  175000    1.1569175   -6.2523923    84.202742  0.040096544  0.042288448            2 
  176000    1.1539904   -6.2347865    84.478799  0.039999431  0.042284701            3 
  177000    1.1831116   -6.2179463    85.167093  0.040097501  0.042277221            3 
  178000    1.1977825   -6.2924794     85.23613  0.039904555  0.042265936            2 
  179000    1.1898239   -6.3217946    85.687406  0.039891716  0.042256735            3 
  180000    1.1994441   -6.2429585    86.712582  0.040144714   0.04225197            2 
  181000    1.2048041   -6.2744476     87.59574   0.04032953  0.042250715            4 
  182000    1.1848743   -6.2718436    88.127264  0.040351311  0.042251343            2 
  183000    1.1567345   -6.2513705    88.697109  0.040390304  0.042250569            2 
  184000    1.2058563   -6.2397752    88.961057  0.040290334  0.042252563            1 
  185000    1.1821478   -6.2640458    89.266925  0.040210327  0.042252188            2 
  186000    1.1703002   -6.2929598    89.499079  0.040098153  0.042248665            2 
  187000    1.2048646   -6.2265101     90.55872  0.040355936  0.042250849            2 
  188000    1.1534734   -6.2593111    90.658555   0.04018553  0.042249692            2 
  189000    1.1702801   -6.2688297    90.768634  0.040021443  0.042245091            3 
  190000    1.1922714    -6.289922    91.831642  0.040277036  0.042242279            2 
  191000    1.1689979   -6.2283601    92.223448  0.040237107    0.0422391            2 
  192000    1.1635523   -6.2571361    92.630281  0.040204115  0.042234906            2 
  193000    1.1702632   -6.2863615    93.043358  0.040174161   0.04223315            3 
  194000    1.1762666   -6.2753674    93.438659  0.040136881  0.042229142            2 
  195000    1.1710264   -6.2427564    93.937663    0.0401443  0.042224535            3 
  196000    1.1862044   -6.2821258     94.40661  0.040138865  0.042220071            3 
  197000    1.1946801   -6.2612269    95.074831  0.040217779  0.042215707            2 
  198000    1.1630997   -6.2806961    95.378428  0.040142436  0.042209134            3 
  199000    1.1772244   -6.2727044    96.060575  0.040226371  0.042203493            3 
  200000    1.1847859   -6.2718052    96.741357  0.040308899   0.04219963            5 
  201000    1.1802423    -6.301563    97.174447  0.040287913  0.042196134            2 
  202000    1.1651952   -6.3159325    97.256501  0.040122319  0.042189618            4 
  203000    1.1672231    -6.226315    97.975749   0.04021993  0.042183147            3 
  204000    1.1749671   -6.2730974    98.222575  0.040123601  0.042174981            4 
  205000    1.1580991   -6.2429721    98.887891   0.04019833  0.042165877            5 
  206000    1.1735001   -6.2906285    99.127843   0.04010026  0.042159049            2 
  207000    1.1592211   -6.2594233    100.09354  0.040295306   0.04215212            3 
  208000    1.1622438   -6.2716212    100.81911  0.040392272  0.042150198            3 
  209000    1.1653436   -6.2448018    101.92466  0.040639818  0.042150426            3 
  210000    1.1647197   -6.2846449    102.20636  0.040558078  0.042154432            2 
  211000    1.1916945    -6.305355    102.62669  0.040531866  0.042158163            2 
  212000    1.1872977    -6.274016     102.9199  0.040455935  0.042162189            4 
  213000    1.1746229    -6.241435    104.07814  0.040719145  0.042164771            4 
  214000    1.1720058   -6.2646396    104.58317  0.040725533  0.042170043            2 
  215000    1.1757562   -6.2546497    105.39207  0.040849639  0.042178956            3 
  216000    1.1669511   -6.2864941      105.786    0.0408125  0.042188102            5 
  217000    1.1590364   -6.3019236    106.28098  0.040814508  0.042198609            3 
  218000    1.1744403   -6.2949348    106.73352  0.040800275  0.042207454            3 
  219000    1.1838798   -6.2651509    107.02596  0.040725252  0.042215486            2 
  220000    1.1464068   -6.2754793    107.60153  0.040758155  0.042222306            2 
  221000    1.1295932   -6.2795354    107.63601  0.040586731  0.042226587            4 
  222000     1.174481   -6.2920051    108.06845  0.040566234  0.042228404            2 
  223000    1.1513039   -6.2943131    108.92815  0.040705586   0.04222978            4 
  224000    1.1766537   -6.3141308    108.56875  0.040390159   0.04222996            2 
  225000    1.1555004   -6.2678734    109.72036  0.040637169  0.042229504            2 
  226000    1.1693151   -6.2785927    109.84585   0.04050363  0.042229755            6 
  227000    1.1635146   -6.2736979    110.27641  0.040483262  0.042227376            2 
  228000    1.1679564   -6.3022797    110.81398  0.040502187  0.042224798            3 
  229000    1.1432727   -6.3179014    111.27068  0.040491514  0.042222509            3 
  230000    1.1709463   -6.2877288    111.66586  0.040458644  0.042219054            3 
  231000    1.1798517   -6.3208992    111.97133  0.040393696  0.042215352            5 
  232000    1.1690296   -6.2730396    112.64389  0.040461166  0.042212268            3 
  233000     1.190434   -6.2919246    113.04479  0.040430897  0.042209911            3 
  234000     1.157629   -6.2764272    114.20892  0.040672693   0.04221013            3 
  235000    1.1542068   -6.3027813    114.57868  0.040630738  0.042210146            3 
  236000    1.1597244   -6.3207248    115.08567  0.040637594  0.042208439            4 
  237000    1.1667641   -6.2789785    115.36196  0.040563275   0.04220637            3 
  238000    1.1613352   -6.3075596    115.61196  0.040480379  0.042204037            3 
  239000    1.1747676    -6.279321    116.80405  0.040726657  0.042201348            2 
  240000    1.1581869   -6.3022716    116.76075  0.040541928  0.042198281            4 
  241000    1.1470114   -6.3220681    117.04742   0.04047283  0.042193729            4 
  242000    1.1564703   -6.2926179    117.37107  0.040417036  0.042186521            3 
  243000    1.1746501   -6.3274634    117.39775  0.040259858  0.042177395            1 
  244000    1.1486443   -6.3369228    117.92481  0.040274868  0.042166515            2 
  245000    1.1732158   -6.2910249    118.13035  0.040180389  0.042154747            2 
  246000    1.1662868   -6.2818107    118.57669  0.040168256  0.042140742            4 
  247000    1.1588081   -6.3033635    118.67472  0.040038703  0.042125791            2 
  248000    1.1606797   -6.2921256     118.9132  0.039957393  0.042109447            2 
  249000    1.1632766   -6.2880956    119.55123  0.040010452  0.042092112            2 
  250000    1.1588388   -6.3130197    119.65476  0.039884919  0.042072844            4 
  251000    1.1492399   -6.3020655    120.00081  0.039840907  0.042052304            2 
  252000    1.1518003   -6.3075023    120.48984  0.039844524  0.042031062            2 
  253000     1.143749   -6.2996849    120.67958  0.039749532  0.042008605            6 
  254000     1.165381   -6.2930464     121.5338  0.039873293  0.041987447            2 
  255000    1.1407022   -6.3236252    122.00212  0.039869975  0.041966153            2 
  256000    1.1648244    -6.304014    122.42942  0.039853326  0.041945588            3 
  257000    1.1529197   -6.2846058    122.80821   0.03982108   0.04192445            4 
  258000    1.1471901    -6.330937    123.97831  0.040044674  0.041904471            3 
  259000    1.1489062   -6.2904728    124.37383   0.04001732  0.041886183            4 
  260000    1.1458302   -6.3443966    124.63302  0.039946481  0.041868993            3 
  261000    1.1297558   -6.2928911    125.02735  0.039919331  0.041851175            3 
  262000    1.1602667    -6.316562    125.41798  0.039891214   0.04183389            3 
  263000    1.1227135   -6.2506191    126.14234  0.039969055  0.041814956            5 
  264000    1.1348836   -6.3306439    125.91674  0.039746444  0.041796573            3 
  265000    1.1324513   -6.3188569    126.61276  0.039815334  0.041775536           10 
  266000    1.1289109   -6.2780617    126.97912  0.039780426  0.041754297            6 
  267000    1.1456528   -6.3511337    127.04734  0.039652727  0.041732983            3 
  268000    1.1304027   -6.3488344    127.24112  0.039565026  0.041712577            4 
  269000     1.158503   -6.3377916    128.11348   0.03968819  0.041691535            6 
  270000    1.1564015   -6.3207046    128.74063  0.039734761   0.04167178            3 
  271000    1.1535114   -6.3123887    128.98393  0.039662955  0.041651346            2 
  272000    1.1346687   -6.3154115    129.65257  0.039721987  0.041631269            3 
  273000    1.1360536   -6.3288628    130.05833  0.039700344  0.041613273            3 
  274000    1.1521841   -6.3168236    130.61973  0.039726194   0.04159421            4 
  275000    1.1240139   -6.3262317    130.98902  0.039693643  0.041577363            4 
  276000    1.1529637   -6.2828946    132.06668  0.039875205  0.041560146            2 
  277000    1.1461431   -6.3314787    132.18546  0.039766987  0.041542261            5 
  278000    1.1443516   -6.3313909     132.4329  0.039698111  0.041525153            2 
  279000    1.1547207   -6.3333034    132.93619   0.03970615  0.041508023            2 
  280000    1.1373594   -6.3175877    133.42453  0.039709683  0.041491311            1 
  281000    1.1594109   -6.3168119    133.50608   0.03959255  0.041472464            2 
  282000    1.1508299   -6.3430443    133.75454  0.039525575  0.041452724            4 
  283000    1.1325673   -6.3312196    134.44016  0.039587799   0.04143302            2 
  284000     1.125773   -6.3756538    133.80848  0.039263051  0.041411513            2 
  285000    1.1356084   -6.3356477    135.61135   0.03965244  0.041390028            5 
  286000    1.1492796   -6.3660714    135.50238  0.039482044  0.041370003            5 
  287000    1.1126494   -6.3585859    135.93027  0.039468719  0.041350422            4 
  288000    1.1461874   -6.3776531    136.06895  0.039371803  0.041329497            8 
  289000    1.1382859   -6.3313748    137.02675  0.039511751  0.041309375            2 
  290000    1.1266665   -6.3400481    137.50063  0.039511676  0.041290955            2 
  291000    1.1244468   -6.3487124    137.70293  0.039433829  0.041271995            2 
  292000    1.1110307   -6.3519239    138.24255  0.039452782  0.041253031            2 
  293000    1.1176837   -6.3391489    138.91138  0.039508355  0.041234162            6 
  294000    1.1243433   -6.3131048    139.46124  0.039529831  0.041214862            2 
  295000    1.1361192   -6.3052049    139.86319  0.039509375  0.041196144            2 
  296000    1.1359446   -6.3388712    140.22282  0.039477146   0.04117654            3 
  297000    1.1292599   -6.3313069    140.51107  0.039425103  0.041156274            4 
  298000    1.1280994   -6.3470548    140.54816  0.039303178  0.041136577            6 
  299000    1.1248987   -6.3439622    141.56417  0.039454898  0.041116253            7 
  300000    1.1368339   -6.3431586    141.92576  0.039423822  0.041095786            2 
  301000    1.1541737   -6.3383251    141.87569  0.039278985  0.041075491            3 
  302000    1.1401007   -6.3430913    142.44246  0.039305315  0.041056177            4 
  303000    1.1357021   -6.3481692    142.75685   0.03926206  0.041035823            6 
  304000    1.1492469   -6.3688406    142.79457  0.039143248  0.041015443            4 
  305000     1.127908   -6.3619946    143.92737  0.039324419  0.040995428            4 
  306000    1.1440541   -6.3472558    144.08784  0.039239608  0.040976017            4 
  307000    1.1285167   -6.3536954     144.4921  0.039221527  0.040956774            3 
  308000    1.1258923   -6.3639516    144.65083   0.03913713   0.04093657            5 
  309000     1.106129   -6.3407298    145.17296  0.039151284  0.040916528            6 
  310000    1.1492854   -6.3130828     145.4213  0.039091746  0.040896318            4 
  311000    1.0995664   -6.3174234    145.83127  0.039075902   0.04087593            3 
  312000    1.1553528   -6.3411458    146.45764   0.03911796  0.040855252            6 
  313000      1.13686   -6.3567343    147.25569  0.039205455  0.040834483            3 
  314000    1.1278432   -6.3658059    147.39693  0.039118081  0.040814245            2 
  315000    1.1215292   -6.3351952    148.24656  0.039218666  0.040794514            3 
  316000    1.1252121   -6.3536807    147.99736  0.039028839  0.040774472            2 
  317000    1.1288833   -6.3724334    148.99067  0.039166844   0.04075506            4 
  318000    1.1137286   -6.3436235    148.72043  0.038972859  0.040735317            2 
  319000    1.1351528   -6.3320748    149.71944  0.039111662  0.040714708            4 
  320000    1.1194331   -6.3648886    149.64605  0.038970326  0.040693286            2 
  321000    1.1467291   -6.3838151    149.95769  0.038929826  0.040672242            5 
  322000    1.1421621   -6.3278302    150.80175  0.039027368  0.040651222            3 
  323000    1.1225214   -6.3404287    151.15283  0.038997119  0.040630348            1 
  324000    1.1178365   -6.3677278    151.25138  0.038902105  0.040609435            5 
  325000    1.1360703   -6.3514743    151.89933  0.038948546  0.040588502            3 
  326000    1.1150922   -6.3619111    152.35976  0.038946769  0.040567627            2 
  327000    1.1145443   -6.3754752    153.10215  0.039016857  0.040546879            3 
  328000    1.1613543   -6.3825436    152.94037  0.038856801  0.040525704            2 
  329000    1.1147737   -6.3683026      153.596  0.038904763  0.040504745            3 
  330000    1.1152009   -6.3636805    153.75126  0.038826075  0.040484195            3 
  331000    1.1104341   -6.3480884    154.22217  0.038827335  0.040463081            4 
  332000    1.1257369   -6.3795997    154.37197  0.038747985  0.040442795            3 
  333000     1.148584   -6.3556331    154.72932   0.03872105  0.040420657            4 
  334000    1.1349246   -6.3629342    155.76504  0.038863533  0.040400273            3 
  335000     1.148368   -6.3667202    156.32555  0.038886953  0.040379796            5 
  336000    1.1370105   -6.3421843    156.96159  0.038928966  0.040360341            2 
  337000    1.1277141   -6.3600819     156.9912   0.03882077  0.040341257            3 
  338000     1.112248   -6.3438649    157.18922  0.038754738  0.040321304            4 
  339000    1.1040567   -6.3967766    157.40866   0.03869436  0.040301467            4 
  340000    1.1326837   -6.3827163    158.95679  0.038959997  0.040282094            2 
  341000    1.1246987   -6.3533255    158.90433  0.038832924  0.040262982            4 
  342000     1.132757    -6.400418    158.66591  0.038661285   0.04024333            3 
  343000    1.1200463   -6.3688563    159.38342  0.038722891  0.040222739            3 
  344000    1.1122906   -6.3900855    159.79964  0.038711152  0.040202849            8 
  345000    1.1201407   -6.3654902    159.75482   0.03858812  0.040181933            2 
  346000    1.1176541   -6.3864242    160.33008  0.038615145  0.040160608            4 
  347000    1.1184626   -6.3503255    160.31293  0.038499743  0.040138022            2 
  348000    1.0979245   -6.3990859    160.04347  0.038324586  0.040114298            4 
  349000    1.1261313   -6.3870225    160.20804  0.038254069  0.040090337            3 
  350000     1.141733   -6.3922437    161.00304  0.038334057  0.040064451            6 
  351000    1.1150613   -6.3224782    161.92861  0.038444589  0.040039316            3 
  352000    1.1275104   -6.3715914     161.6236  0.038263162  0.040014499            3 
  353000    1.0773937   -6.3633715    162.16614  0.038282847  0.039989126            3 
  354000    1.1003395   -6.3577656    162.71721  0.038304428   0.03996337            2 
  355000    1.0859611   -6.3731515    162.81016  0.038218347  0.039938562            2 
  356000    1.1116277   -6.3766476    162.71481  0.038088673  0.039914246            4 
  357000    1.0937599   -6.4415297     163.5835  0.038184757  0.039889753            5 
  358000    1.1019724   -6.4118369    163.82864  0.038135159  0.039864495            2 
  359000    1.1073555   -6.3873153    164.36891  0.038154344   0.03983928            2 
  360000    1.1090975   -6.3970683    164.56541  0.038093845  0.039814088            4 
  361000    1.1434537   -6.3766505    164.76294   0.03803392  0.039788036            4 
  362000     1.098922   -6.4204872    164.70092  0.037914576  0.039760803            3 
  363000    1.1202658   -6.4089393    165.12802  0.037908176  0.039733326            5 
  364000    1.1410467   -6.3908967    165.47378  0.037883191  0.039705903            1 
  365000    1.1218175   -6.4364399    165.54585  0.037795857  0.039678227            3 
  366000    1.0967693   -6.3829261    165.98162  0.037791808  0.039649095            3 
  367000    1.1132901   -6.3635785    165.89938  0.037670159  0.039620063            4 
  368000    1.1125407   -6.4004943     166.7861  0.037768591  0.039590419            2 
  369000    1.1055146   -6.3791453    166.81721  0.037673263  0.039561477            5 
  370000     1.095732   -6.3574558    167.37255  0.037696519  0.039531597            3 
  371000    1.1087278   -6.3868524    167.34436  0.037588581  0.039501741            5 
  372000     1.105031   -6.3979032    168.10555  0.037658054  0.039472402            4 
  373000    1.1144297   -6.4158938    167.39342  0.037397994  0.039441402            3 
  374000    1.1072242   -6.3815402    167.80799  0.037390373  0.039410633            2 
  375000    1.1094533   -6.4175955    168.52813  0.037450695  0.039380178            4 
  376000    1.1325963   -6.4104642    169.14857  0.037488602  0.039349542            4 
  377000    1.1047599   -6.3888472    169.12445   0.03738383  0.039319196            7 
  378000    1.0995759   -6.3933249    169.56628  0.037382338  0.039288541            3 
  379000    1.1210716   -6.4042964    170.03361  0.037386458  0.039258056            4 
  380000    1.0962278   -6.3526694     170.2014  0.037324869  0.039227717            3 
  381000    1.1023665   -6.4262768     170.5403  0.037301029  0.039196913            5 
  382000    1.0987846   -6.3872237    170.47248  0.037188586   0.03916559            5 
  383000    1.1216993   -6.3976482    170.41971  0.037080006  0.039134357            7 
  384000    1.1012842   -6.3925511    171.30335  0.037175206   0.03910285            5 
  385000    1.1201123   -6.4157252    171.47133  0.037115007  0.039071066            6 
  386000    1.1114513   -6.3921793    171.70374  0.037069029  0.039039246            3 
  387000    1.0992343   -6.4287973    172.69247  0.037186148  0.039008839            4 
  388000     1.096795   -6.4222608    172.71444  0.037095026  0.038978295            2 
  389000    1.0851291   -6.3951987    173.31192   0.03712766  0.038947668            3 
  390000    1.0847836   -6.4186911    174.13208  0.037207709  0.038917109            4 
  391000    1.0958491   -6.4026274    174.38214  0.037165843   0.03888816            5 
  392000    1.0814617    -6.379407     174.3873  0.037072131  0.038859261            4 
  393000    1.1030184    -6.399838    175.38536  0.037189431  0.038830131            3 
  394000    1.0876205    -6.441129    175.59392  0.037139154  0.038801094            8 
  395000    1.1084054    -6.406858    175.82566  0.037094021  0.038772086            3 
  396000     1.115178   -6.4225987    176.51319  0.037145032  0.038743517            7 
  397000    1.0799797   -6.4335245    176.14934  0.036975093  0.038714883            3 
  398000    1.1133141   -6.3973385     176.8091  0.037020331  0.038686339            5 
  399000    1.0752022   -6.4169451    177.38095  0.037046982  0.038658986           10 
  400000    1.0917909   -6.4230267    177.99643  0.037082589  0.038631098            3 
  401000    1.0866933   -6.4348721    178.36567  0.037066846  0.038604345           10 
  402000    1.0826246   -6.4214075    178.54253  0.037011303  0.038577052            3 
  403000    1.0750984   -6.4375742    177.88671  0.036783853  0.038549382            4 
  404000    1.0814286   -6.4120292    179.45249  0.037015778  0.038522759            2 
  405000    1.1130004   -6.4265938     179.4031  0.036914218  0.038496929            8 
  406000    1.1089612   -6.3747787    180.66071  0.037081426  0.038470706            2 
  407000     1.107218   -6.4546916    179.82126  0.036818441  0.038444824            3 
  408000    1.0865105    -6.391681    181.19266  0.037008304  0.038418177            2 
  409000     1.080001   -6.4437114    181.49578  0.036979581  0.038391882            3 
  410000     1.108359   -6.3886286    182.09924  0.037012042  0.038365825            2 
  411000    1.0720083   -6.4045509     182.7573  0.037055414  0.038339741            4 
  412000    1.0923524   -6.4155951    181.96866  0.036805959  0.038313116            5 
  413000    1.0861954   -6.4232063    182.21547  0.036766641  0.038287028            3 
  414000    1.1064282    -6.406046    183.17645  0.036871266  0.038261657            4 
  415000    1.0799146   -6.4147068    182.97937  0.036742844  0.038236177            3 
  416000    1.1160968   -6.4141468    183.39558  0.036737896  0.038210221            2 
  417000    1.0661742   -6.4001031    184.07173  0.036784917  0.038184393           11 
  418000    1.0884019   -6.4309651    184.74106  0.036830356  0.038158407            3 
  419000    1.0941646   -6.4641801    184.61654   0.03671769  0.038132952            9 
  420000     1.065296   -6.4101894    185.39163  0.036784054  0.038108026            3 
  421000    1.0940594   -6.4196962    185.10699  0.036640338  0.038082641            1 
  422000    1.0913467   -6.4183455    185.86691  0.036703576  0.038057342            8 
  423000    1.1031283   -6.4046768    186.09726  0.036662187  0.038031798            1 
  424000    1.0648151   -6.4219899    186.54174  0.036663078  0.038005837            3 
  425000    1.0904839   -6.4280157    186.81861    0.0366311  0.037980171            3 
  426000    1.0961341   -6.4497314    186.84565  0.036550401  0.037954805            3 
  427000    1.0717398   -6.3983245    187.26018  0.036545702  0.037928715            4 
  428000    1.0857906   -6.4345393    186.99801  0.036409271  0.037902277            4 
  429000    1.0718361   -6.4521906    187.30256  0.036383559  0.037875131            6 
  430000    1.0891825   -6.4682056    187.83905  0.036402916  0.037848319            4 
  431000    1.1172145   -6.4139555    188.14983  0.036378545  0.037822163            5 
  432000    1.0670958   -6.4282801    188.48053  0.036358127   0.03779567            3 
  433000    1.0575775   -6.4784485    188.59395  0.036295987  0.037768748            4 
  434000    1.0900198   -6.4127374    189.07931   0.03630555  0.037742386            3 
  435000    1.0876681   -6.4182274    189.88566  0.036376564  0.037715986           11 
  436000    1.0709039   -6.4395143    190.95992  0.036498455  0.037690737            6 
  437000    1.0918909   -6.4470907    191.43325  0.036505196  0.037666344            5 
  438000    1.0585173   -6.4317127    191.60492  0.036454514  0.037641706            1 
  439000    1.0755888   -6.4250282     192.3356  0.036510175  0.037617932            4 
  440000    1.0595749   -6.4242961    192.91091  0.036536158  0.037594292            4 
  441000     1.086224   -6.4498141     192.3512  0.036347543  0.037571245            5 
  442000     1.071083   -6.4554682    192.53772  0.036300475  0.037547562            3 
  443000    1.0578541   -6.4672263    193.38402  0.036377731  0.037523174            3 
  444000    1.0751417   -6.4322417    194.27869  0.036463717  0.037500027            4 
  445000    1.0915839   -6.4810148    193.48678   0.03623348  0.037476914            2 
  446000    1.0746086    -6.438157    194.69822  0.036378591  0.037453778            8 
  447000    1.0844454   -6.4533155    195.52712  0.036451738  0.037431515            2 
  448000    1.0577625   -6.4303089    194.89813  0.036253372  0.037408389            2 
  449000    1.0761417    -6.442992    195.67269  0.036316387  0.037385415            6 
  450000    1.0985931   -6.4287964    195.54887  0.036212753  0.037362334            3 
  451000    1.0862208   -6.4814677     195.9153  0.036200165  0.037338576            3 
  452000    1.0574109   -6.4611574    197.29754  0.036374915  0.037315629            2 
  453000    1.0824573   -6.4437314    196.89301    0.0362202  0.037293075            5 
  454000    1.0577024    -6.472608    197.77726  0.036302727  0.037270435            2 
  455000    1.0747447   -6.4576676     197.8869  0.036243022   0.03724806           11 
  456000    1.0711326   -6.4739735    197.77745   0.03614354  0.037224966            3 
  457000    1.0764011   -6.4543378    198.19041  0.036139754  0.037202349            3 
  458000    1.0500405   -6.4339102    198.15498    0.0360544  0.037180151           12 
  459000    1.0598024   -6.4520439    199.01345  0.036131708   0.03715743            5 
  460000    1.0788044   -6.4588791    198.98858  0.036048655  0.037133786            4 
  461000    1.0635124   -6.4746861    198.93149  0.035960139  0.037109543            6 
  462000    1.0700295   -6.4822715    198.65036  0.035831594  0.037085361            3 
  463000    1.0854163   -6.4463954    199.57451  0.035920537  0.037060295            4 
  464000    1.0772705   -6.4507655    199.66088  0.035858634  0.037035302            2 
  465000    1.0703072   -6.4496436    199.90264  0.035824847  0.037010734            2 
  466000    1.0916639   -6.4387183    200.57209  0.035867684  0.036986076            6 
  467000    1.0592358   -6.4853664    200.67185   0.03580868  0.036961409            7 
  468000     1.070303   -6.4892998    201.19159  0.035824713  0.036937109            5 
  469000     1.075376   -6.4507569    201.81002  0.035858212  0.036913269            6 
  470000    1.0594951   -6.4653006    202.13352  0.035839276  0.036889803            2 
  471000    1.0696506   -6.4693505    202.80006  0.035881114  0.036866831            4 
  472000    1.0753002   -6.4481606    202.48151  0.035748854   0.03684394            8 
  473000    1.0771265   -6.4841963    203.45749  0.035845223  0.036820979            6 
  474000    1.0756875   -6.4535008    202.84956  0.035662722  0.036797282           10 
  475000    1.0670787   -6.4404477    203.88598  0.035769471  0.036773588            3 
  476000    1.0314656   -6.4459387    204.24768  0.035757646  0.036750028            4 
  477000    1.0501329   -6.4811453    204.04493  0.035647262  0.036725652            5 
  478000    1.0485714   -6.4812988    204.08705  0.035580029  0.036700986            4 
  479000     1.063743   -6.4724582     203.7801  0.035452349  0.036676287            2 
  480000    1.0680493   -6.4863835    204.17553   0.03544714  0.036651308            3 
  481000    1.0597354    -6.503583    205.33197  0.035573799  0.036626376            7 
  482000    1.0604916   -6.4367024    205.40634  0.035512852  0.036602496            3 
  483000    1.0835038   -6.4941829    205.28305  0.035418055  0.036577512            5 
  484000    1.0776655   -6.4983752    205.94039  0.035458056  0.036552423            3 
  485000    1.0856854   -6.4517804    206.48482  0.035478491  0.036527523            3 
  486000    1.0499115   -6.4802442    206.34798  0.035382026  0.036503053            3 
  487000    1.0761992   -6.4799001    206.78312  0.035383833  0.036478352            8 
  488000    1.0733448   -6.5073444    206.85661  0.035323875  0.036453967            4 
  489000    1.0627143   -6.4827907    206.99603  0.035275397  0.036429251            6 
  490000    1.0786056   -6.4984752      207.833  0.035345749  0.036404372            4 
  491000    1.0680113   -6.4826206    207.71026  0.035252929   0.03637953            3 
  492000    1.0767156   -6.4816618    208.22895  0.035269131  0.036354979            3 
  493000    1.0400197    -6.472356    208.77777   0.03529036  0.036330207            4 
  494000    1.0441025   -6.4666807    208.71543  0.035208405  0.036305637            3 
  495000    1.0648603   -6.4670093    208.81053  0.035153287  0.036280965            4 
  496000    1.0593731   -6.4910485    208.97652  0.035110302  0.036256123            4 
  497000     1.040597   -6.5066219    208.86369   0.03502074  0.036230281            4 
  498000    1.0575254   -6.4910849    209.42775  0.035044804   0.03620432            3 
  499000    1.0501133   -6.5100701    209.56307  0.034997173  0.036178074            4 
  500000    1.0740217   -6.4859611     210.0515  0.035008583  0.036152066            5 
  501000    1.0449233   -6.4987461    210.33264  0.034985469  0.036126449            2 
  502000    1.0462722   -6.4868191    210.88983  0.035008272  0.036101425            5 
  503000    1.0660698   -6.4843388    211.43033   0.03502822  0.036076234            4 
  504000    1.0801817    -6.498061    211.25775  0.034930183  0.036050847            3 
  505000    1.0349907   -6.4780065    211.57634  0.034913587  0.036025435            4 
  506000    1.0518423   -6.4986076    212.05255  0.034923016  0.036000397            3 
  507000    1.0427403   -6.4642462    212.61204  0.034946095  0.035975756            4 
  508000    1.0469644   -6.5194059    212.29187  0.034824782  0.035950406            5 
  509000    1.0463347   -6.4804821    212.73453  0.034828836  0.035924822            3 
  510000    1.0562642    -6.462582    212.96658   0.03479846  0.035899526            4 
  511000    1.0394916   -6.4813485    213.07877  0.034748659  0.035873918            3 
  512000    1.0489232   -6.5020739    213.59822  0.034765335  0.035848711            4 
  513000    1.0439473   -6.5164408    213.80277  0.034730794   0.03582301            4 
  514000    1.0364371   -6.5098292    214.05781  0.034704573  0.035797753            3 
  515000    1.0212286   -6.5270374    214.61156  0.034726789  0.035772549            4 
  516000    1.0488838   -6.4860179     215.1178  0.034741247  0.035748124            5 
  517000    1.0238379   -6.4734094    215.01715  0.034657826  0.035723583            2 
  518000    1.0528819   -6.4860555    215.76425  0.034711108  0.035699003            2 
  519000    1.0500646   -6.4865502    215.65468  0.034626635  0.035674331            6 
  520000    1.0495897   -6.4958086     216.2328  0.034652693  0.035649463            4 
  521000    1.0332898   -6.4833507      216.676  0.034657069  0.035624828            4 
  522000    1.0455488   -6.4865867    216.73246  0.034599691  0.035600355            6 
  523000    1.0584794   -6.5038746    217.09379  0.034591107  0.035576271            2 
  524000    1.0296273   -6.5176265    217.36933  0.034568913  0.035552078            3 
  525000    1.0116136   -6.5007938    218.06856  0.034614057  0.035528086            2 
  526000     1.035427   -6.4649297    218.46045  0.034610337  0.035504677            2 
  527000    1.0437309   -6.5074038    218.75035  0.034590504  0.035481388            4 
  528000    1.0567321   -6.5418828    218.55409  0.034494016  0.035457841            5 
  529000    1.0401144   -6.4708766    218.93081  0.034488156  0.035434147           10 
  530000    1.0436141   -6.4928276    219.37679  0.034493207   0.03541058            6 
  531000    1.0417014   -6.5094243    219.86741  0.034505244  0.035386701            5 
  532000    1.0531444   -6.5236338    220.72948   0.03457542  0.035363466            4 
  533000    1.0427109   -6.4991964    220.92226  0.034540691  0.035340788            5 
  534000    1.0508972   -6.4813394    221.21009  0.034520926  0.035318349            5 
  535000    1.0526466   -6.5659037    221.17212  0.034450486  0.035295973            5 
  536000    1.0548698    -6.495759    222.50483  0.034593413  0.035273597            3 
  537000    1.0650794   -6.5321587    222.29032  0.034495705  0.035251559            5 
  538000    1.0414682   -6.5416019    222.32248  0.034436567   0.03522876            3 
  539000    1.0309867   -6.5087926     222.5454  0.034407143  0.035206208            4 
  540000    1.0416575   -6.5701756    222.14068  0.034280969   0.03518326            6 
  541000    1.0180162    -6.510795    222.96756  0.034344972   0.03516014            4 
  542000    1.0422986   -6.5368206    222.36082  0.034188318  0.035137172            7 
  543000    1.0418342   -6.5323605     223.9124  0.034363474  0.035114274            7 
  544000    1.0273746   -6.4940295    224.26496  0.034354314  0.035092326            2 
  545000    1.0525274    -6.482184     225.3199  0.034452584  0.035070713            2 
  546000    1.0464025   -6.5283458    224.77205  0.034305869  0.035048793            7 
  547000    1.0340453   -6.5659774     225.2627  0.034317901  0.035027006            6 
  548000    1.0528175   -6.5598219    225.84088  0.034343199  0.035005499            1 
  549000     1.039085   -6.5424577    225.63732  0.034249745   0.03498405            5 
  550000    1.0293965   -6.5553898    226.02951  0.034246895  0.034962671            8 
  551000    1.0163912   -6.5257269    225.97582  0.034176621  0.034940889            4 
  552000    1.0407926   -6.5577166    226.82249  0.034242526  0.034919648            2 
  553000    1.0105712   -6.5565518    227.39971  0.034267588  0.034898258           11 
  554000    1.0359185   -6.5024234    227.59201  0.034234658  0.034877133            4 
  555000    1.0298372   -6.5324249    228.19968  0.034264217  0.034856793            6 
  556000    1.0138029   -6.5332333    227.40425  0.034083371  0.034836086            3 
  557000    1.0086474   -6.5435806    228.80488  0.034231729  0.034815245            2 
  558000    1.0308284   -6.5323186    229.55554  0.034282488  0.034794962           10 
  559000    1.0341338   -6.5209898    229.03379  0.034143379  0.034774506            8 
  560000    1.0401513   -6.5749997    228.89834  0.034062254  0.034754038            5 
  561000    1.0125085   -6.5590005    229.93524  0.034155561  0.034732944            3 
  562000    1.0282971   -6.5181943     230.4399  0.034169618   0.03471215            5 
  563000    1.0122956   -6.5199586     230.5944  0.034131794  0.034691854            4 
  564000    1.0275926   -6.5658578    230.93394  0.034121444  0.034671494            4 
  565000    1.0146197   -6.5530769    230.90635  0.034056984  0.034651074            5 
  566000     1.018434   -6.5825459    230.89462  0.033995085  0.034629713            7 
  567000     1.019423   -6.5568126    230.93614  0.033941232  0.034608162            5 
  568000    1.0219399   -6.5222939    231.39718  0.033949117  0.034586735            7 
  569000    1.0567563   -6.5526659    230.45069  0.033750833  0.034564903            2 
  570000    1.0105575   -6.5445315    231.72098  0.033877336  0.034542813            3 
  571000    1.0472979   -6.5787024    231.84349  0.033835885  0.034521059            4 
  572000    1.0246631   -6.5383036    232.36513  0.033852729  0.034499117            2 
  573000    1.0298095   -6.5004271    233.17909  0.033912026  0.034477833            4 
  574000     1.014116   -6.5238834    232.97881  0.033823869  0.034456216            6 
  575000    1.0171861   -6.5511541    232.77553  0.033735583  0.034434276            6 
  576000    1.0432359   -6.5274767    233.04709  0.033716303  0.034412431            8 
  577000    1.0120882   -6.5551088    234.11757  0.033812474   0.03439113           11 
  578000    1.0398306   -6.5219562    234.00732  0.033738079  0.034369223            4 
  579000    1.0375932   -6.5563177    233.60432  0.033621807  0.034347818            4 
  580000    1.0267477   -6.5785738    234.21901  0.033652157    0.0343261            4 
  581000    1.0189845   -6.5491744    235.08397  0.033718297  0.034304656            5 
  582000    1.0278727   -6.5703479    235.03333  0.033653112  0.034283511            6 
  583000    1.0205185   -6.5919516    235.65434  0.033684154  0.034262173            4 
  584000    1.0079747   -6.5544352    236.87221  0.033800259  0.034241255            4 
  585000    1.0370565   -6.5294011    236.58724  0.033701886  0.034220617            2 
  586000    1.0294096   -6.5644618    237.09193  0.033716144  0.034200194            3 
  587000    1.0119545   -6.5661726    237.22094  0.033677021  0.034179942            8 
  588000    1.0033341   -6.5686034    237.43741  0.033650426  0.034159272            4 
  589000    1.0158439   -6.5611121    238.59328  0.033756831  0.034139238            3 
  590000   0.99451935   -6.5549687    238.33613  0.033663296  0.034119436            2 
  591000    1.0247791   -6.5732821    238.92743  0.033689711  0.034099854            4 
  592000    1.0185316   -6.5899827    238.47575  0.033569221  0.034080352            5 
  593000    1.0160698   -6.5554787    239.50276  0.033656937  0.034060519            5 
  594000    1.0274853    -6.571087    239.93978  0.033661586  0.034040624            5 
  595000    1.0364425   -6.5583014    239.49263  0.033542385  0.034021117            3 
  596000    1.0361991   -6.5598981    240.57229  0.033637065   0.03400166            7 
  597000    1.0030535   -6.5659454    239.79233   0.03347185  0.033982102            5 
  598000    1.0050035   -6.5509656    240.72155  0.033545366  0.033963236            2 
  599000    1.0374949   -6.5921596    241.17072  0.033551854  0.033943864            5 
  600000    1.0114994    -6.589806    241.56719  0.033550998  0.033924578            3 
  601000   0.98543157   -6.5915555    241.46948  0.033481625  0.033905287            6 
  602000    1.0031484   -6.5653404    241.71082  0.033459416  0.033885923            6 
  603000    1.0176416   -6.5372722    243.13184   0.03360031  0.033866969            8 
  604000    1.0383868   -6.6040187    242.36332  0.033438647  0.033848054            4 
  605000    1.0075944   -6.5497402    242.50787  0.033403287  0.033829026            3 
  606000    1.0133841   -6.5547094    243.75609  0.033519815  0.033810356            5 
  607000    1.0128365   -6.5708537    244.52716   0.03357045  0.033792045            4 
  608000    1.0303987    -6.561691    244.11149  0.033458264  0.033773843            2 
  609000   0.99748236   -6.5818155    244.69604  0.033483312  0.033755762            4 
  610000   0.98663992   -6.5603975    244.54869  0.033408292  0.033737789            3 
  611000    1.0334956   -6.5769229    245.32943  0.033460097  0.033719775            4 
  612000    1.0234804   -6.5917183    245.31641   0.03340365  0.033701772            2 
  613000    1.0281292   -6.5432563    246.59196  0.033522561  0.033684361            6 
  614000   0.99087578   -6.5661721    245.87844  0.033371124  0.033666643            4 
  615000    1.0038293   -6.5516299    246.60302  0.033415043  0.033649043            8 
  616000    1.0174745   -6.6038476    246.47416  0.033343366  0.033631179            6 
  617000   0.99362677   -6.5647721    247.19634  0.033386864  0.033613512            3 
  618000    1.0163401   -6.5656098    247.63209  0.033391598  0.033595631            6 
  619000    1.0066314   -6.5770608    248.28785  0.033425936  0.033577923            2 
  620000    1.0041092   -6.6096463    247.71987  0.033295681  0.033560423            5 
  621000    1.0056361   -6.5840818    247.81225  0.033254462  0.033542777            9 
  622000   0.98738449   -6.5456452    248.45969   0.03328774  0.033525167            5 
  623000    1.0093308   -6.5604612    248.86237  0.033288171  0.033507295            1 
  624000    1.0174194   -6.5624493     248.6445   0.03320573  0.033489373            4 
  625000    1.0218808   -6.5718964     248.6209  0.033149454  0.033471164           12 
  626000    1.0094431   -6.5994158    248.86614  0.033129146  0.033452665            4 
  627000   0.98238097   -6.5616752    249.74435  0.033193029  0.033434099           10 
  628000    1.0085737   -6.5822468    249.06916  0.033050579  0.033415471            4 
  629000    1.0079037   -6.6059025    249.28686  0.033026876  0.033396285            4 
  630000    1.0134421   -6.5876776    249.94693  0.033061764  0.033377499            3 
  631000   0.98844038   -6.5888389    250.21832  0.033045209  0.033358551            6 
  632000    1.0048228   -6.5812779    250.72784  0.033060105   0.03333964            9 
  633000    1.0160418   -6.5565287    250.70296  0.033004602  0.033320733            5 
  634000    1.0145206   -6.5864727     250.6179  0.032941365  0.033302025            3 
  635000    1.0079225    -6.599528    252.36391  0.033118624  0.033283378            8 
  636000   0.99610755   -6.5903266    252.20205  0.033045343  0.033265123            6 
  637000   0.97972063   -6.5776441    251.93996  0.032959178  0.033246853            3 
  638000   0.99983214   -6.5531627    252.74533  0.033012713  0.033228578            6 
  639000   0.98506113    -6.576914    252.55606  0.032936366  0.033210699            7 
  640000   0.97693522   -6.5816514    253.10569   0.03295647  0.033192514            7 
  641000   0.98804056   -6.5983148    252.59537  0.032838712  0.033174324            4 
  642000   0.98617775   -6.6237006    254.20898  0.032997011   0.03315632            4 
  643000   0.99811738   -6.5818219    253.92313  0.032908649  0.033138313            4 
  644000   0.96760228   -6.5720412    254.76295   0.03296622  0.033120711            5 
  645000    1.0091771   -6.6039481    255.22816  0.032975214  0.033103199            9 
  646000     1.008819   -6.6119374    255.27725  0.032930502  0.033085907            2 
  647000   0.99533057   -6.5780179    255.84793  0.032953108  0.033068744            3 
  648000    1.0063733   -6.6106116    255.76579  0.032891691   0.03305131            4 
  649000   0.99768145   -6.6010412    255.33077  0.032785152  0.033033197            5 
  650000    1.0076302   -6.5903736    255.91476  0.032809584  0.033015082            6 
  651000   0.97384191   -6.5871422    255.76652   0.03274021  0.032997397            3 
  652000    1.0010714   -6.5969298     256.4082  0.032772009  0.032979572            4 
  653000   0.99368389   -6.6427062    255.99412  0.032668979  0.032961909            2 
  654000   0.99190315   -6.6137385    256.58755  0.032694641  0.032943868            2 
  655000   0.98854215   -6.5913638    256.79904  0.032671634  0.032925814            4 
  656000   0.98655817   -6.6389632    256.57469  0.032593329  0.032907736            4 
  657000   0.98702928   -6.6212767    257.74006  0.032691535  0.032889952            4 
  658000   0.98424865   -6.5994899      258.006  0.032675532  0.032872513            5 
  659000   0.96940446   -6.6185588    258.80766  0.032727322  0.032855439            3 
  660000   0.96568169   -6.6067154    258.41492  0.032628147  0.032838183            6 
  661000   0.99758074   -6.6315684    258.69201  0.032613718  0.032820422            4 
  662000   0.99054655   -6.6299074    259.08628  0.032614084  0.032802472            4 
  663000   0.99526297   -6.6248573    259.51662  0.032618982  0.032784547            2 
  664000    0.9963937   -6.6188496    259.51181  0.032569253  0.032766714            5 
  665000   0.99547778   -6.6089105    259.77565   0.03255334  0.032748802            8 
  666000   0.97450186   -6.6053444    260.26635  0.032565859  0.032731352            7 
  667000    1.0023934   -6.6156926    260.84286  0.032589063  0.032714069            3 
  668000    1.0029871   -6.6203241    260.58085  0.032507591  0.032696842            6 
  669000   0.97576888   -6.6123349    260.56898  0.032457521  0.032679607            3 
  670000   0.98458649   -6.6641377    261.94004  0.032579607  0.032662206            6 
  671000   0.99126706   -6.6139907    261.54788   0.03248235  0.032644686            3 
  672000   0.97606254   -6.5863534    261.94645  0.032483439  0.032626962            5 
  673000   0.99336507   -6.6139044    261.77697  0.032414187  0.032609097            5 
  674000   0.98156853   -6.6172958    262.10487  0.032406636  0.032591211            6 
  675000    1.0083768    -6.621959    262.66464  0.032427733  0.032573388            9 
  676000   0.97098918   -6.6184587    262.11259   0.03231171   0.03255519            4 
  677000   0.97307669   -6.6196573    262.35419  0.032293721  0.032536978            5 
  678000   0.97262321   -6.6367764    262.09114  0.032213758  0.032518714            3 
  679000   0.99722874   -6.6300433    263.08318  0.032288068  0.032500679            9 
  680000   0.96111532   -6.6009733     263.1956  0.032254363  0.032482349            7 
  681000   0.96240198    -6.622335    263.28727  0.032218217  0.032464122            2 
  682000   0.98732302   -6.6342736    263.49425  0.032196267  0.032445789            2 
  683000   0.97417563   -6.6271181    263.94285  0.032203861  0.032427704            3 
  684000   0.98938226   -6.6698479     263.8129  0.032140948  0.032409388            4 
  685000   0.98482375   -6.6434822    264.43656  0.032169898  0.032390962            7 
  686000   0.97247017   -6.6827147    263.92487  0.032060845  0.032372685            6 
  687000    1.0084243   -6.6302677    264.83878  0.032125034  0.032354048            5 
  688000   0.97298115   -6.6689426    264.63132  0.032053212  0.032335332            4 
  689000    0.9720256   -6.6502332    265.16563  0.032071315  0.032316862            6 
  690000   0.97075328   -6.6317332    265.59893  0.032077165  0.032298627            4 
  691000    0.9537096   -6.6670732    265.13239   0.03197448  0.032279903            8 
  692000   0.97050823   -6.6355414    265.42738  0.031963798  0.032261234            6 
  693000   0.99628158   -6.6685218    265.87423  0.031971408  0.032242641            8 
  694000   0.97629038   -6.6259976    265.59085  0.031891313  0.032224026            5 
  695000    0.9663899   -6.6043276    267.14428  0.032031688  0.032205656            6 
  696000   0.97906736   -6.6419013    265.70381  0.031813195  0.032187189            8 
  697000   0.98280778   -6.6119818    267.57415   0.03199117  0.032168675            6 
  698000   0.96020414   -6.6311904    267.88593  0.031982561  0.032150698            5 
  699000   0.96222014   -6.6527551    267.05833  0.031838141  0.032132313            5 
  700000   0.96634157   -6.6126392    267.73634  0.031873374   0.03211417            3 
  701000   0.97106495   -6.6241128    267.44911   0.03179376  0.032095838            3 
  702000    0.9658145   -6.5937334    267.98569  0.031812167  0.032077192            5 
  703000   0.95593205   -6.6305919    268.33517  0.031808341  0.032058686           10 
  704000   0.98395236   -6.6476201    268.30562  0.031759661  0.032040541            3 
  705000   0.98127785   -6.6825112    269.28821  0.031830757  0.032022386            6 
  706000   0.96616622   -6.6450577     269.9927  0.031868827   0.03200433            3 
  707000   0.97659525    -6.672841    269.21844   0.03173249  0.031986375            7 
  708000   0.98094731   -6.6830098    269.89751  0.031767597  0.031968506            5 
  709000   0.99012063   -6.6527566    271.29705  0.031887288  0.031950835           10 
  710000   0.98285621   -6.5877291     270.9945  0.031806866  0.031933336            7 
  711000   0.98114801   -6.6517684    271.37318  0.031806514  0.031916241            4 
  712000   0.95732976   -6.6744994    271.44342  0.031770064  0.031899181            4 
  713000   0.96046985   -6.6607346    272.25464  0.031820318  0.031882045            4 
  714000   0.98434432    -6.651139     271.9384  0.031738843  0.031864965            9 
  715000   0.93800169   -6.6739403    272.01446  0.031703317  0.031848139            8 
  716000   0.98536149   -6.6329383    273.78675  0.031865311  0.031831394            8 
  717000   0.95297098   -6.6551335    273.53187  0.031791245  0.031814858            2 
  718000   0.97213832   -6.6380276    274.07208  0.031809666  0.031798178            3 
  719000   0.95690734   -6.6820002    274.06176  0.031764228  0.031781371            2 
  720000   0.95415704    -6.635597    273.96762  0.031709215  0.031764496            6 
  721000    0.9656416   -6.6815003    273.17875  0.031574058  0.031747725            7 
  722000    0.9545314   -6.6585799    274.41379  0.031672875  0.031730872            4 
  723000   0.96180505   -6.6410285    273.96322  0.031577135  0.031713662            4 
  724000   0.96853238   -6.6585297    274.66492  0.031614286  0.031696156            5 
  725000   0.97381272   -6.6645439    274.40876  0.031541236  0.031678711            3 
  726000   0.94663775   -6.6931995    274.33335  0.031489136  0.031661034            5 
  727000   0.97560692   -6.6606204    275.08416  0.031531884  0.031643637           11 
  728000   0.96432544   -6.6772409    274.77683  0.031453392  0.031626195            8 
  729000    0.9569957   -6.6803093      274.977  0.031433128  0.031608682            4 
  730000   0.96418458   -6.6625892    275.85314  0.031490085  0.031590764            5 
  731000   0.96153492   -6.6545509    275.40017  0.031395368  0.031573263            5 
  732000   0.95933896   -6.6526526    276.11314  0.031433645  0.031555768            6 
  733000   0.96916842   -6.6865905    275.57002  0.031329016  0.031538437            5 
  734000   0.94565374   -6.6588301    276.88018  0.031435079   0.03152129            8 
  735000    0.9597625   -6.7022033    276.78619  0.031381654  0.031504017            4 
  736000    0.9719319   -6.6628612    276.97495  0.031360389  0.031486636            5 
  737000   0.94847966    -6.654841    277.68768  0.031398426  0.031469491            6 
  738000   0.95195137   -6.6603433     277.8619  0.031375553  0.031452186            6 
  739000   0.95828939   -6.6734574    277.68808  0.031313495  0.031434784            7 
  740000   0.93108306   -6.6905514    278.12611  0.031320507  0.031417465            3 
  741000   0.95270113   -6.6511061    278.36319  0.031304902  0.031400059            3 
  742000   0.95322628   -6.6666182    278.90623  0.031323701  0.031382958            5 
  743000   0.95277909   -6.6437509      278.791  0.031268618  0.031365698            7 
  744000   0.98625514   -6.6752784    278.70565   0.03121703  0.031348329            6 
  745000   0.96712388   -6.6729148    278.55854  0.031158673  0.031330839            5 
  746000   0.93889605   -6.6892239    278.57593  0.031118848  0.031313198            5 
  747000   0.96743835   -6.6871346    279.35657  0.031164276  0.031295325            4 
  748000   0.95102177   -6.6998634    279.63737  0.031153896  0.031277693            2 
  749000    0.9590441   -6.6670873    279.06093  0.031048168   0.03125976            2 
  750000   0.97556349   -6.7068049    279.09048  0.031010054  0.031241878           11 
  751000   0.97735063   -6.6805038    279.53441  0.031018021   0.03122404            7 
  752000   0.94428195   -6.6698095    279.97571  0.031025677  0.031206053            5 
  753000   0.96601998   -6.6878705    279.83462   0.03096886  0.031188115            3 
  754000   0.95249093   -6.6897349    280.06027  0.030952726  0.031170066            7 
  755000   0.93966876   -6.7416174    280.35631  0.030944405  0.031151819            5 
  756000   0.94606037   -6.6668653    281.04672  0.030979577  0.031133782            2 
  757000   0.93050058   -6.6746759    280.93087  0.030925899  0.031115715           10 
  758000   0.91679316   -6.6836037    281.56753  0.030955093  0.031097753            5 
  759000   0.94252081   -6.6583557    281.37502  0.030893174   0.03108004            6 
  760000   0.95995513   -6.6841609    282.30186  0.030954151  0.031062538            3 
  761000   0.95917979   -6.6788768    282.34319  0.030918002  0.031045054            6 
  762000   0.95044588   -6.7058197    282.44469  0.030888527   0.03102762            5 
  763000   0.95363914   -6.6438041    282.90862  0.030898713  0.031009897            8 
  764000   0.94123333   -6.7274791    282.72053  0.030837754  0.030992149            5 
  765000   0.94417003    -6.667785    282.93419  0.030820718  0.030974407            6 
  766000   0.93556208    -6.681781    282.44349  0.030727098  0.030956814           15 
  767000   0.93421234   -6.6640576    284.48431  0.030908769   0.03093881            8 
  768000   0.94585106   -6.6891563    283.41388  0.030752374  0.030920997            7 
  769000   0.93463282   -6.7019692    284.43411  0.030822942  0.030903085            9 
  770000   0.95483388   -6.6863581    283.66365  0.030699529  0.030885311            7 
  771000    0.9344697   -6.7205821    284.75535  0.030777708  0.030867707            4 
  772000   0.95190958   -6.7117868    284.55711  0.030716441  0.030850261            7 
  773000   0.93057214   -6.6813401    284.37929  0.030657534  0.030832538            8 
  774000   0.94257914   -6.7314317    284.75338  0.030658202  0.030815009            7 
  775000   0.95133967   -6.7330451    285.11024  0.030657016  0.030797151            7 
  776000   0.94524595   -6.6808212    285.71152  0.030682079  0.030779461            5 
  777000     0.948338   -6.6724558    286.04593  0.030678456  0.030762085            3 
  778000   0.93007579   -6.6965956    285.61624  0.030592999  0.030744637            7 
  779000   0.93951981   -6.6789691    285.90336  0.030584442  0.030727039            5 
  780000   0.93005318   -6.6800169    286.12041   0.03056842  0.030709429            7 
  781000   0.93089211   -6.7040248    286.20675  0.030538493  0.030691842            8 
  782000   0.94054736   -6.6979395    286.91052  0.030574437  0.030674323            4 
  783000   0.95139851   -6.6620146    287.17971  0.030564038  0.030657019           16 
  784000    0.9450247   -6.7264561    287.89751  0.030601351    0.0306397            5 
  785000   0.94785066   -6.6971192    287.95022  0.030567963  0.030622279            4 
  786000   0.93521591   -6.7094453    288.10293  0.030545264  0.030605081            4 
  787000   0.93145414   -6.6948814    288.51512  0.030550098   0.03058804            7 
  788000   0.95140022   -6.7241576    288.82188  0.030543769  0.030570972            5 
  789000   0.94126263   -6.7254173     289.0234  0.030526342  0.030554038            5 
  790000   0.93469862   -6.6841604    288.48228  0.030430621  0.030536878            3 
  791000    0.9489469   -6.7173288    288.41237  0.030384784  0.030519727            6 
  792000   0.93053457   -6.7118204    289.22765  0.030432202  0.030502386            5 
  793000   0.95142423   -6.7432717     288.4847  0.030315753  0.030484899            7 
  794000   0.95660785    -6.715541    289.46816  0.030380789  0.030467558            5 
  795000   0.93014005   -6.7253713    289.16519  0.030310817  0.030450237            4 
  796000   0.92899876   -6.7380521    289.33992   0.03029103  0.030432664            5 
  797000     0.944216   -6.7424146    290.87762  0.030413804   0.03041529           13 
  798000   0.91587821   -6.7267292    290.24522  0.030309651   0.03039782            8 
  799000   0.93068396   -6.7337032    291.09955   0.03036082  0.030380412            9 
  800000   0.91898962   -6.7281495    290.73478  0.030284872  0.030363123            4 
  801000   0.95272262     -6.74862    290.93189  0.030267571  0.030345914            4 
  802000   0.93037344   -6.6946857    291.86185   0.03032646  0.030328665            3 
  803000   0.94235669   -6.7244408    291.52163  0.030253386  0.030311638            3 
  804000   0.93316519   -6.7328729    291.16352   0.03017864  0.030294432            5 
  805000   0.94115395   -6.6759861    291.39827  0.030165452  0.030277046            3 
  806000   0.91183958   -6.6948374    292.65137  0.030257586  0.030259918            3 
  807000   0.93637407    -6.699998    292.42348  0.030196559  0.030242769            8 
  808000   0.92455278    -6.709263    291.68866  0.030083401  0.030225503           16 
  809000   0.94256044   -6.7172295    292.40094  0.030119585  0.030208173            2 
  810000   0.92534717   -6.6958854    292.73265  0.030116527    0.0301909            2 
  811000   0.91396388   -6.7518975    291.93346  0.029997273  0.030173162            8 
  812000   0.93056176   -6.7418532    292.58387   0.03002708  0.030155384            5 
  813000   0.92073427   -6.6819962    294.40693  0.030177012  0.030137963            5 
  814000   0.92274964   -6.7186174    293.37939  0.030034745  0.030120474            5 
  815000   0.92110339   -6.7805699    293.05128  0.029964344  0.030102867            5 
  816000    0.9226418   -6.7184072     293.6726  0.029991075  0.030085383            5 
  817000   0.92849331   -6.7209855    294.25315  0.030013581  0.030067943            6 
  818000   0.93102258   -6.7364408    294.77741  0.030030298  0.030050877            6 
  819000    0.9298459   -6.7328622    294.01539  0.029916096   0.03003362            6 
  820000   0.91346415   -6.7738674    294.14104  0.029892383  0.030016278            4 
  821000   0.94408286   -6.7042598    295.38759    0.0299825  0.029999147            5 
  822000   0.91439784   -6.7133883    295.86248  0.029994168  0.029982383            7 
  823000   0.91328042   -6.7462152     295.6044  0.029931592  0.029965705            6 
  824000   0.94269214   -6.7526011     295.9284  0.029928034  0.029948917            6 
  825000   0.91081104   -6.7356316    296.66426  0.029966087  0.029932401            4 
  826000   0.92884063   -6.7358091    296.71292  0.029934717  0.029915957            5 
  827000   0.92429109   -6.7096412    296.69088    0.0298963  0.029899413            2 
  828000   0.91979599   -6.7349677    297.63058  0.029954769  0.029882886            4 
  829000   0.94439406   -6.7860325    297.11608  0.029866916  0.029866332            4 
  830000   0.93868789   -6.7664955    298.01093  0.029920777  0.029850099            9 
  831000   0.93599588   -6.7197115     298.6838  0.029952246  0.029833787            6 
  832000   0.92621772    -6.728198    298.99629  0.029947545  0.029817476            3 
  833000    0.9246019   -6.7393258    297.90308  0.029802228  0.029801259            8 
  834000   0.94190678    -6.738665    298.55254  0.029831389  0.029784901            5 
  835000   0.91662839   -6.7583664    298.12734  0.029753227  0.029768139            4 
  836000   0.92145262   -6.7382367    298.72179  0.029776893  0.029751641            7 
  837000   0.93054705   -6.7206301    299.09706   0.02977868   0.02973514            9 
  838000    0.9008615   -6.7460672    299.01684  0.029735167  0.029718564            4 
  839000   0.91850167   -6.7791546    298.94976  0.029693063  0.029701809            7 
  840000   0.92234735    -6.696819    300.02981  0.029764863   0.02968518            4 
  841000   0.90608571   -6.7585748    300.10957  0.029737373   0.02966838            5 
  842000   0.92970191   -6.7729551    299.76328  0.029667783    0.0296516            3 
  843000   0.91853926   -6.7432723    300.21925  0.029677664  0.029634842           12 
  844000   0.92827975   -6.7483312    299.86731  0.029607752  0.029618287            4 
  845000   0.90332128   -6.7695432    300.59534  0.029644511  0.029601628            3 
  846000   0.93869916   -6.7562274    300.84389  0.029633953  0.029585033           12 
  847000   0.90249309   -6.7405127    300.29634  0.029545095  0.029568329           12 
  848000   0.91894381   -6.7731452    301.32082   0.02961093  0.029551564            4 
  849000   0.93181116   -6.7568473     302.2221  0.029664517  0.029534971           14 
  850000    0.9016569   -6.7285722    302.32206  0.029639418  0.029518863            5 
  851000   0.92544448   -6.7647367    301.95306  0.029568455  0.029502656            6 
  852000   0.90748394   -6.7695401    302.47255  0.029584561  0.029486385            7 
  853000   0.91626194   -6.7866568    302.14699  0.029518073  0.029470132            7 
  854000   0.89988135   -6.7625325    302.86731  0.029553797  0.029453983            5 
  855000   0.90821588    -6.744033    303.17583  0.029549301  0.029437768            3 
  856000   0.89574313   -6.7798093    301.45712  0.029347461   0.02942136            6 
  857000   0.91081763   -6.7780722    302.26021  0.029391308  0.029404667            4 
  858000    0.9266804   -6.7751693    302.18181  0.029349438  0.029387892            6 
  859000   0.91713614   -6.7844434    301.99525  0.029297172  0.029371044            7 
  860000   0.92157285   -6.7565505    302.41747  0.029304018  0.029354265            7 
  861000   0.90339493   -6.7650532    302.42421  0.029270636  0.029337166            6 
  862000   0.91302324   -6.7363719     303.5567  0.029346162  0.029320093            4 
  863000   0.89851184   -6.7496873    304.09635  0.029364267  0.029303128            3 
  864000   0.89789703   -6.7606287    303.60871  0.029283248  0.029286077            6 
  865000   0.90168235   -6.7522195    304.68483  0.029353067  0.029269193            4 
  866000    0.9143964   -6.7724555    303.72098  0.029226422  0.029252373           12 
  867000   0.92573661   -6.7397408    303.81858  0.029202093   0.02923565            8 
  868000   0.91114471   -6.7742786    305.24668  0.029305557   0.02921905            7 
  869000   0.90704045   -6.7681322    305.65278  0.029310777  0.029202579            3 
  870000   0.91714331   -6.7809042    304.98589  0.029213208  0.029185998            8 
  871000   0.91947096   -6.7905023    304.42428  0.029125935  0.029169398            4 
  872000   0.92557507   -6.7826378    305.33826   0.02917988  0.029152537            4 
  873000   0.91076666   -6.7816719    305.02456   0.02911651  0.029135638            4 
  874000   0.91621104   -6.7611004    305.33137   0.02911245  0.029118826            9 
  875000   0.92817239   -6.7554101    305.18869  0.029065589  0.029101971            7 
  876000   0.90759315   -6.7694266    304.21364  0.028939653  0.029084857           10 
  877000   0.88458813   -6.7958234    305.20274   0.02900064  0.029067482            4 
  878000   0.89156439    -6.750401    305.82176  0.029026363  0.029050375            3 
  879000   0.89581483   -6.7551416    305.86633  0.028997566  0.029033193            3 
  880000   0.90351644   -6.7868813    306.04342  0.028981385  0.029015922            9 
  881000   0.91317799   -6.7674889    305.76854  0.028922487  0.028998706            5 
  882000   0.88962104   -6.7388565    306.15423  0.028926136  0.028981441           18 
  883000   0.91197679    -6.776064    305.75801  0.028855985  0.028964048            6 
  884000   0.89360712   -6.8030616    306.27592  0.028872164  0.028946605            5 
  885000   0.89334327   -6.7950742    306.27283   0.02883925  0.028929251           10 
  886000    0.8956473   -6.8033667    306.08428  0.028788965  0.028911773            7 
  887000   0.90339504    -6.800561    306.57162  0.028802294   0.02889432            5 
  888000   0.89258357   -6.7908088    306.10272  0.028725856  0.028876796            9 
  889000   0.88482109   -6.8092447    306.14019  0.028697055  0.028859257            5 
  890000   0.90727896   -6.7808289    307.32623  0.028775864  0.028841565           14 
  891000   0.91549972   -6.7863413     307.9212  0.028799215  0.028823818            7 
  892000   0.89307271   -6.7859725    307.15541  0.028695386  0.028806321            4 
  893000   0.89567678   -6.7560579    307.35166  0.028681565  0.028788782            9 
  894000     0.900128   -6.7874884    307.31412  0.028645985  0.028771253            5 
  895000   0.90445769   -6.8216805    307.09412  0.028593493  0.028753708            9 
  896000   0.88832541   -6.7984874    308.36482  0.028679763   0.02873634            7 
  897000   0.90426354   -6.7684793    307.86822  0.028601656  0.028718987            8 
  898000   0.90246722    -6.814358    308.17193  0.028597989  0.028701401            9 
  899000    0.8868396   -6.7986174    309.36214  0.028676505  0.028683777            6 
  900000   0.90227616   -6.7814728    309.45322  0.028653076  0.028666396            3 
  901000   0.87632397   -6.7882606    308.89254  0.028569417  0.028649004            4 
  902000   0.89440798   -6.7934888     309.1557  0.028562057  0.028631603            9 
  903000   0.90354052   -6.8081761    308.52106  0.028471859  0.028614052            9 
  904000   0.89393288   -6.8204709    309.05987  0.028490032  0.028596357            4 
  905000   0.89009828   -6.8050372    308.56175  0.028412684  0.028578606            7 
  906000   0.91464801   -6.8167572    309.38964  0.028457472  0.028560969           13 
  907000   0.90860667   -6.8110646    309.48837  0.028435168  0.028543388            5 
  908000   0.88039352   -6.7871837    309.37433  0.028393386  0.028525721           10 
  909000   0.88017609   -6.8303628    309.90578  0.028410871   0.02850796            7 
  910000    0.8744527   -6.8272555     309.6785  0.028358837  0.028490369            8 
  911000   0.88828369   -6.8103747    309.97163  0.028354522  0.028472827            7 
  912000    0.8960074   -6.8052727    310.41391  0.028363844  0.028455253            4 
  913000   0.87889314   -6.8398194    310.17074  0.028310582  0.028437596            5 
  914000   0.87095876   -6.7836497    311.58701  0.028408735  0.028419882            4 
  915000   0.88423727   -6.8240787    310.00885  0.028233957  0.028402209            4 
  916000   0.87393206   -6.8110075     311.2139  0.028312764  0.028384472           12 
  917000   0.85130897   -6.7932271    311.16218  0.028277188  0.028366899            4 
  918000   0.87529422   -6.8167813    311.25078  0.028254428  0.028349275           15 
  919000   0.91585794   -6.7972933    310.76981  0.028180069  0.028331752           13 
  920000   0.89810381   -6.8359261    311.15516  0.028184344  0.028314152           11 
  921000   0.88200507   -6.8274254    311.98987  0.028229268   0.02829668            9 
  922000   0.87356735   -6.8204065    312.00493  0.028200011  0.028279337           11 
  923000   0.87650419   -6.7930995      312.625  0.028225442  0.028261782            7 
  924000   0.87638517   -6.7894931    312.81637  0.028212155  0.028244475           11 
  925000   0.87280662    -6.816064    312.77681  0.028178091  0.028226982            8 
  926000   0.87265647   -6.8143898    313.05473  0.028172672  0.028209576           10 
  927000   0.86108869   -6.8200792    313.93972  0.028221838  0.028192316           11 
  928000   0.89069945   -6.8524581    312.54578  0.028066252  0.028175033           11 
  929000   0.88141071   -6.8338795    313.65662  0.028135685   0.02815771            6 
  930000   0.87580064   -6.8149427    313.35457  0.028078367   0.02814041            7 
  931000   0.89710809   -6.8383572    313.27064  0.028040695  0.028123232            6 
  932000   0.88139808   -6.8463567    313.63145  0.028042869  0.028105957            6 
  933000   0.87611881   -6.8455698    314.03108  0.028048507  0.028088509            4 
  934000   0.89300387   -6.8268834    314.58914  0.028068267  0.028071366            5 
  935000   0.87133971   -6.8454425    314.75465  0.028052999  0.028054368            4 
  936000   0.88399118   -6.8150704    314.86974  0.028033274  0.028037337           12 
  937000   0.87341287   -6.8457725    315.03197  0.028017784  0.028020446            4 
  938000   0.86543428   -6.8272844     315.5676  0.028035501  0.028003321            6 
  939000   0.88713569   -6.8319076    315.78784   0.02802519  0.027986355            4 
  940000   0.87744747   -6.8018685    315.83328  0.027999405  0.027969352            7 
  941000   0.88324836   -6.8413069    314.52219  0.027853542  0.027952163           23 
  942000   0.89410798   -6.8634395    315.52678  0.027912843  0.027934906            6 
  943000   0.86766607   -6.8334575    314.69073  0.027809361  0.027917561           10 
  944000   0.85472297   -6.8490945    315.33013  0.027836346  0.027900179            9 
  945000   0.86799967   -6.8600031    315.14656  0.027790702  0.027882698            9 
  946000   0.89222136   -6.8285528    315.45426   0.02778843   0.02786519            4 
  947000   0.87232287   -6.8717778    315.07973  0.027726129   0.02784766            9 
  948000   0.86655289   -6.8290019    316.09157  0.027785827  0.027830088            7 
  949000    0.8924509   -6.8368674    316.10118  0.027757392   0.02781247            6 
  950000   0.87416302   -6.8440212    315.83426   0.02770476  0.027794909            7 
  951000    0.8691806   -6.8455336    315.63964  0.027658574  0.027777172            6 
  952000   0.88537284   -6.8603458    316.20389  0.027678912  0.027759629            8 
  953000   0.87877365   -6.8522031    316.42165   0.02766891  0.027742001            4 
  954000    0.8837948    -6.827396     316.9613  0.027687046  0.027724593            9 
  955000   0.87774446   -6.8465997    315.31432  0.027514339   0.02770704            6 
  956000   0.86421681   -6.8436457    317.32274   0.02766063  0.027689503            5 
  957000   0.86666677   -6.8573757    316.51343  0.027561253  0.027672004            4 
  958000    0.8627756   -6.8598745    316.89467  0.027565646  0.027654582            8 
  959000   0.85015798   -6.8457122    319.00018  0.027719863    0.0276374            5 
  960000    0.8858783   -6.8535946    318.23594  0.027624648  0.027620376            8 
  961000   0.86229558   -6.8152241    318.28205    0.0275999  0.027603442           13 
  962000   0.85717307   -6.8558295    319.13339  0.027644957  0.027586532            7 
  963000   0.84668903   -6.8423955    319.09843  0.027613225  0.027569581            7 
  964000   0.86146738   -6.8311025    318.34194  0.027519186   0.02755275            6 
  965000   0.86658217   -6.8423182    318.47603  0.027502247  0.027535976            4 
  966000   0.88531942   -6.8099102    319.45555  0.027558278  0.027519135            7 
  967000    0.8539357   -6.8773523    319.47911  0.027531809  0.027502209            6 
  968000   0.87817264   -6.8866787    318.48208  0.027417534  0.027485078           12 
  969000   0.85582466   -6.8264761    319.50719  0.027477399  0.027467926            7 
  970000   0.85735702   -6.8605857    320.06331  0.027496848  0.027450694            5 
  971000   0.87555776   -6.8389856    319.14949  0.027390104  0.027433587           10 
  972000   0.86944391   -6.8531689    319.79557  0.027417315   0.02741645            5 
  973000    0.8719441   -6.8296374    320.33534  0.027435366  0.027399413            4 
  974000   0.85670007   -6.8425429    320.46878  0.027418615  0.027382348            5 
  975000   0.88505682   -6.9042009     319.5861  0.027315052  0.027365231            8 
  976000   0.85785687   -6.8612544     320.2455  0.027343366  0.027348047            5 
  977000   0.86559306   -6.8744992    320.13087  0.027305601  0.027330807            7 
  978000   0.85926227   -6.8518384    321.11314  0.027361379  0.027313676            5 
  979000   0.85998953   -6.8709139    320.94376  0.027319012  0.027296537           10 
  980000   0.86347545   -6.8814474    320.25873  0.027232885  0.027279371            8 
  981000   0.85740325   -6.8733534    320.91974  0.027261276  0.027262137            6 
  982000   0.85700991   -6.8904541    320.94312  0.027235499  0.027244902           12 
  983000    0.8615604   -6.9009214    320.83756  0.027198844  0.027227605           12 
  984000   0.88044443   -6.8428506    320.70819  0.027160246  0.027210401            7 
  985000   0.86605891    -6.868193    322.43222   0.02727853  0.027193416            8 
  986000   0.87838519    -6.887437    322.14567  0.027226645  0.027176431            8 
  987000   0.87427663   -6.8728015    321.68198  0.027159911   0.02715933            7 
  988000   0.86367811   -6.8648833    321.44456  0.027112396  0.027142385            5 
  989000   0.85035518   -6.8831431    322.23002  0.027151165  0.027125285            7 
  990000    0.8645589   -6.8870798    321.86944  0.027093387  0.027108059            5 
  991000   0.82852989   -6.8929615    322.72745  0.027138198  0.027090938           12 
  992000   0.85982139   -6.8800684    323.03234  0.027136453  0.027073812           14 
  993000   0.84922492   -6.8812795    322.46264  0.027061316  0.027056521            6 
  994000    0.8497958   -6.8873448    322.33862  0.027023693  0.027039231           13 
  995000   0.85747337   -6.9097305    322.40742  0.027002297  0.027021882            7 
  996000   0.86724149   -6.8860532    322.04569   0.02694492  0.027004629            9 
  997000   0.86321229   -6.8827439    322.68669  0.026971472  0.026987409            7 
  998000   0.87213238   -6.8818709     322.3196  0.026913794  0.026970113            8 
  999000   0.84805891   -6.9224784     323.4924  0.026984685  0.026952666            9 
 1000000   0.86920017    -6.871728    322.99651  0.026916376  0.026935446            5 
 1001000   0.81975243   -6.8471487    323.73059  0.026950599  0.026918269            8 
 1002000   0.85871837   -6.8723144    323.54419    0.0269082   0.02690099           18 
 1003000   0.86009098   -6.8791531    323.31631  0.026862438  0.026883801            9 
 1004000   0.86306217   -6.8663299    322.84304  0.026796401  0.026866594            9 
 1005000   0.82592654   -6.8845519    323.64575  0.026836298  0.026849208           12 
 1006000   0.85539042   -6.8884776    323.89815   0.02683053   0.02683191            7 
 1007000   0.85106123   -6.8712011    323.39883  0.026762564  0.026814754            7 
 1008000   0.83465889   -6.8900539    324.16195  0.026799103  0.026797579            6 
 1009000    0.8374273   -6.8824833    324.50184  0.026800615  0.026780378            9 
 1010000   0.83353722   -6.9025955    323.44486   0.02668687  0.026763081           12 
 1011000    0.8374394   -6.9217646    324.03128   0.02670881  0.026745836           22 
 1012000   0.84073401   -6.8777192    325.87438  0.026834188  0.026728679            9 
 1013000   0.83557026   -6.9086338    324.73511  0.026713977  0.026711577            9 
 1014000    0.8590995   -6.8805437    324.63282  0.026679226  0.026694501           12 
 1015000   0.85854657   -6.9195308    323.60495  0.026568551  0.026677324           17 
 1016000   0.84218023   -6.8851171    325.00635  0.026657345  0.026659933            8 
 1017000   0.83642927   -6.8881461    324.38997  0.026580627  0.026642637           10 
 1018000   0.87889635   -6.9029579    325.11941  0.026614228   0.02662528            8 
 1019000   0.85320104   -6.9128934    325.56388  0.026624459  0.026608045            6 
 1020000   0.84387624   -6.8898611    325.80754  0.026618263  0.026590959            5 
 1021000   0.87202969   -6.9015104    325.11868  0.026535968  0.026573797            6 
 1022000   0.86000798   -6.8853557    325.66426   0.02655449  0.026556539           12 
 1023000   0.83923972   -6.8991168    325.21644  0.026492053  0.026539373            9 
 1024000   0.84855905   -6.8918613    325.43111  0.026483651  0.026522127            6 
 1025000   0.83970017   -6.8954075    325.42981  0.026457708  0.026504759           16 
 1026000   0.84636012   -6.9211362    325.88336  0.026468759  0.026487226           12 
 1027000   0.83406637   -6.8651806    326.34147  0.026480158  0.026469853            7 
 1028000   0.84685254   -6.9060728    326.53018  0.026469697  0.026452718            5 
 1029000     0.836342   -6.8881004    326.45124   0.02643758  0.026435545           14 
 1030000   0.84028884   -6.9178863     326.7353  0.026434895  0.026418391            5 
 1031000    0.8201864   -6.8896565    326.39378  0.026381651  0.026401273            4 
 1032000   0.83845379   -6.8760798    326.20517  0.026340857  0.026384147           12 
 1033000   0.84392832   -6.9120573    326.77944  0.026361684  0.026366973            6 
 1034000   0.84883779   -6.8946601    327.11731   0.02636342  0.026349838            9 
 1035000   0.83589642   -6.8987898    328.01639  0.026410337   0.02633266            9 
 1036000   0.84146767   -6.9225764    327.81251  0.026368445  0.026315619           12 
 1037000   0.86097084   -6.9023402    327.60903  0.026326666  0.026298706            7 
 1038000   0.81673258   -6.9007564    327.84156  0.026319971  0.026281826           16 
 1039000   0.79682728   -6.8703749    328.31116  0.026332304  0.026264905           15 
 1040000   0.86463898   -6.8853967    328.47277  0.026319934  0.026248205           10 
 1041000   0.84563024   -6.8986637     328.7615  0.026317763  0.026231596            5 
 1042000   0.82688542   -6.9003176    328.45901  0.026268315  0.026214999           12 
 1043000   0.84379421   -6.8870076    328.62188  0.026256143  0.026198216           11 
 1044000   0.84571794   -6.9170965    328.46081  0.026218136  0.026181511            4 
 1045000   0.85699352   -6.9264299    328.28861  0.026179315  0.026164745            5 
 1046000   0.85637901   -6.8948162    330.15273  0.026302799  0.026147932            7 
 1047000   0.83801133   -6.9006346    329.25183  0.026205972  0.026131058           17 
 1048000   0.83771373   -6.9105952    328.73973  0.026140246  0.026114143           14 
 1049000   0.83813545   -6.9384763    329.32882  0.026162124  0.026097208            7 
 1050000   0.82070123   -6.9242552    329.40698  0.026143411  0.026080378           15 
 1051000    0.8416544   -6.8958176    330.16072    0.0261783  0.026063483            5 
 1052000   0.83211798   -6.8966907    329.79982  0.026124827  0.026046624            4 
 1053000   0.84367774   -6.9358633    329.46397  0.026073438  0.026029845            6 
 1054000   0.82948753   -6.9275828     329.6842  0.026066113  0.026013127           25 
 1055000   0.85610656   -6.9453857    329.94965  0.026062374  0.025996385            5 
 1056000   0.81774489    -6.944157    330.25757  0.026061993   0.02597968            7 
 1057000   0.81882208   -6.9083545    330.97685  0.026094043  0.025963051           14 
 1058000   0.80749301   -6.9423446    329.91828  0.025986002  0.025946366           26 
 1059000   0.82033422   -6.9374229    330.27561  0.025989582  0.025929689            6 
 1060000   0.82665213   -6.9490814    330.92116  0.026015814   0.02591302           12 
 1061000   0.83060468   -6.9597938    331.23547  0.026015981  0.025896235            8 
 1062000   0.83272075   -6.9505046    330.16473  0.025907465  0.025879408            8 
 1063000   0.83904304   -6.9385928    330.83246  0.025935439  0.025862628            5 
 1064000   0.82593319   -6.9345268    331.31567  0.025948909  0.025845905           12 
 1065000   0.82976026   -6.9674011    329.91085   0.02581462   0.02582916            7 
 1066000   0.84114464   -6.9773301    330.15667  0.025809621  0.025812206           15 
 1067000   0.82989479   -6.9551799    330.62497  0.025822006  0.025795317            7 
 1068000   0.82644549   -6.9584823    330.86938  0.025816899  0.025778329           10 
 1069000   0.82649899   -6.9496038    330.71412  0.025780645  0.025761417            9 
 1070000   0.83244028   -6.9613068     331.2554  0.025798707   0.02574458            9 
 1071000   0.83637944   -6.9264715     331.6614  0.025806209  0.025727811           11 
 1072000   0.81657403   -6.9406534    331.31383  0.025755117  0.025711122            7 
 1073000     0.804887   -6.9183635    331.58094  0.025751859   0.02569436           10 
 1074000   0.81099121   -6.9049388      331.874   0.02575062  0.025677485           17 
 1075000   0.81320646    -6.941809    331.92249  0.025730426   0.02566075           13 
 1076000   0.83241856   -6.9749143    331.70128  0.025689381  0.025643991            4 
 1077000   0.80228506   -6.9187504    332.53537  0.025730066  0.025627247            6 
 1078000   0.82955763   -6.9529885    331.69694  0.025641383  0.025610646            8 
 1079000   0.83287302   -6.9219729    332.51118  0.025680505  0.025593901            9 
 1080000   0.81881335   -6.9471852    332.83586  0.025681779  0.025577256            8 
 1081000   0.83284083   -6.9453727    333.22003  0.025687637  0.025560426            5 
 1082000   0.83069715   -6.9467017    332.66008   0.02562077  0.025543743           16 
 1083000   0.82715441   -6.9410668    333.67126   0.02567492  0.025526934           12 
 1084000   0.82432848   -6.9507647    333.24852  0.025618736  0.025510358           13 
 1085000   0.82416162   -6.9551832    332.63729  0.025548179  0.025493835           13 
 1086000   0.83794494   -6.9531798      333.656  0.025602823  0.025477292           26 
 1087000    0.8274088   -6.9335539    334.88677  0.025673625  0.025460816            7 
 1088000   0.83346417   -6.9275529    334.29235    0.0256045  0.025444311            6 
 1089000   0.81310771   -6.9568791     334.0251  0.025560538  0.025427748            7 
 1090000   0.82212704   -6.9464597    333.80307  0.025520112  0.025411136            9 
 1091000   0.83192302   -6.9447773    333.69686  0.025488609  0.025394405           16 
 1092000   0.81508477   -6.9639114    334.11238  0.025496976  0.025377763            9 
 1093000    0.8165114   -6.9671981    334.51152   0.02550408  0.025361002           16 
 1094000   0.81931413   -6.9217606    333.57811  0.025409667  0.025344419           20 
 1095000   0.82778058   -6.9587178    333.96244  0.025415711   0.02532788            7 
 1096000   0.79311008     -6.94509    334.25554  0.025414807  0.025311308           10 
 1097000   0.82069815   -6.9561836    333.44424  0.025330009  0.025294796            8 
 1098000    0.7925378   -6.9683921    334.32847  0.025374049  0.025278266            5 
 1099000   0.81078957    -6.968459    335.12551  0.025411397  0.025261792            9 
 1100000   0.82455043   -6.9744051    334.78645   0.02536261  0.025245258           14 
 1101000   0.80364353   -6.9700063    333.84427  0.025268261   0.02522856           18 
 1102000   0.81651807   -6.9284134    335.10392  0.025340587  0.025212043            8 
 1103000   0.81717105   -6.9894029    334.65426   0.02528364  0.025195465            9 
 1104000   0.81971186   -6.9637817     334.6468  0.025260175  0.025178881            8 
 1105000   0.82182473   -6.9610063    335.77202  0.025322173  0.025162278            5 
 1106000   0.79680682   -6.9605991    335.14299  0.025251883  0.025145777           13 
 1107000   0.79560053   -6.9649502    335.08381  0.025224617  0.025129236            9 
 1108000   0.80193143   -6.9739253    335.48223  0.025231817   0.02511262            9 
 1109000   0.81998959   -6.9465176    335.32511  0.025197258  0.025095962            9 
 1110000   0.82342752    -6.992908     336.0628   0.02522994  0.025079425            8 
 1111000   0.79091049   -6.9560843     335.9687  0.025200172  0.025062924           13 
 1112000   0.80833549   -6.9625502    336.23108  0.025197173  0.025046443            7 
 1113000   0.80699459   -6.9684432    335.99738  0.025157037  0.025029979           10 
 1114000   0.81429005   -6.9528039    336.74351  0.025190269  0.025013543            8 
 1115000   0.82411377    -6.951134    335.90682  0.025105144  0.024997198           12 
 1116000   0.80661072   -6.9790275    336.54115  0.025130014  0.024980702            9 
 1117000   0.78682726   -6.9545209    336.95013  0.025138028  0.024964231            8 
 1118000   0.79181969   -6.9583944    336.88972   0.02511104  0.024947959           11 
 1119000   0.78934103   -6.9962987    336.29731  0.025044482  0.024931629            6 
 1120000   0.81882854   -6.9809403    336.91451  0.025068044  0.024915223            7 
 1121000   0.82106399   -6.9844434    336.12462  0.024986962  0.024898848           14 
 1122000   0.81477395    -6.970895    336.83384  0.025017367  0.024882417           13 
 1123000   0.80971924     -6.96657    337.30746  0.025030236  0.024866003            6 
 1124000   0.79512843   -6.9923282    336.71777  0.024964248  0.024849515           15 
 1125000   0.78679057   -6.9557857    337.40891  0.024993252  0.024833087            4 
 1126000   0.80335885   -6.9557712    337.58651    0.0249842  0.024816845            7 
 1127000   0.79325901   -6.9802173    337.45192  0.024952079  0.024800508            6 
 1128000   0.78692022   -6.9596446    338.44164  0.025003076  0.024784216            6 
 1129000    0.8024225   -6.9523089    337.59277  0.024918274  0.024767945           14 
 1130000   0.80250307   -6.9754378    337.57194  0.024894686  0.024751591            7 
 1131000   0.80735656   -7.0010578     337.8249  0.024891313  0.024735213            8 
 1132000   0.78651691   -6.9826871    337.64274  0.024855914    0.0247189           10 
 1133000   0.81230131    -6.980915    337.67764  0.024836543  0.024702547           17 
 1134000   0.79945878   -6.9607166    337.80972  0.024824347  0.024686224           11 
 1135000   0.80355403   -6.9631827    338.43655  0.024848498  0.024669964           13 
 1136000   0.79203014   -6.9834701    338.17515  0.024807449   0.02465352            8 
 1137000   0.80345459   -7.0222076    337.98506  0.024771699   0.02463705            6 
 1138000   0.81170449   -6.9827461     338.0161  0.024752204  0.024620581            6 
 1139000   0.79091903   -6.9850926    337.59268  0.024699493  0.024603978            6 
 1140000   0.78382987   -6.9811422    337.39574  0.024663431  0.024587424            4 
 1141000   0.80855243   -7.0085948    338.56109  0.024726928  0.024570878           12 
 1142000   0.79880662   -6.9792588    338.55891  0.024705116  0.024554404           11 
 1143000   0.80817596   -6.9996086     338.1579  0.024654265  0.024537961           11 
 1144000   0.78487176   -6.9834466    337.36736  0.024575128  0.024521447           12 
 1145000   0.78729254   -7.0035723    338.25251  0.024618087  0.024504982            9 
 1146000   0.79652184   -7.0154935    339.21575  0.024666648  0.024488476           10 
 1147000   0.79635808   -7.0300077     338.3565  0.024582716  0.024471917           21 
 1148000    0.7944914   -7.0057111    339.46682  0.024641901  0.024455317           16 
 1149000   0.80522676   -6.9989796    338.59021  0.024556876  0.024438807            8 
 1150000   0.78195955   -7.0165608    338.82763  0.024552727  0.024422426           11 
 1151000   0.78210804   -6.9662938    339.84262  0.024604881  0.024405966           10 
 1152000   0.79321868   -6.9977082    338.98241  0.024521297  0.024389455           11 
 1153000   0.77985825   -7.0202502    338.53333  0.024467572  0.024372918           19 
 1154000   0.79782314   -7.0078348    338.79201   0.02446505  0.024356311           18 
 1155000   0.79775045   -6.9843897    338.33734  0.024411063  0.024339739            7 
 1156000   0.80474629   -6.9825674    339.14406  0.024448101  0.024323209           43 
 1157000   0.80305753      -7.0163    338.29229  0.024365622  0.024306711           12 
 1158000   0.80046318   -7.0019288    339.21707  0.024411131  0.024290212           17 
 1159000   0.77571361   -6.9615978    339.41559  0.024404342  0.024273728            6 
 1160000   0.79564207   -6.9834179    339.60993  0.024397265  0.024257186           18 
 1161000   0.78403082   -6.9931177    339.44052  0.024364091  0.024240585           14 
 1162000   0.80290891    -7.028277    339.59466  0.024354178  0.024224025            5 
 1163000   0.78185316   -7.0149842     339.5722  0.024331628  0.024207358            9 
 1164000   0.77300131   -7.0233183    339.30345  0.024291484    0.0241908           13 
 1165000   0.79336699   -7.0111832    338.80121  0.024234707  0.024174083            8 
 1166000   0.79728929   -7.0074687    338.98926  0.024227363  0.024157234            9 
 1167000   0.79708895   -7.0014082    339.59855   0.02425011  0.024140479            9 
 1168000    0.7776501   -7.0025075    339.04555  0.024189894  0.024123735           10 
 1169000   0.78915443   -6.9892625    339.15838  0.024177244  0.024106954           12 
 1170000   0.79191988   -7.0185761    338.58072  0.024115436   0.02409018           11 
 1171000   0.79659968   -6.9869787    339.90797  0.024189295  0.024073555           12 
 1172000   0.78556993   -7.0151557    339.52033  0.024141093  0.024056836            5 
 1173000   0.77217956   -6.9937635    339.34269  0.024107892  0.024040043           15 
 1174000   0.78547133   -7.0139138    339.06527  0.024067665  0.024023099           10 
 1175000   0.78682739   -7.0117998    338.71604  0.024022414  0.024006117           15 
 1176000   0.76875697   -7.0461462    338.96739  0.024019798  0.023989164            9 
 1177000   0.77985462   -7.0319775    339.26516  0.024020473  0.023972201            9 
 1178000    0.7828952   -7.0161541    339.44258  0.024012633  0.023955235            9 
 1179000   0.78510516    -7.007048    340.31674  0.024054053  0.023938416            8 
 1180000   0.78140368   -7.0152364     339.8436  0.024000254  0.023921589            6 
 1181000   0.78061241   -7.0463328    339.70961  0.023970478  0.023904741           15 
 1182000   0.78776687   -7.0403679    339.64775  0.023945837  0.023887878            6 
 1183000   0.77372418   -7.0076168    339.51723  0.023916401   0.02387096           11 
 1184000   0.78123232   -7.0470924    339.48669  0.023894052  0.023853976           10 
 1185000    0.7825147   -7.0525602    339.22356  0.023855384  0.023837088            9 
 1186000   0.75793965   -7.0338057    339.63646  0.023864282  0.023820218            8 
 1187000   0.78949333   -7.0465037    339.57602  0.023839934  0.023803429           16 
 1188000   0.79434626   -7.0498084    339.88764  0.023841726  0.023786693            9 
 1189000   0.79769412   -7.0511988    340.54408  0.023867682  0.023769997            7 
 1190000   0.77969151   -7.0571675    340.36624  0.023835171  0.023753188           13 
 1191000   0.77189315   -7.0524598    340.08851  0.023795726  0.023736394           26 
 1192000   0.79420197   -7.0545017    339.67771  0.023747043  0.023719573           34 
 1193000   0.79027339   -7.0361979    340.05542  0.023753522  0.023702818           15 
 1194000    0.7691602   -7.0297425    340.42687  0.023759553  0.023686112           10 
 1195000   0.77198117   -7.0726314    339.66451  0.023686507  0.023669284            7 
 1196000   0.76917958   -7.0387908    340.83783  0.023748455  0.023652516            9 
 1197000   0.77654046   -7.0462653    340.97725  0.023738321  0.023635814           16 
 1198000    0.8025327   -7.0288606    340.95417  0.023716901  0.023619101           15 
 1199000   0.79662985   -7.0236122    340.60516  0.023672863  0.023602419           12 
 1200000    0.7607613   -7.0143987    341.60101  0.023722292  0.023585861            8 
 1201000     0.777853   -7.0345502    340.79244  0.023646436  0.023569314            5 
 1202000   0.77995955   -7.0255386    340.61358  0.023614364  0.023552754            7 
 1203000   0.77294552   -7.0387171     340.3485  0.023576372  0.023536122           18 
 1204000   0.77414472   -7.0340035    340.81296  0.023588937  0.023519505           10 
 1205000   0.78192547   -7.0378025    341.74777  0.023634009  0.023502883           12 
 1206000   0.79369811   -7.0755878    341.34294  0.023586439  0.023486315            9 
 1207000   0.77097641   -7.0391671    340.71541  0.023523572    0.0234698            6 
 1208000   0.78534228   -7.0494401    341.48351  0.023557086  0.023453264           12 
 1209000   0.76598467    -7.055346    340.84411  0.023493529  0.023436665           14 
 1210000   0.75193401   -7.0471147     341.8023  0.023540103  0.023420055            9 
 1211000   0.77210615   -7.0511166    341.83564  0.023522959  0.023403435           14 
 1212000   0.77920671   -7.0597408     341.6648  0.023491804  0.023386784            7 
 1213000   0.76294293   -7.0576782    342.03673  0.023497989  0.023370211            7 
 1214000   0.76262869   -7.0859313    341.67314  0.023453675  0.023353725            6 
 1215000   0.76669374   -7.0734241    342.51189  0.023491899  0.023337235           12 
 1216000   0.76619485   -7.0650024     342.6231  0.023480202  0.023320699           10 
 1217000   0.77901613   -7.0617673    342.28585  0.023437815  0.023304188           12 
 1218000   0.76361084   -7.0728941    341.56211  0.023369055  0.023287537            8 
 1219000   0.77801408   -7.0676935    341.98897  0.023379065   0.02327093           16 
 1220000   0.76542703   -7.0799363    342.06858   0.02336534  0.023254343           16 
 1221000   0.74816487   -7.0707473    342.56813  0.023380298  0.023237837           15 
 1222000   0.78064473   -7.0728288    343.11428  0.023398409  0.023221314           15 
 1223000   0.76511235   -7.0816569    342.30886  0.023324398  0.023204739           16 
 1224000   0.76456277   -7.0650038    341.71864  0.023265158  0.023188175           12 
 1225000   0.76155059   -7.1059074    342.37208  0.023290617   0.02317157           15 
 1226000   0.76306598   -7.1002921    342.15863  0.023257112  0.023155015           31 
 1227000   0.75050968   -7.0833458     343.3691  0.023320368  0.023138571           15 
 1228000   0.75867429   -7.0561256    343.14794  0.023286369  0.023122113            9 
 1229000   0.77702638   -7.0656487    342.88811  0.023249804  0.023105642            7 
 1230000    0.7616851   -7.0665526    342.83681  0.023227426  0.023089146           21 
 1231000   0.77024586   -7.0851996    342.85332  0.023209675  0.023072691           22 
 1232000    0.7483262   -7.0710749    342.91085  0.023194727  0.023056325           20 
 1233000   0.76009405   -7.1016094    342.73631  0.023164119  0.023039998           26 
 1234000   0.75547549   -7.1052166    343.19684  0.023176448  0.023023648           11 
 1235000   0.76761609   -7.0786277    343.85536  0.023202116  0.023007344            9 
 1236000   0.74862885   -7.0555175    343.39377  0.023152223  0.022991069            7 
 1237000   0.76962561   -7.0829299    343.71555  0.023155184  0.022974671           21 
 1238000   0.77989898     -7.09513    344.02468  0.023157289  0.022958295           14 
 1239000   0.75740926   -7.0940312    343.75714  0.023120604  0.022941922           17 
 1240000   0.75845596   -7.0680231    343.45673   0.02308177  0.022925548           26 
 1241000   0.76668732   -7.0898041    343.60171  0.023072906  0.022909239           20 
 1242000    0.7430854   -7.0966593    344.00468  0.023081366  0.022892944           18 
 1243000   0.74821606   -7.0773614     343.5699  0.023033648  0.022876616           47 
 1244000   0.74913871   -7.0811157    343.24395  0.022993298  0.022860339           26 
 1245000   0.74399265   -7.1080211    343.23939  0.022974524  0.022843987           50 
 1246000   0.77234616   -7.0762107    344.39428  0.023033325  0.022827673           62 
 1247000   0.76118756   -7.1161524     343.6967  0.022968237  0.022811412           61 
 1248000   0.75883495   -7.0943897     343.1919  0.022916126  0.022795034           50 
 1249000   0.74362105    -7.110798    344.74019   0.02300108  0.022778677           25 
 1250000   0.75201129   -7.1168939    343.78387  0.022918925   0.02276233           36 
 1251000   0.76231945   -7.1192137    344.36291  0.022939176  0.022745943           42 
 1252000   0.74054064   -7.0937627    344.07637  0.022901782  0.022729605           29 
 1253000    0.7510442   -7.0908345    344.82517  0.022933305  0.022713309           26 
 1254000   0.74755667   -7.0931516    344.37799  0.022885299  0.022697121           35 
 1255000   0.75547522   -7.0957939    344.59611  0.022881548   0.02268087           35 
 1256000   0.76926901   -7.0773644    344.17439   0.02283535  0.022664619           23 
 1257000   0.75507936   -7.0607493    344.02383  0.022807202   0.02264843           29 
 1258000   0.73572947   -7.0949309    345.26994  0.022871618  0.022632158           15 
 1259000    0.7262881   -7.0962668    344.80003  0.022822348    0.0226159           19 
 1260000   0.75506232     -7.09651     345.3131  0.022838168  0.022599721           16 
 1261000   0.74056657   -7.0965047    344.62321  0.022774466  0.022583592           15 
 1262000   0.75418795    -7.100954    345.10052  0.022787937  0.022567406           28 
 1263000   0.74629431   -7.0907591     343.6863  0.022676584  0.022551283           15 
 1264000   0.74755367     -7.08789     345.7829  0.022796869  0.022535215           12 
 1265000   0.76394815   -7.0891678    345.25758  0.022744241  0.022519076           15 
 1266000   0.76296975   -7.1055242    345.43477  0.022737939  0.022502936           14 
 1267000   0.74863172   -7.1045298    345.39725  0.022717525  0.022486721           11 
 1268000   0.75772879   -7.0828004    344.88295  0.022665809  0.022470559            7 
 1269000   0.74583848    -7.090954    344.89277  0.022648593  0.022454488           11 
 1270000   0.74277181   -7.0819458     345.3249  0.022659114  0.022438458            9 
 1271000   0.74975024   -7.0963933    345.28168  0.022638452  0.022422407           19 
 1272000   0.75095782   -7.0819707    345.77874  0.022653219  0.022406399            5 
 1273000   0.76045107   -7.0939134    345.39313  0.022610181  0.022390422            8 
 1274000   0.76429627    -7.114139    344.97617   0.02256516   0.02237435            5 
 1275000   0.75258266   -7.0660375    346.25947  0.022631338  0.022358309            8 
 1276000   0.74491842   -7.0848951     345.7329  0.022579213  0.022342327           10 
 1277000   0.74888093   -7.1101183     345.7757  0.022564324  0.022326287            8 
 1278000    0.7361645   -7.1228126    345.65538  0.022538822  0.022310295           10 
 1279000   0.72834987   -7.0947209    346.17514  0.022555065  0.022294306           13 
 1280000   0.74166851   -7.0862295    346.46488  0.022556307  0.022278356            9 
 1281000   0.72878032   -7.1064445    346.37442  0.022532814  0.022262459           12 
 1282000   0.73324062   -7.1047739    346.80703  0.022543359  0.022246541            9 
 1283000    0.7627956   -7.1159509    345.98927  0.022472672  0.022230657            8 
 1284000   0.73071625   -7.1206987    346.16443  0.022466539  0.022214708           19 
 1285000   0.74027618   -7.0948834    346.89368  0.022496347  0.022198785           13 
 1286000   0.73390362    -7.118259    346.28616  0.022439487  0.022182878           16 
 1287000   0.75140783   -7.0979594    346.77842  0.022453925  0.022166946           19 
 1288000   0.72759788   -7.1058388    347.12915  0.022459184  0.022151095           10 
 1289000   0.75330364    -7.108367    346.81166  0.022421234  0.022135254           14 
 1290000   0.73033886   -7.1083903    346.83085  0.022405094  0.022119507            8 
 1291000   0.72041601   -7.1375604    347.18591  0.022410658  0.022103733            6 
 1292000   0.73892154   -7.1064078    347.35995  0.022404538  0.022088028           12 
 1293000    0.7423073   -7.1006794    347.11093  0.022371161  0.022072369           12 
 1294000   0.73530243   -7.0923181    347.77653  0.022396737  0.022056691            9 
 1295000   0.74597819   -7.1330556    347.87455   0.02238575  0.022041001           16 
 1296000    0.7404676   -7.0928463    348.41227  0.022403052  0.022025301           10 
 1297000   0.72349747   -7.1225232    346.44134  0.022259145  0.022009637            7 
 1298000   0.74876198   -7.1453898    347.02287  0.022279332  0.021993945           16 
 1299000    0.7248556    -7.156712     347.6732    0.0223039  0.021978268           14 
 1300000    0.7311502   -7.1388718    347.38889  0.022268519  0.021962636           23 
 1301000   0.73827843   -7.1308654    347.30879  0.022246271  0.021946994            9 
 1302000   0.74791776   -7.1027355    347.44632  0.022237987  0.021931343            7 
 1303000   0.74345855   -7.1175155    347.82599  0.022245203  0.021915806           16 
 1304000   0.72047563   -7.1383453    348.16117  0.022249564  0.021900265           10 
 1305000    0.7372191   -7.1352428    346.80561  0.022145952   0.02188468           24 
 1306000   0.73144117   -7.1235048    348.22873  0.022219802  0.021869113            9 
 1307000   0.73482637   -7.1296299    348.37366  0.022212042  0.021853583           16 
 1308000   0.71849569   -7.1324564    348.38988  0.022196093  0.021838107           17 
 1309000     0.750043   -7.1550794    347.45968  0.022119919  0.021822625           10 
 1310000   0.73075824   -7.1233627    347.89207  0.022130539   0.02180723           10 
 1311000   0.73168534   -7.1219384    348.79213   0.02217087  0.021791862            9 
 1312000   0.72875815   -7.1430093    349.28177  0.022185072  0.021776471           10 
 1313000   0.73218895    -7.120934    348.73044  0.022133183  0.021761021           15 
 1314000   0.71746953    -7.116124    348.66034  0.022111894  0.021745628           24 
 1315000   0.73757116   -7.1501867    347.94268    0.0220496  0.021730164           17 
 1316000   0.72928727   -7.1468628    348.24097  0.022051733  0.021714659            9 
 1317000   0.72865365   -7.1243409    348.74506  0.022066885  0.021699169           22 
 1318000   0.73296455   -7.1373749    348.83306  0.022055707    0.0216837           11 
 1319000   0.72427347   -7.1519634    348.29845  0.022005209  0.021668267            7 
 1320000   0.73166509   -7.1412536     349.2064  0.022045859   0.02165287           30 
 1321000   0.73309854   -7.1369394    348.33994  0.021974511  0.021637413           29 
 1322000   0.72051611   -7.1537813    349.06689  0.022003712  0.021622014           12 
 1323000   0.72951397   -7.1607986    348.88786  0.021975804  0.021606666           18 
 1324000   0.72317564   -7.1577139    349.48159  0.021996575  0.021591344           19 
 1325000    0.7100973   -7.1459249    348.96656  0.021947582  0.021576041           22 
 1326000   0.71473735   -7.1170504    349.45099  0.021961475   0.02156077           24 
 1327000   0.73320185   -7.1487118    349.52069  0.021949302  0.021545517           33 
 1328000   0.74076677   -7.1696596    348.91252  0.021894611  0.021530179           34 
 1329000   0.71678034    -7.173351      349.317  0.021903499  0.021514837           24 
 1330000   0.72701825   -7.1517331    349.77676  0.021915837  0.021499552           30 
 1331000   0.72443836    -7.179547    349.53295  0.021884107  0.021484331           22 
 1332000    0.7361167   -7.1671564    349.50283  0.021865793  0.021469045           38 
 1333000   0.71814793   -7.1824734    349.57264  0.021853754  0.021453762           25 
 1334000   0.72837817   -7.1953775    348.79028  0.021788498  0.021438362           39 
 1335000   0.71707109   -7.1621054    349.43021  0.021812123  0.021423026           18 
 1336000   0.71215459   -7.1653767    349.53494  0.021802329  0.021407718           16 
 1337000   0.71450301   -7.1528897    349.81837  0.021803688  0.021392511           35 
 1338000   0.69921402   -7.1307806    349.64297  0.021776468  0.021377363           29 
 1339000   0.71278636   -7.1282018    349.81216  0.021770734  0.021362208           13 
 1340000   0.70554278   -7.1553183    349.16408  0.021714184  0.021347019            7 
 1341000   0.72228032   -7.1459822    350.08226   0.02175505  0.021331869            8 
 1342000   0.72730527   -7.1441355    350.27872  0.021751038  0.021316715           19 
 1343000   0.70780437   -7.1683632    349.60753  0.021693195   0.02130153            5 
 1344000   0.72877963   -7.1688007    350.18681  0.021712972  0.021286331            7 
 1345000   0.72107415   -7.1586771    349.93522   0.02168124  0.021271229           10 
 1346000   0.72822006   -7.1603163    350.46374  0.021697854  0.021256056           11 
 1347000   0.72005935   -7.1606456    350.68219   0.02169526  0.021240891           43 
 1348000    0.7230819   -7.1910896    349.38144  0.021598754  0.021225713           28 
 1349000    0.7254977   -7.1881865    349.82886  0.021610382  0.021210559           20 
 1350000   0.72246522    -7.191646    350.13986  0.021613572  0.021195361           35 
 1351000   0.73520056   -7.2072177    349.20899  0.021540155  0.021180131           26 
 1352000   0.69811022   -7.1847081    350.17371  0.021583685  0.021164945           17 
 1353000   0.72241876   -7.1862323    351.15451  0.021628142  0.021149859           15 
 1354000   0.69791555   -7.1998416    350.07451  0.021545699  0.021134737           13 
 1355000   0.73135256   -7.1922857    350.26364  0.021541429  0.021119596           17 
 1356000    0.7151799    -7.189296     350.0849  0.021514559  0.021104452           22 
 1357000   0.70715029   -7.2308269    350.44909  0.021521069  0.021089307           15 
 1358000   0.72737084   -7.1826011     350.4014  0.021502295   0.02107418           13 
 1359000    0.7095776   -7.2054059    350.17679    0.0214727  0.021059096           11 
 1360000   0.70923567   -7.2007054    350.84873  0.021498084  0.021043984           27 
 1361000   0.71338966   -7.1941194    350.55534  0.021464324  0.021028898           30 
 1362000   0.70595553   -7.1971707    350.87517  0.021468133  0.021013841           10 
 1363000   0.70865299   -7.1879095    350.76371  0.021445568   0.02099877            9 
 1364000   0.71844243   -7.1806457    350.61239    0.0214206  0.020983716           11 
 1365000   0.71511565   -7.1989446    350.80024  0.021416376  0.020968717           12 
 1366000   0.70816003   -7.2011078    350.91131  0.021407474  0.020953731           25 
 1367000   0.72140022   -7.1970841    350.04863  0.021339224  0.020938758           39 
 1368000   0.71271876   -7.1707816    350.89357  0.021375095  0.020923789           49 
 1369000   0.70049243   -7.2164451    350.85091  0.021356885  0.020908894           32 
 1370000   0.70988267   -7.1856047    350.85597  0.021341604  0.020893966           23 
 1371000   0.70845807   -7.2072888    350.81947  0.021323819  0.020878963           52 
 1372000   0.70649418   -7.1822855    351.52762  0.021351289  0.020863996           44 
 1373000   0.70698777    -7.185547    350.44229  0.021269865     0.020849           32 
 1374000   0.69921327    -7.174292    351.50867  0.021319061  0.020834059           92 
 1375000   0.70725095   -7.2000411     351.1415  0.021281303  0.020819196           28 
 1376000   0.70111949    -7.186604    351.14745  0.021266197  0.020804363           20 
 1377000     0.693547   -7.1818696    351.99568  0.021302086  0.020789515            9 
 1378000    0.7166494   -7.2044431    351.65555  0.021266059  0.020774706           29 
 1379000   0.70505586   -7.2018009    350.81467  0.021199823  0.020759872           30 
 1380000   0.70600683   -7.2140114    351.72765  0.021239592  0.020745016           13 
 1381000    0.7121706   -7.2026102    351.97469   0.02123912  0.020730253           17 
 1382000   0.70752729   -7.1814463    351.92784  0.021220926  0.020715535           14 
 1383000   0.69447856   -7.2148789    352.67396   0.02125054  0.020700784           19 
 1384000   0.69418659   -7.1850445    351.51403  0.021165344   0.02068609           31 
 1385000   0.71154903    -7.196463    351.36614  0.021141164  0.020671409           19 
 1386000   0.69672893   -7.1859353    352.10614  0.021170403  0.020656766           24 
 1387000   0.70811208   -7.2074269    352.41225  0.021173531  0.020642073           15 
 1388000   0.70646229   -7.1883951    352.71919  0.021176705  0.020627401           19 
 1389000   0.72605513   -7.2032914      352.898  0.021172186  0.020612814           24 
 1390000   0.71137053   -7.2099097    351.92383  0.021098551  0.020598216           22 
 1391000   0.69399724   -7.2059738    352.24181  0.021102433  0.020583636           40 
 1392000   0.69970053   -7.1824109    352.13607  0.021080943  0.020569084           21 
 1393000   0.68858888   -7.1941921    351.41333  0.021022573  0.020554494           18 
 1394000   0.69458348   -7.2076136    352.39089  0.021065931  0.020539873           21 
 1395000   0.70845845   -7.1918599    352.11668  0.021034449  0.020525304           15 
 1396000   0.69043566   -7.2070825    352.34484  0.021033002  0.020510686           21 
 1397000   0.69738661   -7.2040111    352.22578  0.021010843  0.020496163           24 
 1398000   0.68713975   -7.2168946    352.39131  0.021005681   0.02048163           24 
 1399000    0.6995515    -7.208376    352.49316  0.020996733  0.020467157           17 
 1400000   0.70442702   -7.1967367    353.03042  0.021013715    0.0204527           16 
 1401000   0.67976865   -7.1985824    352.55062  0.020970177  0.020438229           15 
 1402000   0.70036285   -7.2422705    352.83404  0.020972066  0.020423777           16 
 1403000   0.70760834    -7.192924    353.18824  0.020978156  0.020409327           15 
 1404000   0.70303836   -7.2122729    352.74201  0.020936729  0.020394889           12 
 1405000   0.69560124   -7.2275915    352.67977  0.020918136  0.020380423           14 
 1406000   0.68506432    -7.204994    352.88597   0.02091548  0.020365891           33 
 1407000   0.67852897   -7.2335468    352.36044  0.020869488  0.020351404           11 
 1408000   0.70620599   -7.2060749    352.80068  0.020880722  0.020336915           11 
 1409000   0.68077756   -7.2290558    352.56823  0.020852155  0.020322415           13 
 1410000   0.69458228   -7.2100955    353.37304  0.020884931   0.02030792           42 
 1411000   0.70105526   -7.2350285    352.83639  0.020838435  0.020293405           24 
 1412000   0.69093676   -7.2467529    352.91541  0.020828341   0.02027885           19 
 1413000   0.69173247    -7.231077      352.255  0.020774652  0.020264348           48 
 1414000   0.69904727   -7.2277595    352.54614  0.020777118  0.020249889           36 
 1415000   0.68806974   -7.2434063    352.75112  0.020774506  0.020235426           47 
 1416000   0.67804759    -7.260374    352.63014  0.020752715  0.020220963           16 
 1417000   0.70235132   -7.2352608    352.61528  0.020737196  0.020206489           24 
 1418000     0.690873   -7.2212212    353.31675  0.020763796  0.020192036           44 
 1419000   0.67322526   -7.2250564    352.63596  0.020709183  0.020177626           33 
 1420000   0.67908767   -7.2231172     353.0088  0.020716479   0.02016321           46 
 1421000   0.69050409   -7.2449002    353.16498  0.020711059  0.020148813           41 
 1422000   0.67703877   -7.2194831    352.70181  0.020669351  0.020134434           35 
 1423000   0.68853111   -7.2376268    353.40109  0.020695777  0.020120058           56 
 1424000   0.66590235   -7.2435471    352.72384   0.02064161  0.020105628           21 
 1425000    0.6843849   -7.1920742    353.61307  0.020679127  0.020091296           16 
 1426000   0.68369234   -7.2231755    353.78033    0.0206744  0.020076978           30 
 1427000   0.68218545   -7.2253289    353.65792  0.020652763  0.020062657           49 
 1428000   0.68816459   -7.2644208    353.99841  0.020658171  0.020048319           28 
 1429000   0.67775515   -7.2406313    353.60445   0.02062074  0.020033962           33 
 1430000   0.67854156   -7.2341811    353.51638  0.020601187  0.020019638           35 
 1431000   0.69495567   -7.2477897    353.02394  0.020558114  0.020005331           23 
 1432000   0.69741886   -7.2549629     353.6682   0.02058125  0.019991019           27 
 1433000   0.70053941   -7.2542864    353.15559  0.020537078  0.019976767           64 
 1434000    0.6785001    -7.272915    353.60836  0.020549068  0.019962516           53 
 1435000   0.68469977   -7.2489358    353.92552  0.020553166  0.019948242           61 
 1436000   0.68369514   -7.2583149     353.5594  0.020517607  0.019933992           30 
 1437000   0.68740102   -7.2302013    353.38894  0.020493443  0.019919766           24 
 1438000    0.6758789   -7.2320313    353.39885  0.020479767  0.019905554           58 
 1439000   0.67285084   -7.2408483     353.5429  0.020473877  0.019891374           92 
 1440000   0.67655024   -7.2275155    354.14688  0.020494611  0.019877206           40 
 1441000    0.6877187   -7.2238584    353.75454    0.0204577  0.019862992           29 
 1442000   0.68750168   -7.2272256    354.09468  0.020463169  0.019848806           30 
 1443000   0.67216227   -7.2366455    353.30465  0.020403364  0.019834572           16 
 1444000   0.66769524   -7.2329867    353.21819  0.020384244  0.019820346           19 
 1445000   0.68002104   -7.2340353    352.89823  0.020351686  0.019806074           29 
 1446000   0.68793071   -7.2396653    353.29844  0.020360675  0.019791832           17 
 1447000   0.67796471   -7.2326322     353.1243  0.020336576    0.0197776           10 
 1448000   0.68260832   -7.2395582    353.22913  0.020328564  0.019763343           13 
 1449000   0.67208289   -7.2462431    353.57004  0.020334141   0.01974911           18 
 1450000   0.66411279   -7.2537609    353.63519  0.020323862   0.01973487           38 
 1451000   0.68144095   -7.2373742    353.35022  0.020293489   0.01972064           20 
 1452000   0.66627694   -7.2479182     354.0711  0.020320885  0.019706434           24 
 1453000   0.67948074   -7.2624405    353.46942  0.020272392  0.019692265           19 
 1454000   0.68145208   -7.2473347    353.12785  0.020238873  0.019678076           34 
 1455000   0.65882311   -7.2679539    353.80269  0.020263613  0.019663866           33 
 1456000   0.66645847   -7.2548577      354.191  0.020271921  0.019649633           29 
 1457000   0.67376401    -7.282975     354.1018  0.020252905  0.019635395           51 
 1458000   0.67830846    -7.257479    354.58712  0.020266754  0.019621181           62 
 1459000   0.68255485    -7.270298    353.90462   0.02021388   0.01960694           24 
 1460000   0.67938466   -7.2787703    353.62047  0.020183817  0.019592727           39 
 1461000   0.68727382   -7.2631056    353.85537    0.0201834  0.019578551           20 
 1462000   0.66407092   -7.2590274     354.6779  0.020216479  0.019564329           14 
 1463000   0.67701892   -7.2546058    354.18028  0.020174316  0.019550117           24 
 1464000   0.68286782   -7.2736945    353.76725  0.020137025  0.019535911           32 
 1465000   0.67032501   -7.2686352    353.57015  0.020112067  0.019521664           33 
 1466000    0.6661589   -7.2802541    353.76432  0.020109386  0.019507444           45 
 1467000   0.66947497   -7.3016222    352.81378  0.020041683  0.019493162           22 
 1468000   0.67257067    -7.285828    353.18571  0.020049143  0.019478862           29 
 1469000   0.66171835   -7.2852144    353.50471  0.020053592  0.019464602           46 
 1470000   0.67730313   -7.2908097    353.24919  0.020025465  0.019450319           39 
 1471000   0.67211496   -7.2811367    353.25899  0.020012406  0.019436069           24 
 1472000   0.66761843   -7.3098301    353.54128  0.020014792  0.019421869           51 
 1473000   0.66656353   -7.2825388      354.083  0.020031851  0.019407701           50 
 1474000   0.66995976   -7.2610866    353.79208  0.020001814  0.019393583           52 
 1475000   0.65412758   -7.3022005    353.48359  0.019970824  0.019379421           38 
 1476000   0.66254873   -7.2912547      353.856   0.01997832  0.019365277           24 
 1477000   0.67923167    -7.290845    353.97525  0.019971522  0.019351178           41 
 1478000   0.65821834   -7.2868844    353.99805  0.019959295  0.019337038           42 
 1479000   0.66568283   -7.2891859    353.55119  0.019920621  0.019322943           27 
 1480000   0.65509824   -7.2904406    353.48272  0.019903307  0.019308831           30 
 1481000   0.66915421   -7.2975716     353.9759  0.019917618  0.019294668           27 
 1482000   0.65547463   -7.2874584    353.59672  0.019882856  0.019280524           27 
 1483000   0.66713426   -7.2858418    354.37798   0.01991335  0.019266399           27 
 1484000   0.67218982   -7.2729366    353.29756  0.019839261  0.019252274           52 
 1485000    0.6567389    -7.284218    353.51138    0.0198379  0.019238142           39 
 1486000   0.65014297    -7.288505    353.44987  0.019821101  0.019224014           22 
 1487000   0.65726887   -7.2823812    354.53348  0.019868498  0.019209912           30 
 1488000   0.66229846   -7.2844775    354.20782  0.019836908  0.019195832           27 
 1489000    0.6525819   -7.2956382    354.24276   0.01982554  0.019181802           56 
 1490000   0.64986171   -7.2817796    353.89915  0.019793017  0.019167733           35 
 1491000   0.64693395   -7.2612606    353.82633  0.019775672  0.019153691           18 
 1492000   0.66911354   -7.2912718    353.86274  0.019764451   0.01913966           43 
 1493000   0.65446425   -7.2845959    354.12608  0.019765912  0.019125616           11 
 1494000   0.65118342   -7.2632668    354.09537  0.019750969  0.019111548           28 
 1495000   0.67025381   -7.2975374    354.33747  0.019751253  0.019097535           30 
 1496000   0.67188706   -7.2923569    353.31313   0.01968099  0.019083494           29 
 1497000   0.65179969   -7.3053182    353.81034  0.019695521  0.019069476           64 
 1498000    0.6579783   -7.2790674    354.47538  0.019719369  0.019055427           39 
 1499000   0.65815642   -7.3179478    354.06158   0.01968321  0.019041396           36 
 1500000    0.6494766   -7.2983795    353.71482  0.019650823  0.019027339           35 
 1501000   0.64047252    -7.285646    353.62418    0.0196327  0.019013315           41 
 1502000    0.6554692   -7.2743715    354.13019  0.019647703  0.018999334           47 
 1503000   0.64763869   -7.3022364    354.46681  0.019653294  0.018985394           30 
 1504000   0.65501108   -7.2982427    353.74396  0.019600175  0.018971466           69 
 1505000   0.63975664   -7.3044694    353.95314  0.019598734    0.0189575           69 
 1506000    0.6801424   -7.3037324     353.9859  0.019587533  0.018943534           79 
 1507000   0.65546166   -7.3065212    354.49062  0.019602445  0.018929548           86 
 1508000   0.64680645   -7.2919251    354.86281  0.019610014   0.01891564           84 
 1509000   0.65903522   -7.3084622    353.73313  0.019534633  0.018901725           56 
 1510000   0.64939243   -7.3145562    354.19962   0.01954744   0.01888773           92 
 1511000   0.66245154   -7.3096449    353.85092  0.019515272  0.018873767           41 
 1512000   0.63662522   -7.3140712    353.60017  0.019488545  0.018859797          120 
 1513000    0.6694952   -7.2927515    353.36725  0.019462836  0.018845845           46 
 1514000   0.64106994   -7.3110779    354.13529  0.019492255  0.018831933           54 
 1515000   0.64268309    -7.308152    353.74692  0.019458026  0.018817992           52 
 1516000   0.65946942   -7.3019361    354.29489  0.019475313  0.018804066           47 
 1517000    0.6337255   -7.3164651    353.80294   0.01943545  0.018790162           48 
 1518000   0.64666204   -7.3016759    354.03959  0.019435638   0.01877623           47 
 1519000    0.6593013   -7.3024138    353.86911  0.019413491  0.018762282           36 
 1520000   0.64505889   -7.3161161     353.6681  0.019389699  0.018748369           42 
 1521000   0.64252628   -7.3051751     353.4749  0.019366365  0.018734483           54 
 1522000   0.64250774   -7.3120086    354.36708   0.01940249  0.018720614           95 
 1523000   0.64304954   -7.3043493    354.37387  0.019390122  0.018706756           49 
 1524000   0.63519719   -7.3212153    354.44691  0.019381393  0.018692949           81 
 1525000   0.64352919   -7.3203969    354.01349     0.019345  0.018679116           30 
 1526000    0.6532617   -7.3387835    354.00786  0.019332015  0.018665283           70 
 1527000   0.65179262   -7.2852774     353.9781  0.019317731  0.018651498           40 
 1528000   0.64568105    -7.317683     354.0053  0.019306572  0.018637733           38 
 1529000   0.64704727   -7.2975647    354.45709  0.019318568  0.018623979           28 
 1530000   0.64447047   -7.3328303    353.72188  0.019265898  0.018610182           41 
 1531000   0.63477268   -7.3311201    354.04141  0.019270706  0.018596408           20 
 1532000   0.62666795   -7.3153794    354.17114  0.019265184  0.018582667           23 
 1533000   0.64720481   -7.3299339    354.46491  0.019268586  0.018568907           22 
 1534000   0.64380373   -7.2986347    353.54178  0.019205877  0.018555189           32 
 1535000   0.62979522   -7.3213887    354.48297  0.019244461  0.018541457           31 
 1536000    0.6701276   -7.3302257    353.62713    0.0191855  0.018527771           33 
 1537000   0.64447606   -7.3539325    354.27338  0.019208056  0.018514025           38 
 1538000   0.64692597   -7.3076408    354.29189   0.01919657   0.01850032           46 
 1539000   0.63159253   -7.3087808    354.26296   0.01918253  0.018486621           59 
 1540000   0.64670874   -7.3402696     354.2469  0.019169204  0.018472948           49 
 1541000    0.6338702   -7.3302985     354.8151  0.019187492  0.018459309           46 
 1542000   0.65078777   -7.3313365    354.52928  0.019159602  0.018445687           44 
 1543000   0.63895107   -7.3323575    354.44815  0.019142803  0.018432069           60 
 1544000   0.64712776   -7.3412736    354.82392  0.019150687  0.018418466           39 
 1545000   0.62655561   -7.3336892    355.04066  0.019149982  0.018404847           40 
 1546000   0.63790515   -7.3720123    354.76161  0.019122553  0.018391231           49 
 1547000   0.63111787    -7.350128     354.4676  0.019094355    0.0183776           71 
 1548000   0.63342657   -7.3507603    353.67522  0.019039364  0.018364001           32 
 1549000   0.63221316   -7.3602189    354.35886  0.019063851  0.018350378           56 
 1550000   0.63891625   -7.3511676    354.25015  0.019045707  0.018336762           21 
 1551000   0.64434365   -7.3403515     353.8676  0.019012873  0.018323123           23 
 1552000   0.61984169   -7.3397022     354.5102  0.019035127  0.018309486           61 
 1553000   0.64670847   -7.3655985    354.56053   0.01902557  0.018295871           66 
 1554000   0.63044795   -7.3529522    354.38013  0.019003653  0.018282246           97 
 1555000   0.64815875   -7.3586385    353.45602  0.018941909  0.018268622          148 
 1556000   0.63707805   -7.3642129    354.00582  0.018959181  0.018254987          122 
 1557000   0.62377538   -7.3679357    353.84961  0.018938643  0.018241374          193 
 1558000   0.63182336   -7.3613835    354.20051  0.018945256   0.01822778           68 
 1559000   0.63551657   -7.3532951    353.85634  0.018914707  0.018214183          126 
 1560000   0.62765326   -7.3686896    354.82816  0.018954496  0.018200605           88 
 1561000   0.62298477   -7.3559618    355.21582  0.018963048  0.018187052          114 
 1562000   0.62932376   -7.3415162     353.9181  0.018881674   0.01817347           96 
 1563000   0.63437352   -7.3639139    354.06168  0.018877249  0.018159907          172 
 1564000   0.63833513   -7.3514119    354.35472  0.018880793  0.018146341          103 
 1565000   0.63696478   -7.3326932    353.96023  0.018847723  0.018132792          143 
 1566000   0.63719244   -7.3665513     353.5428  0.018813474  0.018119267           75 
 1567000    0.6312517   -7.3608467    354.44492  0.018849443  0.018105743           80 
 1568000   0.61266353   -7.3717859    354.49414  0.018840037  0.018092235          122 
 1569000   0.62682931   -7.3525734    354.00531  0.018802066  0.018078755           79 
 1570000   0.61810072   -7.3543366    354.42401  0.018812315  0.018065274          127 
 1571000   0.61858477   -7.3545312    353.33558  0.018742604  0.018051776           52 
 1572000   0.61751192   -7.3759498    354.22597  0.018777882  0.018038275           64 
 1573000   0.62945448   -7.3683556    354.21147  0.018765176  0.018024792          105 
 1574000   0.62860233   -7.3729999    354.69917  0.018779075  0.018011316           74 
 1575000   0.63842481    -7.373281    354.13343  0.018737219  0.017997857           84 
 1576000   0.62991104   -7.3762615    354.18807  0.018728218  0.017984393           46 
 1577000   0.62154238   -7.3579868    353.91318  0.018701816  0.017970966           35 
 1578000   0.63595402   -7.3840444    353.34209  0.018659806  0.017957518           53 
 1579000   0.61141377   -7.3805175    354.16734  0.018691542  0.017944075           46 
 1580000    0.6125892   -7.3665662    354.58988  0.018701998   0.01793063           43 
 1581000   0.62175139   -7.3713117    354.13356  0.018666116  0.017917236           47 
 1582000   0.62042313   -7.3702681     355.0297  0.018701522  0.017903852           35 
 1583000   0.61686253   -7.3729935     354.4132  0.018657254  0.017890488           53 
 1584000   0.62763698   -7.3878143    354.62792  0.018656772   0.01787714           51 
 1585000   0.61406414   -7.3913378    354.25724  0.018625512  0.017863772          124 
 1586000   0.60755778   -7.3691046    354.84617  0.018644713  0.017850415           53 
 1587000   0.61987666   -7.3875061    354.56281  0.018618085  0.017837068           68 
 1588000   0.60459114   -7.3873749    354.56989  0.018606732  0.017823749           88 
 1589000   0.63075349   -7.3920832    354.59555  0.018596368  0.017810405           38 
 1590000   0.62817238   -7.3849881    354.77074  0.018593854  0.017797079           30 
 1591000   0.61003335    -7.389891    353.68076  0.018525076  0.017783714           53 
 1592000   0.61469915   -7.3884777    353.96981  0.018528571  0.017770355           34 
 1593000   0.60813433     -7.38678     354.8379  0.018562351  0.017757042           46 
 1594000   0.62701866    -7.393457    354.53969  0.018535115   0.01774375           17 
 1595000   0.62680596   -7.3898118    354.12698  0.018501932  0.017730462           35 
 1596000   0.62336628   -7.3602559    354.62449  0.018516316  0.017717171           34 
 1597000   0.62791739   -7.3969796    354.86813  0.018517435  0.017703898           24 
 1598000   0.61665018   -7.3969221    354.22812  0.018472472  0.017690636           23 
 1599000   0.60570758   -7.4019313    354.24183  0.018461634  0.017677373           54 
 1600000     0.611028   -7.3864404    355.08576   0.01849405  0.017664159           31 
 1601000   0.60334464   -7.3810645    354.23977  0.018438464   0.01765094           45 
 1602000   0.61402939   -7.3804375    354.09583  0.018419467  0.017637724           46 
 1603000   0.62049558   -7.4042915    353.99145   0.01840255  0.017624493           45 
 1604000   0.60648727   -7.3693139    354.40172  0.018412392  0.017611241           31 
 1605000   0.61021172   -7.3859068    354.77583  0.018420344  0.017598028           41 
 1606000   0.63108829   -7.3880886    354.46651  0.018392824  0.017584811           37 
 1607000   0.61464743   -7.3904317    354.73701  0.018395406  0.017571587           46 
 1608000    0.6177275   -7.3799429    354.40883  0.018366958  0.017558395           32 
 1609000   0.60026786   -7.3860757    354.91834  0.018381932  0.017545228           18 
 1610000    0.6051457   -7.3961319    354.55232  0.018351569  0.017532057           28 
 1611000    0.6071288    -7.399039    354.37986  0.018331257  0.017518922           33 
 1612000   0.60020527   -7.4017966    353.91231  0.018295715  0.017505782           38 
 1613000   0.61639874    -7.409785    354.38988  0.018309045   0.01749264           31 
 1614000   0.59882179   -7.3932266    354.47454  0.018302073  0.017479526           38 
 1615000   0.60755473   -7.3986676    353.99959  0.018266233  0.017466402           60 
 1616000   0.61508498   -7.3865541    354.26965  0.018268856  0.017453295           41 
 1617000   0.60747791   -7.3877611    354.48505  0.018268659  0.017440206           59 
 1618000   0.61174799   -7.3925288    354.47217  0.018256704  0.017427102           85 
 1619000   0.61364573   -7.3869074    354.00557  0.018221411  0.017414026           63 
 1620000   0.61103887   -7.3972435    354.52159  0.018236707  0.017400961           59 
 1621000   0.60466177   -7.3928483    354.42841  0.018220667  0.017387909           80 
 1622000   0.60595799   -7.3855304    354.71559  0.018224188  0.017374851           86 
 1623000    0.6130064    -7.381426    354.50127  0.018201954  0.017361815          125 
 1624000   0.60598741   -7.3883255    354.64076  0.018197904  0.017348781           96 
 1625000   0.60975672   -7.3891623     354.1456  0.018161313  0.017335737           70 
 1626000   0.60644674   -7.3791227    354.06696  0.018146113  0.017322671           48 
 1627000   0.62137319   -7.3999669    353.79199  0.018120876  0.017309635           71 
 1628000   0.60042219   -7.4133622    354.26581  0.018133999  0.017296606          123 
 1629000    0.6011666   -7.3877187     354.5088  0.018135298  0.017283593           45 
 1630000   0.59573581   -7.4003242    354.17093  0.018106898  0.017270572           69 
 1631000   0.59626864   -7.3803213    353.94476  0.018084241  0.017257539           94 
 1632000    0.5829157   -7.3989341     353.7763  0.018064558  0.017244523           80 
 1633000    0.5898744   -7.4143078    353.91486  0.018060567  0.017231506           81 
 1634000   0.59068087   -7.4091383    353.61234  0.018034085  0.017218478           58 
 1635000   0.60924883   -7.3974642    353.57621  0.018021213  0.017205468          105 
 1636000   0.59740604   -7.3943242    354.17756  0.018040829  0.017192461           64 
 1637000   0.60829539     -7.40388    354.11897  0.018026826  0.017179469           50 
 1638000   0.60157462   -7.4094049    354.26265  0.018023131   0.01716652           86 
 1639000   0.60691135   -7.4078317    353.89289  0.017993334  0.017153549          183 
 1640000   0.60553665    -7.413716    354.20639  0.017998292  0.017140605          149 
 1641000   0.60007047   -7.4242979    354.64756  0.018009728  0.017127634          125 
 1642000   0.59455555   -7.4286203    353.92936   0.01796231  0.017114678          149 
 1643000   0.59748272   -7.4260586    354.00423  0.017955175  0.017101747          141 
 1644000   0.60911684   -7.4252075    353.75307  0.017931522  0.017088824          137 
 1645000   0.60297788   -7.4333634    353.96926  0.017931573  0.017075912          131 
 1646000   0.59338069   -7.4254347    354.16254  0.017930465  0.017062976          119 
 1647000   0.59353668   -7.4127703    354.01539  0.017912132   0.01705007          188 
 1648000   0.59267127   -7.4276208    354.13099  0.017907109  0.017037196          154 
 1649000   0.59846592   -7.4135583    354.07959  0.017893652   0.01702434          124 
 1650000   0.59421413    -7.407073    354.38079   0.01789802  0.017011481          159 
 1651000   0.58794156   -7.4243729    353.84158  0.017859963  0.016998638          171 
 1652000   0.59943439   -7.4253136    354.24784  0.017869645  0.016985801          146 
 1653000   0.59794147    -7.411527    353.67996  0.017830206  0.016972963          104 
 1654000    0.5937014   -7.4359896    354.06165  0.017838656  0.016960136           88 
 1655000   0.59439136   -7.4441682     354.1328   0.01783146  0.016947328           76 
 1656000   0.59658692   -7.4428797    353.65515  0.017796656  0.016934513          139 
 1657000   0.58503479   -7.4151368      354.241  0.017815379  0.016921717          133 
 1658000   0.58994292   -7.4181628    354.72235  0.017828827   0.01690895           74 
 1659000   0.58880602   -7.4359964     353.6143  0.017762422  0.016896183          174 
 1660000   0.58739139   -7.4215737    354.30435  0.017786363  0.016883403          186 
 1661000   0.60160404   -7.4435668    354.43017  0.017781967   0.01687065           67 
 1662000   0.59611557   -7.4242158    354.71077  0.017785338  0.016857945          198 
 1663000   0.58565397   -7.4262314    354.03214  0.017740636  0.016845237          177 
 1664000   0.58123703   -7.4245502    354.52368  0.017754591  0.016832523           74 
 1665000   0.58433427   -7.4325113    354.44669  0.017740074   0.01681984          174 
 1666000   0.56984467   -7.4304527    353.88643  0.017701402  0.016807143          242 
 1667000   0.58694802    -7.442166     353.9478  0.017693851  0.016794446          109 
 1668000   0.58285586   -7.4332491    354.55858  0.017713758   0.01678177          138 
 1669000   0.57486764     -7.43588    354.31804  0.017691135  0.016769105          179 
 1670000   0.56848483   -7.4511306    353.86634  0.017658001  0.016756437          242 
 1671000   0.58512892   -7.4459988     354.6232  0.017685179  0.016743763           95 
 1672000   0.58602807   -7.4444899    353.78782  0.017632965  0.016731105          119 
 1673000   0.58279097   -7.4208562    354.55438  0.017660609  0.016718467          152 
 1674000   0.59821133   -7.4373686    354.15557  0.017630206   0.01670584          110 
 1675000   0.59696725   -7.4557967    353.88401   0.01760617  0.016693171          249 
 1676000   0.59268161   -7.4211313    354.20339  0.017611545   0.01668052          131 
 1677000   0.58538375   -7.4630643    354.39568  0.017610598  0.016667887           94 
 1678000   0.58644124   -7.4498531    354.31129  0.017595912  0.016655274          112 
 1679000   0.57370024   -7.4574503    354.16936  0.017578388  0.016642667          105 
 1680000   0.58934707   -7.4499778     354.0085  0.017559946   0.01663007          215 
 1681000   0.58013391   -7.4481997    353.87049  0.017542657  0.016617497          118 
 1682000   0.57316856   -7.4459419    354.24254  0.017550661  0.016604909          246 
 1683000   0.59545922   -7.4676878    354.57813  0.017556849  0.016592343          136 
 1684000   0.58476305   -7.4671114    354.25394  0.017530381  0.016579794          124 
 1685000   0.59541342   -7.4361408    354.28635   0.01752158   0.01656725          167 
 1686000   0.58443141   -7.4553065    354.50389   0.01752194  0.016554696          279 
 1687000   0.58676335   -7.4596111    353.55482  0.017464672  0.016542159          222 
 1688000   0.57935323   -7.4511768    353.74429  0.017463679  0.016529633          189 
 1689000   0.58992454   -7.4636481    353.73005  0.017452637  0.016517128          265 
 1690000   0.57732598   -7.4653402      354.664  0.017488363  0.016504634          189 
 1691000   0.57835288   -7.4621504    353.57369   0.01742429  0.016492159          268 
 1692000   0.58191306   -7.4749082    354.22121  0.017445883  0.016479681          194 
 1693000   0.58716487    -7.450276    354.41466    0.0174451  0.016467204          239 
 1694000    0.5776128   -7.4601811    354.04443  0.017416589  0.016454748          153 
 1695000   0.57336526   -7.4545076    353.73498    0.0173911  0.016442306          136 
 1696000   0.58623236   -7.4771108    354.24118  0.017405719  0.016429874          151 
 1697000   0.58138425   -7.4662095    353.64956  0.017366409  0.016417454          113 
 1698000   0.56148023   -7.4635339     354.1784  0.017382136  0.016405045          134 
 1699000   0.57144588   -7.4734251    354.26189     0.017376  0.016392615          174 
 1700000   0.58010799    -7.468204    354.06361  0.017356059  0.016380201          189 
 1701000   0.57197668   -7.4551992    354.26285  0.017355617  0.016367773          283 
 1702000   0.56562226   -7.4793201    354.05872  0.017335425  0.016355386          140 
 1703000   0.57500626   -7.4648437    353.80654  0.017312906  0.016342992          231 
 1704000   0.55226993   -7.4734655    353.67295  0.017296212  0.016330597          195 
 1705000   0.58176274   -7.4595698    353.96826  0.017300501  0.016318247          182 
 1706000   0.55365862   -7.4742418    353.96501  0.017290202  0.016305893          177 
 1707000   0.56838385   -7.4823124     353.9694  0.017280287  0.016293509          185 
 1708000   0.56801749     -7.45703    353.70243  0.017257145  0.016281123           94 
 1709000   0.57485759   -7.4632489    353.38659  0.017231646  0.016268766           72 
 1710000   0.58050619   -7.4874166    353.40656  0.017222542  0.016256387          155 
 1711000   0.56789579   -7.4776377    353.15297  0.017200125   0.01624402          182 
 1712000   0.56854908   -7.4734427    353.65077  0.017214309  0.016231667          125 
 1713000   0.57227591   -7.4805462    353.78404  0.017210743   0.01621929          161 
 1714000   0.56934411   -7.4910987    353.82712  0.017202797  0.016206939          212 
 1715000   0.56804608   -7.4908398    353.28392  0.017166371  0.016194603          309 
 1716000   0.56554249   -7.4661646    353.59913  0.017171675  0.016182262          178 
 1717000   0.57144822   -7.5033824    353.50586  0.017157147  0.016169923          240 
 1718000   0.56806637   -7.4823299    352.85745  0.017115709   0.01615762          152 
 1719000   0.56140947   -7.4767893    353.96078  0.017159239  0.016145304          107 
 1720000   0.57687358   -7.5013805    353.49885  0.017126882  0.016132997           95 
 1721000   0.56691517    -7.480521    353.50329  0.017117145  0.016120686          139 
 1722000   0.57233116   -7.4944604    353.34356  0.017099475  0.016108403          187 
 1723000   0.57534371   -7.4942457    353.14971  0.017080175  0.016096133          141 
 1724000   0.56272534   -7.4889154    353.77205   0.01710035  0.016083874          151 
 1725000   0.57098757   -7.4876281    353.47921   0.01707629  0.016071626          109 
 1726000   0.56214972   -7.4748811    353.70986  0.017077533    0.0160594          119 
 1727000   0.55861576   -7.4816324    353.71323  0.017067807  0.016047173          213 
 1728000   0.56697542    -7.483066    353.22862  0.017034559  0.016034946           84 
 1729000   0.57362326   -7.4971131    353.26792  0.017026601  0.016022755          188 
 1730000   0.56737576   -7.4813441    353.26133  0.017016442  0.016010537          134 
 1731000   0.56360366   -7.4957092    353.42605  0.017014541  0.015998329          146 
 1732000   0.55811683   -7.4902284    353.13884  0.016990899  0.015986138          129 
 1733000     0.555737   -7.4843429    353.88761    0.0170171  0.015973944          131 
 1734000   0.56680674   -7.4776992    353.74961  0.017000654   0.01596178           82 
 1735000   0.56791554   -7.4910701    353.50801  0.016979251  0.015949604          141 
 1736000   0.57363813   -7.4878121    353.09225  0.016949513  0.015937447           82 
 1737000   0.55997456   -7.5006037    353.36991  0.016953076  0.015925293           74 
 1738000   0.56957211   -7.4919581    353.74173  0.016961149  0.015913159          123 
 1739000   0.55854906   -7.5092743    353.42142  0.016936047  0.015901018          116 
 1740000   0.55264058   -7.5030308    353.00937  0.016906579  0.015888889          165 
 1741000   0.55807247   -7.5036811    353.59108  0.016924712  0.015876771          220 
 1742000   0.56540053    -7.504861    353.48935   0.01691013  0.015864648          258 
 1743000   0.55280362   -7.5097168    353.65016  0.016908116  0.015852534          117 
 1744000   0.54504385   -7.4876799    353.51561  0.016891992  0.015840456           70 
 1745000   0.55689417   -7.4959852     353.4701  0.016880139  0.015828391          144 
 1746000   0.56887112   -7.4955096    353.37509  0.016865936   0.01581633          211 
 1747000   0.55635467   -7.4983848    353.14893  0.016845494  0.015804273          112 
 1748000   0.56444991   -7.5017009    353.03365  0.016830361  0.015792214          134 
 1749000    0.5530722   -7.5142712    353.85342  0.016859797  0.015780179          161 
 1750000   0.55441282   -7.4969239    353.00326  0.016809679  0.015768131          337 
 1751000   0.55794937   -7.5083093    353.22914  0.016810829  0.015756085          283 
 1752000   0.54737548   -7.5160156    353.39538  0.016809141  0.015744034          270 
 1753000   0.55024123   -7.5108098    352.96754  0.016779213  0.015732001          380 
 1754000   0.55066383   -7.5191624    353.07835  0.016774912  0.015719975          275 
 1755000   0.54670719   -7.4925068    352.69258  0.016747036  0.015707943          246 
 1756000   0.54794481   -7.5044278     352.6562  0.016735773  0.015695941          280 
 1757000   0.55955278   -7.5293117    353.25088  0.016754453  0.015683952          365 
 1758000   0.56041778   -7.4982311     353.2403  0.016744421  0.015671966          313 
 1759000   0.54415337   -7.5164474    352.98078  0.016722607  0.015660009          274 
 1760000   0.55249981    -7.507681    353.10088  0.016718792  0.015648036          291 
 1761000   0.55268811   -7.5217537    353.22148  0.016715005  0.015636086          236 
 1762000   0.54981515   -7.5058397    352.92009  0.016691264  0.015624126          153 
 1763000   0.54928783   -7.5202259    352.86331  0.016679113  0.015612187          214 
 1764000   0.54720033   -7.4939084    353.44821  0.016697289  0.015600245          287 
 1765000   0.54454043   -7.5194482    352.91484  0.016662646  0.015588314          248 
 1766000   0.55851413   -7.5130604    352.52719  0.016634919  0.015576393          323 
 1767000   0.54249037   -7.5161512    353.02835  0.016649139  0.015564482          323 
 1768000   0.55801606   -7.5096439    353.06025  0.016641226  0.015552577          178 
 1769000   0.56830471   -7.5126998    353.16196   0.01663661  0.015540697          316 
 1770000   0.54858742   -7.5250943    352.92843  0.016616216  0.015528825          366 
 1771000   0.54910226   -7.4975762    353.02004  0.016611144  0.015516961          338 
 1772000   0.54683643   -7.5440368    353.15273   0.01660801  0.015505103          175 
 1773000   0.55059217   -7.5284868    353.17235  0.016599565  0.015493248          325 
 1774000   0.53394846   -7.5260381    352.98257  0.016581293  0.015481394          338 
 1775000   0.55291811    -7.525572     353.5368  0.016597972  0.015469567          360 
 1776000   0.55156446   -7.5232886    353.16848  0.016571344  0.015457738          161 
 1777000   0.55691053   -7.5269708    352.54241  0.016532658  0.015445924          290 
 1778000   0.54516613    -7.541721    352.64369  0.016528107  0.015434103          210 
 1779000   0.53908097   -7.5218597    353.05274  0.016537977  0.015422294          288 
 1780000   0.54087488    -7.531936    353.30216  0.016540363  0.015410492          255 
 1781000   0.54493656   -7.5425341    353.70679  0.016550009  0.015398707          303 
 1782000   0.53642959   -7.5334317    353.24252   0.01651901   0.01538695          226 
 1783000   0.54633233    -7.540797     353.0575  0.016501098  0.015375185          395 
 1784000   0.54784193   -7.5294982    352.91237  0.016485069  0.015363429          254 
 1785000   0.55552064   -7.5282846    353.03785  0.016481692  0.015351676          319 
 1786000   0.52666774   -7.5405607    353.19873   0.01647997  0.015339938          226 
 1787000   0.53358992   -7.5377207    352.83467  0.016453771  0.015328212          295 
 1788000   0.55150148   -7.5308581    352.67499  0.016437127  0.015316506          311 
 1789000   0.54274191   -7.5340812    352.44302  0.016417134  0.015304812          382 
 1790000    0.5446014   -7.5509261    353.57967  0.016460879  0.015293131          227 
 1791000    0.5389814   -7.5506389     353.4561  0.016445938  0.015281452          297 
 1792000   0.53987897   -7.5357192    352.87853  0.016409902  0.015269776          242 
 1793000   0.53294787   -7.5283162    352.87851  0.016400749   0.01525812          302 
 1794000   0.53173433   -7.5255183     352.2894  0.016364242  0.015246447          340 
 1795000   0.53539432   -7.5266224    352.87872  0.016382485  0.015234781          335 
 1796000   0.52870745   -7.5502066    352.74938  0.016367362  0.015223125          263 
 1797000   0.52743827   -7.5324953    352.50667  0.016346998  0.015211482          307 
 1798000   0.53620073   -7.5423903    352.97921  0.016359808  0.015199842          271 
 1799000   0.53437368   -7.5334911    352.64832  0.016335386  0.015188214          217 
 1800000    0.5372702   -7.5364391    352.66668  0.016327161  0.015176599          288 
 1801000   0.53287732     -7.54354    353.14611  0.016340279  0.015164985          220 
 1802000   0.54329823   -7.5407724    352.75005  0.016312895  0.015153387          331 
 1803000   0.53885348   -7.5525713    352.23121  0.016279867  0.015141798          294 
 1804000   0.53029639   -7.5458925    352.21331  0.016270016  0.015130209          374 
 1805000    0.5377631   -7.5469962     353.0572  0.016299963  0.015118626          306 
 1806000   0.52585319   -7.5616336    352.45539  0.016263169  0.015107059          338 
 1807000   0.53179828   -7.5389933     352.5486  0.016258467  0.015095498          213 
 1808000   0.52965099   -7.5645739    352.18096   0.01623253  0.015083949          269 
 1809000   0.52663311    -7.553174    352.54563  0.016240355  0.015072402          240 
 1810000    0.5390076   -7.5333078    352.73106   0.01623992  0.015060854          220 
 1811000   0.53668123   -7.5592002    352.15458  0.016204426  0.015049338          247 
 1812000   0.52625342   -7.5379253    352.58598  0.016215323  0.015037816          224 
 1813000   0.53743324   -7.5510218    352.80225   0.01621632  0.015026303          262 
 1814000   0.52824707   -7.5532299    352.45988  0.016191652  0.015014801          230 
 1815000   0.53598598   -7.5453701     351.9323  0.016158508  0.015003312          270 
 1816000   0.52363278   -7.5677947    352.95573  0.016196573  0.014991837          273 
 1817000   0.52694831   -7.5646109    352.66868  0.016174495   0.01498036          243 
 1818000   0.52205951   -7.5659697    352.21928  0.016144998  0.014968895          219 
 1819000   0.52354386   -7.5679395    352.56475  0.016151949  0.014957458          293 
 1820000   0.53181182   -7.5533458    352.44141  0.016137427  0.014946009          191 
 1821000   0.52774475   -7.5470583    352.34071  0.016123957  0.014934559          259 
 1822000   0.51956604    -7.571833    352.81163  0.016136646  0.014923118          239 
 1823000    0.5178582   -7.5605668    352.29002  0.016103951  0.014911673          260 
 1824000   0.52026087   -7.5539693    352.38802  0.016099599  0.014900247          214 
 1825000   0.51248293   -7.5622566     352.0343  0.016074626  0.014888833          326 
 1826000     0.525452   -7.5562722    352.22682  0.016074609  0.014877429          278 
 1827000   0.51840807   -7.5555793    352.51893  0.016079134   0.01486604          312 
 1828000   0.51462744   -7.5584835    352.67434  0.016077423  0.014854655          226 
 1829000   0.53466657    -7.589926    352.49937   0.01606066  0.014843264          351 
 1830000   0.52423636   -7.5581914    352.06333  0.016032028  0.014831893          315 
 1831000   0.52394093   -7.5488817    351.71463  0.016007402  0.014820529          375 
 1832000   0.51851446   -7.5760139    352.25464  0.016023228  0.014809175          450 
 1833000   0.51807942   -7.5712878    352.24512  0.016014054  0.014797834          441 
 1834000   0.52286208    -7.564212    352.23627   0.01600492  0.014786492          348 
 1835000   0.52762253    -7.589077    351.95075  0.015983231   0.01477516          355 
 1836000   0.52006865   -7.5700568    351.79531  0.015967471  0.014763851          380 
 1837000    0.5205228   -7.5718081    352.78026   0.01600346  0.014752573          299 
 1838000   0.51587055   -7.5646691    352.11596  0.015964634  0.014741285          271 
 1839000   0.51324249   -7.5702055    352.31263  0.015964865  0.014730004          322 
 1840000   0.53269402   -7.5723593     352.4945  0.015964425  0.014718734          344 
 1841000   0.53250632   -7.5731911    352.01337  0.015933975  0.014707477          342 
 1842000   0.52467587   -7.5504078    352.02652  0.015925919  0.014696221          281 
 1843000   0.51779459   -7.5983588    352.16669  0.015923616  0.014684978          350 
 1844000   0.50798091   -7.5641342    352.41285  0.015926105  0.014673745          292 
 1845000    0.5154705   -7.5682132    352.31917  0.015913242  0.014662534          301 
 1846000   0.51250413   -7.5719583     351.8118  0.015881717  0.014651318          421 
 1847000   0.52457386   -7.5823725    351.70507  0.015868303   0.01464012          396 
 1848000   0.51177697    -7.570336     351.9027  0.015868628  0.014628922          574 
 1849000   0.51281055   -7.5713717    352.01164  0.015864956  0.014617714          300 
 1850000   0.51621226   -7.5772835     351.8437  0.015848815  0.014606508          340 
 1851000   0.52240504   -7.6048666    351.93337   0.01584429  0.014595318          446 
 1852000   0.51658133   -7.5837036    352.04223  0.015840633  0.014584114          330 
 1853000   0.51182242   -7.5934506    351.80493  0.015821413  0.014572925          369 
 1854000   0.50776128   -7.6032074     352.1975  0.015830524  0.014561744          474 
 1855000   0.50919744   -7.5806758    351.67553  0.015798541  0.014550565          417 
 1856000   0.51494756   -7.5844837    351.90536  0.015800348  0.014539387          290 
 1857000   0.51359734   -7.5876495     351.7711  0.015785815  0.014528235          279 
 1858000   0.51889477   -7.5757035    351.64997  0.015771886  0.014517088          367 
 1859000   0.50175908   -7.5717115    352.31408  0.015793172  0.014505953          352 
 1860000   0.50668347   -7.5654994    351.11152  0.015730803  0.014494818          364 
 1861000   0.51274735   -7.5876186    351.38597   0.01573464  0.014483691          463 
 1862000   0.51495779   -7.6098494    351.61322   0.01573636  0.014472594          199 
 1863000   0.51142475   -7.5680702    351.32258  0.015714912  0.014461482          455 
 1864000   0.50255764   -7.5860995    350.73343  0.015680143  0.014450383          291 
 1865000   0.50652689   -7.5793841    351.71042   0.01571539  0.014439299          472 
 1866000   0.50637855   -7.5874299    352.18393  0.015728114  0.014428221          365 
 1867000   0.51051209   -7.5848038    351.28423  0.015679532  0.014417158          459 
 1868000   0.52277205    -7.588797    351.56154  0.015683509  0.014406105          247 
 1869000   0.51452684   -7.5825014      351.847  0.015687846  0.014395077          308 
 1870000   0.51051739   -7.6062347    352.01028  0.015686733  0.014384052          470 
 1871000    0.5118432   -7.5952027    351.64896  0.015662255  0.014373013          247 
 1872000   0.49955184    -7.567244    351.82598  0.015661769  0.014361994          389 
 1873000   0.50583611   -7.6051448    351.27353  0.015628827  0.014350976          344 
 1874000   0.51296336   -7.5952194    351.13582  0.015614364  0.014339965          390 
 1875000   0.49395971   -7.6003382    351.71711  0.015631872  0.014328964          317 
 1876000   0.49376495   -7.6071722    351.63375  0.015619836  0.014317989          296 
 1877000   0.50144173   -7.5962777     351.6945  0.015614212  0.014306998          494 
 1878000    0.4909684   -7.5986555    351.28136  0.015587565  0.014296029          557 
 1879000   0.50137251   -7.5969877    351.34862  0.015582252  0.014285063          257 
 1880000   0.50237357   -7.5897718    352.25083  0.015613955  0.014274112          444 
 1881000   0.49560412    -7.613039    350.89977  0.015545799  0.014263162          277 
 1882000   0.49892565   -7.6127743    352.06183  0.015588993  0.014252228          397 
 1883000   0.49782284    -7.607206    351.47413  0.015554706  0.014241304          383 
 1884000   0.50916032   -7.6132992    350.90591  0.015521316  0.014230373          455 
 1885000   0.49142057   -7.6152073    352.20029  0.015570305  0.014219466          348 
 1886000   0.49601639   -7.6054727    351.68877  0.015539447  0.014208556          530 
 1887000   0.50157404   -7.6047013    351.06401  0.015503622  0.014197673          284 
 1888000   0.50542222   -7.6033743    351.51384  0.015515265  0.014186797          375 
 1889000   0.50835315   -7.6030637    350.94443  0.015481932  0.014175917          441 
 1890000   0.49877706   -7.6104846    351.35363  0.015491783   0.01416505          337 
 1891000   0.48883003   -7.6118966     351.2957  0.015481037  0.014154208          610 
 1892000   0.49353089   -7.6151723    351.54399  0.015483791  0.014143371          469 
 1893000    0.4995811   -7.6213625    351.50135  0.015473734  0.014132544          544 
 1894000   0.50939773   -7.6169848    351.52574  0.015466638  0.014121729          164 
 1895000   0.48924259    -7.607639    351.39801  0.015452859   0.01411091          584 
 1896000   0.49860193    -7.617935    351.93142  0.015468153  0.014100114          597 
 1897000   0.49810562   -7.5932763    352.21898  0.015472631  0.014089327          557 
 1898000   0.49642849   -7.6225764    351.18193  0.015418947  0.014078544          565 
 1899000   0.50217907   -7.6159556     350.9745  0.015401724  0.014067771          473 
 1900000   0.49862175   -7.6221532    352.04129  0.015440408  0.014057012          410 
 1901000   0.50299022   -7.6068246    350.80914  0.015378272  0.014046247          299 
 1902000   0.48765155   -7.6264425    351.41676  0.015396808  0.014035499          534 
 1903000   0.50816189   -7.6363778    351.29711  0.015383478  0.014024757          423 
 1904000   0.50397691   -7.6120553    351.17025  0.015369847  0.014014025          578 
 1905000   0.48494242    -7.626713     351.4898  0.015375757  0.014003309          570 
 1906000    0.5009107   -7.6150377    351.24955  0.015357186  0.013992601          207 
 1907000    0.4789368   -7.6227131    351.39432  0.015355459  0.013981896          335 
 1908000   0.50383017   -7.6260292    350.96327  0.015328584  0.013971192          234 
 1909000   0.49355183    -7.613943     351.2427  0.015332753  0.013960502          488 
 1910000   0.48664488   -7.6209927    351.60217  0.015340409  0.013949821          467 
 1911000   0.48935563   -7.6097733    351.11679  0.015311216  0.013939156          473 
 1912000   0.50726799    -7.609557    351.24917  0.015308977  0.013928508          548 
 1913000   0.49304655   -7.6064901     351.1778  0.015297865  0.013917869          351 
 1914000   0.48623898   -7.6292777    351.41931  0.015300388  0.013907239          528 
 1915000   0.49634605    -7.600028      351.228  0.015284073  0.013896607          535 
 1916000   0.49368664   -7.6121233    351.49176  0.015287568  0.013885991          311 
 1917000   0.48721859   -7.6177518    350.79318  0.015249225  0.013875374          386 
 1918000   0.48754367   -7.6103744    351.16324  0.015257353  0.013864774          388 
 1919000   0.50060176   -7.6358898    351.16365   0.01524942  0.013854186          295 
 1920000   0.49488246   -7.6145337    351.62996  0.015261717  0.013843611          516 
 1921000   0.49017634   -7.6195733    351.29971  0.015239446  0.013833044          376 
 1922000   0.48639043   -7.6243842    350.88701  0.015213624  0.013822486          454 
 1923000   0.48590438   -7.6175005    350.72991  0.015198904  0.013811924          603 
 1924000    0.4818496   -7.6263368     351.1172  0.015207779  0.013801372          485 
 1925000   0.47795967   -7.6291153    351.17209  0.015202255  0.013790835          355 
 1926000   0.48082251   -7.6197154    351.58982  0.015212436  0.013780312          505 
 1927000   0.49219893   -7.6325567    351.37471  0.015195239  0.013769799          447 
 1928000   0.48836259   -7.6420064    350.92442  0.015167895  0.013759293          572 
 1929000   0.48419234   -7.6401857    351.14797  0.015169689  0.013748783          523 
 1930000   0.47603244   -7.6198595     350.5023  0.015133951  0.013738286          587 
 1931000    0.4860767   -7.6315418    350.98223  0.015146825  0.013727789          496 
 1932000   0.48196996   -7.6218786    351.00564  0.015139995  0.013717301          462 
 1933000   0.48283373   -7.6357795    351.28545  0.015144225  0.013706827          549 
 1934000   0.48179192   -7.6460812    351.34624  0.015139014  0.013696353          566 
 1935000   0.48320648   -7.6399446    350.71543  0.015104024  0.013685899          386 
 1936000   0.48999078   -7.6394595    351.02715   0.01510964  0.013675452          541 
 1937000   0.47243057   -7.6422996    351.02963  0.015101946  0.013665031          369 
 1938000   0.48208287   -7.6480675    350.49518  0.015071172  0.013654604          518 
 1939000    0.4794252   -7.6244979     351.2335  0.015095131  0.013644186          457 
 1940000   0.48891176   -7.6324239    350.99594  0.015077145  0.013633776          597 
 1941000   0.48083754   -7.6382043     350.7621  0.015059338  0.013623365          538 
 1942000    0.4768892   -7.6487119    350.85868  0.015055728  0.013612972          426 
 1943000   0.46269755   -7.6388483    351.08948  0.015057878  0.013602584          258 
 1944000   0.47623188   -7.6529986    350.52246  0.015025825    0.0135922          524 
 1945000   0.47434541    -7.644078     350.4892  0.015016675  0.013581823          631 
 1946000   0.47584174   -7.6362504    350.41553  0.015005804  0.013571458          640 
 1947000     0.467608   -7.6402426    351.01209   0.01502363  0.013561102          530 
 1948000   0.47575769   -7.6493898    350.82064  0.015007728   0.01355076          474 
 1949000   0.47438591   -7.6406055    350.87055  0.015002162  0.013540422          490 
 1950000   0.48067767   -7.6314659    351.04787  0.015002046  0.013530103          573 
 1951000   0.48598591   -7.6413631    350.59505  0.014975015  0.013519784          349 
 1952000   0.46770554   -7.6410471    350.61349   0.01496813  0.013509468          523 
 1953000   0.47717531   -7.6458567    350.96135  0.014975309  0.013499169          636 
 1954000   0.46759405   -7.6494085    350.46587  0.014946515  0.013488875          613 
 1955000   0.48224505   -7.6506295     350.8313  0.014954446  0.013478588          540 
 1956000    0.4720151   -7.6391424    350.42707  0.014929579  0.013468316          563 
 1957000    0.4705052   -7.6471313    351.19376  0.014954597  0.013458054          497 
 1958000   0.47200752   -7.6616187     350.2558   0.01490704  0.013447808          595 
 1959000   0.47174977   -7.6422298    351.01087   0.01493155  0.013437571          591 
 1960000   0.47053009   -7.6580392    350.91097  0.014919684  0.013427342          289 
 1961000   0.47041075   -7.6538099    350.82779  0.014908541  0.013417119          400 
 1962000   0.47433122   -7.6604809    350.44215  0.014884563  0.013406908          530 
 1963000   0.47233926   -7.6408293    350.66611  0.014886488  0.013396693          585 
 1964000   0.46804866   -7.6615036    350.62983  0.014877369  0.013386499          597 
 1965000   0.48274627   -7.6549602    350.20711  0.014851871  0.013376312          404 
 1966000   0.46208078   -7.6515492    350.54021  0.014858435  0.013366138          560 
 1967000   0.47558761   -7.6573457    350.81752   0.01486263  0.013355972          485 
 1968000   0.45935976   -7.6441685    350.42461   0.01483844  0.013345808          441 
 1969000   0.46758382   -7.6583953    350.11684  0.014817879   0.01333565          438 
 1970000    0.4632821    -7.659409    350.16594  0.014812434  0.013325503          595 
 1971000    0.4722243   -7.6556799    350.84064  0.014833445  0.013315366          595 
 1972000   0.46807269   -7.6599478    350.39593   0.01480713  0.013305242          517 
 1973000   0.46336261   -7.6527401    350.84452  0.014818572  0.013295122          444 
 1974000    0.4616323   -7.6634434    350.39993  0.014792297  0.013285011          483 
 1975000   0.45210359    -7.642416    349.92083  0.014764592  0.013274899          416 
 1976000   0.46860912   -7.6564675    350.89796  0.014798328  0.013264792          388 
 1977000    0.4621918   -7.6595326    350.09779  0.014757115  0.013254703          307 
 1978000   0.46670601    -7.659268    350.01802  0.014746293  0.013244618          433 
 1979000   0.46696786   -7.6537834    349.93582  0.014735381   0.01323454          360 
 1980000   0.46221756   -7.6537045    350.41468  0.014748093   0.01322448          465 
 1981000   0.46413348   -7.6529147    350.15226  0.014729609  0.013214427          450 
 1982000    0.4730801   -7.6579993     350.3873  0.014732059  0.013204377          573 
 1983000   0.45720146   -7.6529617    350.22843  0.014717954  0.013194342          527 
 1984000   0.46041308   -7.6516093    350.38119  0.014716952  0.013184319          516 
 1985000   0.46551892   -7.6533578    350.37765  0.014709389  0.013174295          405 
 1986000   0.46369587   -7.6788877    350.48735  0.014706586  0.013164282          501 
 1987000    0.4669149   -7.6684542    350.11104  0.014683402  0.013154283          349 
 1988000   0.46145545   -7.6564279    350.17739  0.014678797   0.01314428          462 
 1989000   0.44949239   -7.6595884    349.62173  0.014648137  0.013134289          313 
 1990000   0.45854872   -7.6721146    349.99748  0.014656511  0.013124314          500 
 1991000   0.45081076   -7.6794455    350.43036  0.014667268  0.013114341          414 
 1992000   0.45664874   -7.6638015    350.38786  0.014658127  0.013104368          627 
 1993000   0.44956476   -7.6834586    349.94263  0.014632156  0.013094406          492 
 1994000   0.44922381   -7.6690541    349.86828   0.01462171   0.01308445          322 
 1995000    0.4486339   -7.6533192    349.92172  0.014616613  0.013074505          415 
 1996000   0.45123614   -7.6877219    350.15117   0.01461887  0.013064573          333 
 1997000   0.46423932   -7.6622046    349.69555  0.014592537  0.013054652          624 
 1998000   0.46186144   -7.6707162    349.81623  0.014590267  0.013044733          547 
 1999000   0.44945688   -7.6745024    350.05758  0.014593029  0.013034824          576 
 2000000    0.4582243   -7.6721201    350.16218  0.014590091   0.01302492          502 
 2001000   0.45498615    -7.676583    349.86221  0.014570307  0.013015031          580 
 2002000   0.44998166   -7.6708932    350.09615  0.014572767  0.013005152          585 
 2003000   0.46382095   -7.6819643    349.93724   0.01455888  0.012995285          568 
 2004000   0.45709821   -7.6874636    350.07314  0.014557266  0.012985437          350 
 2005000   0.45824357   -7.6945172    350.17551  0.014554261  0.012975589          553 
 2006000   0.45839535   -7.6717073    349.60821  0.014523438   0.01296575          597 
 2007000   0.45665031   -7.6721217    350.02783  0.014533625  0.012955906          612 
 2008000   0.45529883   -7.6831607    349.76189  0.014515351  0.012946074          460 
 2009000   0.44890247   -7.6941738    350.25874  0.014528735  0.012936264          448 
 2010000   0.44137781   -7.6905619     350.0338  0.014512181  0.012926448          396 
 2011000   0.44816859   -7.6817757    349.73172  0.014492447  0.012916653          225 
 2012000   0.44017407   -7.6788942    349.98854   0.01449588  0.012906858          459 
Loop time of 4311.14 on 48 procs for 2000000 steps with 4000 atoms

Performance: 80164.477 tau/day, 463.915 timesteps/s
99.4% CPU use with 48 MPI tasks x no OpenMP threads

MPI task timing breakdown:
Section |  min time  |  avg time  |  max time  |%varavg| %total
---------------------------------------------------------------
Pair    | 259.17     | 301.64     | 323.24     |  71.8 |  7.00
Neigh   | 26.702     | 27.387     | 28.278     |   6.5 |  0.64
Comm    | 228.63     | 252.25     | 304.21     |  87.5 |  5.85
Output  | 4.0462     | 4.0481     | 4.0828     |   0.3 |  0.09
Modify  | 3656.4     | 3675.8     | 3699       |  18.5 | 85.26
Other   |            | 50.03      |            |       |  1.16

Nlocal:        83.3333 ave          91 max          77 min
Histogram: 3 2 13 5 4 7 4 6 0 4
Nghost:        1791.10 ave        1816 max        1769 min
Histogram: 4 3 5 6 8 6 5 8 2 1
Neighs:        10966.4 ave       12090 max        9927 min
Histogram: 4 6 7 4 4 5 5 4 6 3
FullNghs:      21933.7 ave       24181 max       20267 min
Histogram: 4 7 7 6 6 5 7 2 1 3

Total # of neighbors = 1052816
Ave neighs/atom = 263.20400
Neighbor list builds = 107842
Dangerous builds = 0

#clear
#
#next RN
#
#jump SELF
Total wall time: 1:11:54
