
units lj                  # Use reduced LJ style units
atom_style atomic         # Uncharged point particles
atom_modify map hash      # Needed for indexing of clusters etc
                          # Used to be able to find where atoms are in relation to each other.

lattice fcc 1.0 spacing 1 1 1
Lattice spacing in x,y,z = 1.5874011 1.5874011 1.5874011
region box block 0 10 0 10 0 10 units lattice
create_box 2 box
Created orthogonal box = (0.0000000 0.0000000 0.0000000) to (15.874011 15.874011 15.874011)
  3 by 4 by 4 MPI processor grid
create_atoms 1 box
Created 4000 atoms
  using lattice units in orthogonal box = (0.0000000 0.0000000 0.0000000) to (15.874011 15.874011 15.874011)
  create_atoms CPU = 0.002 seconds
set type 1 type/fraction 2 0.34 78393
Setting atom values ...
  1376 settings made for type/fraction
mass 1 1.0
mass 2 1.0
pair_style lj/cut  3.5
pair_modify tail  yes
pair_coeff 1  1  1.0  1.0   # Intearaction between 1 and 1 set with epsilon = 1 and sigma = 1
pair_coeff 1  2  1.5  0.8
pair_coeff 2  2  0.5  0.88

write_data data.0
System init for write_data ...
Neighbor list info ...
  update every 1 steps, delay 10 steps, check yes
  max neighbors/atom: 2000, page size: 100000
  master list distance cutoff = 3.8
  ghost atom cutoff = 3.8
  binsize = 1.9, bins = 9 9 9
  1 neighbor lists, perpetual/occasional/extra = 1 0 0
  (1) pair lj/cut, perpetual
      attributes: half, newton on
      pair build: half/bin/atomonly/newton
      stencil: half/bin/3d
      bin: standard
WARNING: Not all mixed pair coeffs generated from mixing. Use write_data with 'pair ij' option to store all pair coeffs. (../write_data.cpp:312)


#############################
#   M E L T   S Y S T E M   #
#############################

velocity all create 2.4 6583654 mom yes dist gaussian # Assign velocities
                                                    # Temperature 2.4, random number seed, zero linear momentum
                                                                                # Gaussian distribution

timestep 0.002   # simulation timestep
thermo 1000       # output thermodynamic data every 1000 steps bf 100

# Define a fix  in this case with index 1 applied to all
# particles in the simulation. This fix is for simulations
# in the anisotropic NPT ensemble. Note that we use the MTK
# correction.
fix 1 all npt temp 2.4 2.4 0.1 iso 5.68 5.68 0.5 mtk yes tchain 5 pchain 5 # Use NPT ensemble
                                                                         # Set temperature and pressure and damping
                                                                         # Numbers of thermostats in chain and in barostat
run 10000          # run for 10000 steps
Per MPI rank memory allocation (min/avg/max) = 3.642 | 3.644 | 3.648 Mbytes
Step Temp E_pair E_mol TotEng Press Volume 
       0          2.4   -6.2108987            0   -2.6117987   -4.0679274         4000 
    1000    2.4099246   -4.9574319            0   -1.3434486    5.5641031    4091.1321 
    2000    2.3561859   -5.0564876            0   -1.5230923    5.7411256     4024.595 
    3000    2.4266543   -4.9750637            0   -1.3359923    5.6574954    4075.9042 
    4000     2.441743   -5.0336829            0    -1.371984    5.7339965    4037.3146 
    5000    2.3851159   -5.0289212            0   -1.4521417    5.6162172    4049.2367 
    6000    2.4300619   -5.0443485            0   -1.4001669    5.7882728    4034.2996 
    7000    2.3952999    -4.976149            0   -1.3840974    5.8172883    4046.2407 
    8000     2.376322   -5.0184606            0   -1.4548687    5.6699398    4045.5715 
    9000    2.3233089   -5.0264825            0   -1.5423904    5.7116606    4025.4574 
   10000    2.3672318   -5.0534546            0   -1.5034947    5.8315465    4017.5575 
Loop time of 2.45545 on 48 procs for 10000 steps with 4000 atoms

Performance: 703740.289 tau/day, 4072.571 timesteps/s
99.6% CPU use with 48 MPI tasks x no OpenMP threads

MPI task timing breakdown:
Section |  min time  |  avg time  |  max time  |%varavg| %total
---------------------------------------------------------------
Pair    | 1.0662     | 1.1393     | 1.3041     |   4.1 | 46.40
Neigh   | 0.20141    | 0.21416    | 0.2404     |   1.3 |  8.72
Comm    | 0.6465     | 0.84295    | 0.92671    |   5.5 | 34.33
Output  | 0.00025216 | 0.00025825 | 0.00032743 |   0.0 |  0.01
Modify  | 0.21818    | 0.24359    | 0.27847    |   2.8 |  9.92
Other   |            | 0.01519    |            |       |  0.62

Nlocal:        83.3333 ave          91 max          74 min
Histogram: 1 2 5 5 10 5 3 9 5 3
Nghost:        1640.35 ave        1671 max        1614 min
Histogram: 1 7 5 7 7 3 10 7 0 1
Neighs:        9495.42 ave       10482 max        8203 min
Histogram: 2 2 5 3 7 6 8 5 5 5

Total # of neighbors = 455780
Ave neighs/atom = 113.94500
Neighbor list builds = 907
Dangerous builds = 213

# Equilibrate just above the melting temperature to avoid step fn in T

fix 1 all npt temp 1.25 1.25 0.1 iso 5.68 5.68 0.5 mtk yes tchain 5 pchain 5
run 2000
Per MPI rank memory allocation (min/avg/max) = 3.643 | 3.645 | 3.649 Mbytes
Step Temp E_pair E_mol TotEng Press Volume 
   10000    2.3672318   -5.0534546            0   -1.5034947    5.8315465    4017.5575 
   11000     1.253789   -6.9098518            0   -5.0296385    5.6036563    3253.3982 
   12000    1.2403043   -6.9645666            0   -5.1045752    5.6188949    3232.3531 
Loop time of 0.604854 on 48 procs for 2000 steps with 4000 atoms

Performance: 571377.701 tau/day, 3306.584 timesteps/s
99.6% CPU use with 48 MPI tasks x no OpenMP threads

MPI task timing breakdown:
Section |  min time  |  avg time  |  max time  |%varavg| %total
---------------------------------------------------------------
Pair    | 0.25515    | 0.28166    | 0.34048    |   2.7 | 46.57
Neigh   | 0.038676   | 0.040778   | 0.047964   |   0.7 |  6.74
Comm    | 0.16691    | 0.23174    | 0.26103    |   3.3 | 38.31
Output  | 5.2225e-05 | 5.3718e-05 | 6.9274e-05 |   0.0 |  0.01
Modify  | 0.039603   | 0.045839   | 0.05164    |   1.4 |  7.58
Other   |            | 0.004784   |            |       |  0.79

Nlocal:        83.3333 ave          95 max          78 min
Histogram: 8 9 11 4 7 3 3 2 0 1
Nghost:        1890.90 ave        1919 max        1867 min
Histogram: 3 5 7 8 5 6 6 4 1 3
Neighs:        11818.3 ave       13543 max       10634 min
Histogram: 4 7 5 13 5 2 5 3 1 3

Total # of neighbors = 567280
Ave neighs/atom = 141.82000
Neighbor list builds = 143
Dangerous builds = 8

#############################
# L I N E A R  Q U E N C H  #
#############################

# Define solid atoms. This closely follows ten Wolde  Ruiz-Montero and Frenkel  Faraday Discuss  1996  104  93-110
# Compute components of the per-atom q6 vector
compute q6 all orientorder/atom degrees 1 6 components 6 nnn NULL cutoff 1.3 # compute the Q6 parameter.
                                                                             # Use all neighbours within 1.3 unit cell.

# get number of connections
compute coord_number all coord/atom orientorder q6 0.5

# An atom is solid if it has 8 or more connections (of a possible 14)
variable is_solid atom c_coord_number>=8
group solid dynamic all var is_solid    # Must be dynamic to update
dynamic group solid defined

# do clustering
compute cluster solid cluster/atom 1.3 # Create a cluster where all atoms within are solid and max 1.3 units from another member

# define chunks one chunk per cluster
compute clus_chunks solid chunk/atom c_cluster nchunk every compress yes  # Says which atoms are in which chunk

# count the size of each chunk
compute size_chunks solid property/chunk clus_chunks count


# Find the maximum entry in the vector of chunk sizes
variable max_n equal max(c_size_chunks)


# Thermo style which includes this variable
# thermo_style custom step temp pe vol v_max_n

thermo ${N}  # Print the thermo information every 100 steps
thermo 1000  

# Reset the npt fix at a lower temperature (below freezing)
fix 1  all npt temp  ${temp} ${temp}  0.1  iso  5.68  5.68  0.5  mtk yes tchain  5  pchain  5
fix 1  all npt temp  0.45 ${temp}  0.1  iso  5.68  5.68  0.5  mtk yes tchain  5  pchain  5
fix 1  all npt temp  0.45 0.45  0.1  iso  5.68  5.68  0.5  mtk yes tchain  5  pchain  5

dump dmp2 all dcd ${N} traj.dcd
dump dmp2 all dcd 1000 traj.dcd


compute msd all msd com yes
variable twopoint equal c_msd[4]/6/(step*dt+1.0e-6)
fix 9 all vector 10 c_msd[4]
variable fit equal slope(f_9)/6/(10*dt)
thermo_style custom step temp pe c_msd[4] v_twopoint v_fit v_max_n

fix 1 all npt temp 1.25 ${temp} 0.1 iso 5.68 5.68 0.5 mtk yes tchain 5 pchain 5
fix 1 all npt temp 1.25 0.45 0.1 iso 5.68 5.68 0.5 mtk yes tchain 5 pchain 5
run 5000000 # 5000000  # Run for this many steps
Neighbor list info ...
  update every 1 steps, delay 10 steps, check yes
  max neighbors/atom: 2000, page size: 100000
  master list distance cutoff = 3.8
  ghost atom cutoff = 3.8
  binsize = 1.9, bins = 8 8 8
  4 neighbor lists, perpetual/occasional/extra = 1 3 0
  (1) pair lj/cut, perpetual
      attributes: half, newton on
      pair build: half/bin/atomonly/newton
      stencil: half/bin/3d
      bin: standard
  (2) compute orientorder/atom, occasional
      attributes: full, newton on
      pair build: full/bin/atomonly
      stencil: full/bin/3d
      bin: standard
  (3) compute coord/atom, occasional
      attributes: full, newton on
      pair build: full/bin/atomonly
      stencil: full/bin/3d
      bin: standard
  (4) compute cluster/atom, occasional
      attributes: full, newton on
      pair build: full/bin/atomonly
      stencil: full/bin/3d
      bin: standard
Per MPI rank memory allocation (min/avg/max) = 9.814 | 9.820 | 9.824 Mbytes
Step Temp PotEng c_msd[4] v_twopoint v_fit v_max_n 
   12000    1.2403043   -6.9645666 9.7108777e-31 6.7436648e-33 8.3333333e+20            1 
   13000    1.2455303   -7.0146584   0.51822876 0.0033219791  0.042740416            3 
   14000    1.2833016   -6.9937317   0.94517808 0.0056260598  0.038920955            1 
   15000    1.2575116   -6.9941815    1.4116195 0.0078423301  0.037894501            1 
   16000    1.2360691   -6.9493827     1.900441 0.0098981301  0.038519577            2 
   17000    1.2266169   -6.9411488      2.27961  0.011174559  0.038286316            2 
   18000    1.2597837   -6.9498038      2.75489   0.01275412  0.037802797            1 
   19000    1.2483268   -6.9657704    3.1715197  0.013910174  0.037560504            1 
   20000    1.2667573   -6.9831395    3.5833005  0.014930418  0.037051397            2 
   21000    1.2582049   -6.9953519    4.1017967  0.016276971  0.036993323            1 
   22000    1.2587264   -7.0054162    4.5258502  0.017143372   0.03713703            2 
   23000    1.2265819   -6.9904258     5.001498  0.018121369  0.037181122            1 
   24000    1.2651939   -6.9718391    5.4907588  0.019065134   0.03732985            1 
   25000    1.2400719   -6.9482451    5.9474903  0.019824967  0.037502296            2 
   26000    1.2359652   -7.0165664    6.5003358  0.020834409  0.037748512            1 
   27000    1.2476287    -6.982391    7.0023846  0.021612298  0.038007521            1 
   28000    1.2547292   -6.9808772    7.5672644   0.02252162  0.038372914            2 
   29000    1.2556293     -7.00825    8.0092962  0.023015219  0.038676278            1 
   30000    1.2436453   -7.0246446    8.4436975  0.023454715  0.038850222            1 
   31000    1.2359332   -6.9853454    8.9762994  0.024129837  0.039031585            1 
   32000    1.2535394   -6.9690697    9.5227623   0.02479886  0.039221736            2 
   33000    1.2553555   -6.9455604    10.035219  0.025341461  0.039463047            1 
   34000    1.2234014   -6.9941528    10.518775  0.025781312  0.039669081            2 
   35000    1.2550547   -6.9873942    10.915463  0.025989196  0.039781015            2 
   36000    1.2038598   -6.9647153    11.322814  0.026210218  0.039808225            2 
   37000    1.2514803   -6.9685906    11.790891  0.026556061  0.039800802            1 
   38000    1.2318808   -6.9607061    12.236002  0.026833338   0.03978597            1 
   39000    1.2289839   -6.9726943    12.689141  0.027113549   0.03973089            1 
   40000    1.2515175   -6.9873855    13.071239  0.027231747  0.039652161            2 
   41000    1.2513881   -6.9515771    13.687352  0.027819821   0.03962945            1 
   42000    1.2425652   -6.9680351    14.047478   0.02787198  0.039582756            1 
   43000     1.219477   -6.9955259    14.552795  0.028203091  0.039530913            1 
   44000    1.2487169   -6.9983211    15.183498  0.028756625  0.039533126            1 
   45000    1.2545923   -7.0043569    15.616522  0.028919484  0.039565718            3 
   46000    1.2465207    -6.974106    16.121301  0.029205255  0.039565756            1 
   47000    1.2481743   -7.0379626    16.541549  0.029328988  0.039583923            1 
   48000     1.239433   -6.9947556    16.886658  0.029317114  0.039570158            2 
   49000    1.2334637   -6.9850815    17.405913  0.029601892  0.039534681            2 
   50000    1.2602614   -7.0172943    17.742778  0.029571296  0.039498562            1 
   51000    1.2257173   -7.0257171     18.20286  0.029743235  0.039444134            2 
   52000    1.2414653   -7.0056083    18.795851  0.030121555  0.039403182            2 
   53000     1.256992   -6.9909151     19.31432  0.030368427  0.039383436            1 
   54000    1.2452506   -7.0429989    19.644999  0.030316356  0.039360444            2 
   55000     1.256085   -6.9806728    20.182743  0.030579913  0.039348596            8 
   56000    1.2523776   -6.9834603    20.683581  0.030779138   0.03934252            1 
   57000    1.2136839   -7.0182618    21.059497  0.030788738  0.039315785            1 
   58000    1.2252057   -6.9583326    21.352443  0.030678797  0.039274124            1 
   59000     1.262564   -7.0119887    21.769965  0.030748539  0.039209114            1 
   60000    1.2424067   -6.9974785    22.150338  0.030764357  0.039134734            2 
   61000    1.2426502   -6.9979739    22.646082  0.030937271  0.039077901            1 
   62000    1.2520761   -6.9806381     23.18885  0.031167808  0.039013939            2 
   63000     1.253724   -6.9587949    23.687762  0.031333018  0.038972629            2 
   64000    1.2434236   -6.9934584     24.31191  0.031656133  0.038946313            1 
   65000    1.2525482   -7.0078094    24.814825  0.031813878  0.038933047            1 
   66000    1.2333613    -7.038601    25.115045  0.031710915  0.038931695            2 
   67000    1.2515952   -7.0152262    25.654975  0.031909173  0.038921644            2 
   68000    1.2660936   -7.0229056     25.98432  0.031843529   0.03889555            1 
   69000    1.2422071   -7.0235797    26.393428   0.03187612  0.038867653            2 
   70000    1.2784327   -6.9833959    26.924852  0.032053395  0.038841081            1 
   71000    1.2405068   -6.9825275    27.222534  0.031951331  0.038797805            2 
   72000    1.2473191   -7.0028324    27.725443  0.032089633   0.03875626            1 
   73000    1.2210037   -7.0076681    28.172052  0.032159876  0.038719818            2 
   74000    1.2618043   -6.9507112    28.822447   0.03245771  0.038695592            1 
   75000    1.2325512   -6.9844487    29.082006   0.03231334  0.038672582            1 
   76000    1.2237039   -6.9986119    29.549632  0.032400912  0.038642624            2 
   77000      1.27276   -7.0249072    29.809091   0.03226092  0.038607485            2 
   78000    1.2573474   -6.9744213    30.447199  0.032529059  0.038577674            3 
   79000    1.2426793   -7.0399495    30.972356  0.032671261  0.038560871            2 
   80000    1.2295724   -7.0135468    31.443421  0.032753563  0.038551755            3 
   81000    1.2268659   -7.0136177    31.794447  0.032710336  0.038532083            1 
   82000    1.2436224   -7.0201848    32.277976  0.032802821  0.038506189            1 
   83000    1.2550479   -7.0230262    32.775346  0.032906973  0.038481629            2 
   84000    1.2268245    -6.994407    33.338583  0.033073991  0.038470314            3 
   85000    1.2206079   -7.0266615    33.777751  0.033115442  0.038466735            1 
   86000    1.2466553   -7.0119169    34.269662  0.033207036  0.038461783            3 
   87000    1.2452834   -6.9667375    34.990126  0.033515446  0.038465609            1 
   88000    1.2356309   -6.9840915    35.504769   0.03362194  0.038483431            1 
   89000    1.2309604   -7.0244314     35.81175  0.033531601  0.038500981            2 
   90000    1.2452442   -6.9789734    36.167509  0.033488434  0.038504856            1 
   91000    1.2273557   -7.0360777    36.364673  0.033300983  0.038500431            3 
   92000    1.2312314   -7.0096574    36.942985  0.033462848  0.038485959            3 
   93000     1.255241   -7.0322367     37.26296  0.033389749  0.038473849            2 
   94000    1.2087446   -6.9935896    37.735187   0.03345318  0.038461509            2 
   95000    1.2586521   -7.0606428    37.959617  0.033297909  0.038435597            1 
   96000    1.2014749   -6.9929258    38.583256  0.033492409  0.038407921            2 
   97000    1.2648947   -6.9967466    39.215191  0.033690027  0.038392655            2 
   98000    1.2223302    -7.056009    39.535121    0.0336183   0.03838034            2 
   99000    1.2788917   -7.0078868    40.034178  0.033698803  0.038365745            4 
  100000    1.2263173   -6.9251843    40.517224  0.033764353  0.038345517            1 
  101000    1.2441738   -6.9902202    40.886106  0.033734411  0.038328039            1 
  102000    1.2521045   -7.0225071    41.370097  0.033799098  0.038312752            1 
  103000    1.2170671   -6.9723375    42.116981  0.034075227  0.038306713            1 
  104000    1.2389865   -7.0053339    42.090467  0.033726336  0.038295914            1 
  105000    1.2413493   -6.9819862    42.728385  0.033911417   0.03827566            2 
  106000     1.201058   -7.0245036    43.268696   0.03401627  0.038267616       -1e+20 
  107000    1.1990238   -6.9965525    44.000185  0.034268057  0.038270975            1 
  108000    1.2402167   -6.9741207    44.490616  0.034329179  0.038274152            3 
  109000    1.2609234   -7.0233097    44.934214  0.034353374  0.038281751            1 
  110000    1.2525258   -6.9952471    45.554944  0.034511321  0.038293081            1 
  111000    1.2529011   -6.9828264    46.048714  0.034571106  0.038307751            1 
  112000    1.2366421   -6.9581238    46.579032  0.034657017  0.038320401            1 
  113000    1.2384421   -7.0235443    46.966621  0.034636151  0.038340783            1 
  114000    1.2515363   -6.9943018     47.41096  0.034657134  0.038354669            2 
  115000     1.253364   -7.0445174    47.940496  0.034739489   0.03836878            1 
  116000    1.2258793   -7.0319701    48.167454  0.034603056  0.038374893            2 
  117000    1.2438486   -7.0329496    48.587436  0.034606435  0.038377293            2 
  118000    1.2338841   -6.9560691    49.098828  0.034674313  0.038382165            1 
  119000     1.202458   -7.0134291    49.549323  0.034698405  0.038383934            1 
  120000    1.2616075   -7.0462858    49.939007  0.034679866  0.038389043            1 
  121000     1.272632   -7.0084666    50.671204  0.034897523  0.038396125            1 
  122000    1.2168067    -6.977023    50.973509  0.034817971  0.038407971            2 
  123000    1.2562883   -7.0129183      51.5387  0.034917818  0.038412167            1 
  124000    1.2422144   -7.0640052     51.88369  0.034868071  0.038413225            2 
  125000    1.2452968   -7.0251525    52.152366  0.034768244  0.038412341            2 
  126000    1.2300632    -6.997559    52.731437  0.034875289  0.038409334       -1e+20 
  127000    1.2373078   -6.9830563    53.025427  0.034793587  0.038404689            2 
  128000    1.2257014   -6.9598677    53.402703  0.034767384  0.038400897            2 
  129000    1.2304382   -7.0193301    53.872798  0.034801549  0.038391037            2 
  130000    1.2357038   -7.0414921    54.513301  0.034944424  0.038386138            1 
  131000    1.2423976   -7.0489416    54.851875   0.03489305  0.038384562            1 
  132000    1.2292343   -6.9918829     55.31799  0.034922973  0.038382216            1 
  133000    1.2481607   -7.0131372    55.805868  0.034966083  0.038379998            2 
  134000    1.2084866   -7.0091077    56.503229  0.035138824  0.038381369            4 
  135000    1.2393271   -6.9996252    57.128924  0.035264768  0.038386461       -1e+20 
  136000     1.230215   -7.0343209    57.138008  0.035011034  0.038389423            1 
  137000    1.2432644   -7.0205591    57.727411  0.035113997  0.038383121            2 
  138000    1.2262861    -7.057542    57.823883  0.034917804   0.03837529            2 
  139000    1.2192616   -7.0203845    58.027255  0.034788522  0.038363654            1 
  140000    1.2281234   -7.0443246    58.290122  0.034696501  0.038344882            2 
  141000    1.2296762   -7.0475997     58.57173  0.034616862   0.03832601            1 
  142000    1.2213784   -7.0335442    59.169989  0.034724172  0.038303966            1 
  143000    1.2035251   -6.9801377    60.158875  0.035057619  0.038289512            1 
  144000     1.237334   -7.0363796    60.567927  0.035050883  0.038284242            1 
  145000     1.197167   -7.0519142    60.934996  0.035020112   0.03827656            2 
  146000    1.2838434   -7.0631666    61.073646  0.034859387  0.038267475            4 
  147000    1.2194805   -6.9937955    61.959027  0.035124165  0.038258581            2 
  148000    1.2366068   -6.9735892    62.415182  0.035143683  0.038248901            3 
  149000    1.2321749   -7.0119682    62.887931  0.035172221  0.038238864            1 
  150000    1.2287568   -7.0231099    63.283168  0.035157315  0.038231401            1 
  151000    1.2310019   -7.0517238    63.421303  0.035000719  0.038220649            3 
  152000    1.2292575    -7.011763    63.990408   0.03508246  0.038208777            1 
  153000    1.2359612    -7.043468    64.477423  0.035118422  0.038200246            1 
  154000     1.223762   -7.0251797    65.056357  0.035203656   0.03819172            2 
  155000    1.2133026   -7.0235162    65.276143  0.035094701  0.038183707            1 
  156000    1.2447977   -6.9784728    66.006434  0.035259847  0.038176255            2 
  157000    1.2177909   -7.0106664    66.538406  0.035317625  0.038167236            2 
  158000    1.2369627   -6.9892421    67.129147  0.035405668  0.038163733            1 
  159000    1.2197594   -7.0760451    67.163013  0.035200741  0.038156797            2 
  160000    1.2379828   -7.0484394    68.039182  0.035437074  0.038150045            1 
  161000    1.2558513   -7.0166143    68.406476  0.035407079  0.038149245            1 
  162000    1.2045422   -7.0088953    69.124397  0.035557817  0.038150272            1 
  163000     1.196031   -7.0088386    69.475897  0.035519374    0.0381514            2 
  164000    1.2047382   -7.0847938    70.035299  0.035587042  0.038153524            1 
  165000    1.2038284     -7.05117    70.395242  0.035553152  0.038154684            2 
  166000    1.2327894   -7.0376363    70.661849  0.035472816  0.038151386            1 
  167000    1.2048031   -7.0737662    71.360721  0.035609142  0.038153009            1 
  168000    1.2167758   -7.0462142    71.337017  0.035385425  0.038151117            1 
  169000    1.2161512   -7.0109496    72.301621  0.035651687  0.038149282            1 
  170000    1.2066138   -7.0334598    72.513829  0.035545994  0.038148706            1 
  171000    1.2301944   -7.0478681    72.934096  0.035542932  0.038147492            2 
  172000    1.2027999   -7.0940869    73.084681  0.035409245  0.038144095            1 
  173000    1.2280346    -7.041223    73.730778  0.035515789  0.038138222            1 
  174000    1.2481435   -7.0460654    74.089691  0.035483568   0.03813254            2 
  175000    1.2159252    -7.033959    74.735244  0.035588211  0.038128237            1 
  176000    1.2151086   -7.0124888    74.959911  0.035492382  0.038123537            1 
  177000    1.2290799   -7.0683727    75.120739   0.03536758  0.038117237            1 
  178000    1.2370699   -7.0632771    75.850182  0.035510385  0.038111388            1 
  179000    1.2320533   -7.0141191    76.366258  0.035552261  0.038107616            1 
  180000    1.1999348   -7.0414267    76.775449  0.035544189  0.038102475            1 
  181000    1.2221763     -7.04908    76.957396  0.035431582  0.038095559            2 
  182000    1.1987922   -7.0540015     77.38536  0.035432857  0.038086236            2 
  183000    1.2134157   -7.0418848    77.701971  0.035383411  0.038074307            2 
  184000    1.1984153   -7.0417259    77.855321  0.035260562  0.038060363            4 
  185000    1.2422839   -7.0012373     78.43464  0.035330919  0.038044648            5 
  186000    1.2199962   -7.0446488    79.192303  0.035480422  0.038031316            3 
  187000    1.2111384   -7.0357922    79.861948  0.035589103  0.038024828            1 
  188000    1.1939668   -7.0480179    80.204678  0.035551719  0.038019655            3 
  189000    1.2265825   -7.0564547    80.822737  0.035636127  0.038011472            1 
  190000    1.1944661   -7.0185986    81.146144  0.035590414   0.03800548            3 
  191000    1.2143501   -7.0335497    81.549458  0.035580043  0.037999262            2 
  192000    1.2350068   -7.0103326    82.285911  0.035714371  0.037992284            2 
  193000    1.2105872   -7.0506948    82.645059  0.035684395  0.037985236            1 
  194000    1.2233416   -7.0506474    82.825773  0.035578081  0.037980102            1 
  195000    1.2104278   -7.0547656    83.507967  0.035687165  0.037973419            2 
  196000    1.2344871   -7.0354308    84.186296  0.035793493  0.037967581            1 
  197000    1.1951802    -7.016238    84.404347  0.035704038  0.037963467            2 
  198000     1.229834   -6.9947092    84.924033  0.035742438  0.037958482            2 
  199000     1.225265   -7.0541526    84.744464  0.035487632  0.037950834            2 
  200000    1.2366198   -7.0593102    85.656063  0.035690026  0.037945144            1 
  201000    1.2134494   -7.0261727    86.232525  0.035751461  0.037940804            2 
  202000    1.1920287   -7.0324898    86.652861   0.03574788  0.037935491            2 
  203000    1.2047837   -7.0477504    87.320687  0.035845931  0.037931145            2 
  204000    1.2047525   -7.0423655    87.452823  0.035724192   0.03792847            1 
  205000    1.2399836   -7.0568594    88.009596  0.035776258  0.037926059       -1e+20 
  206000    1.2085825   -7.0741915     88.52858  0.035812532   0.03792207            1 
  207000    1.2208262   -7.0112673    89.166368  0.035896283  0.037920766            1 
  208000    1.1987558   -7.0588355    89.646791  0.035916182  0.037919862            4 
  209000    1.2255734   -7.0582178    89.822613  0.035814439  0.037917804            1 
  210000    1.2229873   -7.0755252    89.914639  0.035680412  0.037912891            2 
  211000    1.2122039   -7.0670054    90.357548  0.035686235  0.037905053            1 
  212000    1.2136194   -7.0231342    90.583331  0.035606655  0.037898013            1 
  213000    1.2069337   -7.0346697     91.38813  0.035754355  0.037891561            1 
  214000    1.2125403   -7.0629852    91.664237  0.035694796  0.037885377            1 
  215000    1.1780571   -7.0237428    92.210454  0.035740486  0.037876898            1 
  216000     1.219522   -7.0633042    92.435884  0.035661992  0.037866887            1 
  217000    1.2102179   -7.0363351    92.690577   0.03559546   0.03785697            2 
  218000    1.2124342   -7.0271219    92.993321  0.035547906  0.037845097            1 
  219000    1.2012439   -7.1085359    93.009026  0.035391562  0.037830409            2 
  220000    1.2385983   -7.0176882    94.056451  0.035627444  0.037815871            1 
  221000    1.2180532   -7.0691128    94.544757  0.035650361  0.037803061            2 
  222000    1.2432002   -7.0275936    94.531552  0.035484817  0.037790184            2 
  223000     1.225789   -7.0550915    94.941691  0.035478958  0.037776142            1 
  224000    1.2131368   -7.0490001    95.794709  0.035637912  0.037763741            1 
  225000    1.2001218    -7.088071    96.036257  0.035568984  0.037752095            1 
  226000     1.191541   -7.0435794    96.568404  0.035607818  0.037740617            2 
  227000    1.2173896   -7.0501959    96.833323   0.03554821  0.037729561            1 
  228000    1.2164653   -7.0697426    97.011556   0.03545744  0.037717392            1 
  229000    1.2115331    -7.068405    97.857417  0.035610414  0.037705611            1 
  230000    1.2065627   -7.0577963    98.456736   0.03567273  0.037694035            4 
  231000    1.2177385   -6.9969352    99.343426  0.035838177  0.037683161            1 
  232000    1.2098369   -7.0560704    98.765141  0.035475984  0.037672606            1 
  233000    1.2266361   -7.0298593    99.478629  0.035578909  0.037660202            1 
  234000     1.209356   -7.0852578    99.523603  0.035442879  0.037646819            4 
  235000    1.2364286    -7.071529    100.10484  0.035498169  0.037633059            1 
  236000    1.2313677   -7.0662725    100.04611  0.035327018  0.037617605            2 
  237000    1.2298446   -7.0355627    100.86727  0.035466691  0.037603551            1 
  238000    1.2144941   -7.0132499    101.48292  0.035533237  0.037589282            2 
  239000    1.2074137   -7.0362009     101.9193  0.035536716  0.037575417            1 
  240000    1.2037772   -7.0019419     102.5604  0.035611251  0.037561793            1 
  241000    1.1899001   -7.0610645    102.61493  0.035482342  0.037549128            1 
  242000    1.2069025   -7.0267067    103.14928  0.035519725   0.03753706            2 
  243000    1.1956634   -7.0654051    103.54116  0.035507941  0.037524813            2 
  244000    1.2100496   -7.0934397    103.96057  0.035505658  0.037513844            2 
  245000    1.2138498   -7.0619617    104.69437  0.035610328  0.037503284            2 
  246000    1.1983836   -7.0010344    104.87622  0.035527175  0.037491896            1 
  247000    1.1911607   -7.0514421    105.38053  0.035553486  0.037479699            2 
  248000    1.2158665   -7.0698306    105.89641  0.035583472  0.037471474            2 
  249000     1.201765   -7.0895739    105.95718  0.035460903  0.037460546            1 
  250000    1.2280052   -7.0851664    106.61656  0.035538854  0.037449734            1 
  251000    1.1951164   -7.0733106    106.80717  0.035460547  0.037437652            1 
  252000    1.2260992   -7.0351264    107.71335  0.035619494  0.037426873            3 
  253000     1.191199   -7.0985609    107.82711  0.035516176   0.03741701            2 
  254000    1.2296999   -7.0583218    108.50255  0.035597948  0.037406457            1 
  255000    1.2205522   -7.0678945    108.63809  0.035502643   0.03739537            1 
  256000    1.2193216    -7.049077    109.16424  0.035535234  0.037385179            2 
  257000    1.2233419   -7.0892465    109.23236  0.035419053  0.037375117            1 
  258000    1.1927743   -7.0722708    109.87131  0.035488148  0.037363489            3 
  259000    1.1889156   -7.0616917    110.12681  0.035433338  0.037350826            1 
  260000    1.2169357   -7.0785698    110.86227  0.035532779  0.037340012            1 
  261000    1.1993512    -7.089766    111.30302  0.035537363   0.03732957            1 
  262000    1.2270106   -7.0447523     112.2631  0.035707093  0.037320664            1 
  263000    1.1916068   -7.0594584    112.13844  0.035531825  0.037312163            1 
  264000    1.2018932   -7.0565462    112.71139  0.035578092  0.037303856            1 
  265000    1.2010739   -7.1012797    113.00228  0.035535307  0.037294795            1 
  266000    1.2078539   -7.0683551    113.33362  0.035505522  0.037284594            2 
  267000    1.2202347   -7.0453769    113.66545  0.035476108  0.037274799            2 
  268000    1.2131761   -7.1137543     114.0731  0.035470492  0.037263028            1 
  269000    1.2360309   -7.1109572    114.47469  0.035463038  0.037252849            1 
  270000    1.2080753   -7.0943192    114.96414   0.03548276   0.03724245            1 
  271000    1.2022409   -7.0734794    115.41032  0.035489027   0.03723286            1 
  272000    1.2115799   -7.0973454    115.60765  0.035419011  0.037221154            2 
  273000    1.1968318   -7.1091454    116.05648  0.035426275  0.037210458            2 
  274000    1.1874326   -7.0584995     117.0539  0.035600334  0.037200594            1 
  275000     1.195091   -7.0571869    117.08271  0.035479609  0.037190097            2 
  276000    1.2039248   -7.0846752    117.12072  0.035362535  0.037177467            1 
  277000    1.1958965   -7.0837991    117.74405  0.035422397  0.037166438            2 
  278000    1.2134181   -7.0888656    118.13188  0.035411236  0.037155114            3 
  279000    1.1725421   -7.1089427    118.52023  0.035400307  0.037143977            1 
  280000    1.2032476   -7.0911897    118.98041  0.035410837  0.037133863            3 
  281000    1.2025282   -7.0651844    119.93552  0.035568067  0.037124555            1 
  282000    1.2174718   -7.0526717    120.33915  0.035561215  0.037115402            2 
  283000    1.2215679   -7.1011413     120.2208  0.035400706  0.037105922            3 
  284000    1.2214951   -7.1661378    120.44145    0.0353408  0.037095647            2 
  285000    1.2136433    -7.085449    120.91359   0.03535485   0.03708603            1 
  286000    1.2089699   -7.0037185     121.9569  0.035535227  0.037075398       -1e+20 
  287000    1.2141333   -7.0133154    122.40905  0.035542699  0.037065637            1 
  288000    1.2070099   -7.0604608    122.19791  0.035358192  0.037056757            2 
  289000    1.2187231   -7.0653351     123.0741  0.035488494  0.037045868            3 
  290000    1.2083914   -7.0350568    123.57147  0.035509044  0.037035782            3 
  291000    1.2060307   -7.0837201    123.77556  0.035445465  0.037024664            2 
  292000    1.2047542    -7.050657    123.94301  0.035371863  0.037013743            2 
  293000    1.1804451    -7.056248    124.12433   0.03530271  0.037004169            1 
  294000    1.1840597   -7.0756183    125.12305  0.035465717  0.036994275            1 
  295000    1.2038478   -7.0769027    125.21804  0.035372329  0.036984417            2 
  296000    1.2106376   -7.1119656    125.72354   0.03539514  0.036973276            3 
  297000    1.1812943   -7.0680405    126.06394  0.035371477  0.036963743            1 
  298000    1.2132451   -7.0376278    127.15847  0.035558856  0.036955326            1 
  299000    1.2196548   -7.0506598    127.08609  0.035419758  0.036945669            2 
  300000     1.219175   -7.0960785    127.01741  0.035282613  0.036935422            1 
  301000    1.2162457   -7.0875628    127.98612  0.035433587  0.036924769            1 
  302000    1.2078516   -7.0647912    128.16827  0.035366519   0.03691435            1 
  303000    1.2047227   -7.0627548    129.41733  0.035593325  0.036905968            2 
  304000    1.2118378   -7.1013122    129.62104  0.035532083  0.036899981            1 
  305000     1.223177   -7.1009206    129.89979  0.035491746  0.036892558            1 
  306000    1.1952676   -7.0609011    130.33354  0.035493884  0.036885324            1 
  307000    1.2038031   -7.0851137    130.88838  0.035528876  0.036878832            1 
  308000    1.1848536   -7.0687796    131.15235  0.035484944  0.036871032            3 
  309000    1.2207594   -7.1060025     131.4641  0.035454181  0.036863818            1 
  310000    1.1896859   -7.1043057    131.94116  0.035468053   0.03685636            2 
  311000    1.1999847   -7.0547541    132.69411  0.035555763  0.036848679            4 
  312000    1.1906443   -7.0667785     133.4296  0.035638247  0.036841751            1 
  313000      1.19906   -7.0412964    133.78556   0.03561916  0.036836557            3 
  314000    1.2053584   -7.0421467    134.47119  0.035687683  0.036832708            1 
  315000    1.1881062   -7.1027961    134.38516  0.035551629  0.036828044            1 
  316000    1.1835192   -7.0240526    135.09085  0.035625224  0.036822978            1 
  317000    1.2055341   -7.1003371    135.24841  0.035554262  0.036817334            1 
  318000    1.1966678   -7.0611939    135.65147   0.03554808  0.036810093            1 
  319000    1.2002572    -7.090257    136.03105  0.035535801  0.036803728            3 
  320000    1.1846173   -7.1134873    136.28397  0.035490618   0.03679732            1 
  321000    1.2166952   -7.1008005    137.04441  0.035577469  0.036790857            1 
  322000    1.2003256   -7.0645393    137.20214    0.0355078  0.036784594            2 
  323000    1.2084722   -7.0752699    137.69415  0.035524807  0.036779615            3 
  324000    1.1917312   -7.0470615    137.81567  0.035446416  0.036774026            3 
  325000     1.216563   -7.0243152    139.09276  0.035664811  0.036769719            2 
  326000    1.2286781   -7.0984795    139.34558  0.035620036  0.036764723            1 
  327000    1.1763497   -7.0624419    140.08099  0.035698519  0.036759964            1 
  328000    1.2148638   -7.1321602    140.06267  0.035585029  0.036756015            2 
  329000    1.1861048   -7.0625727    140.92448  0.035695156  0.036752123            2 
  330000    1.2146088   -7.1035196    141.16578  0.035647923  0.036747919            2 
  331000     1.180828   -7.0834806    141.36043  0.035589233  0.036743668            4 
  332000    1.1892222   -7.1167591    141.18785  0.035438717  0.036738399            3 
  333000    1.1888581   -7.1261579    141.58507    0.0354317  0.036730622            3 
  334000    1.2043846   -7.0655756    142.27262  0.035497161  0.036723355            1 
  335000     1.195455   -7.1082437    142.17147  0.035366036  0.036716333            2 
  336000    1.2060314    -7.088481    142.96857  0.035458474  0.036710158            1 
  337000    1.1907696   -7.0978446    143.65568  0.035523166  0.036704687            1 
  338000    1.1974184    -7.068286     143.6915  0.035426899  0.036697788            5 
  339000    1.1990199   -7.1132855    143.47432  0.035269007  0.036690338            3 
  340000    1.1967602   -7.1304481    144.65978  0.035455828  0.036682716            2 
  341000    1.1719197   -7.0933403    145.01637  0.035438997  0.036674486            1 
  342000    1.2085123   -7.0506571    146.17245  0.035617068  0.036667843            1 
  343000    1.2058122   -7.0858461    146.46399  0.035584061  0.036662768            2 
  344000    1.1972385    -7.034571    146.85625  0.035575642   0.03665709            1 
  345000    1.1854333   -7.1110267    146.13852  0.035299159  0.036650186            1 
  346000    1.2185063   -7.1626983    146.31816  0.035240405  0.036643183            1 
  347000     1.204661   -7.1186107    147.13056  0.035333947  0.036635447            2 
  348000    1.1837127   -7.0957815    148.04048  0.035450307  0.036628027            1 
  349000    1.1835518   -7.0845327    148.46179  0.035449328  0.036620864            2 
  350000    1.1872636   -7.1293874    148.16514  0.035277413  0.036612958            2 
  351000    1.2019981   -7.1094751    149.45816  0.035483894   0.03660426            1 
  352000    1.1727941   -7.1147085    149.20641  0.035323488  0.036597286            1 
  353000    1.2126546   -7.0858687    149.81867  0.035367957  0.036589229            2 
  354000    1.2017157   -7.1281292    150.19653  0.035356998  0.036581152            1 
  355000    1.2026888   -7.1078115    150.59652  0.035351296  0.036572864            2 
  356000    1.2023699   -7.0979694    150.35179  0.035194708  0.036564163            2 
  357000    1.1994869   -7.0953049    150.38246  0.035103282  0.036554734            1 
  358000    1.1887328   -7.0838294    151.14974  0.035183831  0.036543021            2 
  359000    1.1800045   -7.1294019    150.80101  0.035004876  0.036530896            1 
  360000    1.1882758   -7.0728806    151.54398  0.035079625  0.036518447            1 
  361000    1.1767336   -7.0700427    152.16724  0.035126324  0.036507062            2 
  362000    1.2116371   -7.1082266    152.51055  0.035108323  0.036495759            1 
  363000    1.1795882   -7.1220572    152.29627  0.034962412  0.036483609            1 
  364000    1.1984456   -7.0792899    152.88943  0.035002159  0.036470731            3 
  365000    1.1881855   -7.1255643     152.7827  0.034881895  0.036457629            1 
  366000     1.178609   -7.0720739    153.45307  0.034939224    0.0364445            2 
  367000    1.1862575   -7.0815837    153.72438  0.034905627  0.036430506            1 
  368000    1.1928361   -7.1243349    154.22406  0.034923926  0.036417607            1 
  369000    1.2151111   -7.0818155    154.98079  0.035000179  0.036404587            2 
  370000    1.1907988   -7.1087139    154.90951  0.034889529  0.036391668            1 
  371000    1.1922673   -7.0564711    156.09812  0.035062471  0.036379056            3 
  372000    1.2168357   -7.0879937    155.90953  0.034925969  0.036366749            1 
  373000     1.211888   -7.0604989    156.41464  0.034945182  0.036353515            4 
  374000    1.2133634   -7.0981642    156.78456  0.034934171  0.036340693            3 
  375000    1.1903621   -7.1290781     156.4806  0.034773466  0.036326944            1 
  376000    1.1965099    -7.117926    157.20391  0.034841292   0.03631286            2 
  377000     1.187197   -7.0910142    157.88899  0.034900308   0.03629988            1 
  378000    1.2125088   -7.1093945    158.08988  0.034852266  0.036287456            1 
  379000    1.1956987   -7.0818894    158.46987  0.034843858  0.036274472            2 
  380000    1.1940156   -7.1083851    158.51318  0.034761662  0.036260832            1 
  381000    1.1927806   -7.1102644    159.09574  0.034797843  0.036245742            2 
  382000    1.1790528   -7.0991779    158.97111  0.034679561  0.036230546            2 
  383000    1.1961881   -7.1468093    159.28627  0.034657587  0.036215847            2 
  384000    1.1987826   -7.1093652    160.15406  0.034755655  0.036201744            1 
  385000    1.2094205   -7.1257806    160.30473  0.034697993  0.036187211            1 
  386000    1.2125286   -7.1242989    160.92606  0.034742242  0.036172486            1 
  387000    1.2080917   -7.1076997    161.60471  0.034798602  0.036158571            3 
  388000    1.1922877   -7.1098002    160.99064  0.034577027  0.036144089            2 
  389000    1.1836971   -7.0986222    162.36482  0.034782523  0.036129691            2 
  390000    1.1944725   -7.0684139    162.26517  0.034672044  0.036115531            1 
  391000    1.1960385   -7.0783503    162.60496  0.034655789  0.036102324            2 
  392000    1.1600061   -7.1160416    163.11827  0.034676502  0.036087859            3 
  393000    1.1759806    -7.075213    162.71967  0.034503747  0.036072249            1 
  394000     1.189968   -7.0843388    162.83307  0.034440159  0.036055852            3 
  395000     1.178795   -7.0799931    163.09804   0.03440887  0.036039803            4 
  396000    1.1617232   -7.1340562    163.77755  0.034464972  0.036022542            5 
  397000    1.1738975   -7.1043903    164.32829  0.034493763  0.036006311            2 
  398000    1.1915439   -7.0927829       164.18  0.034376046  0.035989267            1 
  399000    1.2000684   -7.1019824    164.70461  0.034399458  0.035971838            4 
  400000    1.1796897   -7.1452024    164.59733  0.034291109  0.035954397            1 
  401000    1.1789276   -7.0963035     164.7653  0.034240502  0.035936394            1 
  402000    1.1865987   -7.1242244    165.21779  0.034249127  0.035918871            1 
  403000    1.1777939   -7.0827729    165.80675  0.034285929  0.035901606            1 
  404000    1.1961167    -7.132186    166.70588  0.034386527  0.035884628            1 
  405000    1.1956309   -7.1061743    166.93188  0.034348122  0.035868289            2 
  406000    1.2017083   -7.1190866    167.39585  0.034358754  0.035851195            3 
  407000    1.2080643   -7.1130103    167.36932  0.034268902  0.035834743            1 
  408000    1.1846934   -7.0788984    168.46115  0.034407915  0.035818671            2 
  409000    1.1651997    -7.110885    169.22002  0.034478407  0.035802823            3 
  410000    1.1811307   -7.1174904    168.99735  0.034349055  0.035787783            2 
  411000    1.1831401   -7.0870333    169.76201  0.034420521  0.035772411            1 
  412000    1.1765552   -7.1581158    170.44964  0.034476059  0.035758087            5 
  413000    1.1651393    -7.119671    170.96043  0.034495647  0.035744252            1 
  414000    1.1981043   -7.1127791    171.09317  0.034439045  0.035731385            1 
  415000    1.1806846   -7.1075208    172.33528  0.034605477  0.035718819            1 
  416000    1.1684016    -7.147165    171.32997  0.034320908  0.035704782            1 
  417000    1.1937398   -7.1170119    172.15699  0.034403875  0.035690563            2 
  418000    1.1676483   -7.1147661    172.52398  0.034394733  0.035677267            1 
  419000    1.2258288   -7.1137251    173.43711  0.034494255  0.035664517            2 
  420000    1.1717037   -7.0988744    174.03896  0.034531541  0.035651181            3 
  421000    1.1639309   -7.1283326     174.1851  0.034478444  0.035638697            1 
  422000    1.1810329     -7.16614    174.14142  0.034388116  0.035625194            7 
  423000    1.1708322   -7.1065639    174.71905  0.034420617  0.035612175            1 
  424000    1.1760506   -7.1008206    175.33135  0.034459778  0.035599937            1 
  425000    1.1673836   -7.1144721    175.61054   0.03443344  0.035588063       -1e+20 
  426000    1.1711924   -7.1164828    175.57415  0.034345492  0.035576129            2 
  427000     1.202893   -7.1303977    176.21185  0.034389509  0.035563614            1 
  428000    1.2005197   -7.1405685    176.66958  0.034398283  0.035551519            1 
  429000    1.1732122   -7.1411122     177.1332  0.034408158  0.035538917            1 
  430000    1.1907465   -7.0867717    177.97537  0.034491351  0.035527491            2 
  431000    1.1847677    -7.097599    178.78777  0.034568402  0.035516353            7 
  432000    1.1902639   -7.1337209    178.39404   0.03441243  0.035506059            2 
  433000    1.1852652   -7.1260094    179.32435     0.034512  0.035495523            3 
  434000    1.2093266   -7.0911457    179.93511  0.034549753  0.035485468            4 
  435000    1.1846423   -7.0790107    180.35039  0.034549883  0.035475473            1 
  436000    1.1959248   -7.1093703    180.19185  0.034440339  0.035464245            1 
  437000    1.1932794   -7.1415956    179.76781  0.034280666  0.035452259            1 
  438000    1.1973494   -7.1381302    180.30848  0.034305266  0.035439953            2 
  439000    1.2027834    -7.102776    181.13666  0.034384331  0.035427756            1 
  440000    1.1609949   -7.1396353    180.97149  0.034274904  0.035415457            1 
  441000    1.1916377   -7.0831655    182.20903  0.034431034  0.035403388            1 
  442000     1.193997   -7.1419194    181.38511  0.034197796  0.035391442            1 
  443000    1.1670869   -7.1456888    181.78402   0.03419564   0.03537904            1 
  444000    1.1928556   -7.1335505    181.76142  0.034114381  0.035365827            4 
  445000    1.1832172   -7.1197749    183.36008  0.034337094  0.035353655            2 
  446000     1.188581   -7.1103315    183.50225  0.034286669  0.035342536            5 
  447000    1.1782038   -7.1204611     184.1903  0.034338236  0.035331804            1 
  448000    1.1845081   -7.0987234    185.07714  0.034426551  0.035321848            1 
  449000    1.1749011   -7.1309062    184.95746  0.034327666  0.035311089            1 
  450000    1.1928782   -7.0993398    185.34249  0.034322683  0.035300207            2 
  451000    1.2137393   -7.1123574    185.86967  0.034343988  0.035289743            4 
  452000    1.1567122   -7.0960176    185.50684  0.034201114  0.035279184            1 
  453000    1.2041395   -7.1362564    186.39532  0.034289058  0.035268737            1 
  454000    1.1556195   -7.0954075    187.40123   0.03439817  0.035258424            2 
  455000    1.1800224   -7.1865458    187.47161  0.034335459  0.035248765            2 
  456000    1.1640544   -7.1095843    187.05823  0.034184618  0.035238745            1 
  457000    1.1672926   -7.1641505     187.7259  0.034231564   0.03522832            3 
  458000    1.1957051   -7.1452317     188.8009  0.034352419  0.035218316            1 
  459000    1.1564199   -7.1394299    188.95622  0.034305778  0.035209305            1 
  460000     1.194441   -7.0732745    189.94648  0.034410594  0.035200359            1 
  461000    1.2028843   -7.1572142    190.10553  0.034364702  0.035191408            2 
  462000    1.1523921   -7.1480278     190.2014  0.034307612  0.035183184            2 
  463000    1.1789093   -7.1254567    190.57637  0.034301002  0.035173764            1 
  464000     1.190566   -7.1205687    191.40844  0.034376516  0.035164593            1 
  465000      1.17462    -7.129193    191.69711  0.034354321   0.03515573            1 
  466000    1.1961156   -7.1297802    191.99262  0.034333444  0.035147468            1 
  467000    1.1879957    -7.122478    192.48468  0.034347731  0.035138875            1 
  468000    1.1534251    -7.144741    192.83862  0.034337361  0.035130289            5 
  469000    1.1853629   -7.1975276    193.18863  0.034326338   0.03512113            3 
  470000    1.1562723   -7.1699009    194.16212  0.034425908  0.035112909            2 
  471000     1.173171     -7.15836    193.77043  0.034283516  0.035104007            1 
  472000    1.1963269   -7.1183048     194.0528  0.034260734  0.035095152            2 
  473000    1.1766849   -7.1633002     194.1817  0.034211012  0.035085903            3 
  474000    1.1857926   -7.1370483    195.40998  0.034354779  0.035077184            1 
  475000    1.1639796   -7.0711116    195.80864  0.034352393  0.035068953            2 
  476000    1.1792862   -7.1455835    195.64495  0.034251567   0.03506018            2 
  477000    1.1676383   -7.1293493    195.35227  0.034128628  0.035051361            2 
  478000    1.1887559   -7.0913084    197.49148  0.034430174  0.035042094            3 
  479000    1.1615751   -7.1444926    196.44778  0.034176718  0.035032875            2 
  480000    1.1594637   -7.1485365     196.8909  0.034182448  0.035023299            1 
  481000    1.1683069   -7.1582809     197.2624  0.034175745  0.035013798            1 
  482000    1.1470305   -7.1324072    198.19263  0.034265669  0.035004971            2 
  483000    1.1503616   -7.1117969    198.45887   0.03424066  0.034996498            1 
  484000    1.1887971   -7.1770266    198.01326  0.034093192  0.034986934            1 
  485000    1.1405311   -7.1438372    198.24362  0.034062477  0.034975646            1 
  486000    1.1635746    -7.136327    198.66196  0.034064122  0.034965471            1 
  487000    1.1784407   -7.1612672    199.26652  0.034097625  0.034954834            1 
  488000    1.1454762   -7.1421348    199.58271  0.034081746  0.034944421            2 
  489000    1.1890751   -7.1239845    200.18226  0.034114223  0.034934509            3 
  490000    1.1863706   -7.1436603    200.10134  0.034030841  0.034923937            2 
  491000    1.1658922   -7.1558157    201.02921   0.03411901  0.034913329            3 
  492000    1.1664679   -7.1141769    201.02414  0.034048804  0.034902955            2 
  493000    1.1489018    -7.169333    201.75381  0.034103078  0.034892752            1 
  494000    1.1639854     -7.14105    200.65421  0.033848551  0.034882251            2 
  495000    1.1541262   -7.1470538    201.92495  0.033994099   0.03487128            1 
  496000    1.1760083   -7.1533196    201.84593  0.033912286  0.034860115            2 
  497000    1.1660353   -7.1275319     202.6163  0.033973223  0.034849484            1 
  498000    1.1602894   -7.0725196    203.28641  0.034017137  0.034838278            5 
  499000    1.1702959   -7.1426762    202.17879  0.033763992  0.034826754            1 
  500000    1.1813842   -7.1757697    203.18763  0.033864605  0.034814486            3 
  501000    1.1572667   -7.1364513     203.6028  0.033866067  0.034803025            1 
  502000    1.1638271    -7.106584     204.2306  0.033902823  0.034791679            1 
  503000    1.1482703   -7.1435211    204.02744  0.033801763   0.03478044            2 
  504000     1.170794   -7.1555644    203.95433  0.033722607  0.034768998            1 
  505000    1.1719952   -7.1543505    204.89266  0.033810671  0.034757785            1 
  506000    1.1684422   -7.1410936    204.70522  0.033712981  0.034745374            1 
  507000    1.1811539   -7.1189043     205.6926  0.033808778  0.034732602            1 
  508000    1.1677149   -7.1721101    205.04969   0.03363676  0.034719789            3 
  509000    1.1729914   -7.1644874    205.91157  0.033711782  0.034707041            1 
  510000    1.1506437   -7.1502222    206.29678  0.033708625  0.034695363            2 
  511000    1.1682039   -7.1999665    206.56406  0.033686246  0.034683087            1 
  512000    1.1542602   -7.1551889     207.2401  0.033730486  0.034670466            1 
  513000    1.1428103    -7.165658    207.70757  0.033740671  0.034658272            2 
  514000     1.180843   -7.1344563    208.22715  0.033759266  0.034647031            1 
  515000    1.1776634    -7.140576    208.35427  0.033714283  0.034635402            3 
  516000    1.1816341   -7.2108606    208.12293  0.033611584  0.034622974            1 
  517000    1.1643716   -7.1485367    209.81906  0.033819965  0.034610868            2 
  518000    1.1752703   -7.1317255      209.239  0.033661357  0.034599695            2 
  519000    1.1721029   -7.1722279    209.73229  0.033675705  0.034588295            1 
  520000    1.1656022   -7.1772619    210.06025  0.033663501  0.034577204       -1e+20 
  521000    1.1633321   -7.1642253    209.86041  0.033566925  0.034565753            1 
  522000    1.1732733   -7.1770583    210.95903  0.033678006  0.034553491            1 
  523000    1.1355083   -7.1383105    211.25174  0.033660252    0.0345413            1 
  524000    1.1688689   -7.1684554    211.01898  0.033558998  0.034529449            1 
  525000    1.1792637   -7.1315589    211.49275  0.033570278  0.034517839            2 
  526000    1.1622248   -7.1852466     212.0029  0.033587279  0.034506146            4 
  527000     1.150179   -7.1828453    213.12492  0.033700968   0.03449433            3 
  528000    1.1574133   -7.1557886    213.51339  0.033698451  0.034483024            1 
  529000    1.1606602   -7.1470398    213.12564  0.033573667  0.034471759            2 
  530000    1.1457865   -7.1473495    214.16518  0.033673771   0.03446031            1 
  531000    1.1585098   -7.1073101    215.13955  0.033763269  0.034450084            2 
  532000    1.1528251   -7.1695771    214.93108  0.033667149  0.034439798            2 
  533000    1.1846162   -7.1896956    215.24803  0.033653539  0.034429407            2 
  534000    1.1709098   -7.2087021    215.33477  0.033604053  0.034419112            2 
  535000     1.187595   -7.1690215    215.63236  0.033587595  0.034409181            2 
  536000    1.1943191   -7.1252068    216.01252  0.033584036  0.034398839            1 
  537000    1.1950114   -7.1598921     216.6536  0.033620981  0.034388245            1 
  538000    1.1727458   -7.1871387     216.4689  0.033529879  0.034377639            1 
  539000     1.186211   -7.1475328    217.48778  0.033625197  0.034366548            4 
  540000    1.1547696   -7.1437677    217.04755  0.033494993  0.034355705            1 
  541000    1.1607001    -7.171275    218.64715  0.033679475  0.034345582            1 
  542000    1.1801778   -7.1570045    218.96088  0.033665572  0.034335794            3 
  543000    1.1604638   -7.1367259    218.91095   0.03359591  0.034326239            1 
  544000    1.1600264   -7.1309329    219.57109  0.033635277  0.034316802            1 
  545000    1.1411739   -7.1629907    220.43094  0.033705037  0.034307344            1 
  546000     1.165972   -7.1153383    220.21921   0.03361099  0.034298176            2 
  547000    1.1602366   -7.2174432    220.35706  0.033570545  0.034288732            4 
  548000    1.1599148   -7.1640919    221.11477  0.033624509   0.03427964            2 
  549000    1.1466435   -7.1166289    221.89082   0.03368106  0.034271327            2 
  550000     1.183426   -7.1669528    222.37618  0.033693361  0.034262191            1 
  551000    1.1399564   -7.1167541    222.76313  0.033690733  0.034253182            1 
  552000    1.1510218   -7.1782217    223.02756  0.033669619  0.034244973            1 
  553000    1.1515324   -7.1430262    223.48274  0.033677327   0.03423634            2 
  554000     1.178852   -7.1532671    224.52756    0.0337737  0.034228538            1 
  555000    1.1592677   -7.2061355    224.40441  0.033694356   0.03422114            1 
  556000    1.1612937   -7.1266008     224.8388  0.033698861  0.034213388            2 
  557000    1.1611821   -7.1662878    225.08588  0.033675326  0.034205368            2 
  558000    1.1846616   -7.1591531    225.06228  0.033611451  0.034197478            3 
  559000    1.1521699   -7.1821422     225.7121  0.033648197  0.034189131            1 
  560000    1.1464203   -7.1936418     225.3086  0.033528066  0.034180011            3 
  561000    1.1843465    -7.169116    225.24964  0.033459542  0.034170695            3 
  562000    1.1521464   -7.2039561    225.21756  0.033395249  0.034160924            2 
  563000    1.1568615   -7.1119233    226.51396  0.033527821  0.034151365            1 
  564000    1.1597933   -7.1668122    226.16699  0.033417109  0.034141559            1 
  565000    1.1463823   -7.1767353    226.91019   0.03346758  0.034132015            2 
  566000    1.1889309    -7.178603     227.3767  0.033477135  0.034122552            1 
  567000    1.1563278   -7.1487158    227.61306   0.03345283  0.034112997            1 
  568000    1.1404534   -7.1686459    228.23652  0.033485405  0.034103595            2 
  569000    1.1656033   -7.1603923    228.31409  0.033437917  0.034094433            2 
  570000    1.1700337   -7.1684414    229.71174  0.033583588  0.034084802            2 
  571000    1.1573666   -7.2151063    229.33695  0.033470075   0.03407586            2 
  572000    1.1671447   -7.1837359    229.54678   0.03344213  0.034066865            3 
  573000    1.1751298   -7.1657624    230.74105  0.033557453  0.034058425            1 
  574000    1.1481323   -7.1415583     230.7178  0.033495615  0.034049596            2 
  575000    1.1488496   -7.1626442    230.90177  0.033464025  0.034041251            2 
  576000    1.1570963   -7.2183208    230.69419  0.033375895  0.034032502            3 
  577000    1.1732037   -7.1703984    231.95667  0.033500385   0.03402371            2 
  578000    1.1733309   -7.1885288    231.33661  0.033353028  0.034015128            1 
  579000    1.1463455   -7.1908302    232.77003  0.033501732  0.034006535            2 
  580000    1.1624702   -7.1569624    233.16633   0.03350091  0.033998225            2 
  581000    1.1351625   -7.1549335    233.82363  0.033537526  0.033989957            2 
  582000    1.1567862   -7.1570977    234.24775  0.033540629  0.033982341            3 
  583000    1.1537018   -7.2173327    233.35863  0.033356008  0.033974207            1 
  584000    1.1848667   -7.1557581    234.78125   0.03350189  0.033966189            1 
  585000    1.1394926    -7.195444    234.30087  0.033376192  0.033957975            2 
  586000    1.1516166   -7.1574694    235.30941  0.033462657  0.033949711            1 
  587000    1.1721795   -7.1913667    234.66936  0.033314787  0.033941243            3 
  588000     1.151085   -7.1577371    236.52177   0.03352066  0.033933173            1 
  589000    1.1403603   -7.1995329    235.80513  0.033362356    0.0339247            1 
  590000    1.1576593    -7.143457    236.58205  0.033415544  0.033916446            1 
  591000    1.1549758   -7.1945976     236.6679  0.033371108  0.033908292            1 
  592000    1.1338814   -7.1914445    237.12645  0.033379287  0.033900063            1 
  593000    1.1467513   -7.1650063    237.31716  0.033349798  0.033891821            1 
  594000    1.1553045    -7.171095    237.95956  0.033383777  0.033883757            3 
  595000    1.1538611   -7.2092273    237.96153  0.033327946  0.033875628            2 
  596000    1.1876694   -7.1782457    238.75496  0.033382964  0.033868242            1 
  597000     1.137781   -7.1753888    238.60538  0.033306167  0.033860037            2 
  598000    1.1519466    -7.199969    239.28044  0.033344543  0.033852158            1 
  599000    1.1510798   -7.1937929    239.54721  0.033325989  0.033844111            1 
  600000    1.1415439   -7.2292382    239.69487  0.033290954   0.03383601            1 
  601000    1.1336639   -7.1593719    241.00045   0.03341659  0.033828236            1 
  602000    1.1838043   -7.1700656    241.21758  0.033391137  0.033820692            1 
  603000      1.15622   -7.1997742    241.18797  0.033331671  0.033812748            2 
  604000    1.1462638   -7.2149892    240.90708  0.033237732  0.033804753            2 
  605000    1.1431905    -7.169276    242.60071  0.033416076  0.033797355            1 
  606000    1.1436692   -7.1305572    243.19304  0.033442387  0.033789774            2 
  607000    1.1591929   -7.1846563     243.4753  0.033426043  0.033782513            1 
  608000    1.1475289   -7.1914094    243.56761  0.033383718  0.033775616            2 
  609000    1.1528203   -7.1657334     245.2036  0.033552764   0.03376879            1 
  610000    1.1553652   -7.2170375    244.28984  0.033372928  0.033762025            1 
  611000    1.1384851   -7.1606473    244.89829  0.033401295  0.033755043            2 
  612000    1.1277496   -7.1493158    245.40415  0.033415597  0.033747823            2 
  613000    1.1654508   -7.1261238    245.02726   0.03330985  0.033740581            2 
  614000    1.1612517   -7.2150034    244.83501  0.033229507  0.033733055            1 
  615000     1.130276   -7.1901432    245.38235  0.033249641  0.033725201            1 
  616000    1.1310029   -7.1928039    245.67397  0.033235115  0.033717575            2 
  617000     1.148423   -7.1641993    246.65165  0.033313297  0.033710133            2 
  618000    1.1412573   -7.1702979     246.1928  0.033197519  0.033702586            1 
  619000    1.1694193   -7.1779004    246.98842  0.033250999  0.033695178            6 
  620000    1.1617978   -7.1871098    247.43616  0.033257548  0.033687247            1 
  621000    1.1417365   -7.1742864    247.26053  0.033180426   0.03367909            2 
  622000    1.1426111   -7.1878518    247.03414   0.03309675  0.033670297            2 
  623000    1.2025899   -7.2010102    248.44629  0.033232517  0.033662015            1 
  624000    1.1554845   -7.2074306    248.10458  0.033133624  0.033653588            1 
  625000    1.1566869   -7.1589003    248.87781  0.033183709  0.033645594            1 
  626000    1.1398822   -7.1860603    248.91435  0.033135563  0.033637538            1 
  627000    1.1581005   -7.2204917    248.78682  0.033065765  0.033628813            5 
  628000    1.1155295   -7.2042972    250.62884  0.033257543  0.033620787            1 
  629000    1.1572269   -7.1574259    250.53449  0.033192169  0.033613074            1 
  630000    1.1268344   -7.2152651    250.58862  0.033146643  0.033605008            1 
  631000    1.1674482   -7.1929658    250.73697  0.033113705  0.033597036            1 
  632000    1.1494045   -7.1948327    251.26195  0.033130531  0.033588883            2 
  633000    1.1268016   -7.2052996    250.30858  0.032952683  0.033580732            1 
  634000    1.1416795   -7.1977214    251.86691  0.033105535  0.033572844            1 
  635000    1.1593151   -7.1942669     252.1607  0.033091955  0.033565028            2 
  636000    1.1398134   -7.1893823    252.96423  0.033145209  0.033557238            1 
  637000    1.1611876   -7.2213541    252.75051  0.033065215  0.033549347            1 
  638000    1.1258552   -7.1773736    253.51089  0.033112708  0.033541328            2 
  639000    1.1591366   -7.2184288    254.22587   0.03315413  0.033533813            1 
  640000    1.1713782   -7.2047142    254.25148  0.033105662  0.033526775            1 
  641000    1.1433586   -7.2092045    254.54072  0.033091617  0.033519564            7 
  642000    1.1387466   -7.2214666    255.25177  0.033132369  0.033511975            1 
  643000     1.154139   -7.1790642     255.7898   0.03315057  0.033504174            1 
  644000    1.1384374    -7.180932    255.77687  0.033097422  0.033496587            2 
  645000    1.1317935   -7.2017474    256.54206  0.033144968  0.033488899            1 
  646000    1.1596681   -7.2228144    256.40959  0.033076573   0.03348135            1 
  647000    1.1527699     -7.17567    256.54828  0.033043313  0.033474009            1 
  648000    1.1590929   -7.2054725    257.61879  0.033129989  0.033467073            3 
  649000    1.1371573   -7.2026708    258.11521  0.033142682  0.033459928            1 
  650000    1.1545589   -7.2175189    257.86742  0.033059926  0.033452861            1 
  651000    1.1593703   -7.1991348    258.78033  0.033126003  0.033445873            1 
  652000    1.1495916   -7.1878852    259.03953  0.033108325  0.033439174            2 
  653000    1.1377168   -7.2262876    259.74192  0.033147259   0.03343218            2 
  654000    1.1580172   -7.2200013    259.50726  0.033066674  0.033425345            1 
  655000    1.1628754   -7.1883871    260.45154  0.033136329  0.033419061            1 
  656000    1.1704831   -7.1789724    261.40746  0.033207248   0.03341281            2 
  657000    1.1572034   -7.1657376    261.54951  0.033174722  0.033406602            2 
  658000     1.156509   -7.1988066    261.11839  0.033069705  0.033400048            1 
  659000    1.1466407    -7.216901    261.65707  0.033087641  0.033393306            1 
  660000    1.1418886    -7.235228    261.68544  0.033041091  0.033386766            3 
  661000    1.1630368   -7.2115919    262.38633  0.033079467  0.033379734            2 
  662000    1.1304373   -7.2249654    262.72023  0.033071529  0.033372807            1 
  663000    1.1417247   -7.1998862    263.21461  0.033083787  0.033365942            2 
  664000    1.1459062   -7.2415317    263.43352  0.033061436  0.033358793            2 
  665000    1.1492658      -7.2012    263.04467  0.032962992  0.033351514            1 
  666000    1.1642352   -7.2143334    263.30094  0.032945563  0.033344073            2 
  667000    1.1825785   -7.1844341    263.91905  0.032973394   0.03333657            2 
  668000    1.1448888   -7.2443799    263.00103   0.03280951   0.03332911            1 
  669000    1.1393696   -7.1953432    264.12533  0.032900514  0.033321148            1 
  670000    1.1679774   -7.2361824    264.34324  0.032878513  0.033313579            1 
  671000    1.1273342   -7.2223329    264.39206  0.032835576  0.033305892            1 
  672000    1.1516202    -7.234863    264.72603  0.032828129  0.033297986            1 
  673000     1.138092   -7.1907446    265.71302  0.032901563  0.033290006            1 
  674000    1.1757592   -7.2436874    265.78101  0.032861154  0.033282183            1 
  675000    1.1344696   -7.2144435    265.69139  0.032801407  0.033274504            1 
  676000    1.1502474   -7.1971059    267.06211  0.032921858  0.033266954            2 
  677000    1.1363413    -7.242006    266.46518  0.032799751  0.033259389            2 
  678000    1.1345014    -7.227438    266.14158    0.0327116  0.033251404            1 
  679000    1.1306915   -7.1848398    267.43343  0.032821972  0.033243275            1 
  680000    1.1105334   -7.2208055    267.88455  0.032828989  0.033235086            2 
  681000    1.1381793   -7.2216849    267.95225  0.032789066  0.033227357            1 
  682000    1.1300879    -7.206464    268.32511  0.032786548   0.03321935            1 
  683000    1.1414939   -7.2338226    268.45958  0.032754952  0.033211173            2 
  684000    1.1207783   -7.2314244    268.74864  0.032742281  0.033203274            1 
  685000    1.1447302   -7.2177246    269.21421  0.032751121  0.033195611            1 
  686000    1.1485735   -7.2102583    270.29144  0.032834237  0.033187752            1 
  687000    1.1355598    -7.231647    270.47977  0.032809288  0.033180263            2 
  688000     1.110178   -7.2131617     271.2085  0.032849867  0.033173225            2 
  689000    1.1150742   -7.2151635    271.70433  0.032862159  0.033166201            3 
  690000    1.1558233   -7.2204629    271.60953  0.032803083   0.03315931            1 
  691000    1.1581335   -7.2266535    272.29102  0.032837798  0.033152287            1 
  692000    1.1334652   -7.2152692    271.72607  0.032722312  0.033144766            2 
  693000    1.1320275   -7.2217694    272.19546  0.032731537  0.033137183            2 
  694000    1.1555664   -7.2001548    273.31979   0.03281938  0.033130245            1 
  695000    1.1487106   -7.1504528    272.55727  0.032680728  0.033122634            1 
  696000    1.1503092   -7.2019146     273.5754  0.032755675  0.033115344            4 
  697000    1.1345788   -7.1978159    273.82271  0.032738248  0.033107767            2 
  698000    1.1788387   -7.2016225    273.47914  0.032650327  0.033100006            1 
  699000    1.1576941   -7.2245436    273.85686  0.032648648  0.033091679            2 
  700000     1.146621   -7.1930117    274.68433  0.032700515  0.033083806            2 
  701000    1.1413765   -7.2366655    274.88592  0.032677832  0.033076037            2 
  702000    1.1539967   -7.2287045    275.47883  0.032701666  0.033068222            1 
  703000    1.1551324   -7.2466433    275.53845  0.032662216  0.033060358            1 
  704000    1.1599104   -7.2582856    275.91972  0.032660952  0.033052596            1 
  705000    1.1482154   -7.2557105    275.77737  0.032597798  0.033044783            2 
  706000    1.1430158   -7.2053627    276.52425  0.032639784  0.033036812            1 
  707000    1.1272461   -7.2123545    277.14887   0.03266724  0.033029186            2 
  708000    1.1609689   -7.2139615     277.4458   0.03265605  0.033021561            1 
  709000    1.1466101   -7.2354744     278.3067  0.032711177  0.033014262            1 
  710000    1.1498232   -7.2645099    276.99254  0.032510861  0.033006749            1 
  711000    1.1388962   -7.2226135     278.6842  0.032663408   0.03299922            3 
  712000    1.1439013   -7.2428903    279.40593  0.032702005  0.032992095            1 
  713000    1.1199982   -7.2594093    278.74701  0.032579127  0.032985062            7 
  714000    1.1251698   -7.2537068    278.95396  0.032557652  0.032977756            1 
  715000    1.1148002   -7.2220437    280.05734  0.032640716  0.032970153            1 
  716000    1.1517663   -7.2138089    279.59897   0.03254178  0.032962778            2 
  717000     1.134354   -7.2646031    279.70206  0.032508376  0.032955467            1 
  718000    1.1378495     -7.25205    280.98491  0.032611991  0.032948318            4 
  719000    1.1291509   -7.2439311    282.22263  0.032710087  0.032941369            2 
  720000    1.1126306   -7.2081341    282.67125   0.03271658  0.032934499            2 
  721000    1.1538483   -7.2214773    281.79037  0.032569391  0.032927671            2 
  722000    1.1720735   -7.2696365    281.93566   0.03254105  0.032920545            1 
  723000    1.1246465   -7.2346854    283.20895  0.032642802  0.032913397            2 
  724000    1.1124948   -7.2073439    283.02784  0.032576869  0.032906042            1 
  725000    1.1502322   -7.2216489    282.68664  0.032492717  0.032898783            1 
  726000    1.1378763   -7.2259724    284.05632  0.032605179   0.03289184            1 
  727000    1.1481345   -7.2348956    283.87801  0.032539891   0.03288499            1 
  728000    1.1480683   -7.2406939    285.04819  0.032629143  0.032877796            2 
  729000    1.1352117   -7.2450076    284.41918  0.032512481  0.032870448            2 
  730000    1.1112058   -7.2533986    284.53671   0.03248136  0.032863435            1 
  731000    1.1465722   -7.2662733    285.40122  0.032535479   0.03285627            4 
  732000    1.1312688   -7.2466136    286.65924  0.032634248  0.032849393            1 
  733000    1.1246173   -7.2806105    285.06443  0.032408417  0.032842227            2 
  734000     1.117213   -7.2387475    287.96741  0.032693848  0.032835344            1 
  735000    1.1506655    -7.231521    286.97018  0.032536301  0.032828304            1 
  736000    1.1265832   -7.2545621     287.1445  0.032511832  0.032821257            2 
  737000    1.1225349   -7.2244581    288.35501  0.032604591  0.032814238            2 
  738000    1.1147885   -7.1986771    287.93158    0.0325126  0.032807736            3 
  739000    1.1411655   -7.1829442    289.52449  0.032648229  0.032801311            4 
  740000    1.1274396   -7.2182033    289.86918  0.032642925  0.032794931            2 
  741000    1.1471264   -7.2648874    288.30694  0.032423183  0.032788133            4 
  742000    1.1520359   -7.2388209    289.17217  0.032476659  0.032781341            2 
  743000    1.1334341   -7.2511937    290.82681   0.03261853   0.03277503            3 
  744000    1.1293622   -7.2464811    290.74185  0.032565172   0.03276847            1 
  745000    1.1485998   -7.2158744    292.80434  0.032752164  0.032762243            2 
  746000    1.1295742   -7.2867521    291.59688  0.032573378  0.032756789            1 
  747000    1.1063488   -7.2541976     293.4585   0.03273745  0.032751605            1 
  748000    1.1251255   -7.2203681    293.45904  0.032693744  0.032746645            1 
  749000    1.1119554   -7.2477447    293.65532  0.032671931  0.032741723            1 
  750000    1.1168183   -7.2516236    294.08504  0.032676116   0.03273682            2 
  751000    1.1652479   -7.2112577    295.18785  0.032754977  0.032731692            1 
  752000    1.1116719    -7.263806    295.08354  0.032699861  0.032726818            1 
  753000    1.1097272   -7.3004328     295.0387  0.032651472   0.03272179            1 
  754000    1.1313839   -7.2502254     294.9237  0.032595457  0.032716964            1 
  755000    1.1439182   -7.2416648    296.05647  0.032677315  0.032711967            1 
  756000    1.1178477   -7.2669398    296.02788   0.03263094  0.032707384            2 
  757000     1.132369   -7.2279743    297.38702  0.032737453  0.032702169            1 
  758000    1.1383059   -7.2106698    296.93481  0.032644549  0.032696994            2 
  759000    1.1377592   -7.2579729    295.02155  0.032391475  0.032691744            2 
  760000     1.124457   -7.2603409    296.89461  0.032554233  0.032686199            2 
  761000    1.1371494   -7.2353485    297.52344  0.032580315  0.032681108            2 
  762000    1.1140933   -7.2709977    297.45709  0.032530303  0.032675787            5 
  763000    1.1318985   -7.2626835    299.26543  0.032685172  0.032670334            1 
  764000    1.1460595   -7.2640886    297.63063  0.032464074  0.032664416            1 
  765000     1.122727   -7.2474575    298.40573  0.032506071   0.03265858            1 
  766000    1.1520767   -7.2667731    298.79235  0.032505695  0.032652904            2 
  767000    1.1441946   -7.2220709     299.5621  0.032546947  0.032647078            1 
  768000    1.1228589   -7.2899521    299.10086   0.03245452  0.032641325            2 
  769000    1.1180589   -7.2536354    300.88347   0.03260549  0.032635575            2 
  770000    1.1156193   -7.2374578    300.75525  0.032549269  0.032630062            2 
  771000    1.1521562   -7.2390265     300.8018  0.032512083  0.032624873            1 
  772000    1.1112902    -7.241398    300.83771  0.032473846  0.032618973            1 
  773000    1.1210064   -7.2598177    300.59628  0.032405809  0.032612858            1 
  774000    1.0933214   -7.2734332     301.1524  0.032423816  0.032606854            4 
  775000    1.1351769   -7.2183512    302.10942  0.032484883  0.032600818            4 
  776000    1.1365065   -7.2501293    302.18668  0.032451319  0.032594827            1 
  777000    1.1275073   -7.2429449    302.51673  0.032444952  0.032588637            1 
  778000    1.1316823   -7.2488456     301.8484  0.032331663  0.032582257            1 
  779000    1.1269919   -7.2376649    303.01305  0.032414747  0.032575743            2 
  780000    1.1246919   -7.3003156    301.97416  0.032262196  0.032568606            2 
  781000     1.115594   -7.2685758    302.99306  0.032329605  0.032561722            2 
  782000    1.1211952   -7.2193391    304.17516  0.032414233  0.032554984            1 
  783000     1.119872   -7.2286533    303.51329  0.032302393  0.032548485            2 
  784000    1.0965931    -7.319935    303.00808  0.032207491   0.03254163            1 
  785000    1.1252024   -7.2395291    304.25726  0.032299073   0.03253454            1 
  786000    1.1110158   -7.2452514    304.44083  0.032277441  0.032527344            1 
  787000     1.103834   -7.2276801    303.39354  0.032125534  0.032520457            4 
  788000    1.1254791     -7.29886    304.57057   0.03220924  0.032513494            2 
  789000    1.1528946   -7.2584853     304.7649  0.032188942  0.032506387            2 
  790000    1.1197051   -7.2497541    304.77171  0.032148915  0.032499644            1 
  791000    1.1246973   -7.2566471    305.85534  0.032222434  0.032492621            1 
  792000    1.1066852   -7.2414453    306.23478  0.032221673  0.032485893            1 
  793000    1.1221426   -7.2010002    307.28736  0.032291652  0.032479181            1 
  794000     1.116939   -7.2440689    308.55214  0.032383726  0.032472425            1 
  795000    1.1301292    -7.285328    306.98401  0.032178618  0.032465548            3 
  796000    1.1531621   -7.2947352    307.15511  0.032156105  0.032458864            2 
  797000    1.1194067   -7.2582833    307.89088  0.032192689  0.032452014            1 
  798000      1.14025   -7.2179343    308.33926  0.032199171  0.032445588            2 
  799000    1.1025276   -7.2773691     307.9861  0.032122038  0.032438573            2 
  800000     1.111436   -7.1863411     309.3947  0.032228614  0.032431935            3 
  801000    1.1444937   -7.1911952    310.21965  0.032274204  0.032425415            1 
  802000    1.1225355   -7.2675291    309.77898  0.032188173  0.032418441            1 
  803000    1.1115997   -7.2253129    309.84188  0.032154616  0.032411406            1 
  804000    1.1094481    -7.275449    308.83876  0.032010651  0.032404101            1 
  805000    1.1108401   -7.2517061    310.42544  0.032135139  0.032396445            2 
  806000    1.1139276    -7.241529    310.03333  0.032054728  0.032389377            1 
  807000    1.1362236   -7.2481368    311.39204  0.032155312  0.032382429            2 
  808000    1.1225543   -7.2216981    311.18966  0.032094643  0.032375505            1 
  809000    1.1413754   -7.2598131    311.18412  0.032054401  0.032368155            1 
  810000    1.1388269   -7.2714708    311.58024   0.03205558  0.032360594            2 
  811000     1.140883   -7.2759964    311.12305  0.031969076  0.032352775            2 
  812000    1.1232743   -7.2649057    310.62936  0.031879039  0.032345053            1 
  813000     1.119832   -7.2218434    311.37125  0.031915872  0.032336982            1 
  814000    1.1121727   -7.2448215    312.13449    0.0319548  0.032328982            2 
  815000    1.1152923   -7.2690486    310.79752  0.031778888  0.032320841            1 
  816000    1.1352898   -7.2036023     313.6738   0.03203368   0.03231278            2 
  817000    1.1188259   -7.2965238    311.81062  0.031804429  0.032304433            2 
  818000    1.1152965   -7.2837392    313.55643  0.031943402  0.032296478            1 
  819000     1.113369   -7.2921129    312.74835  0.031822177  0.032288362            1 
  820000    1.1126082   -7.2710981    313.89398  0.031899795  0.032280163            1 
  821000    1.1148507   -7.2352104     314.9018  0.031963236  0.032272031            5 
  822000    1.1337387   -7.2851615    313.97901    0.0318308  0.032264068            1 
  823000    1.1022311   -7.2496327    315.02863  0.031898403  0.032255916            2 
  824000     1.127442   -7.2068229    315.48579  0.031905925  0.032247896            1 
  825000    1.1189379   -7.2788192     315.8718  0.031906243  0.032239973            1 
  826000     1.131933    -7.228215     315.2938  0.031809302  0.032232073            2 
  827000    1.1399072   -7.2471729    315.16227  0.031757585  0.032223858            2 
  828000    1.1250746   -7.3018139     315.7317   0.03177654  0.032215686            2 
  829000    1.1253823   -7.2757073    315.99326  0.031764501  0.032207048            1 
  830000    1.1180461   -7.2582009    316.63724  0.031790888   0.03219842            2 
  831000    1.1275639   -7.2504309    316.93079  0.031782068  0.032190239            2 
  832000    1.1195905     -7.28487    316.73483  0.031724242  0.032181924            1 
  833000    1.0927955   -7.2433788    318.38281  0.031851021  0.032173711            1 
  834000    1.1219226   -7.2645938    317.23413  0.031698055  0.032165485            2 
  835000    1.1232013   -7.2984544    315.89207  0.031526154  0.032157185            2 
  836000    1.1387411   -7.2712003    318.57672  0.031756053  0.032149158            2 
  837000    1.1071203   -7.2466911    318.24359  0.031684945  0.032140952            1 
  838000    1.1325132   -7.2379231    319.01776  0.031724121  0.032132311            1 
  839000      1.12087   -7.2722176    318.85478  0.031670121  0.032123574            1 
  840000    1.1258147   -7.2861737    318.15749  0.031563243  0.032114955            1 
  841000    1.0973738   -7.2680252    319.06414  0.031615551  0.032106235            1 
  842000    1.1401668   -7.2998511    317.58428   0.03143154  0.032097169            2 
  843000    1.1222034    -7.307784    319.08985  0.031543086  0.032088339            3 
  844000    1.1168867    -7.289743     320.5533  0.031650207  0.032079481            3 
  845000    1.1153426   -7.2867982    319.17078  0.031476408  0.032070577            1 
  846000    1.1236567   -7.2656072    320.89495  0.031609038  0.032062096            3 
  847000    1.1172839    -7.255669    321.42502   0.03162387  0.032053403            1 
  848000    1.1440256    -7.297793    321.03031  0.031547789  0.032044504            3 
  849000    1.0987565   -7.3055162    320.98394   0.03150608   0.03203568            1 
  850000    1.1262072   -7.2400029    322.78718  0.031645802  0.032027204            2 
  851000     1.090951   -7.2642145    323.53821   0.03168216  0.032018902            2 
  852000    1.1128229   -7.2488961    323.65609  0.031656504  0.032010433            1 
  853000    1.1163788   -7.2890988    323.52215  0.031606307  0.032002095            2 
  854000    1.1262773   -7.2892999    322.99921  0.031518268  0.031993772            2 
  855000    1.1067851   -7.2216258     324.9088  0.031667524  0.031985631            2 
  856000    1.0962399    -7.248576    324.60723  0.031601172  0.031977469            1 
  857000    1.1080089   -7.2837599    324.71937  0.031575201  0.031968597            1 
  858000     1.107524   -7.2522599    324.45063  0.031512299  0.031959872            2 
  859000    1.1221048   -7.2779147    325.30108  0.031558118  0.031951331            2 
  860000    1.1073739   -7.2925721    324.02745  0.031398009  0.031942517            2 
  861000    1.0861083   -7.2438862    325.25319  0.031480178  0.031933685            2 
  862000    1.1373453   -7.3108565    324.50291  0.031371124   0.03192478            2 
  863000     1.115786   -7.2877551    325.59427  0.031440157  0.031915566            4 
  864000    1.1052854   -7.3028855     325.0004   0.03134649  0.031906359            1 
  865000    1.1286593    -7.286585     324.9226  0.031302755  0.031897143            2 
  866000    1.1217695   -7.2722686    326.58937  0.031426999  0.031887971            1 
  867000    1.1276849   -7.2808197    325.73024  0.031308173  0.031879059            1 
  868000    1.1149104   -7.3105486    325.54797  0.031254605  0.031869468            1 
  869000    1.1182622   -7.2977225    325.88611  0.031251065  0.031860135            2 
  870000    1.1146586   -7.2831269    327.07224  0.031328759  0.031850713            3 
  871000    1.1150202    -7.236208    327.34731  0.031319108  0.031841576            3 
  872000    1.0959575   -7.2782117    326.85267   0.03123592   0.03183204            3 
  873000    1.1429152   -7.2911353    326.80708  0.031195789  0.031822449            1 
  874000    1.1034215   -7.3097485     327.6083  0.031236489  0.031812886            1 
  875000    1.1154056   -7.2506859    328.26055   0.03126291  0.031803232            2 
  876000    1.1181848   -7.2775841    329.07543   0.03130474  0.031793797            1 
  877000    1.1353546   -7.2637254    329.29708  0.031290106   0.03178452            1 
  878000    1.1089578   -7.2518829    329.39377  0.031263646  0.031775099            2 
  879000    1.1393637   -7.3032893    328.58998  0.031151875  0.031766023            3 
  880000    1.1221923   -7.2643692    329.85232  0.031236015  0.031756678            2 
  881000    1.1274156   -7.2698091    330.38645  0.031251083  0.031747359            1 
  882000    1.1379178   -7.3012711    329.31712  0.031114618  0.031738038            2 
  883000    1.1146123   -7.2826188    330.36504  0.031178278  0.031728611            1 
  884000    1.1065607   -7.2728606    331.14957  0.031216965  0.031719355            1 
  885000     1.112761   -7.2686501    330.89384  0.031157612   0.03170994            2 
  886000    1.1229347   -7.2738782    331.30796  0.031161396  0.031700177            1 
  887000    1.1379249   -7.2894259    331.04396  0.031101462  0.031690671            1 
  888000    1.1019107   -7.3075724    331.77797   0.03113532    0.0316811            2 
  889000     1.111745   -7.2492961     333.2782  0.031240926  0.031671929            1 
  890000    1.1174537   -7.3257982    331.60099  0.031048782  0.031662194            1 
  891000    1.1147244   -7.2883404    333.73945   0.03121394  0.031652595            1 
  892000    1.1309857   -7.2949585    332.84505  0.031095389  0.031643321            2 
  893000    1.1320151   -7.2846523    334.03775  0.031171869  0.031634178            2 
  894000    1.1085426   -7.2994601    333.16631  0.031055771  0.031624986            1 
  895000    1.1340639   -7.2719715    334.73861  0.031167469  0.031615786            2 
  896000    1.1144875   -7.2787513    335.32962   0.03118765   0.03160687            1 
  897000    1.1202461   -7.3366349    333.66485  0.030998221  0.031597824            2 
  898000    1.1227051   -7.3121261     335.3348  0.031118671  0.031588499            1 
  899000    1.1097234    -7.291469    334.23175  0.030981809  0.031579102            5 
  900000    1.1309331   -7.3269517    334.39005  0.030962041  0.031569546            6 
  901000    1.0821036    -7.283046    335.83508  0.031061328  0.031560252            2 
  902000    1.0911576   -7.3098551    335.52688  0.030998418  0.031551004            1 
  903000    1.1038751   -7.2844069    336.29392  0.031034877  0.031541474            2 
  904000    1.1324103   -7.2556966    336.48642  0.031018291  0.031532398            2 
  905000    1.1065716   -7.3298219     337.3477  0.031063324  0.031523424            2 
  906000    1.0987821   -7.2459055    337.97056  0.031086328  0.031514455            2 
  907000    1.1169551   -7.2236652    338.29537  0.031081897  0.031505401       -1e+20 
  908000    1.0997311   -7.2874191    337.98843  0.031019496   0.03149658            1 
  909000    1.1213946   -7.2973979    339.15945  0.031092725  0.031487554            1 
  910000    1.0937331   -7.2912265    338.85363  0.031030553  0.031478517            1 
  911000    1.1169499   -7.3390804    338.45197  0.030959748  0.031469369            2 
  912000    1.1003919   -7.3306089    339.22822  0.030996731   0.03146035            1 
  913000    1.1046774   -7.3074265    339.01608  0.030943417  0.031451246            3 
  914000    1.1006985   -7.2847277    340.58294   0.03105242  0.031442446            2 
  915000    1.1219154   -7.2907434     339.9913    0.0309646  0.031433539            1 
  916000    1.1011539   -7.2896256    340.45771  0.030973227  0.031424733            4 
  917000     1.113706   -7.2876918    340.86774  0.030976712   0.03141596            2 
  918000    1.1113397   -7.3122956    341.56852  0.031006583  0.031407285            1 
  919000    1.1077019   -7.2663289    341.61778  0.030977311  0.031398478            2 
  920000    1.1028421   -7.3284991    340.49888   0.03084229  0.031389715            1 
  921000    1.0939229   -7.2864587    342.91953  0.031027826  0.031380904            1 
  922000    1.1064757   -7.3077464    341.98671  0.030909862  0.031372151            3 
  923000    1.1000691   -7.2533946     343.1807  0.030984173  0.031363643            2 
  924000    1.1038049   -7.2813608    343.11286  0.030944522  0.031355064            1 
  925000    1.1063334   -7.2862011    343.81567  0.030974384  0.031346675            1 
  926000    1.1101449   -7.3013652    343.77997  0.030937723  0.031338081            3 
  927000    1.1157486   -7.2631716    345.64605  0.031072101  0.031329482            2 
  928000    1.0800892   -7.3183928    344.28713  0.030916588  0.031320818            2 
  929000    1.1040033   -7.3079691    345.06597  0.030953172  0.031312194            1 
  930000    1.0792623   -7.3313163    344.40298  0.030860482  0.031303461            2 
  931000    1.0634081   -7.2639899    345.97254  0.030967825  0.031294776            1 
  932000    1.1068921   -7.3507543    343.89453  0.030748795  0.031285894            2 
  933000    1.0998522   -7.3359857    345.22656  0.030834812  0.031276982            1 
  934000    1.0864371    -7.311901    346.40808  0.030907216  0.031268198            1 
  935000    1.0802619   -7.3001511    345.68392  0.030809618  0.031259668            1 
  936000    1.0957588   -7.2919974    346.50703  0.030849985  0.031250997            2 
  937000    1.1130043   -7.3026444    346.74888  0.030838569   0.03124257            1 
  938000    1.0878454   -7.2650965    347.76721  0.030896163  0.031234048            1 
  939000    1.1015619    -7.237422    347.44748  0.030834885  0.031225611            2 
  940000    1.0950299   -7.3230623    347.69996  0.030824465  0.031217221            1 
  941000     1.103643    -7.288079    348.51023  0.030863464  0.031208825            1 
  942000    1.1070856   -7.2869009    349.52296   0.03092029  0.031200233            1 
  943000    1.1299196   -7.2964694    347.79384  0.030734698  0.031191936            1 
  944000    1.0978558   -7.2911812    348.45778   0.03076075  0.031183354            2 
  945000    1.0918657   -7.3171748    348.57244   0.03073831  0.031174775            2 
  946000    1.0963481   -7.2905439    348.53436  0.030702463  0.031166131            2 
  947000    1.0793687   -7.3080729    348.72155  0.030686515  0.031157481            1 
  948000     1.064843   -7.3512649    348.01842  0.030592336  0.031148396            2 
  949000    1.1067768   -7.3045622    349.27321  0.030670286  0.031139175            1 
  950000    1.0984464   -7.3141339    349.34573  0.030644363  0.031130248            2 
  951000     1.093461   -7.2781461    351.81589  0.030828591  0.031121726            2 
  952000    1.1258237   -7.2926169    350.62295  0.030691785  0.031112943            2 
  953000    1.1077464   -7.3118845    351.14605  0.030705321  0.031103926            2 
  954000    1.1074622   -7.3590144    349.33499  0.030514936   0.03109509            1 
  955000    1.1324919    -7.303388    350.62637   0.03059567  0.031085963            1 
  956000    1.0993141   -7.3004609    350.62245  0.030563324  0.031076566            1 
  957000    1.0756413   -7.3110459     350.5395  0.030524164  0.031067343            3 
  958000    1.0987824   -7.3354619    352.39944  0.030654092   0.03105817            1 
  959000    1.1132015   -7.2791152     353.5817  0.030724861  0.031049218            1 
  960000    1.0979724   -7.3393119    352.14095   0.03056779  0.031040496            2 
  961000     1.078453   -7.3660509    353.63079  0.030665174  0.031031822            2 
  962000    1.1058331   -7.3258553    353.54114  0.030625532  0.031023076            2 
  963000    1.1005922    -7.330006    353.70661  0.030608049  0.031014323            2 
  964000    1.0886314   -7.3108673    354.96084   0.03068472  0.031005627            1 
  965000    1.1259774   -7.2964483    353.76715  0.030549841   0.03099678            1 
  966000     1.085214   -7.3773039    352.37912  0.030398475  0.030987702            2 
  967000     1.073219   -7.3253949    353.92669  0.030500404  0.030978592            2 
  968000    1.0906174   -7.3261962     355.2855  0.030585873   0.03096946            1 
  969000    1.0760458   -7.3381064    354.64262  0.030499021  0.030960577            3 
  970000    1.0957636   -7.3337547    353.87265   0.03040143  0.030951731            1 
  971000    1.1116855   -7.3023758    355.84248  0.030539176   0.03094288            2 
  972000    1.0570334   -7.3443494    355.18608  0.030451481  0.030933644            1 
  973000    1.0872537   -7.3411137    355.29735  0.030429715  0.030924145            2 
  974000    1.0811886   -7.3010128    355.69127  0.030432175  0.030914614            1 
  975000    1.1046889   -7.3451748    355.47428  0.030382417  0.030905237            2 
  976000    1.0815846   -7.3197211    355.91571  0.030388978  0.030896177            3 
  977000    1.1020842    -7.315533    356.32333  0.030392642  0.030886979            1 
  978000    1.0946819    -7.338884    356.78065  0.030400533  0.030877595            2 
  979000    1.0758997   -7.3595922    355.48883  0.030259519  0.030868193            1 
  980000    1.0978374   -7.2855732    358.00921   0.03044296  0.030859037            1 
  981000    1.1084717   -7.2952744    358.01462  0.030412387  0.030849896            1 
  982000    1.1015443   -7.3476809    358.06721   0.03038588  0.030840689            1 
  983000    1.1127887   -7.3412253    358.72137  0.030410425  0.030831761            1 
  984000     1.085649   -7.3128669    359.90327  0.030479613  0.030822903            1 
  985000    1.1034115   -7.3207412    357.20825  0.030220664  0.030813888            1 
  986000    1.0937533   -7.3236127    358.68344  0.030314693   0.03080449            1 
  987000     1.120226   -7.3243069    359.82438  0.030380309  0.030795275            1 
  988000    1.0871293   -7.3442921    359.50076  0.030322263  0.030785871            3 
  989000    1.0768833   -7.2989513    361.43107  0.030454253  0.030776642            1 
  990000    1.1063272   -7.3593314    360.32092  0.030330044  0.030767515            4 
  991000    1.0730612   -7.3496852       360.64  0.030326269  0.030758297            1 
  992000    1.1008694    -7.315258    361.33437  0.030354029  0.030749105            2 
  993000    1.0795295   -7.3170311    361.41491  0.030330221   0.03074028            1 
  994000    1.0723526   -7.3192406     361.6279  0.030317564  0.030731432            1 
  995000     1.084567   -7.2916755    361.98574  0.030317064  0.030722606            1 
  996000    1.1078629    -7.314534     363.1178  0.030381342  0.030713671            1 
  997000    1.0910099   -7.3535692    362.32729  0.030284795  0.030704607            1 
  998000    1.1098826   -7.3601109    362.97658  0.030308666  0.030695648            2 
  999000    1.0791999   -7.3313611    364.05123  0.030367971  0.030686899            1 
 1000000     1.110648    -7.358462    362.98649  0.030248874  0.030678665            1 
 1001000    1.0961075   -7.3680264    364.67231     0.030359  0.030670198            1 
 1002000     1.089993   -7.3132994    365.64706  0.030409769  0.030661919            1 
 1003000    1.1089973   -7.3244034     366.6576   0.03046341  0.030654041            1 
 1004000    1.1115351    -7.344603     366.0272  0.030380744  0.030645777            1 
 1005000    1.0679995   -7.3359853    365.18679  0.030280829  0.030637438            1 
 1006000    1.0939179    -7.336277    366.38925  0.030350336   0.03062898            1 
 1007000    1.0873926   -7.3294762    366.34224  0.030316306  0.030620841            4 
 1008000    1.0768774   -7.3146955    366.19259  0.030273859  0.030612405            1 
 1009000    1.0833627   -7.3362791     367.1172  0.030320218  0.030604066            1 
 1010000    1.0825539   -7.2893064    368.71103  0.030421702  0.030595891            2 
 1011000    1.0621369   -7.3334884    367.51017  0.030292628  0.030587726            2 
 1012000    1.0947725    -7.336446    367.81703  0.030287964  0.030579815            2 
 1013000    1.0767156   -7.3028961    370.19842  0.030453966  0.030571775            2 
 1014000    1.0729017   -7.3212413    368.32531  0.030269995  0.030563881            1 
 1015000      1.07117    -7.355806    369.29138  0.030319489  0.030555839            2 
 1016000    1.0961338   -7.3296872    369.33046  0.030292853  0.030547964            1 
 1017000    1.0869224   -7.3243262    369.62844  0.030287483  0.030539867            1 
 1018000     1.083169    -7.347906    370.02782  0.030290424  0.030531831            1 
 1019000    1.0856495   -7.3448155    368.89424  0.030167995  0.030523559            4 
 1020000    1.0866045   -7.3281129    370.25578  0.030249655  0.030515326            3 
 1021000    1.1055636   -7.3427576    370.63664  0.030251113  0.030506974            2 
 1022000    1.0699073   -7.3483419    370.36212  0.030199129  0.030498761            2 
 1023000    1.0867349   -7.3027749    370.55285  0.030185146  0.030490365            2 
 1024000    1.0764135   -7.2900232     370.7208  0.030169336  0.030481778            1 
 1025000    1.0980123   -7.3816744    370.58702  0.030129026  0.030473315            1 
 1026000    1.0832543   -7.3190135    371.23098  0.030151964  0.030464581            2 
 1027000    1.0667408   -7.3508255    371.70306   0.03016091  0.030455992            2 
 1028000    1.1035358   -7.3197006    372.64037  0.030207553  0.030447619            2 
 1029000     1.092029   -7.3461141    372.10039  0.030134466  0.030439426            2 
 1030000    1.0946861   -7.3300218    373.37907  0.030208662   0.03043098            1 
 1031000    1.0970544   -7.3574687    371.87149  0.030057508  0.030422594            2 
 1032000    1.0992388   -7.3284495    371.82027  0.030024247  0.030414071            2 
 1033000    1.0867452   -7.3601827    372.98195  0.030088896  0.030405425            3 
 1034000    1.0900629   -7.3211643    373.85451  0.030130119  0.030396895            2 
 1035000    1.0853212   -7.3593002    372.53217  0.029994538  0.030388352            1 
 1036000     1.098581   -7.3329514    373.89765  0.030075423  0.030380005            1 
 1037000    1.0906461   -7.3272037    373.59702  0.030022261  0.030371526            2 
 1038000     1.080108     -7.36072    375.16239   0.03011901  0.030363097            3 
 1039000    1.0752613   -7.3784367    374.34483  0.030024449  0.030354523            1 
 1040000    1.1085506   -7.3489316    375.44303  0.030083576  0.030345895            1 
 1041000    1.0770225   -7.3478286     374.9074    0.0300118  0.030337309            4 
 1042000    1.0918651   -7.3455498    375.25105  0.030010481  0.030328864            5 
 1043000    1.0698017   -7.3297428    374.22904  0.029900051  0.030320403            1 
 1044000    1.0989464   -7.3646348    375.48244  0.029971459  0.030311824            1 
 1045000     1.097379    -7.356121    375.32213  0.029929994  0.030303175            1 
 1046000    1.0783649   -7.3509058     376.5041  0.029995546  0.030294515            2 
 1047000    1.0691696   -7.3170541     377.3378  0.030033254  0.030286147            1 
 1048000    1.0881468   -7.3219385     377.6143  0.030026582  0.030277986            1 
 1049000    1.0699376   -7.3525822    377.79751  0.030012513  0.030269401            1 
 1050000    1.0909649   -7.4035588     376.1506  0.029853222  0.030260674            2 
 1051000    1.0727851   -7.3673632    376.86505  0.029881466  0.030251838            3 
 1052000    1.0929343   -7.3372935     376.2896  0.029807478   0.03024293            2 
 1053000    1.0578389   -7.3411561    378.46901  0.029951647  0.030233904            1 
 1054000    1.1085905   -7.3405839    377.36646  0.029836058  0.030225033            2 
 1055000     1.075914   -7.3422792    376.93387  0.029773607  0.030216104            3 
 1056000    1.0617165   -7.3847123    377.36471  0.029779412  0.030206879            1 
 1057000    1.0757864   -7.3453227     378.1502  0.029813166  0.030198049            4 
 1058000    1.0899345   -7.3447687    378.05577   0.02977755  0.030189143            2 
 1059000    1.0719587   -7.3712362    378.36143  0.029773484  0.030180162            3 
 1060000      1.11857   -7.3307782    379.68209  0.029849221  0.030171348            2 
 1061000    1.0793771   -7.3181118    379.96193  0.029843067  0.030162647            3 
 1062000    1.0805342   -7.3138798    380.76847  0.029878254  0.030154062            1 
 1063000    1.0701505   -7.3956912    379.13826  0.029722347  0.030145307            1 
 1064000     1.093842   -7.3578586    380.18756  0.029776594   0.03013661            1 
 1065000    1.0820902   -7.3529455    380.47929  0.029771462   0.03012769            1 
 1066000    1.0863284   -7.3421313    379.36768  0.029656635  0.030118831            2 
 1067000    1.0727341   -7.3511759    381.66351  0.029808147  0.030109925            2 
 1068000    1.0974012   -7.3660986    380.88368  0.029719388  0.030101032            2 
 1069000    1.0834553    -7.331327    382.18844  0.029793299  0.030092277            3 
 1070000    1.0725196   -7.3050758    382.20641  0.029766854  0.030083702            3 
 1071000    1.1084211   -7.2885879    382.59083  0.029768973  0.030074894            1 
 1072000    1.0968134   -7.3686248    381.40262  0.029648835  0.030066177            4 
 1073000    1.0549325   -7.3764682    382.85144  0.029733725  0.030057184            1 
 1074000    1.0951791   -7.3711387    381.86082  0.029629176  0.030048277            1 
 1075000    1.0781492   -7.3794379    382.41536  0.029644602  0.030039196            3 
 1076000    1.0903681    -7.368219    383.39587  0.029692989  0.030030098            1 
 1077000    1.0905824   -7.4132811    380.58013   0.02944755  0.030021024            1 
 1078000    1.0722997   -7.3588263    382.66862  0.029581681  0.030011768            3 
 1079000    1.1006915   -7.3863724    382.83724  0.029567288  0.030002631            3 
 1080000     1.074049   -7.3159555    384.12302  0.029639122   0.02999365            1 
 1081000    1.0760645   -7.4095715    382.42042  0.029480452  0.029984797            2 
 1082000    1.0782272    -7.322897    383.36674  0.029526089  0.029975755            1 
 1083000    1.0649885    -7.355877    383.27474  0.029491747  0.029966767            1 
 1084000    1.0797341   -7.3976401    384.15932  0.029532543  0.029957476            1 
 1085000    1.0843223    -7.387062    385.57668  0.029614184  0.029948331            1 
 1086000    1.0737598   -7.3831317    384.05212   0.02946993  0.029939194            2 
 1087000    1.0976843   -7.3566362    384.48324  0.029475869  0.029929761            1 
 1088000    1.0618683   -7.3721412    385.03491  0.029491032  0.029920424            2 
 1089000    1.0670318    -7.369578    385.00011  0.029461288  0.029911117            2 
 1090000    1.0681396    -7.353605     385.4241  0.029466674  0.029901754            1 
 1091000    1.0701383   -7.3413805    385.81432  0.029469472   0.02989246            1 
 1092000    1.0907699   -7.3528404     385.3293  0.029405471  0.029883094            2 
 1093000    1.0463991   -7.3828353     384.9469  0.029349413   0.02987352            1 
 1094000    1.0811453    -7.393008    385.10393  0.029334546  0.029863906            3 
 1095000    1.0912712   -7.3201986    387.10837  0.029460302  0.029854271            2 
 1096000    1.0589417   -7.3625818    386.15199  0.029360705  0.029844905            2 
 1097000    1.0604065   -7.3852946    387.58682  0.029442937  0.029835587            1 
 1098000    1.0784416   -7.4180068    386.58552  0.029340127  0.029826274            1 
 1099000    1.0816625   -7.3562352    388.87013  0.029486665  0.029817305            2 
 1100000     1.099379   -7.3788344     387.0103  0.029318962  0.029808327            2 
 1101000    1.0890178   -7.3806695    386.98596  0.029290491  0.029799175            1 
 1102000    1.1011816   -7.3793346    389.07549  0.029421922  0.029790296            1 
 1103000     1.074309   -7.4255894    388.02136  0.029315606  0.029781116            1 
 1104000    1.0688463     -7.36015    388.96702  0.029360433     0.029772            2 
 1105000     1.054047    -7.339603    389.23146  0.029353806  0.029762952            1 
 1106000    1.0626882   -7.3791225    387.94059  0.029230002  0.029753749            1 
 1107000    1.0812896   -7.3782239    389.80136  0.029343673  0.029744549            3 
 1108000    1.0853373    -7.349822    390.60063  0.029377304  0.029735555            1 
 1109000    1.0751665   -7.3534888    390.60185  0.029350906  0.029726723            1 
 1110000    1.0781805   -7.3500816    390.52236  0.029318495  0.029717686            1 
 1111000     1.083684   -7.3474738    392.50545  0.029440853  0.029708876            3 
 1112000    1.0817358   -7.3690902    390.92689   0.02929608  0.029699998            1 
 1113000    1.0589896   -7.3450812    391.50202   0.02931282  0.029690923            9 
 1114000    1.0658403   -7.3919829    390.87824  0.029239845  0.029681861            2 
 1115000    1.0702745   -7.3727089    391.97557  0.029295633  0.029672927            3 
 1116000    1.0684253   -7.3701675    391.50901  0.029234544  0.029663884            3 
 1117000    1.0659398   -7.3330949     393.2726  0.029339944  0.029654773            1 
 1118000     1.083497   -7.3882865    392.02955  0.029221046  0.029645719            2 
 1119000    1.0706236   -7.3634747    392.98923  0.029266401  0.029636796            1 
 1120000    1.0854113   -7.3546723      394.503  0.029352902  0.029627849            2 
 1121000    1.0822183   -7.3708304    394.14083  0.029299794  0.029619223            2 
 1122000     1.070739   -7.3577626    394.70555  0.029315623  0.029610312            1 
 1123000    1.0749549   -7.3498222    393.90276  0.029229947  0.029601321            1 
 1124000    1.0583874   -7.4274318    394.63998  0.029258599  0.029592272            2 
 1125000     1.058246   -7.3381127    394.20473   0.02920035  0.029583394            1 
 1126000    1.0495583   -7.3621274    396.46394  0.029341618  0.029574586            2 
 1127000    1.0607625   -7.3429675    395.86079  0.029270984  0.029565735            3 
 1128000    1.0839823   -7.3792291     395.0031  0.029181671  0.029556821            2 
 1129000    1.0915183   -7.4082247    395.60353  0.029200143  0.029548094            2 
 1130000    1.0788861    -7.331281    396.42134  0.029234612  0.029539141            1 
 1131000    1.0469561   -7.3478138    396.90826  0.029244641  0.029530518            2 
 1132000    1.0975513   -7.4037694    397.17859  0.029238706  0.029521774            2 
 1133000    1.0553017   -7.3279712    399.30456  0.029369267  0.029513259            1 
 1134000    1.0537887    -7.366509    398.52647   0.02928619  0.029504855            1 
 1135000    1.0612963   -7.3964371    397.74254   0.02920283  0.029496614            1 
 1136000    1.0563425     -7.38746    398.37538  0.029223546   0.02948818            1 
 1137000    1.0976091   -7.3786324    399.31604  0.029266787  0.029479766            2 
 1138000    1.0566208   -7.4163798    399.55373  0.029258475    0.0294715            1 
 1139000    1.0767991   -7.4046131    399.61714  0.029237426  0.029463289            2 
 1140000    1.0719704   -7.3862369    399.66758  0.029215466  0.029455057            1 
 1141000     1.055586   -7.3746075     402.1397  0.029370413  0.029446936            4 
 1142000    1.0757422   -7.3188096    401.92247  0.029328844  0.029439032            1 
 1143000     1.057118   -7.3719437    402.29434  0.029330296  0.029431155            1 
 1144000    1.0767428   -7.3989394    402.45376   0.02931627  0.029423134            2 
 1145000    1.0679692   -7.4042211    401.99883  0.029257556  0.029415051            2 
 1146000      1.06668   -7.3786937    402.32934   0.02925606  0.029407066            2 
 1147000    1.0572447    -7.358017    402.22064  0.029222657  0.029399086            1 
 1148000    1.0891773   -7.3558727    402.95029  0.029250166  0.029391395            2 
 1149000    1.0824258   -7.3989078    401.99177  0.029155191  0.029383529            1 
 1150000    1.0472464    -7.404492    402.14509  0.029140948  0.029375656            1 
 1151000    1.0733269   -7.3875841    402.37512  0.029132285  0.029367813            2 
 1152000    1.0491426   -7.4035922    404.06396  0.029229164  0.029360059            1 
 1153000    1.0662548    -7.375024     403.8907   0.02919129  0.029352239            2 
 1154000    1.0886492   -7.4214947    403.96364  0.029171262  0.029344215            2 
 1155000    1.0560009    -7.404493    403.36304  0.029102672  0.029336151            3 
 1156000    1.0762423   -7.3620042     405.3029  0.029217337   0.02932821            1 
 1157000    1.0738573    -7.399637    403.32216  0.029049421  0.029320241            2 
 1158000    1.0635803   -7.3638106    405.58671  0.029187299   0.02931239            3 
 1159000    1.0880687   -7.4008276    405.06809  0.029124826  0.029304485            1 
 1160000    1.0721818   -7.4236198    404.55186  0.029062634  0.029296531            6 
 1161000    1.0628032   -7.3679294    407.05318  0.029217139  0.029288669            1 
 1162000    1.0705073   -7.4260603    405.32498  0.029068056  0.029280714            2 
 1163000    1.0598676   -7.3997702     406.0032   0.02909166   0.02927283            1 
 1164000    1.0725452   -7.3701496    406.29186  0.029087333  0.029264966            3 
 1165000    1.0729232   -7.3963735    406.10839  0.029049241  0.029257003            1 
 1166000    1.0909508   -7.3807332    407.48884  0.029122987  0.029249281            1 
 1167000    1.0746972   -7.4003817    408.14768  0.029145079   0.02924155            1 
 1168000     1.083129    -7.386262    408.79111  0.029166033   0.02923397            1 
 1169000    1.0775403    -7.387531    409.30282  0.029177561  0.029226349            2 
 1170000    1.0456553   -7.3829847    409.28092  0.029151063  0.029218587            2 
 1171000     1.054445   -7.4298488     408.5569  0.029074644  0.029210728            1 
 1172000     1.049723   -7.3695386    410.46056  0.029185194  0.029203128            2 
 1173000    1.0865104   -7.3746823     409.9802  0.029126186  0.029195573            2 
 1174000    1.0656735   -7.4366471    409.19873  0.029045907  0.029187861       -1e+20 
 1175000    1.0737947   -7.4019148    409.70224  0.029056897  0.029180107            2 
 1176000    1.0790192   -7.3536315    410.97467  0.029122355  0.029172704            1 
 1177000    1.0716454   -7.3989219    410.60566  0.029071486  0.029165361            2 
 1178000    1.0581019   -7.3841338    412.72795  0.029196941  0.029157815            2 
 1179000    1.0759328   -7.3971186    410.96413  0.029047507  0.029150303            1 
 1180000     1.061533   -7.3814635    411.98397  0.029094913  0.029142609            2 
 1181000    1.0608207   -7.4293108    410.58346  0.028971455  0.029134897            1 
 1182000    1.0480499   -7.4131695    411.13361  0.028985731  0.029127059            2 
 1183000    1.0775746   -7.4207332    410.88299  0.028943575  0.029119354            2 
 1184000    1.0632307   -7.3959432    413.49063  0.029102662  0.029111735            1 
 1185000    1.0666183    -7.397204    411.90375  0.028966508  0.029103973            1 
 1186000     1.079839    -7.370923    413.00301  0.029019323  0.029096482            2 
 1187000    1.0623212   -7.3759167    412.46538  0.028957131   0.02908898            3 
 1188000     1.060895   -7.3807148    413.96263  0.029037782  0.029081474            2 
 1189000      1.05425   -7.4069712    413.23646  0.028962466  0.029073969            1 
 1190000    1.0694522   -7.3607842    414.62095  0.029035081  0.029066625            2 
 1191000    1.0626238    -7.418246    413.15816  0.028908351  0.029059169            2 
 1192000    1.0740257   -7.3870308     414.8071  0.028999378  0.029051706            4 
 1193000    1.0636558   -7.3846988    416.47343  0.029091466   0.02904433            1 
 1194000    1.0395289   -7.3997342     417.0009  0.029103915  0.029037092            2 
 1195000     1.065366   -7.3927504    414.85338  0.028929804  0.029029982            2 
 1196000    1.0535777   -7.4118261     415.2751  0.028934999  0.029022623            1 
 1197000     1.068494   -7.3662243    416.28764  0.028981318  0.029015086            2 
 1198000    1.0574242   -7.3788406    416.07813  0.028942552  0.029007563            2 
 1199000    1.0436007   -7.4207492    414.78079  0.028828245   0.02899971            4 
 1200000    1.0519971   -7.4166941    415.01467  0.028820463  0.028991735            2 
 1201000     1.073405   -7.4129659    415.85458  0.028854745  0.028983903            3 
 1202000    1.0743666   -7.4049767    414.17765  0.028714479  0.028976033            2 
 1203000    1.0711425   -7.3856506    416.83885  0.028874955  0.028968136            2 
 1204000    1.0469428   -7.3276434    416.43785  0.028823218  0.028960206            2 
 1205000    1.0752325   -7.3896084    416.62156  0.028812003   0.02895226            2 
 1206000    1.0732165   -7.3971741    416.83076  0.028802568  0.028944398            3 
 1207000    1.0707379   -7.3755633    417.81664  0.028846771  0.028936664            1 
 1208000    1.0354563   -7.3868359    418.03192  0.028837743  0.028928964            3 
 1209000     1.039687   -7.4399638    417.60804  0.028784673  0.028921253            2 
 1210000    1.0718301   -7.4669091     418.3759  0.028813767  0.028913551            2 
 1211000    1.0578731   -7.4604569    418.60691  0.028805871  0.028905741            1 
 1212000    1.0341336   -7.4047844    419.22002  0.028824259  0.028898204            2 
 1213000     1.068985    -7.422739    420.06342  0.028858438  0.028890635            2 
 1214000    1.0715814    -7.382844    420.17652   0.02884243   0.02888312            1 
 1215000    1.0757216   -7.4168138     420.9397  0.028871036  0.028875871            2 
 1216000    1.0302016   -7.4434845    420.25205  0.028800168  0.028868487            1 
 1217000    1.0596408   -7.4023151    422.36145  0.028920943  0.028861211            1 
 1218000    1.0752495   -7.3604415    422.24396   0.02888916  0.028854223            1 
 1219000    1.0288538   -7.4319233    422.46259  0.028880406  0.028846994            2 
 1220000     1.043504   -7.4395751    422.11991  0.028833327  0.028839739            2 
 1221000    1.0344157   -7.4189181    422.25102  0.028818661  0.028832617            1 
 1222000    1.0585029    -7.434947    422.03123  0.028780089  0.028825456            1 
 1223000    1.0781044   -7.4218164    423.40846  0.028850399  0.028818398            3 
 1224000    1.0696091   -7.4405379    422.78632  0.028784471  0.028811233            2 
 1225000    1.0548268   -7.3977055    426.39024  0.029006139  0.028804176            3 
 1226000    1.0524199   -7.3811561    424.84733  0.028877606  0.028797329            2 
 1227000    1.0584288    -7.382957     424.0302  0.028798574  0.028790211            1 
 1228000      1.07074    -7.399207    424.23551  0.028789055  0.028783171            1 
 1229000    1.0830712   -7.4139383    424.79928  0.028803857  0.028776193            2 
 1230000    1.0438302   -7.3743716    426.18922  0.028874608  0.028769206            1 
 1231000    1.0470119   -7.3733008    424.92776  0.028765757  0.028762114            2 
 1232000    1.0570115   -7.4102147    424.64086  0.028723002  0.028755139            2 
 1233000    1.0787422   -7.4224475    425.63299  0.028766761  0.028748105            1 
 1234000    1.0491897   -7.4316504    425.63018  0.028743259  0.028740906            1 
 1235000     1.060656   -7.4226054    426.48186  0.028777453  0.028734167            2 
 1236000    1.0677202   -7.3966065    426.50607  0.028755803  0.028727141            2 
 1237000    1.0745662   -7.4167981    426.02619  0.028700228  0.028720044            3 
 1238000    1.0407792   -7.4343126     426.5539  0.028712567  0.028712809            1 
 1239000    1.0562312   -7.4301417    426.58798  0.028691686   0.02870552            1 
 1240000    1.0652046   -7.3963997    427.38046  0.028721805  0.028698117            1 
 1241000    1.0605203   -7.4253575    427.15261  0.028683361  0.028690829            1 
 1242000    1.0435622   -7.4078283    427.37508  0.028675193  0.028683689            1 
 1243000    1.0568412   -7.4238391    427.85336  0.028684189  0.028676491            3 
 1244000    1.0556651   -7.4523854    427.14347  0.028613576  0.028669372            1 
 1245000    1.0527938   -7.4145234    427.90484  0.028641555  0.028662197            2 
 1246000    1.0647214   -7.4261318    428.86652  0.028682886  0.028654992            3 
 1247000    1.0468594   -7.4123977    430.00167  0.028735744  0.028647922            1 
 1248000    1.0774408   -7.4265592    429.52942  0.028681185  0.028640887            3 
 1249000    1.0636707   -7.4336108     429.9338  0.028685202  0.028633864            1 
 1250000    1.0430531   -7.4270605    428.76141  0.028584094  0.028626813            1 
 1251000    1.0747401   -7.4672217    428.19707  0.028523653  0.028619699       -1e+20 
 1252000    1.0336668   -7.4450556    429.58239  0.028593077  0.028612545            1 
 1253000    1.0631847   -7.4358223    429.73161  0.028580182  0.028605444            3 
 1254000    1.0336271   -7.4574637    429.41856  0.028536587  0.028598479            1 
 1255000    1.0127159    -7.404159    432.64325  0.028727972  0.028591492            1 
 1256000    1.0552847   -7.3964502    432.66169  0.028706322   0.02858492            1 
 1257000    1.0642763   -7.4331748    432.50153  0.028672867   0.02857822            1 
 1258000    1.0443371   -7.4486459    432.04535  0.028619856  0.028571275            2 
 1259000    1.0422498   -7.4489491    430.39728  0.028488038  0.028564292            2 
 1260000    1.0497468   -7.4291364    432.65198  0.028614549  0.028557273            2 
 1261000    1.0352329   -7.4221125    434.38438  0.028706343   0.02855045            1 
 1262000    1.0599323   -7.4210813    432.95399  0.028589144  0.028543642            2 
 1263000    1.0433661   -7.4575211    432.89888  0.028562872  0.028536909            1 
 1264000    1.0395063   -7.4155571    433.53745  0.028582374  0.028529991            3 
 1265000    1.0609819   -7.4418364    433.88646  0.028582771   0.02852317            3 
 1266000    1.0650047   -7.4602148    432.94019  0.028497906  0.028516038            2 
 1267000     1.053637   -7.4568251    433.06396  0.028483554  0.028509041            2 
 1268000    1.0461989   -7.4397099    433.00548  0.028457248  0.028501974            1 
 1269000     1.054176   -7.4247976    435.50048  0.028598665  0.028494868            1 
 1270000    1.0377819   -7.4179079    434.59126  0.028516487   0.02848781            1 
 1271000    1.0583935   -7.4170706    433.43114  0.028417987  0.028480685            1 
 1272000    1.0424419   -7.3895439    435.33175  0.028520162  0.028473654            1 
 1273000    1.0245566   -7.4359059    434.51397  0.028444224  0.028466731            1 
 1274000    1.0578593   -7.4457839    434.62076  0.028428882  0.028459644            3 
 1275000    1.0538154   -7.4332794    435.54969    0.0284673   0.02845259            2 
 1276000    1.0581572   -7.4086874    436.53093  0.028509074  0.028445445            1 
 1277000    1.0484216   -7.4677231    435.93064  0.028447575  0.028438457            2 
 1278000    1.0301949   -7.4272518    437.20934  0.028508695  0.028431257            3 
 1279000     1.040677   -7.4332123    436.65323  0.028450171  0.028424216            4 
 1280000    1.0503227   -7.4380186    436.41853  0.028412665  0.028417329            2 
 1281000     1.069975   -7.4476327    437.10478  0.028435128  0.028410437            1 
 1282000    1.0409528    -7.449883    436.00159  0.028341237  0.028403526            1 
 1283000    1.0697687   -7.4995541    436.50894    0.0283521  0.028396384            4 
 1284000    1.0340793   -7.4593519    436.64359  0.028338758   0.02838924            2 
 1285000     1.062371   -7.4370791    437.45199  0.028369131  0.028382259            2 
 1286000    1.0367373   -7.4418688    438.68302  0.028426842  0.028375278            1 
 1287000    1.0539602    -7.419874    440.94202  0.028551024  0.028368498            2 
 1288000    1.0756676   -7.4605515    438.99885  0.028403135  0.028361694            3 
 1289000    1.0575268    -7.454258    439.20541  0.028394454  0.028354614            2 
 1290000    1.0563562   -7.4514735     439.2944  0.028378191  0.028347642            1 
 1291000    1.0269057    -7.404485    441.58756  0.028504232  0.028340956            1 
 1292000    1.0351848    -7.448569    440.81273  0.028432194  0.028334272            2 
 1293000    1.0401155   -7.4263011    440.68633  0.028402058  0.028327373            1 
 1294000    1.0678794   -7.4495532    440.66736  0.028378887  0.028320375            1 
 1295000     1.051199   -7.4557034    440.17176  0.028325081  0.028313386            2 
 1296000    1.0632258   -7.4630381     441.3864  0.028381327  0.028306441            3 
 1297000    1.0482932   -7.4319686    441.39663  0.028360102  0.028299561            1 
 1298000     1.051324   -7.4223997    441.40049  0.028338501  0.028292848            2 
 1299000    1.0423774   -7.4262723    442.75998  0.028403899   0.02828607            2 
 1300000    1.0434386   -7.4303568    442.86819  0.028388986  0.028279268            2 
 1301000   0.99188225    -7.435469    442.91719  0.028370304   0.02827245            1 
 1302000    1.0641479   -7.4156737    443.82452  0.028406587  0.028265766            1 
 1303000    1.0122476   -7.4137504    442.90902  0.028326236  0.028259125            2 
 1304000    1.0403358   -7.4231784    443.42474  0.028337471  0.028252346            1 
 1305000    1.0765791   -7.4263513    442.67584  0.028267934   0.02824539            2 
 1306000    1.0469368   -7.4510288     443.2439  0.028282536  0.028238454            2 
 1307000    1.0553689   -7.4415551    444.12874  0.028317313  0.028231635            1 
 1308000     1.037745   -7.4447043    444.34223  0.028309266  0.028224844            1 
 1309000    1.0554498   -7.4014402    444.90825  0.028323673  0.028218022            2 
 1310000    1.0367645   -7.4633195    442.89989  0.028174293  0.028211148            2 
 1311000    1.0374206   -7.4324061    444.82706  0.028275303   0.02820427            2 
 1312000    1.0295115    -7.456863    444.11336   0.02820842  0.028197334            4 
 1313000    1.0405235   -7.4463821    445.34095  0.028264848  0.028190223            1 
 1314000    1.0739469   -7.4279702    444.69298  0.028202244  0.028183336            2 
 1315000     1.061051   -7.4540969    444.89308  0.028193478  0.028176365            2 
 1316000    1.0428065   -7.4891274    445.14498  0.028188006  0.028169413            2 
 1317000    1.0387579   -7.4847915    444.33115  0.028115107  0.028162299            2 
 1318000    1.0511161   -7.4329742    446.47753  0.028229484  0.028155333            3 
 1319000     1.039647    -7.475003    446.00667  0.028178334  0.028148385            1 
 1320000     1.041737   -7.4730121    445.25095  0.028109277  0.028141253            3 
 1321000    1.0295791   -7.4557898    446.52813  0.028168567  0.028134161            1 
 1322000    1.0515593   -7.4475171    447.08166  0.028182152  0.028127055            3 
 1323000    1.0384752   -7.4047841     448.3224  0.028239002  0.028120214            1 
 1324000    1.0405922   -7.4285044    446.85709  0.028125446  0.028113328            7 
 1325000    1.0654198   -7.4873971    445.50599  0.028019245  0.028106283            1 
 1326000    1.0171514     -7.42135    447.23877  0.028107012  0.028099222            4 
 1327000    1.0211564   -7.4064525    448.69509  0.028177285  0.028092337            2 
 1328000    1.0367255   -7.4929083    447.94798  0.028109186  0.028085493            2 
 1329000    1.0411883   -7.4708629    449.25802  0.028170179  0.028078431            2 
 1330000    1.0610666   -7.4081899     448.1759  0.028081197  0.028071623            2 
 1331000    1.0406966   -7.4620302     449.3652   0.02813456  0.028064869            1 
 1332000    1.0379261   -7.4414196    450.22571  0.028167274  0.028058088            1 
 1333000    1.0323176   -7.4418279    450.62184  0.028170908  0.028051342       -1e+20 
 1334000    1.0388319   -7.4880998    450.01602  0.028111945  0.028044636            2 
 1335000    1.0122436   -7.4420177    451.17199  0.028163046  0.028037818            4 
 1336000    1.0572216   -7.4342284    452.40669   0.02821898  0.028031211            5 
 1337000    1.0357816   -7.4470243    452.87694  0.028227184  0.028024531            1 
 1338000    1.0577086   -7.4551178    452.41464  0.028177294  0.028017938            1 
 1339000    1.0582446   -7.4671988    451.44022  0.028095607   0.02801131       -1e+20 
 1340000    1.0316511    -7.455569    452.20573  0.028122247   0.02800463            4 
 1341000    1.0210998   -7.4613655    452.72137  0.028133319  0.027998041            1 
 1342000    1.0369421   -7.4220531     454.3469  0.028213295  0.027991383            1 
 1343000    1.0180074   -7.4581268    452.69584  0.028089839  0.027984763            1 
 1344000    1.0330387   -7.4954165    453.29278  0.028105951  0.027978097            4 
 1345000    1.0124889   -7.4833576    453.79074  0.028115907  0.027971581            1 
 1346000    1.0675246   -7.4449209    454.66783  0.028149321   0.02796513            3 
 1347000    1.0288451   -7.4381984    453.93875  0.028083318   0.02795864            1 
 1348000    1.0409275   -7.4361928    454.07293  0.028070779  0.027952127            2 
 1349000    1.0113113   -7.4529025     453.5789  0.028019453  0.027945502            1 
 1350000    1.0450465   -7.4374912    454.69683  0.028067705  0.027938863            2 
 1351000    1.0122065   -7.4628936    452.90378   0.02793633  0.027932125            3 
 1352000    1.0315883    -7.442258    455.34848  0.028066351  0.027925422            1 
 1353000    1.0372185   -7.5026757    454.54001  0.027995812  0.027918725            2 
 1354000    1.0196151   -7.4393858    456.16172  0.028074946  0.027912041            2 
 1355000    1.0568353   -7.4520865    454.70814   0.02796483   0.02790544            1 
 1356000    1.0508286   -7.4312724    455.02205  0.027963499  0.027898813            1 
 1357000    1.0401018    -7.471379    455.33203  0.027961928  0.027892094            3 
 1358000    1.0325402    -7.431606    456.87023  0.028035729  0.027885441            1 
 1359000    1.0494479    -7.466414    456.49316  0.027991977  0.027878743            3 
 1360000    1.0303957    -7.464731     455.8559  0.027932347  0.027871995            1 
 1361000    1.0309874   -7.4267448    455.26483  0.027875632  0.027865182            2 
 1362000    1.0489674    -7.460107    457.49024  0.027991327  0.027858378            1 
 1363000    1.0119425   -7.4423617    457.68477  0.027982684  0.027851532            1 
 1364000    1.0417109    -7.472304    455.92225  0.027854488  0.027844902            3 
 1365000    1.0256587   -7.4673053    458.11261  0.027967803  0.027838221            2 
 1366000    1.0354055   -7.4469045    457.78281  0.027927209  0.027831591            3 
 1367000    1.0534544   -7.5271343    456.68157  0.027839647  0.027824813            1 
 1368000    1.0388794   -7.4811663    458.34106  0.027920386  0.027818193            2 
 1369000    1.0307613   -7.4628063    459.29416  0.027958008  0.027811488            1 
 1370000    1.0694743   -7.4852383    458.05259   0.02786208  0.027804928            2 
 1371000    1.0433815   -7.4742848    458.01249   0.02783932  0.027798284            4 
 1372000    1.0436788   -7.4652846    459.13103  0.027886967  0.027791491            1 
 1373000    1.0286249   -7.4275202    459.83337  0.027909284  0.027784806            3 
 1374000    1.0590547   -7.4475112    460.46038     0.027927  0.027778102            1 
 1375000    1.0365702    -7.449123    458.98265  0.027817131  0.027771524            2 
 1376000     1.013388   -7.4854072    459.55142   0.02783136  0.027764831            1 
 1377000    1.0549516   -7.4232692    461.72174  0.027942492  0.027758196            2 
 1378000    1.0182124   -7.4507202    460.04289  0.027820687  0.027751593            1 
 1379000    1.0026454   -7.4514545    461.13379  0.027866437  0.027744833            2 
 1380000    1.0122275   -7.4864966    462.03058  0.027900398  0.027738316            3 
 1381000    1.0057353   -7.4523577    461.50976  0.027848766   0.02773178            4 
 1382000    1.0282387    -7.467492    461.40139  0.027822081  0.027725321            2 
 1383000    1.0264269   -7.4681785    461.67859  0.027818667  0.027718741            3 
 1384000    1.0303892   -7.5166647    460.31434  0.027716422  0.027712032            2 
 1385000    1.0307742   -7.4728565    462.85284  0.027849148  0.027705362            2 
 1386000     1.028882   -7.5012806    461.23084  0.027731532  0.027698624            2 
 1387000    1.0224103   -7.4639131     462.5376   0.02779005  0.027691882            1 
 1388000    1.0281047   -7.4840967    461.72576  0.027721287  0.027685203            1 
 1389000    1.0272426   -7.5013668     462.5956  0.027753515   0.02767845            2 
 1390000     1.044635   -7.4846505    462.18334  0.027708833  0.027671803            3 
 1391000    1.0315087   -7.4902129    463.63606  0.027775944  0.027665056            3 
 1392000    1.0268535    -7.477454    463.72492   0.02776131  0.027658382            2 
 1393000    1.0083739   -7.4727875    464.45187  0.027784869  0.027651653            1 
 1394000    1.0105004   -7.4786693    463.43183  0.027703959  0.027644973            2 
 1395000    1.0230054   -7.5022733     464.2879  0.027735239  0.027638258            2 
 1396000    1.0308483   -7.4674878    465.29277  0.027775356  0.027631438            1 
 1397000    1.0470792   -7.4909108    464.45669  0.027705601  0.027624855            3 
 1398000    1.0353874   -7.4431385    466.51513  0.027808484  0.027618326            3 
 1399000    1.0424208   -7.4759135    467.02774  0.027819141  0.027611836            3 
 1400000    1.0269156   -7.4718695    466.47851  0.027766578  0.027605312            2 
 1401000    1.0323414   -7.4519292    468.22659  0.027850737  0.027598898            2 
 1402000    1.0413422   -7.4733263    467.16946  0.027768037   0.02759245            3 
 1403000     1.025579   -7.4821928     465.0904  0.027624756  0.027586067            2 
 1404000    1.0488464   -7.4772466    467.49331  0.027747703  0.027579669            3 
 1405000     1.019474   -7.4543217    468.31751  0.027776839  0.027573354            1 
 1406000    1.0119085   -7.5018799    467.78308  0.027725408  0.027566971            2 
 1407000    1.0098491   -7.4867831    468.48394  0.027747213   0.02756063            1 
 1408000    1.0359614   -7.4365092    468.09045  0.027704217  0.027554345            2 
 1409000    1.0369877   -7.4815085    467.56678  0.027653583  0.027548092            3 
 1410000    1.0315626    -7.449171    469.87059  0.027770129  0.027541725            2 
 1411000    1.0152471   -7.4769168    469.99685  0.027757905  0.027535409            2 
 1412000    1.0245468   -7.4767062    468.69453  0.027661387  0.027529038            2 
 1413000    1.0206933   -7.5051183    469.45005  0.027686368  0.027522667            2 
 1414000    1.0217296   -7.5026548    468.57191  0.027615035  0.027516428            1 
 1415000    1.0393191   -7.4741432    471.48086  0.027766835   0.02751018            1 
 1416000    1.0129951   -7.4957781    471.76909  0.027764189  0.027503968            4 
 1417000    1.0042407   -7.4357079    471.52843  0.027730442  0.027497753            1 
 1418000    1.0316359   -7.5059245     471.2243  0.027693012  0.027491598            3 
 1419000    1.0200073   -7.5091355    471.21862  0.027673163  0.027485085            2 
 1420000    1.0382077   -7.4626814    471.31507  0.027659335   0.02747873            1 
 1421000    1.0154981    -7.508396     470.8537  0.027612814  0.027472416            2 
 1422000    1.0326075   -7.5030666    470.88045  0.027594963  0.027466171            2 
 1423000    1.0320955   -7.5241486    470.83729  0.027573044  0.027459827            1 
 1424000    1.0520481   -7.4627158    470.95672   0.02756067  0.027453433            3 
 1425000     1.030993   -7.5126952    470.97025   0.02754212  0.027447064            5 
 1426000    1.0122193   -7.4632445    472.24247  0.027597152  0.027440706            2 
 1427000    1.0021052   -7.5068641    472.17345  0.027573782  0.027434316       -1e+20 
 1428000    1.0252262   -7.4916515    473.84179  0.027651832  0.027427876            3 
 1429000    1.0128863    -7.516417    471.99123  0.027524564  0.027421506            2 
 1430000    1.0257954    -7.484427    472.84365  0.027554991  0.027415121            2 
 1431000    1.0122134   -7.5061121    472.76671  0.027531255  0.027408655            1 
 1432000    1.0348062   -7.4953793    473.19438  0.027536917  0.027402175            2 
 1433000    1.0201605   -7.4907884    473.14171  0.027514638  0.027395834            3 
 1434000    1.0568045   -7.5257675     473.0551  0.027490417  0.027389494            1 
 1435000    1.0109805   -7.4559358    475.95707  0.027639783  0.027383093            2 
 1436000    1.0114745    -7.501115    472.65684  0.027429018  0.027376656            2 
 1437000    1.0182218   -7.4512025    474.56366  0.027520509  0.027370159            2 
 1438000     1.012093   -7.4773744    473.61518  0.027446406  0.027363699            2 
 1439000    1.0171133   -7.5000655    473.37986  0.027413705  0.027357101            1 
 1440000    1.0159137    -7.528628    474.13501  0.027438369  0.027350402            1 
 1441000    1.0228549   -7.4906266    475.12676   0.02747668  0.027343812            1 
 1442000    1.0280916    -7.504695    474.57978  0.027426016  0.027337239            3 
 1443000    1.0315912   -7.5020327    474.61664  0.027409138  0.027330809            2 
 1444000    1.0015135   -7.4979538    475.42272  0.027436676  0.027324283            1 
 1445000    1.0306887   -7.4678223    474.88683  0.027386784  0.027317627            2 
 1446000    1.0155939   -7.5118752    475.86514  0.027424224  0.027310976            2 
 1447000    1.0251231   -7.4972817    475.94974  0.027410144  0.027304189            2 
 1448000    1.0164811   -7.4525787    476.43245  0.027418995  0.027297531            2 
 1449000    1.0267891   -7.4615461    477.30746  0.027450394  0.027290968            2 
 1450000     1.027327   -7.4633883    477.22557  0.027426757  0.027284389            2 
 1451000    1.0460677   -7.4714029    477.96605  0.027450382  0.027277819            1 
 1452000    1.0416795   -7.5207218     477.1248  0.027383196   0.02727137            1 
 1453000    1.0034024   -7.4577189    478.50798  0.027443678  0.027264852            1 
 1454000     1.043071   -7.4923092    476.99434  0.027338053  0.027258299            2 
 1455000    1.0000755    -7.483043    478.46359  0.027403413  0.027251753            2 
 1456000     1.022305   -7.5136403     477.0931  0.027306153  0.027245237            2 
 1457000    1.0048068   -7.4843666    478.32433  0.027357832  0.027238694            3 
 1458000    1.0081404   -7.4904683    477.24288  0.027277256  0.027232105            4 
 1459000    1.0276609   -7.5247068    479.34841  0.027378822  0.027225483            1 
 1460000    1.0118311    -7.519342    479.00941   0.02734072   0.02721888            2 
 1461000    1.0164409   -7.4886366    480.35763  0.027398906  0.027212251            1 
 1462000    1.0162112   -7.5154962    479.09576   0.02730824  0.027205794            1 
 1463000    1.0263415   -7.5137083    480.94309  0.027394799  0.027199314            2 
 1464000    1.0296508   -7.4896038     481.0825  0.027384022  0.027192839            2 
 1465000     1.012136   -7.4923586    480.00161  0.027303846  0.027186432            3 
 1466000    1.0302769   -7.4772806    478.72549  0.027212681  0.027179924            1 
 1467000    1.0010615   -7.5286556    480.25451  0.027280988  0.027173327            2 
 1468000    1.0198101   -7.4809643    480.87039  0.027297365  0.027166813            1 
 1469000    1.0183626   -7.5398298    480.26885  0.027244659  0.027160266            1 
 1470000    1.0083938   -7.4916519    481.65517  0.027304715  0.027153717            3 
 1471000    0.9985873   -7.5010643    480.74428   0.02723455  0.027147208            2 
 1472000   0.99536429   -7.5562344    480.76399  0.027217164    0.0271407            1 
 1473000    1.0267225   -7.5172565    481.84805  0.027260017  0.027134167            1 
 1474000    1.0139174    -7.485204    483.27874  0.027322407  0.027127866            1 
 1475000    1.0330894   -7.5156629    482.85174   0.02727976   0.02712148            2 
 1476000    1.0259554   -7.5123938    483.66418  0.027307146  0.027115156            2 
 1477000    1.0208976   -7.5440486    482.94845  0.027248276  0.027108708            1 
 1478000    1.0220773   -7.5005579    484.19181  0.027299944  0.027102435            3 
 1479000    1.0254862   -7.5456679    483.75176  0.027256691  0.027096077            1 
 1480000   0.98288525    -7.505925    483.63281  0.027231577  0.027089766            5 
 1481000    1.0067148   -7.5117942    485.24893  0.027304126  0.027083525            1 
 1482000   0.99320862   -7.5005093    486.38888  0.027349802   0.02707734            7 
 1483000     1.009361   -7.5354805    485.97669  0.027308198  0.027071081            2 
 1484000    1.0137081   -7.5242797    484.32915  0.027197279  0.027064822       -1e+20 
 1485000    1.0048636   -7.5049823    486.08867  0.027277703   0.02705859            2 
 1486000     1.011891   -7.5379336    485.67014  0.027235876  0.027052295            2 
 1487000    1.0250191   -7.4392085    487.93885  0.027344701  0.027046208            5 
 1488000   0.99425026   -7.4849111    487.71611   0.02731385  0.027040083            2 
 1489000    1.0022012   -7.5091289    486.44948  0.027224618  0.027033916            1 
 1490000    1.0258382   -7.5135511    487.47282  0.027263581  0.027027792            2 
 1491000    1.0114777   -7.5263181    486.33404  0.027181647  0.027021647            1 
 1492000    1.0191605   -7.5164335    488.51111  0.027285026  0.027015615            2 
 1493000    1.0167998   -7.5506971    488.66346  0.027275255  0.027009435            2 
 1494000    1.0361722   -7.4918677    488.63663  0.027255502   0.02700335            3 
 1495000    1.0170345   -7.5269102    488.53757  0.027231749  0.026997331            2 
 1496000     1.017623   -7.5166772    488.97771  0.027238063  0.026991212            2 
 1497000    1.0150301   -7.4726204    489.67535  0.027258704   0.02698515            1 
 1498000    1.0259866   -7.5038837    488.93816  0.027199497  0.026979026            2 
 1499000    1.0142254   -7.5589743    487.47021  0.027099745  0.026972783            2 
 1500000    1.0104104   -7.5235384    489.48127  0.027193404  0.026966568            3 
 1501000    1.0224557   -7.5606783    488.57792  0.027125134  0.026960271            1 
 1502000    1.0063919   -7.5240179     489.2586   0.02714484  0.026954098            2 
 1503000     1.052068   -7.4933517    491.20153  0.027234505  0.026947892            2 
 1504000    1.0135123   -7.5058724    491.26287  0.027219796  0.026941689            2 
 1505000    1.0046029   -7.5184367    490.13493  0.027139254  0.026935498            1 
 1506000    1.0224372   -7.5321561    489.88772  0.027107554  0.026929385            2 
 1507000    1.0009532    -7.540801    489.70645  0.027079543  0.026923059            4 
 1508000    1.0119261   -7.5133523    489.69973  0.027061214  0.026916792            1 
 1509000   0.99869368   -7.5105293    490.46519  0.027085553  0.026910461            3 
 1510000    1.0068374   -7.5466994    490.35919  0.027061765  0.026904124            4 
 1511000    1.0405065   -7.5198794    489.92978  0.027020173  0.026897759            2 
 1512000    1.0291076   -7.5396588    491.27401  0.027076389  0.026891424            2 
 1513000    1.0061279   -7.5694954    490.57975  0.027020255  0.026885017            2 
 1514000    1.0166022    -7.493669    491.16213  0.027034463  0.026878624            2 
 1515000   0.99921957   -7.5359972    492.75771  0.027104384  0.026872158            2 
 1516000   0.97977608   -7.4825547    490.87438  0.026982981  0.026865928            1 
 1517000    1.0178067   -7.5209732    493.11212  0.027088119  0.026859549            2 
 1518000   0.97944603   -7.5376797     491.5817  0.026986259  0.026853299            2 
 1519000     1.025561    -7.531157     491.7282  0.026976531   0.02684698            1 
 1520000   0.99247143   -7.5022291    494.79216  0.027126763  0.026840708            2 
 1521000    1.0057817   -7.5058556    492.73461  0.026996198  0.026834444            3 
 1522000    1.0110121   -7.5352436    493.95008  0.027045011  0.026828113            4 
 1523000    1.0121772    -7.520645    494.46066   0.02705519  0.026821822            1 
 1524000     1.003491   -7.5291655    492.85186  0.026949467  0.026815618            2 
 1525000    1.0101634   -7.5211894    493.44178  0.026964032  0.026809344            2 
 1526000    1.0025172   -7.5382064    494.09518  0.026982044  0.026803074            1 
 1527000    1.0322159   -7.5678352    493.47266  0.026930401   0.02679664            2 
 1528000    1.0018219    -7.531579    493.31552  0.026904206  0.026790226            2 
 1529000   0.99824221   -7.5219571    493.96971  0.026922265  0.026783792            2 
 1530000    1.0017941   -7.5392433    495.42307  0.026983827  0.026777393            2 
 1531000    1.0227805   -7.4920823     496.4633  0.027022823  0.026771037            2 
 1532000    1.0061582   -7.4873827    495.83311  0.026970904  0.026764851            4 
 1533000   0.98669194   -7.5271094     495.0029  0.026908181  0.026758526            2 
 1534000    1.0230483   -7.5169881    494.43731  0.026859915  0.026752238            2 
 1535000    1.0058669   -7.5268889    495.07425  0.026876995  0.026745834            3 
 1536000   0.99025843   -7.5147731    495.49974  0.026882582  0.026739471            2 
 1537000    1.0035276   -7.5393487    494.77992  0.026826064  0.026733079            2 
 1538000   0.99274913   -7.5432341    495.46606  0.026845798  0.026726607            1 
 1539000    1.0194034   -7.5328549     496.0483  0.026859882  0.026720111            2 
 1540000     1.009643   -7.5164147    496.36749  0.026859712  0.026713434            2 
 1541000    1.0089119   -7.5283536     496.8956  0.026870842  0.026707055            2 
 1542000   0.98794423   -7.4878591    495.89352  0.026799261  0.026700493            3 
 1543000   0.99893093   -7.5261395    496.71609  0.026826317  0.026693992            3 
 1544000   0.99171495   -7.5206749    496.62528  0.026804041  0.026687344            6 
 1545000     1.005215   -7.4832273    497.17417  0.026816298  0.026680742            4 
 1546000   0.99172152   -7.5453835    495.22162  0.026693705  0.026674145            1 
 1547000   0.99080617   -7.5076054    496.85516  0.026764445  0.026667539            2 
 1548000   0.99565501    -7.549088    497.78785  0.026797365  0.026660955            1 
 1549000   0.99971855   -7.5670077    495.95517   0.02668147  0.026654417            2 
 1550000    1.0085802   -7.5233467    497.79895  0.026763384   0.02664772       -1e+20 
 1551000   0.98562065   -7.5265884    498.70822  0.026794983  0.026641115            3 
 1552000   0.99079712   -7.5268916    497.34123  0.026704319  0.026634582            1 
 1553000    1.0220872    -7.551136    497.78136   0.02671074  0.026627943            1 
 1554000    1.0176163   -7.5300129    497.22389  0.026663658  0.026621238            1 
 1555000   0.99355701   -7.5415575    498.60784  0.026720677  0.026614529            2 
 1556000    0.9989421   -7.5129348    498.34427  0.026689389  0.026607948            3 
 1557000    1.0036078   -7.5203863     499.2479  0.026720611  0.026601258            1 
 1558000   0.99951612   -7.5314062     499.8132  0.026733697  0.026594574            2 
 1559000   0.98661042   -7.5280661    497.88612  0.026613541  0.026587943            1 
 1560000    1.0005099   -7.5840006    498.58234  0.026633672  0.026581307            3 
 1561000    1.0080175   -7.4843061     500.7676  0.026733269  0.026574731            1 
 1562000   0.97288637   -7.5395036    501.41388  0.026750634  0.026568253            4 
 1563000   0.98184488    -7.545636     499.1976  0.026615355  0.026561686            3 
 1564000    1.0047965   -7.5422296     500.0668   0.02664465  0.026555065            1 
 1565000    0.9938068   -7.5396211     500.4725  0.026649228  0.026548499            4 
 1566000    1.0117843   -7.5411499      500.167  0.026615954  0.026541927            3 
 1567000   0.99304021   -7.5311898    501.21312  0.026654601  0.026535317            1 
 1568000   0.98244453   -7.4671375    502.12977  0.026686318  0.026528886            1 
 1569000   0.99351789   -7.4978538    502.68587  0.026698846  0.026522386            2 
 1570000   0.98752693    -7.555413    501.26456  0.026606399  0.026515863            3 
 1571000    1.0120586    -7.506411    503.07014   0.02668524  0.026509267            1 
 1572000    0.9976504   -7.5642041    500.91313  0.026553919  0.026502772            1 
 1573000    1.0081126   -7.5121839    502.65229  0.026629174  0.026496131            2 
 1574000    1.0010759   -7.5840928    501.54272  0.026553511  0.026489626            3 
 1575000      1.00565   -7.5641769    502.11365   0.02656686  0.026483172            1 
 1576000    1.0008855   -7.5399846    503.28986  0.026612196  0.026476592            4 
 1577000    1.0008217   -7.5412852    504.54048  0.026661408  0.026470095            2 
 1578000   0.99467323   -7.5633484    502.69073  0.026546828  0.026463614            2 
 1579000   0.98026388   -7.5405477    503.24498  0.026559266  0.026457061            2 
 1580000   0.99757329   -7.5317186    503.81762   0.02657266  0.026450521            3 
 1581000     1.003861   -7.5326063    504.47454  0.026590477  0.026443842            2 
 1582000    0.9753063   -7.5545562    502.61928  0.026475942  0.026437125            2 
 1583000   0.99234423   -7.5457268     502.4726  0.026451495  0.026430456            2 
 1584000    1.0064248   -7.5292384    502.35553  0.026428637  0.026423802            1 
 1585000    1.0129714    -7.558691    504.23123   0.02651058  0.026417151            1 
 1586000   0.98761784   -7.5701414    504.38494  0.026501941  0.026410528            1 
 1587000    1.0112748   -7.5649239    504.67792  0.026500626   0.02640386            3 
 1588000   0.99608622   -7.5605712    504.27286  0.026462681  0.026397267            2 
 1589000    1.0035531   -7.5139962    505.38226  0.026504209  0.026390741            2 
 1590000    1.0037954   -7.5509446    505.41123  0.026489058  0.026384121            3 
 1591000      1.00995   -7.5372127    505.69331  0.026487184  0.026377547            2 
 1592000   0.99276624   -7.5383668    504.86953  0.026427425  0.026370943            1 
 1593000   0.98743201   -7.5650847    504.66291  0.026400027  0.026364309            1 
 1594000   0.96751737   -7.5444434    505.62872  0.026433957  0.026357533            2 
 1595000    0.9947064   -7.5421099    506.50033  0.026462922  0.026350879            2 
 1596000    1.0084737   -7.5291491    506.70416  0.026456984  0.026344253            2 
 1597000    0.9974976   -7.5487898    506.47445  0.026428431  0.026337659            1 
 1598000   0.99187732   -7.5359375    504.82192  0.026325716  0.026331022            2 
 1599000   0.98122512   -7.5248362    508.41366  0.026496438  0.026324413            2 
 1600000   0.98996419   -7.5367482    507.22124  0.026417773    0.0263178            3 
 1601000    1.0052188   -7.5463711    508.55285  0.026470584  0.026311217            1 
 1602000   0.98391905   -7.5472726    507.62694  0.026405896  0.026304641            2 
 1603000   0.98323271   -7.5330116    508.32746   0.02642584  0.026298013            1 
 1604000   0.99701149   -7.5487549    507.85072  0.026384597  0.026291483            1 
 1605000   0.97446908   -7.5495188    507.48324  0.026349078  0.026284695            1 
 1606000   0.98669811   -7.5956881     506.7849  0.026296435   0.02627792            3 
 1607000   0.97987039   -7.5860076    506.41863  0.026261078  0.026271106            2 
 1608000   0.99747941   -7.5558056    507.70074  0.026311191   0.02626428            2 
 1609000   0.99444057   -7.5356708    506.46771  0.026230977   0.02625757            1 
 1610000    1.0063023   -7.5829197    508.13942  0.026301212  0.026250688            1 
 1611000    0.9948279   -7.5747919    509.32651  0.026346292  0.026243782            2 
 1612000   0.98966088   -7.5657563    510.00061  0.026364796  0.026237001            2 
 1613000   0.97679666   -7.5751579    508.45182  0.026268435  0.026230294            2 
 1614000     1.001612   -7.5644137    508.37199  0.026248037  0.026223614            2 
 1615000   0.98774845   -7.5575054     510.6732  0.026350526  0.026216999            1 
 1616000    0.9948285   -7.5455794    509.68433  0.026283227  0.026210304            2 
 1617000    1.0042051   -7.5416443    509.68928  0.026267227  0.026203589            2 
 1618000   0.97336602    -7.557232    509.28039  0.026229933  0.026196823            2 
 1619000    1.0014068   -7.5271564    512.26195  0.026367199  0.026190195            4 
 1620000   0.99551494   -7.5208576    511.56333  0.026314986  0.026183477            2 
 1621000   0.99855184   -7.5276808    511.04024  0.026271861  0.026176814            3 
 1622000   0.98884886   -7.5257874    512.09968  0.026310095  0.026170243            1 
 1623000   0.98809439   -7.5880203    512.03501  0.026290563  0.026163584            1 
 1624000    1.0006797   -7.5631886    512.18421   0.02628203  0.026156809            2 
 1625000   0.98769677   -7.5941435    511.33179  0.026222143  0.026150192            2 
 1626000   0.99587849   -7.5969401    511.93038  0.026236694   0.02614353            1 
 1627000   0.97886743   -7.5691392    511.93086  0.026220593   0.02613683            2 
 1628000   0.98026767   -7.5741054    513.62363  0.026291136  0.026130276            3 
 1629000    0.9932861   -7.5166699    512.39373   0.02621208  0.026123649            1 
 1630000   0.97058949   -7.5713339    513.64367  0.026259901  0.026117164            1 
 1631000    1.0007308   -7.5629186    514.07694  0.026265938  0.026110505            4 
 1632000    0.9916579   -7.5806123    514.11803  0.026251942  0.026103837            1 
 1633000    0.9975498   -7.5636434    514.95938  0.026278801  0.026097234            2 
 1634000    1.0026714   -7.5672865    513.74441  0.026200755   0.02609067            1 
 1635000    0.9638596    -7.571832    514.01024  0.026198279  0.026084068            4 
 1636000   0.99781832   -7.5390702    514.74372  0.026219627  0.026077515            2 
 1637000   0.96535841   -7.5919825    512.91587  0.026110561  0.026070887            2 
 1638000   0.97071899   -7.5268278    516.67258  0.026285744  0.026064302            2 
 1639000    1.0014291   -7.5802901     512.6727  0.026066336  0.026057822            2 
 1640000   0.99941829    -7.611049    515.03756  0.026170608  0.026051306            2 
 1641000   0.98617808   -7.5358175    516.62444  0.026235245  0.026044906            2 
 1642000    1.0047573   -7.5744886    516.59458  0.026217752  0.026038547            1 
 1643000    1.0057517   -7.5504966     516.5887  0.026201496  0.026032178            1 
 1644000   0.97765953   -7.5843293    517.15573  0.026214301  0.026025797            1 
 1645000   0.99571594   -7.5934988    518.32031  0.026257361  0.026019414            1 
 1646000   0.98719534    -7.595309    517.16087  0.026182709  0.026013006            1 
 1647000    0.9966807   -7.5724804    516.28209  0.026122348  0.026006577            3 
 1648000   0.95205467   -7.6109062    516.68119  0.026126678  0.026000069            3 
 1649000   0.98585989   -7.5749496     516.9248  0.026123145  0.025993572            2 
 1650000    1.0008409   -7.5597161    517.67721  0.026145314  0.025987165            1 
 1651000   0.98511499   -7.5697102    519.38487  0.026215671  0.025980784            1 
 1652000   0.97985904   -7.5514673    518.52775  0.026156565   0.02597444            1 
 1653000   0.96609019   -7.5551522    519.30511  0.026179931  0.025968067            2 
 1654000   0.97206333   -7.6025207    517.14468  0.026055254  0.025961636            1 
 1655000    1.0085384   -7.5426408    518.96401  0.026131118  0.025955246            2 
 1656000   0.97771937   -7.5756482     519.6596  0.026150342  0.025948843            1 
 1657000    1.0028112   -7.5685778    520.65309  0.026184525  0.025942499            2 
 1658000   0.99558258   -7.5600532    520.14035  0.026142961   0.02593619            1 
 1659000    0.9792316   -7.5965385    517.99024    0.0260192  0.025929783            2 
 1660000   0.98147363   -7.5800302    520.53852  0.026131452  0.025923331            2 
 1661000    1.0039384   -7.5885311    518.76112  0.026026546  0.025916854            2 
 1662000    1.0065907   -7.5954777    518.93099  0.026019404  0.025910476            2 
 1663000   0.99599832   -7.6101235    519.06924  0.026010686  0.025903947            1 
 1664000    1.0156286   -7.5730163    521.76619  0.026130118  0.025897548            4 
 1665000   0.99346287   -7.5667876     522.3721   0.02614475  0.025891246            3 
 1666000   0.98541489   -7.6122711    519.05978  0.025963374  0.025884855            1 
 1667000   0.99156546   -7.5729301    521.04433  0.026047007  0.025878421            1 
 1668000    0.9950289   -7.5745422    520.36952  0.025997678  0.025872033            2 
 1669000    0.9758682   -7.5807034    522.06615  0.026066814   0.02586568            1 
 1670000   0.97729221   -7.5655313    520.43094  0.025969608  0.025859335            3 
 1671000    1.0025284   -7.5662808    521.51185  0.026007972  0.025852947            2 
 1672000   0.96613168   -7.5877331    521.23744   0.02597874  0.025846586            2 
 1673000   0.98500356   -7.5719041    521.27478  0.025965072  0.025840164            1 
 1674000   0.97878367   -7.6023672    521.70761  0.025971108  0.025833831            2 
 1675000   0.99276884   -7.6025307     522.1064  0.025975443  0.025827471            2 
 1676000    1.0063868   -7.5814861    523.24683  0.026016648  0.025821255            2 
 1677000   0.97733367   -7.5691106    524.70685  0.026073686  0.025815082            3 
 1678000   0.97719092   -7.6136063    523.97827  0.026021964  0.025808915            1 
 1679000   0.96540593   -7.5791111    524.54636  0.026034661  0.025802747            2 
 1680000   0.99224832   -7.5861593    522.04185  0.025894933  0.025796441            4 
 1681000   0.98768108   -7.5651565    523.52963  0.025953283  0.025790044            3 
 1682000   0.97957639    -7.599537    523.28451  0.025925709  0.025783755            2 
 1683000   0.99847039   -7.6008571     524.2459  0.025957907   0.02577743            2 
 1684000   0.97164483   -7.5956298    524.71383  0.025965649  0.025771126            1 
 1685000   0.96287769   -7.5967113    525.50534  0.025989384  0.025764812            1 
 1686000   0.99614767   -7.5686751    525.28114  0.025962888   0.02575853            1 
 1687000    0.9881678   -7.5709087    525.07672    0.0259374  0.025752239            1 
 1688000    0.9846246   -7.5572895    525.77523  0.025956518  0.025745929            1 
 1689000   0.97831885   -7.5926191    525.60995  0.025932995  0.025739612            2 
 1690000   0.96817864    -7.581625    526.03541   0.02593863  0.025733351            2 
 1691000   0.98862577   -7.6124503    524.48337  0.025846805  0.025727004            2 
 1692000   0.98951202    -7.597407    527.79721  0.025994741  0.025720714            2 
 1693000   0.99475139   -7.5777183    526.34379  0.025907846  0.025714374            1 
 1694000   0.96960509   -7.5856401     525.9002   0.02587073  0.025707912            1 
 1695000   0.98180046   -7.5756335    526.54007  0.025886926  0.025701555            2 
 1696000    1.0017223   -7.6489889    525.43516  0.025817372  0.025695051            4 
 1697000   0.97803267   -7.5880462     526.2308   0.02584123   0.02568854            1 
 1698000   0.96262011   -7.6065443     526.2623  0.025827557   0.02568207            1 
 1699000   0.99123284   -7.6161694    526.05591  0.025802232  0.025675504            1 
 1700000    0.9951198   -7.5830925    528.00954   0.02588282  0.025669047            2 
 1701000   0.97882248   -7.6081551    525.13751  0.025726901  0.025662629            2 
 1702000   0.96105864   -7.5973914     526.9175  0.025798938   0.02565624            4 
 1703000   0.98626921   -7.5946952    527.41405  0.025808086  0.025649836            1 
 1704000   0.98041838   -7.6075417    528.24611  0.025833632  0.025643428            2 
 1705000   0.98706766   -7.5944504    529.15177  0.025862745  0.025637035            3 
 1706000   0.98265359   -7.5876346    528.88175  0.025834396  0.025630655            2 
 1707000    0.9777839   -7.5872273     528.7326   0.02581198  0.025624256            1 
 1708000   0.96390934   -7.5803052    526.45827  0.025685903  0.025617811            3 
 1709000   0.98715051   -7.5888317    530.39279  0.025862726  0.025611375            2 
 1710000   0.96981263   -7.5949677    528.46834  0.025753818  0.025604919            2 
 1711000   0.98702125   -7.6186329      528.635  0.025746883  0.025598577            2 
 1712000   0.96390359   -7.6089172    527.41503  0.025672461  0.025592162            2 
 1713000   0.98866226   -7.5819572    529.00263  0.025734707  0.025585803            2 
 1714000   0.95827903   -7.6151237    529.03738  0.025721382  0.025579329            3 
 1715000    0.9975879   -7.5777373    529.98613  0.025752485  0.025572953            1 
 1716000   0.96668278   -7.5755373    529.93033  0.025734768  0.025566518            3 
 1717000   0.98528629   -7.5983754     528.9774  0.025673529  0.025560095            3 
 1718000   0.99488374   -7.6032825    529.48465   0.02568319  0.025553617            2 
 1719000   0.98622789   -7.6076762    529.11288  0.025650227   0.02554704            2 
 1720000   0.97327338   -7.6002639    529.61185  0.025659489  0.025540487            1 
 1721000   0.98768124   -7.5550332    530.97909  0.025710783  0.025533915            1 
 1722000   0.96865301   -7.5951748    529.40794  0.025619819  0.025527365            3 
 1723000   0.98442463    -7.611329    528.65633  0.025568598  0.025520793            1 
 1724000   0.97910179   -7.6016997    528.98381  0.025569596  0.025514174            2 
 1725000   0.98035248   -7.6251354    529.33986  0.025571974  0.025507646            1 
 1726000   0.97273161   -7.6147548     530.8098  0.025628129  0.025501028            1 
 1727000   0.96341759   -7.6161113    529.57959  0.025553927  0.025494425            1 
 1728000   0.98240801   -7.6055397    530.21608  0.025569834  0.025487746            1 
 1729000   0.94854305   -7.6172082    529.98644  0.025543977  0.025481192            3 
 1730000   0.98712175   -7.6246582    530.93771  0.025575034  0.025474582            1 
 1731000   0.96241322   -7.6445704    531.13769  0.025569887  0.025467939            2 
 1732000   0.97889752   -7.5939566    531.45327  0.025570307  0.025461392            1 
 1733000   0.97110029   -7.5940375    531.55367   0.02556038  0.025454858            1 
 1734000   0.95489458   -7.6464081    530.57775  0.025498738  0.025448247            1 
 1735000   0.98258156   -7.5993025     531.3722    0.0255222  0.025441623            6 
 1736000    0.9727176   -7.6041626    533.54284  0.025611696  0.025435088            1 
 1737000   0.96757964   -7.5808697    532.77116  0.025559929  0.025428587            1 
 1738000   0.95773584   -7.6368161     531.7788  0.025497641  0.025422046            2 
 1739000   0.95751618   -7.5809027    531.55451  0.025472231  0.025415508            4 
 1740000   0.97950364   -7.6038251    532.50812  0.025503262  0.025409004            1 
 1741000   0.95698903   -7.6235918    533.18715  0.025521116  0.025402503            1 
 1742000   0.98163573   -7.5638335    534.57328  0.025572775  0.025396024            2 
 1743000   0.96146623    -7.593767    534.18895  0.025539728   0.02538959            3 
 1744000    0.9632921   -7.6245337    533.73693  0.025503485   0.02538305            1 
 1745000   0.96551262   -7.6229011    533.92943  0.025498063  0.025376516            3 
 1746000   0.96678702    -7.609677    533.54448  0.025465086  0.025370034            2 
 1747000   0.98107216   -7.6133503    535.56697  0.025546984   0.02536356            1 
 1748000   0.97018176   -7.6330769    533.90387  0.025453083   0.02535703            2 
 1749000     0.980073   -7.6365855     533.9971  0.025442972  0.025350443            1 
 1750000   0.99253154   -7.6292189    534.85348  0.025469213  0.025343941            3 
 1751000   0.96366167   -7.5964984    534.23706  0.025425331  0.025337442            2 
 1752000   0.98829753   -7.5910192    535.54225    0.0254729  0.025330854            1 
 1753000   0.97410733   -7.6343383    534.32035  0.025400283  0.025324346            1 
 1754000   0.97359289   -7.6783705    533.61835  0.025352449  0.025317781            3 
 1755000   0.95267911   -7.6415397    535.01523  0.025404332  0.025311198            3 
 1756000   0.96008435   -7.6054397      536.502  0.025460422  0.025304565            5 
 1757000   0.97196578   -7.6295235    535.75978  0.025410728  0.025297908            2 
 1758000    0.9659758   -7.5935292    535.99936   0.02540763  0.025291233            2 
 1759000   0.98763213   -7.6089143    535.92238  0.025389539  0.025284594            1 
 1760000   0.98121872   -7.6512922    536.45529  0.025400345  0.025277919            1 
 1761000   0.96093643   -7.6639452    535.57576    0.0253443  0.025271243            1 
 1762000   0.98950449   -7.6377301    534.83899  0.025295071  0.025264593            4 
 1763000   0.98487315   -7.6116324    537.22601  0.025393553  0.025258071            1 
 1764000   0.97519684   -7.6132149    537.30928  0.025383092  0.025251603            4 
 1765000   0.96155083   -7.5974089    538.27663  0.025414383  0.025244993            5 
 1766000   0.96970077    -7.608905     537.1775  0.025348127  0.025238443            9 
 1767000   0.96296951   -7.6219799    537.13129  0.025331602  0.025231843            3 
 1768000   0.97518209    -7.645277     537.6946  0.025343825  0.025225303            2 
 1769000   0.96529887   -7.6294688    538.21466  0.025353998  0.025218821            1 
 1770000   0.96141546   -7.6021737    538.49903  0.025353062  0.025212385            1 
 1771000   0.96002399   -7.5922656    539.33545  0.025378103  0.025205921            3 
 1772000   0.97227605   -7.6365422    537.46898  0.025276005  0.025199512            1 
 1773000   0.95079057   -7.5882109    539.25384   0.02534564  0.025192986            1 
 1774000   0.97246317   -7.6125842    537.94401  0.025269824  0.025186431            1 
 1775000   0.96675505   -7.6331171    538.73242  0.025292602   0.02517991            3 
 1776000    1.0057172   -7.6643545    539.27813  0.025303966  0.025173342            2 
 1777000   0.97445662   -7.5736161    541.48348  0.025393148  0.025166807            2 
 1778000   0.98369758    -7.643005    538.14375  0.025222335  0.025160331            1 
 1779000   0.94308053   -7.6011931    539.01856  0.025249136  0.025153835            2 
 1780000   0.97169837   -7.6193465    539.65867  0.025264919   0.02514736            3 
 1781000   0.96590741   -7.6491087    539.35535  0.025236541  0.025140928            1 
 1782000   0.94673809   -7.5876244    541.06706  0.025302425   0.02513443            2 
 1783000   0.97134625   -7.6498306    538.26595  0.025157317  0.025127911            2 
 1784000   0.95535211   -7.5965469     540.8539  0.025264102   0.02512138            1 
 1785000   0.94808269    -7.644631    540.53649   0.02523513  0.025114845            1 
 1786000   0.97160246   -7.5902064    541.32614  0.025257845  0.025108388            2 
 1787000   0.99483778   -7.5978507    540.46685   0.02520364  0.025101922            1 
 1788000   0.97318136    -7.630566     542.2296    0.0252717  0.025095387            4 
 1789000   0.95196956    -7.641342    541.50939  0.025224026  0.025089009            3 
 1790000   0.98555588   -7.6400208    541.36601  0.025203259  0.025082426            2 
 1791000   0.95770377   -7.6168388    542.11717  0.025224138    0.0250759            1 
 1792000   0.98284216   -7.6415278    540.48795  0.025134298  0.025069407            3 
 1793000   0.96587289    -7.620619    541.62059  0.025172922   0.02506281            1 
 1794000   0.95031251   -7.6619415    539.74919  0.025071962  0.025056109            4 
 1795000   0.96745633   -7.6025251    541.00085  0.025116103  0.025049401            1 
 1796000   0.95945233   -7.6253589    541.91627  0.025144593  0.025042686            4 
 1797000   0.95064448   -7.6378046    541.86879  0.025128399     0.025036            2 
 1798000   0.96419807   -7.6535112    540.78181  0.025064044  0.025029256            1 
 1799000   0.95859944   -7.5965493    541.57058  0.025086649  0.025022474            2 
 1800000   0.98639979   -7.6416414     540.5263  0.025024366  0.025015575            1 
 1801000   0.95071156   -7.6649251    541.39467  0.025050651  0.025008722            2 
 1802000   0.96767612   -7.6686329    540.56821   0.02499853  0.025001842            5 
 1803000   0.96005251   -7.6351094    541.38866  0.025022585  0.024994997       -1e+20 
 1804000   0.96295609     -7.64199    542.45888  0.025058152  0.024988184            2 
 1805000   0.97668653   -7.6466903    539.73414  0.024918474  0.024981334            2 
 1806000   0.95465186   -7.6386759     541.5338  0.024987717  0.024974502            2 
 1807000   0.98346264   -7.6230232    541.61976  0.024977853  0.024967604            2 
 1808000    0.9561287   -7.6453973    541.49485   0.02495828  0.024960738            2 
 1809000   0.96393824   -7.6444334     541.4278  0.024941395  0.024953768            1 
 1810000   0.96789953   -7.6416381    541.80354  0.024944914  0.024946915            1 
 1811000   0.95591295   -7.6771738    540.70075  0.024880395  0.024939915            1 
 1812000   0.97412641   -7.6075321     543.2782  0.024985201  0.024933045            2 
 1813000   0.96849158    -7.662654    544.61338   0.02503279  0.024926152            1 
 1814000    0.9573858   -7.6424555    544.61214  0.025018933  0.024919299            3 
 1815000   0.97087086   -7.6113677    542.29674   0.02489884  0.024912329            2 
 1816000   0.95617124   -7.6488455    543.56747  0.024943441  0.024905373            3 
 1817000   0.96917558   -7.6544208    543.04036  0.024905538  0.024898494            1 
 1818000   0.96640065   -7.6550977    543.69038  0.024921634  0.024891574            2 
 1819000   0.95464309   -7.6307538     543.8788  0.024916566  0.024884621            2 
 1820000   0.95806707   -7.6590931    543.13925  0.024869013  0.024877632            1 
 1821000   0.95127779   -7.6430055    542.94911  0.024846655  0.024870661            2 
 1822000   0.96175022   -7.6899697    540.90513  0.024739532  0.024863633            2 
 1823000   0.95868494    -7.675291    542.35768  0.024792361  0.024856536            1 
 1824000   0.96080938   -7.6607796     544.3878  0.024871518  0.024849455            2 
 1825000   0.93649134   -7.6726566    542.08605  0.024752788  0.024842385            2 
 1826000   0.96197301   -7.6585695    543.98937  0.024826094  0.024835343            1 
 1827000   0.97678531    -7.665534    542.35735  0.024738066  0.024828361            1 
 1828000    0.9538917   -7.6557225    542.77634  0.024743633  0.024821286            3 
 1829000   0.97035046   -7.6654423    543.05494  0.024742798  0.024814199            2 
 1830000   0.96122688   -7.6328099    543.40456  0.024745199  0.024807101            4 
 1831000    0.9592456   -7.6290433    544.09802  0.024763245  0.024800126            3 
 1832000    0.9540258   -7.6333964     544.5029  0.024768145  0.024793078            2 
 1833000   0.95305333    -7.642506    545.85701  0.024816194  0.024786105            1 
 1834000   0.97126554    -7.696363    543.93656  0.024715402  0.024779057            2 
 1835000    0.9510162   -7.6500916    545.55263  0.024775324  0.024772104            2 
 1836000   0.96711456    -7.653977    545.16335  0.024744161  0.024765135            2 
 1837000   0.98319965   -7.6578575    544.48098  0.024699736  0.024758221            1 
 1838000   0.96894547   -7.6677507    546.93466  0.024797546   0.02475125            1 
 1839000   0.96069076    -7.662788    546.24258    0.0247527  0.024744247            2 
 1840000   0.95470163   -7.6500785     547.6989  0.024805204  0.024737384            1 
 1841000   0.94338366   -7.6455459     546.5896  0.024741517  0.024730466            2 
 1842000   0.95856726   -7.6442726    546.39822  0.024719427  0.024723502            2 
 1843000   0.95673538   -7.6291933    546.70705  0.024719979  0.024716507            3 
 1844000   0.95458297   -7.6781173     546.6585  0.024704379  0.024709512            2 
 1845000   0.97237043   -7.6592223    545.68209  0.024646887  0.024702512            2 
 1846000    0.9655435   -7.6870233    545.46058  0.024623537   0.02469552            2 
 1847000   0.96115168   -7.6032936    548.22303  0.024734842  0.024688604            3 
 1848000   0.94389766   -7.6480432    546.52763  0.024645005  0.024681753            2 
 1849000   0.95565166   -7.6190299    549.08823  0.024747081  0.024674848            3 
 1850000   0.97399977   -7.6653349    548.29389  0.024697923  0.024667977            1 
 1851000   0.93191124   -7.6421556    548.52132  0.024694819  0.024661078            2 
 1852000   0.95426691   -7.6416858    547.56902  0.024638635  0.024654122            2 
 1853000   0.94399174      -7.6593    548.17678   0.02465267  0.024647102            3 
 1854000   0.94491952   -7.6769827    547.12334  0.024592023  0.024640188            1 
 1855000   0.94992709   -7.6878211    547.79185  0.024608798  0.024633176            1 
 1856000   0.96386999   -7.6701335    548.95821  0.024647908  0.024626147            3 
 1857000   0.95459981   -7.6395094    548.67798   0.02462206  0.024619184            1 
 1858000   0.94518316   -7.7004868     547.7063  0.024565227  0.024612201            2 
 1859000   0.95473295   -7.6367732    549.37345  0.024626746  0.024605312            4 
 1860000   0.93659422   -7.6430975    549.12029  0.024602164  0.024598483            1 
 1861000   0.94428954   -7.6419129    548.83886  0.024576341  0.024591576            2 
 1862000   0.95691935   -7.6723365    549.62902  0.024598506  0.024584704            9 
 1863000   0.96943853   -7.6630348    550.34122  0.024617159  0.024577737            3 
 1864000   0.95599661   -7.6681784     548.9268  0.024540719  0.024570843            1 
 1865000   0.96486283   -7.6627905    548.99706    0.0245307  0.024563909            2 
 1866000   0.95592862   -7.6626535    550.43624  0.024581826  0.024557026            3 
 1867000   0.92724734   -7.6792344    548.37355  0.024476591  0.024550152            1 
 1868000   0.94646963   -7.6960207    547.64976  0.024431199  0.024543101            3 
 1869000    0.9501617   -7.6629111    549.44232  0.024498052  0.024536118            2 
 1870000   0.93993051   -7.6841886      549.986   0.02450918  0.024529198            4 
 1871000   0.94861642   -7.6286002    552.68337   0.02461622  0.024522238            6 
 1872000   0.94515376   -7.6130916    551.67547  0.024558203   0.02451536            2 
 1873000    0.9457501   -7.6310632    551.64791  0.024543865  0.024508417            2 
 1874000   0.94019754    -7.637555    551.46458  0.024522616   0.02450145            3 
 1875000   0.97208818    -7.622987    551.14243  0.024495219  0.024494569            4 
 1876000   0.95344859   -7.6578681     551.9949  0.024520029  0.024487705            1 
 1877000   0.95011568   -7.6378328    552.72765  0.024539498  0.024480794            2 
 1878000   0.95278218   -7.6784115    551.91001   0.02449015  0.024473923            1 
 1879000   0.96113523   -7.6755608    551.60944  0.024463786  0.024467043            2 
 1880000   0.95237592   -7.6761173     551.7845  0.024458533  0.024460139            2 
 1881000   0.94809005   -7.6461578    553.19599  0.024508063  0.024453305            2 
 1882000   0.94738106   -7.6317404    553.27249  0.024498428  0.024446497            1 
 1883000   0.92189787   -7.6736203    553.70097   0.02450438   0.02443976            4 
 1884000    0.9544221   -7.6541992    552.01549  0.024416821  0.024432902            2 
 1885000   0.95500551   -7.6581522    554.54142  0.024515536  0.024426089            1 
 1886000   0.94865803   -7.6612295    553.84923  0.024471953  0.024419222            3 
 1887000   0.96387153   -7.6423958    555.51272  0.024532446  0.024412429            3 
 1888000   0.93817173   -7.6697998    553.45986  0.024428843  0.024405692            4 
 1889000   0.96692774   -7.6557338    554.69884  0.024470568  0.024398892            3 
 1890000   0.94333444    -7.657596    553.51578  0.024405458  0.024392082            2 
 1891000   0.95386666   -7.6901236    553.03927  0.024371553   0.02438529            2 
 1892000   0.94827916   -7.6635881    553.48865  0.024378464  0.024378418            2 
 1893000   0.93642296   -7.6449411    554.22708  0.024398093  0.024371671            2 
 1894000   0.94211429   -7.6650604    553.40017  0.024348828  0.024364854            1 
 1895000   0.94724213   -7.6514324    553.97872  0.024361421  0.024357917            1 
 1896000   0.96050874   -7.6409308    555.37991  0.024410158  0.024351079            2 
 1897000   0.96811503   -7.6499853    555.05091  0.024382837  0.024344227            3 
 1898000    0.9177599   -7.6599173    554.41926  0.024342258   0.02433734            1 
 1899000   0.94668969   -7.6906664    554.12106  0.024316353  0.024330476            1 
 1900000    0.9318059   -7.6867291     555.6104  0.024368877  0.024323609            1 
 1901000   0.95413186    -7.648516    556.12913  0.024378797   0.02431676            2 
 1902000   0.94655742   -7.6797117    556.37726  0.024376851  0.024309907            2 
 1903000   0.96552717    -7.686653    555.94012  0.024344899  0.024303097            1 
 1904000   0.93083635   -7.7043631    554.45782  0.024267236  0.024296296            1 
 1905000   0.94512594   -7.6666891    556.56676  0.024346752  0.024289474            1 
 1906000   0.95159913    -7.683438    557.09059  0.024356881  0.024282653            2 
 1907000   0.94248651   -7.6608211    557.09125  0.024344138  0.024275858            2 
 1908000   0.95298251   -7.6688316    557.32935  0.024341778  0.024269076            2 
 1909000   0.94492121   -7.6702188    557.79543  0.024349373  0.024262311            2 
 1910000   0.92781669   -7.6846456    556.59111   0.02428408  0.024255532            2 
 1911000   0.95766186   -7.7055328    555.17561  0.024209646  0.024248755            2 
 1912000   0.96727706   -7.6710465    557.39241  0.024293602  0.024241877            2 
 1913000   0.94130818   -7.6260394    558.46668    0.0243277  0.024235023            2 
 1914000   0.94324569   -7.6652215    557.42643  0.024269698  0.024228135            3 
 1915000   0.95126435   -7.6660004     557.1252  0.024243916   0.02422123            1 
 1916000   0.97069902   -7.6979975    556.08165  0.024185876  0.024214289            1 
 1917000   0.98094608   -7.6686934    557.22535  0.024222976  0.024207312            1 
 1918000   0.95152925   -7.6997202    557.14446  0.024206832  0.024200465            2 
 1919000   0.94326752   -7.6893227    557.34704  0.024203015  0.024193493            2 
 1920000   0.94415253   -7.6786158    556.96789  0.024173953  0.024186421            1 
 1921000   0.94638301   -7.6817939     556.8535  0.024156407  0.024179332            1 
 1922000   0.92110213   -7.6963146    556.31466  0.024120476  0.024172287            3 
 1923000   0.95475221   -7.6518116     556.9045  0.024133494    0.0241653            2 
 1924000   0.95073175   -7.6441442    557.65284  0.024153363  0.024158277            2 
 1925000   0.95933659   -7.6921953     556.0497  0.024071415  0.024151195            2 
 1926000   0.94034051   -7.6792048    557.49405  0.024121411  0.024144136            2 
 1927000   0.93841909   -7.6789703    558.99962  0.024174002  0.024137111            1 
 1928000    0.9459771   -7.7013851     557.7007  0.024105321  0.024130041            1 
 1929000   0.94309635   -7.6876256    558.48849  0.024126857  0.024122943            1 
 1930000   0.93897183   -7.7073858    556.69461    0.0240369  0.024115872            1 
 1931000    0.9614419   -7.7189209    558.16434  0.024087879    0.0241088            2 
 1932000   0.94600429   -7.6622107    558.41187  0.024086088  0.024101711            2 
 1933000   0.95289143   -7.7120901    557.20603  0.024021643  0.024094595            3 
 1934000   0.92357853   -7.7003656    556.42226  0.023975451  0.024087379            2 
 1935000   0.92186592      -7.6984    557.35528  0.024003242  0.024080297            3 
 1936000    0.9537138   -7.6573278    558.87911  0.024056436  0.024073294            3 
 1937000   0.95590375   -7.6560367    560.09774  0.024096444  0.024066233            2 
 1938000   0.93448177   -7.6997302    558.63015  0.024020904    0.0240592            2 
 1939000    0.9498874   -7.7003696     558.0688   0.02398439  0.024052013            2 
 1940000   0.95859534    -7.689672    558.74661  0.024001143  0.024044841            1 
 1941000     0.914645    -7.700664    558.22472  0.023966371  0.024037704            1 
 1942000   0.94342676   -7.6891527    557.52775  0.023924122   0.02403055            5 
 1943000   0.93911905   -7.6742162    557.72731  0.023920368  0.024023411            1 
 1944000   0.95037473    -7.662444    558.23703  0.023929914  0.024016288            2 
 1945000    0.9436097   -7.6558424    557.82696  0.023900041  0.024009194            2 
 1946000   0.93667784    -7.666179    559.19835  0.023946486  0.024002061            1 
 1947000    0.9356702   -7.6826634    558.55458  0.023906633  0.023994927            2 
 1948000   0.95573133   -7.7242373    558.65005  0.023898445  0.023987782            3 
 1949000   0.93568779   -7.6877396     559.1384  0.023907064  0.023980603            2 
 1950000   0.95369061   -7.6754573     559.4032   0.02390612  0.023973511            3 
 1951000   0.94062536   -7.6832557    560.28575  0.023931563  0.023966355            3 
 1952000   0.92906406   -7.6807282    560.53967  0.023930143  0.023959252            1 
 1953000   0.93411486   -7.7272495    559.04093   0.02385394  0.023952107            3 
 1954000   0.94046088   -7.6970595    559.67114  0.023868609  0.023944926            1 
 1955000    0.9654145   -7.6645724    561.63568   0.02394014   0.02393793            3 
 1956000   0.94732704   -7.6813206    559.77672  0.023848701  0.023930966            5 
 1957000   0.93766184     -7.71041    560.60428  0.023871754  0.023924007            3 
 1958000   0.93747113   -7.6821926     561.1148   0.02388129  0.023917016            1 
 1959000    0.9520569   -7.6612897    563.77965  0.023982459  0.023910018            1 
 1960000   0.95415943   -7.6326207    561.91853  0.023891094  0.023903058            1 
 1961000   0.93546098     -7.72644    561.15128  0.023846306  0.023896057            1 
 1962000    0.9358513   -7.7015658    562.04626  0.023872165   0.02388901            2 
 1963000   0.93467563   -7.7048054    562.70518  0.023887977   0.02388193            1 
 1964000   0.95752639   -7.7218391    560.85786  0.023797431  0.023874849            1 
 1965000   0.93203086   -7.6896042     561.1647  0.023798333    0.0238677            2 
 1966000   0.94852261   -7.6955098    562.87019  0.023858519  0.023860717            1 
 1967000   0.94735406   -7.7061435    562.11786  0.023814517  0.023853636            2 
 1968000   0.93397708   -7.6913099      562.316  0.023810806  0.023846564            3 
 1969000   0.91529026   -7.6751301    562.96503  0.023826182  0.023839609            1 
 1970000    0.9258692   -7.7250793     563.7962  0.023849247  0.023832621            2 
 1971000   0.94721227   -7.7448223    562.12859  0.023766641  0.023825615            3 
 1972000   0.93627107   -7.7030903    563.91332  0.023830009    0.0238186            2 
 1973000   0.93023182   -7.7015842    561.99714  0.023736997  0.023811593            4 
 1974000   0.93190029   -7.7035793    562.88191  0.023762323  0.023804509            3 
 1975000   0.93277495   -7.7036872    561.60884  0.023696575  0.023797481            2 
 1976000   0.92884749   -7.6890827     563.6993  0.023772744  0.023790421            2 
 1977000   0.94688501   -7.6526102    563.47689  0.023751344  0.023783449            1 
 1978000   0.94599233   -7.6655811    565.74892  0.023835057  0.023776537            2 
 1979000   0.93027097   -7.7060997    563.68394  0.023736059  0.023769577            1 
 1980000   0.95807071   -7.7057207    564.41506  0.023754843  0.023762574            2 
 1981000   0.91864062   -7.6647378    564.92093  0.023764131  0.023755547            2 
 1982000   0.93474365   -7.7209073    565.79754  0.023788998    0.0237486            2 
 1983000   0.93398098   -7.7163677    564.33731  0.023715638  0.023741564            3 
 1984000   0.93707936   -7.7053428    562.41631  0.023622997  0.023734554            2 
 1985000   0.92471554   -7.7043924    562.93169  0.023632733  0.023727518            2 
 1986000   0.94680048   -7.6813283    564.56684  0.023689445  0.023720475            1 
 1987000   0.94326748   -7.7101176    565.16706  0.023702695  0.023713495            2 
 1988000   0.93900034    -7.680484    567.64268  0.023794546  0.023706571            5 
 1989000   0.90308625   -7.7193539     566.6315  0.023740217  0.023699687            1 
 1990000   0.92635148   -7.7201377    565.43982  0.023678384  0.023692792            2 
 1991000   0.92974825   -7.7561681    564.41565  0.023623625  0.023685803            2 
 1992000   0.92959178   -7.6658734    567.22569  0.023729321  0.023678858            2 
 1993000   0.93415397   -7.7224546    566.25015  0.023676625  0.023671876            3 
 1994000   0.92153391   -7.7322892    566.29278  0.023666532  0.023664923            2 
 1995000   0.93325727   -7.6562697    567.30529  0.023696963  0.023657964            1 
 1996000   0.94172951   -7.7401273    566.98053  0.023671532  0.023651029            1 
 1997000   0.92395643   -7.7360513    566.07339  0.023621824  0.023643993            1 
 1998000   0.95258525   -7.7094239    567.10091  0.023652858  0.023636982            3 
 1999000   0.93544631   -7.6930535    567.14109    0.0236427  0.023630052            1 
 2000000   0.92682391   -7.7162664     567.1347  0.023630612  0.023623111            2 
 2001000   0.93777884   -7.7300151    565.36952  0.023545291  0.023616173            4 
 2002000   0.93328066   -7.6887619    566.98025  0.023600577  0.023609144            2 
 2003000   0.95678129   -7.6746691    567.59692   0.02361445  0.023602123            1 
 2004000   0.91879546   -7.7090882    565.98075   0.02353546  0.023595139            3 
 2005000   0.91766006   -7.7193863    566.65741  0.023551846  0.023588144            2 
 2006000   0.95142077   -7.6605539    568.84757  0.023631089   0.02358118            2 
 2007000   0.91291754   -7.6995679    565.55283  0.023482512  0.023574179            4 
 2008000   0.94038562   -7.7057228    567.70479  0.023560126  0.023567212            3 
 2009000   0.93270665   -7.7150804    569.10979  0.023606678  0.023560225            1 
 2010000   0.93964942   -7.6827005    569.54927  0.023613154  0.023553306            1 
 2011000   0.95187559   -7.7041849      568.765  0.023568913  0.023546393            2 
 2012000   0.94023935   -7.7060692    568.06186  0.023528076  0.023539454            2 
 2013000   0.91912752   -7.7328021    569.16459  0.023562038  0.023532568            4 
 2014000   0.94745744   -7.7360559    568.70219  0.023531206  0.023525596            1 
 2015000   0.92309579   -7.7177721    569.10523  0.023536197  0.023518705            1 
 2016000   0.91252156   -7.7246591    569.29678   0.02353244  0.023511744            1 
 2017000   0.94797995   -7.6916284    569.02556  0.023509567    0.0235048            2 
 2018000    0.9356955   -7.7016133    570.93379  0.023576718   0.02349788            2 
 2019000   0.92416109   -7.7049679    569.13733  0.023490892   0.02349097            1 
 2020000   0.93074529   -7.6828465     570.7771   0.02354691  0.023484081            2 
 2021000   0.93347572   -7.7373092    568.96873  0.023460693  0.023477122            2 
 2022000   0.93989809   -7.7400328    570.30943  0.023504345  0.023470175            4 
 2023000   0.92425469   -7.7132736    570.60084   0.02350473  0.023463202            2 
 2024000   0.92125102   -7.7270333    570.71109  0.023497657  0.023456283            1 
 2025000   0.94877375   -7.7265673    570.13769  0.023462456   0.02344937            3 
 2026000   0.93795252   -7.7258281    571.08578  0.023489873  0.023442443            2 
 2027000   0.91649446   -7.6976515    569.95029  0.023431602  0.023435588            3 
 2028000   0.94635279   -7.7371085    570.74782   0.02345282  0.023428708            3 
 2029000   0.92204413   -7.7596505    571.67129  0.023479189  0.023421862            2 
 2030000   0.91284911   -7.7376309    570.62458  0.023424654  0.023414954            4 
 2031000   0.92687269   -7.7351199    571.41575  0.023445583  0.023408099            2 
 2032000   0.93564857   -7.7387904    570.69096  0.023404321  0.023401239            2 
 2033000   0.95187566   -7.7156846    571.35434  0.023420001  0.023394426            1 
 2034000   0.90400638   -7.7297968    571.57062  0.023417348  0.023387575            2 
 2035000   0.92503737   -7.7458099    570.57482  0.023365062  0.023380752            2 
 2036000   0.90205287   -7.7224776    571.69501  0.023399435  0.023373852            3 
 2037000   0.91286756   -7.7044073    571.28353  0.023371115  0.023366948            2 
 2038000   0.91679159   -7.7018115    571.41781  0.023365138   0.02336006            2 
 2039000   0.92932791   -7.7118543    572.46018   0.02339628  0.023353211            1 
 2040000   0.93577187   -7.7444733    570.59575   0.02330865  0.023346317            3 
 2041000   0.93901944   -7.7671064    571.34272  0.023327728  0.023339361            1 
 2042000   0.91763814   -7.6934157    573.09099  0.023387651  0.023332507            1 
 2043000   0.92977337   -7.7164489    574.39082  0.023429222  0.023325618            2 
 2044000    0.9055837   -7.7355888    571.21286  0.023288196  0.023318705            1 
 2045000   0.95073049   -7.7460871     571.5116  0.023288981  0.023311728            1 
 2046000     0.920085   -7.7357824    572.15197  0.023303681  0.023304833            1 
 2047000   0.94118255   -7.7425757    573.15551  0.023333151  0.023297963            2 
 2048000   0.89761752   -7.7049731    575.18049  0.023404154  0.023291072            2 
 2049000   0.92486659   -7.7474848     572.0321  0.023264686  0.023284206            4 
 2050000   0.94266126   -7.7604587    573.02653  0.023293761   0.02327726            1 
 2051000   0.92441073   -7.7416347    573.10096  0.023285428  0.023270378            2 
 2052000   0.92877309   -7.7036651    574.76712  0.023341745  0.023263558            2 
 2053000   0.91582959   -7.7208202     574.9054  0.023335988  0.023256727            1 
 2054000   0.92180489   -7.7462859    573.04274  0.023249056  0.023249932            1 
 2055000   0.93200677   -7.7289464    574.64888  0.023302874  0.023243091            2 
 2056000   0.92258659    -7.721138    574.34196    0.0232791  0.023236223            3 
 2057000      0.91389   -7.7310939    573.15006  0.023219497  0.023229441            1 
 2058000   0.92854269    -7.722485    576.14762  0.023329593    0.0232227            3 
 2059000   0.92700148   -7.7216687    576.79326  0.023344393  0.023215964            1 
 2060000   0.92656464   -7.7182221    576.42713   0.02331825  0.023209253            2 
 2061000   0.91212858    -7.729402    577.74692  0.023360299  0.023202483            1 
 2062000   0.93743906    -7.711956    576.31146  0.023290958  0.023195803            1 
 2063000   0.90361142   -7.7506366    576.99674  0.023307349  0.023189094            3 
 2064000   0.91313657   -7.7396351    576.61347  0.023280583  0.023182422            4 
 2065000   0.91565227     -7.72939     577.1527  0.023291069  0.023175702            1 
 2066000   0.91517275   -7.7381215    576.86369  0.023268139  0.023169039            2 
 2067000    0.9197815   -7.7338023    578.54468  0.023324652  0.023162408            2 
 2068000   0.92003724   -7.7748745     576.9892  0.023250693  0.023155753            3 
 2069000   0.93559122   -7.7306397     576.7943  0.023231606  0.023149104            2 
 2070000   0.93133206   -7.7340912    575.97146  0.023187257  0.023142426            3 
 2071000   0.91656564   -7.7248468    577.17228   0.02322438  0.023135743            1 
 2072000   0.92677886   -7.7580972    577.52389  0.023227312  0.023128969            2 
 2073000   0.91731535   -7.7745914    576.75722  0.023185288  0.023122206            1 
 2074000   0.91822808   -7.7584688    577.80747  0.023216308  0.023115471            2 
 2075000   0.91978585    -7.781999    575.79022  0.023124105  0.023108718            2 
 2076000   0.91408825   -7.7629097    576.27336   0.02313236  0.023101917            1 
 2077000   0.94387228   -7.7277941    577.32369  0.023163364  0.023095123            2 
 2078000   0.91564026   -7.7450467    578.64532  0.023205218  0.023088387            6 
 2079000   0.91640656   -7.7635073    578.00738  0.023168486  0.023081644            1 
 2080000   0.90763346   -7.7900472    577.55591  0.023139259   0.02307484            1 
 2081000   0.90673249   -7.7775974    577.09072  0.023109512  0.023068035            1 
 2082000   0.93764915   -7.7560179      576.898  0.023090698  0.023061247            3 
 2083000   0.89798624   -7.7055004    577.44369  0.023101444  0.023054529            1 
 2084000   0.91936678   -7.7596473    578.19109  0.023120245  0.023047836            3 
 2085000     0.898462   -7.7669904    577.80141  0.023093582  0.023041083            3 
 2086000   0.92152493   -7.7397393    578.58637  0.023113869  0.023034295            1 
 2087000   0.93408969   -7.7597475     578.8628  0.023113832  0.023027532            1 
 2088000   0.92002832     -7.78462    577.46087   0.02304681  0.023020726            1 
 2089000   0.91653743   -7.7155487    579.42531  0.023114142  0.023013978            1 
 2090000   0.89954938   -7.7303953    579.05001  0.023088118  0.023007227            3 
 2091000   0.91882527   -7.7680213    578.32835  0.023048316   0.02300045            1 
 2092000    0.9004493   -7.7370535     579.3412  0.023077645  0.022993715            1 
 2093000   0.89708147    -7.731193    579.65235  0.023079008  0.022986992            2 
 2094000   0.91896611    -7.743226    579.41704  0.023058621  0.022980257            2 
 2095000   0.91457151   -7.7627878    578.12615  0.022996267  0.022973479            1 
 2096000   0.93081803   -7.7663363    579.22211  0.023028869  0.022966748            3 
 2097000    0.9189456    -7.746517    578.95658  0.023007335  0.022960099            2 
 2098000   0.91725911   -7.7414894    580.29431  0.023049504  0.022953471            2 
 2099000   0.93138282   -7.7547727    579.50536    0.0230072  0.022946743            2 
 2100000   0.90263578   -7.7438326    580.65952  0.023042044  0.022939973            1 
 2101000   0.92176822   -7.7448374    580.56594  0.023027366  0.022933213            1 
 2102000   0.92983951   -7.7619841    579.07553  0.022957323  0.022926517            2 
 2103000   0.89718307   -7.7624561    580.74897  0.023012719  0.022919806            1 
 2104000   0.91453637   -7.7482133    579.52792  0.022953419  0.022912978            2 
 2105000   0.92935102    -7.748769    580.11613  0.022965801   0.02290618            1 
 2106000    0.8896045   -7.7202562    581.42166  0.023006555  0.022899428            3 
 2107000   0.91245287    -7.749514     580.6508  0.022965148  0.022892735            5 
 2108000   0.93695815   -7.7817303    581.12651  0.022973059  0.022886045            2 
 2109000   0.90624953   -7.7991582    579.47441  0.022896887  0.022879286            1 
 2110000    0.9030323   -7.7920803    580.15309  0.022912839  0.022872516            1 
 2111000   0.91368104   -7.7565358     581.3035  0.022947399  0.022865775            1 
 2112000   0.90565934   -7.7628695    581.81266  0.022956623  0.022859098            1 
 2113000   0.92940001   -7.7606499     582.2301  0.022962222  0.022852436            1 
 2114000   0.89680572   -7.7398877     582.5543   0.02296414  0.022845772            2 
 2115000    0.9042876   -7.7757064    581.38629  0.022907261  0.022839111            2 
 2116000   0.92403398   -7.7619116    582.07813  0.022923682  0.022832438            3 
 2117000   0.92402471    -7.757787     582.2585  0.022919953  0.022825795            2 
 2118000   0.90867063   -7.7340968    583.01751  0.022938996  0.022819148            2 
 2119000   0.91146625    -7.722881    583.13705  0.022932871  0.022812573            3 
 2120000   0.92719799   -7.7318948    582.76013  0.022907238  0.022806021            3 
 2121000   0.89422028   -7.7513456    582.26995  0.022877178  0.022799437            2 
 2122000   0.93273825   -7.7483575     583.7031  0.022922679  0.022792811            1 
 2123000   0.90077105   -7.7824574    581.72334  0.022834171  0.022786131            3 
 2124000   0.91550237   -7.7986363    581.94604  0.022832158  0.022779392            2 
 2125000   0.93649003   -7.7450988    581.30243  0.022796174  0.022772653            1 
 2126000   0.91211747   -7.7616864    582.35333  0.022826644  0.022765956            2 
 2127000   0.90367941   -7.7697222    584.18836  0.022887806   0.02275922            2 
 2128000   0.92089263   -7.7522056    582.89352  0.022826344  0.022752458            2 
 2129000   0.91659977   -7.7574625    582.44279   0.02279798  0.022745745            5 
 2130000   0.90824639   -7.7552151    582.19853   0.02277772  0.022739002            2 
 2131000   0.91592196   -7.7867424    582.74844  0.022788536  0.022732254            3 
 2132000   0.89851289   -7.7597762     583.0354  0.022789063  0.022725512            1 
 2133000   0.91000478   -7.7703397    583.28996  0.022788325  0.022718791            4 
 2134000   0.89684706   -7.7647002     583.2422  0.022775781  0.022712124            3 
 2135000   0.89880412   -7.8087622    582.92403  0.022752694  0.022705373            2 
 2136000    0.9131327   -7.7686968    584.53805  0.022805011  0.022698605            2 
 2137000   0.91689969   -7.8062648    583.05491  0.022736504  0.022691836            2 
 2138000   0.92250541   -7.7915704    584.06953  0.022765417  0.022685058            4 
 2139000   0.90623183   -7.7489841    582.86949  0.022708021  0.022678352            2 
 2140000   0.91182827   -7.7707863    584.67906  0.022767876  0.022671572            2 
 2141000   0.90160051   -7.7913194    583.82072  0.022723833  0.022664806            2 
 2142000   0.90752238   -7.7562106     583.6425  0.022706291  0.022658047            1 
 2143000    0.9370374   -7.7990727    583.86567  0.022704374  0.022651314            2 
 2144000   0.92228677   -7.7647637    584.93082  0.022735184   0.02264451            1 
 2145000   0.92652817   -7.7808109    584.50761  0.022708143  0.022637743            1 
 2146000   0.90030183   -7.7625609    584.94406   0.02271451  0.022630982            2 
 2147000   0.89766818   -7.7833252    584.49735  0.022686592  0.022624202            2 
 2148000   0.91636891   -7.7513513    586.13873  0.022739709  0.022617471            2 
 2149000   0.88056328   -7.7302775    586.06128  0.022726124  0.022610726            1 
 2150000   0.90796001   -7.7496805    585.85579  0.022707589  0.022604003            3 
 2151000   0.89320586   -7.7635318     585.5723  0.022686049  0.022597222            2 
 2152000   0.90969681    -7.781157      584.875  0.022648505  0.022590414            2 
 2153000   0.91294878    -7.786214    585.30956  0.022654806  0.022583632            2 
 2154000   0.87407883   -7.7770247     584.1819  0.022600662  0.022576862            1 
 2155000   0.91017494   -7.7949476    585.65764  0.022647241  0.022570065            2 
 2156000   0.89789434   -7.7656049    585.61073  0.022634923  0.022563303            2 
 2157000   0.90277441    -7.743472    586.92946  0.022675377   0.02255654            3 
 2158000   0.89361764    -7.770793     585.9301  0.022626278  0.022549778            3 
 2159000   0.89568709    -7.758712    587.67263  0.022683057  0.022543039            1 
 2160000   0.91725124   -7.7882441    586.45493  0.022625576  0.022536304            4 
 2161000   0.89032279   -7.8048034    586.63569  0.022622076  0.022529555            2 
 2162000   0.91140635   -7.8007545    584.69154  0.022536677  0.022522734            2 
 2163000    0.8957796   -7.7460636    586.37345  0.022591056  0.022515962            2 
 2164000   0.90920298   -7.8177055     586.3737  0.022580626   0.02250917            2 
 2165000   0.90695496   -7.7706823    587.49523  0.022613365  0.022502405            1 
 2166000   0.91665056   -7.7802014     586.5486  0.022566505   0.02249571            2 
 2167000   0.90562883    -7.782955    587.31078  0.022585401  0.022488978            1 
 2168000   0.90530957   -7.7809667    587.97836  0.022600644  0.022482295            1 
 2169000     0.929498   -7.7794873    586.86585  0.022547482  0.022475631            2 
 2170000   0.88373776   -7.7569565    587.92874  0.022577908  0.022468953            1 
 2171000    0.9134294    -7.778835    587.27609  0.022542457  0.022462263            2 
 2172000   0.90792809   -7.7833165    587.08222   0.02252464  0.022455528            4 
 2173000   0.91048917   -7.7810311    587.59098  0.022533785  0.022448815            2 
 2174000    0.8905945    -7.752977    588.70155   0.02256599  0.022442048            2 
 2175000   0.91541588   -7.7780947    585.87846  0.022447451  0.022435334            2 
 2176000   0.90232405   -7.8013263    586.34669  0.022455066  0.022428574            3 
 2177000   0.90293356   -7.7596653      587.603  0.022492842  0.022421805            4 
 2178000   0.88849958   -7.7589064    586.93636  0.022457008  0.022415056            1 
 2179000   0.89759302   -7.7788078    586.33314  0.022423632   0.02240835            3 
 2180000   0.88932532   -7.7525091    588.01335  0.022477575  0.022401621            3 
 2181000   0.91135725   -7.7667859    586.60802  0.022413573  0.022394882            2 
 2182000   0.90365383   -7.7500781    588.77468  0.022486048  0.022388184            4 
 2183000   0.90526695   -7.7804777    588.36094  0.022459954  0.022381504            4 
 2184000   0.92383119    -7.752362     588.6379  0.022460237  0.022374802            2 
 2185000   0.89442325   -7.7843614    588.82402  0.022457057  0.022368078            4 
 2186000   0.88635841   -7.7587029     590.4647  0.022509328  0.022361397            2 
 2187000   0.90527483   -7.7877752    588.63137  0.022429179   0.02235468            2 
 2188000   0.89983704   -7.7705621    589.21964  0.022441333  0.022347969            1 
 2189000   0.87755254   -7.7879107    589.69208  0.022449067  0.022341249            1 
 2190000   0.88599466   -7.8115259    590.03783  0.022451972  0.022334539            3 
 2191000   0.89755715   -7.7688436    589.89133  0.022436153  0.022327804            1 
 2192000   0.90491982   -7.7892961    588.47892  0.022372222  0.022321073            3 
 2193000   0.91370355   -7.7700191    590.55686  0.022440981  0.022314358            2 
 2194000   0.89679196   -7.7770268    587.98537  0.022333081  0.022307634            2 
 2195000   0.90989145   -7.7985169    588.32514  0.022335806  0.022300876            3 
 2196000   0.89125897   -7.7642877    590.53834  0.022409621   0.02229412            3 
 2197000   0.89870432    -7.779792    589.06015  0.022343353  0.022287356            2 
 2198000   0.88251531   -7.8060113    588.62873  0.022316831  0.022280506            2 
 2199000   0.89412891   -7.8184419    588.26506  0.022292901  0.022273698            1 
 2200000   0.90511773   -7.7794245    588.45581  0.022289993  0.022266907            3 
 2201000   0.89884834   -7.8166746     588.5133  0.022282042  0.022260157            3 
 2202000   0.90091213    -7.807751    589.21111  0.022298331  0.022253386            2 
 2203000   0.90240484   -7.7634082    588.90096  0.022276478  0.022246636            3 
 2204000   0.87691234   -7.7908826     590.6967  0.022334267  0.022239919            1 
 2205000    0.9095614   -7.8161848    589.66944  0.022285315  0.022233157            2 
 2206000   0.88674572   -7.7997613    589.34406  0.022262921  0.022226368            7 
 2207000   0.88980407   -7.7852031    590.54602  0.022298218  0.022219553            2 
 2208000   0.88401202   -7.8039277    589.12589  0.022234522  0.022212729            1 
 2209000   0.89245104   -7.8138659    591.35226  0.022308445  0.022205983            4 
 2210000   0.91163234   -7.7748653    589.61365  0.022232792  0.022199218            3 
 2211000   0.89360693   -7.7925654    589.87913  0.022232743  0.022192443            3 
 2212000   0.90542859   -7.8080699    590.01542  0.022227826  0.022185673            3 
 2213000   0.91014244   -7.7744308     590.1499  0.022222846  0.022178946            2 
 2214000    0.8874409   -7.8286082    591.17946  0.022251561   0.02217216            1 
 2215000   0.89882297   -7.7655558    591.43321  0.022251061  0.022165421            2 
 2216000   0.89033343   -7.8030238    591.09785  0.022228409  0.022158731            2 
 2217000   0.90540105   -7.7754032    592.10454  0.022256222  0.022152011            2 
 2218000   0.89524306   -7.7882682    592.23976  0.022251268  0.022145333            1 
 2219000   0.88962665   -7.7938308    591.96982  0.022231103  0.022138647            2 
 2220000   0.90022768   -7.7850327    593.54464  0.022280204  0.022132009            1 
 2221000   0.89232368   -7.7700826    592.05433  0.022214255  0.022125351            4 
 2222000    0.9167324   -7.7919933    593.43631  0.022256087   0.02211871            2 
 2223000   0.90230976   -7.8216289    591.90341  0.022188612  0.022112069            2 
 2224000   0.88382199   -7.8107849    592.13565  0.022187337  0.022105375            3 
 2225000   0.89707887    -7.829791    592.20292  0.022179885    0.0220987            1 
 2226000   0.90251504    -7.786192    593.21474  0.022207799  0.022092011            2 
 2227000   0.89259755   -7.8343528    592.70403  0.022178717  0.022085323            1 
 2228000    0.8979519   -7.8157965    591.53764  0.022125136  0.022078624            1 
 2229000   0.88566379   -7.7743169    594.76529  0.022235879  0.022071979            1 
 2230000   0.89522807   -7.7812627    593.48558  0.022178086  0.022065312            5 
 2231000   0.87889877   -7.8163194    592.86287  0.022144885  0.022058609            4 
 2232000   0.87693017   -7.8348137    592.70328  0.022129005   0.02205185            3 
 2233000   0.86877746   -7.8157818    592.25131  0.022102228  0.022045096            1 
 2234000   0.88234573   -7.8205387    593.23502  0.022129029  0.022038385            4 
 2235000   0.92049809   -7.7894721    592.38975  0.022087612  0.022031674            1 
 2236000   0.89841401   -7.7905582    594.37246  0.022151627  0.022024991            1 
 2237000   0.89396353   -7.7836075    593.25608  0.022100137  0.022018264            3 
 2238000   0.87643432   -7.8211955    593.05235  0.022082676  0.022011577            2 
 2239000    0.9062478   -7.7622011    592.85329  0.022065405  0.022004914            2 
 2240000   0.88175942   -7.8356814    592.72259  0.022050692   0.02199823            1 
 2241000   0.88836567   -7.7942492    593.85499  0.022082961  0.021991451            2 
 2242000   0.90524511   -7.8043706    593.47235  0.022058889  0.021984699            1 
 2243000   0.89842655   -7.7862703    595.35746  0.022119091  0.021977992            1 
 2244000   0.88843622   -7.7839094    594.73965  0.022086291  0.021971294            2 
 2245000   0.89398363   -7.7970182    595.10068  0.022089855  0.021964573            2 
 2246000   0.88605092   -7.8058532    593.02826  0.022003126  0.021957887            2 
 2247000   0.90980931   -7.7853134    595.34014  0.022079074  0.021951247            1 
 2248000   0.90054861   -7.8129621    595.00092  0.022056677  0.021944605            2 
 2249000   0.87510788   -7.8177681    594.92229  0.022043956  0.021937868            3 
 2250000   0.89658254   -7.7909758     594.1665  0.022006167  0.021931206            2 
 2251000   0.88336069   -7.8211498    595.44995  0.022043905  0.021924512            2 
 2252000   0.90386041    -7.826902    595.27663  0.022027703  0.021917881            1 
 2253000   0.87338047   -7.8232682    595.03384  0.022008945  0.021911189            2 
 2254000   0.86881602   -7.8474153    594.13593  0.021965984  0.021904486            3 
 2255000   0.87507783   -7.8209527    596.84757  0.022056451  0.021897815            4 
 2256000   0.90260363   -7.8336994    594.51597  0.021960549  0.021891155            3 
 2257000   0.88384638   -7.8483206    593.99371  0.021931536  0.021884428            1 
 2258000   0.88044383   -7.8734088    594.48953  0.021940122  0.021877683            2 
 2259000   0.89405899   -7.8131708    593.86405  0.021907335  0.021870928            4 
 2260000   0.87596062   -7.8693823    595.18839  0.021946474   0.02186417            2 
 2261000   0.89911413   -7.8292167     595.9087  0.021963316  0.021857434            3 
 2262000    0.8775893    -7.861628    595.36717  0.021933656  0.021850729            4 
 2263000   0.88976337   -7.8407442    594.93178  0.021907931  0.021843971            1 
 2264000   0.88194669   -7.8168114    594.96881  0.021899618  0.021837253            4 
 2265000   0.87861258   -7.8388373     595.1562  0.021896843  0.021830619            2 
 2266000   0.90377371   -7.8375038    595.81458  0.021911392  0.021823919            4 
 2267000   0.87122377   -7.8199201    594.85665  0.021866514  0.021817258            1 
 2268000   0.88278831   -7.8246755    596.50219  0.021917335   0.02181063            1 
 2269000   0.88146032   -7.8309885    598.27744  0.021972875  0.021803981            3 
 2270000   0.87511612   -7.8292618    597.04142   0.02191782  0.021797357            2 
 2271000   0.89827511   -7.8130617     598.2982  0.021954286  0.021790758            1 
 2272000    0.8781199   -7.8235846    595.52604  0.021842945  0.021784193            1 
 2273000   0.88512112   -7.8167642    597.68082  0.021912334  0.021777665            2 
 2274000   0.90221139   -7.7947832     597.7458  0.021905079  0.021771091            2 
 2275000   0.88119171   -7.8114924    598.70714  0.021930664  0.021764485            1 
 2276000   0.88240105   -7.8398358    598.03081  0.021896266  0.021757899            2 
 2277000   0.86996752   -7.7995846    595.68289  0.021800721  0.021751316            2 
 2278000   0.89483257   -7.7979669    599.52482  0.021931695  0.021744757            5 
 2279000   0.88280222   -7.8106305     598.5515  0.021886482  0.021738171            2 
 2280000   0.88685497   -7.7687921    597.65692  0.021844186  0.021731566            2 
 2281000   0.88612067   -7.8107883    598.39864  0.021861707  0.021724964            4 
 2282000   0.89157276   -7.8150168    598.99039  0.021873736  0.021718368            2 
 2283000   0.87898701   -7.8527688    598.02804  0.021829028  0.021711748            1 
 2284000   0.88045632    -7.819247    598.53586  0.021837998  0.021705139            2 
 2285000   0.87965087    -7.824217    596.93505   0.02177006  0.021698564            2 
 2286000   0.88060503   -7.8347861    598.79278  0.021828258   0.02169191            3 
 2287000   0.88127441   -7.8412959    597.74882  0.021780674  0.021685226            3 
 2288000   0.87936627   -7.8579621    597.47534  0.021761194  0.021678587            2 
 2289000   0.89519994   -7.8158312    598.87423  0.021802615  0.021671954            1 
 2290000    0.8793228   -7.8292012    599.57084  0.021818444   0.02166533            2 
 2291000   0.89279894   -7.8249475    599.74164  0.021815133  0.021658742            2 
 2292000   0.89349497   -7.8278286    598.28572   0.02175268  0.021652162            2 
 2293000   0.87390983   -7.8357655    598.86781  0.021764348  0.021645531            1 
 2294000   0.90188335   -7.8205526     599.1465  0.021764985  0.021638924            1 
 2295000   0.87130143   -7.8080214    599.06324  0.021752478  0.021632329            4 
 2296000   0.88430993   -7.8025095    598.92001  0.021737805   0.02162572            2 
 2297000   0.86482538   -7.8037489    598.30739  0.021706116  0.021619114            3 
 2298000   0.89807176   -7.8691738    597.85217  0.021680163  0.021612466            2 
 2299000   0.88029377    -7.857216    599.76945  0.021740229  0.021605735            2 
 2300000   0.89362487   -7.8568512    598.23523  0.021675189  0.021599057            5 
 2301000   0.88322339   -7.8418355    598.84101  0.021687708  0.021592423            2 
 2302000   0.88734664   -7.8409199    599.29776  0.021694822  0.021585821            2 
 2303000   0.85269855   -7.8171651    600.23061  0.021719157   0.02157928            1 
 2304000   0.85150764   -7.8530324    599.43367  0.021680905  0.021572683            2 
 2305000   0.90410263   -7.8584014    599.34684   0.02166836  0.021566128            2 
 2306000   0.88545659   -7.8717593    599.56619   0.02166689  0.021559546            3 
 2307000   0.90054474   -7.8303849    599.85861  0.021668061  0.021552939            1 
 2308000   0.86666528   -7.8513202    601.50864   0.02171825  0.021546364            2 
 2309000    0.8757892   -7.8358477    600.16362  0.021660301  0.021539796            1 
 2310000   0.88844561   -7.8318918    600.48534   0.02166253  0.021533234            1 
 2311000     0.881564   -7.8311928     600.3138  0.021646971  0.021526657            3 
 2312000    0.8686327   -7.8311405    600.66254  0.021650178   0.02152005            3 
 2313000   0.87809809   -7.8116806    602.34364  0.021701385  0.021513499            2 
 2314000   0.88647114   -7.8116661    602.22718  0.021687813  0.021506898            1 
 2315000   0.86778115   -7.8535805     601.1978  0.021641389  0.021500338            1 
 2316000   0.88039663     -7.82695    600.89127  0.021621016  0.021493805            4 
 2317000   0.88994851   -7.8618729    601.43919  0.021631391  0.021487277            2 
 2318000   0.89855946   -7.8241146    601.98446  0.021641662  0.021480775            3 
 2319000   0.86986081   -7.8472112    602.22818  0.021641088  0.021474275            5 
 2320000   0.89146975   -7.8572406    601.38065  0.021601317  0.021467828            2 
 2321000   0.88907193   -7.8407273    602.91651  0.021647153  0.021461315            4 
 2322000   0.87812019   -7.7947645    603.36804  0.021654035   0.02145482            1 
 2323000   0.87739469   -7.8415904    602.15413  0.021601167  0.021448263            9 
 2324000    0.8773697   -7.8501905    601.65888  0.021574114  0.021441755            2 
 2325000   0.88530898   -7.8586919    601.99986  0.021577056  0.021435224            3 
 2326000   0.88197873   -7.8395855    602.28065  0.021577839  0.021428673            1 
 2327000   0.87024952   -7.8448207    600.35734   0.02149969  0.021422098            2 
 2328000   0.86813751   -7.8603964    601.95467  0.021547633  0.021415518            3 
 2329000   0.86501104   -7.8629545    601.08822  0.021507379  0.021408961            1 
 2330000   0.87311208   -7.8570168     601.3648   0.02150804  0.021402411            2 
 2331000   0.87302364   -7.8178009    603.61564  0.021579281  0.021395901            3 
 2332000   0.88451968   -7.8275275    602.79031  0.021540534  0.021389398            1 
 2333000   0.89778391   -7.8250837    603.09206   0.02154208  0.021382933            2 
 2334000   0.86922475   -7.8306906    603.63955  0.021552397  0.021376437            1 
 2335000   0.89844845   -7.8285586    602.89754  0.021516686  0.021369958            2 
 2336000   0.87387942   -7.8433566    604.25558  0.021555921  0.021363494            1 
 2337000   0.87262681   -7.8103195    604.38851  0.021551437   0.02135707            2 
 2338000   0.89176308   -7.8250088    605.11523  0.021568122  0.021350647            2 
 2339000   0.88971604   -7.8457256    604.25481  0.021528246  0.021344213            3 
 2340000   0.87913254   -7.8314299    603.57419  0.021494807   0.02133776            1 
 2341000   0.86663623   -7.8576129    603.18788  0.021471874  0.021331261            1 
 2342000   0.86296727   -7.8729338    604.26581  0.021501061  0.021324788            2 
 2343000   0.86939526   -7.8657417    604.54328  0.021501753  0.021318351            2 
 2344000   0.88090802   -7.8553114    604.42512  0.021488379  0.021311881            1 
 2345000   0.85876418   -7.8253622    606.60073  0.021556529   0.02130544            2 
 2346000    0.8758256   -7.8404662    605.17689  0.021496764   0.02129903            1 
 2347000   0.88334405   -7.8634045    603.55059   0.02142986   0.02129256            1 
 2348000   0.86507618    -7.892635    603.46887  0.021417833  0.021286038            1 
 2349000   0.87466098    -7.870412    605.62866  0.021485336  0.021279581            3 
 2350000   0.85938311   -7.8544242    606.04996  0.021491133  0.021273152            2 
 2351000   0.87882059   -7.8611746    605.68219  0.021468956  0.021266743            4 
 2352000   0.85321947   -7.8723555    605.82674   0.02146495  0.021260335            2 
 2353000   0.86653102   -7.8656182    606.82393  0.021491144   0.02125396            1 
 2354000   0.86894602   -7.8771336    604.92982  0.021414961  0.021247536            1 
 2355000   0.88126815   -7.8366813    605.63427  0.021430795  0.021241128            3 
 2356000   0.85229007   -7.8761271     604.9529  0.021397598  0.021234699            2 
 2357000   0.86734639   -7.8496494    605.04389  0.021391737  0.021228254            3 
 2358000   0.88368719   -7.8752547    606.77547   0.02144386  0.021221846            3 
 2359000    0.8768702   -7.8310749    607.26672  0.021452124   0.02121549            4 
 2360000    0.8877573   -7.8718277    605.86775  0.021393635  0.021209154            3 
 2361000   0.85009139   -7.8483788    606.11183  0.021393189  0.021202749            3 
 2362000    0.8771951   -7.8559042    605.70625  0.021369823  0.021196318            1 
 2363000    0.9076867   -7.8732254    606.12538   0.02137556   0.02118992            2 
 2364000   0.87955063   -7.8610345    607.41072  0.021411827  0.021183539            4 
 2365000    0.8854013   -7.8725844    606.65457   0.02137613  0.021177105            2 
 2366000   0.88746285   -7.8846703    605.78604  0.021336505  0.021170669            2 
 2367000   0.86347814   -7.8538692    607.81512  0.021398927  0.021164308            3 
 2368000   0.88566079   -7.8653686    607.80558  0.021389554  0.021157974            2 
 2369000   0.87498982   -7.8469484    607.15844  0.021357761  0.021151572            2 
 2370000   0.87322873   -7.9096472    605.65025  0.021295719  0.021145139            3 
 2371000   0.88227502   -7.8531266    606.93633  0.021331939  0.021138695            4 
 2372000   0.88515264   -7.8475715    606.66827  0.021313528  0.021132284            2 
 2373000   0.88184825   -7.8774959    606.10423  0.021284739  0.021125901            1 
 2374000    0.8686498   -7.8738749     608.9925  0.021377159  0.021119513            2 
 2375000   0.86748775   -7.8738527    607.07063  0.021300724  0.021113102            2 
 2376000   0.86364092   -7.8715284    607.98585  0.021323858  0.021106707            1 
 2377000   0.86646089   -7.8676152    608.30091  0.021325933  0.021100314            3 
 2378000   0.86652735   -7.8987268    607.37341  0.021284462  0.021093899            1 
 2379000   0.86827542   -7.8596348     607.0278  0.021263409  0.021087428            2 
 2380000   0.85198839   -7.8254471    608.09571  0.021291867  0.021081027            2 
 2381000   0.86504364   -7.8178409    609.20177  0.021321636  0.021074646            2 
 2382000   0.87702238   -7.8540883    607.43401   0.02125084  0.021068262            3 
 2383000   0.86322989   -7.8392953    609.35283  0.021309023  0.021061882            2 
 2384000   0.88259177    -7.855937    608.73344  0.021278434  0.021055512            3 
 2385000     0.871576   -7.8570077    607.84326  0.021238409  0.021049146            3 
 2386000   0.87709868   -7.8659883    607.88685   0.02123103  0.021042692            1 
 2387000   0.86000623   -7.8719555    608.88085  0.021256837  0.021036276            1 
 2388000   0.86752112   -7.8933032    608.11402  0.021221176  0.021029852            2 
 2389000   0.87902374   -7.8485793    608.55999   0.02122785  0.021023427            4 
 2390000   0.87068563    -7.890883    608.43103  0.021214471  0.021017012            3 
 2391000   0.87027268   -7.8783552    607.68689  0.021179663  0.021010586            2 
 2392000   0.86293901   -7.8193585    609.59552  0.021237302  0.021004187            1 
 2393000   0.86404033   -7.8342362    609.83692  0.021236834  0.020997835            2 
 2394000   0.86668323   -7.8709765    608.30022  0.021174471  0.020991498            1 
 2395000    0.8497039   -7.8866611    609.79301  0.021217572  0.020985079            2 
 2396000   0.87171438   -7.8842799    608.61743  0.021167829  0.020978649            2 
 2397000   0.84774125   -7.8830373    609.85659  0.021202079  0.020972207            2 
 2398000   0.87376182   -7.8783451    608.21971  0.021136354  0.020965814            6 
 2399000   0.88750829   -7.8863542    608.84278  0.021149187  0.020959398            1 
 2400000   0.86663742   -7.8686746    610.53349   0.02119908   0.02095301            4 
 2401000   0.86844092   -7.8868043    609.67484  0.021160448   0.02094663            2 
 2402000   0.86961595   -7.8644856    609.49234  0.021145308   0.02094025            1 
 2403000   0.85825046    -7.901803    607.64964  0.021072605  0.020933873            5 
 2404000   0.86457408   -7.8666814    609.99599  0.021145174  0.020927471            1 
 2405000    0.8972292   -7.8443782     610.7312  0.021161857  0.020921085            2 
 2406000   0.87579432    -7.891967    609.73819  0.021118668  0.020914759            1 
 2407000   0.85620389   -7.8895431    609.75687  0.021110541  0.020908421            4 
 2408000   0.86624996   -7.8795227    609.86041  0.021105357  0.020902121            3 
 2409000    0.8709815   -7.8617296    611.15691  0.021141446  0.020895816            3 
 2410000   0.87118616    -7.874136     610.8165  0.021120902  0.020889487            5 
 2411000   0.85857673   -7.8784203    610.20562  0.021091028  0.020883152            1 
 2412000   0.86348944   -7.8979755    611.10289  0.021113284  0.020876796            2 
 2413000   0.86062124   -7.8840053    610.04456  0.021067985  0.020870435            3 
 2414000   0.85480665   -7.8739087    610.28261  0.021067475  0.020864071            2 
 2415000   0.86554166   -7.8904206    611.17369  0.021089499  0.020857738            2 
 2416000     0.858774   -7.8796849    610.88071  0.021070665  0.020851441            3 
 2417000   0.85682719   -7.8548245    611.63887  0.021088087  0.020845173            4 
 2418000   0.86999061   -7.8693564    610.97322  0.021056425   0.02083894            2 
 2419000   0.85077442   -7.8858202    611.91905  0.021080303  0.020832652            3 
 2420000   0.89128646   -7.8517102    612.69815  0.021098421  0.020826406            3 
 2421000   0.87540541   -7.8916512      611.256  0.021040066  0.020820176            3 
 2422000   0.85393778   -7.8732717    611.50623  0.021039989  0.020813941            1 
 2423000   0.86337089   -7.8680428    613.48183  0.021099251  0.020807719            2 
 2424000   0.87898412   -7.8873499    613.22921  0.021081862  0.020801531            1 
 2425000    0.8693601   -7.9326192    611.30367  0.021006999  0.020795348            1 
 2426000   0.86394951   -7.8986392     612.9554  0.021055077  0.020789107            4 
 2427000   0.83999331   -7.8660693    614.04348  0.021083762  0.020782932            1 
 2428000   0.83156829   -7.8674042    612.97285  0.021038332  0.020776735            5 
 2429000   0.87643729   -7.8798805    614.45492  0.021080517  0.020770577            2 
 2430000   0.85032071   -7.9209441    611.40321  0.020967188  0.020764373            1 
 2431000   0.85564821   -7.8955942    612.13058  0.020983497   0.02075814            2 
 2432000   0.88737922   -7.8922979    612.88224  0.021000625  0.020751948            3 
 2433000    0.8679474   -7.8837288    615.36591  0.021077062  0.020745759            2 
 2434000   0.85598295   -7.8953778    613.66143  0.021010046  0.020739586            2 
 2435000   0.84914496   -7.8978881    613.58796  0.020998903  0.020733418            4 
 2436000   0.86831829   -7.8827302    614.29257  0.021014387  0.020727239            4 
 2437000   0.85735194   -7.8992332     615.6396  0.021051826  0.020721039            2 
 2438000   0.86846985   -7.8747669    613.88803  0.020983321  0.020714825            5 
 2439000   0.86693976   -7.8874242    612.73201   0.02093522  0.020708581            2 
 2440000   0.87315629   -7.8985323    613.92967  0.020967543   0.02070232            2 
 2441000   0.85126199   -7.8850365     614.2451  0.020969722  0.020696044            1 
 2442000    0.8506382   -7.9160318    613.40717   0.02093254  0.020689814            1 
 2443000   0.87107125   -7.8944593    613.41055  0.020924088  0.020683576            3 
 2444000   0.86896925   -7.9034064    613.84806  0.020930444  0.020677352            3 
 2445000   0.86417529   -7.9147913    614.67802  0.020950171  0.020671066            6 
 2446000   0.86146178   -7.9053544    613.14276  0.020889301  0.020664826            3 
 2447000    0.8675212   -7.8987385    612.42669  0.020856378  0.020658625            2 
 2448000   0.85988887   -7.8824807    615.49945   0.02095246  0.020652449            1 
 2449000    0.8578636   -7.8893004    614.58947   0.02091294  0.020646267            3 
 2450000   0.85439662   -7.8552261     614.2125  0.020891582  0.020640054            1 
 2451000   0.86112183   -7.8513892    616.52428  0.020961658  0.020633832            2 
 2452000   0.86021761   -7.9145577    614.23311  0.020875242  0.020627587            4 
 2453000   0.83983523   -7.8772371    614.42141  0.020873129   0.02062135            2 
 2454000   0.88360652   -7.8977411    616.73825  0.020943298  0.020615156            3 
 2455000   0.87187533    -7.905503    614.87721  0.020871596  0.020608971            3 
 2456000   0.85324011   -7.8897532    615.04022  0.020868629  0.020602761            1 
 2457000   0.86355149   -7.8617518    616.06339  0.020894837  0.020596571            4 
 2458000    0.8536019   -7.8976888    615.94524  0.020882331  0.020590417            2 
 2459000   0.86137117   -7.8735608      615.017  0.020842382  0.020584239            1 
 2460000   0.86652013   -7.8965881    616.46496  0.020882959  0.020578063            4 
 2461000   0.84709057   -7.9352017    615.05776  0.020826824  0.020571901            2 
 2462000   0.85408964   -7.8549244    614.92188  0.020813765    0.0205657            2 
 2463000   0.84282915   -7.9197359    616.93187  0.020873321  0.020559511            2 
 2464000   0.84744899   -7.8975711    616.72993   0.02085802  0.020553307            2 
 2465000   0.85548992   -7.9294712    615.10434  0.020794602   0.02054713            1 
 2466000   0.86313945    -7.917832    615.96997  0.020815422  0.020540947            2 
 2467000   0.83807862    -7.875383    617.65109  0.020863771   0.02053478            6 
 2468000   0.87241174   -7.8690493    616.88525  0.020829459  0.020528593            3 
 2469000   0.86710567   -7.8995447    617.15276  0.020830051  0.020522434            2 
 2470000   0.85216704   -7.9160845    615.65807   0.02077119  0.020516268            4 
 2471000   0.86129909   -7.9089004    616.25091  0.020782777  0.020510075            2 
 2472000    0.8576885   -7.9149574    616.80049  0.020792897  0.020503916            2 
 2473000   0.84569288    -7.897658    618.20293  0.020831747  0.020497779            2 
 2474000    0.8570712   -7.8878633    616.74678  0.020774278  0.020491651            2 
 2475000   0.83347835   -7.8951571    616.23501  0.020748654  0.020485531            2 
 2476000   0.86192649   -7.8739923    618.13228  0.020804129  0.020479407            2 
 2477000   0.86163579   -7.8939569    616.36672  0.020736332  0.020473288            3 
 2478000   0.85120201   -7.9122615    617.65779  0.020771381  0.020467155            2 
 2479000   0.87035773   -7.8979609    617.28999  0.020750638  0.020460994            2 
 2480000   0.84465362   -7.9449879    615.40619  0.020678971  0.020454776            2 
 2481000   0.86468982   -7.9027285     617.7979  0.020750971   0.02044857            1 
 2482000   0.85729613   -7.8970232    618.03615  0.020750609  0.020442396            2 
 2483000   0.86562983    -7.899061    616.26782  0.020682904  0.020436179            1 
 2484000   0.83503675   -7.9195058    615.00312   0.02063215  0.020429939            3 
 2485000   0.85281641    -7.906604    616.65742  0.020679323  0.020423673            1 
 2486000   0.85971644   -7.9201107    615.57834  0.020634833  0.020417396            1 
 2487000   0.83420507    -7.913767    617.31144  0.020684608  0.020411156            2 
 2488000   0.86364762   -7.8973922     616.5684  0.020651407  0.020404902            3 
 2489000   0.84762728   -7.9170244     618.9201  0.020721846  0.020398626            3 
 2490000   0.85195348   -7.9246396    616.72849  0.020640177  0.020392376            2 
 2491000   0.85736651    -7.927236    617.03759  0.020642232  0.020386082            1 
 2492000   0.85965275   -7.9204626    615.16143  0.020571209  0.020379817            2 
 2493000   0.86501609   -7.8832351    616.64786  0.020612644  0.020373552            2 
 2494000    0.8455441   -7.8722861    616.41239  0.020596511   0.02036733            2 
 2495000   0.85558472   -7.8979091    616.68391  0.020597325   0.02036107            5 
 2496000   0.85985107   -7.9195064    616.23795  0.020574184  0.020354736            2 
 2497000   0.87011428   -7.9486317    615.74252   0.02054941  0.020348416            1 
 2498000   0.84397744   -7.9206114    615.98488  0.020549269  0.020342052            1 
 2499000   0.85010937   -7.9468036    614.69879  0.020498159  0.020335683            2 
 2500000   0.84011027   -7.9429675     616.2553  0.020541843  0.020329351            2 
 2501000    0.8553761   -7.9260584    616.39491  0.020538282  0.020322981            1 
 2502000   0.83656345   -7.9051104    616.20711  0.020523818  0.020316627            1 
 2503000   0.84788462   -7.9066848    616.05428   0.02051053  0.020310262            2 
 2504000   0.84037361   -7.9322378    616.36327  0.020512622  0.020303899            2 
 2505000   0.85256769   -7.9403288    616.46157  0.020507703  0.020297517            1 
 2506000   0.86508779    -7.952383    616.49152  0.020500516  0.020291122            2 
 2507000   0.87117699   -7.9294102    615.46176  0.020458109  0.020284743            2 
 2508000   0.86101649   -7.9041932    616.85887  0.020496374  0.020278405            2 
 2509000   0.85071937   -7.9285605    615.27226  0.020435507  0.020272075            2 
 2510000   0.86990155   -7.9380076    617.09352  0.020487833    0.0202657            3 
 2511000   0.87122712   -7.9335077     616.4503  0.020458327  0.020259358            2 
 2512000   0.84330254   -7.9250131    617.37759  0.020480945  0.020253011            4 
 2513000   0.85442559   -7.9068215    615.92374  0.020424583   0.02024668            3 
 2514000   0.83819214   -7.9009901    617.73686   0.02047656  0.020240332            2 
 2515000   0.85781817   -7.9382417     616.5148  0.020427926   0.02023398            1 
 2516000    0.8639338   -7.9491557    616.29409  0.020412496  0.020227592            2 
 2517000   0.84590053   -7.9293502     616.0943  0.020397772  0.020221222            2 
 2518000    0.8441222   -7.9035674    616.67963  0.020409043  0.020214869            2 
 2519000   0.84167776   -7.9343083    617.23876  0.020419437  0.020208505            2 
 2520000   0.84471265   -7.9093923    617.04769  0.020405016  0.020202162            5 
 2521000   0.84164415   -7.9456554     616.9511  0.020393729  0.020195795            4 
 2522000   0.84622824   -7.8863432    617.72633  0.020411258  0.020189416            1 
 2523000   0.84544473   -7.9392796    618.03827  0.020413472  0.020183019            2 
 2524000   0.87441562   -7.9388284    616.20243  0.020344771    0.0201766            3 
 2525000   0.85360188   -7.9516935    614.00354  0.020264143  0.020170149            4 
 2526000   0.83482706   -7.9371403    616.24302  0.020330002  0.020163745            2 
 2527000   0.82443684    -7.965822    615.54987  0.020299099  0.020157326            3 
 2528000    0.8467295   -7.9246993    616.14222  0.020310595  0.020150913            6 
 2529000   0.85503549   -7.9187801    616.58398  0.020317121  0.020144507            4 
 2530000   0.84545681   -7.9136873    618.30544  0.020365792  0.020138152            2 
 2531000   0.85645688    -7.916721    617.91693  0.020344953  0.020131823            2 
 2532000   0.85167702   -7.9181336    617.86894  0.020335339  0.020125461            2 
 2533000   0.85655863    -7.913589    618.78676  0.020357506  0.020119098            2 
 2534000   0.84406958   -7.9407447    618.94524  0.020354684  0.020112734            1 
 2535000    0.8334156   -7.9282213    618.98023  0.020347805  0.020106314            3 
 2536000   0.85718912   -7.9423676    617.14133  0.020279355  0.020099918            3 
 2537000   0.85407986   -7.9203105    616.37601  0.020246223  0.020093535            3 
 2538000   0.82834804   -7.9191088    617.97774  0.020290837  0.020087123            4 
 2539000   0.86553913   -7.9569805    616.24034  0.020225822  0.020080718            2 
 2540000   0.84690769    -7.912286    617.70808  0.020266013  0.020074284            1 
 2541000   0.85606592   -7.9266173    616.90964  0.020231852   0.02006787            3 
 2542000   0.87412895   -7.9282791     616.3462  0.020205422   0.02006146            1 
 2543000   0.84821374   -7.9352395    617.22691  0.020226337  0.020055071            4 
 2544000   0.83186532   -7.9305983    618.62892  0.020264312  0.020048695            2 
 2545000   0.81957719   -7.9309414     616.5682  0.020188873  0.020042307            1 
 2546000    0.8305823   -7.9483836    618.75821  0.020252625  0.020035964            1 
 2547000   0.85882295   -7.9494981     617.8928  0.020216359   0.02002956            4 
 2548000    0.8381751   -7.9235978     617.4833  0.020195032  0.020023124            2 
 2549000   0.86556877    -7.970831    617.02578  0.020172152  0.020016696            4 
 2550000   0.85391775   -7.9273095    617.66265  0.020185054  0.020010311            1 
 2551000   0.82790481   -7.8967744    618.04003  0.020189469  0.020003947            5 
 2552000    0.8427315   -7.9045979    619.21215  0.020219833  0.019997579            2 
 2553000   0.87415804   -7.9292203    617.94227  0.020170462  0.019991201            2 
 2554000   0.85628087    -7.945113     618.1967  0.020170866  0.019984832            7 
 2555000   0.84332501   -7.9493181    618.79435  0.020182464  0.019978473            3 
 2556000   0.84946254   -7.8955138    619.50094  0.020197605  0.019972134            2 
 2557000    0.8329591   -7.9139271    619.19627  0.020179777  0.019965777            2 
 2558000   0.85961475   -7.9211333    619.38875  0.020178158  0.019959412            2 
 2559000   0.83636837   -7.9277615     618.2228  0.020132304  0.019953045            4 
 2560000    0.8388492   -7.9208601    619.99221  0.020182038  0.019946693            2 
 2561000   0.83643289   -7.8974873    618.19389  0.020115641  0.019940387            3 
 2562000   0.84402391   -7.9160992    618.95623  0.020132586  0.019934041            3 
 2563000   0.84291236   -7.9215618    617.88094  0.020089769  0.019927663            2 
 2564000   0.85942581   -7.9263769    619.46257  0.020133339  0.019921332            1 
 2565000   0.84775005   -7.9583821    618.40351  0.020091082     0.019915            3 
 2566000   0.83703668   -7.9589205    617.43118  0.020051675  0.019908637            2 
 2567000   0.82810955     -7.93816    619.58899  0.020113913  0.019902292            4 
 2568000   0.85442023   -7.9684315    619.33995  0.020097999  0.019895931            2 
 2569000   0.84168214    -7.938456    619.74936  0.020103457  0.019889584            3 
 2570000   0.83564875   -7.9158665    621.73599  0.020160052  0.019883317            2 
 2571000   0.83336792   -7.8981518     620.3722  0.020108006  0.019877027            2 
 2572000   0.82675343   -7.9129754    621.35717  0.020132101  0.019870712            1 
 2573000    0.8512234   -7.9002676    621.06072  0.020114675  0.019864429            2 
 2574000   0.86029862   -7.9073905    621.55168  0.020122756  0.019858151            2 
 2575000   0.86000372   -7.9333826    620.92479  0.020094653  0.019851822            2 
 2576000   0.82661989   -7.9802406    619.69688   0.02004713  0.019845497            1 
 2577000   0.85138625   -7.9390273    621.04792   0.02008304  0.019839204            2 
 2578000   0.84579131   -7.8927504      621.679  0.020095649  0.019832901            2 
 2579000   0.84868813    -7.929959    620.73984  0.020057511  0.019826605            3 
 2580000   0.85335614    -7.920878    621.13934   0.02006264  0.019820328            1 
 2581000   0.85411608   -7.9885515    621.05766   0.02005223  0.019814037            3 
 2582000   0.82787664   -7.9722819    620.69115  0.020032635  0.019807739            5 
 2583000   0.85046121    -7.954684    622.51488  0.020083717  0.019801459            2 
 2584000   0.84281569   -7.9476874    621.48168  0.020042624  0.019795171            1 
 2585000   0.83597719   -7.9088965    621.83814  0.020046362  0.019788908            1 
 2586000   0.84337117   -7.9600449    620.02779  0.019980272  0.019782633            2 
 2587000   0.83120121   -7.9381965    621.02263  0.020004594  0.019776366            1 
 2588000    0.8306598    -7.981414    620.35416   0.01997534  0.019770058            1 
 2589000   0.84298552   -7.9609443     620.2652  0.019964761  0.019763775            1 
 2590000   0.84081637   -7.9242185     620.8891  0.019977127  0.019757482            3 
 2591000   0.83618727   -7.9580831    622.96945  0.020036326   0.01975121            3 
 2592000   0.83760358   -7.9381389    621.89666  0.019994106  0.019744964            2 
 2593000   0.82807642   -7.9340154    622.23026  0.019997116  0.019738751            2 
 2594000   0.82893322   -7.9356489    622.00449  0.019982154  0.019732525            1 
 2595000   0.84856637   -7.9454257    621.39453  0.019954866  0.019726309            1 
 2596000   0.83053108   -7.9430892    621.76838   0.01995918   0.01972006            2 
 2597000   0.84195938   -7.9539358    621.41819  0.019940258  0.019713767            2 
 2598000   0.83615215   -7.9904243    621.03876  0.019920412   0.01970748            2 
 2599000   0.83490468   -7.9670585    620.90761  0.019908542  0.019701232            1 
 2600000   0.83330089   -7.9522013    621.82336  0.019930236  0.019695011            2 
 2601000   0.83975378   -7.9450522    623.65592  0.019981287  0.019688792            3 
 2602000    0.8283527   -7.9633518    624.69134  0.020006768  0.019682566            1 
 2603000   0.84286464   -7.9602905    622.98204   0.01994436  0.019676403            2 
 2604000   0.84278464   -7.9564501    624.16797  0.019974654  0.019670222            2 
 2605000   0.83748392   -7.9195302    625.02895  0.019994528   0.01966406            2 
 2606000   0.83461017   -7.9594337    623.42703   0.01993563  0.019657877            2 
 2607000   0.83125428   -7.9469627    623.27045  0.019922978  0.019651682            1 
 2608000   0.82781533   -7.9725534    621.80819  0.019868616  0.019645458            2 
 2609000   0.82803612   -7.9706316    622.60182  0.019886349  0.019639238            2 
 2610000    0.8198847   -7.9541162    622.28408  0.019868585  0.019633067            3 
 2611000   0.82734169   -7.9746107    622.65827  0.019872918  0.019626862            3 
 2612000   0.85433794    -7.952978     623.7675  0.019900699  0.019620632            3 
 2613000   0.82871202   -7.9662512    622.87275  0.019864547  0.019614438            2 
 2614000   0.83511329   -7.9590218    623.56285  0.019878948  0.019608239            1 
 2615000   0.85137202   -7.9631355      623.736  0.019876864  0.019602059            3 
 2616000    0.8482926   -7.9494926    623.48369  0.019861229  0.019595882            1 
 2617000   0.85800059   -7.9777004    624.32091  0.019880299  0.019589726            2 
 2618000   0.82637416   -7.9352026    624.09978  0.019865667  0.019583564            1 
 2619000   0.83415476   -7.9788748    623.47639  0.019838246  0.019577411            2 
 2620000   0.83792772   -7.9605185    625.16222  0.019884295  0.019571269            1 
 2621000   0.84346974   -7.9842295    623.96317  0.019838585  0.019565116            2 
 2622000     0.838395   -7.9757062    622.83707  0.019795228  0.019558942            2 
 2623000   0.83004826   -7.9241738     625.8134   0.01988224  0.019552748            3 
 2624000   0.81951752   -7.9481222     623.6536  0.019806072  0.019546585            1 
 2625000    0.8413982    -7.960801    624.46713  0.019824353  0.019540429            4 
 2626000   0.82377186   -7.9771041    623.83825  0.019796847  0.019534282            3 
 2627000   0.82627348   -7.9674304    623.58022  0.019781126  0.019528116            2 
 2628000   0.80584284   -8.0080705    624.78598  0.019811834   0.01952192            2 
 2629000   0.83207201   -7.9842318     624.3256  0.019789704  0.019515731            2 
 2630000   0.82027136   -7.9620627    623.78848  0.019765161  0.019509577            1 
 2631000   0.80958828    -7.985005    624.27865  0.019773174  0.019503437            2 
 2632000   0.83724802   -7.9406937    625.07807  0.019790972  0.019497301            3 
 2633000    0.8391643   -7.9579057    624.99031  0.019780678  0.019491168            2 
 2634000   0.82248781   -7.9832427    624.31388  0.019751768   0.01948501            3 
 2635000   0.81801811   -7.9518063    625.19466  0.019772127  0.019478871            1 
 2636000   0.81141362   -7.9832754    624.81757  0.019752705  0.019472729            2 
 2637000   0.81543581   -7.9443707    625.56649  0.019768882  0.019466608            7 
 2638000   0.84472793   -7.9616861    624.94165  0.019741649  0.019460489            1 
 2639000   0.82471662   -7.9402401    627.68182  0.019820697  0.019454428            1 
 2640000    0.8455052   -7.9743759    623.70908  0.019687787   0.01944835            2 
 2641000   0.81676131    -7.961631    627.39876  0.019796755  0.019442254            1 
 2642000   0.81746581   -7.9839367    624.76262  0.019706113  0.019436138            2 
 2643000   0.81219641   -8.0074825    625.51889  0.019722502  0.019429965            2 
 2644000   0.82433928   -7.9900334    625.28371  0.019707631  0.019423809            2 
 2645000    0.8283945   -7.9999626    625.95183   0.01972123  0.019417675            2 
 2646000   0.81060288   -8.0018675    624.01072  0.019652643  0.019411537            3 
 2647000    0.8247698    -7.958042    626.78644  0.019732604  0.019405406            3 
 2648000   0.81292779   -7.9682289    624.79951  0.019662623  0.019399315            2 
 2649000   0.83364404   -7.9955323    624.57527  0.019648146  0.019393245            2 
 2650000   0.81150304    -8.007336    625.90967  0.019682694  0.019387115            3 
 2651000   0.81217455   -7.9439194    627.74022  0.019732812  0.019380968            3 
 2652000   0.83261931   -7.9687039      626.962  0.019700918  0.019374882            1 
 2653000   0.82497137   -7.9672939    626.49585  0.019678849  0.019368797            2 
 2654000   0.83137372   -7.9664632    626.82703  0.019681834  0.019362714            1 
 2655000   0.83483539   -7.9556177     628.2227  0.019718227  0.019356632            4 
 2656000    0.8203825    -7.964655    626.06571  0.019643126  0.019350552            1 
 2657000   0.82822576    -7.954618    627.32343   0.01967518  0.019344461            2 
 2658000   0.82069962   -7.9965801    627.30261  0.019667125   0.01933839            2 
 2659000    0.8360695   -7.9680813    628.62523  0.019701179  0.019332341            2 
 2660000   0.84101594   -7.9879639    626.73465  0.019634544  0.019326274            3 
 2661000   0.81750547   -8.0116487    627.58388   0.01965376  0.019320189            4 
 2662000   0.82331172   -7.9607566    628.17026  0.019664734  0.019314086            3 
 2663000   0.83380129   -8.0115712    625.11756  0.019561821     0.019308            4 
 2664000   0.82573745   -7.9883209    627.99929  0.019644622  0.019301886            1 
 2665000   0.82809351    -7.963286    627.75092  0.019629485  0.019295796            2 
 2666000   0.82457332   -7.9762765    625.89839  0.019564216  0.019289684            1 
 2667000   0.82711262   -8.0138972    625.88091  0.019556334  0.019283563            2 
 2668000   0.82135868   -8.0116699    625.37463  0.019533191  0.019277445            2 
 2669000    0.7965517   -7.9807824    626.00068  0.019545419  0.019271308            1 
 2670000   0.81259429   -8.0094772    627.61787  0.019588573  0.019265188            3 
 2671000   0.82528457   -8.0149312    626.00674  0.019530973  0.019259051            2 
 2672000   0.82189181   -8.0082123    627.58746  0.019572962  0.019252929            1 
 2673000   0.83303729   -7.9777582    627.48395  0.019562413  0.019246842            2 
 2674000   0.82701149   -7.9700126    627.24959  0.019547793  0.019240772            1 
 2675000   0.82462117   -7.9523955    628.98539   0.01959456  0.019234684            3 
 2676000   0.83056526   -7.9912486    624.66638   0.01945274   0.01922861            4 
 2677000   0.82593364   -8.0088424    626.45416  0.019501126  0.019222492            3 
 2678000   0.81215711   -7.9673664    628.33235  0.019552289  0.019216413            1 
 2679000   0.85225487    -7.985873    627.90292  0.019531632  0.019210303            1 
 2680000   0.83572087   -7.9835005    626.99829  0.019496216  0.019204235            1 
 2681000   0.81454641   -7.9939741    626.58011  0.019475945  0.019198134            2 
 2682000   0.81987598   -7.9507495    628.05214  0.019514422  0.019192058            2 
 2683000   0.82971055   -7.9864006    628.52688  0.019521893  0.019185992            2 
 2684000   0.81714908   -7.9738537    629.78036  0.019553538  0.019179938            2 
 2685000    0.8231579   -7.9933322    626.91441  0.019457306  0.019173856            3 
 2686000   0.81846878   -7.9864113    629.14661  0.019519316  0.019167782            3 
 2687000   0.83339247    -7.997645    628.42541  0.019489685  0.019161723            3 
 2688000   0.81188448   -8.0301917    627.71843  0.019460517  0.019155644            3 
 2689000   0.81781165   -8.0294316      628.022  0.019462687  0.019149539            1 
 2690000   0.81152586   -8.0101623    628.24555  0.019462378  0.019143454            4 
 2691000   0.83018896   -7.9867499    627.88685  0.019444037  0.019137376            2 
 2692000   0.82255103   -7.9935146    630.09099  0.019505045  0.019131286            1 
 2693000   0.82089379   -8.0210243    628.66288  0.019453611  0.019125222            1 
 2694000   0.82727439   -7.9969002    628.63461  0.019445515  0.019119138            2 
 2695000   0.81404225   -8.0295987    627.60207  0.019406372  0.019113086            3 
 2696000   0.83480285   -8.0150756    627.64799  0.019400593  0.019107039            3 
 2697000   0.82135846   -8.0285817    630.14181  0.019470455  0.019101014            1 
 2698000   0.82570317   -7.9700788    629.47057  0.019442506  0.019094962            5 
 2699000   0.82108608   -7.9676238    630.08947  0.019454411  0.019088923            2 
 2700000   0.81938177   -7.9736942    628.00853  0.019382979  0.019082916            3 
 2701000   0.82253383   -7.9746929    629.51502  0.019422282  0.019076918            2 
 2702000   0.83292129   -8.0028794    627.92593  0.019366085  0.019070861            2 
 2703000   0.81869787   -7.9903853    629.39377  0.019404173  0.019064808            1 
 2704000   0.82863547   -7.9867491    629.64785  0.019404828  0.019058781            2 
 2705000   0.84619951   -7.9981628    629.31102  0.019387277  0.019052807            2 
 2706000   0.81466592   -7.9772308    631.63134  0.019451569  0.019046809            2 
 2707000   0.81287728   -7.9949028    629.59468  0.019381686  0.019040793            3 
 2708000   0.82112931   -8.0082129    628.21264  0.019331999  0.019034762            4 
 2709000   0.80105395   -7.9772441    630.85591  0.019406174  0.019028748            2 
 2710000   0.82378076   -8.0141087    627.98039   0.01931059  0.019022726            1 
 2711000   0.83070208   -7.9548125    630.46458  0.019379828  0.019016724            3 
 2712000   0.80606569   -7.9683471    629.76898  0.019351308  0.019010706            2 
 2713000   0.82994434   -8.0286184    628.57615  0.019307536  0.019004649            1 
 2714000    0.8292935   -8.0024051    629.08696  0.019316106  0.018998578            2 
 2715000   0.81548817   -7.9681423    629.59614  0.019324621  0.018992523            2 
 2716000   0.81217858   -8.0284367     629.7227  0.019321389  0.018986452            2 
 2717000   0.79316963   -8.0090021    629.03512  0.019293188  0.018980373            1 
 2718000   0.81007406    -8.004911    628.89852  0.019281902  0.018974322            1 
 2719000   0.81927105   -8.0060571    630.26988  0.019316841  0.018968244            2 
 2720000   0.81213855   -8.0344896    628.95011  0.019269305  0.018962163            2 
 2721000    0.8295805   -7.9915212    630.32631  0.019304371  0.018956084            3 
 2722000   0.82819435   -8.0203646    628.58196  0.019243876  0.018950012            2 
 2723000   0.81423095   -7.9837181    628.70119  0.019240458  0.018943915            1 
 2724000   0.80981078    -8.018164    628.16844  0.019217096  0.018937818            3 
 2725000   0.82216305   -8.0054445    630.11048  0.019269434  0.018931762            4 
 2726000   0.80459803   -7.9883591    630.05934  0.019260802  0.018925709            3 
 2727000   0.81053562   -7.9966792    628.84915  0.019216757  0.018919621            2 
 2728000   0.81457917    -7.989081    628.61008  0.019202409  0.018913561            4 
 2729000   0.79715336    -7.992642    628.56157  0.019193892  0.018907511            2 
 2730000   0.81528996   -8.0044563    630.41312   0.01924338  0.018901447            1 
 2731000   0.83732105   -8.0230642    630.27915  0.019232245  0.018895378            2 
 2732000   0.78877696   -8.0274759    629.36265   0.01919725  0.018889296            1 
 2733000   0.81136858   -8.0219474    629.21225   0.01918564  0.018883181            1 
 2734000   0.82096455   -8.0280114    629.82047  0.019197161    0.0188771            2 
 2735000   0.80494298   -8.0387019     629.8745  0.019191789  0.018871014            2 
 2736000   0.80054425   -8.0103375    629.93658  0.019186665  0.018864928            2 
 2737000   0.83422745   -8.0025005    629.17078  0.019156339  0.018858859            2 
 2738000   0.83632041   -7.9818392    630.68847  0.019195534  0.018852754            3 
 2739000    0.8094518   -8.0414453    628.27385  0.019115062  0.018846674            3 
 2740000   0.82132086    -7.999227    629.62141   0.01914907  0.018840562            2 
 2741000   0.78937045   -8.0277145     629.3653  0.019134297  0.018834476            1 
 2742000   0.79222254   -8.0280286    629.69287  0.019137274  0.018828383            1 
 2743000    0.8241988   -8.0247234    629.62371  0.019128196  0.018822305            1 
 2744000   0.83097742   -7.9901997     630.4762  0.019147115  0.018816219            2 
 2745000   0.82729323   -8.0204335    629.54752  0.019111946  0.018810109            4 
 2746000   0.80952199   -8.0154374     629.6228  0.019107271  0.018804013            1 
 2747000   0.80662076   -8.0083531    630.50241  0.019126999  0.018797944            3 
 2748000   0.81204406   -8.0188434    629.83285  0.019099735  0.018791861            2 
 2749000   0.82893777   -8.0058669    630.33411  0.019107982  0.018785818            1 
 2750000   0.80568666   -8.0351557    628.99512  0.019060458  0.018779734            1 
 2751000   0.84477294   -8.0555899    628.27445  0.019031699  0.018773632            3 
 2752000   0.81418247   -7.9916661    629.86198  0.019072855  0.018767559            2 
 2753000   0.82420348   -7.9492865    631.84002  0.019125803  0.018761494            2 
 2754000   0.81992523   -7.9969422    630.14957  0.019067707  0.018755465            2 
 2755000   0.79062357   -7.9827692    630.79234  0.019080228  0.018749432            1 
 2756000   0.81517561   -8.0054651    630.04502  0.019050708  0.018743374            2 
 2757000   0.79582587   -8.0436922    629.95069  0.019040947  0.018737336            2 
 2758000   0.81966142   -8.0261893    630.34218  0.019045872   0.01873126            2 
 2759000   0.81560523   -8.0279551    631.01071  0.019059161  0.018725197            2 
 2760000   0.79443468   -8.0367609    630.91615  0.019049401  0.018719144            1 
 2761000   0.81562138   -8.0265514    631.10657  0.019048249  0.018713115            2 
 2762000   0.80928088   -8.0221202    630.58072  0.019025487  0.018707085            1 
 2763000   0.80013053   -8.0236185    630.23369  0.019008134  0.018701058            1 
 2764000   0.78794409   -8.0213252    630.62931  0.019013185  0.018695042            1 
 2765000    0.8189474    -8.032554    631.42313  0.019030233  0.018688979            1 
 2766000    0.8023286   -8.0377841    630.79216  0.019004343  0.018682892            1 
 2767000   0.82615774   -8.0399209    629.89831  0.018970555  0.018676806            1 
 2768000    0.8125102   -8.0445323    631.10492  0.019000028  0.018670704            2 
 2769000    0.8000546   -8.0284604    631.59995  0.019008064  0.018664634            2 
 2770000   0.80712717   -8.0303847    631.09933  0.018986141  0.018658536            1 
 2771000   0.78078066   -8.0734715    630.33009  0.018956156  0.018652489            3 
 2772000   0.80620898   -8.0236527    630.17143  0.018944547  0.018646429            4 
 2773000   0.80289326   -8.0241916    631.14463  0.018966962  0.018640401            1 
 2774000   0.80545994   -8.0266315    630.67996  0.018946166  0.018634374            2 
 2775000   0.82362631    -8.051494    629.32517  0.018898654  0.018628302            2 
 2776000   0.81300146   -8.0522266    630.69222  0.018932884  0.018622217            3 
 2777000   0.79935356   -8.0229853    631.38967  0.018946995  0.018616151            2 
 2778000   0.80525981   -7.9979878    631.84204  0.018953745  0.018610094            4 
 2779000   0.81291777   -8.0200762    631.67054  0.018941782  0.018604028            2 
 2780000    0.8152306   -8.0032628    630.53111  0.018900813  0.018597977            2 
 2781000   0.80735109   -8.0188865     631.2675  0.018916082  0.018591933            4 
 2782000   0.79789414   -8.0162521    631.83207  0.018926194  0.018585882            2 
 2783000   0.80724514   -8.0312195    631.04529  0.018895835  0.018579836            2 
 2784000   0.80539632   -8.0519416    630.53931  0.018873902  0.018573779            4 
 2785000   0.79801102   -8.0251685    630.77805  0.018874268  0.018567716            2 
 2786000   0.81774471   -8.0434638    631.29338  0.018882908  0.018561658            4 
 2787000   0.80773312   -8.0416299    629.38236  0.018818992  0.018555619            1 
 2788000    0.7803541    -7.999485    631.93183  0.018888445   0.01854957            3 
 2789000   0.78617177   -8.0457812    631.44657  0.018867174  0.018543549            1 
 2790000     0.825109   -8.0344165    631.35169  0.018857577  0.018537505            2 
 2791000   0.80149215   -8.0439798    630.36877  0.018821473  0.018531504            2 
 2792000   0.80083817   -8.0309944    632.40956  0.018875643  0.018525481            2 
 2793000   0.82128073   -8.0529359    631.40976  0.018839055  0.018519438            1 
 2794000   0.81757745    -8.012558    631.42554  0.018832783  0.018513394            2 
 2795000   0.79131378   -8.0345657    631.61957   0.01883183   0.01850736            4 
 2796000   0.81100185   -8.0133939    631.83931  0.018831644  0.018501315            1 
 2797000   0.80553054   -8.0432041    632.29439   0.01883847  0.018495269            2 
 2798000    0.8036151   -8.0414728    631.46471  0.018807026  0.018489245            2 
 2799000   0.80903494   -8.0379378    631.17973  0.018791823  0.018483203            2 
 2800000   0.79701401   -8.0401171    631.56516  0.018796582  0.018477161            4 
 2801000   0.79249386   -8.0192461    632.10778  0.018806015  0.018471121            1 
 2802000   0.79765503   -8.0389553    631.56699   0.01878322  0.018465083            2 
 2803000   0.81797683   -8.0427974    630.83541  0.018754769  0.018459014            1 
 2804000    0.7944715   -8.0688945    631.67443  0.018773016  0.018452957            4 
 2805000   0.80316208   -8.0309131    631.56113  0.018762957   0.01844691            2 
 2806000   0.80526707   -8.0779818    631.22846  0.018746391  0.018440841            7 
 2807000   0.79794228   -8.0722211    631.47722  0.018747097  0.018434752            1 
 2808000   0.80926219   -8.0472288    632.42084  0.018768425  0.018428694            1 
 2809000   0.79914266    -8.061321    631.68515  0.018739918   0.01842263            1 
 2810000   0.79941871   -8.0679774    632.08021  0.018744965  0.018416552            2 
 2811000   0.81086445   -8.0725346    630.81352  0.018700745  0.018410486            2 
 2812000   0.81969387   -8.0559304    631.81054  0.018723641  0.018404456            3 
 2813000   0.79215214   -8.0453321    633.26862  0.018760179  0.018398425            3 
 2814000   0.79248733   -8.0551546    632.89779  0.018742531  0.018392392            3 
 2815000   0.79982306   -8.0447342    633.87032  0.018764663  0.018386343            3 
 2816000   0.78090281     -8.06943     631.5742  0.018690051  0.018380304            4 
 2817000   0.79523895   -8.0935976    632.25403  0.018703527  0.018374251            1 
 2818000   0.80037099   -8.0329637    631.03405  0.018660813  0.018368217            2 
 2819000    0.8012329   -8.0585843    632.01292   0.01868313  0.018362165            2 
 2820000   0.82074044   -8.0631013    631.48939  0.018661034  0.018356116            2 
 2821000   0.80646384   -8.0692215    632.16336  0.018674328  0.018350078            2 
 2822000   0.80622167   -8.0715343    631.98251   0.01866237  0.018344039            2 
 2823000    0.8111244   -8.0297648    632.86716  0.018681874  0.018338058            2 
 2824000   0.80092223   -8.0139958    633.35926   0.01868978  0.018332085            2 
 2825000   0.80475396   -8.0382155    632.52704  0.018658615    0.0183261            3 
 2826000   0.79136291   -8.0416952    632.41204  0.018648621  0.018320095            2 
 2827000   0.79887834   -8.0263693    632.38035   0.01864109  0.018314127            4 
 2828000   0.81871904   -8.0385421    635.47119  0.018725577  0.018308172            2 
 2829000   0.77596962   -8.0550788    633.34893  0.018656443  0.018302198            6 
 2830000   0.81177849   -8.0654369    633.23261  0.018646426  0.018296217            1 
 2831000   0.77632028   -8.0694806    632.29494  0.018612238  0.018290221            6 
 2832000   0.80049104   -8.0518434    632.79397   0.01862035  0.018284199            2 
 2833000   0.79425539   -8.0472646    635.09953  0.018681596   0.01827821            2 
 2834000   0.80410603   -8.0519589    633.37486   0.01862429   0.01827224            5 
 2835000   0.79069333   -8.0586475    632.40226  0.018589132  0.018266251            2 
 2836000   0.80030242   -8.0913681    632.73362  0.018592314  0.018260264            2 
 2837000   0.77793409   -8.0192115    633.97827   0.01862232  0.018254279            2 
 2838000   0.79323951    -8.056584    632.10678  0.018560805  0.018248277            2 
 2839000   0.80142691   -8.0577506    632.62381  0.018569444  0.018242249            3 
 2840000    0.7956896     -8.06138    634.66262  0.018622729  0.018236283            3 
 2841000    0.7960553   -8.1038024    633.09371  0.018570155  0.018230276            2 
 2842000   0.78860771   -8.0474403     633.3377  0.018570775  0.018224253            1 
 2843000   0.79832705   -8.0596095    632.81939   0.01854905  0.018218214            5 
 2844000   0.78569931    -8.081329    630.51136  0.018474899  0.018212154            2 
 2845000   0.80472016   -8.0263217    634.93377  0.018597943  0.018206132            2 
 2846000   0.79482453   -8.0908311    632.03658  0.018506576  0.018200146            1 
 2847000   0.79719282   -8.0868437    632.76231  0.018521318  0.018194139            1 
 2848000   0.80426573   -8.0756148    634.37693  0.018562059  0.018188151            2 
 2849000   0.80038386   -8.0535844    634.99946  0.018573753  0.018182174            2 
 2850000   0.79964123   -8.0386944      633.079  0.018511082  0.018176217            2 
 2851000   0.80211805   -8.0662189    634.13293  0.018535395  0.018170253            1 
 2852000   0.79826164   -8.0449406    633.86126  0.018520958  0.018164304            2 
 2853000   0.79852629   -8.0396007    632.22823  0.018466767  0.018158364            3 
 2854000   0.78279895   -8.0759277    632.64765  0.018472543  0.018152396            1 
 2855000   0.77186519   -8.0339924     635.0734  0.018536877  0.018146438            2 
 2856000   0.80354183   -8.0699107    633.20803  0.018475958  0.018140474            2 
 2857000    0.7905198   -8.0600666    633.95994  0.018491423  0.018134528            2 
 2858000   0.80576406   -8.0522002    634.48966  0.018500398  0.018128591            2 
 2859000   0.78398179   -8.0489011     633.8454  0.018475149   0.01812264            2 
 2860000   0.81771026   -8.0548848    633.95962  0.018472017  0.018116698            3 
 2861000   0.80348036   -8.0533865    635.11317   0.01849916  0.018110779            1 
 2862000    0.7942281   -8.0863548    633.37358  0.018442045  0.018104838            1 
 2863000   0.80262409    -8.066782    634.42718   0.01846627  0.018098901            2 
 2864000   0.79837084   -8.0517452    635.18725  0.018481938  0.018092979            2 
 2865000   0.78236547   -8.0843481    634.70931  0.018461586  0.018087065            2 
 2866000   0.80945443   -8.0973328      634.872  0.018459874  0.018081151            2 
 2867000   0.78632008   -8.0916125    634.47067   0.01844177  0.018075257            3 
 2868000    0.7952752    -8.089084    633.74438  0.018414237  0.018069338            3 
 2869000   0.77766298   -8.0469246    635.13517  0.018448216  0.018063407            2 
 2870000   0.79357897   -8.0800402    633.79046  0.018402743  0.018057466            3 
 2871000   0.79547005   -8.1143326    635.15265  0.018435872  0.018051504            4 
 2872000    0.7978732   -8.0889436    635.25323  0.018432371  0.018045562            2 
 2873000   0.80355072   -8.0900567    632.64913  0.018350422  0.018039645            3 
 2874000   0.77059885   -8.1133388    633.27601  0.018362213  0.018033708            3 
 2875000   0.78721055   -8.0974504    635.46772  0.018419354  0.018027756            2 
 2876000   0.78913296   -8.1105509    636.04486  0.018429673  0.018021833            1 
 2877000   0.77036844   -8.0876743    633.98103  0.018363487  0.018015932            2 
 2878000   0.79315221   -8.0860563    634.07102  0.018359712  0.018010023            2 
 2879000   0.79377472   -8.0787719    636.32291  0.018418516  0.018004111            1 
 2880000   0.77635582   -8.0781798    636.39366  0.018414168  0.017998203            2 
 2881000   0.79060588   -8.0780345    634.77641  0.018360998  0.017992323            1 
 2882000    0.7586994   -8.0685228    636.15176  0.018394395  0.017986457            2 
 2883000   0.80935268   -8.0662721    635.69806    0.0183749  0.017980551            2 
 2884000   0.76885285    -8.067825    636.12669  0.018380914  0.017974653            1 
 2885000    0.7780783   -8.0537636     636.1517  0.018375266  0.017968763            5 
 2886000   0.79914027   -8.0770299    634.92879  0.018333587  0.017962868            2 
 2887000   0.79796441   -8.0798667    634.93676  0.018327467  0.017956949            2 
 2888000   0.78317575   -8.0858272     636.4161  0.018363807  0.017951029            4 
 2889000   0.78240675   -8.0728077    635.03644  0.018317654  0.017945131            2 
 2890000   0.79290021   -8.0597255    635.93774  0.018337305  0.017939264            2 
 2891000   0.79593346   -8.0594893    635.74242  0.018325332  0.017933394            2 
 2892000   0.79247916   -8.0969104    635.68391   0.01831731  0.017927519            1 
 2893000   0.79097546   -8.0729271    636.19338  0.018325653  0.017921637            2 
 2894000   0.78708561   -8.0905319    635.02678  0.018285729  0.017915762            4 
 2895000   0.77972749   -8.0690141    636.83195  0.018331374  0.017909897            2 
 2896000   0.80249682   -8.0636873    635.41878   0.01828438  0.017904018            4 
 2897000   0.78204413   -8.0831439    635.19737    0.0182717  0.017898146            3 
 2898000   0.78692459   -8.0697014    634.34465  0.018240875   0.01789227            1 
 2899000   0.77289965   -8.0661827    635.58272  0.018270171  0.017886413            1 
 2900000   0.81776476   -8.0940698    636.76559  0.018297862  0.017880548            1 
 2901000   0.78828908   -8.1209764    635.28257  0.018248954  0.017874653            2 
 2902000   0.77016592   -8.0851949    635.94391  0.018261656   0.01786876            3 
 2903000   0.79300166   -8.0724473    637.47971  0.018299452  0.017862898            1 
 2904000   0.79653723   -8.0922147    635.29393  0.018230427  0.017857071            3 
 2905000   0.80550875   -8.0689415    635.19503  0.018221315  0.017851247            3 
 2906000   0.77986458   -8.0817679     636.1393  0.018242123  0.017845406            4 
 2907000   0.78455761   -8.1111205    634.25719  0.018181894  0.017839541            2 
 2908000   0.77736788   -8.0624792    636.07102   0.01822762  0.017833674            1 
 2909000     0.775455   -8.0706681     637.7641  0.018269855  0.017827851            1 
 2910000   0.77236498   -8.0746393    637.79427  0.018264441  0.017822016            1 
 2911000    0.8079604   -8.0795063    636.75121  0.018228307  0.017816169            1 
 2912000   0.77336586    -8.083599    637.56236   0.01824526  0.017810338            3 
 2913000   0.79292291   -8.0873272    635.72692  0.018186489  0.017804493            2 
 2914000   0.78098609   -8.1151909    636.28619  0.018196242   0.01779864            4 
 2915000   0.77178676   -8.1192539    635.50093  0.018167551  0.017792774            2 
 2916000   0.79159288   -8.0882087    637.50241  0.018218519  0.017786922            1 
 2917000   0.78824081   -8.1004007    636.94166  0.018196254  0.017781064            1 
 2918000   0.79521942   -8.1017246    635.80685  0.018157609  0.017775206            2 
 2919000   0.78194003   -8.0989175    635.24568  0.018135368  0.017769331            2 
 2920000   0.78683734   -8.1102245    637.46558  0.018192511  0.017763501            3 
 2921000   0.79549481   -8.0912029    637.90052  0.018198691  0.017757681            3 
 2922000   0.81015155   -8.1083045    638.25368  0.018202535  0.017751874            1 
 2923000   0.78036039    -8.086656    637.96862  0.018188181  0.017746073            2 
 2924000   0.80076384   -8.0817743    638.36059  0.018193131  0.017740286            1 
 2925000   0.78232727   -8.0889469    637.27789  0.018156065  0.017734485            1 
 2926000   0.78571445   -8.1238177    636.11995  0.018116882  0.017728694            4 
 2927000   0.78311885   -8.1279398    637.27305  0.018143522  0.017722887            4 
 2928000   0.78554642   -8.1225578    637.08849  0.018132072  0.017717087            3 
 2929000    0.7879651   -8.0899266    636.85357  0.018119198  0.017711273            1 
 2930000   0.77984966    -8.080339    638.51537  0.018160278  0.017705479            7 
 2931000   0.78767031     -8.06877    639.03464  0.018168846  0.017699692            1 
 2932000   0.76963709   -8.1163593    637.39971  0.018116181  0.017693897            2 
 2933000   0.79061047    -8.092312     637.0422  0.018099847   0.01768809            4 
 2934000   0.77496089   -8.0920104    635.25402  0.018042888  0.017682272            2 
 2935000   0.79407032   -8.1126618    636.88084  0.018082931  0.017676468            2 
 2936000   0.79274735   -8.1042973    636.72412  0.018072324  0.017670654            2 
 2937000   0.78725399   -8.1065669    637.34642  0.018083827  0.017664852            2 
 2938000   0.78794831   -8.1112443    637.23799  0.018074597  0.017659042            2 
 2939000   0.78831651   -8.1029199    637.63324  0.018079654  0.017653255            2 
 2940000   0.77222652   -8.0785041    636.37101  0.018037727  0.017647453            3 
 2941000   0.78759225   -8.1157466    635.98842  0.018020753  0.017641665            4 
 2942000   0.77421175   -8.1067231    638.93588  0.018098116  0.017635886            2 
 2943000    0.7768285   -8.1113186    637.24594  0.018044114  0.017630098            3 
 2944000   0.77575967   -8.0716322     639.3662  0.018098002  0.017624343            2 
 2945000   0.78295056   -8.1042511    637.60251   0.01804195  0.017618601            2 
 2946000   0.77955528   -8.0985302    638.13046   0.01805076  0.017612857            2 
 2947000   0.76884039    -8.072909    638.62471  0.018058611    0.0176071            5 
 2948000   0.78094127   -8.0662453    636.62613   0.01799599  0.017601357            5 
 2949000   0.78309987   -8.0882255    638.89689  0.018054055  0.017595601            5 
 2950000    0.7865834   -8.1003077    638.84643  0.018046509  0.017589848            2 
 2951000   0.79017575   -8.1094356    637.45513  0.018001105   0.01758408            1 
 2952000    0.7717259   -8.1166405    638.43207  0.018022586  0.017578341            1 
 2953000   0.79503454   -8.0997183    640.23958   0.01806749  0.017572628            2 
 2954000   0.78484313    -8.107336    638.75973  0.018019627  0.017566914            3 
 2955000   0.78148877   -8.1052128    637.89151  0.017989044  0.017561213            1 
 2956000   0.76119699   -8.0812876    639.67969   0.01803337  0.017555531            2 
 2957000   0.76322607   -8.1093044    639.66902  0.018026971  0.017549828            2 
 2958000   0.79037766   -8.0895816    639.02152  0.018002635  0.017544117            2 
 2959000   0.79126644   -8.1014706    639.03908  0.017997045  0.017538391            3 
 2960000    0.7823965   -8.1201773    638.81665  0.017984703  0.017532662            5 
 2961000   0.78479012   -8.1006291    637.57739  0.017943752  0.017526937            3 
 2962000   0.77633565   -8.0910773    639.51193  0.017992121  0.017521203            2 
 2963000   0.76230279   -8.1232101    639.81713  0.017994632  0.017515462            3 
 2964000   0.78359495   -8.0949685    640.49107  0.018007509  0.017509724            2 
 2965000   0.77848219   -8.1097987    639.13286  0.017963262  0.017504003            2 
 2966000   0.77669105   -8.1306265    638.79342  0.017947669  0.017498238            3 
 2967000   0.78133891   -8.1471135    637.40737   0.01790269  0.017492456            2 
 2968000   0.76448868   -8.1158185    638.49818  0.017927285  0.017486674            2 
 2969000   0.76993784   -8.1514022    637.39278  0.017890221  0.017480894            2 
 2970000   0.76726808   -8.1415238    637.96801  0.017900337  0.017475124            2 
 2971000   0.78633631   -8.1257198     637.1236  0.017870627  0.017469359            3 
 2972000   0.79068225   -8.1323579    637.62314  0.017878621  0.017463593            6 
 2973000   0.78395686   -8.1272264    637.23137  0.017861626  0.017457814            1 
 2974000   0.78841301   -8.1382343    638.12917  0.017880777  0.017452047            2 
 2975000   0.77114332   -8.1625172    638.07715   0.01787331   0.01744628            3 
 2976000   0.79219222   -8.1636111    637.85486  0.017861079  0.017440509            1 
 2977000   0.78854796    -8.140017    638.75722  0.017880339  0.017434725            2 
 2978000   0.77769902   -8.1526251    638.54458  0.017868384  0.017428945            1 
 2979000   0.77004935   -8.1474398    638.85026  0.017870937   0.01742318            2 
 2980000   0.77000298   -8.1256336    638.90153  0.017866374  0.017417433            2 
 2981000   0.77327881   -8.1176954    638.67791  0.017854129  0.017411711            2 
 2982000   0.77177614    -8.113279    640.05244  0.017886554  0.017405979            2 
 2983000   0.76251371    -8.125135    639.58419  0.017867477  0.017400224            5 
 2984000   0.77235128   -8.1353765    638.38997  0.017828138  0.017394482            2 
 2985000   0.75279146   -8.1627765    637.94457  0.017809731  0.017388739            7 
 2986000   0.77089681   -8.0829481    639.42477  0.017845076  0.017383002            2 
 2987000   0.77568711   -8.1166598    638.58732  0.017815738  0.017377253            1 
 2988000   0.79647346    -8.102361    638.27013  0.017800929  0.017371492            2 
 2989000   0.78269671   -8.1228995    638.55655  0.017802959  0.017365749            1 
 2990000   0.76280925   -8.1081463    638.51836  0.017795941  0.017360003            2 
 2991000   0.77399103    -8.102794    639.08918  0.017805895  0.017354247            3 
 2992000    0.7710646   -8.1090419    639.79295  0.017819545  0.017348503            2 
 2993000   0.77263403    -8.142135    637.67634  0.017754659  0.017342737            5 
 2994000    0.7673879   -8.0876488    638.61911   0.01777497  0.017336983            1 
 2995000   0.78105352   -8.1068614    638.48761  0.017765376  0.017331255            2 
 2996000   0.76071138   -8.1103318    639.40235   0.01778489  0.017325533            2 
 2997000   0.76705113   -8.1150075    638.34101  0.017749444  0.017319803            1 
 2998000   0.77482062    -8.099644    640.03905  0.017790723  0.017314085            1 
 2999000   0.77776261   -8.1118235    639.92601   0.01778165  0.017308361            4 
 3000000   0.77260402   -8.1246673    639.81005  0.017772501  0.017302616            1 
 3001000   0.78547525   -8.1034013    640.88306  0.017796375  0.017296899            2 
 3002000   0.75718159    -8.130894    637.51802  0.017697036  0.017291163            2 
 3003000   0.76039947   -8.1426517    638.21879  0.017710589  0.017285396            2 
 3004000   0.77641243   -8.1483908    638.50692  0.017712686   0.01727963            3 
 3005000   0.77342406   -8.1430604    639.10355  0.017723337  0.017273871            3 
 3006000   0.75910063   -8.1492782    638.60848  0.017703717  0.017268101            1 
 3007000   0.78329899   -8.1372431    638.37635  0.017691396  0.017262324            2 
 3008000   0.76932926   -8.1585344    638.45362  0.017687656  0.017256543            2 
 3009000   0.76650306   -8.1475042    638.10955  0.017672249  0.017250748            3 
 3010000   0.77123972   -8.1639651    636.35708  0.017617859  0.017244955            2 
 3011000   0.77127511    -8.119453    639.03711  0.017686181  0.017239177            2 
 3012000   0.77539444   -8.1336595    637.91878  0.017649369  0.017233421            2 
 3013000   0.78102462   -8.1301153    638.86423   0.01766966  0.017227672            6 
 3014000   0.76873651   -8.1507001    639.90565  0.017692591  0.017221914            3 
 3015000   0.79634218   -8.1262368    638.93408   0.01765987  0.017216143            2 
 3016000   0.76436199   -8.1412247    638.05318  0.017629674  0.017210398            2 
 3017000   0.77559958   -8.1583898    639.08304  0.017652277  0.017204629            2 
 3018000   0.74892903   -8.1622416    638.63283  0.017633997  0.017198865            2 
 3019000   0.77566301    -8.168185    638.59555  0.017627127  0.017193091            1 
 3020000   0.77221071   -8.1403696    639.30005   0.01764073   0.01718737            2 
 3021000   0.76235892    -8.122012    639.78063  0.017648147  0.017181654            4 
 3022000   0.76698134   -8.1365638    638.31434  0.017601874  0.017175946            3 
 3023000    0.7691056   -8.1368363    639.64821  0.017632821  0.017170229            4 
 3024000   0.78529654   -8.1311061    639.60019  0.017625667  0.017164519            2 
 3025000   0.76675452   -8.1527434    640.72198  0.017650743  0.017158804            5 
 3026000   0.76708607   -8.1336122    638.21101   0.01757576  0.017153108            2 
 3027000   0.77892495   -8.1839208    636.90055  0.017533877  0.017147389            3 
 3028000   0.76882654   -8.1250793     639.9346  0.017611586  0.017141699            4 
 3029000   0.75883326   -8.1410855    641.09866  0.017637798  0.017136007            3 
 3030000   0.76632854   -8.1314711    640.59742  0.017618191  0.017130304            2 
 3031000   0.78675993   -8.1517481    638.74674  0.017561496  0.017124626            2 
 3032000   0.76358092   -8.1387542    639.57901  0.017578579  0.017118962            2 
 3033000   0.76651719   -8.1432282    640.08083  0.017586571  0.017113291            3 
 3034000   0.78478685   -8.1319839     640.9021  0.017603332  0.017107637            3 
 3035000   0.77261819   -8.1450359    640.04217   0.01757392  0.017101977            1 
 3036000   0.75699754   -8.1218625    640.95351  0.017593146  0.017096331            2 
 3037000    0.7588788   -8.1461781    639.70002  0.017552959  0.017090677            2 
 3038000    0.7608513   -8.1473804    639.72724  0.017547927  0.017085021            2 
 3039000   0.75100373   -8.1843102    641.04432  0.017578269  0.017079367            2 
 3040000   0.74619962   -8.1453102    638.07199  0.017491008    0.0170737            1 
 3041000   0.78577078   -8.1231477    640.26832  0.017545443  0.017068036            1 
 3042000   0.76701214   -8.1275526    640.70769  0.017551712  0.017062372            1 
 3043000   0.74679035   -8.1318661    639.19352  0.017504478  0.017056687            2 
 3044000    0.7710901   -8.1549441    639.45012  0.017505752  0.017050999            4 
 3045000   0.76099635   -8.1349872    640.16097  0.017519457  0.017045307            4 
 3046000   0.76648679   -8.1439833    640.15116  0.017513437  0.017039634            2 
 3047000   0.74223273   -8.1547447    640.74141  0.017523833  0.017033956            1 
 3048000   0.78006358   -8.1791149    639.23418  0.017476875  0.017028283            3 
 3049000   0.77252163   -8.1594713    640.85601   0.01751547  0.017022616            1 
 3050000   0.75838857   -8.1562166    639.36111  0.017468883  0.017016953            2 
 3051000   0.77370252    -8.138638    639.59831  0.017469636  0.017011294            2 
 3052000    0.7519959   -8.1473943    638.02433  0.017420935  0.017005632            1 
 3053000   0.76660478   -8.1673758    638.58999  0.017430669  0.016999962            3 
 3054000   0.75400879   -8.1526043    640.68862  0.017482226  0.016994289            2 
 3055000   0.76993023   -8.1582106    640.81956  0.017480075  0.016988622            4 
 3056000   0.75136599   -8.1648453    639.27197  0.017432155  0.016982954            6 
 3057000   0.75135468    -8.172159    638.47839  0.017404819  0.016977268            5 
 3058000   0.77434307    -8.185995    641.00288  0.017467922  0.016971592            3 
 3059000   0.75092322   -8.1582252    640.30905  0.017443311  0.016965947            4 
 3060000   0.77993533   -8.1716058    639.01871   0.01740247  0.016960287            2 
 3061000   0.77187317   -8.1794597     639.7037  0.017415433   0.01695462            3 
 3062000   0.73489862   -8.1537006    639.93753   0.01741611  0.016948989            7 
 3063000   0.75501922   -8.1346953    640.34179  0.017421422  0.016943353            4 
 3064000   0.76506673   -8.1490128    641.31062  0.017442086  0.016937724            2 
 3065000   0.75477243   -8.1582134    641.55418  0.017443017  0.016932082            3 
 3066000   0.75692642   -8.1253113    641.78132  0.017443502  0.016926469            5 
 3067000   0.77268238   -8.1420342    640.39836  0.017400238  0.016920852            2 
 3068000   0.75941329   -8.1546456     641.3954  0.017421648  0.016915236            1 
 3069000   0.76010743   -8.1249471    640.75918  0.017398696  0.016909617            3 
 3070000   0.76519536   -8.1344088    643.21769  0.017459764  0.016904004            5 
 3071000   0.76367725   -8.1496654    641.76673  0.017414706  0.016898432            3 
 3072000   0.76989665   -8.1616741     640.4809  0.017374156   0.01689284            3 
 3073000   0.77008778    -8.166716    641.30321  0.017390802  0.016887222            3 
 3074000   0.76589779   -8.1429845    640.20595  0.017355399  0.016881622            5 
 3075000   0.77320063   -8.1550803    640.61907  0.017360951  0.016876033            3 
 3076000   0.74491002   -8.1741001    639.57917  0.017327134  0.016870462            2 
 3077000   0.73809463   -8.1651311     641.6634  0.017377949  0.016864865            2 
 3078000   0.76132233   -8.1606951      640.929   0.01735242  0.016859276            2 
 3079000   0.74946669   -8.1452153    641.42264  0.017360145  0.016853675            2 
 3080000   0.77963027    -8.171057    641.85013  0.017366075  0.016848068            2 
 3081000   0.77074542   -8.1627594    639.73752  0.017303298  0.016842451            2 
 3082000   0.75135839   -8.1479803     639.6054  0.017294111  0.016836845            2 
 3083000   0.76045123   -8.1791578     641.1011   0.01732893  0.016831225            2 
 3084000   0.75741216   -8.1760347     640.7592  0.017314073    0.0168256            2 
 3085000   0.76135013   -8.1422197    641.12302  0.017318288  0.016820015            4 
 3086000   0.76908683   -8.1711663    642.09067  0.017338806  0.016814426            3 
 3087000   0.77293302   -8.1682925    641.32204   0.01731244  0.016808837            5 
 3088000   0.74623131   -8.1502298    641.39975  0.017308931  0.016803245            3 
 3089000   0.74524386   -8.1395631    642.48355  0.017332566  0.016797655            2 
 3090000   0.76511469   -8.1411528    641.52677  0.017301153  0.016792087            1 
 3091000   0.75668681   -8.1442917    642.50843  0.017322022  0.016786513            4 
 3092000    0.7616414   -8.1754731    641.61061  0.017292222  0.016780926            1 
 3093000    0.7507307   -8.1755296    641.22966  0.017276368  0.016775322            2 
 3094000    0.7617755   -8.1627907    640.26931  0.017244918   0.01676971            2 
 3095000   0.75863363   -8.1802583    640.87291  0.017255598  0.016764096            3 
 3096000   0.76337779   -8.1625057    641.08527   0.01725574  0.016758499            1 
 3097000   0.76766747   -8.1715019    641.57433  0.017263328  0.016752904            2 
 3098000   0.74091734   -8.1739534    640.43458  0.017227098  0.016747309            3 
 3099000    0.7372163   -8.1659232    642.58734  0.017279427  0.016741718            2 
 3100000   0.75380745   -8.1499918    640.86105  0.017227447  0.016736134            3 
 3101000   0.75882143   -8.1506231    642.17607  0.017257231  0.016730526            1 
 3102000     0.739497    -8.167686    641.48262  0.017233038  0.016724951            1 
 3103000   0.76074932   -8.1927541    640.43182  0.017199265  0.016719366            1 
 3104000   0.76195067   -8.1760147    642.20686  0.017241378  0.016713769            2 
 3105000   0.75650889   -8.1878869    641.27421  0.017210795  0.016708173            3 
 3106000   0.74950348    -8.174034    641.23988  0.017204332  0.016702576            1 
 3107000   0.75365997   -8.1612902    640.91814  0.017190166  0.016696983            2 
 3108000   0.75437863   -8.1656472    642.51374  0.017227417  0.016691377            2 
 3109000   0.75960265    -8.178079    641.26774  0.017188478  0.016685768            1 
 3110000   0.74632425   -8.1820318     640.6045   0.01716518  0.016680174            1 
 3111000   0.76289377   -8.1861706    641.54198  0.017184774  0.016674589            2 
 3112000   0.77588585   -8.1766036    641.66681  0.017182595   0.01666901       -1e+20 
 3113000   0.75099586   -8.1723438    641.23771  0.017165588  0.016663423            1 
 3114000   0.75852874   -8.1975195    641.72928   0.01717323  0.016657822            1 
 3115000    0.7529968   -8.1961812    640.66415  0.017139223  0.016652213            6 
 3116000   0.75695916   -8.1785871     641.9868  0.017169095  0.016646622            1 
 3117000   0.73833095   -8.1792331    642.52326  0.017177929  0.016641066            3 
 3118000   0.75241894   -8.1685202    642.47883  0.017171232  0.016635522            2 
 3119000   0.76041385   -8.1741469    642.80071  0.017174327  0.016629996            4 
 3120000   0.75109508   -8.2018434    641.77661  0.017141469  0.016624446            1 
 3121000   0.75956665    -8.189615    641.44112  0.017127019  0.016618899            1 
 3122000   0.74131566   -8.1785591    642.25719  0.017143316  0.016613344            1 
 3123000    0.7514341   -8.1728042    642.78841  0.017152001  0.016607785            3 
 3124000    0.7404583   -8.1504564    642.70607  0.017144315  0.016602247            2 
 3125000   0.74686941   -8.1798952    641.78356  0.017114228  0.016596722            2 
 3126000   0.74705584   -8.1921021    641.87386  0.017111161  0.016591181            4 
 3127000   0.75564876    -8.167783    643.63497  0.017152621  0.016585669            2 
 3128000    0.7543772   -8.1577319    644.54957  0.017171504  0.016580174            1 
 3129000   0.75077341   -8.1532583    643.98548  0.017150993  0.016574676            1 
 3130000   0.75210328   -8.1676781    641.86014  0.017088928  0.016569161            3 
 3131000   0.74589447   -8.1465577    641.82373  0.017082501  0.016563678            3 
 3132000   0.74124781   -8.1579599    642.66624  0.017099464  0.016558195            1 
 3133000   0.76122737   -8.1418251    643.83965  0.017125217   0.01655271            2 
 3134000   0.76426908   -8.1480087    643.90871  0.017121589  0.016547224            2 
 3135000   0.74788954   -8.1644822    643.46471  0.017104325  0.016541733            4 
 3136000   0.75195248   -8.1354938     643.6819  0.017104642  0.016536245            4 
 3137000   0.74617009   -8.1742651    644.13836  0.017111315   0.01653076            3 
 3138000   0.75029141   -8.1580684     644.3306  0.017110968  0.016525284            3 
 3139000    0.7400261   -8.1751275    643.70964  0.017089031  0.016519809            1 
 3140000   0.74321443   -8.1861887    642.73597  0.017057749  0.016514312            2 
 3141000   0.73679448   -8.1785486      642.411  0.017043696  0.016508808            1 
 3142000   0.75770523   -8.1946727    641.74927  0.017020721  0.016503299            2 
 3143000   0.75455384   -8.2120921    642.85354  0.017044584  0.016497787            2 
 3144000   0.75077124   -8.2080713    641.58108  0.017005436  0.016492251            3 
 3145000   0.74256206   -8.1753936    642.49877  0.017024345  0.016486739            3 
 3146000   0.74920024   -8.1708709    641.13109  0.016982705   0.01648122            2 
 3147000   0.74465432   -8.1885751    641.58021  0.016989202   0.01647571            1 
 3148000   0.73859555   -8.1756939    642.76368  0.017015133   0.01647021            2 
 3149000   0.74908735   -8.1671391    642.72687  0.017008756  0.016464717            2 
 3150000   0.74006608   -8.1876167    643.38133   0.01702067  0.016459213            2 
 3151000    0.7515108   -8.2176311    642.75558   0.01699872  0.016453713            2 
 3152000   0.74904354   -8.1929832      642.598   0.01698916  0.016448196            2 
 3153000   0.76219834   -8.2084574    642.10476  0.016970736  0.016442676            3 
 3154000   0.74581609   -8.1835714    643.61586  0.017005281  0.016437152            2 
 3155000   0.73853639   -8.2046939    641.91544  0.016954977  0.016431625            2 
 3156000   0.76798936   -8.1781707    643.21483  0.016983915  0.016426116            1 
 3157000    0.7493281   -8.2172023     642.6936  0.016964777  0.016420605            2 
 3158000   0.75177043   -8.1833588    642.21556   0.01694679    0.0164151            3 
 3159000   0.75170976   -8.1782754    643.24672  0.016968627  0.016409617            3 
 3160000    0.7526159   -8.1921715    642.93113  0.016954935  0.016404131            3 
 3161000   0.73915667   -8.1987378    641.42825  0.016909951  0.016398616            3 
 3162000   0.73299949   -8.2212947     642.0791  0.016921756  0.016393093            3 
 3163000    0.7380707   -8.2075636    642.40965  0.016925114  0.016387584           10 
 3164000   0.74731694   -8.1865071    641.36326  0.016892206  0.016382054            1 
 3165000   0.74605873   -8.2017084    641.66254  0.016894748  0.016376548            3 
 3166000   0.73987682   -8.1883669    642.56608  0.016913194  0.016371044            2 
 3167000   0.74413109   -8.2186706    643.24286  0.016925662  0.016365564            3 
 3168000   0.74225999    -8.184135    642.99866  0.016913896  0.016360096            1 
 3169000   0.75217676   -8.1897096     642.3373  0.016891167  0.016354625            2 
 3170000   0.75311642   -8.2135929    644.19921  0.016934785  0.016349165            1 
 3171000   0.74132359   -8.1942072    643.06267  0.016899576  0.016343709            1 
 3172000   0.75043001   -8.2227471    642.53821   0.01688047  0.016338226            1 
 3173000   0.73802888   -8.2201276    642.92683  0.016885356  0.016332748            2 
 3174000   0.74948451   -8.2154501    642.84708  0.016877943  0.016327265            2 
 3175000   0.74526454   -8.2099022     643.1005  0.016879278  0.016321791            2 
 3176000   0.75236818   -8.1924925    643.04696  0.016872559   0.01631633            2 
 3177000   0.74841232   -8.2158427    641.94054  0.016838226  0.016310865            2 
 3178000   0.74729996   -8.2151845    642.58146  0.016849734  0.016305379            3 
 3179000    0.7515574   -8.2216981    641.90918  0.016826811  0.016299902            1 
 3180000   0.73547987   -8.1948465    643.00331  0.016850191  0.016294424            1 
 3181000   0.73271905   -8.2120322    643.75354  0.016864548  0.016288969            1 
 3182000   0.76130373   -8.2113007    643.00629  0.016839679  0.016283504            3 
 3183000   0.74644564   -8.1826743    643.16605  0.016838571  0.016278057            2 
 3184000   0.74517061   -8.2195945    643.70543  0.016847399  0.016272615            3 
 3185000   0.74873135   -8.2010203    644.10984  0.016852691  0.016267171            2 
 3186000   0.73729033   -8.2126932    643.26205  0.016825226  0.016261715            3 
 3187000   0.73890727   -8.1952983     643.7987  0.016833979  0.016256269            2 
 3188000   0.73949595   -8.2161136    643.90715  0.016831534  0.016250828            1 
 3189000   0.73599411   -8.1941392    643.71857  0.016821328  0.016245369            2 
 3190000   0.74075484   -8.1948728    642.99553  0.016797167  0.016239926            2 
 3191000   0.74961405   -8.1959967    643.28246  0.016799396  0.016234473            3 
 3192000   0.75161517   -8.1942263    643.06996  0.016788585   0.01622903            1 
 3193000   0.73969863   -8.2031003    643.47726  0.016793957  0.016223573            3 
 3194000   0.75045555    -8.228234    642.29653  0.016757893  0.016218108            3 
 3195000   0.75181028   -8.1920619    642.64628   0.01676177  0.016212661            3 
 3196000   0.74961489   -8.2021339    644.22907  0.016797796  0.016207201            2 
 3197000   0.74141048   -8.1820205    643.69913  0.016778728  0.016201753            3 
 3198000   0.74896881   -8.2101443    642.23644  0.016735367  0.016196285            1 
 3199000   0.71550009   -8.2216781    641.84466   0.01671993  0.016190827            2 
 3200000   0.73003123    -8.217448    642.91497  0.016742577   0.01618536            4 
 3201000   0.73541125   -8.2073557    643.19074  0.016744526  0.016179902            4 
 3202000   0.72019789   -8.2117388    642.81748  0.016729583  0.016174446            2 
 3203000   0.72012583   -8.2212333    643.09392  0.016731552  0.016168984            2 
 3204000   0.75012175   -8.2134584    644.79023  0.016770449  0.016163516            3 
 3205000   0.71968506   -8.2103149    643.46855  0.016730851  0.016158053            1 
 3206000   0.73243321   -8.2175217    642.96938  0.016712658  0.016152592            2 
 3207000   0.74946711   -8.2452089    641.79317  0.016676883  0.016147111            2 
 3208000   0.74876828   -8.2464419    641.08639  0.016653325  0.016141619            2 
 3209000   0.74064283   -8.2410448    642.81829   0.01669311  0.016136133            4 
 3210000   0.72990382   -8.2474989    641.20316   0.01664598   0.01613066            2 
 3211000   0.72082692   -8.2368754    641.05645  0.016636989  0.016125162            1 
 3212000   0.73202551   -8.2333474    641.24041  0.016636582  0.016119673            2 
 3213000   0.73645828   -8.2610118    641.34197  0.016634038  0.016114188            2 
 3214000   0.73590588   -8.2557008     640.9456  0.016618585  0.016108692            2 
 3215000   0.73981879   -8.2274184    641.56643  0.016629508  0.016103196            3 
 3216000   0.74092813   -8.2348174    642.49053  0.016648283  0.016097715            3 
 3217000   0.75413822   -8.2112747    641.87112  0.016627062   0.01609224            1 
 3218000   0.72983337    -8.218122     641.8516   0.01662139   0.01608676            1 
 3219000   0.73290387   -8.2500088    641.14612  0.016597963  0.016081269            2 
 3220000   0.74261706   -8.2235313    640.83109  0.016584656  0.016075775            2 
 3221000   0.71923496   -8.2447108    641.49814  0.016596764  0.016070291            3 
 3222000   0.75670645   -8.2197795    641.34781  0.016587725    0.0160648            2 
 3223000   0.73720383   -8.2659881    641.96298  0.016598484  0.016059325            2 
 3224000   0.73287305   -8.2369324    641.76354  0.016588181  0.016053856            4 
 3225000   0.72484594   -8.2379573    642.28845  0.016596601  0.016048376            3 
 3226000   0.73127581   -8.2314756    642.90976  0.016607506  0.016042911            3 
 3227000   0.76227133   -8.2281681    641.97313  0.016578172  0.016037453            2 
 3228000   0.71809898   -8.2285533    642.79802  0.016594331  0.016031989            2 
 3229000   0.72627507   -8.2771701    641.83871  0.016564434  0.016026517            3 
 3230000   0.73171328   -8.2760714    641.71166  0.016556028  0.016021038            1 
 3231000   0.72126532   -8.2486474    643.43532  0.016595361  0.016015573            2 
 3232000   0.75449066   -8.2256517    642.87616  0.016575808  0.016010119            1 
 3233000     0.746466   -8.2330763    643.13938  0.016577466  0.016004689            3 
 3234000   0.73387061   -8.2209509    642.10612  0.016545715  0.015999255            2 
 3235000   0.73413541   -8.2263828    642.35331  0.016546968   0.01599381            4 
 3236000   0.73143672   -8.2406075    642.95012  0.016557224  0.015988383            2 
 3237000   0.73541467   -8.2129923    644.54006   0.01659304  0.015982957            4 
 3238000   0.73022999   -8.2295068     641.7899  0.016517138  0.015977525            2 
 3239000   0.73314902   -8.2314746    643.42133  0.016554012   0.01597209            6 
 3240000   0.74115138   -8.2640188    642.58514  0.016527396  0.015966642            4 
 3241000    0.7215518   -8.2916563    641.69698  0.016499459  0.015961196            6 
 3242000   0.73073956   -8.2627901    642.55165  0.016516339  0.015955745            4 
 3243000   0.73721611   -8.2495733    641.52445  0.016484851  0.015950298            2 
 3244000   0.73154873   -8.2535218    642.52425  0.016505452  0.015944852            4 
 3245000   0.75109627   -8.2413803    643.29842  0.016520247  0.015939409            2 
 3246000   0.71783066   -8.2550295     642.3181   0.01648999  0.015933972            2 
 3247000    0.7342147   -8.2332469    643.45835  0.016514176  0.015928549            2 
 3248000   0.72799448   -8.2249857    643.25645  0.016503911   0.01592311            1 
 3249000   0.72984984   -8.2560627    642.23294   0.01647258   0.01591766            5 
 3250000    0.7247621   -8.2445175    642.80202  0.016482103   0.01591222            2 
 3251000   0.73355816   -8.2780186    642.37083  0.016465981  0.015906778            2 
 3252000    0.7284751    -8.252618    643.35519  0.016486142  0.015901342            2 
 3253000   0.72660347   -8.2429982    641.79424  0.016441086  0.015895905            3 
 3254000   0.73547136   -8.2396723    642.99556  0.016466799  0.015890473            2 
 3255000   0.72660405   -8.2515244    641.79649  0.016431042  0.015885047            5 
 3256000   0.72076784   -8.2552422    643.41923  0.016467527  0.015879629            1 
 3257000   0.73395603   -8.2291913    643.18171  0.016456394  0.015874211            2 
 3258000   0.74044325   -8.2479746    641.51603  0.016408738  0.015868805            1 
 3259000   0.72493359   -8.2180425    641.33599    0.0163991   0.01586338            2 
 3260000   0.72368607   -8.2368912    643.36381  0.016445905  0.015857962            2 
 3261000   0.71902344    -8.238605    641.60702  0.016395968  0.015852564            2 
 3262000   0.72942289   -8.2325405    644.28342  0.016459315  0.015847166            2 
 3263000   0.74183753   -8.2337073    642.27885  0.016403076  0.015841753            2 
 3264000    0.7294636   -8.2492398    642.39319   0.01640097  0.015836319            2 
 3265000   0.72537683   -8.2088237    643.56819  0.016425936  0.015830894            3 
 3266000   0.72453278   -8.2789104     642.8883  0.016403559  0.015825468            3 
 3267000   0.71636796   -8.2632901    642.45849  0.016387575  0.015820025            2 
 3268000   0.72570981   -8.2819692    642.79555  0.016391155  0.015814593            1 
 3269000   0.73873129   -8.2799033    643.37578  0.016400933  0.015809153            2 
 3270000    0.7144193   -8.2576837    642.13158   0.01636421  0.015803728            1 
 3271000   0.71418114   -8.2571012    642.68401   0.01637328  0.015798321            1 
 3272000   0.70955418   -8.2843017    641.96932  0.016350074  0.015792894            2 
 3273000   0.71936686   -8.2632037    641.42918  0.016331326  0.015787485            2 
 3274000   0.72970564   -8.2605801    642.42085  0.016351579  0.015782071            4 
 3275000   0.71714118   -8.2803449    642.08427  0.016338022  0.015776657            4 
 3276000   0.73630461    -8.262962     642.8114  0.016351531  0.015771232            3 
 3277000   0.72181451   -8.2734822    640.84931  0.016296646  0.015765823            3 
 3278000   0.73415111   -8.2526547     643.4133  0.016356856  0.015760408            3 
 3279000   0.74138635   -8.2781638    642.60843  0.016331413   0.01575499            3 
 3280000   0.71562124   -8.2538939    643.40354  0.016346635  0.015749574            2 
 3281000   0.70905627   -8.2852678    642.05106  0.016307301  0.015744159            2 
 3282000   0.73083059   -8.2437583     642.4496  0.016312452  0.015738745            1 
 3283000   0.72634544   -8.2237931    642.93986  0.016319927  0.015733342            6 
 3284000   0.72095506   -8.2680924     641.6006  0.016280973  0.015727939            1 
 3285000   0.72158731   -8.2662032    643.07844  0.016313507  0.015722528            3 
 3286000   0.71990438   -8.2693644     642.4415  0.016292389  0.015717112            1 
 3287000   0.71440136   -8.2563756    641.21062  0.016256227  0.015711711            1 
 3288000   0.72287914   -8.2653953    642.39369  0.016281267  0.015706317            1 
 3289000   0.71554166   -8.2582692    643.11654  0.016294632  0.015700923            2 
 3290000   0.72432512   -8.2755001    641.76052  0.016255332  0.015695522            1 
 3291000   0.72659579   -8.2685818    642.39831  0.016266543   0.01569012            2 
 3292000   0.71454727   -8.2467476    642.82796  0.016272478  0.015684724            1 
 3293000   0.73001719    -8.275298    641.84197  0.016242585  0.015679315            2 
 3294000   0.71737624   -8.2571455    642.46925  0.016253523  0.015673931            2 
 3295000   0.71713372   -8.2530465    642.61922  0.016252383  0.015668533            2 
 3296000    0.7096323   -8.2901835    642.13265   0.01623515  0.015663143            1 
 3297000    0.7327645   -8.2820564    641.03438  0.016202466  0.015657734            1 
 3298000    0.7249058   -8.2548216    642.09944  0.016224465  0.015652341            2 
 3299000   0.69694154   -8.2662484    642.53348  0.016230511  0.015646946            6 
 3300000    0.7182388   -8.2449896     642.1752  0.016216545  0.015641572            3 
 3301000   0.72137398    -8.283003    641.20917  0.016187246  0.015636191            1 
 3302000   0.71434397   -8.2603892    642.37688  0.016211813   0.01563081            1 
 3303000   0.72670101   -8.2763152    642.20554  0.016202582  0.015625428            2 
 3304000   0.71205035   -8.2507483    642.82917  0.016213407  0.015620056            2 
 3305000   0.71125829   -8.2565217    642.17482  0.016192003  0.015614687            3 
 3306000   0.72702451    -8.216626    644.28597   0.01624032  0.015609336            1 
 3307000   0.72381362   -8.2377507    643.58853  0.016217834  0.015603995            1 
 3308000   0.70706306   -8.2283247    642.76873   0.01619228  0.015598676            1 
 3309000   0.72757074    -8.276839    643.19503  0.016198122  0.015593337            1 
 3310000   0.71411444    -8.239073    642.68847  0.016180475   0.01558797            2 
 3311000   0.72346079   -8.2748063    642.05219  0.016159574  0.015582613            1 
 3312000   0.72045333   -8.2761379    641.60425  0.016143424  0.015577237            2 
 3313000   0.73593794   -8.2749705    641.49963   0.01613592  0.015571853            4 
 3314000   0.71873629   -8.2774201    641.39885  0.016128517  0.015566472            1 
 3315000   0.71786639   -8.2690075    642.35814  0.016147766  0.015561105            2 
 3316000   0.71366659   -8.2926025    642.44034  0.016144962   0.01555572            2 
 3317000   0.72393934   -8.2685776    642.56687  0.016143274  0.015550345            2 
 3318000   0.72883619   -8.2774579    640.84574  0.016095181  0.015544985            2 
 3319000   0.69177258   -8.2740171    642.52407  0.016132471  0.015539626            1 
 3320000   0.74237902   -8.2851255    642.47536   0.01612639  0.015534265            2 
 3321000    0.7187417   -8.2568188    641.73657  0.016102995  0.015528922            4 
 3322000   0.73765367    -8.292536     642.1739  0.016109118   0.01552358            2 
 3323000   0.73845267   -8.2918792     642.8414   0.01612101  0.015518226            3 
 3324000   0.72240145   -8.2540415    643.10292  0.016122717  0.015512879            2 
 3325000   0.71998498   -8.2661482    643.36778  0.016124506  0.015507546            2 
 3326000   0.70173679   -8.2656488    641.58839  0.016075075   0.01550221            2 
 3327000   0.70864201    -8.266848    641.64958  0.016071776  0.015496871            2 
 3328000   0.72099661   -8.2867941    642.06241  0.016077284   0.01549153            3 
 3329000   0.70805979   -8.2939289    641.54187  0.016059424  0.015486194            3 
 3330000   0.71569802   -8.2542171    642.87981  0.016088083  0.015480864            2 
 3331000   0.72338441   -8.2710507    641.10053   0.01603874  0.015475529            3 
 3332000   0.72341239   -8.2633821    642.31551  0.016064314  0.015470186            2 
 3333000   0.73140933   -8.2796757    642.94006  0.016075109  0.015464867            1 
 3334000   0.72532044   -8.2902715    642.62244  0.016062349  0.015459539            1 
 3335000   0.72176522   -8.2860686    642.93695  0.016065391  0.015454208            2 
 3336000    0.7198096   -8.2903302     642.3878  0.016046858  0.015448855            2 
 3337000   0.72145558   -8.2822926    641.52963  0.016020618  0.015443493            2 
 3338000   0.70923105   -8.2779184     641.7079  0.016020269  0.015438156            2 
 3339000   0.71339971   -8.2676567    643.30339  0.016055291   0.01543281            2 
 3340000   0.72002821   -8.2903178    641.62126  0.016008515  0.015427467            3 
 3341000   0.71642111    -8.290488    642.82486  0.016033744  0.015422112            2 
 3342000   0.71546338   -8.2741101    641.07336  0.015985272  0.015416758            2 
 3343000   0.71383332   -8.2816421    642.44316  0.016014637  0.015411412            1 
 3344000   0.72080916   -8.3374566    642.03127  0.015999583  0.015406064            1 
 3345000   0.70645258   -8.2883842    641.68123  0.015986079  0.015400706            2 
 3346000   0.72930751   -8.2447562    643.60854  0.016029302  0.015395354            1 
 3347000   0.72695501   -8.2888986    642.25086   0.01599071  0.015390015            1 
 3348000   0.72262374   -8.3188466    642.70951  0.015997349  0.015384668            2 
 3349000   0.72136512   -8.2808079     642.5064  0.015987519  0.015379324            2 
 3350000    0.6983113   -8.2708084    642.74926  0.015988788  0.015373985            3 
 3351000   0.71355215   -8.2737807    642.29872  0.015972812  0.015368649            2 
 3352000   0.70494405   -8.2824177    642.40939  0.015970798  0.015363316            2 
 3353000   0.72466709   -8.2985944    642.38237  0.015965364  0.015357979            1 
 3354000   0.72015793   -8.2845455    641.85942   0.01594761  0.015352655            4 
 3355000   0.71004631   -8.2752256    642.79132  0.015966004  0.015347321            2 
 3356000   0.73269789    -8.288008    643.15876   0.01597037  0.015342013            1 
 3357000   0.74018957   -8.3059703    642.11779  0.015939772  0.015336688            2 
 3358000   0.72016819   -8.2969303    641.81561  0.015927527  0.015331348            2 
 3359000   0.71755079   -8.2785414    641.57771  0.015916883  0.015326018            3 
 3360000   0.69486592   -8.2739985    642.20818  0.015927782  0.015320693            5 
 3361000   0.71071697   -8.3147959    641.76204  0.015911981  0.015315359            3 
 3362000   0.71597378   -8.3178802    641.06751  0.015890034   0.01531003            3 
 3363000   0.72217712    -8.316667    642.37472    0.0159177  0.015304684            1 
 3364000   0.72063686   -8.2872097    642.36188  0.015912651  0.015299344            2 
 3365000   0.72528929   -8.3181815    642.31346  0.015906723  0.015294033            2 
 3366000   0.69992719   -8.2848617    642.38911   0.01590387  0.015288713            1 
 3367000   0.70730723   -8.2983951    641.31494  0.015872561    0.0152834            2 
 3368000   0.70175178   -8.3108998    642.82055  0.015905101  0.015278072            2 
 3369000   0.72056497   -8.3096032    642.31082  0.015887771  0.015272766            2 
 3370000    0.7096952   -8.2862767    641.41791  0.015860977  0.015267443            2 
 3371000   0.70407632   -8.2826097     643.5401  0.015908734  0.015262117            1 
 3372000   0.71562929   -8.2819179     642.2938  0.015873216    0.0152568            2 
 3373000   0.70254247   -8.2884732     642.6681  0.015877757  0.015251493            1 
 3374000   0.69380471   -8.3021813    642.10743  0.015859203  0.015246194            2 
 3375000   0.70949803    -8.287693    641.77154  0.015846211  0.015240893            6 
 3376000   0.70715761    -8.289995    642.44854  0.015858228  0.015235578            1 
 3377000   0.70952938   -8.2794675      641.455  0.015829015  0.015230282            1 
 3378000   0.70738969   -8.2798594    642.11969  0.015840726  0.015224996            1 
 3379000   0.70852695   -8.2839312    642.15619  0.015836939  0.015219716            2 
 3380000   0.71269191   -8.2681148    641.86809   0.01582515   0.01521443            2 
 3381000   0.71410112   -8.2761948    643.01976  0.015848855  0.015209143            1 
 3382000   0.70970345   -8.2840008    643.05986  0.015845157  0.015203864            4 
 3383000   0.72672665   -8.2818222    643.15428  0.015842799  0.015198592            2 
 3384000   0.72206564   -8.2909843    642.74474  0.015828032  0.015193322            1 
 3385000   0.71924477   -8.2974773    642.05206  0.015806304  0.015188035            2 
 3386000   0.70483471   -8.2896194    643.99017  0.015849335  0.015182756            2 
 3387000   0.71179368   -8.2699362    643.42942  0.015830859  0.015177484            7 
 3388000   0.71208427   -8.2897618    642.79248   0.01581052  0.015172217            2 
 3389000   0.69647846   -8.3005925      642.635  0.015801982   0.01516695            3 
 3390000    0.7211817   -8.2738187    641.69946  0.015774323    0.0151617            4 
 3391000    0.6989703   -8.2641494    642.80791  0.015796911  0.015156449            2 
 3392000   0.70680293   -8.3116214    642.48552  0.015784334  0.015151181            4 
 3393000   0.70211375   -8.2913964    642.38752  0.015777275  0.015145912            2 
 3394000   0.70550321   -8.2905352     643.0869  0.015789798  0.015140643            1 
 3395000   0.71384997   -8.3003779    641.68253  0.015750676   0.01513537            2 
 3396000   0.70544891   -8.3091795    642.41173  0.015763931   0.01513009            2 
 3397000   0.71902047   -8.3099664    641.87278   0.01574607  0.015124817            1 
 3398000   0.70944372   -8.2750301    642.90223  0.015766682  0.015119553            3 
 3399000   0.72199366   -8.3148147      641.083  0.015717441  0.015114287            2 
 3400000   0.71200973   -8.2674412    642.53261  0.015748348  0.015109024            4 
 3401000    0.7048734   -8.3222047     640.9787  0.015705643  0.015103753            2 
 3402000   0.71188175   -8.2786683    643.48964  0.015762533    0.0150985            2 
 3403000   0.70572238   -8.3277961     641.7384  0.015715016  0.015093239            2 
 3404000   0.71221773   -8.3001889    641.55028  0.015705794  0.015087983            1 
 3405000   0.70221189   -8.3053344     641.6803  0.015704364  0.015082716            2 
 3406000   0.69403998   -8.3294851    640.60218  0.015673375   0.01507744            3 
 3407000   0.71047731   -8.3348014    641.93487  0.015701372  0.015072169            5 
 3408000   0.70167658   -8.3131067    641.81258  0.015693774  0.015066907            2 
 3409000   0.70738769   -8.3147091    642.52911  0.015706686  0.015061652            2 
 3410000   0.69768892   -8.3114422    642.74116  0.015707262  0.015056388            2 
 3411000   0.69854278     -8.30617    641.53532  0.015673197  0.015051135            2 
 3412000   0.70774581   -8.3075488    643.38095  0.015713681  0.015045889            3 
 3413000    0.7042405   -8.2997417    642.67553  0.015691853  0.015040647            1 
 3414000   0.71205523   -8.3188459    641.41786  0.015656558  0.015035406            3 
 3415000    0.6995467   -8.3074017    642.27778  0.015672957  0.015030157            3 
 3416000   0.70393809   -8.3017966    643.35153  0.015694563  0.015024933            3 
 3417000   0.70642335   -8.3126407    642.08582  0.015659102  0.015019702            3 
 3418000   0.70062025   -8.3103124    642.37479  0.015661566  0.015014465            3 
 3419000   0.72118876   -8.3069376    641.01582  0.015623862  0.015009213            6 
 3420000   0.69798235   -8.3151206    642.12241  0.015646257  0.015003967            2 
 3421000   0.70368938   -8.3071714    641.78759  0.015633528  0.014998721            2 
 3422000   0.68882443   -8.3146354    641.37699  0.015618961  0.014993471            2 
 3423000    0.7191735   -8.3231148    642.39073  0.015639077  0.014988232            5 
 3424000   0.70395705   -8.2807231    642.48443   0.01563679  0.014983014            2 
 3425000   0.69944401   -8.3081253    643.06881  0.015646443  0.014977781            2 
 3426000   0.71365473   -8.3065146    642.79024    0.0156351  0.014972553            3 
 3427000   0.68521547    -8.281966    643.20926  0.015640727   0.01496734            3 
 3428000   0.69653384    -8.321111    641.02953  0.015583176  0.014962108            3 
 3429000   0.70651223   -8.3221004    641.66741  0.015594134  0.014956875            3 
 3430000   0.71140686   -8.2998325    641.75563  0.015591731  0.014951669            2 
 3431000   0.69801281   -8.3108102    641.15444  0.015572584  0.014946454            1 
 3432000   0.70458495   -8.3020833    642.98796  0.015612567  0.014941237            3 
 3433000   0.71226411   -8.3182899    642.30112  0.015591347  0.014936021            4 
 3434000    0.7126073   -8.3160939    641.26928  0.015561767  0.014930813            2 
 3435000   0.70009474   -8.3085991    641.35702  0.015559365  0.014925595            1 
 3436000   0.70378152   -8.3433161    641.18084  0.015550564  0.014920394            1 
 3437000   0.70017552   -8.3367761    641.18765  0.015546204  0.014915175            3 
 3438000    0.7001522   -8.2934623    644.14704  0.015613415  0.014909971            2 
 3439000    0.6889337   -8.3050318    642.14535   0.01556037  0.014904795            2 
 3440000   0.69352053    -8.303276    642.23745  0.015558078  0.014899619            2 
 3441000   0.70556583    -8.307824    643.23594  0.015577737  0.014894436            2 
 3442000   0.69435242   -8.3010264    641.10769  0.015521685  0.014889257            2 
 3443000   0.71544541   -8.3239381    641.84453  0.015535011  0.014884055            2 
 3444000   0.70430115   -8.3250476    641.08714  0.015512174  0.014878849            2 
 3445000   0.70732215    -8.324348     641.3771  0.015514685  0.014873643            1 
 3446000   0.69316226    -8.325589      642.593  0.015539587  0.014868433            3 
 3447000   0.68072544   -8.3348916    641.58713  0.015510761  0.014863208            2 
 3448000   0.68960079   -8.3158545    642.39285  0.015525736  0.014857998            2 
 3449000   0.69291792   -8.3368774    642.39437  0.015521271  0.014852795            2 
 3450000   0.68555631   -8.3354611    641.80041  0.015502425  0.014847575            1 
 3451000   0.70799027   -8.3206998    642.24841  0.015508751  0.014842353            4 
 3452000   0.71326469   -8.3151261    641.05922  0.015475551  0.014837145            2 
 3453000   0.72567462   -8.3191048    642.05782  0.015495169   0.01483194            2 
 3454000    0.7035787   -8.3220394    642.25085   0.01549534  0.014826728            2 
 3455000   0.70273044   -8.3329955    642.63546  0.015500132  0.014821533            1 
 3456000   0.70219732    -8.339518    641.56726   0.01546989  0.014816319            1 
 3457000    0.7065045   -8.3361419     640.8692  0.015448587  0.014811127            2 
 3458000   0.68532465   -8.3254478    641.30284   0.01545457  0.014805922            1 
 3459000   0.71392585   -8.3348142    640.39229  0.015428166  0.014800719            3 
 3460000   0.69596061   -8.3109515    642.53313  0.015475268  0.014795508            2 
 3461000   0.70916749   -8.3298719    641.41071  0.015443771  0.014790302            8 
 3462000   0.70919702    -8.322063    643.80059  0.015496837  0.014785112            2 
 3463000   0.70695187   -8.3343994    640.58644  0.015415017  0.014779931            2 
 3464000   0.70065413   -8.2933134    643.44076  0.015479233  0.014774761            3 
 3465000   0.70054378   -8.3245829    641.73901  0.015433839  0.014769587            5 
 3466000   0.70653247   -8.3283981    641.34654  0.015419949  0.014764397            3 
 3467000    0.7140271   -8.3262635    641.50469  0.015419303  0.014759224            1 
 3468000   0.69127585   -8.3181693    642.59883  0.015441148  0.014754041            2 
 3469000   0.69939229   -8.3237089    641.88383  0.015419521  0.014748865            7 
 3470000   0.70841032   -8.3128964    641.62472  0.015408855  0.014743693            2 
 3471000   0.70233956   -8.3201905    642.22702  0.015418876  0.014738519            3 
 3472000   0.67282908   -8.3188054     642.2972  0.015416119  0.014733343            3 
 3473000   0.70034859   -8.3239383    639.87469  0.015353553  0.014728159            3 
 3474000    0.7009965   -8.3228679    641.26394  0.015382459  0.014722985            2 
 3475000   0.70632193   -8.3100283    641.11577  0.015374479  0.014717803            2 
 3476000    0.7014906   -8.3201242     642.2379  0.015396958  0.014712637            1 
 3477000   0.69048667   -8.3092784    642.03036  0.015387555  0.014707473            1 
 3478000   0.69003718   -8.3544616    640.99861   0.01535841  0.014702285            6 
 3479000   0.68187269   -8.3299034    641.64553  0.015369491  0.014697105            4 
 3480000   0.69775269   -8.3382714    642.72081  0.015390824  0.014691942            2 
 3481000   0.69849376   -8.3498535    642.29122  0.015376119  0.014686774            4 
 3482000   0.69538137   -8.3285967    642.72817   0.01538216  0.014681606            4 
 3483000   0.70522699   -8.3545484    639.44533  0.015299199  0.014676433            2 
 3484000   0.69232476   -8.3624502    641.30431  0.015339273  0.014671263            1 
 3485000   0.70257077   -8.3507567    641.74947  0.015345516  0.014666095            4 
 3486000   0.69690236    -8.332455     641.5899  0.015337299   0.01466092            4 
 3487000   0.69872718   -8.3437458    641.89242  0.015340131  0.014655763            2 
 3488000    0.6911443   -8.3485074    641.88636  0.015335588  0.014650615            3 
 3489000   0.70032274   -8.3437827    641.43926  0.015320513  0.014645441            2 
 3490000   0.69271284   -8.3279727    641.53482  0.015318405   0.01464028            1 
 3491000   0.68678665    -8.345121    640.28816  0.015284259  0.014635103            2 
 3492000   0.70544096   -8.3476819    641.70014  0.015313577  0.014629929            2 
 3493000    0.7036232   -8.3477653    641.88663  0.015313642  0.014624751            2 
 3494000   0.69332132   -8.3925575    638.83998  0.015236595  0.014619572            2 
 3495000     0.694217   -8.3703224    640.69718  0.015276518  0.014614386            3 
 3496000    0.6953381   -8.3423234    642.21804  0.015308401  0.014609221            2 
 3497000   0.68353543   -8.3616318    640.90656  0.015272771  0.014604054            2 
 3498000   0.68217669    -8.350208    640.99626  0.015270542   0.01459888            3 
 3499000    0.6873939   -8.3749012    640.80125  0.015261533  0.014593721            3 
 3500000   0.71139467    -8.355623    640.98087  0.015261449  0.014588566            4 
 3501000   0.68096827    -8.360428     641.2696  0.015263963  0.014583404            1 
 3502000   0.67989355   -8.3648704    640.50027  0.015241297  0.014578243            2 
 3503000   0.68040547   -8.3695803     640.2834  0.015231787  0.014573075            2 
 3504000   0.69331241   -8.3402555    641.43767  0.015254891  0.014567915            1 
 3505000   0.69116999   -8.3668821    641.02436  0.015240712   0.01456278            3 
 3506000   0.68607997   -8.3634127    640.20428  0.015216873  0.014557629            4 
 3507000   0.70158735   -8.3376103    642.75002  0.015273026  0.014552497            2 
 3508000   0.68749635   -8.3279375    641.30243  0.015234284  0.014547353            1 
 3509000   0.68745587    -8.367421    641.32401  0.015230455  0.014542211            3 
 3510000   0.69024502   -8.3437267     641.4462  0.015229017   0.01453707            3 
 3511000   0.68878764   -8.3489828    640.55868  0.015203614  0.014531933            1 
 3512000   0.68661983   -8.3379635    641.88332  0.015230717   0.01452681            4 
 3513000   0.67442639   -8.3357966    641.18322  0.015209774  0.014521686            1 
 3514000   0.68777509   -8.3438022    641.60724  0.015215501  0.014516556            2 
 3515000   0.68218817   -8.3707249    640.69961  0.015189654  0.014511422            1 
 3516000   0.67975378   -8.3668537    640.81823  0.015188145  0.014506293            1 
 3517000   0.69749545   -8.3584116    641.72381  0.015205284  0.014501164            1 
 3518000   0.68355785   -8.3604003    641.53802  0.015196561  0.014496033            3 
 3519000   0.69351511   -8.3759236    641.10514  0.015181992  0.014490896            3 
 3520000   0.69400538   -8.3495558     640.8638  0.015171965  0.014485773            1 
 3521000   0.67125081   -8.3528435     641.9368  0.015193051  0.014480667            1 
 3522000    0.6957735   -8.3561397    641.41824  0.015176468  0.014475567            2 
 3523000    0.6991783   -8.3298036    641.47791  0.015173572  0.014470466            3 
 3524000   0.70104756   -8.3330201     641.9578  0.015180614   0.01446538            2 
 3525000   0.69934638   -8.3455309    642.01971  0.015177771  0.014460277            3 
 3526000   0.68510566    -8.329466    642.24796  0.015178861  0.014455183            2 
 3527000   0.67524778   -8.3312969    641.94746  0.015167457  0.014450089            1 
 3528000   0.67723281   -8.3330977    640.88192  0.015137989     0.014445            2 
 3529000   0.68740192   -8.3686119     641.1343  0.015139659  0.014439922            3 
 3530000   0.68554331   -8.3385263    640.88513  0.015129488  0.014434839            3 
 3531000   0.69134011   -8.3480314    641.68977  0.015144193   0.01442975            1 
 3532000   0.69674759   -8.3517378    642.88271  0.015168052  0.014424668            2 
 3533000   0.70440727   -8.3373414    641.78749  0.015137926  0.014419586            2 
 3534000   0.69537553   -8.3654898    640.80577  0.015110493  0.014414509            1 
 3535000   0.69416476   -8.3675583    641.36134  0.015119315  0.014409432            4 
 3536000   0.68727206   -8.3653048     640.3389  0.015090943  0.014404349            4 
 3537000   0.69125325   -8.3442564    642.21345  0.015130842  0.014399275            3 
 3538000   0.68442592   -8.3796976    640.86674  0.015094845  0.014394197            3 
 3539000   0.68436841   -8.3706701    640.40031  0.015079597  0.014389113            2 
 3540000   0.69200913   -8.3723565    641.59485  0.015103457  0.014384031            3 
 3541000   0.68813371   -8.3562306    641.28644  0.015091933  0.014378959            3 
 3542000   0.68071294   -8.3808154    640.72122  0.015074375  0.014373881            2 
 3543000   0.68515282   -8.3942122    641.61957   0.01509125  0.014368798            2 
 3544000   0.67470062   -8.3767148    640.73716  0.015066243  0.014363714            2 
 3545000   0.69676691   -8.3696684    641.27581  0.015074655  0.014358638            3 
 3546000   0.68130271   -8.3816246    642.47992  0.015098701  0.014353566            3 
 3547000   0.67426921   -8.3615061    641.17321  0.015063744  0.014348493            1 
 3548000   0.66258526   -8.3388042    642.18165  0.015083184  0.014343427            2 
 3549000   0.66484967   -8.3832462    641.58856  0.015065008  0.014338359            3 
 3550000   0.67778164   -8.3620919    641.21385  0.015051968  0.014333301            2 
 3551000   0.68243114   -8.3687429     642.1924  0.015070694  0.014328243            6 
 3552000   0.68973213   -8.3745992    640.57341  0.015028468  0.014323193            3 
 3553000    0.6813447   -8.3505212    641.34989   0.01504245  0.014318137            2 
 3554000   0.68367845   -8.3899361    641.24271  0.015035704  0.014313086            1 
 3555000   0.68469536   -8.3913008    639.75263  0.014996545  0.014308021            4 
 3556000   0.69084955   -8.3748668    641.33729  0.015029464  0.014302956            3 
 3557000   0.66915944   -8.3587453    640.31613  0.015001315  0.014297893            3 
 3558000   0.66984221   -8.3628823    640.96565  0.015012311  0.014292844            1 
 3559000   0.68575321   -8.3848909    642.15119  0.015035852  0.014287793            1 
 3560000   0.67907317   -8.3708939    641.93794  0.015026637  0.014282733            2 
 3561000   0.69866937   -8.3728977    641.26413  0.015006649  0.014277682            2 
 3562000   0.69113523   -8.3752409    641.31675  0.015003667  0.014272629            2 
 3563000   0.67627825   -8.3745554    641.48478  0.015003386  0.014267584            1 
 3564000   0.68557841   -8.3843836    641.47377  0.014998919  0.014262547            2 
 3565000   0.67985796   -8.3836481    640.42269  0.014970142   0.01425751            2 
 3566000   0.68807688   -8.3687346    641.53504  0.014991939   0.01425247            2 
 3567000   0.68181202   -8.3932246     639.7788  0.014946706  0.014247422            2 
 3568000   0.67240144   -8.3844379    641.59959  0.014985043  0.014242383            3 
 3569000   0.67972246   -8.3868551    641.42638    0.0149768  0.014237343            1 
 3570000   0.68493143   -8.3864413    642.20528  0.014990786  0.014232314            1 
 3571000   0.68607773   -8.4020541      639.871  0.014932115  0.014227272            1 
 3572000   0.67411149   -8.4099909    640.41463  0.014940618  0.014222215            1 
 3573000   0.68929109   -8.3912892    640.27961  0.014933287  0.014217165            2 
 3574000   0.67129953   -8.4098407    639.10691  0.014901765  0.014212107            4 
 3575000   0.68276238    -8.346304     641.0166  0.014942112  0.014207056       -1e+20 
 3576000   0.68949906   -8.3899018     641.3588  0.014945908  0.014202022            3 
 3577000   0.67971078   -8.3564878    641.19361  0.014937881  0.014196993            2 
 3578000    0.6716874   -8.4158512    640.81147  0.014924806  0.014191948            2 
 3579000   0.68775384   -8.3890959    640.48897  0.014913127  0.014186902            1 
 3580000    0.6783435   -8.4086934    640.62498  0.014912127   0.01418186            2 
 3581000   0.67973683   -8.3893539    641.85099  0.014936493   0.01417682            3 
 3582000   0.68506212   -8.4124906    641.08671  0.014914543  0.014171777            3 
 3583000   0.67816708   -8.3976275    641.24045  0.014913956   0.01416675            5 
 3584000   0.66742598   -8.3853565    640.42416  0.014890815  0.014161721            3 
 3585000     0.692349     -8.39501    640.42189  0.014886608  0.014156689            1 
 3586000   0.68943495   -8.4068567     639.2944  0.014856256  0.014151655            3 
 3587000   0.66637039   -8.3893002     640.3001  0.014875479   0.01414662            2 
 3588000   0.68910343   -8.4277662    639.13921   0.01484437  0.014141585            2 
 3589000   0.67219505   -8.4052153    639.35967  0.014845353   0.01413654            1 
 3590000   0.68028527   -8.4092033    639.96211  0.014855202  0.014131497            1 
 3591000   0.67513136   -8.4154223    640.77767  0.014869991  0.014126471            1 
 3592000   0.69166191   -8.3989854    640.14815  0.014851247  0.014121443            1 
 3593000   0.68388868    -8.392665    640.80893  0.014862439  0.014116425            2 
 3594000   0.68540436   -8.4018964    641.59607  0.014876555  0.014111405            1 
 3595000   0.67231626   -8.3890788    640.75116  0.014852832  0.014106378            2 
 3596000   0.68481559    -8.412808    640.66735  0.014846759  0.014101349            4 
 3597000    0.6709762   -8.4205741    641.54522   0.01486297  0.014096318            2 
 3598000   0.68742013   -8.3963032    640.41615  0.014832688  0.014091292            6 
 3599000    0.6781288   -8.3991753    639.42704  0.014805664  0.014086261            2 
 3600000   0.68225012   -8.3914434    639.80189  0.014810229  0.014081225            2 
 3601000   0.68378948    -8.409474    640.29112  0.014817438  0.014076203            3 
 3602000   0.67699447   -8.3962736    639.53696  0.014795876  0.014071184            3 
 3603000   0.67404403    -8.409748    639.02286  0.014779879  0.014066156            2 
 3604000   0.68086125   -8.4096894    640.24661  0.014804074  0.014061134            2 
 3605000    0.6661875   -8.3851361    639.64569  0.014786077  0.014056117            1 
 3606000   0.68633783   -8.3916326    639.86992  0.014787158  0.014051106            1 
 3607000   0.67435928   -8.3843998    640.66927  0.014801526  0.014046088            1 
 3608000   0.66945283   -8.4043532    639.76732  0.014776592  0.014041078            3 
 3609000   0.66404243   -8.4190385    638.78869    0.0147499   0.01403605            3 
 3610000   0.67615703   -8.4134251    639.80811  0.014769347  0.014031038            2 
 3611000   0.66616508   -8.4191114    639.92347  0.014767919  0.014026041            1 
 3612000   0.67617259   -8.4077809      639.941  0.014764235  0.014021044            4 
 3613000   0.68379104   -8.4228557    640.84856  0.014781081  0.014016056            1 
 3614000   0.67649965   -8.4153757    639.32267  0.014741807  0.014011065            2 
 3615000   0.66499245   -8.3991849    640.47548  0.014764303  0.014006073            2 
 3616000   0.67848926    -8.399523    640.50026  0.014760791  0.014001081            4 
 3617000   0.66536893   -8.4147024    640.76764  0.014762871  0.013996098            2 
 3618000   0.68793572   -8.4295567    639.95145  0.014739991  0.013991099            2 
 3619000   0.65971973   -8.4177284    640.93463  0.014758557  0.013986105            3 
 3620000   0.67088413   -8.4239103    639.50011  0.014721457  0.013981107            3 
 3621000   0.66957983   -8.4242135    640.83637  0.014748144  0.013976108            2 
 3622000   0.67877279   -8.3765397    640.89235  0.014745361   0.01397112            2 
 3623000   0.67088333   -8.4097106    640.87629  0.014740921  0.013966144            1 
 3624000   0.68233972   -8.3934242    639.84604  0.014713163  0.013961174            2 
 3625000   0.67908008   -8.3975256    640.86782  0.014732594  0.013956195            1 
 3626000   0.67854792   -8.4150492    639.36443  0.014693979  0.013951221            2 
 3627000   0.68455179   -8.4176771    640.52983  0.014716704  0.013946243            2 
 3628000   0.68519612   -8.4304382     640.6853  0.014716219  0.013941268            2 
 3629000   0.67248302   -8.3968265    640.86369   0.01471626  0.013936298            1 
 3630000    0.6734973    -8.389916    641.77677  0.014733167   0.01393134            1 
 3631000    0.6632677   -8.3881155    640.53603  0.014700634  0.013926395            2 
 3632000   0.65897237    -8.389998    640.82453  0.014703206  0.013921444            3 
 3633000   0.67657519   -8.4130328    640.04396  0.014681254  0.013916476            3 
 3634000   0.69628946   -8.4111055    639.71486  0.014669668   0.01391152            1 
 3635000    0.6677199   -8.4088541    640.76938  0.014689807  0.013906565            2 
 3636000   0.65049967   -8.4168191    641.05054  0.014692211  0.013901607            1 
 3637000   0.66394297   -8.4107309    639.73566  0.014658044  0.013896638            1 
 3638000    0.6646335   -8.4155439    639.75699  0.014654503  0.013891697            1 
 3639000   0.67409012   -8.4008562    640.19273  0.014660454  0.013886745            1 
 3640000   0.66087556   -8.4167814    638.45031  0.014616536  0.013881805            2 
 3641000   0.67228104   -8.3984916    640.25241  0.014653768  0.013876865            2 
 3642000   0.66263906   -8.4290972    640.15394  0.014647491  0.013871922            4 
 3643000   0.65757481   -8.4155376    639.71985   0.01463354  0.013866977            7 
 3644000   0.66761522   -8.4101517     640.2285  0.014641157  0.013862017            2 
 3645000   0.69000974   -8.4009538    639.77117  0.014626684  0.013857073            2 
 3646000    0.6578183   -8.4188259    640.37167  0.014636398  0.013852135            3 
 3647000   0.66902571   -8.4277339    640.61808  0.014638015  0.013847192            5 
 3648000   0.67028182   -8.4142091    639.70409  0.014613123  0.013842246            2 
 3649000   0.66190833    -8.415187    639.41671  0.014602556  0.013837302            2 
 3650000   0.65283643   -8.4425637    639.47717  0.014599935  0.013832347            4 
 3651000   0.65825809   -8.4248789     640.1288   0.01461081  0.013827401            2 
 3652000   0.66686448   -8.4415371    639.56377  0.014593916  0.013822461            3 
 3653000   0.66500427   -8.4008742    640.02559  0.014600456  0.013817525            2 
 3654000   0.67272795   -8.4511153     639.5301   0.01458516  0.013812588            2 
 3655000   0.67107518   -8.4114191    639.63939  0.014583661  0.013807653            3 
 3656000   0.66861728   -8.4359114    639.97561  0.014587336   0.01380272            1 
 3657000   0.66323333   -8.4473455     639.8004  0.014579355  0.013797773            2 
 3658000    0.6734454   -8.4254181    640.42729   0.01458965  0.013792839            3 
 3659000   0.65958961   -8.4297719    640.64064  0.014590522  0.013787911            2 
 3660000   0.65860556   -8.4215287    640.08524   0.01457389  0.013782986            1 
 3661000   0.68411821   -8.4200136    639.59378  0.014558722  0.013778068            3 
 3662000   0.66643862    -8.440495    639.25915  0.014547132  0.013773152            1 
 3663000   0.68601062   -8.4165222    640.39544  0.014569011  0.013768238            1 
 3664000   0.67660967    -8.427321    639.90281   0.01455383   0.01376333            1 
 3665000   0.65580972   -8.4350054    639.00409  0.014529424  0.013758412            4 
 3666000   0.66568735   -8.4254487    638.76444  0.014520014  0.013753501            5 
 3667000   0.65299905   -8.4411918    639.73535  0.014538118   0.01374858            2 
 3668000   0.66976875   -8.4425624    640.78918  0.014558097  0.013743672            1 
 3669000   0.65491412   -8.4235393    641.09876   0.01456116  0.013738764            2 
 3670000   0.67956907   -8.4100804    639.23755  0.014514931  0.013733863            2 
 3671000   0.66609062   -8.4242745    639.42324  0.014515192  0.013728956            2 
 3672000   0.67247477   -8.4322898    639.95739  0.014523361  0.013724051            2 
 3673000   0.65848731   -8.4542462    640.71894  0.014536685  0.013719145            4 
 3674000   0.64765328   -8.4316991    639.27713  0.014500026  0.013714236            2 
 3675000   0.66860552   -8.4197084    639.15062  0.014493211  0.013709324            1 
 3676000   0.67226796   -8.4412634    639.25341  0.014491599  0.013704422            1 
 3677000   0.65681817   -8.4705197    638.46511  0.014469792  0.013699516            2 
 3678000   0.66831921   -8.4410778    639.80883  0.014496303  0.013694615            4 
 3679000   0.65463076   -8.4387042    639.47304  0.014484757  0.013689719            3 
 3680000   0.66389781     -8.44587     640.3887  0.014501556  0.013684817            1 
 3681000   0.66618319   -8.4306703    639.48128  0.014477073  0.013679915            2 
 3682000   0.66629444   -8.4306435    639.60355  0.014475909  0.013675016            2 
 3683000   0.66016025   -8.4271418    639.92782  0.014479315  0.013670126            1 
 3684000    0.6653655   -8.4277188    639.12426  0.014457208  0.013665243            2 
 3685000   0.66341696   -8.4309166    638.55683  0.014440453  0.013660362            7 
 3686000   0.67490848   -8.4278696    640.28611  0.014475631  0.013655485            4 
 3687000     0.670125   -8.4298192    640.19173  0.014469572  0.013650612            1 
 3688000   0.66811417   -8.4344844    640.63779  0.014475727  0.013645742            2 
 3689000   0.65864343   -8.4348309    640.38014  0.014465983  0.013640884            2 
 3690000   0.64831474   -8.4299311    641.07405  0.014477734  0.013636027            3 
 3691000   0.67924764   -8.4347895    640.23052  0.014454767  0.013631162            1 
 3692000   0.67265483   -8.4336252    639.61577  0.014436976  0.013626304            1 
 3693000   0.65306783   -8.4108192    640.45911  0.014452097  0.013621459            3 
 3694000   0.66505119   -8.4209914    640.65674  0.014452643  0.013616604            1 
 3695000   0.67354826   -8.4079452    641.46908  0.014467052  0.013611752            1 
 3696000   0.65954038   -8.4214104    638.92283  0.014405728  0.013606907            3 
 3697000   0.66647314   -8.4279112    640.94197  0.014447344  0.013602071            3 
 3698000   0.65844441   -8.4373379    639.71511   0.01441579  0.013597228            4 
 3699000   0.66853298   -8.4339531    639.10878  0.014398233  0.013592383            5 
 3700000   0.64029289   -8.4388434    640.35428  0.014422394  0.013587533            2 
 3701000   0.65780375   -8.4443359    639.77697  0.014405498  0.013582687            3 
 3702000   0.65168118    -8.420376    641.08886  0.014431138  0.013577848            4 
 3703000   0.64541454   -8.4165526    639.58146  0.014393318  0.013573008            3 
 3704000    0.6635706   -8.4405351    639.84213  0.014395296  0.013568166            4 
 3705000   0.64356549   -8.4230307    639.86474  0.014391919  0.013563332            2 
 3706000   0.66074251   -8.4201537    641.03507  0.014414352  0.013558504            7 
 3707000   0.66444285   -8.4147912    638.63893  0.014356598  0.013553679            3 
 3708000   0.65715329   -8.4295821    639.36669  0.014369082  0.013548862            2 
 3709000   0.64869912   -8.4233631    640.00692  0.014379593  0.013544042            2 
 3710000   0.65480892   -8.4252044    640.36056   0.01438366  0.013539213            3 
 3711000   0.65061008   -8.4419452    639.64062  0.014363618  0.013534397            3 
 3712000   0.65904526   -8.4368621    640.41893  0.014377221  0.013529574            4 
 3713000    0.6624977    -8.440289     640.3501  0.014371804  0.013524744            3 
 3714000   0.68135858   -8.4413783    639.37312  0.014346013  0.013519913            2 
 3715000   0.64555354   -8.4398661    639.56494  0.014346454  0.013515086            5 
 3716000   0.67161043   -8.4296011    640.15056  0.014355727  0.013510267            3 
 3717000   0.65514571    -8.439828    640.87857  0.014368186  0.013505454            2 
 3718000   0.66294458   -8.4381719    638.68648  0.014315189  0.013500637            2 
 3719000   0.63559406   -8.4401096     639.8661  0.014337772  0.013495824            2 
 3720000   0.63534885   -8.4430617    639.12854  0.014317396  0.013491006            1 
 3721000   0.67607618   -8.4436469    640.19158  0.014337355  0.013486185            1 
 3722000   0.63988022   -8.4415044    640.48251  0.014340017  0.013481376            2 
 3723000   0.66112578   -8.4228994    640.74397  0.014342017  0.013476572            2 
 3724000   0.65376263    -8.409353    639.37576  0.014307549  0.013471764            4 
 3725000   0.66048385   -8.4473312    639.57244  0.014308108   0.01346697            2 
 3726000   0.65744443   -8.4345165    640.09324  0.014315916  0.013462173            2 
 3727000   0.65489705   -8.4180424    639.73636  0.014304095  0.013457375            3 
 3728000   0.64318147   -8.4466255    640.41059   0.01431533  0.013452574            1 
 3729000   0.64218931   -8.4544703    639.44298  0.014289867  0.013447773            3 
 3730000   0.66305997   -8.4467476    639.40263  0.014285135  0.013442967            2 
 3731000   0.65150231   -8.4594945    639.47621  0.014282949  0.013438162            1 
 3732000   0.64458869   -8.4482692    640.14229  0.014293995  0.013433361            1 
 3733000   0.66657506   -8.4518937    640.57664  0.014299863  0.013428569            1 
 3734000   0.65408267   -8.4526186    640.08817  0.014285131  0.013423776            3 
 3735000   0.65470955   -8.4433589    640.08091  0.014281145  0.013418987            2 
 3736000   0.65984795   -8.4310805    640.87567   0.01429505  0.013414204            4 
 3737000   0.66730276   -8.4569795    638.88868  0.014246915  0.013409418            2 
 3738000   0.66903848   -8.4214914    639.73604  0.014261995  0.013404635            4 
 3739000   0.65580863   -8.4350102    640.11765  0.014266686  0.013399866            4 
 3740000   0.65397045   -8.4467992    639.80086  0.014255812  0.013395085            2 
 3741000   0.63627649   -8.4347336    638.53154  0.014223727  0.013390304            2 
 3742000   0.64140242   -8.4360318    640.23245  0.014257804  0.013385529            2 
 3743000   0.64798469   -8.4185063    640.59173  0.014261994  0.013380757            3 
 3744000   0.65202514   -8.4412346    640.59975  0.014258363  0.013375987            5 
 3745000   0.64967856   -8.4507764    640.64412  0.014255543  0.013371219            1 
 3746000   0.64390322   -8.4472549    639.50341  0.014226362   0.01336646            2 
 3747000   0.67621507   -8.4345499    639.56741  0.014223988  0.013361696            2 
 3748000   0.65566749   -8.4314926     641.2881  0.014258451  0.013356941            3 
 3749000   0.65038444   -8.4293977    640.40577  0.014235035  0.013352192            2 
 3750000   0.65989762   -8.4321309     641.0026  0.014244502  0.013347447            3 
 3751000   0.65529853   -8.4417609    640.49273  0.014229377  0.013342697            3 
 3752000   0.65951371   -8.4374626    641.01394  0.014237161  0.013337953            2 
 3753000   0.65089864   -8.4419527    640.80597   0.01422875  0.013333208            1 
 3754000   0.64625456   -8.4094538    639.01479  0.014185198  0.013328458            1 
 3755000   0.64963994   -8.4511069    639.07109  0.014182669  0.013323719            2 
 3756000   0.65857206   -8.4373344     640.5759   0.01421228   0.01331898            3 
 3757000   0.63991703   -8.4501357    639.71247  0.014189346  0.013314244            1 
 3758000   0.65771421   -8.4507159    638.67331  0.014162527  0.013309505            1 
 3759000   0.64549374   -8.4282271    639.55608  0.014178329  0.013304768            2 
 3760000   0.64557171   -8.4427885    639.51591  0.014173668  0.013300027            1 
 3761000   0.63974804   -8.4491824    638.70966  0.014152035  0.013295289            3 
 3762000   0.62438841   -8.4611392    638.87282  0.014151888  0.013290541            4 
 3763000   0.62950974   -8.4521421    639.47705  0.014161508  0.013285797            2 
 3764000   0.65894076    -8.436917    639.48306  0.014157879  0.013281053            6 
 3765000   0.65067084   -8.4648682    638.98111  0.014143008  0.013276304            1 
 3766000   0.65862283   -8.4674882    638.86753  0.014136739  0.013271549            1 
 3767000   0.66308809   -8.4497181    638.36601  0.014121892  0.013266791            2 
 3768000   0.66367542   -8.4516643    638.16754  0.014113755  0.013262035            2 
 3769000    0.6333295   -8.4502959     638.3461  0.014113958  0.013257287            2 
 3770000   0.65092109    -8.450416    638.93678  0.014123271  0.013252541            1 
 3771000   0.66817617   -8.4725199    638.71312  0.014114583  0.013247792            1 
 3772000   0.65807898   -8.4463124    638.75323  0.014111727  0.013243051            4 
 3773000   0.65390883   -8.4551726    638.09689  0.014093491  0.013238303            3 
 3774000   0.65007332   -8.4625971    639.41994  0.014118971  0.013233562            2 
 3775000   0.65697682   -8.4650447    638.82038  0.014101995  0.013228836            2 
 3776000   0.65720283   -8.4618132    639.08689  0.014104142   0.01322411            5 
 3777000   0.64330015   -8.4333147    640.28351  0.014126809  0.013219389            3 
 3778000    0.6642047   -8.4756809    639.06133  0.014096112  0.013214669            5 
 3779000   0.64449665   -8.4407581    639.20801  0.014095616   0.01320995            6 
 3780000   0.64476397   -8.4438818    640.93587   0.01412998  0.013205234            3 
 3781000   0.62998714   -8.4459954    639.96319  0.014104805  0.013200522            8 
 3782000   0.63960801   -8.4615959    639.32017  0.014086907  0.013195807            4 
 3783000   0.62910638   -8.4385003    638.83957  0.014072596  0.013191091            2 
 3784000   0.64150412   -8.4446453    640.05736  0.014095696   0.01318637            3 
 3785000   0.64352687   -8.4355825    638.46006  0.014056804  0.013181658            4 
 3786000   0.63692728   -8.4713864    638.41218  0.014052038  0.013176951            5 
 3787000   0.64516927   -8.4583459    637.80681  0.014035006  0.013172242            2 
 3788000   0.67473451   -8.4450219     639.0788  0.014059284   0.01316754            4 
 3789000   0.65397662    -8.441792    639.61549  0.014067377  0.013162841            1 
 3790000   0.64352259    -8.435904    637.64566  0.014020353  0.013158137            2 
 3791000   0.63555727   -8.4594775    638.80076  0.014042046  0.013153439            1 
 3792000   0.64966095   -8.4421746    639.58633  0.014055607  0.013148743            1 
 3793000   0.65623843   -8.4383955    639.34951  0.014046698   0.01314405            2 
 3794000   0.63829159   -8.4464424    639.10312  0.014037584  0.013139365            2 
 3795000   0.64477326   -8.4543654    640.18372  0.014057613  0.013134678            2 
 3796000   0.64010725   -8.4818509    638.66415  0.014020551  0.013129986            1 
 3797000   0.64855744   -8.4340526    638.82436  0.014020375  0.013125289            2 
 3798000   0.63835547   -8.4393171    639.98014  0.014042043  0.013120605            3 
 3799000   0.63111345   -8.4402174    638.49014  0.014005662  0.013115922            2 
 3800000   0.64321483   -8.4653097    639.32483  0.014020281  0.013111243            3 
 3801000   0.63690182   -8.4625753     638.5818  0.014000303  0.013106568            1 
 3802000   0.63145322   -8.4360708    639.03892  0.014006639  0.013101887            1 
 3803000   0.64214854   -8.4436619    639.40226  0.014010918  0.013097203            2 
 3804000   0.64731822   -8.4681566    639.35152  0.014006123   0.01309253            5 
 3805000   0.63720543   -8.4445783    638.90173  0.013992592  0.013087855       -1e+20 
 3806000   0.63062933   -8.4516281     638.8839  0.013988525  0.013083186            1 
 3807000   0.63261798   -8.4627279    638.15698  0.013968938  0.013078512            1 
 3808000   0.64468254   -8.4473772    638.96306   0.01398291  0.013073842            7 
 3809000    0.6331768   -8.4605698    638.63314  0.013972021  0.013069166            1 
 3810000   0.64333243   -8.4695907    639.55443  0.013988505  0.013064495            2 
 3811000   0.64538535   -8.4576871    639.74469  0.013988994  0.013059829            3 
 3812000       0.6387   -8.4568029    638.30666  0.013953888  0.013055166            1 
 3813000   0.63676685   -8.4586485    639.33356  0.013972671  0.013050501            3 
 3814000   0.63370992   -8.4703935    638.22051  0.013944689  0.013045836            4 
 3815000   0.63401251   -8.4624863    638.36035  0.013944088  0.013041162            2 
 3816000   0.65547535     -8.47362    638.60118  0.013945693  0.013036484            2 
 3817000   0.63032039   -8.4529044    636.39834  0.013893947  0.013031805            2 
 3818000   0.64567412   -8.4830801    638.40747   0.01393416   0.01302713            5 
 3819000   0.63924756   -8.4927113    638.55905  0.013933819  0.013022456            1 
 3820000   0.63624348   -8.4640628    639.07321  0.013941388   0.01301779            2 
 3821000   0.63324138   -8.4628021    638.06248  0.013915696  0.013013129            2 
 3822000   0.63029436    -8.485154    639.09509  0.013934569  0.013008458            1 
 3823000   0.63677011   -8.4910375    638.55927  0.013919245  0.013003788            1 
 3824000    0.6339427   -8.4790944    638.72268  0.013919166  0.012999117            1 
 3825000   0.63815407   -8.4775817    638.13911  0.013902813  0.012994446            2 
 3826000   0.63348076   -8.4634787    638.18635  0.013900208  0.012989782            1 
 3827000   0.63183429   -8.4690344     638.7095  0.013907967  0.012985117            2 
 3828000   0.64004211    -8.474501    638.84589  0.013907303  0.012980447            1 
 3829000   0.63159457   -8.4755094    637.39399  0.013872073  0.012975781            2 
 3830000   0.62991853   -8.4884408    636.38686  0.013846537   0.01297112            2 
 3831000   0.64222165   -8.4814443    638.40537   0.01388683  0.012966456            2 
 3832000   0.64944869   -8.4606373      638.703  0.013889679  0.012961802            2 
 3833000   0.62406212   -8.4521395    636.61829  0.013840732  0.012957144            3 
 3834000   0.63663113   -8.5007794    638.08425  0.013868985  0.012952488            2 
 3835000   0.62427384   -8.4685146    637.56965  0.013854186  0.012947831            1 
 3836000   0.63012372   -8.5003768     637.7686  0.013854897  0.012943171            1 
 3837000   0.62944377   -8.4803623    637.98677  0.013856024  0.012938515            1 
 3838000   0.63308283   -8.4812748    638.45682   0.01386262  0.012933866            1 
 3839000   0.63660354   -8.4852184    638.24533  0.013854418  0.012929213            2 
 3840000   0.64717892   -8.4930337    637.39667  0.013832393   0.01292456            2 
 3841000   0.63796244   -8.4633038    637.53925  0.013831885  0.012919913            3 
 3842000   0.64768313   -8.4873647    637.50355  0.013827511  0.012915274            2 
 3843000   0.64842321   -8.4832309     638.3347  0.013841935  0.012910639            2 
 3844000   0.64120983   -8.4847071    636.74929  0.013803965  0.012905998            3 
 3845000    0.6509111   -8.4959451    637.66153  0.013820146  0.012901364            2 
 3846000   0.63232591   -8.4794617    637.73426  0.013818128  0.012896736            1 
 3847000   0.64765378   -8.4939266    638.38139  0.013828554  0.012892108            1 
 3848000   0.64216329   -8.4840257    637.13094  0.013797881  0.012887482            1 
 3849000   0.65512048   -8.4864164    636.94003  0.013790162  0.012882856            4 
 3850000    0.6412868   -8.4617594    637.54866  0.013799754  0.012878235            1 
 3851000   0.62753603   -8.5044915    637.04806  0.013785339  0.012873609            3 
 3852000   0.63706284     -8.48384    638.70096  0.013817518  0.012868984            3 
 3853000   0.62860723     -8.47404    637.81769  0.013794829  0.012864357            2 
 3854000   0.63744972   -8.4785307    637.92126  0.013793489  0.012859738            2 
 3855000    0.6352454    -8.489436    637.50806  0.013780978  0.012855125            4 
 3856000   0.64461492    -8.475959    638.46101  0.013797999  0.012850509            1 
 3857000   0.63340265   -8.4916729    638.60622  0.013797559  0.012845898            3 
 3858000   0.63042846   -8.4805124    637.50196   0.01377013  0.012841287            3 
 3859000   0.63878027   -8.5013337    636.18291  0.013738078  0.012836675            3 
 3860000   0.61503471   -8.5014542    636.81714  0.013748211  0.012832063            2 
 3861000    0.6351629   -8.5025406    637.76373  0.013765081  0.012827449            4 
 3862000   0.63371344    -8.489779    638.36422  0.013774474  0.012822835            3 
 3863000   0.62489364   -8.4830696     637.3869  0.013749825  0.012818227            3 
 3864000    0.6314263   -8.4893105    638.69327  0.013774441  0.012813619            2 
 3865000    0.6307911   -8.4906943    638.67353  0.013770451  0.012809016            2 
 3866000   0.63073071   -8.4837776    637.90922  0.013750414  0.012804415            3 
 3867000   0.62938056   -8.5065075    637.82565  0.013745057  0.012799814            2 
 3868000   0.63916425   -8.4707373    637.42291  0.013732827  0.012795214            2 
 3869000   0.64048874   -8.4919618    637.87777  0.013739075  0.012790613            2 
 3870000   0.62832554   -8.5022769    636.98441  0.013716288  0.012786009            3 
 3871000   0.62789223    -8.513462    636.41469   0.01370048  0.012781406            2 
 3872000    0.6211859   -8.5061562    637.76436  0.013725989  0.012776807            1 
 3873000   0.62800707   -8.4979176    637.40469  0.013714706  0.012772205            2 
 3874000   0.64175437   -8.5149425    637.58113  0.013714961  0.012767611            2 
 3875000   0.64973715   -8.5114431    636.96143  0.013698095  0.012763021            2 
 3876000   0.62709126   -8.4993054    637.64886  0.013709341  0.012758431            3 
 3877000   0.62891139   -8.5048113    637.58689  0.013704473  0.012753844            3 
 3878000    0.6193459   -8.4855929    636.90876  0.013686367  0.012749256            2 
 3879000   0.64268257   -8.5318991    636.80515  0.013680613   0.01274468            1 
 3880000     0.633576   -8.5203731    636.75623  0.013676036  0.012740099            4 
 3881000    0.6305385   -8.4951633    638.08927  0.013701135  0.012735516            3 
 3882000   0.63007335   -8.5308941    636.47822  0.013663022  0.012730934            2 
 3883000   0.63652055   -8.5317918    636.81543   0.01366674  0.012726355            1 
 3884000   0.62713957   -8.5146305    637.67053  0.013681568  0.012721781            5 
 3885000   0.63525492   -8.5311662     636.7978  0.013659326  0.012717199            2 
 3886000   0.62532787   -8.4958737     637.6855  0.013674848  0.012712612            3 
 3887000   0.63354067   -8.4965505    637.24129  0.013661806  0.012708033            2 
 3888000   0.62174886   -8.4891965    637.69005  0.013667911  0.012703455            2 
 3889000    0.6217942   -8.5136328    636.73904  0.013644018  0.012698879            2 
 3890000   0.63132877    -8.514204    638.58803  0.013680121   0.01269431            1 
 3891000   0.64165173   -8.5086775    637.64936  0.013656501  0.012689746            1 
 3892000   0.63010898   -8.5009015    637.68376  0.013653729  0.012685185            2 
 3893000   0.62114382   -8.5035556    638.64383  0.013670773   0.01268063            2 
 3894000    0.6435023   -8.4960218    638.40123  0.013662071  0.012676075            4 
 3895000   0.62176666   -8.5001794     637.7913  0.013645513  0.012671521            2 
 3896000   0.61935386   -8.5056287    638.28327  0.013652534  0.012666969            5 
 3897000   0.62769476   -8.5192861    638.27284  0.013648808  0.012662418            5 
 3898000   0.62738718    -8.480862     637.6024  0.013630973  0.012657871            1 
 3899000   0.61351967   -8.4998772    636.37249   0.01360119   0.01265332            1 
 3900000   0.63207881   -8.5240954    637.00986  0.013611322   0.01264878            3 
 3901000   0.61398344   -8.4965773    637.19951  0.013611884   0.01264424            1 
 3902000   0.62089966    -8.507429     637.5499  0.013615879  0.012639708            1 
 3903000   0.64638072   -8.5063422    636.91892  0.013598918  0.012635176            2 
 3904000   0.62398371     -8.52117    636.33772  0.013583028  0.012630642            7 
 3905000   0.63625085   -8.4939772    638.45498  0.013624733  0.012626106            1 
 3906000   0.62601896   -8.5315992    638.13784  0.013614479  0.012621576            3 
 3907000   0.62525247   -8.4958322    637.85504  0.013604962  0.012617048            2 
 3908000   0.62620719    -8.500989    637.41472  0.013592092  0.012612515            1 
 3909000   0.62568828   -8.5080891    638.15592  0.013604415  0.012607989            2 
 3910000   0.61950907   -8.4868613    637.33728  0.013583489  0.012603457            1 
 3911000   0.62653091   -8.5149583    637.50581  0.013583606  0.012598929            4 
 3912000   0.61700826   -8.4976421    637.66664   0.01358356  0.012594398            1 
 3913000   0.61994374   -8.4978666    637.10053  0.013568032  0.012589872            1 
 3914000   0.62685568   -8.5231138    636.52002  0.013552206  0.012585335            2 
 3915000   0.60517799   -8.5142179    637.14592  0.013562067  0.012580812            1 
 3916000   0.63600894   -8.5159847     635.3954  0.013521353  0.012576287            3 
 3917000   0.63615265   -8.5105406    637.19356  0.013556156  0.012571769            4 
 3918000   0.62262856   -8.5286634    637.04209  0.013549474  0.012567249            2 
 3919000   0.63026731   -8.5377418    636.59856  0.013536586  0.012562726            2 
 3920000   0.63387524   -8.5148068    637.40686  0.013550316  0.012558209            2 
 3921000   0.62823094   -8.5214933    636.96455   0.01353746  0.012553697            2 
 3922000   0.61317907   -8.5407631    637.32851  0.013541741  0.012549181            2 
 3923000   0.62778008   -8.5192384    637.02742  0.013531894  0.012544666            3 
 3924000   0.62687683   -8.5103896    636.46977  0.013516602  0.012540156            2 
 3925000   0.61645384   -8.5238233    636.93107  0.013522953  0.012535646            2 
 3926000   0.62211977   -8.5251322    636.04505  0.013500702  0.012531134            2 
 3927000   0.61539139   -8.5301199    635.68844  0.013489696  0.012526632            2 
 3928000   0.61610637   -8.5516245    635.26456  0.013477269  0.012522114            1 
 3929000   0.62611247   -8.5215718    635.27028   0.01347396  0.012517607            2 
 3930000   0.61314749     -8.53898    635.71872  0.013480041  0.012513092            1 
 3931000   0.62253742   -8.5043062    636.63679  0.013496074  0.012508585            1 
 3932000   0.62377685   -8.5312454    637.42343  0.013509313   0.01250408            3 
 3933000   0.62906636   -8.5399375    637.35716  0.013504474  0.012499585            4 
 3934000    0.6247986   -8.5232279    636.46261  0.013482092   0.01249509            1 
 3935000   0.61671111   -8.5305875    635.70565  0.013462636  0.012490594            1 
 3936000   0.63750217   -8.5443411    636.60417  0.013478239  0.012486109            3 
 3937000    0.6100162   -8.5205574    636.84947  0.013480007  0.012481615            1 
 3938000    0.6296125   -8.5402867    637.75567  0.013495761   0.01247712            1 
 3939000   0.62240573   -8.5304623    636.94509  0.013475186  0.012472623            3 
 3940000   0.60753755   -8.5225953    637.20198  0.013477199   0.01246813            1 
 3941000   0.61525485   -8.5284675    636.15771  0.013451698   0.01246364            2 
 3942000   0.61128507   -8.5256323    636.29712  0.013451233  0.012459152            2 
 3943000   0.62274217   -8.5349673    636.03879  0.013442362  0.012454669            1 
 3944000   0.62062139   -8.5397109    634.75226   0.01341177  0.012450195            2 
 3945000   0.62334841   -8.5307004    636.39894  0.013443155  0.012445721            1 
 3946000   0.62840736   -8.5282405    636.14559  0.013434397  0.012441247            1 
 3947000   0.60949245   -8.5237932    636.90253  0.013446975  0.012436781            1 
 3948000   0.61720369   -8.5397581    636.26466  0.013430105  0.012432308            1 
 3949000   0.61647591     -8.52059    636.74015  0.013436738  0.012427839            3 
 3950000    0.6276995   -8.5360675     636.1458  0.013420797   0.01242337            2 
 3951000   0.62705094   -8.5492961    636.99804  0.013435376    0.0124189            2 
 3952000   0.61554403   -8.5265607    636.50647  0.013421611  0.012414431            1 
 3953000   0.62623301   -8.5395094    636.17311  0.013411188  0.012409958            1 
 3954000   0.62531125   -8.5145732     637.0245   0.01342574  0.012405492            1 
 3955000   0.63614604   -8.5498194    637.00351  0.013421903  0.012401021            2 
 3956000   0.61421537    -8.527808    636.63576  0.013410763   0.01239656            2 
 3957000   0.62222089   -8.5337783    636.92214  0.013413405  0.012392092            1 
 3958000   0.63523529   -8.5401144    636.46262  0.013400341  0.012387638            2 
 3959000     0.619246    -8.529193    635.89312  0.013384969  0.012383179            2 
 3960000   0.63919179   -8.5547738    636.14752  0.013386943   0.01237872            2 
 3961000   0.61693381     -8.50798    636.46403  0.013390222  0.012374271            2 
 3962000   0.61200639   -8.5463359    636.11435  0.013379487  0.012369819            2 
 3963000   0.63324534   -8.5518026    636.47341  0.013383662  0.012365367            1 
 3964000   0.62203236   -8.5533878     637.3598  0.013398919  0.012360926            1 
 3965000   0.62318164   -8.5445628    637.69129  0.013402507  0.012356484            3 
 3966000   0.60936601   -8.5097052    635.16857   0.01334612  0.012352037            3 
 3967000   0.62312434   -8.5559422    636.11397  0.013362616    0.0123476            1 
 3968000   0.61772341   -8.5418487    636.10041  0.013358964  0.012343152            2 
 3969000   0.60858838    -8.549153    636.31319  0.013360065  0.012338715            1 
 3970000   0.61375723   -8.5624316    636.85422  0.013368057  0.012334272            4 
 3971000   0.61819292   -8.5402304    635.97629  0.013346266   0.01232983            3 
 3972000   0.61861064   -8.5366238    637.37128  0.013372174  0.012325391            2 
 3973000   0.60177064   -8.5436609    636.03637  0.013340808  0.012320958            2 
 3974000   0.61703115   -8.5515038    635.11938  0.013318222  0.012316524            1 
 3975000   0.61385954   -8.5477814    636.50424  0.013343904  0.012312093            2 
 3976000   0.59431475   -8.5496162    636.84956  0.013347786  0.012307664            2 
 3977000   0.60822154   -8.5387404    635.82852  0.013323035  0.012303233            2 
 3978000   0.62078509   -8.5227101    636.91356  0.013342416  0.012298818            2 
 3979000   0.61690809   -8.5537167    636.84021  0.013337526  0.012294393            1 
 3980000   0.62286761   -8.5309181    636.65256  0.013330246  0.012289971            2 
 3981000   0.61101919   -8.5266429    636.09198  0.013315163  0.012285556            2 
 3982000   0.62495692    -8.566154    636.61192  0.013322701  0.012281144            2 
 3983000   0.61307846   -8.5383681    636.68445  0.013320873  0.012276729            2 
 3984000   0.61233194   -8.5730021    636.61382  0.013316052  0.012272312            1 
 3985000   0.62217029   -8.5550782    635.24218  0.013284027  0.012267904            1 
 3986000   0.60396242   -8.5439955    637.30752  0.013323874   0.01226349            2 
 3987000   0.61335648   -8.5764908     635.5909  0.013284652  0.012259077            2 
 3988000   0.61785583     -8.57498    635.85215   0.01328678  0.012254668            1 
 3989000   0.60509496   -8.5518823    635.56605  0.013277473  0.012250267            1 
 3990000   0.60643647   -8.5564505    636.78227  0.013299546   0.01224586            1 
 3991000   0.60875001   -8.5519633    636.50152  0.013290352  0.012241459            1 
 3992000   0.60273404    -8.545974     635.2699  0.013261312  0.012237056            1 
 3993000    0.6167874    -8.563621    635.78441  0.013268729  0.012232656            2 
 3994000   0.61191201   -8.5389426    635.59125  0.013261376  0.012228254            1 
 3995000   0.61272349   -8.5574584    635.95034  0.013265547   0.01222386            1 
 3996000   0.60249567   -8.5432008    635.94283  0.013262071  0.012219472            2 
 3997000   0.61999322   -8.5488339    634.89543  0.013236916  0.012215071            1 
 3998000   0.60385092   -8.5523174    636.46924  0.013266409  0.012210679            1 
 3999000   0.61711357   -8.5589522    636.94927  0.013273095  0.012206285            1 
 4000000   0.59972632   -8.5472675    636.02635  0.013250549  0.012201897            2 
 4001000   0.60970532   -8.5642808    636.21842  0.013251238  0.012197503            2 
 4002000   0.60997331   -8.5536466    636.54245  0.013254674  0.012193117            2 
 4003000   0.60484471   -8.5632831    635.80017   0.01323591  0.012188735            1 
 4004000   0.61032183    -8.551804    636.77113  0.013252812  0.012184345            1 
 4005000   0.61359319   -8.5714768    636.29031  0.013239499  0.012179958            1 
 4006000   0.61129559   -8.5506868    635.80479  0.013226094   0.01217558            4 
 4007000   0.61367492   -8.5590159    635.91889  0.013225166  0.012171204            2 
 4008000   0.60844326    -8.550123    635.44115  0.013211933  0.012166825            2 
 4009000   0.60750203   -8.5724163    636.44394  0.013229482   0.01216245            1 
 4010000   0.61056887   -8.5536975     636.1283  0.013219624  0.012158083            1 
 4011000   0.60957346   -8.5564767    636.33934  0.013220713  0.012153712            2 
 4012000   0.61167931    -8.572125    634.50106  0.013179234  0.012149339            2 
 4013000   0.59069322   -8.5612245     635.4387  0.013195421  0.012144971            2 
 4014000   0.61104994   -8.5634473    636.17952  0.013207514  0.012140603       -1e+20 
 4015000    0.6201669   -8.5556819    636.27566   0.01320622  0.012136243            2 
 4016000   0.61353761   -8.5740559    636.21755  0.013201725  0.012131882            1 
 4017000   0.60924449   -8.5719066    636.11164  0.013196242  0.012127523            1 
 4018000   0.59123333   -8.5698494    635.55117  0.013181333  0.012123163            1 
 4019000    0.6094875   -8.5725767    634.61179  0.013158576  0.012118807            2 
 4020000   0.60270857   -8.5737742    635.71664  0.013178206  0.012114451            2 
 4021000   0.62221099   -8.5617398       634.38  0.013147227  0.012110093            2 
 4022000   0.61419264   -8.5600165    635.48421  0.013166837  0.012105743            2 
 4023000   0.58823088   -8.5676801    636.03177  0.013174906  0.012101394            3 
 4024000   0.59631196   -8.5776892     635.3574  0.013157667  0.012097043            3 
 4025000   0.59385517   -8.5706163    636.75413  0.013183315  0.012092692            2 
 4026000   0.60785179    -8.570176    635.85505  0.013161431  0.012088341            1 
 4027000   0.61174719   -8.5557194    635.94559  0.013160036  0.012083992            2 
 4028000   0.60807077   -8.5678511    634.41183  0.013125038  0.012079651            1 
 4029000   0.61588637   -8.5706517    635.68555  0.013148125  0.012075313            2 
 4030000   0.60370728   -8.5632973    635.78542  0.013146928   0.01207097            1 
 4031000    0.6010468   -8.5654482    635.42342  0.013136183  0.012066629            1 
 4032000    0.6175432   -8.5561732     635.7468  0.013139608  0.012062294            2 
 4033000   0.60326568   -8.5557552    636.43631  0.013150597  0.012057964            1 
 4034000   0.61040048   -8.5642329    635.48564  0.013127699  0.012053639            1 
 4035000    0.5902643   -8.5606663    635.87753  0.013132539  0.012049318            3 
 4036000    0.6104137   -8.5747731     635.2217  0.013115744  0.012044994            1 
 4037000   0.59127364   -8.5739173     636.1088  0.013130807  0.012040671            1 
 4038000   0.59693962   -8.5796205    634.90991  0.013102813  0.012036348            1 
 4039000   0.59722988   -8.5547518    634.98993   0.01310122  0.012032022            3 
 4040000   0.60212046    -8.544844    635.46831  0.013107845  0.012027707            1 
 4041000   0.60337442   -8.5625001    634.88227  0.013092516  0.012023393            2 
 4042000   0.60646932   -8.5959453    635.19599  0.013095745  0.012019078            3 
 4043000   0.60303744   -8.5719068    635.60124  0.013100858  0.012014768            3 
 4044000   0.60477816   -8.5743395    635.20823   0.01308952  0.012010451            2 
 4045000   0.61399314   -8.5576518    635.89893  0.013100514   0.01200614            1 
 4046000   0.60547155   -8.5617558    635.52875  0.013089651  0.012001837            2 
 4047000   0.58902943   -8.5716372    635.48869  0.013085592  0.011997528            3 
 4048000   0.59997379     -8.58016    634.63037   0.01306469  0.011993219            1 
 4049000   0.60269427   -8.5643689    636.69182   0.01310389  0.011988909            1 
 4050000   0.58863419   -8.5709097    634.67963  0.013059252  0.011984607            1 
 4051000   0.61040425    -8.583402    635.45711  0.013072022  0.011980306            1 
 4052000    0.6204219   -8.5850285     635.8307  0.013076479  0.011976002            2 
 4053000   0.61053658    -8.586691    635.23505  0.013061005  0.011971701            1 
 4054000   0.60641403   -8.5828621     636.2108  0.013077841  0.011967403            1 
 4055000   0.59582036   -8.5760582    633.81601  0.013025401  0.011963113            2 
 4056000   0.60771903   -8.5619749    635.15213  0.013049641  0.011958827            2 
 4057000   0.59405349   -8.5768805    634.98769  0.013043047  0.011954534            2 
 4058000   0.59944352   -8.5714888    635.88449  0.013058249  0.011950245            1 
 4059000   0.59385833    -8.577054    636.01671  0.013057746  0.011945963            1 
 4060000   0.59940975   -8.5699019    634.88009  0.013031201   0.01194167            2 
 4061000   0.60185359   -8.5862279    635.37875  0.013038224  0.011937385            1 
 4062000   0.59716431    -8.571732    635.55519  0.013038634  0.011933097            1 
 4063000   0.59651976    -8.584093    635.33189  0.013030845  0.011928808            2 
 4064000   0.59828363   -8.5949931    635.66321  0.013034433  0.011924527            1 
 4065000   0.60522723   -8.5742101    634.34087  0.013004118  0.011920255            2 
 4066000   0.59636061   -8.5866316    635.09883  0.013016454  0.011915976            2 
 4067000   0.61025113   -8.5838403    635.87217  0.013029099  0.011911703            1 
 4068000   0.59155606   -8.5645251    634.80336  0.013004002  0.011907427            2 
 4069000   0.61172592    -8.565149    636.29414  0.013031337   0.01190316            2 
 4070000   0.60077603   -8.5900167    635.89935  0.013020052   0.01189889            2 
 4071000   0.59739642    -8.578399    634.98747  0.012998188  0.011894625            3 
 4072000   0.61657341   -8.5753746    635.60323  0.013007597  0.011890361            1 
 4073000   0.61545153   -8.5984234    633.85202  0.012968574  0.011886093            2 
 4074000   0.58674682   -8.5935391    634.94246  0.012987696  0.011881824            3 
 4075000   0.60739256   -8.5890676    634.81054  0.012981811  0.011877552            1 
 4076000   0.60597201   -8.5847254    634.55006    0.0129733  0.011873281            2 
 4077000   0.59790177    -8.591232    634.99057  0.012979122  0.011869016            1 
 4078000   0.59841902   -8.5727575    634.76352    0.0129713  0.011864751            1 
 4079000    0.5968528   -8.6018014    635.34647  0.012980029  0.011860492            1 
 4080000   0.60837546   -8.5801181    633.97098  0.012948754  0.011856232            4 
 4081000   0.59526838   -8.5742129     635.9611  0.012986219  0.011851972            2 
 4082000   0.59749809   -8.5769177    634.77441  0.012958811  0.011847713            6 
 4083000   0.60871268   -8.5962744    635.05528   0.01296137  0.011843453            2 
 4084000   0.59835397    -8.592113    635.29962  0.012963182  0.011839204            2 
 4085000   0.60182313   -8.5753403    634.54314  0.012944577  0.011834944            3 
 4086000   0.60394263    -8.587716    634.14809  0.012933351  0.011830692            2 
 4087000   0.59157128   -8.5733425    636.41648  0.012976439  0.011826445            2 
 4088000   0.62107112   -8.5768216    635.17088  0.012947873  0.011822196            4 
 4089000   0.60714814   -8.5826976    635.04502  0.012942142   0.01181795            3 
 4090000   0.59734704   -8.5848206    634.81646  0.012934321  0.011813711            2 
 4091000   0.59715884   -8.5912491    635.49091  0.012944898  0.011809475            2 
 4092000   0.60269279   -8.5857207    634.18885  0.012915218  0.011805238            4 
 4093000   0.59799154   -8.5879099    635.54426  0.012939658  0.011801005            2 
 4094000   0.60571941   -8.5796325    635.36963  0.012932943  0.011796774            2 
 4095000   0.60628683     -8.58822    633.64865  0.012894763  0.011792544            3 
 4096000   0.58844734   -8.5935411    635.77306  0.012934836  0.011788311            5 
 4097000   0.59549081   -8.6052584    634.98158   0.01291558  0.011784083            2 
 4098000   0.58908929   -8.5752069    635.28028  0.012918502  0.011779857            2 
 4099000   0.59087742   -8.5854015    635.08831  0.012911448  0.011775631            2 
 4100000   0.59613708   -8.5784091    635.25741  0.012911736  0.011771413            3 
 4101000   0.59629028   -8.5810579    635.60488  0.012915648  0.011767192            2 
 4102000   0.59942652   -8.6038336    635.34216  0.012907162  0.011762975            2 
 4103000   0.58965218   -8.5791251    634.66689  0.012890302  0.011758768            2 
 4104000   0.60139378   -8.5750985    635.42923   0.01290264  0.011754559            3 
 4105000   0.60603596   -8.5937091    634.16456  0.012873824  0.011750348            3 
 4106000   0.59932575   -8.5863052    634.62316  0.012879996  0.011746137            3 
 4107000   0.58200552   -8.5914298     634.6928  0.012878273  0.011741931            2 
 4108000   0.58772843   -8.5711534    635.44526  0.012890402  0.011737725            1 
 4109000    0.5962982   -8.5708385    635.43015  0.012886958  0.011733528            4 
 4110000   0.58473677   -8.5775105    634.79661  0.012870978  0.011729334            1 
 4111000   0.59083192   -8.5805343     635.2946  0.012877941  0.011725137            1 
 4112000   0.59672973   -8.5894412    636.08463   0.01289082  0.011720945            1 
 4113000   0.59888657   -8.5873194    635.00468  0.012865805  0.011716754            1 
 4114000   0.58999249    -8.573248    635.68913  0.012876542   0.01171256            3 
 4115000    0.5889492   -8.6006654    635.00655   0.01285959  0.011708375            3 
 4116000    0.5827064   -8.5758264    634.30358  0.012842233  0.011704186            3 
 4117000    0.5933474   -8.6034118    634.68201  0.012846774  0.011699995            2 
 4118000   0.58995234   -8.6012434    633.32301  0.012816153  0.011695808            1 
 4119000   0.59678365   -8.5893446    634.88984  0.012844741  0.011691621            1 
 4120000   0.59406845   -8.5986731    633.68614  0.012817276  0.011687435            5 
 4121000   0.59519987   -8.5825666    635.78295  0.012856567  0.011683256            4 
 4122000   0.57609316   -8.5795792    634.66944  0.012830936  0.011679078            3 
 4123000   0.59462947   -8.5742732    634.63909  0.012827211  0.011674898            2 
 4124000   0.60205851   -8.6063476      635.942  0.012850428  0.011670717            2 
 4125000   0.59526957   -8.5869405    635.33089  0.012834967  0.011666542            1 
 4126000   0.60329815   -8.5709999    634.49183   0.01281491  0.011662373            2 
 4127000   0.59239303    -8.590076    634.70512  0.012816112  0.011658204            2 
 4128000   0.57777038   -8.6113855    634.47718  0.012808406  0.011654036            3 
 4129000   0.59185231   -8.6067498    634.67809  0.012809358  0.011649869            3 
 4130000    0.5905596   -8.5884514    635.24687  0.012817733  0.011645703            2 
 4131000   0.57609115   -8.6018953     634.6451  0.012802491  0.011641539            1 
 4132000   0.58728865   -8.6204373    633.78118   0.01278197  0.011637375            3 
 4133000    0.5957181   -8.6058168    634.68743   0.01279715  0.011633213            1 
 4134000   0.58303331    -8.602596    636.00135   0.01282054  0.011629055            1 
 4135000   0.59646719   -8.5919483    635.73905  0.012812153  0.011624907            3 
 4136000   0.59371684   -8.6195975    635.30924  0.012800396  0.011620756            1 
 4137000   0.59783405   -8.6116436    635.35412  0.012798206  0.011616608            3 
 4138000   0.57231378   -8.5837284    635.10249  0.012790045   0.01161246            5 
 4139000   0.59232824   -8.5908657     635.5261  0.012795484   0.01160831            1 
 4140000   0.58581062   -8.5985108    634.79571  0.012777691   0.01160416            1 
 4141000    0.5960977   -8.6034471     635.3098  0.012784951  0.011600012            1 
 4142000   0.58642914   -8.5884179    633.55702    0.0127466  0.011595869            1 
 4143000   0.58602976   -8.6149777    635.58532  0.012784321  0.011591727            2 
 4144000   0.59716531   -8.6045304    634.60956  0.012761614  0.011587587            1 
 4145000   0.58876093   -8.6208088    633.73689  0.012740991  0.011583451            1 
 4146000   0.59074509   -8.6058333    634.70442  0.012757365  0.011579319            1 
 4147000   0.58816287   -8.6050803    635.19292  0.012764105  0.011575188            3 
 4148000   0.57526474   -8.6023331    635.09743  0.012759109  0.011571059            2 
 4149000    0.5981174   -8.5934878    635.31748  0.012760454  0.011566935            2 
 4150000   0.58616945   -8.6028784    634.57789  0.012742528   0.01156281            2 
 4151000   0.58946007   -8.6035067    634.60462  0.012739995  0.011558688            2 
 4152000   0.57938872   -8.5939701    636.59386  0.012776852  0.011554573            2 
 4153000   0.57603074   -8.6146994    634.31836  0.012728116  0.011550461            2 
 4154000   0.58401616   -8.5883454    634.48909  0.012728476  0.011546345            2 
 4155000   0.58331125   -8.5944568    634.67294    0.0127291   0.01154223            1 
 4156000   0.58629862   -8.6105404     635.3146  0.012738904  0.011538114            1 
 4157000   0.58334739   -8.5950286    635.83694   0.01274631  0.011534005            2 
 4158000   0.58421932   -8.6120383    634.77755  0.012722013  0.011529889            1 
 4159000    0.5771985    -8.592319    634.03329  0.012704041  0.011525786            2 
 4160000   0.58112286   -8.5830053    634.91819  0.012718714  0.011521681            2 
 4161000   0.58850234   -8.5946571    634.52911  0.012707865  0.011517574            2 
 4162000   0.58070102   -8.5875249    636.31873  0.012740644  0.011513472            3 
 4163000   0.58055266   -8.6169699     634.1737  0.012694645   0.01150937            1 
 4164000   0.58385078   -8.5968492    633.81888  0.012684496  0.011505263            1 
 4165000   0.57964801   -8.6064047    634.42656  0.012693609  0.011501161            1 
 4166000     0.586733   -8.5876587    635.72518  0.012716538  0.011497063            2 
 4167000   0.58034213   -8.5864615    634.74723  0.012693929  0.011492971            3 
 4168000   0.59734937   -8.6063847    634.98382  0.012695614  0.011488873            3 
 4169000   0.58719251   -8.5951995    635.25962  0.012698081  0.011484783            1 
 4170000   0.57944902   -8.5891718    635.82859  0.012706407   0.01148069            2 
 4171000   0.58683216   -8.6100677    634.01594  0.012667145  0.011476594            2 
 4172000   0.58617977    -8.602336    634.20125   0.01266781  0.011472498            2 
 4173000   0.58449509   -8.6255934    634.45447  0.012669831  0.011468408            1 
 4174000   0.58527754   -8.6227353     633.8384  0.012654496  0.011464313            2 
 4175000   0.57816492   -8.6144807    634.26785  0.012660037  0.011460222            2 
 4176000    0.5906779   -8.6363394    633.92767  0.012650217  0.011456135            2 
 4177000   0.58881874   -8.5990349    634.66717  0.012661942  0.011452047            3 
 4178000   0.58559546   -8.5961137    634.45221  0.012654624  0.011447962            1 
 4179000   0.59943243   -8.5960703    635.03656  0.012663248  0.011443886            2 
 4180000   0.59244106   -8.6291475     635.0163  0.012659815  0.011439809            3 
 4181000   0.59072268   -8.6125556    634.69774  0.012650437  0.011435735            2 
 4182000   0.59143041   -8.6176076    635.76076  0.012668595  0.011431657            2 
 4183000   0.59925428   -8.5893754    633.41128   0.01261876   0.01142759            1 
 4184000   0.59278229   -8.6189416    635.35927  0.012654542  0.011423521            2 
 4185000   0.57633862   -8.6096129     634.0799  0.012626044   0.01141945            3 
 4186000   0.58260875    -8.617698     635.5023  0.012651344  0.011415385            1 
 4187000   0.59607048   -8.6073921    634.56756  0.012629718  0.011411317            2 
 4188000   0.58886748   -8.6155021    634.37764  0.012622923  0.011407254            1 
 4189000   0.58451497   -8.6114062    634.11629  0.012614711   0.01140319            2 
 4190000   0.58307507   -8.6046981    634.73255  0.012623957  0.011399126            2 
 4191000   0.59130881   -8.6123976    633.48798  0.012596198  0.011395069            1 
 4192000   0.58126809   -8.6158323     635.4351    0.0126319  0.011391018            3 
 4193000   0.57969714   -8.6058137    634.25094  0.012605353  0.011386964            2 
 4194000   0.57020246   -8.5977958    635.55827  0.012628324  0.011382916            3 
 4195000    0.5837505   -8.5987692    635.08145  0.012615841  0.011378869            2 
 4196000   0.57812894   -8.6305091    632.98891  0.012571276  0.011374821            2 
 4197000   0.57720164   -8.6143756     634.9694  0.012607605  0.011370777            2 
 4198000   0.57849557   -8.6240467    633.43418  0.012574126  0.011366733            2 
 4199000   0.58300273   -8.6051949    634.47863   0.01259186   0.01136269            1 
 4200000    0.5759914   -8.6156102    635.18932  0.012602963  0.011358658            1 
 4201000   0.57287696     -8.62951    634.50818  0.012586451  0.011354622            3 
 4202000   0.57861309    -8.615698    635.68306  0.012606756  0.011350584            1 
 4203000   0.58096328   -8.6088318    634.63229  0.012582923  0.011346553            3 
 4204000    0.5968028   -8.5996609    634.50045  0.012577316   0.01134252            1 
 4205000    0.5765939   -8.6159586    634.91641  0.012582568  0.011338489            1 
 4206000   0.56903025   -8.6036114    634.75693  0.012576417   0.01133446            2 
 4207000   0.58290278    -8.604147    635.17901  0.012581788  0.011330436            2 
 4208000   0.56735279   -8.6145543    634.62862  0.012567899  0.011326408            1 
 4209000   0.58325188   -8.6193275    634.96695  0.012571611  0.011322383            2 
 4210000   0.57574284    -8.619277    635.62624  0.012581675  0.011318357            1 
 4211000   0.59068936   -8.6124069    634.36253  0.012553679  0.011314335            1 
 4212000   0.59110633   -8.6146232    633.84257  0.012540412   0.01131031            1 
 4213000    0.6008839   -8.6082014    634.22665  0.012545032  0.011306291            4 
 4214000   0.57697293   -8.6232858    635.10749  0.012559474  0.011302279            1 
 4215000   0.58724609   -8.6134714    633.99835  0.012534566  0.011298263            1 
 4216000   0.58010511   -8.6127526    632.43669  0.012500725  0.011294251            3 
 4217000    0.5859077   -8.6019531    635.65667  0.012561392  0.011290241            2 
 4218000   0.57756551   -8.6269493    634.64217  0.012538371  0.011286235            3 
 4219000   0.58192874   -8.6238581    634.76837  0.012537892  0.011282232            2 
 4220000   0.57133001   -8.6011544    633.59889  0.012511826  0.011278229            1 
 4221000   0.56830408   -8.6307501    633.69833  0.012510825  0.011274225            4 
 4222000   0.57106185   -8.6097063    634.57723   0.01252521  0.011270224            3 
 4223000   0.58191544   -8.6214611     634.4808  0.012520341  0.011266222            1 
 4224000   0.57181664   -8.6157844    635.13407  0.012530265  0.011262223            1 
 4225000   0.58360687   -8.6195212    634.09268  0.012506759  0.011258231            1 
 4226000   0.57404974   -8.6136914    633.40342  0.012490208  0.011254234            1 
 4227000   0.56716899   -8.6185891    634.19316  0.012502822  0.011250241            1 
 4228000   0.59681589    -8.630248    633.27602  0.012481789  0.011246248            2 
 4229000   0.57555087   -8.6075771    635.14079  0.012515583  0.011242263            2 
 4230000   0.57542348   -8.6297113    634.61176  0.012502202  0.011238276            1 
 4231000   0.58078502   -8.5941948    633.87131  0.012484663  0.011234289            3 
 4232000   0.58923726   -8.6139355    634.92641  0.012502489  0.011230303            2 
 4233000   0.55757542    -8.608195    635.63928   0.01251357  0.011226316            2 
 4234000   0.57202363   -8.6191611    634.01314  0.012478608  0.011222331            1 
 4235000   0.57564724   -8.6220695    635.85031  0.012511813  0.011218346            4 
 4236000   0.58926655   -8.6192765    634.99673  0.012492067  0.011214364            2 
 4237000   0.58220613   -8.6041122    634.68208   0.01248293  0.011210388            3 
 4238000   0.57918027   -8.6169078    633.81893  0.012463012  0.011206409            1 
 4239000   0.56280138   -8.6182976     635.3272  0.012489722  0.011202431            2 
 4240000   0.57645939   -8.6270924    633.50139  0.012450892  0.011198462            3 
 4241000   0.56925465    -8.628126     633.9239  0.012456258  0.011194492            3 
 4242000   0.57115707   -8.6189261    633.44635   0.01244394   0.01119052            3 
 4243000   0.57552432   -8.6331379    635.06727  0.012472843  0.011186552            4 
 4244000   0.57619378   -8.6159609    634.15757  0.012452041  0.011182579            1 
 4245000    0.5680988   -8.6322334    634.29192  0.012451746  0.011178616            3 
 4246000   0.56597806   -8.5990728    635.21133  0.012466858  0.011174659            1 
 4247000    0.5798132   -8.6246896    633.68118  0.012433898    0.0111707            1 
 4248000   0.56428309   -8.6353231    633.88836  0.012435035   0.01116674            4 
 4249000   0.57396958   -8.6122904    635.19924  0.012457818  0.011162784            4 
 4250000   0.56430536   -8.6071142    633.66216  0.012424748  0.011158829            4 
 4251000   0.56825734    -8.599094     633.2946   0.01241462  0.011154873            1 
 4252000   0.57200847   -8.6325926     633.5809  0.012417311  0.011150917            1 
 4253000   0.57857961   -8.6259765    633.41701  0.012411181  0.011146965            2 
 4254000   0.56540727   -8.6356167    635.25691  0.012444306   0.01114301            1 
 4255000   0.57596238   -8.6102322    634.36282   0.01242387  0.011139061            2 
 4256000   0.56530805   -8.6222412    634.00672  0.012413979  0.011135114            1 
 4257000   0.57045806   -8.6320851    633.84748  0.012407945  0.011131171            1 
 4258000   0.57733997   -8.6331608    634.24673  0.012412845  0.011127228            1 
 4259000   0.58414042   -8.6338863    635.01946   0.01242505  0.011123285            2 
 4260000   0.56715036   -8.6369476    633.73392  0.012396986  0.011119337            2 
 4261000    0.5665882   -8.6307242    633.17542  0.012383154  0.011115391            1 
 4262000   0.56317024   -8.6135832    633.96514  0.012395689   0.01111145            1 
 4263000    0.5643941   -8.6080934    634.72736  0.012407682  0.011107515            1 
 4264000   0.57777712   -8.6260995    633.80562  0.012386758  0.011103576            2 
 4265000   0.57880712   -8.6219249    635.88011  0.012424387  0.011099644            3 
 4266000   0.56379699   -8.6320418    634.04444  0.012385616  0.011095713            2 
 4267000     0.558308   -8.6403888    634.57299  0.012393035  0.011091782       -1e+20 
 4268000   0.56175581   -8.6341817     633.7118  0.012373317  0.011087853            1 
 4269000   0.56078636    -8.643525    633.19172  0.012360266  0.011083925            3 
 4270000   0.55074897   -8.6153752    634.91847  0.012391071  0.011079997            2 
 4271000   0.57198784   -8.6313172    633.42469  0.012359024  0.011076078            2 
 4272000   0.55816981   -8.6373296    635.17943   0.01239036  0.011072152            1 
 4273000   0.57558177   -8.6305926    634.65184  0.012377171  0.011068227            1 
 4274000   0.57397818   -8.6352593    633.79737  0.012357615  0.011064305            2 
 4275000   0.55729205    -8.614821    633.87958  0.012356327  0.011060393            2 
 4276000   0.55737017   -8.6465712    634.09415  0.012357619  0.011056474            1 
 4277000    0.5616957   -8.6523209    633.52539  0.012343648  0.011052558            2 
 4278000   0.57216938   -8.6418423    633.43988  0.012339097  0.011048644            1 
 4279000   0.56582101   -8.6335701    633.36664  0.012334787  0.011044728            3 
 4280000   0.55917046   -8.6461727    633.49718  0.012334447   0.01104081            1 
 4281000   0.55525848   -8.6395848    632.76598  0.012317332  0.011036894            1 
 4282000   0.56720554    -8.648981    633.39091  0.012326617  0.011032978            2 
 4283000   0.56841282   -8.6306819    634.23532  0.012340169  0.011029072            2 
 4284000   0.58061884   -8.6354377    634.53222  0.012343064  0.011025166            1 
 4285000   0.56714642   -8.6297318    633.60503  0.012322151  0.011021261            1 
 4286000   0.54633196   -8.6287266    633.46672  0.012316587  0.011017352            1 
 4287000    0.5637407    -8.638322    633.68087  0.012317877  0.011013446            1 
 4288000   0.56975965   -8.6186407    633.22275  0.012306101  0.011009543            3 
 4289000   0.56002167   -8.6538611    634.89506  0.012335724  0.011005648            2 
 4290000   0.57324529   -8.6426345     633.1164  0.012298298   0.01100175            3 
 4291000   0.57797685    -8.641474    634.07281  0.012314006  0.010997853            3 
 4292000   0.56572157   -8.6388219    632.58014  0.012282156  0.010993955            1 
 4293000   0.56290959    -8.653642     633.0542  0.012288497  0.010990062            3 
 4294000   0.56687003   -8.6220634    633.30705  0.012290542  0.010986172            2 
 4295000   0.57193647   -8.6442991    633.85143  0.012298243  0.010982278            2 
 4296000   0.56268533   -8.6291961    632.92405  0.012277391   0.01097839            3 
 4297000   0.56401621   -8.6423684    634.03806  0.012296138  0.010974505            3 
 4298000   0.56112306   -8.6429012    633.18756  0.012276787  0.010970621            3 
 4299000   0.56250484    -8.625167    632.88086  0.012267986  0.010966739            2 
 4300000   0.55952473    -8.644757    632.95367  0.012266544  0.010962857            2 
 4301000   0.55451682   -8.6384431    633.52713  0.012274803  0.010958976            2 
 4302000   0.57008418   -8.6489401    633.12521  0.012264164  0.010955103            2 
 4303000   0.56065625   -8.6372049    632.97523  0.012258409  0.010951225            3 
 4304000   0.55673502   -8.6653726    633.90882  0.012273637   0.01094735            4 
 4305000   0.56597478   -8.6575903    633.37292  0.012260413  0.010943475            2 
 4306000   0.55675452   -8.6310759    633.17314  0.012253699  0.010939607            2 
 4307000   0.57573384   -8.6546681    633.81296  0.012263234  0.010935737            4 
 4308000   0.55999131   -8.6434434    633.03301    0.0122453  0.010931869            3 
 4309000   0.55971365   -8.6449245    633.35332  0.012248652  0.010928005            2 
 4310000    0.5611743   -8.6431171    632.89915  0.012237029   0.01092414            2 
 4311000   0.55866612   -8.6566562    633.55198   0.01224681  0.010920275            2 
 4312000   0.56478816   -8.6479992    633.18264  0.012236832   0.01091641            2 
 4313000   0.55868491   -8.6469726    633.47379   0.01223962  0.010912548            3 
 4314000   0.56501345   -8.6660585    632.38556  0.012215762  0.010908687            3 
 4315000   0.56383891   -8.6294794    633.38736  0.012232278  0.010904828            2 
 4316000   0.55655949   -8.6451587    632.57847  0.012213826  0.010900968            5 
 4317000   0.55345559   -8.6582223    633.35748  0.012226034  0.010897116            2 
 4318000   0.56475895    -8.646497     632.8697  0.012213789  0.010893262            2 
 4319000   0.55204636    -8.646943    632.87697  0.012211101  0.010889408            3 
 4320000    0.5614029    -8.633653    633.30167  0.012216467   0.01088556            2 
 4321000   0.56811796   -8.6340924    632.75634  0.012203123  0.010881713            2 
 4322000   0.55664262    -8.644435    633.03284  0.012205631  0.010877865            5 
 4323000   0.56295096    -8.643877    633.10968  0.012204289  0.010874017            2 
 4324000   0.56616114   -8.6414958    633.97792  0.012218199  0.010870171            3 
 4325000   0.55586983   -8.6598756    633.03091  0.012197127  0.010866324            2 
 4326000   0.58350685   -8.6452524    633.23154  0.012198173  0.010862482            2 
 4327000   0.56017236   -8.6629035    632.13731   0.01217428  0.010858645            1 
 4328000   0.55399633   -8.6416383    632.89473  0.012186051  0.010854804            2 
 4329000   0.54910675   -8.6534287    633.31002   0.01219123  0.010850967            4 
 4330000    0.5698415   -8.6416819    633.33121  0.012188822  0.010847131            4 
 4331000   0.55839948   -8.6552005    632.69259   0.01217372  0.010843298            5 
 4332000   0.55169693   -8.6278689    633.31093  0.012182805  0.010839463            4 
 4333000   0.55545871   -8.6578044     633.1781  0.012177439   0.01083563            5 
 4334000   0.56388309   -8.6538311    633.15198  0.012174127  0.010831796            1 
 4335000   0.55140434    -8.640226     632.4091  0.012157038  0.010827967            3 
 4336000   0.56723464   -8.6423796    633.97394  0.012184309  0.010824136            2 
 4337000   0.56250086   -8.6607083    632.41523  0.012151549  0.010820307            4 
 4338000   0.54775903   -8.6588928     632.9082  0.012158218   0.01081648            3 
 4339000    0.5530992   -8.6391513    632.41586   0.01214596  0.010812653            8 
 4340000   0.55762629   -8.6458388    632.03089   0.01213577  0.010808825            5 
 4341000   0.55638773   -8.6578428    633.46669  0.012160537  0.010805001            2 
 4342000   0.55253254   -8.6441919    632.68291  0.012142694  0.010801176            7 
 4343000   0.55096912   -8.6621814    633.55361  0.012156605  0.010797359            8 
 4344000   0.56570211   -8.6502279     632.9586  0.012142392  0.010793542            2 
 4345000   0.55560487   -8.6686051    632.50728  0.012130941   0.01078973            5 
 4346000   0.55480508   -8.6524774    633.01255  0.012137838  0.010785916            2 
 4347000    0.5573923   -8.6579503    632.97551  0.012134336  0.010782104            7 
 4348000   0.55728161   -8.6492342    633.46895  0.012141003  0.010778298            1 
 4349000   0.56188387   -8.6604071    634.13108  0.012150898  0.010774494            5 
 4350000   0.56203251   -8.6369858    633.88839  0.012143456  0.010770691            1 
 4351000   0.55729159    -8.668834    632.33964  0.012111002   0.01076689            1 
 4352000   0.55021088    -8.657388    633.57017  0.012131782  0.010763088            2 
 4353000   0.56292328   -8.6622083    632.66753  0.012111715  0.010759289            2 
 4354000   0.54844263   -8.6690987    632.30316  0.012101959  0.010755487            1 
 4355000   0.54703378   -8.6440181    632.91233  0.012110837  0.010751688            1 
 4356000   0.56242517   -8.6542415     632.0507  0.012091573  0.010747892            1 
 4357000   0.55511255   -8.6517813    632.92137   0.01210545  0.010744099            2 
 4358000   0.55859722   -8.6732602    632.03887  0.012085798  0.010740307            3 
 4359000   0.57133772   -8.6506587    633.34129  0.012107924  0.010736517            1 
 4360000   0.55404884   -8.6464281    632.87815  0.012096295  0.010732728            2 
 4361000   0.55067908   -8.6519242    632.62427   0.01208867  0.010728941            5 
 4362000   0.55694205   -8.6707611    631.82839  0.012070694  0.010725154            2 
 4363000   0.54445823   -8.6613468    632.49277  0.012080617  0.010721373            5 
 4364000   0.55467818   -8.6627021    632.97185  0.012086997  0.010717596            5 
 4365000   0.55497836   -8.6631054    632.53204  0.012075831  0.010713821            1 
 4366000   0.55416545   -8.6430674    632.55717  0.012073545  0.010710041            4 
 4367000   0.54861731   -8.6714946    632.60392  0.012071672  0.010706268            3 
 4368000   0.55229924   -8.6655114    633.25913  0.012081409  0.010702496            2 
 4369000    0.5446001   -8.6454464    632.89178  0.012071637  0.010698719            2 
 4370000   0.54534748   -8.6599963    632.35335  0.012058607  0.010694945            1 
 4371000   0.56021066   -8.6738949    632.81505   0.01206465  0.010691173            6 
 4372000   0.54431749   -8.6451286    632.78966  0.012061407  0.010687402            3 
 4373000   0.55385055   -8.6627952    632.75555  0.012057999   0.01068364            3 
 4374000   0.54125029   -8.6720217    632.69112  0.012054015  0.010679872            2 
 4375000   0.55010686   -8.6639711    632.26804  0.012043201  0.010676109            2 
 4376000   0.53206197   -8.6628428    632.98901  0.012054178  0.010672345            3 
 4377000   0.54271894   -8.6914286    632.49976  0.012042109  0.010668583            3 
 4378000   0.56113458   -8.6582033    632.84559  0.012045942  0.010664825            2 
 4379000   0.53718169   -8.6534144    632.63775  0.012039236  0.010661069            2 
 4380000   0.56322491    -8.681358    632.58101  0.012035407  0.010657316            2 
 4381000   0.54655468   -8.6600561    632.39066  0.012029039  0.010653566            4 
 4382000    0.5478361   -8.6739674    631.88211  0.012016623  0.010649814            2 
 4383000   0.55307779   -8.6795142     632.2771  0.012021391  0.010646062            1 
 4384000   0.55372608   -8.6532686    632.47562  0.012022423   0.01064231            2 
 4385000   0.55253648    -8.660232    633.13011  0.012032119  0.010638558            3 
 4386000   0.55343319   -8.6736388     631.8368  0.012004803   0.01063481            3 
 4387000   0.54853706   -8.6700904    633.69022  0.012037273  0.010631067            2 
 4388000   0.54715243   -8.6574267    632.40498  0.012010122  0.010627327            2 
 4389000   0.55405719   -8.6620411    633.16936  0.012021899  0.010623584            3 
 4390000   0.54581687   -8.6736489    633.40472  0.012023628   0.01061985            1 
 4391000   0.54236351   -8.6760877    631.38192    0.0119825  0.010616115            1 
 4392000   0.54394729   -8.6726654    632.24366  0.011996123  0.010612378            3 
 4393000   0.54914823   -8.6689244    632.95476  0.012006881  0.010608643            2 
 4394000   0.54916379   -8.6569849    631.89942  0.011984134  0.010604906            3 
 4395000   0.54949334   -8.6685006    633.50158  0.012011786  0.010601174            1 
 4396000   0.55365348   -8.6610747    632.16508  0.011983718  0.010597441            2 
 4397000   0.55756056   -8.6602237    632.32506  0.011984024  0.010593715            2 
 4398000   0.54870284   -8.6656332    632.57247  0.011985987  0.010589992            4 
 4399000   0.54700537    -8.692767    632.35375  0.011979119  0.010586271            6 
 4400000   0.54265264   -8.6748802    632.16598   0.01197284  0.010582546            2 
 4401000     0.539689   -8.6647654    632.94794  0.011984927  0.010578828            1 
 4402000   0.53380038   -8.6631247    632.71071  0.011977713  0.010575106            1 
 4403000   0.55071526   -8.6548913    632.16291  0.011964625  0.010571392            2 
 4404000   0.54644957   -8.6583235     632.6702  0.011971507  0.010567675            2 
 4405000   0.54168665   -8.6831072    633.57606  0.011985926  0.010563957            2 
 4406000   0.54454063   -8.6779931    632.36345  0.011960271  0.010560247            3 
 4407000   0.53128224   -8.6741989    632.46288  0.011959437  0.010556539            5 
 4408000   0.55057423   -8.6529142    632.43861  0.011956265  0.010552831            5 
 4409000   0.54554867   -8.6676076    631.78761  0.011941249  0.010549126            3 
 4410000   0.54746657   -8.6694509     632.0554  0.011943602  0.010545419            6 
 4411000    0.5457526   -8.6632517    632.24328  0.011944443  0.010541713            4 
 4412000     0.547525   -8.6871248    632.95033  0.011955091  0.010538011            2 
 4413000   0.55002721   -8.6983033    631.46866  0.011924403  0.010534311            3 
 4414000   0.54314878   -8.6769571    632.00859  0.011931895   0.01053061            2 
 4415000   0.53962718   -8.6750989     633.2411  0.011952456  0.010526915            3 
 4416000   0.54143155   -8.6689063    632.28812  0.011931766  0.010523219            2 
 4417000   0.53484057   -8.6681472    631.98731  0.011923389  0.010519522            1 
 4418000   0.55945106    -8.669608     632.1239  0.011923267  0.010515829            4 
 4419000   0.54256299    -8.679701    632.74502  0.011932281  0.010512137            1 
 4420000   0.54769211   -8.6751899     631.5845  0.011907702  0.010508446            3 
 4421000   0.55121848   -8.6738828    632.00762  0.011912984  0.010504755            5 
 4422000   0.55107818   -8.6724561    632.20427  0.011913996   0.01050107            2 
 4423000   0.53365278   -8.6917134      632.118  0.011909677   0.01049738            2 
 4424000   0.52937247   -8.6783155     631.9244  0.011903338   0.01049369            2 
 4425000    0.5382216   -8.6885625    632.21396  0.011906101  0.010490007            2 
 4426000   0.53973756   -8.6825578    631.99871  0.011899358  0.010486321            2 
 4427000   0.54742772    -8.675892    632.84904  0.011912677  0.010482637            1 
 4428000   0.53085765   -8.6697156    631.68993  0.011888172  0.010478957            3 
 4429000   0.55114456   -8.6633651    632.33852  0.011897692  0.010475277            2 
 4430000    0.5487049   -8.6682659    633.14169  0.011910115  0.010471601            3 
 4431000   0.54244921   -8.6817272    632.01598  0.011886255  0.010467925            2 
 4432000   0.53893387   -8.6976958    633.87323  0.011918495  0.010464249            1 
 4433000   0.52698566   -8.6957389    632.36288  0.011887414  0.010460577            2 
 4434000   0.52544783   -8.6707303    632.31389  0.011883812  0.010456903            2 
 4435000   0.53058846    -8.670759    631.93841  0.011874078  0.010453238            4 
 4436000   0.55460053   -8.6717295      632.282  0.011877855  0.010449574            1 
 4437000   0.54574674   -8.6875599    632.22507  0.011874109  0.010445904            3 
 4438000   0.54904972    -8.680772     633.6912  0.011898963  0.010442239            4 
 4439000    0.5519387   -8.6806606    632.44243   0.01187284  0.010438579            3 
 4440000   0.54504955     -8.68595    632.46523  0.011870594  0.010434918            1 
 4441000   0.53100564   -8.6887902    632.61144  0.011870664  0.010431256            2 
 4442000   0.54332836    -8.660586    632.66256  0.011868951  0.010427598            1 
 4443000   0.53925432   -8.6796964    631.69268  0.011848088  0.010423938            2 
 4444000   0.54238286    -8.684515    632.10357  0.011853127  0.010420281            1 
 4445000   0.54426884   -8.6794499    631.77192  0.011844243  0.010416624            2 
 4446000   0.54522135   -8.6943352    632.57353  0.011856604  0.010412969            4 
 4447000   0.55135444   -8.6911775    631.24982  0.011829132  0.010409317            2 
 4448000   0.54622601   -8.7064562    631.23396  0.011826176  0.010405667            1 
 4449000   0.54128838   -8.6730517    631.76845  0.011833529  0.010402019            3 
 4450000   0.54251085   -8.6821522    632.71921  0.011848674  0.010398374            4 
 4451000   0.54033627   -8.6703351    632.29943  0.011838153  0.010394731            3 
 4452000   0.53346118   -8.6820114    633.01183  0.011848829   0.01039109            3 
 4453000   0.54506888   -8.6939939    632.15562  0.011830145  0.010387451            2 
 4454000   0.53387443   -8.6751099     633.0433  0.011844097  0.010383812            1 
 4455000   0.54527223   -8.6802669    632.36112  0.011828678  0.010380173            2 
 4456000   0.53771297   -8.6916645    632.23849   0.01182373  0.010376539            2 
 4457000   0.53835994   -8.6803101    632.88717  0.011833206  0.010372909            1 
 4458000   0.52720235   -8.7021147     631.8287  0.011810765  0.010369276            2 
 4459000   0.53797455   -8.6805178     631.5914  0.011803682  0.010365642            1 
 4460000   0.53308702   -8.6820169    632.39399  0.011816031  0.010362014            1 
 4461000   0.55285852   -8.6903298    631.84205  0.011803072  0.010358386            2 
 4462000   0.53046438   -8.6906009    632.80407  0.011818394  0.010354758            2 
 4463000   0.54140922   -8.6872355    632.40894  0.011808368  0.010351135            1 
 4464000   0.54395289   -8.6705644    632.57073  0.011808743  0.010347514            1 
 4465000   0.53409502   -8.6829685    631.51247  0.011786347  0.010343896            1 
 4466000   0.53040548   -8.6708368    631.24089   0.01177864  0.010340276            1 
 4467000    0.5441998   -8.6898461    632.43831  0.011798342  0.010336661            1 
 4468000   0.52856986   -8.6951351    632.18714  0.011791017  0.010333044            1 
 4469000   0.54428681   -8.6840854    632.62519  0.011796546   0.01032943            1 
 4470000   0.54062563    -8.658924    632.38081  0.011789351  0.010325817            1 
 4471000    0.5343022   -8.6911666    632.19065   0.01178317   0.01032221            4 
 4472000   0.53582997   -8.7020032    631.23885  0.011762799  0.010318602            2 
 4473000   0.53739622   -8.6871975    631.79109  0.011770458  0.010314994            2 
 4474000   0.53334405   -8.6686311    632.70954  0.011784934  0.010311396            3 
 4475000   0.54334435    -8.689799    631.62933  0.011762185  0.010307792            4 
 4476000   0.53057341   -8.6965254    631.02141  0.011748239  0.010304188            2 
 4477000   0.51959553   -8.6886698    632.50085  0.011773153   0.01030059            1 
 4478000    0.5413796   -8.6808146    632.50907  0.011770676  0.010296994            2 
 4479000   0.54352548   -8.6846969    633.37205  0.011784104  0.010293397            3 
 4480000   0.53314298     -8.69956    632.30519  0.011761629  0.010289803            3 
 4481000   0.54414572   -8.6831539    632.09469   0.01175509   0.01028621            4 
 4482000   0.53959191   -8.6828715    632.47779   0.01175959   0.01028262            2 
 4483000   0.53026352   -8.6929303    633.35724  0.011773315  0.010279031            1 
 4484000   0.53905192   -8.6908056    630.77742  0.011722744  0.010275443            2 
 4485000   0.53031437   -8.6894165    631.94518  0.011741828  0.010271856            3 
 4486000   0.55296225   -8.6956974    631.26739   0.01172662  0.010268273            2 
 4487000   0.52990718   -8.6893992    632.08975  0.011739279  0.010264693            2 
 4488000   0.54605363   -8.6866087    632.54878  0.011745187  0.010261113            1 
 4489000   0.53264044   -8.7014505    631.69017  0.011726631  0.010257536            1 
 4490000   0.53815466   -8.7069047    631.84071  0.011726813  0.010253958            2 
 4491000   0.54345013   -8.7093964    632.66615  0.011739519   0.01025038            1 
 4492000   0.53053658   -8.6697804    631.44486  0.011714249  0.010246808            4 
 4493000   0.53074944    -8.678859     632.6185  0.011733409   0.01024323            3 
 4494000     0.532499    -8.693815    632.99671  0.011737812  0.010239657            4 
 4495000   0.53544427   -8.6970352    632.02806  0.011717242  0.010236086            3 
 4496000   0.52945525    -8.697681    632.77285  0.011728441  0.010232518            1 
 4497000   0.53609223   -8.6991644    631.67411  0.011705472  0.010228945            1 
 4498000   0.53619917    -8.682349    632.35569  0.011715497  0.010225371            2 
 4499000   0.52412881   -8.7027364    632.71411  0.011719532    0.0102218            5 
 4500000   0.52926092   -8.6865746    632.30884  0.011709423  0.010218231            5 
 4501000   0.53188298   -8.6874269     631.5532  0.011692831  0.010214665            2 
 4502000   0.53688876    -8.691965    632.74062  0.011712213  0.010211102            3 
 4503000   0.53064637   -8.6853614    632.10193  0.011697793  0.010207537            1 
 4504000   0.52946781   -8.6924518    632.19709  0.011696956  0.010203976            1 
 4505000   0.54196035   -8.6934446    631.78282  0.011686697  0.010200416            1 
 4506000   0.53264399   -8.6858927    632.39241  0.011695377  0.010196853            3 
 4507000   0.52778973   -8.6936751     632.0193  0.011685883  0.010193296            1 
 4508000   0.51758928   -8.6980128    631.51421  0.011673954  0.010189739            4 
 4509000   0.52109803   -8.7097765    631.65607  0.011673987  0.010186184            5 
 4510000   0.52396293   -8.6949194    631.54141   0.01166928  0.010182629            3 
 4511000   0.53230752   -8.7091995    631.58776  0.011667549  0.010179078            3 
 4512000   0.52335484   -8.6912592    631.57513   0.01166473  0.010175525            2 
 4513000   0.52626915    -8.686265    632.09191  0.011671688  0.010171978            4 
 4514000   0.52385524   -8.7007628    630.60986  0.011641742   0.01016843            2 
 4515000   0.53967603   -8.7046656    631.41466  0.011654017  0.010164885            6 
 4516000   0.53035426   -8.7035579    631.18242  0.011647151   0.01016134            1 
 4517000   0.52454108   -8.7168405    630.89578  0.011639285  0.010157793            3 
 4518000   0.52561439   -8.7158876    632.63615  0.011668809  0.010154248            5 
 4519000   0.52639785   -8.7141946    631.07719  0.011637479  0.010150703            1 
 4520000   0.52596658   -8.6988951    630.48531  0.011623992  0.010147159            1 
 4521000   0.52519039   -8.7045926     631.5492  0.011641031  0.010143618            1 
 4522000   0.52095023    -8.715854    631.93385  0.011645545  0.010140078            3 
 4523000   0.52845055   -8.7194988    630.79574  0.011622001   0.01013654            1 
 4524000   0.52802731   -8.7084518    630.68372  0.011617369  0.010133004            1 
 4525000   0.53054599   -8.7007412    631.41717  0.011628309  0.010129468            1 
 4526000    0.5360871   -8.7164994    631.73384   0.01163157  0.010125935            1 
 4527000   0.54056759   -8.7039315    631.36116   0.01162214  0.010122402            1 
 4528000   0.52104604   -8.7020723    631.70731  0.011625944  0.010118872            1 
 4529000   0.52954092   -8.6999132      631.034  0.011610988  0.010115345            1 
 4530000   0.53097394   -8.7152387    631.37339  0.011614669  0.010111817            1 
 4531000   0.52404752   -8.7146114    631.37506  0.011612136  0.010108291            2 
 4532000    0.5273905   -8.7088726    631.08233  0.011604191  0.010104765            1 
 4533000   0.51960566   -8.6927516    631.23193  0.011604381  0.010101244            1 
 4534000   0.52144204   -8.6908144    632.50372  0.011625197  0.010097724            2 
 4535000   0.52447551   -8.7118262    631.49706  0.011604136  0.010094207            1 
 4536000   0.53149572   -8.7104881    631.82502  0.011607603  0.010090687            2 
 4537000   0.51695051   -8.6920086    631.40303  0.011597293   0.01008717            2 
 4538000    0.5245086    -8.697114    631.05242  0.011588299  0.010083651            4 
 4539000   0.53022497   -8.7025861     629.9774  0.011566009  0.010080134            2 
 4540000   0.51751085   -8.7260254    631.61842  0.011593583  0.010076622            2 
 4541000   0.52765389   -8.7102976    631.37394  0.011586544  0.010073109            1 
 4542000   0.54126881   -8.7106086    630.85148  0.011574407  0.010069597            4 
 4543000   0.52487671   -8.7125703    632.31227  0.011598655  0.010066091            2 
 4544000   0.53718567   -8.7219332    632.14897  0.011593107  0.010062585            3 
 4545000   0.51327158   -8.7033985    629.78711  0.011547252  0.010059082            3 
 4546000   0.54217729   -8.7088593     630.8239  0.011563717  0.010055576            6 
 4547000   0.52517972   -8.6980161    631.12103   0.01156662  0.010052075            2 
 4548000   0.52214483   -8.7284184    631.36942  0.011568628  0.010048573            1 
 4549000    0.5273394   -8.7159125    631.06785   0.01156056  0.010045072            2 
 4550000   0.51707289   -8.7010301    631.60889  0.011567928  0.010041576            1 
 4551000   0.52011756   -8.7297102    631.07261  0.011555567  0.010038078            2 
 4552000   0.52046767   -8.7365504     631.9709  0.011569473  0.010034583            3 
 4553000    0.5189919   -8.7107693    631.28291   0.01155434  0.010031087            1 
 4554000   0.52301849   -8.7083846    631.57256  0.011557103   0.01002759            4 
 4555000   0.52338259   -8.7232524    630.91937  0.011542616  0.010024098            3 
 4556000   0.52918852    -8.714252    631.31684  0.011547352  0.010020606            1 
 4557000   0.51889488   -8.7342763    631.97118  0.011556784  0.010017118            1 
 4558000   0.51837635   -8.7045856    631.18792  0.011539928  0.010013632            4 
 4559000   0.52391887    -8.708875    631.22786  0.011538127  0.010010146            1 
 4560000   0.51818486   -8.7238989    630.36145  0.011519763  0.010006659            2 
 4561000   0.52406764   -8.7292065    630.29602  0.011516042  0.010003172            2 
 4562000   0.52274428   -8.7258394    631.78697  0.011540753 0.0099996902            1 
 4563000   0.52913846   -8.7198493    630.52093  0.011515102 0.0099962082            3 
 4564000   0.52307632    -8.722373    630.31931  0.011508898 0.0099927258            1 
 4565000   0.52176521    -8.713517    630.17765  0.011503791  0.009989246            4 
 4566000   0.52534431   -8.7254197    631.39848  0.011523552 0.0099857727            4 
 4567000   0.51834124   -8.7178411    630.11238  0.011497562 0.0099822967            5 
 4568000   0.52105173   -8.7272598    631.66813  0.011523426 0.0099788257            1 
 4569000   0.52491821   -8.7099585    629.94594  0.011489493 0.0099753565            3 
 4570000   0.52328734   -8.7194451    630.13982  0.011490514 0.0099718836            6 
 4571000   0.51946835   -8.7289956    631.18766  0.011507104  0.009968417            5 
 4572000    0.5239365   -8.7058884    631.11675  0.011503294 0.0099649523            3 
 4573000   0.52415593   -8.7240949    630.82998  0.011495553 0.0099614853            1 
 4574000    0.5273267   -8.7242017    631.54817  0.011506125  0.009958021            4 
 4575000   0.52672307   -8.7320863    631.31476  0.011499358 0.0099545576            3 
 4576000   0.50959774   -8.7089035    630.54783  0.011482879 0.0099510973            1 
 4577000   0.52089465    -8.730418    629.98079  0.011470046 0.0099476406            1 
 4578000   0.50728145    -8.723742    631.40882  0.011493535 0.0099441815            3 
 4579000   0.51728457   -8.7335708    631.23347  0.011487833 0.0099407259            4 
 4580000   0.52084797    -8.729961    630.13572  0.011465351 0.0099372729            2 
 4581000   0.51377797   -8.7254249    631.08975  0.011480204 0.0099338176            2 
 4582000    0.5236189   -8.7215396    631.49757  0.011485115 0.0099303639            4 
 4583000   0.52794048   -8.7275358     630.8587  0.011470992 0.0099269124            3 
 4584000   0.51913764   -8.7312352     631.6422  0.011482733  0.009923462            2 
 4585000   0.51106678   -8.7213611    631.26238  0.011473326  0.009920014            6 
 4586000   0.51803351   -8.7133988    630.47451  0.011456507 0.0099165706            4 
 4587000   0.49834437   -8.7301177    631.44334  0.011471611 0.0099131216            3 
 4588000   0.51713033   -8.7362761    631.42274  0.011468736 0.0099096782            3 
 4589000   0.52174172   -8.7135015    630.61928  0.011451647 0.0099062408            4 
 4590000   0.52142858   -8.7263267    630.11615  0.011440017 0.0099028038            2 
 4591000   0.52530471   -8.7219019    630.09074  0.011437064 0.0098993662            3 
 4592000   0.52951895   -8.7289011    630.05386  0.011433904 0.0098959313            2 
 4593000   0.51303847   -8.7208091    630.78629  0.011444704  0.009892499            2 
 4594000   0.51560596   -8.7199858    631.36549  0.011452719 0.0098890688            1 
 4595000   0.52340289   -8.7222507    631.26549  0.011448413 0.0098856416            3 
 4596000   0.51774176   -8.7300719    630.35914  0.011429488 0.0098822174            3 
 4597000   0.51517515   -8.7241466    631.33938  0.011444772 0.0098787917            5 
 4598000   0.50324385   -8.7282154    630.55806  0.011428122 0.0098753638            2 
 4599000    0.5182164   -8.7173247    630.47462  0.011424125 0.0098719407            2 
 4600000    0.5138755   -8.7209077    629.95055  0.011412148 0.0098685192            4 
 4601000   0.51858848   -8.7098515    631.18399  0.011432007 0.0098651015            4 
 4602000   0.51636999   -8.7234437    630.96239  0.011425511 0.0098616841            6 
 4603000   0.51276629    -8.721699     630.8717  0.011421386 0.0098582679            2 
 4604000   0.52065546   -8.7305393    631.26312   0.01142599 0.0098548501            1 
 4605000   0.51407473   -8.7159898    630.33272  0.011406672 0.0098514355            4 
 4606000   0.49964582    -8.727451    631.14817  0.011418949 0.0098480267            4 
 4607000   0.51495172   -8.7119619    631.12222  0.011416001 0.0098446155            6 
 4608000   0.51334143   -8.7238761    630.10756  0.011395174 0.0098412072            2 
 4609000   0.51469074   -8.7343399    630.44159  0.011398741 0.0098378002            2 
 4610000   0.51601117    -8.733769    630.75135  0.011401868 0.0098344001            2 
 4611000   0.51314224   -8.7418674    630.84056  0.011401008 0.0098309972            5 
 4612000   0.51311676   -8.7239383    630.64086  0.011394927 0.0098275985            1 
 4613000   0.50590445   -8.7173301    631.87572  0.011414765 0.0098241983            5 
 4614000   0.50024773   -8.7162787    630.93482  0.011395297 0.0098207992            3 
 4615000   0.50743196   -8.7331197    630.21085  0.011379755 0.0098174025            4 
 4616000   0.51648146   -8.7304704    630.83498  0.011388557 0.0098140044            4 
 4617000   0.51416753   -8.7156125    630.21754  0.011374947 0.0098106084            5 
 4618000   0.52462042   -8.7249567    631.55581  0.011396633 0.0098072148            3 
 4619000   0.52103561   -8.7346189    630.62917  0.011377448 0.0098038217            3 
 4620000   0.51722102   -8.7333193     629.9469  0.011362679  0.009800428            3 
 4621000   0.51375868   -8.7319871    630.25435  0.011365764 0.0097970387            4 
 4622000   0.50649197   -8.7478375    631.12826  0.011379061 0.0097936506            2 
 4623000   0.51989933   -8.7391988    630.88112  0.011372145 0.0097902651            5 
 4624000   0.51043062   -8.7431976    631.13314  0.011374227  0.009786879            2 
 4625000   0.50759305   -8.7341754    630.66252  0.011363289 0.0097834937            3 
 4626000   0.52227751   -8.7337195    631.39535  0.011374033 0.0097801113            2 
 4627000   0.50577799   -8.7391548    630.98676  0.011364217 0.0097767307            1 
 4628000   0.51023725    -8.731128    630.43773  0.011351875 0.0097733464            5 
 4629000   0.51718302   -8.7284214    630.21631  0.011345437 0.0097699668            4 
 4630000   0.49951897   -8.7434749    629.82353  0.011335917 0.0097665852            4 
 4631000   0.50941792   -8.7195296    630.08993  0.011338263 0.0097632075            3 
 4632000   0.51096054   -8.7235389    629.96978  0.011333653 0.0097598297            3 
 4633000   0.51656176   -8.7493229    630.02952  0.011332282 0.0097564538            3 
 4634000   0.51092588   -8.7370304    630.87379  0.011345019 0.0097530844            3 
 4635000    0.5027609    -8.724257    631.77028  0.011358689 0.0097497085            2 
 4636000   0.50401463   -8.7342211    630.38148  0.011331275 0.0097463366            2 
 4637000   0.50522247     -8.74276    630.38406  0.011328878 0.0097429636            4 
 4638000   0.50425003   -8.7371197    630.08554  0.011321071  0.009739593            4 
 4639000   0.50833069     -8.73395    630.46686  0.011325481 0.0097362225            4 
 4640000   0.51143223   -8.7486866     629.7014  0.011309292 0.0097328552            2 
 4641000   0.50462755   -8.7420699    630.18307  0.011315504  0.009729489            3 
 4642000    0.5089839   -8.7418679    630.30505  0.011315257 0.0097261224            3 
 4643000   0.51023281    -8.747685    630.70097  0.011319925 0.0097227604            4 
 4644000   0.52373363    -8.746494    630.29746  0.011310247 0.0097193986            3 
 4645000   0.50368446   -8.7377777    630.95537  0.011319616 0.0097160413            4 
 4646000   0.49670617   -8.7491296    630.60877  0.011310962 0.0097126828            4 
 4647000   0.50242879   -8.7580447    630.33361  0.011303594 0.0097093258            4 
 4648000   0.49939983   -8.7569314     630.9813  0.011312774  0.009705972            1 
 4649000   0.50347565   -8.7298441    630.72192  0.011305692   0.00970262            5 
 4650000   0.50758837   -8.7697976    631.23605  0.011312474 0.0096992692            2 
 4651000   0.51186945   -8.7405482    629.84286   0.01128508 0.0096959203            4 
 4652000   0.50665263   -8.7366468    630.40197  0.011292669 0.0096925718            3 
 4653000   0.50578767   -8.7367771    629.38609  0.011272048 0.0096892239            3 
 4654000   0.50285552   -8.7299607    630.15533    0.0112834 0.0096858805            1 
 4655000   0.50429386   -8.7526344    629.47082  0.011268722 0.0096825367            2 
 4656000   0.50776205   -8.7371997    629.83459  0.011272813 0.0096791932            5 
 4657000   0.50153833   -8.7318961    630.06297  0.011274479 0.0096758532            4 
 4658000   0.49856805   -8.7446859    630.48619   0.01127963 0.0096725152            3 
 4659000   0.50170317   -8.7461687    629.59023  0.011261183 0.0096691733            3 
 4660000   0.50283259   -8.7492727    629.67148   0.01126022 0.0096658363            3 
 4661000   0.50208624   -8.7544986    631.31183  0.011287131    0.0096625            5 
 4662000   0.50071568   -8.7572433    629.21001   0.01124714 0.0096591632            5 
 4663000   0.50140438   -8.7550529    630.56685  0.011268976 0.0096558293            1 
 4664000   0.49653823   -8.7457729    629.73436  0.011251686 0.0096524981            1 
 4665000   0.50824153   -8.7279347    630.05714   0.01125504 0.0096491658            2 
 4666000   0.50278604   -8.7243742    629.68601     0.011246 0.0096458371            1 
 4667000   0.50422395   -8.7470425    631.38522  0.011273931   0.00964251            2 
 4668000   0.49667578   -8.7438445     630.1972  0.011250307  0.009639185            1 
 4669000    0.5115384   -8.7466835    629.82116  0.011241186 0.0096358585            3 
 4670000   0.50834062   -8.7510794    631.00706   0.01125994 0.0096325368            2 
 4671000    0.5105688   -8.7526032     630.4388  0.011247392 0.0096292148            1 
 4672000   0.50326242   -8.7581015    629.88262  0.011235064 0.0096258973            2 
 4673000   0.49702033   -8.7525549    629.86629  0.011232368 0.0096225772            3 
 4674000   0.50305622    -8.741384    630.52997  0.011241798 0.0096192588            2 
 4675000   0.49400646   -8.7541601    630.45334  0.011238027 0.0096159417            2 
 4676000   0.49681191   -8.7301782    630.21921  0.011231452 0.0096126278            1 
 4677000   0.50259924    -8.755538    630.57167   0.01123533 0.0096093131            4 
 4678000   0.50664706   -8.7358312    630.24403  0.011227092 0.0096060051            4 
 4679000   0.51489807   -8.7522576    631.34967  0.011244384 0.0096026962            4 
 4680000   0.50528943   -8.7575511    630.13908  0.011220425 0.0095993895            1 
 4681000   0.51114204   -8.7470901    630.05788  0.011216583 0.0095960822            3 
 4682000   0.50074059   -8.7519419    630.06496  0.011214313 0.0095927775            4 
 4683000   0.49902678   -8.7634256    630.29025  0.011215927 0.0095894762            2 
 4684000   0.49675592   -8.7315041    630.29389  0.011213597 0.0095861722            1 
 4685000   0.49336173    -8.757749    630.58995   0.01121647 0.0095828729            2 
 4686000   0.51201201   -8.7480219    629.34834  0.011191996 0.0095795727            3 
 4687000   0.50427273   -8.7445778    629.97748  0.011200794 0.0095762771            4 
 4688000   0.50197603   -8.7376763    629.00558  0.011181129 0.0095729783            3 
 4689000   0.50451173   -8.7439681     630.3751  0.011203083 0.0095696793            1 
 4690000   0.49459538    -8.760719    629.48394   0.01118486  0.009566383            4 
 4691000    0.4979128   -8.7557537    630.11593  0.011193703 0.0095630906            6 
 4692000    0.4943276   -8.7598784    629.72124  0.011184307 0.0095598023            1 
 4693000   0.49977756   -8.7525405    628.83267  0.011166146 0.0095565131            3 
 4694000   0.49686542   -8.7421404    630.93123  0.011201023 0.0095532269            1 
 4695000   0.50275912   -8.7560197    630.32909   0.01118795 0.0095499416            1 
 4696000   0.50188804   -8.7587444    629.87224   0.01117746 0.0095466562            2 
 4697000   0.50217474   -8.7609973    629.38894  0.011166506 0.0095433743            3 
 4698000   0.50183763   -8.7456329    629.92036  0.011173555 0.0095400911            3 
 4699000   0.51050186   -8.7552677    629.75513  0.011168247 0.0095368095            2 
 4700000   0.50585588    -8.770796    629.46925  0.011160802 0.0095335276            5 
 4701000   0.50544007   -8.7657042     628.4227  0.011139876 0.0095302474            5 
 4702000   0.49942706    -8.751036    629.62362  0.011158791 0.0095269682            5 
 4703000   0.51067413   -8.7452568    629.30274  0.011150732 0.0095236911            2 
 4704000   0.49777586   -8.7568738    630.51641  0.011169863 0.0095204157            7 
 4705000   0.48125499   -8.7552788    629.68853  0.011152826 0.0095171431            8 
 4706000    0.4940702   -8.7538486    630.24933  0.011160386 0.0095138683            2 
 4707000    0.5023701   -8.7672399    630.83914  0.011168457 0.0095105975            3 
 4708000   0.50567155    -8.749784    630.06092   0.01115231 0.0095073239            2 
 4709000   0.48020775   -8.7547211    629.34185  0.011137217 0.0095040539            3 
 4710000   0.50996892   -8.7715696    628.54157  0.011120693 0.0095007848            4 
 4711000   0.49450538   -8.7720328    629.54733  0.011136123 0.0094975149            4 
 4712000   0.49793238   -8.7556546    629.42117  0.011131529 0.0094942473            2 
 4713000   0.48978682   -8.7575534    629.77722  0.011135463 0.0094909844            6 
 4714000   0.50492295   -8.7549877    629.91661  0.011135564  0.009487722            4 
 4715000   0.49229388   -8.7570123     630.1514  0.011137352  0.009484464            4 
 4716000   0.50780345   -8.7618211    629.21425  0.011118431 0.0094812031            2 
 4717000   0.49069185   -8.7632134    629.07422    0.0111136 0.0094779459            1 
 4718000   0.50707018   -8.7593576    630.34666  0.011133719 0.0094746883            5 
 4719000   0.48847736   -8.7565027    629.80168  0.011121736 0.0094714341            1 
 4720000   0.49026996   -8.7753179    629.20026  0.011108762 0.0094681819            4 
 4721000   0.49558348   -8.7680667    629.79592  0.011116923  0.009464931            5 
 4722000   0.49229658    -8.751111    630.45438  0.011126189 0.0094616787            4 
 4723000   0.48709548   -8.7788973    629.48803  0.011106783 0.0094584261            3 
 4724000   0.48633025   -8.7671052    629.48957  0.011104459  0.009455178            3 
 4725000   0.49848893   -8.7806531    630.16411  0.011114006 0.0094519266            4 
 4726000   0.48501928   -8.7533281    629.98633  0.011108519 0.0094486785            5 
 4727000   0.51205642   -8.7671591    630.21194  0.011110146 0.0094454324            4 
 4728000    0.4915861   -8.7733752    629.56542  0.011096401 0.0094421874            3 
 4729000   0.48785282   -8.7670322    628.90761  0.011082463 0.0094389453            2 
 4730000   0.50548172   -8.7670551    629.77202  0.011095349 0.0094357053            2 
 4731000   0.49811753   -8.7739189    629.32847  0.011085191 0.0094324657            5 
 4732000   0.50061803   -8.7664784    630.02705  0.011095151 0.0094292295            4 
 4733000   0.48525433   -8.7598145    629.86968  0.011090036 0.0094259909            2 
 4734000   0.48782818   -8.7726113    628.78337  0.011068571 0.0094227549            7 
 4735000   0.49384816   -8.7570623    629.54901  0.011079708  0.009419521            3 
 4736000   0.48646803   -8.7557679    630.29593  0.011090511 0.0094162876            3 
 4737000   0.48565303   -8.7643803    629.30241  0.011070692 0.0094130571            4 
 4738000   0.49028925   -8.7659888    630.30152  0.011085928 0.0094098295            3 
 4739000   0.48672933   -8.7801142    628.82248   0.01105758 0.0094066032            3 
 4740000   0.49872123   -8.7706656    629.87383  0.011073731 0.0094033765            5 
 4741000   0.49185854   -8.7548949    629.86823  0.011071297  0.009400152            4 
 4742000   0.49335493   -8.7627745    629.89924  0.011069507 0.0093969301            4 
 4743000   0.50448223   -8.7597289    629.19773  0.011054848 0.0093937068            2 
 4744000   0.48402757   -8.7625831    629.94857  0.011065707 0.0093904841            4 
 4745000   0.48868648   -8.7708178    629.51331  0.011055731 0.0093872639            5 
 4746000   0.47850275   -8.7682276    630.04722  0.011062776 0.0093840484            3 
 4747000   0.48736332   -8.7761135     629.5542  0.011051791 0.0093808325            2 
 4748000   0.50293789   -8.7702059    629.00885  0.011039891  0.009377619            2 
 4749000   0.48397935   -8.7771093    628.64151  0.011031121 0.0093744024            4 
 4750000    0.4932247   -8.7678976    629.37018  0.011041582 0.0093711873            4 
 4751000   0.49216218   -8.7737302    630.09636  0.011051995 0.0093679765            2 
 4752000   0.49303352   -8.7776787    629.31203  0.011035915 0.0093647668            1 
 4753000   0.49396099   -8.7772889    629.93542  0.011044523 0.0093615575            4 
 4754000    0.4849443   -8.7669292    629.62828  0.011036816 0.0093583508            5 
 4755000   0.49908757   -8.7659856     629.4597  0.011031541 0.0093551471            1 
 4756000   0.48926284   -8.7723024    629.11955  0.011023261 0.0093519447            3 
 4757000   0.49600464   -8.7790506    629.69995  0.011031111 0.0093487431            2 
 4758000   0.48306434   -8.7884466    628.75334  0.011012214 0.0093455416            3 
 4759000   0.48875334   -8.7758113     628.4507    0.0110046 0.0093423399            2 
 4760000   0.49292452   -8.7769147    629.81531  0.011026178 0.0093391427            4 
 4761000   0.49510068   -8.7592216    628.70395   0.01100441 0.0093359449            5 
 4762000   0.48923961   -8.7811927     629.1399  0.011009728 0.0093327482            3 
 4763000   0.48840878   -8.7832486    628.26039  0.010992029 0.0093295538            2 
 4764000   0.49626447     -8.76879    629.21212  0.011006369 0.0093263611            6 
 4765000   0.48068832   -8.7841682    629.59923   0.01101083 0.0093231696            2 
 4766000   0.48004627   -8.7813093    630.06388  0.011016644  0.009319979            3 
 4767000    0.4895791   -8.7678379     629.1987  0.010999208 0.0093167921            6 
 4768000   0.48786735    -8.780334    628.94158  0.010992407 0.0093136035            2 
 4769000   0.48492318   -8.7737722    629.65233  0.011002522 0.0093104163            3 
 4770000   0.49211285   -8.7752822    628.74082  0.010984291 0.0093072299            2 
 4771000    0.4979786   -8.7837292    629.09695  0.010988209  0.009304047            6 
 4772000    0.4887733   -8.7867749    628.19116  0.010970089 0.0093008642            4 
 4773000   0.49218365   -8.7805257    630.08599  0.011000873 0.0092976816            2 
 4774000   0.50171956   -8.7944046    629.02475  0.010980044 0.0092944985            3 
 4775000    0.4902372   -8.7672281     630.0879  0.010996299 0.0092913211            3 
 4776000   0.48602037   -8.7978898    628.91559  0.010973541 0.0092881441            3 
 4777000   0.48137177   -8.7758528    630.53011  0.010999409 0.0092849676            1 
 4778000   0.49334636   -8.7722984    628.45723  0.010960954 0.0092817903            5 
 4779000   0.48696878   -8.7699373       629.06  0.010969171 0.0092786178            3 
 4780000   0.48929324   -8.7682158    628.37196  0.010954881 0.0092754442            1 
 4781000   0.47718519   -8.7817066    629.01487  0.010963795 0.0092722738            4 
 4782000   0.47715599   -8.7786093    630.21477  0.010982413 0.0092691051            2 
 4783000   0.48570945   -8.7846298    629.20849  0.010962584 0.0092659381            6 
 4784000   0.49206339   -8.7736274    629.06811  0.010957848 0.0092627742            6 
 4785000   0.47856512   -8.7681947    628.89176  0.010952486 0.0092596124            1 
 4786000   0.47279094   -8.7818792    629.16131  0.010954891 0.0092564533            6 
 4787000   0.48366229   -8.7856816    628.74983   0.01094544 0.0092532901            2 
 4788000   0.48188036   -8.7773339    628.66645  0.010941702 0.0092501317            4 
 4789000   0.49210227   -8.7840072    629.55639  0.010954903 0.0092469763            3 
 4790000   0.48727182   -8.7855816    628.48363  0.010933953 0.0092438221            3 
 4791000   0.47687826   -8.7825188    629.30404  0.010945941 0.0092406631            5 
 4792000     0.483982   -8.7756448    629.49075  0.010946904 0.0092375085            6 
 4793000   0.48501001   -8.7944381    628.89327  0.010934232 0.0092343549            3 
 4794000   0.48594308   -8.7785509    629.16364  0.010936651 0.0092312007            2 
 4795000   0.48410456   -8.7739745    628.92859  0.010930285 0.0092280512            4 
 4796000     0.485163   -8.7757633    628.16142  0.010914676    0.0092249            2 
 4797000   0.47935296   -8.7872778    629.12058  0.010929063 0.0092217529            4 
 4798000   0.47709146   -8.7722645    628.16927  0.010910262 0.0092186066            4 
 4799000   0.48443319   -8.7809591    629.07201  0.010923665 0.0092154618            3 
 4800000   0.48510842   -8.8032616    628.13623  0.010905143 0.0092123186            3 
 4801000   0.49267023   -8.7856568    628.68034  0.010912316 0.0092091738            4 
 4802000    0.4779554   -8.7949058    629.22547  0.010919503 0.0092060318            3 
 4803000   0.48258134   -8.7905005    629.05963  0.010914353 0.0092028925            3 
 4804000   0.48708219   -8.7769637     628.4937  0.010902264 0.0091997513            3 
 4805000   0.48293243   -8.7869055    628.75961  0.010904606 0.0091966141            4 
 4806000   0.48236471   -8.7780185    629.07447  0.010907797 0.0091934777            4 
 4807000    0.4870371   -8.7787384    628.02769  0.010887381 0.0091903415            5 
 4808000   0.47728957   -8.7833689    629.30126   0.01090719 0.0091872106            2 
 4809000   0.48334819   -8.8104664    629.48735  0.010908147 0.0091840791            2 
 4810000    0.4859199   -8.7922424    628.25473  0.010884524 0.0091809503            3 
 4811000   0.47964411   -8.7774378    628.42317  0.010885179  0.009177823            9 
 4812000   0.47612711   -8.7771407    628.84652  0.010890249 0.0091746959            2 
 4813000   0.47866819   -8.7778263    628.54902  0.010882835 0.0091715692            3 
 4814000   0.48107102   -8.7781597    628.12281  0.010873196 0.0091684439            8 
 4815000   0.48133498   -8.7912176    629.25694  0.010890567 0.0091653188            4 
 4816000   0.48828352   -8.7920717    629.09566  0.010885515 0.0091621963            4 
 4817000   0.47847304   -8.7807801    628.09939   0.01086602  0.009159073            7 
 4818000   0.47448035   -8.8004683    628.34094  0.010867942 0.0091559521            4 
 4819000   0.47965979   -8.7942302    628.25374  0.010864179 0.0091528332            4 
 4820000   0.47076177   -8.7912605    629.53634    0.0108841 0.0091497147            4 
 4821000   0.47788586   -8.7937065    627.84954  0.010852685  0.009146598            4 
 4822000   0.46294342   -8.7961316    629.03783   0.01087097 0.0091434816            6 
 4823000   0.48567897   -8.7826086    628.49027  0.010859256 0.0091403689            5 
 4824000   0.46910765   -8.7878551    629.55127  0.010875333 0.0091372595            4 
 4825000   0.47455954   -8.7861147    628.88843  0.010861631 0.0091341517            6 
 4826000   0.48311596    -8.790211    628.16618  0.010846909 0.0091310406            6 
 4827000   0.46642672   -8.7945312    629.37699  0.010865565 0.0091279353            3 
 4828000   0.48179478   -8.8009182    628.09046  0.010841108 0.0091248285            5 
 4829000    0.4885487   -8.7836486    629.72385  0.010867051 0.0091217219            5 
 4830000   0.48479894   -8.7865724    628.42397  0.010842374  0.009118618            4 
 4831000   0.47899963   -8.7933524    629.12555  0.010852231 0.0091155131            5 
 4832000   0.47695415   -8.7905573    628.47544  0.010838773 0.0091124141            6 
 4833000   0.46809812   -8.8060041     629.2534  0.010849945 0.0091093107            3 
 4834000   0.47325304   -8.7812996    629.11084  0.010845243 0.0091062122            4 
 4835000   0.47694484   -8.8028917    627.75954  0.010819709 0.0091031133            4 
 4836000   0.47159202   -8.7847012    628.37571   0.01082809 0.0091000164            6 
 4837000   0.48169299   -8.7808023    629.67863  0.010848298 0.0090969234            5 
 4838000   0.47115516   -8.7952145    627.87179  0.010814934 0.0090938285            3 
 4839000   0.48029892   -8.7903275    628.69282  0.010826838  0.009090737            7 
 4840000   0.48566616   -8.7782446    628.69154  0.010824579 0.0090876473            8 
 4841000   0.48902261   -8.7979365    627.99257  0.010810311 0.0090845549            4 
 4842000   0.47826148   -8.7914797      628.354  0.010814298 0.0090814659            3 
 4843000   0.48493018    -8.803428    627.64673  0.010799896 0.0090783761            4 
 4844000   0.48180045   -8.8002491    628.10791    0.0108056  0.009075286            1 
 4845000   0.48327392   -8.7920583    628.54008  0.010810803 0.0090721984            3 
 4846000    0.4739063   -8.7919455    628.38559  0.010805915 0.0090691097            3 
 4847000   0.47477617   -8.8011909     628.5044  0.010805729 0.0090660258            6 
 4848000   0.47953915   -8.7932997    629.28749   0.01081696 0.0090629433            3 
 4849000   0.47551685   -8.7848823    628.58153  0.010802597 0.0090598622            5 
 4850000   0.47453385   -8.8165711    628.25206  0.010794709  0.009056782            4 
 4851000    0.4729924   -8.7954975    628.37558  0.010794606 0.0090537042            2 
 4852000   0.47583851   -8.7971576    627.92162  0.010784584 0.0090506261            4 
 4853000   0.47724355    -8.815279    627.97431  0.010783267 0.0090475513            3 
 4854000   0.47318103   -8.7964029    629.13456  0.010800964 0.0090444782            8 
 4855000   0.47555471   -8.7899949    628.55654  0.010788818 0.0090414042            3 
 4856000   0.47748576   -8.8155287    628.85681  0.010791749 0.0090383354            6 
 4857000   0.48556093   -8.7958672    627.66277  0.010769041 0.0090352664            4 
 4858000   0.47771884   -8.7851516    628.76101  0.010785663 0.0090321976            3 
 4859000   0.46840333   -8.7945613    628.87611  0.010785417 0.0090291309            3 
 4860000   0.47553009   -8.8045608    628.96618  0.010784742 0.0090260645            4 
 4861000   0.47763499   -8.8059134    628.31256  0.010771319 0.0090229993            8 
 4862000   0.46887738   -8.7901233    627.87663  0.010761631 0.0090199368            5 
 4863000   0.46340187   -8.7858941    628.19124   0.01076481 0.0090168752            4 
 4864000   0.46498049   -8.8067719    628.27717  0.010764069 0.0090138132            4 
 4865000   0.47323812   -8.7846419    627.87769  0.010755014 0.0090107519            4 
 4866000   0.47349383   -8.7999629    627.96967  0.010754379 0.0090076943            6 
 4867000   0.47142717   -8.8085146     628.3945  0.010759443 0.0090046378            3 
 4868000   0.47247777   -8.7982414    627.80138  0.010747079 0.0090015836            5 
 4869000   0.47304834   -8.8033951    628.79332  0.010761849 0.0089985274            5 
 4870000   0.45890082   -8.8092272    627.71094  0.010741118 0.0089954748            5 
 4871000   0.47275556    -8.795844    627.69267    0.0107386  0.008992422            6 
 4872000   0.48054123   -8.7907532    628.15102  0.010744236 0.0089893715            7 
 4873000   0.47289937   -8.8057589     628.6014  0.010749733 0.0089863231            4 
 4874000   0.46818925   -8.8080412    628.06442  0.010738347 0.0089832759            4 
 4875000   0.47457487   -8.8086014     628.2758  0.010739757 0.0089802307            7 
 4876000   0.46561462   -8.7853451    628.88517  0.010747969 0.0089771873            6 
 4877000   0.47100965   -8.8060504    628.26846  0.010735228 0.0089741403            3 
 4878000   0.47903419     -8.80915    628.38358  0.010734993 0.0089710986            8 
 4879000   0.46769225   -8.7959419    627.61169  0.010719609 0.0089680592            2 
 4880000    0.4679784   -8.7896878    628.02302  0.010724437 0.0089650215            5 
 4881000   0.47314316   -8.8069439     627.4736  0.010712859 0.0089619827            5 
 4882000   0.46798843   -8.8017809    628.45658  0.010727444 0.0089589471            3 
 4883000   0.47341858    -8.800986    629.23721  0.010738569  0.008955914            3 
 4884000   0.46173753   -8.8030323    627.48509  0.010706475  0.008952879            5 
 4885000   0.47707289   -8.8063833    628.92098  0.010728778 0.0089498458            5 
 4886000   0.47627796   -8.8086709    628.30906  0.010716146 0.0089468163            4 
 4887000   0.47469002    -8.805841    628.23112  0.010712624 0.0089437848            4 
 4888000   0.47603459   -8.8122042    628.28313  0.010711319 0.0089407563            3 
 4889000   0.47264759   -8.7900118    628.48846  0.010712628 0.0089377281            5 
 4890000   0.47087323   -8.8089692    628.57171  0.010711856 0.0089347011            4 
 4891000   0.47060591   -8.8079501     627.6314  0.010693645 0.0089316744            5 
 4892000    0.4728678   -8.8073189    628.20119  0.010701165 0.0089286486            1 
 4893000   0.47678306   -8.8090709    627.84294  0.010692877 0.0089256248            3 
 4894000   0.47177338   -8.7993708     628.8345  0.010707576  0.008922605            3 
 4895000   0.47391802    -8.806546    628.20555  0.010694681 0.0089195868            5 
 4896000   0.47451148   -8.7977146    628.70953  0.010701074 0.0089165672            5 
 4897000   0.45377713   -8.8208043    627.28859  0.010674709 0.0089135479            6 
 4898000   0.46178976   -8.7992216    626.87032  0.010665413 0.0089105289            7 
 4899000   0.46408029   -8.8122081    627.79887  0.010679031 0.0089075133            4 
 4900000   0.46476227   -8.8018559    628.12162  0.010682341 0.0089045017            7 
 4901000   0.47385091   -8.8130013    628.42964  0.010685398 0.0089014882            1 
 4902000      0.46945   -8.7945046    628.18805  0.010679111 0.0088984755            5 
 4903000   0.47078382   -8.8254672    628.16247  0.010676499 0.0088954661            3 
 4904000   0.46897949   -8.8134647    627.85589  0.010669112 0.0088924578            6 
 4905000   0.47125352   -8.8109639    628.38287   0.01067589 0.0088894511            4 
 4906000   0.46143112   -8.8236663    627.82178  0.010664183 0.0088864465            4 
 4907000   0.46826202   -8.8144954    627.43507  0.010655442 0.0088834393            4 
 4908000   0.45994019   -8.8133382    628.39112  0.010669504 0.0088804363            5 
 4909000   0.46550602   -8.7999901     627.3197  0.010649143 0.0088774338            8 
 4910000   0.46153363   -8.8179819    628.89731  0.010673749 0.0088744343            8 
 4911000    0.4592446   -8.8157053    627.75215  0.010652144 0.0088714347            5 
 4912000   0.46279859   -8.8067181    627.96421  0.010653573 0.0088684367            3 
 4913000   0.47166425    -8.791921    628.57734  0.010661804 0.0088654412            4 
 4914000   0.46502856   -8.8130324    628.87097  0.010664614 0.0088624442            7 
 4915000   0.46746402   -8.8278087    627.61375  0.010641128  0.008859448            4 
 4916000   0.47044281   -8.8011106     626.5915  0.010621635 0.0088564548            6 
 4917000   0.46368129   -8.8199769    627.27279  0.010631021 0.0088534622            2 
 4918000   0.46951601   -8.8114114    628.10234  0.010642916 0.0088504717            5 
 4919000   0.46254153   -8.8103781    628.75496  0.010651809 0.0088474836            5 
 4920000   0.46530723   -8.8091189    627.29904  0.010624984 0.0088444969            4 
 4921000    0.4667295   -8.8139659    627.57577  0.010627511 0.0088415114            9 
 4922000   0.46700693   -8.8101722     627.9105  0.010631019 0.0088385252            3 
 4923000   0.46387988   -8.8132044    628.66382  0.010641611 0.0088355409            4 
 4924000   0.47646675    -8.810101    628.45123  0.010635852 0.0088325577            3 
 4925000    0.4689479   -8.8046699    628.82967  0.010640096 0.0088295753            5 
 4926000   0.45846512   -8.8161787    628.28275  0.010628684 0.0088265959            5 
 4927000   0.47492161     -8.80082    627.72267  0.010617053  0.008823616            5 
 4928000   0.46051898   -8.8129635    627.91088  0.010618082  0.008820639            5 
 4929000   0.45533905   -8.8140019    628.51246  0.010626098 0.0088176634            6 
 4930000   0.47243547   -8.8242167    628.33544  0.010620951 0.0088146889            5 
 4931000   0.46268244   -8.8233875    627.67854  0.010607695 0.0088117169            5 
 4932000   0.46643286   -8.8049335    627.88125   0.01060897 0.0088087421            4 
 4933000    0.4750704   -8.8110282    627.93886  0.010607792 0.0088057711            8 
 4934000   0.46849326   -8.8292243    628.33543   0.01061234 0.0088028027            5 
 4935000   0.46936911   -8.8137203    627.04682   0.01058843 0.0087998342            7 
 4936000   0.46068797   -8.8254421    627.59936  0.010595613  0.008796866            4 
 4937000   0.46267025   -8.8140845    627.07297  0.010584582 0.0087938979            3 
 4938000   0.46091306   -8.8134994    627.25634  0.010585533 0.0087909315            3 
 4939000   0.46518156   -8.7997154     627.7084  0.010591017 0.0087879692            3 
 4940000   0.45711722    -8.813468    627.68279  0.010588441 0.0087850056            7 
 4941000   0.46721524    -8.817981    627.70145  0.010586613 0.0087820433            2 
 4942000   0.46296913   -8.8355148    626.84089   0.01056996 0.0087790815            6 
 4943000   0.46934373   -8.8235385    626.85418  0.010568045 0.0087761217            1 
 4944000   0.46731322   -8.8052045    628.28949  0.010590101 0.0087731637            5 
 4945000   0.46203957   -8.8034946     627.5592  0.010575652 0.0087702075            5 
 4946000   0.46396146   -8.8241287    628.12176  0.010582992 0.0087672526            4 
 4947000   0.45316454   -8.8328424    627.27619  0.010566609 0.0087642994            6 
 4948000   0.46321608   -8.8172893    626.60883  0.010553234 0.0087613488            4 
 4949000   0.45409396   -8.8120217    627.58355  0.010567514 0.0087583977            3 
 4950000   0.45872115   -8.8389377     627.9066  0.010570818 0.0087554474            3 
 4951000   0.46463045   -8.8101663    627.16002  0.010556117 0.0087525009            3 
 4952000   0.45670306   -8.8202864    627.20074  0.010554671 0.0087495565            6 
 4953000   0.46021898   -8.8055948    627.71161  0.010561135 0.0087466096            4 
 4954000   0.46614665   -8.8307432    628.92389  0.010579395 0.0087436663            2 
 4955000   0.45755055   -8.8268046    626.71826  0.010540166 0.0087407234            4 
 4956000   0.45392972   -8.8206234    628.14158  0.010561972 0.0087377821            3 
 4957000   0.46770053   -8.8273473    628.15921  0.010560137 0.0087348419            7 
 4958000    0.4580896   -8.8258009    626.53692   0.01053074    0.0087319            4 
 4959000   0.45927889   -8.8272038    627.17545  0.010539347 0.0087289603            7 
 4960000   0.46737145   -8.8143333    626.93898  0.010533249 0.0087260264            6 
 4961000   0.45577059   -8.8334877    627.62983  0.010542731 0.0087230927            2 
 4962000   0.46005004   -8.8184064    627.83099  0.010543984 0.0087201591            3 
 4963000   0.45848089   -8.8235125    625.89893  0.010509419  0.008717227            3 
 4964000   0.45179583   -8.8199237    627.56863  0.010535332 0.0087142926            4 
 4965000   0.45497809   -8.8235062     628.3798  0.010546824 0.0087113622            6 
 4966000   0.46570844   -8.8262986    628.21615  0.010541954 0.0087084318            5 
 4967000   0.45759355   -8.8281998    627.43473  0.010526722 0.0087055041            7 
 4968000   0.46083672   -8.8185918    627.33422  0.010522917 0.0087025774            6 
 4969000   0.45212203    -8.813526    627.09628  0.010516809 0.0086996538            2 
 4970000   0.45435333   -8.8091211    628.18009  0.010532865 0.0086967305            2 
 4971000    0.4452812   -8.8228495    627.30821   0.01051613 0.0086938084            5 
 4972000   0.46775937   -8.8347204    626.98079  0.010508528 0.0086908863            4 
 4973000   0.44884405   -8.8284988    627.59336  0.010516679 0.0086879683            4 
 4974000    0.4606369   -8.8333734     626.8214  0.010501632 0.0086850489            6 
 4975000   0.44502145    -8.815859    627.91928  0.010517911 0.0086821325            5 
 4976000   0.45282081   -8.8224483    627.01889  0.010500718 0.0086792166            6 
 4977000   0.45422622   -8.8220059    627.30639  0.010503422 0.0086763016            4 
 4978000   0.44674647   -8.8266286    628.20713  0.010516391 0.0086733869            5 
 4979000   0.45714509   -8.8308122    627.65487  0.010505036  0.008670474            4 
 4980000   0.45457257   -8.8294963    626.54805  0.010484405 0.0086675643            9 
 4981000   0.44507542   -8.8254455    627.45592  0.010497489 0.0086646551            3 
 4982000    0.4490033    -8.833678    627.52758  0.010496581 0.0086617464            7 
 4983000   0.45043133   -8.8292117    627.55263  0.010494893 0.0086588396            3 
 4984000   0.45871637   -8.8263918     627.1078   0.01048535 0.0086559322            6 
 4985000    0.4428637   -8.8147097    627.09978  0.010483112 0.0086530291            3 
 4986000   0.45473593   -8.8250429    626.86875  0.010477149 0.0086501261            3 
 4987000   0.44649599   -8.8205447    627.41096  0.010484108 0.0086472237            3 
 4988000   0.45004891   -8.8262046    626.15299   0.01046099 0.0086443219            4 
 4989000   0.45949147    -8.846806    627.04695  0.010473825 0.0086414207            5 
 4990000   0.46348367   -8.8350187    627.96992   0.01048714 0.0086385217            6 
 4991000   0.45076489   -8.8338599    626.88457  0.010466917  0.008635624            7 
 4992000   0.45531489   -8.8417093    627.69854  0.010478408 0.0086327267            4 
 4993000   0.44799092   -8.8413715    626.91056  0.010463158 0.0086298294            8 
 4994000   0.45992803   -8.8291572    627.16078  0.010465238 0.0086269348            6 
 4995000   0.45185647   -8.8415841    626.81746  0.010457415 0.0086240442            8 
 4996000   0.45455117    -8.833837    627.46847  0.010466181 0.0086211556            5 
 4997000   0.45521115   -8.8274755    627.61392  0.010466512 0.0086182664            4 
 4998000    0.4511702   -8.8242935    627.74214  0.010466556 0.0086153766            3 
 4999000   0.44480822    -8.841539     627.2742  0.010456661 0.0086124892            3 
 5000000   0.45620325   -8.8237752    627.74068  0.010462345 0.0086096026            7 
 5001000   0.45354981   -8.8366532    626.45673  0.010438858  0.008606717            6 
 5002000   0.45170003   -8.8348199    627.73194  0.010458016 0.0086038337            5 
 5003000   0.45046847   -8.8342367    627.50957  0.010452222 0.0086009513            6 
 5004000   0.45218421   -8.8193272    626.85646  0.010439256 0.0085980713            6 
 5005000   0.45802822   -8.8368816    628.22609  0.010459975  0.008595192            6 
 5006000   0.44940412   -8.8330629    626.92961  0.010436303 0.0085923147            4 
 5007000   0.45096076   -8.8224023    627.08917  0.010436875 0.0085894366            4 
 5008000    0.4417197   -8.8440167      627.709  0.010445104 0.0085865591            3 
 5009000    0.4486921   -8.8232413    627.60177  0.010441235  0.008583683            3 
 5010000   0.46388898   -8.8280796    627.05059  0.010429983 0.0085808084            4 
 5011000   0.45640745   -8.8269754    627.47145  0.010434901 0.0085779354            5 
 5012000    0.4592427   -8.8355048    627.55872   0.01043427 0.0085750634            5 
Loop time of 12136.3 on 48 procs for 5000000 steps with 4000 atoms

Performance: 71191.547 tau/day, 411.988 timesteps/s
99.4% CPU use with 48 MPI tasks x no OpenMP threads

MPI task timing breakdown:
Section |  min time  |  avg time  |  max time  |%varavg| %total
---------------------------------------------------------------
Pair    | 793.15     | 858.39     | 916.33     | 106.1 |  7.07
Neigh   | 79.003     | 82.701     | 85.787     |  18.6 |  0.68
Comm    | 767.1      | 839.21     | 919.57     | 123.1 |  6.91
Output  | 14.106     | 14.112     | 14.199     |   0.3 |  0.12
Modify  | 10205      | 10229      | 10266      |  15.6 | 84.29
Other   |            | 112.6      |            |       |  0.93

Nlocal:        83.3333 ave          89 max          75 min
Histogram: 1 0 3 3 5 13 6 11 2 4
Nghost:        2114.25 ave        2131 max        2095 min
Histogram: 4 1 4 7 5 7 5 5 4 6
Neighs:        13854.6 ave       14952 max       12115 min
Histogram: 1 0 2 1 12 5 11 5 7 4
FullNghs:      27708.8 ave       29920 max       24891 min
Histogram: 1 1 1 8 6 11 9 5 4 2

Total # of neighbors = 1330021
Ave neighs/atom = 332.50525
Neighbor list builds = 267362
Dangerous builds = 2

#clear
#
#next RN
#
#jump SELF
Total wall time: 3:22:19
