
units lj                  # Use reduced LJ style units
atom_style atomic         # Uncharged point particles
atom_modify map hash      # Needed for indexing of clusters etc
                          # Used to be able to find where atoms are in relation to each other.

lattice fcc 1.0 spacing 1 1 1
Lattice spacing in x,y,z = 1.5874011 1.5874011 1.5874011
region box block 0 10 0 10 0 10 units lattice
create_box 2 box
Created orthogonal box = (0.0000000 0.0000000 0.0000000) to (15.874011 15.874011 15.874011)
  3 by 4 by 4 MPI processor grid
create_atoms 1 box
Created 4000 atoms
  using lattice units in orthogonal box = (0.0000000 0.0000000 0.0000000) to (15.874011 15.874011 15.874011)
  create_atoms CPU = 0.002 seconds
set type 1 type/fraction 2 0.42 78393
Setting atom values ...
  1685 settings made for type/fraction
mass 1 1.0
mass 2 1.0
pair_style lj/cut  3.5
pair_modify tail  yes
pair_coeff 1  1  1.0  1.0   # Intearaction between 1 and 1 set with epsilon = 1 and sigma = 1
pair_coeff 1  2  1.5  0.8
pair_coeff 2  2  0.5  0.88

write_data data.0
System init for write_data ...
Neighbor list info ...
  update every 1 steps, delay 10 steps, check yes
  max neighbors/atom: 2000, page size: 100000
  master list distance cutoff = 3.8
  ghost atom cutoff = 3.8
  binsize = 1.9, bins = 9 9 9
  1 neighbor lists, perpetual/occasional/extra = 1 0 0
  (1) pair lj/cut, perpetual
      attributes: half, newton on
      pair build: half/bin/atomonly/newton
      stencil: half/bin/3d
      bin: standard
WARNING: Not all mixed pair coeffs generated from mixing. Use write_data with 'pair ij' option to store all pair coeffs. (../write_data.cpp:312)


#############################
#   M E L T   S Y S T E M   #
#############################

velocity all create 2.4 2750902 mom yes dist gaussian # Assign velocities
                                                    # Temperature 2.4, random number seed, zero linear momentum
                                                                                # Gaussian distribution

timestep 0.002   # simulation timestep
thermo 1000       # output thermodynamic data every 1000 steps bf 100

# Define a fix  in this case with index 1 applied to all
# particles in the simulation. This fix is for simulations
# in the anisotropic NPT ensemble. Note that we use the MTK
# correction.
fix 1 all npt temp 2.4 2.4 0.1 iso 5.68 5.68 0.5 mtk yes tchain 5 pchain 5 # Use NPT ensemble
                                                                         # Set temperature and pressure and damping
                                                                         # Numbers of thermostats in chain and in barostat
run 10000          # run for 10000 steps
Per MPI rank memory allocation (min/avg/max) = 3.642 | 3.644 | 3.648 Mbytes
Step Temp E_pair E_mol TotEng Press Volume 
       0          2.4   -5.7538232            0   -2.1547232    -4.186528         4000 
    1000    2.4210355   -5.0137915            0   -1.3831462    5.4909458    3865.4667 
    2000    2.4000904    -5.028805            0   -1.4295693    5.5528115    3844.9096 
    3000    2.4032546   -5.0135778            0   -1.4095972    5.8195765    3841.0961 
    4000    2.4180468   -5.0130943            0   -1.3869309    5.6158245     3869.997 
    5000    2.4365077   -5.0587527            0   -1.4049048    5.7301075    3829.9306 
    6000    2.3977675   -4.9665617            0   -1.3708097    6.0077543    3852.2297 
    7000    2.3602866   -5.0173528            0   -1.4778079    5.6650172    3852.8263 
    8000    2.4655818    -5.075099            0    -1.377651    5.6707539    3826.1794 
    9000    2.3653584   -5.1097342            0   -1.5625836    5.4909284    3820.1287 
   10000    2.3894438   -5.0536945            0   -1.4704248    5.4861869    3842.0421 
Loop time of 2.55761 on 48 procs for 10000 steps with 4000 atoms

Performance: 675629.721 tau/day, 3909.894 timesteps/s
99.6% CPU use with 48 MPI tasks x no OpenMP threads

MPI task timing breakdown:
Section |  min time  |  avg time  |  max time  |%varavg| %total
---------------------------------------------------------------
Pair    | 1.1452     | 1.2106     | 1.3697     |   3.9 | 47.33
Neigh   | 0.21053    | 0.21748    | 0.24319    |   1.2 |  8.50
Comm    | 0.69704    | 0.86849    | 0.94171    |   5.5 | 33.96
Output  | 0.00024809 | 0.00025328 | 0.00033015 |   0.0 |  0.01
Modify  | 0.20782    | 0.24486    | 0.28424    |   4.6 |  9.57
Other   |            | 0.01593    |            |       |  0.62

Nlocal:        83.3333 ave          91 max          74 min
Histogram: 2 5 4 1 6 8 2 11 7 2
Nghost:        1680.65 ave        1712 max        1664 min
Histogram: 8 11 5 7 2 6 4 2 2 1
Neighs:        9939.92 ave       10905 max        8565 min
Histogram: 2 2 5 3 6 6 7 3 7 7

Total # of neighbors = 477116
Ave neighs/atom = 119.27900
Neighbor list builds = 898
Dangerous builds = 164

# Equilibrate just above the melting temperature to avoid step fn in T

fix 1 all npt temp 1.25 1.25 0.1 iso 5.68 5.68 0.5 mtk yes tchain 5 pchain 5
run 2000
Per MPI rank memory allocation (min/avg/max) = 3.643 | 3.645 | 3.649 Mbytes
Step Temp E_pair E_mol TotEng Press Volume 
   10000    2.3894438   -5.0536945            0   -1.4704248    5.4861869    3842.0421 
   11000    1.2399216   -7.0700062            0   -5.2105888    5.4452724    3042.3473 
   12000    1.2368491   -7.1143947            0   -5.2595849    5.4015208    3035.1943 
Loop time of 0.624926 on 48 procs for 2000 steps with 4000 atoms

Performance: 553025.806 tau/day, 3200.381 timesteps/s
99.6% CPU use with 48 MPI tasks x no OpenMP threads

MPI task timing breakdown:
Section |  min time  |  avg time  |  max time  |%varavg| %total
---------------------------------------------------------------
Pair    | 0.28053    | 0.30348    | 0.33715    |   2.6 | 48.56
Neigh   | 0.038742   | 0.041926   | 0.047785   |   0.7 |  6.71
Comm    | 0.19007    | 0.22938    | 0.25756    |   3.4 | 36.70
Output  | 5.2636e-05 | 5.354e-05  | 6.8486e-05 |   0.0 |  0.01
Modify  | 0.040472   | 0.045066   | 0.05022    |   1.4 |  7.21
Other   |            | 0.005018   |            |       |  0.80

Nlocal:        83.3333 ave          94 max          75 min
Histogram: 3 3 8 3 15 7 4 3 1 1
Nghost:        1980.23 ave        2017 max        1962 min
Histogram: 4 10 10 5 10 6 1 1 0 1
Neighs:        12595.9 ave       14214 max       10590 min
Histogram: 1 1 4 8 5 5 13 5 4 2

Total # of neighbors = 604603
Ave neighs/atom = 151.15075
Neighbor list builds = 141
Dangerous builds = 7

#############################
# L I N E A R  Q U E N C H  #
#############################

# Define solid atoms. This closely follows ten Wolde  Ruiz-Montero and Frenkel  Faraday Discuss  1996  104  93-110
# Compute components of the per-atom q6 vector
compute q6 all orientorder/atom degrees 1 6 components 6 nnn NULL cutoff 1.3 # compute the Q6 parameter.
                                                                             # Use all neighbours within 1.3 unit cell.

# get number of connections
compute coord_number all coord/atom orientorder q6 0.5

# An atom is solid if it has 8 or more connections (of a possible 14)
variable is_solid atom c_coord_number>=8
group solid dynamic all var is_solid    # Must be dynamic to update
dynamic group solid defined

# do clustering
compute cluster solid cluster/atom 1.3 # Create a cluster where all atoms within are solid and max 1.3 units from another member

# define chunks one chunk per cluster
compute clus_chunks solid chunk/atom c_cluster nchunk every compress yes  # Says which atoms are in which chunk

# count the size of each chunk
compute size_chunks solid property/chunk clus_chunks count


# Find the maximum entry in the vector of chunk sizes
variable max_n equal max(c_size_chunks)


# Thermo style which includes this variable
# thermo_style custom step temp pe vol v_max_n

thermo ${N}  # Print the thermo information every 100 steps
thermo 1000  

# Reset the npt fix at a lower temperature (below freezing)
fix 1  all npt temp  ${temp} ${temp}  0.1  iso  5.68  5.68  0.5  mtk yes tchain  5  pchain  5
fix 1  all npt temp  0.45 ${temp}  0.1  iso  5.68  5.68  0.5  mtk yes tchain  5  pchain  5
fix 1  all npt temp  0.45 0.45  0.1  iso  5.68  5.68  0.5  mtk yes tchain  5  pchain  5

dump dmp2 all dcd ${N} traj.dcd
dump dmp2 all dcd 1000 traj.dcd


compute msd all msd com yes
variable twopoint equal c_msd[4]/6/(step*dt+1.0e-6)
fix 9 all vector 10 c_msd[4]
variable fit equal slope(f_9)/6/(10*dt)
thermo_style custom step temp pe c_msd[4] v_twopoint v_fit v_max_n

fix 1 all npt temp 1.25 ${temp} 0.1 iso 5.68 5.68 0.5 mtk yes tchain 5 pchain 5
fix 1 all npt temp 1.25 0.45 0.1 iso 5.68 5.68 0.5 mtk yes tchain 5 pchain 5
run 2000000 # 5000000  # Run for this many steps
Neighbor list info ...
  update every 1 steps, delay 10 steps, check yes
  max neighbors/atom: 2000, page size: 100000
  master list distance cutoff = 3.8
  ghost atom cutoff = 3.8
  binsize = 1.9, bins = 8 8 8
  4 neighbor lists, perpetual/occasional/extra = 1 3 0
  (1) pair lj/cut, perpetual
      attributes: half, newton on
      pair build: half/bin/atomonly/newton
      stencil: half/bin/3d
      bin: standard
  (2) compute orientorder/atom, occasional
      attributes: full, newton on
      pair build: full/bin/atomonly
      stencil: full/bin/3d
      bin: standard
  (3) compute coord/atom, occasional
      attributes: full, newton on
      pair build: full/bin/atomonly
      stencil: full/bin/3d
      bin: standard
  (4) compute cluster/atom, occasional
      attributes: full, newton on
      pair build: full/bin/atomonly
      stencil: full/bin/3d
      bin: standard
Per MPI rank memory allocation (min/avg/max) = 9.827 | 9.833 | 9.839 Mbytes
Step Temp PotEng c_msd[4] v_twopoint v_fit v_max_n 
   12000    1.2368491   -7.1143947 1.9447393e-30 1.3505134e-32 8.3333333e+20            2 
   13000    1.2118217   -7.1080489   0.48573477 0.0031136843  0.040215895            1 
   14000    1.2653593   -7.1154515   0.94302544 0.0056132464  0.037560162            2 
   15000    1.2625351   -7.1747539    1.3822538 0.0076791877  0.038049528            1 
   16000    1.2583234   -7.1260897    1.7689195 0.0092131223  0.036646851            3 
   17000    1.2751609     -7.13557    2.1779139  0.010676048  0.035778505            1 
   18000    1.2356907   -7.1127912    2.6310971  0.012181005  0.035748278            2 
   19000    1.2198435   -7.0640947    3.0355369  0.013313758  0.035638062            1 
   20000    1.2582602   -7.1195899    3.4996673  0.014581947  0.035579249            2 
   21000    1.2670501   -7.1141061    3.8750595   0.01537722  0.035419511            1 
   22000    1.2588933   -7.1167024    4.2674568  0.016164609   0.03520415            2 
   23000    1.2604852   -7.1227572    4.7015237  0.017034506  0.035072981            1 
   24000    1.2816205   -7.1413036    5.1132628  0.017754384  0.035013492            4 
   25000    1.2354278   -7.1998289    5.4641534  0.018213844  0.034970724            4 
   26000    1.2507109   -7.1383669    5.7981497  0.018583813  0.034708254            1 
   27000    1.2526272   -7.1826523    6.1156967  0.018875607  0.034306341            2 
   28000    1.2277604   -7.1023242    6.4695324   0.01925456  0.033924509            1 
   29000    1.2448359   -7.1139805     6.933217  0.019923037  0.033638812            3 
   30000    1.2524384   -7.1645522    7.3963391  0.020545386  0.033561855            1 
   31000    1.2414857   -7.1875089    7.8906951  0.021211546  0.033589893            1 
   32000    1.2477956   -7.1382121    8.3519853  0.021749961  0.033678726            1 
   33000    1.2285206   -7.1665859     8.777813  0.022166194  0.033820436            5 
   34000    1.2409647   -7.1945182    9.1408023  0.022403927  0.033911845            1 
   35000    1.2581971   -7.1704313    9.6529663  0.022983253  0.034040089            2 
   36000    1.2589331   -7.1056967     10.10784  0.023397777  0.034171383            2 
   37000    1.2226178   -7.1496619    10.532864  0.023722667  0.034297926            1 
   38000    1.2478265   -7.1558282      10.9447  0.024001536  0.034400842            1 
   39000    1.2597826   -7.0974439    11.354893  0.024262591  0.034495003            3 
   40000    1.2346488   -7.1843951     11.78634  0.024554875  0.034560367            1 
   41000    1.2401765   -7.1474296     12.18543  0.024767133  0.034611511            3 
   42000    1.2452127   -7.1342127    12.605188  0.025010294  0.034667622            1 
   43000    1.2522217   -7.1782123    13.124995  0.025436036  0.034752255            2 
   44000    1.2443588   -7.1519852    13.483517  0.025536963  0.034802325            2 
   45000    1.2437168   -7.1458128    13.727006   0.02542038  0.034781671            1 
   46000    1.2524833   -7.1327552    14.043514  0.025441148  0.034726575            2 
   47000    1.2345167   -7.2014262    14.461444  0.025640857  0.034663596            1 
   48000    1.2562685   -7.1551352    14.958902  0.025970316   0.03461687            2 
   49000    1.2315916   -7.2076171    15.324541  0.026062143  0.034597152            3 
   50000    1.2021727   -7.1459447    15.709447  0.026182411  0.034546697            2 
   51000    1.2127457   -7.1802635    16.077948  0.026271157  0.034491117            4 
   52000    1.2140087    -7.233476    16.424561  0.026321412  0.034431004            2 
   53000    1.2350318   -7.1503679    16.839188   0.02647671  0.034382269            1 
   54000    1.2314967   -7.1099904    17.296115  0.026691535  0.034335359            2 
   55000    1.2327507   -7.1748955    17.675111  0.026780472  0.034305908            1 
   56000     1.223535   -7.1278836    18.209463  0.027097415  0.034286574            1 
   57000    1.2677365    -7.153511    18.598073  0.027190165   0.03427659            2 
   58000     1.234644   -7.1671353    18.979701  0.027269685  0.034266606            1 
   59000    1.2324209   -7.2189715    19.335738  0.027310364  0.034258581            1 
   60000    1.2244671   -7.2085032    19.750779  0.027431637  0.034247414            3 
   61000    1.2096836   -7.1693471    20.087111  0.027441409  0.034224598            3 
   62000    1.2280291   -7.1424578    20.379031   0.02739117   0.03418533            1 
   63000    1.2096828   -7.2121071    20.677017  0.027350551  0.034120414            4 
   64000    1.2232461   -7.2008996    20.931739  0.027254868  0.034036399            2 
   65000    1.2193057   -7.2313699     21.20926  0.027191359  0.033944568            1 
   66000    1.2132037   -7.1770745    21.531962   0.02718682  0.033846026            1 
   67000     1.221811   -7.2185643    22.022048  0.027390607  0.033755454            4 
   68000    1.2246345   -7.1987925    22.467782  0.027534046   0.03368119            2 
   69000    1.2165725    -7.160677    22.966627  0.027737472  0.033625396            2 
   70000    1.2362245   -7.1835886    23.235342  0.027661121  0.033560966            1 
   71000    1.2131552   -7.1669609    23.583892  0.027680624  0.033489651            2 
   72000    1.2272664   -7.1941427    24.067171  0.027855522  0.033444176            1 
   73000    1.2265802   -7.1317303    24.433819  0.027892487   0.03340049            1 
   74000    1.2157791   -7.1772289    24.834167  0.027966404  0.033354749            2 
   75000    1.2229105   -7.1785094    25.267391  0.028074878  0.033317686            3 
   76000    1.2327754   -7.1856672    25.650672  0.028125737  0.033278252            2 
   77000    1.2145445   -7.2191799    25.875835   0.02800415  0.033234425            2 
   78000    1.2491955   -7.1889778    26.124914  0.027911232  0.033182601            1 
   79000    1.2474917    -7.212605    26.356256  0.027801957  0.033121461            2 
   80000    1.2191622   -7.1531119    26.690861   0.02780298  0.033046598            2 
   81000    1.1886237   -7.1726724    27.083369  0.027863548  0.032981613            2 
   82000    1.1981064   -7.1986542     27.59648  0.028045203  0.032923569            1 
   83000    1.2548729   -7.1480062    27.993282  0.028105705  0.032864941            4 
   84000    1.2206127   -7.1753491    28.363757  0.028138648  0.032823013            1 
   85000    1.2199577   -7.1956514     28.82016  0.028255058  0.032785244            1 
   86000    1.2236792   -7.2374808    29.212316  0.028306507   0.03275422            2 
   87000    1.2133981   -7.1932794    29.576351  0.028329838  0.032727026            1 
   88000    1.2161255   -7.1770905    30.052319  0.028458635  0.032697509            1 
   89000    1.2096952   -7.2153243    30.364737  0.028431402  0.032667258            2 
   90000    1.2442682   -7.1732692    30.804805  0.028522968  0.032637776            1 
   91000    1.1879922   -7.1550541    31.093374  0.028473786  0.032601641            1 
   92000    1.2068957   -7.2049252    31.349355  0.028396155  0.032559283            1 
   93000    1.2388777   -7.2001396    31.666011  0.028374562  0.032516974            5 
   94000    1.2310377   -7.1921561    32.126072   0.02848056  0.032482999            3 
   95000    1.2270519   -7.2025181    32.527097  0.028532541  0.032459066            1 
   96000    1.2491392   -7.1816227    32.879777  0.028541473  0.032432901            1 
   97000    1.2048486   -7.2257882    33.106843  0.028442305   0.03240439            3 
   98000    1.2283577   -7.2088733    33.430218  0.028427056  0.032366572            3 
   99000    1.2078649   -7.1973027    33.676084  0.028346872  0.032322889            1 
  100000    1.1989398   -7.2238337    33.994549  0.028328791  0.032273974            1 
  101000    1.2353522   -7.2093425    34.333454  0.028327932  0.032228452            2 
  102000    1.2184828   -7.2064387    34.746937   0.02838802  0.032184898            2 
  103000     1.210667   -7.1784686    35.204178  0.028482344  0.032141048            1 
  104000     1.202833   -7.1955027     35.48107  0.028430345  0.032101798            2 
  105000    1.2208029   -7.2279147    35.808421  0.028419382  0.032063616            2 
  106000    1.2102762   -7.2047905    36.332327   0.02856315  0.032028134            2 
  107000    1.2217983   -7.2089235    36.654819  0.028547367  0.031997196            1 
  108000    1.2011487   -7.2101771    37.052969  0.028590253  0.031964949            1 
  109000    1.2011014   -7.2039466    37.231777  0.028464661  0.031932224            2 
  110000    1.2015496   -7.2516593    37.740836  0.028591543  0.031897412            1 
  111000    1.2187899   -7.1987655    38.087249   0.02859403  0.031871386            2 
  112000    1.2095979    -7.196767    38.555294  0.028686974  0.031844966            1 
  113000    1.2097115   -7.1815284    38.796127  0.028610713  0.031814093            2 
  114000    1.2262811   -7.1825777     38.96342  0.028482032  0.031783294            1 
  115000     1.206799   -7.2013066    39.284694  0.028467169  0.031747124            2 
  116000    1.2290578   -7.1918047    39.903977   0.02866665  0.031719047            5 
  117000    1.1882724   -7.2223548    40.319561  0.028717636  0.031696396            4 
  118000    1.2046263   -7.2287332    40.734704  0.028767446  0.031676667            2 
  119000    1.2216273    -7.224403    41.089514   0.02877417  0.031656809            1 
  120000     1.215594    -7.231765    41.386864  0.028740878  0.031638795            2 
  121000    1.1764508    -7.249974    41.761218  0.028761169  0.031619713            2 
  122000    1.2143793   -7.2431786    42.451231  0.028996743  0.031607512            3 
  123000    1.2165906   -7.2045147    42.762281  0.028971735  0.031596734            2 
  124000    1.2091837   -7.2302804    43.052546  0.028933163  0.031585628            3 
  125000     1.190702   -7.2026183    43.565906  0.029043937  0.031574642            1 
  126000    1.2025189   -7.2205402    43.966195  0.029078171   0.03156566            2 
  127000    1.2226659   -7.2305651    44.121774  0.028951295  0.031556777            3 
  128000    1.2215089    -7.274121    44.347794  0.028872262  0.031542766            1 
  129000    1.2014099   -7.2500615    44.942722  0.029032766  0.031531207            3 
  130000     1.210055   -7.2020453    45.460938  0.029141627  0.031522148            2 
  131000     1.220296   -7.2303203    45.837994  0.029159029   0.03151847            2 
  132000    1.2105174   -7.2536924    46.292743  0.029225216  0.031514197            3 
  133000    1.1885372    -7.252418    46.461435  0.029111175  0.031506358            5 
  134000    1.1698356   -7.2401132    46.962165  0.029205327   0.03150226            1 
  135000    1.2006001   -7.2428923    47.630325  0.029401435  0.031501909            4 
  136000    1.2130256    -7.187835    48.049188  0.029441905  0.031504816            1 
  137000    1.2164902   -7.2308382    48.411271  0.029447245  0.031510238            3 
  138000    1.1841115   -7.2236852    48.565521  0.029327005  0.031510802            1 
  139000    1.2058874   -7.2852109    48.868914   0.02929791  0.031508589            2 
  140000    1.1957902   -7.2515771    49.258265  0.029320395  0.031507296            1 
  141000    1.2051914   -7.2680166    49.566937   0.02929488  0.031503609            2 
  142000     1.194363   -7.2064911     50.05662   0.02937595   0.03149955            4 
  143000     1.209759   -7.2735055    50.300624  0.029312718  0.031495948            2 
  144000    1.2098554   -7.2883038    50.734505  0.029360246  0.031492194            2 
  145000    1.2081055   -7.2284388    51.104482  0.029370392  0.031486812       -1e+20 
  146000    1.1813315    -7.265655    51.258996  0.029257418  0.031481476            1 
  147000    1.2297644   -7.2347266    51.730066  0.029325434  0.031476065            2 
  148000    1.2152613   -7.2243903    52.065219  0.029316002  0.031469266            4 
  149000    1.2007018   -7.2223391    52.523604  0.029375617  0.031462134            2 
  150000    1.1837039   -7.1963039    52.984849  0.029436027  0.031455228            2 
  151000     1.236325   -7.2576012    53.266004  0.029396249  0.031450682            1 
  152000    1.1886224   -7.2624863     53.79109  0.029490729  0.031447353            1 
  153000    1.2141462   -7.2293716      54.3838  0.029620806  0.031447654            1 
  154000    1.1963008   -7.2364935    54.661795  0.029578894  0.031447705            1 
  155000    1.1663631   -7.2158505    55.166244  0.029659271  0.031447608            1 
  156000    1.2095656   -7.2295149    55.220283  0.029498014  0.031444384            3 
  157000    1.2015967   -7.3187253    55.217654  0.029308734  0.031437502            3 
  158000    1.1914266   -7.2838611    55.628895  0.029340135  0.031428591            1 
  159000    1.2015381   -7.2866498    56.005261  0.029352862  0.031420418            1 
  160000    1.1863401   -7.2765617    56.292023  0.029318762  0.031407803            1 
  161000     1.192803   -7.2872819    56.458756  0.029222958   0.03139455            2 
  162000    1.1810227    -7.267131    56.597363   0.02911387  0.031378888            3 
  163000    1.1883772   -7.2420557    56.832055  0.029055243  0.031360005            3 
  164000    1.1821857   -7.2675789    57.133253  0.029031124  0.031337104            3 
  165000    1.1656279   -7.2375031     57.71206  0.029147505   0.03131541            1 
  166000    1.1761898   -7.2573605    57.724351  0.028978088  0.031292104            2 
  167000    1.1769803   -7.2981696    58.166638  0.029025268  0.031269536       -1e+20 
  168000    1.1769474    -7.263049    58.767987  0.029150787  0.031248238            2 
  169000    1.1954837   -7.2718583     59.17445  0.029178723  0.031230206            1 
  170000    1.1787386    -7.280769    59.603873  0.029217585   0.03121584            3 
  171000    1.1796883   -7.2849655    59.661419  0.029074765  0.031200297            3 
  172000    1.1899565   -7.2816882    59.932919  0.029037267   0.03118187            1 
  173000    1.1823135   -7.2760133     60.32692   0.02905921   0.03116186            2 
  174000    1.1733209   -7.2862141    60.928671  0.029180398  0.031144654            2 
  175000    1.1840434   -7.2791449     61.25689  0.029169947   0.03112708            1 
  176000    1.1724554   -7.2653088    61.510616  0.029124344  0.031107651            1 
  177000    1.1930229   -7.2352326    61.659932    0.0290301  0.031089188            1 
  178000    1.1978439   -7.3015564    62.013488  0.029032532  0.031067673            3 
  179000    1.1830529   -7.2952356     62.11291  0.028916625  0.031045756            2 
  180000    1.1905102   -7.3035931    62.549791  0.028958236  0.031021736            5 
  181000    1.1781141   -7.2981925    62.839121  0.028931455  0.030999864            1 
  182000    1.1787987   -7.2722633    63.291925  0.028979819  0.030978445            4 
  183000    1.2005161   -7.2624598    63.491844  0.028912497  0.030955557            2 
  184000    1.1637295    -7.259793    63.764503  0.028878851  0.030935107            3 
  185000    1.1792255    -7.289829    64.109059  0.028877954    0.0309146            1 
  186000    1.1804255   -7.2744531    64.530786  0.028911643  0.030893564            1 
  187000    1.1884336   -7.2716546    65.096755  0.029009249  0.030873347            2 
  188000    1.1702649   -7.3070763    65.133402  0.028871189  0.030854693            2 
  189000    1.1710539   -7.3199096    65.464891   0.02886459  0.030832588            3 
  190000    1.1740566   -7.3272944    65.882811   0.02889597  0.030811375            1 
  191000    1.1794839   -7.2870587    66.374513  0.028959211  0.030793232            2 
  192000    1.1678556      -7.2921    66.645802  0.028926129  0.030775585            1 
  193000    1.1614396    -7.324629    66.945332  0.028905584  0.030757231            1 
  194000    1.1663583   -7.3010771    67.424779  0.028962534  0.030739207            1 
  195000     1.171323   -7.2875258    67.842759  0.028992632  0.030722698            2 
  196000    1.1546917   -7.2770135    68.068044  0.028940495  0.030705161            2 
  197000    1.1713037   -7.3083018    68.407673  0.028937256  0.030687218            1 
  198000    1.1802211   -7.3384459    68.578419  0.028862971  0.030668221            2 
  199000    1.1820808   -7.3218624    68.880845  0.028844575  0.030649981            1 
  200000    1.1863317   -7.2696647    69.448541  0.028936892  0.030631246            2 
  201000    1.1772655   -7.3043308    69.692731  0.028894167  0.030612158            2 
  202000    1.1758411   -7.2485604    70.107763  0.028922344  0.030594833            3 
  203000    1.1611936   -7.2916146    70.324645  0.028868902  0.030578673            2 
  204000    1.1848004   -7.2822319    70.992376  0.029000154  0.030562125            2 
  205000    1.1544671    -7.323703    71.054674  0.028884014  0.030547703            1 
  206000     1.160494      -7.3276    71.704246  0.029006572  0.030533562            1 
  207000    1.1784596   -7.3255139    72.267941  0.029093374  0.030521855            2 
  208000    1.1572199   -7.3547106    72.403266  0.029007719  0.030510555            1 
  209000    1.1408657   -7.2850261    73.080657  0.029139018  0.030499071            1 
  210000    1.1396834   -7.2745559    73.674392   0.02923587  0.030488589            3 
  211000    1.1697511   -7.3527437    73.849018  0.029166279  0.030480816            1 
  212000    1.1611156   -7.3509867    74.117951  0.029134414   0.03047341            2 
  213000    1.1814551   -7.3319553    74.839047  0.029279752   0.03046663            2 
  214000    1.1628317   -7.3239316    75.263311  0.029308143  0.030461397            2 
  215000    1.1643986    -7.342709    75.539093  0.029278718  0.030456604            2 
  216000    1.1609044   -7.3124158    76.170776  0.029386873  0.030453321            2 
  217000    1.1617716   -7.3215356    76.504768  0.029379711  0.030451803            3 
  218000    1.1936866    -7.320021    76.742291  0.029335738  0.030450299            1 
  219000    1.1793308   -7.3017433    76.980115  0.029292281   0.03044846            1 
  220000    1.1894587   -7.3464171    77.476238   0.02934706  0.030446576            2 
  221000    1.1684767   -7.2855416    77.723165  0.029307377  0.030442791            2 
  222000    1.1699962   -7.3182284    78.140696  0.029332093  0.030438934            2 
  223000     1.195235   -7.3061081    78.591959  0.029369192  0.030434373            5 
  224000    1.1593405    -7.328364    78.460112   0.02918903  0.030428876            3 
  225000    1.1556084   -7.2868323    79.053299     0.029279  0.030423606            2 
  226000     1.205496   -7.3330706    79.344863  0.029256955   0.03041901            1 
  227000     1.164768   -7.2939617    79.799772   0.02929507  0.030414843            2 
  228000    1.1585841   -7.3201121     79.88536  0.029197865  0.030408436            4 
  229000    1.1679267   -7.3199268     80.11583  0.029154232  0.030400887            1 
  230000     1.159905   -7.3674447    80.348286  0.029111698  0.030393217            2 
  231000    1.1618908   -7.3286774     80.74405  0.029128445  0.030384859            2 
  232000    1.1537626   -7.3389405    81.074707  0.029121662  0.030375304            2 
  233000     1.161808   -7.3122686    81.350057  0.029095156  0.030364262            2 
  234000    1.1762654   -7.3492558    81.329817   0.02896361  0.030353168            2 
  235000    1.1382129   -7.3219126     81.44419  0.028880918  0.030338868            1 
  236000    1.1594544   -7.3549477    81.521747  0.028785927  0.030322129            3 
  237000     1.164194   -7.3084985    81.970509  0.028822261   0.03030601            5 
  238000    1.1626903   -7.3291693    82.446148  0.028867699  0.030292394            2 
  239000    1.1571727   -7.3238559    83.155401  0.028994212   0.03027929            1 
  240000    1.1228921   -7.3061923    83.616131  0.029033379  0.030268166            1 
  241000     1.160127    -7.338528    83.871825  0.029001323  0.030256045            1 
  242000    1.1576988    -7.400584    83.813612  0.028861437  0.030244214            5 
  243000    1.1530777   -7.3486474    84.223428  0.028883206  0.030231767            2 
  244000    1.1426389   -7.3403591    84.631592  0.028904232  0.030218471            1 
  245000    1.1472915     -7.32585     85.07866   0.02893832  0.030205184            3 
  246000    1.1507319   -7.3747513    84.988079      0.02879  0.030190742            2 
  247000    1.1612484   -7.3334865    85.483314  0.028840524  0.030176592            2 
  248000    1.1528471   -7.3468074    85.912979  0.028868608  0.030162418            2 
  249000    1.1377454   -7.3552721    86.005035  0.028783479  0.030148077            3 
  250000    1.1694614   -7.3294564    86.241608  0.028747203  0.030133574            3 
  251000    1.1580188   -7.3726525    86.686287  0.028780308  0.030120002            1 
  252000    1.1588104   -7.3583373    87.045881  0.028785013  0.030105854            2 
  253000    1.1623316   -7.2985097    87.530038  0.028830711  0.030090555            3 
  254000     1.132497   -7.3564529    87.490879  0.028704357  0.030075921            1 
  255000    1.1611583   -7.3508743     88.05487  0.028776101   0.03005979            2 
  256000    1.1509626   -7.3176771    88.025588  0.028654163  0.030044323            2 
  257000    1.1483015   -7.3258721    88.304967  0.028633258  0.030026843            1 
  258000    1.1358913   -7.3580184    88.815516  0.028687182  0.030010816            2 
  259000     1.151585   -7.3600649    89.583188  0.028823419  0.029995472            1 
  260000     1.172108   -7.3302375    89.484542  0.028680943  0.029982139            1 
  261000    1.1618843   -7.3637845    89.667858  0.028629584  0.029966719            2 
  262000    1.1676357   -7.3571281    90.007721   0.02862841  0.029951765            1 
  263000    1.1668578   -7.3463769    90.610753  0.028710632  0.029936645            2 
  264000      1.15894    -7.377402    90.630346  0.028608064  0.029922774            1 
  265000    1.1298714   -7.3612138    91.240944  0.028692121  0.029908336            2 
  266000    1.1398365   -7.3590762    91.554872  0.028682604  0.029894734            1 
  267000    1.1792851   -7.3611279    91.885493  0.028678368  0.029880694            2 
  268000    1.1369154   -7.3469721    91.908974  0.028578661  0.029866565            3 
  269000    1.1523812   -7.3840641    92.376966  0.028617399  0.029851854            1 
  270000     1.174397    -7.366582    92.527589  0.028557898  0.029837318            1 
  271000    1.1379884   -7.3312376     93.20082  0.028659539  0.029822595            1 
  272000    1.1685167   -7.3780809    93.029847  0.028501791  0.029807792            7 
  273000    1.1504899     -7.37326     93.23637   0.02846043  0.029791223            2 
  274000    1.1144183   -7.3718305    93.647728  0.028481669  0.029774957            2 
  275000    1.1567619   -7.3950167     93.63231  0.028373427  0.029758364            4 
  276000    1.1420706   -7.3527065    93.769374  0.028312009  0.029740429            2 
  277000    1.1589629   -7.3891095    93.960685  0.028267354  0.029721139            2 
  278000    1.1219206   -7.4006559    94.104355  0.028208739  0.029699366            1 
  279000    1.1325335   -7.4118485    94.315378  0.028170663  0.029677491            4 
  280000    1.1565787   -7.3974477    95.163596  0.028322499  0.029657388            3 
  281000    1.1530786   -7.3736471    95.280499  0.028256376  0.029636753            3 
  282000    1.1476196   -7.3456188    95.340175  0.028173811  0.029617623            2 
  283000    1.1493249   -7.3903204    95.824028  0.028216734  0.029598095            5 
  284000    1.1549922    -7.374881    96.237839  0.028238803  0.029578034            2 
  285000    1.1393629   -7.3939644    96.599298  0.028245409  0.029558484            1 
  286000    1.1581868   -7.3347423    96.711813  0.028179433  0.029539756            1 
  287000     1.138361   -7.3648146     96.98043  0.028159242  0.029519576            1 
  288000    1.1397415   -7.3930327    97.382532  0.028177816  0.029498997            2 
  289000    1.1499367   -7.3725857    97.354197  0.028072144  0.029477922            3 
  290000    1.1297258   -7.3572959    97.740478  0.028086344  0.029457856            2 
  291000    1.1663527   -7.3805617    98.006159   0.02806591   0.02943716            1 
  292000    1.1325086   -7.4196834    98.259596  0.028042122   0.02941496            1 
  293000    1.1403183   -7.3803756    98.447201  0.027999773  0.029394549            1 
  294000    1.1221045   -7.3914246    99.064464  0.028079497   0.02937439            2 
  295000    1.1260592   -7.3943332    99.446116  0.028092123  0.029355116            5 
  296000    1.1578619    -7.396884    99.238231  0.027938691  0.029335268            2 
  297000    1.1415347   -7.3666726    100.14408  0.028098788  0.029316151            4 
  298000      1.13643   -7.3724522    100.74403  0.028172267  0.029297855            5 
  299000    1.1432377   -7.3755934    100.94405  0.028133792  0.029280739            1 
  300000    1.1277094   -7.3860273    101.25672  0.028126868  0.029263764            4 
  301000    1.0877003    -7.425513     101.1825  0.028012875  0.029246772            1 
  302000    1.1277804   -7.3915499    101.56667  0.028026124  0.029229568            2 
  303000    1.1185823   -7.4370292     101.5697  0.027934462  0.029211788            1 
  304000    1.1080973   -7.3824329    102.28393  0.028038358  0.029194542            4 
  305000    1.1255848   -7.3526628    102.87097  0.028106822  0.029177569            2 
  306000    1.1120779   -7.4403391    102.93899  0.028033494  0.029161574            2 
  307000    1.1017391   -7.4463034    103.09625  0.027984866  0.029144818            1 
  308000    1.1291227   -7.4262667    103.67075  0.028049445  0.029128218            1 
  309000    1.1262201   -7.3850859    103.98257  0.028042764  0.029111876            1 
  310000    1.1115266   -7.3974401    104.25119  0.028024514  0.029094701            1 
  311000    1.1808681   -7.3969083     104.8752  0.028101608  0.029077712            2 
  312000    1.1455632   -7.3879725    104.73537  0.027974192  0.029059842            1 
  313000    1.1226784   -7.4243648    104.77507  0.027895386  0.029042764            2 
  314000    1.1390926   -7.4039828    104.83445  0.027822306  0.029025606            2 
  315000    1.1204367   -7.3803663    105.86176  0.028005756  0.029008166            2 
  316000    1.1561574   -7.4408804    105.39643  0.027794418   0.02899013            2 
  317000    1.1388039   -7.4150335    106.16011  0.027907494  0.028972156            1 
  318000    1.1497607   -7.3956841    106.07347  0.027797031  0.028954309            2 
  319000    1.1290711   -7.4060771     106.3096  0.027771577   0.02893578            3 
  320000    1.1195637   -7.4129291    106.65193  0.027773939  0.028917374            1 
  321000    1.1233806   -7.3758989    107.20761  0.027831674  0.028899796            3 
  322000    1.1584964   -7.3959935    106.94713  0.027677827  0.028880895            1 
  323000    1.1209938   -7.4016181    107.19464  0.027655996  0.028861486            2 
  324000    1.1187518   -7.4559462    107.60784  0.027676914  0.028842292            2 
  325000     1.141418    -7.400312    108.23032  0.027751364  0.028824545            2 
  326000    1.1471779   -7.4182652    107.93851  0.027591645  0.028806898            1 
  327000    1.1270488   -7.3642157    108.97001  0.027770135  0.028789346            1 
  328000    1.1242666   -7.4251244     108.8684  0.027659654  0.028770913            2 
  329000    1.1063484   -7.4436195    108.80991  0.027560768   0.02875192            2 
  330000    1.0933043   -7.4442908    109.47511  0.027645229  0.028733721            1 
  331000    1.1324567   -7.4246433    110.01462  0.027697537  0.028716449            2 
  332000    1.1251077   -7.3971457    110.45755  0.027725288  0.028699565            1 
  333000    1.0953815    -7.426681    110.81148    0.0277306  0.028682515            3 
  334000    1.1215712   -7.4021626     110.9155  0.027673529  0.028665802            2 
  335000    1.1217652   -7.4287183    111.37529  0.027705295   0.02865001            1 
  336000    1.1270341   -7.4114891     111.9716  0.027770733  0.028634735            1 
  337000    1.1195742   -7.4120366    112.31884  0.027774193   0.02862054            2 
  338000    1.1071534    -7.475265     112.1104  0.027640631  0.028606354            1 
  339000    1.1215818   -7.4499529    112.80155  0.027728995  0.028592271            4 
  340000    1.1106517   -7.4595056    112.52118  0.027578721  0.028577855            1 
  341000     1.106451   -7.4348098    113.38607  0.027709205  0.028562678            1 
  342000    1.1469654   -7.4334082    113.46544  0.027647524  0.028548196            2 
  343000    1.1121463   -7.4095779    114.01727  0.027700989   0.02853371            3 
  344000    1.1334085   -7.4536264    114.43274  0.027721109  0.028519537            2 
  345000    1.1215939   -7.4636266    114.38222  0.027628555  0.028504578            1 
  346000    1.1408111   -7.4437839    114.79364  0.027647793  0.028489106            4 
  347000    1.1035342   -7.4601461    115.23699  0.027674589  0.028475101            2 
  348000    1.1234683   -7.4075492    115.58486  0.027678366  0.028460596            2 
  349000      1.08976    -7.484208    115.45592  0.027568271  0.028445632            2 
  350000    1.1141957   -7.4465302     115.8471  0.027582642  0.028431123            3 
  351000    1.1432675   -7.4726016    116.17019  0.027580767  0.028416691            1 
  352000    1.1127318   -7.4438189    116.69506  0.027626672  0.028402608            1 
  353000    1.1382765   -7.4870302    116.54228  0.027512341  0.028387957            1 
  354000     1.086932   -7.4380276    117.13844  0.027574962  0.028373491            2 
  355000    1.1034002   -7.4104673     117.7966  0.027651784  0.028359757            1 
  356000     1.107077   -7.4139388    118.23128  0.027675861  0.028345995            1 
  357000    1.1161572   -7.4635576    117.84928  0.027509169  0.028331732            2 
  358000    1.0920717    -7.487056    118.02017  0.027472107  0.028317534            2 
  359000    1.0784201   -7.4459054    118.62199   0.02753528  0.028302339            1 
  360000    1.1037901    -7.452241    118.33629  0.027392659  0.028286774            1 
  361000    1.0944999   -7.4496403      118.403   0.02733218  0.028270695            2 
  362000    1.1156286   -7.4287975    119.25332  0.027452422  0.028254241            2 
  363000    1.1094193   -7.4449889    119.26412  0.027379274  0.028238572            2 
  364000    1.0987018   -7.4823277    119.34222  0.027321937  0.028222021            1 
  365000    1.1150462   -7.4912533    119.63414  0.027313731  0.028205619            2 
  366000    1.0894857   -7.4479541    119.98752  0.027319562  0.028189183            4 
  367000    1.1063328   -7.4551272    120.11438  0.027273928  0.028172652            2 
  368000    1.0905868   -7.4794439    120.31713  0.027245727  0.028156032            1 
  369000    1.1108276   -7.4151241    120.81088  0.027283395  0.028140189            2 
  370000     1.084225   -7.4624193    121.24193  0.027306741  0.028124346            2 
  371000    1.1252941   -7.4638082    121.48443  0.027287608  0.028108198            3 
  372000     1.096808   -7.4804436    121.66272  0.027254194  0.028091627            2 
  373000     1.137629   -7.4647101     121.8015  0.027212132  0.028074482            1 
  374000    1.1035843   -7.4655729    121.93785  0.027169752  0.028058031            2 
  375000    1.1284009   -7.4879232    121.99759  0.027110576  0.028039954            1 
  376000    1.0970072   -7.4834311    122.08577  0.027058017  0.028021736            4 
  377000    1.0949933   -7.4960201    122.34411  0.027043348  0.028003131            2 
  378000    1.0709211   -7.4876308    122.57458  0.027022614  0.027985566            2 
  379000    1.0960075   -7.4882043    122.75217  0.026990362  0.027968018            1 
  380000    1.1075247   -7.4679499    123.36419  0.027053549   0.02795049            2 
  381000    1.0822165   -7.4340309    123.32714  0.026974439  0.027933131            3 
  382000    1.1198581   -7.4837561    123.28923  0.026895556  0.027915657            4 
  383000    1.0825477    -7.492116       124.29  0.027043082  0.027897818            2 
  384000     1.107198   -7.4711402    124.47387  0.027012559   0.02788059            1 
  385000    1.1253881   -7.5191015    124.40784  0.026928103  0.027863427            2 
  386000    1.0881701   -7.4902683    124.94072  0.026973385  0.027846407            5 
  387000    1.0955938   -7.4994354    124.74962  0.026862537  0.027829148            1 
  388000    1.1212343   -7.4789687    124.99132  0.026845214  0.027812123            3 
  389000    1.1092982   -7.4664932    125.29127  0.026840461  0.027794299            1 
  390000    1.0874633   -7.5176097    125.61329  0.026840447  0.027776455            1 
  391000    1.0994418   -7.4473236    126.32759  0.026924038  0.027759141            2 
  392000    1.0998397   -7.4758244    126.66619  0.026927336  0.027741826            1 
  393000    1.1125683   -7.4929088    125.75255  0.026665087  0.027724297            2 
  394000    1.0915629   -7.5301127    126.69164  0.026796032  0.027706793            2 
  395000    1.1021953   -7.4913116    127.03155  0.026799905  0.027689206            1 
  396000    1.0836593   -7.4803168     127.5835   0.02684838  0.027671547            2 
  397000    1.0983884   -7.4958192    127.88427  0.026843886   0.02765381            2 
  398000    1.0872897    -7.503131    127.79544  0.026757839  0.027636233            7 
  399000    1.1063911    -7.480654     127.9927  0.026731976  0.027618724            3 
  400000    1.1083635   -7.5161649    128.29394  0.026727904  0.027600975            2 
  401000    1.0852259   -7.4971194    128.78367  0.026763023  0.027583067            6 
  402000     1.094014    -7.477771    128.75456  0.026690414  0.027565325            1 
  403000    1.1055614   -7.4832029    128.86116  0.026646229  0.027548018            3 
  404000    1.0968092   -7.5570399    128.87024  0.026582146  0.027529566            3 
  405000    1.0772512   -7.5142574    129.66659  0.026680368  0.027511399            1 
  406000    1.0994351   -7.4884845    129.48806  0.026578009  0.027494173            3 
  407000    1.0980835   -7.4966218    130.19358  0.026657163  0.027476545            1 
  408000    1.0867854    -7.496166    130.62409  0.026679756  0.027459605            3 
  409000    1.0722035   -7.5101479    130.52203   0.02659373  0.027442543            1 
  410000    1.0966797   -7.5264118    130.49248  0.026522863   0.02742484            3 
  411000    1.0709722   -7.4853564    130.96874  0.026554894  0.027407104            3 
  412000    1.1104253   -7.5196792    130.98944  0.026494628  0.027388576            2 
  413000    1.0924847   -7.4873199    131.41697  0.026516742  0.027370396            2 
  414000    1.0762082    -7.532713    131.86241  0.026542353  0.027352239            2 
  415000    1.0919268   -7.5559224    131.39977  0.026385496  0.027333885            1 
  416000    1.1071706   -7.5131369    132.12258  0.026466863  0.027315571            1 
  417000    1.0788213   -7.5179143    132.31945  0.026442737  0.027297307            1 
  418000    1.0658391   -7.5271595    132.84708  0.026484665  0.027278876            3 
  419000    1.0849209   -7.5117374    132.66465  0.026385172  0.027261389            2 
  420000    1.0996783   -7.4727716    133.69451  0.026526688  0.027243692            1 
  421000    1.0670208   -7.5258733    133.31987  0.026389523  0.027226335            3 
  422000    1.0735504   -7.5146269    133.29966  0.026322999  0.027209397            3 
  423000    1.0897248   -7.5075684     133.9934  0.026397439  0.027191977            1 
  424000    1.0718074    -7.544259    133.40699  0.026219927  0.027174121            1 
  425000    1.0862849   -7.5333428    134.27675  0.026328775  0.027156266            2 
  426000    1.0576528   -7.5558289    134.23162  0.026258141  0.027138473            1 
  427000    1.0825586   -7.5558952    134.38853  0.026227269  0.027120148            4 
  428000    1.0798858   -7.5555248    134.71158  0.026228891  0.027102073            3 
  429000    1.0777608   -7.5158133    135.30707  0.026283425  0.027083871            1 
  430000    1.0902622    -7.528182    135.40846  0.026241949  0.027065501            2 
  431000    1.0888749   -7.5143796    135.86457  0.026269252   0.02704754            1 
  432000    1.0873636   -7.5461896    135.98821  0.026232294   0.02702965            1 
  433000    1.0958891    -7.532871    136.08128  0.026189622  0.027011163            2 
  434000    1.0920018   -7.5313509    136.63328  0.026235269  0.026993522            1 
  435000    1.0816924   -7.4958574    136.76228  0.026199671  0.026975604            1 
  436000    1.0738624   -7.5476234    136.80884  0.026148479  0.026957668            4 
  437000    1.0807738   -7.5007555    137.28974  0.026180347   0.02693955            1 
  438000    1.0896031   -7.5282977    137.34039  0.026130211   0.02692141            1 
  439000    1.0784457   -7.5438364    137.79308  0.026156621  0.026903509            2 
  440000    1.0977337   -7.5171002    138.54091  0.026238808  0.026886072            1 
  441000    1.0917757   -7.5440842    138.56125  0.026183153  0.026869274            3 
  442000    1.0847309   -7.5031244     139.1637    0.0262375  0.026852328            1 
  443000    1.0614356   -7.5144293     138.9433  0.026136814  0.026835315            1 
  444000    1.0785008     -7.50105    139.83139   0.02624463  0.026818795            3 
  445000    1.0752847    -7.538471    139.06489  0.026042114  0.026802384            1 
  446000    1.0723551   -7.5139487    139.73436  0.026108812  0.026785867            2 
  447000    1.0484219   -7.5058195    139.82202  0.026066746  0.026769096            1 
  448000    1.1023354    -7.510704    140.33387   0.02610377  0.026752688            2 
  449000    1.0854049    -7.553318    140.47849  0.026072473  0.026736015            2 
  450000    1.0634805   -7.5557632    140.13248   0.02595046  0.026719508            4 
  451000    1.0807644   -7.5273958    141.37866  0.026123182  0.026703176            2 
  452000    1.0942473    -7.533892    141.11566  0.026016898  0.026687187            7 
  453000    1.0914294   -7.5833479    141.17853  0.025971031  0.026671318            2 
  454000    1.0712376   -7.5305777    141.76145  0.026020824  0.026655437            1 
  455000    1.0887869   -7.5302497    142.46992  0.026093392  0.026639699            2 
  456000     1.067139    -7.555929    142.08983  0.025966708  0.026623669            2 
  457000    1.0618958   -7.5284977    142.54736  0.025993319  0.026607596            3 
  458000    1.0702325   -7.5247567    143.13163  0.026042873  0.026591151            1 
  459000    1.0681778    -7.589897    142.37884  0.025849462  0.026574749            2 
  460000      1.07345   -7.5668779    143.01929  0.025909292   0.02655825            2 
  461000    1.0914477   -7.5262644    143.58057   0.02595455  0.026542101            3 
  462000    1.0652775   -7.5434141    143.71578   0.02592276  0.026526059            1 
  463000    1.0707547   -7.5960738    143.54147  0.025835399  0.026509799            3 
  464000    1.0718653   -7.5298436    144.14954  0.025888926   0.02649353            3 
  465000    1.0611319    -7.549821    143.88551  0.025785934  0.026477049            1 
  466000    1.0687755   -7.5394304    144.36185  0.025815781  0.026460067            1 
  467000    1.0525426    -7.510195    144.84789  0.025847232  0.026443273            2 
  468000     1.069235   -7.5761447    144.95866  0.025811727  0.026426519            4 
  469000     1.082456   -7.5748544    144.18079  0.025618477  0.026409194            3 
  470000     1.063317   -7.5525275     144.7518  0.025665212  0.026391435            2 
  471000     1.049062   -7.5551352    144.93903  0.025643849  0.026373456            1 
  472000    1.0827335   -7.5762384    144.84042  0.025572107   0.02635548            1 
  473000    1.0641358   -7.5469546    145.59452  0.025650903  0.026337067            1 
  474000    1.0589603   -7.5695523     146.2027  0.025703709  0.026319673            4 
  475000    1.0522791   -7.5607991    145.96905  0.025608604  0.026302459            2 
  476000    1.0643625   -7.5420864    146.92814  0.025722713  0.026285305            2 
  477000    1.0778966   -7.5911813    146.60889  0.025613013  0.026268498            1 
  478000     1.061821   -7.5778181    146.85902  0.025603037  0.026251537            5 
  479000    1.0445493   -7.5491006    147.00228   0.02557451  0.026234743            2 
  480000    1.0467637   -7.5557429    147.04562  0.025528753  0.026217432            2 
  481000    1.0818889   -7.6125466     147.1513  0.025493988  0.026200829            3 
  482000     1.051176   -7.5704556    147.64948  0.025527226  0.026184492            2 
  483000    1.0684179   -7.6100205    147.51818  0.025451722  0.026167856            2 
  484000    1.0219285   -7.6118232    148.61793  0.025588486  0.026150761            2 
  485000    1.0824285   -7.5710262    148.31801  0.025484194  0.026133646            4 
  486000     1.067503   -7.5958261    148.40189  0.025446139  0.026116916            4 
  487000    1.0891578   -7.5919043    149.42661  0.025569236  0.026100633            2 
  488000    1.0500958    -7.554304    149.34008  0.025502063  0.026084025            1 
  489000    1.0753459    -7.597568     149.7486   0.02551953  0.026068183            2 
  490000    1.0535256   -7.5294982    150.42823  0.025583032  0.026052751            3 
  491000    1.0416948   -7.5838855    150.30071  0.025509286  0.026037013            2 
  492000    1.0600462   -7.5450105    151.14974  0.025601243  0.026021239            2 
  493000    1.0736939   -7.5874552    150.53841  0.025445978  0.026005099            1 
  494000    1.0519588   -7.5935181    150.53604  0.025394069  0.025989286            1 
  495000    1.0839352   -7.5557349    151.24852  0.025462713  0.025973441            2 
  496000    1.0558743   -7.5760489    151.46921  0.025448455  0.025958335            1 
  497000    1.0635867   -7.5781246    151.80616  0.025453749  0.025943067            2 
  498000     1.056039    -7.565544    152.02985  0.025440069  0.025927259            5 
  499000    1.0825191   -7.5937786    151.93538  0.025373309  0.025911545            4 
  500000    1.0801214   -7.5861098    152.41429  0.025402381  0.025895857            2 
  501000    1.0563296   -7.6003921    152.61367  0.025384842  0.025880147            6 
  502000    1.0247936   -7.6159718    152.93284  0.025387258  0.025864366            2 
  503000    1.0386919    -7.610465    153.00336  0.025348469  0.025848764            1 
  504000    1.0498982   -7.5882212    152.93867  0.025287479  0.025832299            3 
  505000     1.055227    -7.547368    153.85826  0.025389152  0.025816206            1 
  506000    1.0490254   -7.5533671    153.49876   0.02527977  0.025800295            3 
  507000    1.0581638   -7.6046005    153.87584  0.025291887  0.025784992            2 
  508000    1.0355503   -7.6184733    154.13526  0.025284655  0.025769424            2 
  509000    1.0653229   -7.6092662    154.22497  0.025249667  0.025753753            3 
  510000    1.0475563      -7.6079     154.4704  0.025240261  0.025738379            1 
  511000     1.039496   -7.6109352    154.87286    0.0252565  0.025722757            2 
  512000    1.0654772    -7.643699    155.12786  0.025248675  0.025707386            2 
  513000    1.0562093   -7.6272457    154.76981  0.025141295   0.02569168            1 
  514000     1.071097   -7.5972686    155.30831  0.025179687  0.025675739            3 
  515000    1.0293495   -7.6198514    155.79357  0.025209316  0.025660152            2 
  516000    1.0562349    -7.590302    155.83878  0.025167762  0.025644689            4 
  517000    1.0649395   -7.6371867    155.59482  0.025079758  0.025628925            2 
  518000    1.0267448   -7.6260747    156.13286  0.025117899  0.025613289            2 
  519000    1.0206714   -7.5824167     156.6798  0.025157322  0.025598001            1 
  520000    1.0541881   -7.6081043    157.44457  0.025231502  0.025583392            2 
  521000    1.0636415   -7.6069372    157.79604   0.02523929  0.025568991            2 
  522000    1.0454009   -7.5962928    157.72372  0.025179393  0.025554607            1 
  523000    1.0569131   -7.6121894    157.99746  0.025174866  0.025540055            2 
  524000    1.0250088   -7.6661704    157.71749  0.025082298  0.025525368            2 
  525000    1.0221479   -7.6085178    158.29359  0.025125966  0.025510616            2 
  526000    1.0632026   -7.6367935    157.74829  0.024991808  0.025495263            2 
  527000    1.0500766   -7.6485907    158.34225  0.025038306  0.025480234            4 
  528000    1.0436034   -7.6367714    158.71444  0.025049627  0.025465474            1 
  529000    1.0235052   -7.6505285     158.7345  0.025005435  0.025450799            2 
  530000    1.0424274   -7.6191424    159.47973  0.025075429  0.025435815            3 
  531000    1.0407893   -7.6573961    158.74236  0.024912486  0.025421096            2 
  532000    1.0328153   -7.6445224    159.91505  0.025049349   0.02540585            5 
  533000    1.0528157   -7.6466662    159.87755  0.024996491  0.025390833            2 
  534000    1.0258476   -7.6671706    159.37341  0.024871007  0.025375818            5 
  535000    1.0451566   -7.6058289    160.36204  0.024978511  0.025360855            5 
  536000    1.0295666   -7.6881488    159.77714  0.024840973   0.02534576            3 
  537000    1.0704194   -7.6304334    160.53415  0.024912189  0.025329982            1 
  538000    1.0338062   -7.6736376    159.76799  0.024747211  0.025314362            1 
  539000    1.0412084   -7.6294175    160.92346  0.024879941  0.025299014            3 
  540000     1.049713   -7.6468928     161.0362  0.024851266  0.025284241            1 
  541000    1.0373666   -7.6378006    160.89718  0.024783915  0.025268565            1 
  542000    1.0520114   -7.6494822    161.38542  0.024813256  0.025252688            3 
  543000    1.0643369   -7.6301508    161.75646  0.024824503  0.025237204            8 
  544000    1.0601265    -7.650413    162.10771  0.024832676  0.025222121            2 
  545000    1.0160293   -7.6374632    162.68024  0.024874655  0.025207533            3 
  546000    1.0182318   -7.6290368    162.09486  0.024739752  0.025192442            1 
  547000    1.0337111   -7.6126914    162.57457  0.024767606  0.025177161            2 
  548000    1.0157989    -7.657394    162.28871  0.024678941  0.025161654            3 
  549000    1.0325363   -7.6397563    162.86289  0.024721143  0.025146106            1 
  550000     1.026982   -7.6216113    163.47624  0.024769127  0.025130536            3 
  551000    1.0418968   -7.6451976    163.44275   0.02471911  0.025114753            6 
  552000    1.0391814   -7.6431378    163.11795  0.024625294  0.025098974            2 
  553000    1.0200503   -7.6868209      163.759  0.024677365  0.025083056            3 
  554000    1.0229656   -7.6556459    163.76343  0.024633488   0.02506758            4 
  555000    1.0172416   -7.6665079     163.8212  0.024597778  0.025052077            3 
  556000    1.0528878   -7.6680824    164.05135  0.024588033  0.025036847            4 
  557000    1.0028641   -7.6401764    164.97171  0.024681584  0.025021672            4 
  558000    1.0351818   -7.6510532    164.95066  0.024634209  0.025007147            3 
  559000    1.0530995   -7.6593372    165.00592  0.024598378  0.024992356            2 
  560000    1.0288563   -7.6799284    164.83423  0.024528904   0.02497695            1 
  561000    1.0393894   -7.6611403    164.78913   0.02447848  0.024961448            4 
  562000    1.0398148   -7.6925448    164.97251  0.024462116  0.024946251            1 
  563000    1.0393293   -7.6281575    165.67824  0.024523126  0.024930626            4 
  564000    1.0131075   -7.6611967    165.52079  0.024456382  0.024915028            1 
  565000    1.0250136   -7.6659147    165.52413  0.024413588  0.024899586            3 
  566000    1.0121605   -7.6929252    165.99207  0.024439351  0.024883698       -1e+20 
  567000    1.0143336   -7.6724318    165.96274  0.024391937   0.02486787            6 
  568000    1.0480311   -7.6858472    166.45814  0.024421676  0.024851998            2 
  569000    1.0406459   -7.6628985    166.57662  0.024396108  0.024836106            2 
  570000    1.0164344   -7.6501986    166.35809  0.024321358  0.024820482            2 
  571000    1.0623789   -7.6680591    167.25494  0.024409652  0.024804486            2 
  572000    1.0155904   -7.6874328    166.72164  0.024289283  0.024788543            2 
  573000    1.0152319   -7.6730223    166.84153  0.024264329  0.024772407            2 
  574000     1.044021   -7.6727861    167.45107   0.02431055  0.024756257            1 
  575000    1.0354882   -7.6268367    168.10723  0.024363366  0.024740396            3 
  576000    1.0121361   -7.6629261    167.97375  0.024301758  0.024724329            3 
  577000    1.0265959   -7.6997314    167.45634  0.024184914  0.024707938            3 
  578000    1.0378683   -7.6483655     167.6373   0.02416916  0.024691029            2 
  579000    1.0451883   -7.7095207    167.55073  0.024114959  0.024674325            2 
  580000    1.0236021   -7.6657571    168.24812  0.024173581  0.024657292            1 
  581000    1.0293173   -7.7177033    167.88119  0.024079344  0.024640054            3 
  582000    1.0169188   -7.6833722    168.12481  0.024072853  0.024622927            2 
  583000    1.0156522   -7.6368386    168.59716  0.024099079  0.024605714            2 
  584000    1.0165175   -7.6545623    168.90143  0.024101232  0.024588666            2 
  585000    1.0179119   -7.6703794    168.92735  0.024063725   0.02457155            2 
  586000    1.0240785   -7.6411992    169.03542  0.024038029  0.024554505            1 
  587000    1.0161681   -7.6971146    168.92865  0.023981921  0.024537606            2 
  588000    1.0239447   -7.6891848    169.03804  0.023956638  0.024520337            1 
  589000    1.0076618   -7.6657144    169.18683  0.023937017  0.024503174            2 
  590000     1.031475   -7.6803445    170.21054  0.024041037  0.024486404            5 
  591000     1.020783    -7.721902    169.34202  0.023877894  0.024469583            1 
  592000     1.022878   -7.6992127    169.71694  0.023890335  0.024452638            3 
  593000    1.0228525   -7.6934198    169.55277  0.023826978  0.024435733            3 
  594000    1.0089893   -7.6879881    170.45992  0.023914131  0.024418765            3 
  595000    1.0167757   -7.6745711    170.95445  0.023943201  0.024402199            2 
  596000    1.0048268   -7.6547902    171.12592  0.023927002  0.024385526            3 
  597000    1.0078997   -7.7349715    170.81832  0.023843986  0.024368512            2 
  598000    1.0339611    -7.702948    170.85539   0.02380928  0.024351438            2 
  599000   0.99788385   -7.7159912    171.36167  0.023839966  0.024334529            3 
  600000    1.0277575   -7.6932583    171.60811   0.02383446  0.024317344            1 
  601000    1.0037144   -7.6971898     171.2228  0.023741375  0.024300174            5 
  602000   0.99978762   -7.7368398    171.24302  0.023704736  0.024282981            2 
  603000    1.0085525   -7.7189752    171.61444  0.023716756  0.024265647            2 
  604000    1.0049726   -7.7454023    171.49388  0.023660855  0.024248169            1 
  605000   0.99216922   -7.6960737     171.9424  0.023683526  0.024230362            2 
  606000    1.0085014   -7.6847496     172.1872  0.023678108  0.024212825            3 
  607000    1.0318209   -7.7143147    172.06615  0.023622481  0.024195291            4 
  608000    1.0134679   -7.7226761     171.3864   0.02349046  0.024177367            5 
  609000   0.98694566   -7.7061127    171.83886  0.023513801  0.024158889            1 
  610000    1.0083955   -7.6961711    172.44812  0.023558486  0.024140522            2 
  611000    1.0121997   -7.6838208    172.46287   0.02352194  0.024122345            9 
  612000    1.0141082   -7.7245355    172.33408   0.02346597  0.024103928            2 
  613000   0.99795658   -7.6916215    172.41164  0.023438232  0.024085553            2 
  614000     1.014295   -7.7255604    172.47571  0.023408755  0.024067232            1 
  615000    1.0045731   -7.7417983    172.83047  0.023418763  0.024048833            1 
  616000    1.0115663   -7.7359823    172.98464  0.023401602  0.024030267            2 
  617000    1.0058567   -7.7232304    173.20666   0.02339366  0.024011806            2 
  618000    1.0234473   -7.7490236    173.47674  0.023392224  0.023993391            3 
  619000    1.0156852   -7.7413415    173.08875  0.023302202  0.023975155            1 
  620000   0.98466988   -7.7386119    173.49673  0.023319453  0.023956566            1 
  621000    1.0045825   -7.7211689    173.86688  0.023331572  0.023938057            2 
  622000     1.013587   -7.7445811    173.68576  0.023269796  0.023919461            2 
  623000    1.0035822   -7.7038135    173.89143  0.023259955  0.023901102            3 
  624000    1.0179419   -7.7264792    174.45973  0.023298575  0.023883041            2 
  625000    1.0110241    -7.736981    174.46155   0.02326154  0.023864878            1 
  626000    1.0109975   -7.7082522    175.67059  0.023385329   0.02384727            1 
  627000    1.0115356    -7.708096    175.04768  0.023265242  0.023829775            3 
  628000    1.0047805   -7.7338566    174.90202  0.023208867  0.023812174            2 
  629000    1.0307857   -7.7437989    175.16756  0.023207149  0.023794078            4 
  630000   0.99867738   -7.7031156     175.9867  0.023278664   0.02377615            2 
  631000   0.99746481   -7.7498601    175.65112  0.023197454  0.023758244            4 
  632000   0.99039337   -7.6931896    176.33725  0.023251219  0.023740595            2 
  633000      1.01557   -7.6812414    176.78609  0.023273577   0.02372337            3 
  634000   0.99349929   -7.7324628    176.87993  0.023249202  0.023705924            3 
  635000   0.98826074   -7.7352351    176.79306  0.023201189  0.023688143            1 
  636000    1.0274516   -7.7408064    175.99186   0.02305973  0.023670134            3 
  637000    1.0104896    -7.742486    176.42719  0.023080481  0.023652231            2 
  638000   0.99917619   -7.7138555    177.01568  0.023121171  0.023634695            2 
  639000    1.0040033    -7.766967    176.75741  0.023051306  0.023616457            3 
  640000    1.0102341   -7.7735652    176.62695  0.022998301  0.023598261            2 
  641000   0.99129675   -7.7134967     177.3513  0.023056591  0.023580407            2 
  642000   0.99413864   -7.7093508    177.36963  0.023023057  0.023562552            2 
  643000   0.98041611   -7.7556147    177.47667  0.023001124  0.023544826            1 
  644000    1.0034275   -7.7317295    177.81529  0.023009225  0.023527275            2 
  645000   0.98829498   -7.7337247    178.00696  0.022998315  0.023509737            1 
  646000    1.0098767   -7.7235409    178.47697  0.023023344  0.023492317            1 
  647000   0.97832786   -7.6912989    178.43585  0.022982465  0.023474823            3 
  648000    1.0008624   -7.7399774       178.89  0.023005402  0.023457307            2 
  649000    1.0123717   -7.7444689    179.42941  0.023039215  0.023440121            2 
  650000    1.0028439   -7.7757683    179.46355  0.023008147  0.023423191            2 
  651000    1.0041569   -7.7553782    179.83081  0.023019817  0.023406522            3 
  652000   0.98295204   -7.7796886    180.01385  0.023007905  0.023389852            2 
  653000   0.99574095   -7.7617836    179.48639  0.022905358  0.023373412            4 
  654000   0.97451646   -7.7831187    180.21268   0.02296288  0.023356994            4 
  655000   0.99480493   -7.7826088    179.88049  0.022885559  0.023340214            2 
  656000   0.99662576   -7.7663301    180.22058  0.022893875  0.023323511            3 
  657000    1.0028989   -7.7844918    180.76718  0.022928359  0.023306628            2 
  658000    1.0070934   -7.7638699     180.4408  0.022852179  0.023289862            3 
  659000   0.98575286   -7.7318244    181.06958  0.022897014  0.023273328            2 
  660000    0.9791184   -7.7498694    181.54407  0.022922231  0.023256876            9 
  661000   0.97689593   -7.7686756    181.55281  0.022888655  0.023240408            2 
  662000    1.0029272   -7.7701832    181.08576  0.022795287  0.023223939            3 
  663000    1.0058596   -7.7983165    181.02253  0.022752958  0.023207308            2 
  664000   0.98907243   -7.7889678    181.67658  0.022800776  0.023190607            2 
  665000   0.99568504   -7.7943729    181.37651  0.022728886  0.023173639            2 
  666000   0.97762617   -7.7648826    181.77944  0.022745175  0.023156383            2 
  667000   0.97813449   -7.7562333    181.94215  0.022731404  0.023139299            3 
  668000   0.97465212   -7.7552988    181.99136  0.022703513  0.023122073            6 
  669000   0.99954491   -7.7947537    181.30261  0.022583783  0.023104663            3 
  670000   0.99581172   -7.7799406    181.52754  0.022578052  0.023087296            3 
  671000     0.977645   -7.7199708     182.0732  0.022612171  0.023069862            1 
  672000   0.99507142     -7.78551    181.67684   0.02252937  0.023052422            5 
  673000   0.98189263   -7.7960247    181.94031  0.022528518  0.023034653            3 
  674000   0.99221366   -7.7849243    182.58607  0.022574934  0.023016912            3 
  675000    1.0046758   -7.7844985    182.27038  0.022502516  0.022999605            5 
  676000   0.98856055   -7.7641294    182.48351  0.022495501  0.022982052            3 
  677000    0.9836561   -7.7985881    182.30627  0.022440456  0.022964322            3 
  678000   0.99250263   -7.7765495     182.8126  0.022469592  0.022947031            5 
  679000     0.988939   -7.8103282    182.15469  0.022355755  0.022929474            2 
  680000   0.98142568   -7.7622885    183.39808  0.022475255  0.022911916       -1e+20 
  681000    1.0139991   -7.7779499    182.91955  0.022383695  0.022894076            1 
  682000    1.0005281   -7.7853781    182.69636  0.022323602  0.022876045            1 
  683000   0.96817881   -7.8040885    182.64382  0.022284507   0.02285802            1 
  684000   0.97823789   -7.7950963    183.28881  0.022330508  0.022839906            4 
  685000   0.98331134   -7.7838133    183.04509  0.022268259  0.022821794            1 
  686000    0.9557524   -7.7754682    183.47852   0.02228845  0.022803694            2 
  687000   0.98280375   -7.7708986    183.67565  0.022279919  0.022785492            1 
  688000   0.98988553   -7.8141839    183.39479  0.022213516  0.022767417            2 
  689000   0.97278519    -7.799472    184.14151   0.02227159   0.02274927            2 
  690000   0.96794669   -7.7787556    183.96115   0.02221753  0.022731214            2 
  691000    0.9848934   -7.7954263    184.05795  0.022197051  0.022713349            1 
  692000    1.0048999   -7.8260634    183.93049  0.022149625   0.02269546            2 
  693000   0.97975532   -7.8234659    184.40163  0.022174318  0.022677611            3 
  694000   0.99344439   -7.7545092    185.14871  0.022232073  0.022659678            2 
  695000   0.98577065   -7.7829342    184.89362  0.022169498   0.02264176            7 
  696000   0.98288634   -7.7913111    185.13834  0.022166947  0.022624123            2 
  697000   0.98395995   -7.7842772    185.18695  0.022140956  0.022606514            1 
  698000   0.99077576   -7.8052669    184.91112  0.022076304  0.022589033            3 
  699000   0.97037218   -7.7756639    185.01352  0.022056929   0.02257126            3 
  700000   0.98289507   -7.7776733    185.96097  0.022138211   0.02255365            3 
  701000   0.97987627   -7.7933357     185.4107  0.022041215  0.022535798            3 
  702000   0.95748353   -7.8239545    185.60485  0.022032865  0.022517803            4 
  703000   0.96352407   -7.7955767    185.61105  0.022002258  0.022499824            1 
  704000   0.95612293   -7.8270763    185.23133  0.021926057  0.022481987            6 
  705000   0.97641918   -7.7928313      185.749  0.021956146  0.022464132            2 
  706000   0.96882124   -7.8413711    185.77663  0.021928309  0.022446192            2 
  707000   0.95440267    -7.832111    185.76095  0.021895445  0.022428106            4 
  708000   0.97225675   -7.8348989    186.29988  0.021927952  0.022410007            2 
  709000   0.96421818   -7.8207047    186.48174  0.021918399  0.022392077            4 
  710000    0.9949614   -7.8299048    187.08794  0.021958678  0.022374363            4 
  711000   0.96332763   -7.8228572    186.77751   0.02189141  0.022356621            2 
  712000   0.96343213   -7.8210454    187.16941  0.021906532   0.02233898            2 
  713000   0.96486018    -7.811302    187.20666  0.021880162  0.022321432            4 
  714000   0.96054058    -7.776365    187.80739   0.02191963  0.022303849            1 
  715000    0.9614484   -7.7728247    187.30573  0.021830505  0.022286585            1 
  716000   0.99311981   -7.8256676    187.57761  0.021831659  0.022269248            1 
  717000   0.96811893   -7.8197963     187.8293  0.021830462  0.022251781            2 
  718000   0.95910149   -7.8069842    187.99407  0.021819182  0.022234288            4 
  719000   0.98423287   -7.8392977    188.04733  0.021795008  0.022216896            2 
  720000   0.96097951   -7.8259763    188.21294  0.021783905  0.022199765            3 
  721000    0.9498785   -7.7917974     188.7585  0.021816748    0.0221827            2 
  722000    0.9769348   -7.8415577    188.36649  0.021741284  0.022165844            3 
  723000   0.94296486   -7.8094313    188.35079  0.021709405   0.02214869            4 
  724000   0.95082163   -7.8241366    189.18335  0.021775248  0.022131721            3 
  725000   0.97951875   -7.8116816    189.27621  0.021755886  0.022114643            2 
  726000   0.97214858   -7.8446992    188.53384  0.021640707  0.022097467            4 
  727000   0.95361997   -7.8145543    189.63631  0.021737312  0.022080302            2 
  728000   0.97009418   -7.8228179    189.96457  0.021745029   0.02206328            1 
  729000   0.97018583   -7.7974501    190.12657  0.021733718  0.022046442            2 
  730000   0.94480463   -7.8120005    189.58559  0.021642191  0.022029577            4 
  731000    0.9781182   -7.8285864      190.012  0.021661195  0.022012622            3 
  732000   0.95084457   -7.8280579    190.51892  0.021689313  0.021995521            4 
  733000    0.9433018   -7.8360363    190.58123  0.021666806  0.021978589            1 
  734000   0.94481904    -7.823323    190.37842  0.021614262  0.021961593            2 
  735000   0.95027744    -7.852765    190.66826  0.021617716  0.021944509            9 
  736000   0.94544002   -7.8466433    190.77876  0.021600856  0.021927827            3 
  737000   0.95199867   -7.8400987    191.33159  0.021634055  0.021911108            2 
  738000    0.9494115   -7.8182214     191.6292  0.021638347   0.02189464            1 
  739000   0.97063072   -7.8539219    191.79762  0.021628059  0.021878161            6 
  740000   0.95033313   -7.8795203    191.08204  0.021518248  0.021861652            3 
  741000   0.96509078   -7.8657587    191.58223   0.02154546  0.021845213            3 
  742000   0.93362201   -7.8430192     191.8786  0.021549708  0.021828719            4 
  743000   0.94276592   -7.8739155    191.65957  0.021496138  0.021812016            3 
  744000   0.95837286   -7.8543366    191.93614  0.021498224  0.021795451            3 
  745000   0.95126023   -7.8557297    191.91338  0.021466821  0.021778827            3 
  746000   0.94387691   -7.8653458    191.75942  0.021420846  0.021762086            3 
  747000   0.97687409   -7.8691178    191.66685  0.021381844  0.021745371            1 
  748000   0.95553473   -7.8616733    192.27914  0.021421473   0.02172836            3 
  749000    0.9584801   -7.8579586    192.05427  0.021367854  0.021711289            2 
  750000   0.94838392   -7.8993095    191.31293  0.021256993  0.021694157            1 
  751000   0.97297321   -7.8934051    191.81127  0.021283984  0.021676793            4 
  752000   0.94005608   -7.8586851    192.69408  0.021353511  0.021659858            2 
  753000   0.95286703   -7.8838609     192.4771   0.02130114  0.021642818            1 
  754000   0.94586571   -7.8736279    191.82761  0.021201106  0.021625728            4 
  755000   0.94733959   -7.8391985    192.39548  0.021235704   0.02160869            1 
  756000   0.95953607   -7.8670357    192.50588  0.021219784  0.021591728            1 
  757000   0.95993233   -7.8356143    192.93722  0.021239236  0.021574846            2 
  758000    0.9457301   -7.8780336    192.48757  0.021161782  0.021557781            3 
  759000   0.92846703    -7.825045    193.55542  0.021251144  0.021540738            2 
  760000   0.94540248   -7.8652673     193.0795  0.021170997  0.021523728            3 
  761000     0.950292   -7.8404004    192.87865  0.021121184  0.021506534            1 
  762000   0.92377996   -7.9134252    193.15414  0.021123594  0.021489334            3 
  763000   0.93203606   -7.8739567    193.81126  0.021167678  0.021472089            2 
  764000   0.95991252   -7.8775687    193.04902   0.02105683  0.021455011            2 
  765000   0.95330337   -7.8683165    193.89098  0.021121022  0.021437858            4 
  766000   0.96458369   -7.8925218    193.72143  0.021075003  0.021420587            1 
  767000    0.9521219   -7.8495215    193.90782  0.021067777  0.021403442            3 
  768000   0.94780088   -7.9369491    193.36449   0.02098139  0.021386206            5 
  769000   0.94805117   -7.9028488    193.54885  0.020974084  0.021368883            1 
  770000   0.95362835   -7.8923442    193.85479  0.020979955  0.021351514            2 
  771000   0.96185251   -7.8936795    194.18192  0.020988102  0.021334431            2 
  772000   0.92836659   -7.8870254    193.99505  0.020940744    0.0213172            2 
  773000   0.95066216   -7.8930507    193.68107  0.020879804  0.021299742            5 
  774000   0.95360487   -7.8865104    194.35609  0.020925505  0.021282436            1 
  775000   0.96502903   -7.8823417    193.83798  0.020842793  0.021265104            2 
  776000   0.94378156   -7.8793322    194.54367  0.020891718   0.02124761            1 
  777000   0.95069016   -7.8650449     194.6574  0.020877027  0.021230232            2 
  778000   0.95221628   -7.8476379     194.8363  0.020869355   0.02121311            4 
  779000   0.97180821   -7.8633538    195.09206  0.020869925  0.021196057            2 
  780000   0.92413494   -7.9250156    194.24132  0.020752277  0.021178724            3 
  781000   0.94512786    -7.856082    194.87111  0.020792905  0.021161464            1 
  782000   0.93726811   -7.8986673    194.95861  0.020775641  0.021144136            5 
  783000   0.92736888   -7.9035738    194.76615  0.020728624  0.021126651            3 
  784000    0.9364764   -7.9319586    194.31613  0.020654351  0.021109176            4 
  785000   0.93860722   -7.8709718    195.68949  0.020773831  0.021091529            1 
  786000   0.94434444    -7.891159    195.34406  0.020710778  0.021074104            4 
  787000   0.94129739   -7.8910617    195.06889  0.020655325  0.021056974            3 
  788000   0.95894297    -7.862648    195.41688  0.020665914  0.021039821            3 
  789000   0.92248116   -7.8992787    195.86191  0.020686725  0.021022796            2 
  790000   0.92477425   -7.9214295    195.95235  0.020670079  0.021005595            2 
  791000   0.91596531   -7.8944318    196.21071  0.020671166  0.020988438            1 
  792000   0.93195494   -7.8776122    196.24025  0.020648174  0.020971232            2 
  793000   0.95256662   -7.8820302    196.32151  0.020630675  0.020954208            2 
  794000   0.93453346   -7.8962687     196.4148  0.020614484  0.020937097            2 
  795000   0.93871447   -7.9088425    196.45805  0.020593087  0.020920164            3 
  796000    0.9434082   -7.8893109     196.6805  0.020590504  0.020903275            3 
  797000   0.92670574   -7.9289452    196.20492  0.020514943   0.02088607            3 
  798000   0.93596629   -7.9321016    196.60069  0.020530565  0.020868843            2 
  799000   0.95722986   -7.9226287    196.35431  0.020479173  0.020851482            4 
  800000   0.92496182   -7.9138068    196.59226   0.02047836  0.020834137            2 
  801000   0.93427511   -7.8716183    197.15606   0.02051145  0.020816916            2 
  802000   0.92941107   -7.8888521     197.0867  0.020478668   0.02079988            3 
  803000   0.92362431    -7.896311    197.72803   0.02051972  0.020782618            4 
  804000   0.92261753   -7.9515782    196.72558  0.020390297  0.020765315            3 
  805000   0.93488327    -7.954719    196.90467  0.020383506  0.020747913            1 
  806000   0.94105502   -7.9342863    196.95153  0.020363061  0.020730571            3 
  807000   0.94534856   -7.8946818    197.49352  0.020393796  0.020713349            3 
  808000   0.91999098   -7.9415886    197.02771  0.020320515  0.020695982            2 
  809000   0.94198033   -7.9064031     196.9531  0.020287711  0.020678653            2 
  810000    0.9362919   -7.9302257    197.46001  0.020314816  0.020661383            4 
  811000   0.94162354   -7.9428123    197.28678  0.020271967  0.020644113            2 
  812000   0.92847545   -7.9415984     197.2874  0.020247065  0.020626643            2 
  813000   0.91406912   -7.9411484    197.39176  0.020232858  0.020609261            4 
  814000   0.92037093   -7.9276234    197.97777  0.020267994  0.020591819            3 
  815000   0.92729245   -7.9243681    197.86283  0.020231373  0.020574572            2 
  816000   0.92576566   -7.9073583      198.417  0.020263174  0.020557396            1 
  817000   0.91818269   -7.9345382    198.67039  0.020264217   0.02054045            2 
  818000   0.93366914    -7.931568    198.76375  0.020248956  0.020523493            2 
  819000   0.93908993    -7.926046    198.51026   0.02019844  0.020506816            6 
  820000   0.93713513   -7.8967904    199.46906  0.020271246  0.020490189            5 
  821000   0.93900299   -7.9117965     199.6322  0.020263114  0.020473712            6 
  822000   0.93227985   -7.9242124    199.29792  0.020204574  0.020457047           13 
  823000   0.91864744   -7.9319351    199.16858  0.020166928  0.020440282            2 
  824000   0.91627193   -7.9457835    199.44584  0.020170493  0.020423465            4 
  825000   0.91825018   -7.9415878    199.49088  0.020150594  0.020406864            1 
  826000   0.92413484     -7.97791    199.67666  0.020144941  0.020390333            2 
  827000   0.91644429   -7.9198426    200.25096  0.020178452  0.020373911            2 
  828000   0.89805433   -7.9642182    199.97299  0.020126106  0.020357439            4 
  829000   0.94128052    -7.917013    200.26961  0.020131646  0.020341091            2 
  830000   0.93238243   -7.9437394     200.4844  0.020128956  0.020324681            4 
  831000   0.90890036   -7.9574922    199.84263  0.020040376  0.020308054            6 
  832000   0.94079461   -7.9531404    200.28482  0.020060579  0.020291504            5 
  833000   0.91688897   -7.9694516    199.76014  0.019984008  0.020274795            6 
  834000   0.89794053   -7.9299576    200.61491  0.020045455  0.020258077            2 
  835000    0.9039608   -7.9351984    199.61671  0.019921827  0.020241454            2 
  836000    0.9276705   -7.9524373    200.07963  0.019944141  0.020224725            2 
  837000   0.91864906   -7.9584483    200.57198  0.019969333  0.020208005            6 
  838000   0.92077235   -7.9508266    200.60067  0.019948356  0.020191157            3 
  839000   0.92174841   -7.9334676    200.55682  0.019920224  0.020174287            3 
  840000   0.92195694   -7.9526488    199.74288  0.019815762  0.020157372            4 
  841000   0.90360509   -7.9702458    199.97151  0.019814854  0.020140464            4 
  842000   0.91441455   -7.9603035    200.41861  0.019835571  0.020123567            2 
  843000   0.92176423   -7.9440092     201.0753  0.019876958   0.02010689            2 
  844000   0.91595777   -7.9608058     201.1925  0.019864979  0.020090102            3 
  845000   0.91343086   -7.9623411     201.0827  0.019830641  0.020073287            4 
  846000   0.91325995   -7.9608266    200.81666  0.019780994  0.020056351            4 
  847000   0.91480069   -7.9749646    201.30676   0.01980586  0.020039281            5 
  848000   0.93425053   -7.9942109    201.01845  0.019754171  0.020022287            2 
  849000   0.91119937    -7.971126    201.33973   0.01976244  0.020005348            7 
  850000   0.91161871   -7.9756764    200.91487  0.019697536  0.019988383            2 
  851000   0.90797123   -7.9777778    201.57174  0.019738714  0.019971531            2 
  852000   0.92603963   -8.0375442    201.10966  0.019670351  0.019954604            1 
  853000    0.9251782   -8.0016027    201.51582   0.01968697   0.01993769            2 
  854000   0.91400842   -7.9603384    201.15442  0.019628651  0.019920821            3 
  855000   0.91413238   -7.9449939    201.84302  0.019672809  0.019904101            4 
  856000   0.91558523   -7.9572993    202.36862  0.019700994  0.019887507            2 
  857000   0.90993602   -7.9899193    201.37897  0.019581774  0.019870853            2 
  858000   0.89693474   -7.9615567    202.24663  0.019643224  0.019853986            4 
  859000   0.92540311   -7.9868204     201.9554  0.019592103  0.019837326            4 
  860000   0.92024511   -7.9836327    202.34239   0.01960682  0.019820615            2 
  861000   0.92552064    -7.986037    201.92234  0.019543393  0.019803913            3 
  862000   0.90152142    -7.999163    202.24022  0.019551452  0.019787105            1 
  863000   0.87957537   -7.9896058    202.11393  0.019516602    0.0197703            2 
  864000   0.91965903   -7.9872492    201.80025  0.019463759  0.019753534            3 
  865000   0.89964533   -8.0152561    201.92784  0.019453549   0.01973663            3 
  866000   0.90656894   -7.9957518    202.36449  0.019473104  0.019719793            3 
  867000   0.89683058   -7.9715341    201.98897  0.019414549  0.019702879            3 
  868000   0.91175368    -8.002222    202.94842  0.019484295  0.019686069            4 
  869000   0.90559814   -7.9662708    202.75408  0.019443237  0.019669286            1 
  870000   0.90556326   -7.9844287     202.9536      0.01944  0.019652507            3 
  871000   0.89593219    -7.999979    202.39836  0.019364558  0.019635615            5 
  872000   0.90408254   -8.0177917    202.76057  0.019376966  0.019618832            3 
  873000   0.89286835   -8.0178946    202.43085  0.019323296  0.019601909            3 
  874000   0.91850424   -8.0083765     202.2304  0.019282075  0.019584953            5 
  875000   0.88263759   -7.9821112    202.76315  0.019310776   0.01956805            1 
  876000    0.9036382   -7.9802923    203.34209  0.019343806  0.019551235            3 
  877000    0.9096993   -8.0047772    202.71526  0.019262187  0.019534366            5 
  878000   0.89043009   -8.0049794    203.25113  0.019291109   0.01951758            2 
  879000   0.89740875   -7.9675166     203.7972  0.019320933  0.019500773            6 
  880000   0.90615841    -8.030046    203.05256  0.019228462  0.019484072            2 
  881000   0.87996585   -7.9826385    203.13849  0.019214765  0.019467318            2 
  882000   0.91650285   -8.0395432    202.73773  0.019155114  0.019450465            3 
  883000   0.88954217    -8.030738    203.15946  0.019173222  0.019433484            6 
  884000   0.89938922   -8.0125521    203.25605  0.019160639  0.019416572            5 
  885000   0.88565443   -8.0133367    203.58429  0.019169896  0.019399701            3 
  886000   0.91242718   -8.0085899     203.7242  0.019161419  0.019382936            2 
  887000   0.89532642    -8.024967    203.71194  0.019138664  0.019366241            2 
  888000   0.90332974   -7.9829196    204.47107  0.019188351  0.019349665            2 
  889000   0.89979604   -7.9856194    203.99855  0.019122474  0.019333044            3 
  890000   0.88929043   -8.0120151    204.16659  0.019116722  0.019316252            3 
  891000   0.91364208   -8.0641309    203.65239  0.019047174  0.019299413            4 
  892000   0.90067437    -8.011249     203.5809  0.019019142  0.019282665            2 
  893000   0.90280387   -8.0470123    203.21228  0.018963445  0.019265927            3 
  894000   0.89729416   -8.0012875     204.9299   0.01910234  0.019249131            1 
  895000   0.87879399   -8.0494569    204.37191  0.019029042  0.019232535            7 
  896000   0.91669259   -7.9954369    204.73898  0.019041944  0.019216039            3 
  897000   0.89079505   -8.0191461    204.80256  0.019026622  0.019199635            2 
  898000   0.88073589   -8.0298559    204.66373  0.018992551  0.019183124            4 
  899000   0.90660206   -8.0197081    204.43392  0.018950123  0.019166486            3 
  900000   0.90513974   -7.9759918    205.16231  0.018996511  0.019149975            2 
  901000   0.88284936   -8.0231975    205.02918  0.018963113  0.019133725            3 
  902000   0.87980392    -8.007179    205.43533  0.018979613  0.019117202            2 
  903000   0.89194388   -7.9931048    205.20986  0.018937787  0.019100673            1 
  904000    0.8889481   -8.0267822    204.78608  0.018877773  0.019084292            7 
  905000    0.9219269   -8.0609538    205.00018  0.018876628  0.019067721            2 
  906000   0.89066274   -8.0373274    205.46788  0.018898812  0.019051126            3 
  907000   0.88970049   -8.0190981    205.11543  0.018845593  0.019034617            3 
  908000   0.88822718   -8.0416042    204.94732  0.018809409  0.019017976            2 
  909000   0.88797204   -8.0365043    205.18161  0.018810195  0.019001384            3 
  910000   0.89028899   -8.0033523    204.77873  0.018752631  0.018984636            3 
  911000   0.87863945   -8.0399418    204.99002  0.018751374  0.018967855            4 
  912000   0.89039419   -8.0296234    205.34166  0.018762944  0.018951119            2 
  913000   0.90063357   -8.0397576    205.10258  0.018720571  0.018934443            3 
  914000   0.87273425   -8.0481296    205.28157  0.018716409  0.018917889            4 
  915000   0.87845421   -8.0428762    205.16968  0.018685763  0.018901289            2 
  916000   0.85991155   -8.0522756    205.52885  0.018698039   0.01888468            3 
  917000   0.87709441   -8.0335287     205.5474  0.018679334  0.018868194            6 
  918000   0.90717476   -8.0362179    205.57947  0.018661898  0.018851685            3 
  919000   0.88711648   -8.0428105    205.21758  0.018608776   0.01883511            4 
  920000   0.88831979   -8.0693263    205.82939  0.018643966  0.018818544            2 
  921000   0.89285228   -8.0304568    205.54736  0.018598204  0.018802117            3 
  922000    0.8802069   -8.0154602    206.13863  0.018631474  0.018785619            3 
  923000    0.8802393    -8.045694    205.87504   0.01858749  0.018769162            3 
  924000   0.88366059   -8.0195074    205.78621  0.018559362  0.018752695            2 
  925000   0.89216198   -8.0303784    206.17351   0.01857419  0.018736235            3 
  926000   0.87405064   -8.0218313    206.34151  0.018569251  0.018719924            2 
  927000   0.87451648   -8.0491419    206.89947  0.018599377  0.018703831            2 
  928000   0.90124695   -8.0334694    206.86734  0.018576449  0.018687516            2 
  929000   0.87174619   -8.0496688    206.84765  0.018554687  0.018671265            2 
  930000   0.86254453   -8.0531793    206.19366  0.018476135  0.018654911            3 
  931000   0.87775215   -8.0401087    207.05719  0.018533583  0.018638576            2 
  932000   0.88377428   -8.0531993    207.37286  0.018541922  0.018622439            2 
  933000   0.90298682    -8.016302    207.37271  0.018522035  0.018606417            2 
  934000   0.90136713   -8.0600119    206.24927  0.018401969  0.018590337            1 
  935000   0.88669786   -8.0372832    206.91692  0.018441793  0.018574211            3 
  936000   0.86373658   -8.0511401    206.68927  0.018401822  0.018557969            4 
  937000   0.89869505   -8.0843661    206.89913  0.018400848  0.018541755            4 
  938000   0.87457218   -8.0805141    207.01276  0.018391326  0.018525461            2 
  939000   0.88091084   -8.0764156    207.47121  0.018412426  0.018509224            1 
  940000   0.86499742   -8.0489656    207.21846  0.018370431  0.018492993            3 
  941000   0.89249485   -8.0598978    207.49738   0.01837561  0.018476776            1 
  942000   0.87092303   -8.0512103    206.88129    0.0183016  0.018460479            3 
  943000   0.88806312   -8.0699149    207.52875  0.018339408  0.018444299            2 
  944000   0.86170863   -8.0634592    207.04022  0.018276856  0.018428131            3 
  945000   0.90041086   -8.0465628    207.77322  0.018322153  0.018411947            3 
  946000    0.8673809   -8.0599009    207.84602  0.018309199  0.018395925            7 
  947000   0.88094774   -8.0930485    207.32603  0.018244107  0.018379749            2 
  948000   0.87150487    -8.064703    207.76634  0.018263567  0.018363611            1 
  949000   0.86094147   -8.0794202    207.67809  0.018236573  0.018347409            6 
  950000    0.8634229   -8.0484323    207.49847  0.018201621  0.018331302            3 
  951000   0.86452729   -8.0639678    208.16041  0.018240484  0.018315188            2 
  952000   0.89656274   -8.0578529    208.35543  0.018238395  0.018299204            3 
  953000   0.87492115   -8.0683018    208.20688  0.018206268  0.018283211            3 
  954000   0.87795045   -8.0744592    208.38534  0.018202772  0.018267189            1 
  955000   0.88479261   -8.0952128    207.89043  0.018140526  0.018251188            4 
  956000   0.87772802   -8.0713483     208.0148  0.018132392  0.018235235            3 
  957000   0.86790085   -8.0736934    208.36088  0.018143581  0.018219267            4 
  958000   0.87487603   -8.0866758    208.02078  0.018095057  0.018203285            2 
  959000   0.87082759   -8.0805691     208.2784  0.018098575   0.01818732            1 
  960000   0.87411733   -8.0683454    208.29019  0.018080746  0.018171297            2 
  961000   0.86073647   -8.1026086    208.15155  0.018049909   0.01815521            1 
  962000   0.86590271   -8.1028981    208.51791  0.018062882  0.018139157            3 
  963000   0.87653365   -8.1067919    208.85192  0.018073029  0.018123236            1 
  964000   0.87302596    -8.059121    209.23218  0.018087153  0.018107346            1 
  965000   0.86472606   -8.0900637    209.14757  0.018061103  0.018091551            1 
  966000   0.86618272   -8.1217968    209.02338  0.018031693  0.018075724            2 
  967000     0.858711   -8.0730011    209.27058  0.018034348  0.018059999            2 
  968000   0.87014459   -8.0846191    208.66829  0.017963868  0.018044227            1 
  969000   0.85515601   -8.1195351    208.44198  0.017925867  0.018028408            2 
  970000   0.87545566   -8.1132379     209.0693   0.01796128  0.018012603            3 
  971000   0.86548492   -8.0969058     208.6672  0.017908273  0.017996794            1 
  972000   0.86713583   -8.0480304    209.22536  0.017937703  0.017981015            1 
  973000   0.85852966   -8.0617243    209.22612  0.017919332  0.017965261            4 
  974000   0.87122076   -8.1127538    208.68207  0.017854387  0.017949538            2 
  975000    0.8604536   -8.1036157    209.10964  0.017872619  0.017933573            2 
  976000   0.86456161   -8.1027639    209.12559  0.017855668  0.017917666            4 
  977000   0.86805891   -8.0906721    209.26894   0.01784962  0.017901911            2 
  978000   0.86021509   -8.1038514    208.95787  0.017804863  0.017886117            6 
  979000   0.84926964   -8.1096021    209.02404  0.017792308  0.017870268            3 
  980000   0.86705936   -8.1369934    209.09326  0.017780039   0.01785449            2 
  981000   0.85651788   -8.1469302    209.29718  0.017779237  0.017838524            3 
  982000   0.88616501     -8.11537    209.59867  0.017786716  0.017822723            4 
  983000   0.85118382   -8.1450392     208.9901  0.017717031  0.017806954            4 
  984000   0.86768034   -8.0953084    209.52862  0.017744632  0.017791217            3 
  985000   0.88227031   -8.1185525    209.40253   0.01771595   0.01777545            6 
  986000    0.8523561   -8.1118188    209.54004  0.017709604  0.017759668            2 
  987000   0.86151296   -8.1170547    209.68244  0.017703685  0.017743884            3 
  988000    0.8506506   -8.1083691    209.26323  0.017650407   0.01772801            3 
  989000   0.82759011    -8.140878    210.13493   0.01770601  0.017712224            6 
  990000   0.85994974   -8.1121015    209.54374  0.017638362   0.01769644            3 
  991000   0.85528956   -8.1571715    209.62778   0.01762763   0.01768066            2 
  992000    0.8655539   -8.1055942    209.82479   0.01762641  0.017664915            4 
  993000   0.85527637   -8.1331739    209.61317  0.017590901   0.01764919            1 
  994000   0.85222386   -8.1337402    210.12037  0.017615725  0.017633447            5 
  995000   0.85206339   -8.1315582    210.19319   0.01760412  0.017617785            4 
  996000   0.85551064   -8.1125295    210.14715  0.017582593  0.017602166            7 
  997000    0.8430897   -8.1250916    209.97693  0.017550729  0.017586598            4 
  998000   0.84489712   -8.1484976    209.63696  0.017504756  0.017570959            2 
  999000   0.85678421   -8.1364724    210.19425  0.017533721  0.017555278            1 
 1000000   0.85709707   -8.1196674     210.4389  0.017536575  0.017539731            1 
 1001000   0.86477726    -8.134188     210.3147  0.017508716  0.017524114            5 
 1002000    0.8629251   -8.1033749    210.78685   0.01753051  0.017508541            4 
 1003000   0.84714146   -8.1072534    210.57862  0.017495731  0.017493092            2 
 1004000   0.84847239   -8.1262499    210.21387   0.01744803  0.017477537            1 
 1005000   0.85852547   -8.1449142     210.2782  0.017436003  0.017462087            2 
 1006000   0.85774072   -8.1255708    210.66771  0.017450937   0.01744657            4 
 1007000   0.86146247   -8.1349233    210.91746  0.017454275  0.017431036            4 
 1008000   0.82744414   -8.1237306    210.14572  0.017373158    0.0174155            3 
 1009000   0.84657355   -8.1258688    210.25941   0.01736533  0.017399971            3 
 1010000   0.83271386   -8.1195516    211.13129  0.017420073  0.017384592            2 
 1011000   0.86371002   -8.1272956    211.23618  0.017411488  0.017369151            5 
 1012000   0.84767532   -8.1762022    210.76633  0.017355594  0.017353676            3 
 1013000   0.84887408   -8.1343049    211.16378  0.017371157  0.017338273            3 
 1014000    0.8447876   -8.1226281    211.11352  0.017349895  0.017323035            8 
 1015000   0.84270768   -8.1661872    211.45526  0.017360859   0.01730775            3 
 1016000   0.85273688   -8.1850486    210.87721  0.017296359   0.01729235            4 
 1017000   0.84678811   -8.1492783    211.51238  0.017331398  0.017277061            2 
 1018000   0.85501038    -8.115093    211.30665  0.017297532  0.017261733            3 
 1019000   0.83617964   -8.1165812    211.27388  0.017277877  0.017246521            2 
 1020000   0.82833423   -8.1294374    211.56256  0.017284523   0.01723136            2 
 1021000   0.84108069   -8.1469665    211.82907  0.017289346  0.017216186            3 
 1022000   0.84489871   -8.1576533    212.12882   0.01729687  0.017201121            4 
 1023000    0.8570671   -8.1419279    211.96421  0.017266553  0.017186143            5 
 1024000   0.85826355   -8.1614495    212.00444  0.017252965  0.017171137            2 
 1025000   0.85671721   -8.1420442    211.87442  0.017225563  0.017156063            2 
 1026000   0.84730902   -8.1583675    212.09632  0.017226796  0.017140958            2 
 1027000   0.85506613   -8.1658259     212.4653  0.017239963  0.017125876            3 
 1028000   0.82210531   -8.1898332    211.95859  0.017182117  0.017110838            4 
 1029000   0.83836807   -8.1683718    212.15158  0.017181048  0.017095846            4 
 1030000   0.84365027   -8.1584441    212.60824  0.017201314  0.017080959            4 
 1031000   0.86434058   -8.1669653    212.57323    0.0171818  0.017066043            3 
 1032000   0.86366015   -8.1663174    212.28436  0.017141825  0.017051224            2 
 1033000   0.84545827   -8.1768381    212.40076  0.017134621  0.017036379            2 
 1034000   0.83322809   -8.1745405    212.57468  0.017132066  0.017021456            2 
 1035000   0.84843805   -8.1629945    212.19372   0.01708484  0.017006621            5 
 1036000   0.84770055    -8.158373    212.72808  0.017111332  0.016991752            4 
 1037000   0.83886558   -8.1560442    212.60605  0.017085025  0.016977058            2 
 1038000    0.8496952   -8.1845903    212.57564  0.017066124  0.016962332            5 
 1039000   0.84610797     -8.13773    213.27899  0.017106111  0.016947691            4 
 1040000   0.84210853   -8.1611051    214.07767   0.01715366  0.016933191            2 
 1041000     0.843319   -8.1708674    213.73243  0.017109544   0.01691863            7 
 1042000   0.84160326   -8.1614067    213.36907  0.017064065  0.016904197            3 
 1043000   0.83024161    -8.184894    213.97545  0.017096153  0.016889668            4 
 1044000   0.82532765   -8.1840199    213.54859  0.017045705  0.016875141            4 
 1045000   0.84165794   -8.1633632    213.65825  0.017038138  0.016860641            1 
 1046000   0.85816302    -8.202996    214.04161  0.017052391  0.016846213            5 
 1047000   0.86053458   -8.1833811    213.66845  0.017006403  0.016831817            2 
 1048000   0.83617645   -8.1716519    214.25724  0.017036994  0.016817426            2 
 1049000   0.84100113   -8.1964233    213.68972  0.016975669  0.016803077            5 
 1050000    0.8420433     -8.22663    213.98285  0.016982766  0.016788698            2 
 1051000   0.84116457   -8.1732038    213.73403  0.016946878  0.016774313            3 
 1052000   0.85672499   -8.1865578    214.31316  0.016976644  0.016759998            2 
 1053000   0.84694837   -8.1835118    214.02428   0.01693766  0.016745679            4 
 1054000   0.85225276   -8.1662101    214.06411   0.01692474  0.016731451            4 
 1055000   0.83919081   -8.1444122    214.63875  0.016954088  0.016717165            5 
 1056000   0.83327702   -8.1524523    214.86259  0.016955697  0.016702888            3 
 1057000   0.84292506   -8.1706861    214.42478  0.016905139  0.016688608            5 
 1058000    0.8296817   -8.1549195    214.68065  0.016909314  0.016674399            3 
 1059000   0.83214005   -8.1901473    214.30736  0.016863972  0.016660218            3 
 1060000     0.840554   -8.1823039    214.42289  0.016857145  0.016645965            3 
 1061000   0.84140267   -8.2077224    214.29432  0.016831159  0.016631763            2 
 1062000    0.8090375   -8.1603828    214.45681  0.016828061  0.016617577            3 
 1063000   0.84454048    -8.160325    214.48515  0.016814452  0.016603315            4 
 1064000   0.83101107   -8.1865804    214.57469  0.016805661  0.016589033            2 
 1065000   0.82935535   -8.2130388    214.50973  0.016784799  0.016574797            3 
 1066000   0.82213521    -8.218262    214.44225  0.016763778  0.016560553            3 
 1067000    0.8370162   -8.1580121    214.61625  0.016761657    0.0165463            3 
 1068000   0.82570486    -8.195468    214.51611  0.016738148  0.016532071            3 
 1069000   0.82052433    -8.186008    214.98953  0.016759396  0.016517846            4 
 1070000   0.83796253   -8.2139672    214.41677  0.016699126  0.016503681            3 
 1071000   0.85062131   -8.2243055    214.49927  0.016689952  0.016489532            2 
 1072000   0.82321964   -8.2015783    214.88771   0.01670458  0.016475361            2 
 1073000   0.83220786   -8.2274589    214.84566  0.016685745   0.01646116            3 
 1074000   0.81757372   -8.2155002    214.66452  0.016656155  0.016446894            3 
 1075000   0.82041296   -8.2041888    214.49848  0.016627789  0.016432734            2 
 1076000   0.81943803   -8.2354006    214.97473   0.01664922  0.016418615            3 
 1077000    0.8185344   -8.2030563    215.28922  0.016658095  0.016404421            4 
 1078000   0.83924366   -8.2303337    215.42811  0.016653379  0.016390266            2 
 1079000   0.80060061   -8.2035662    215.37274  0.016633669  0.016376183            5 
 1080000   0.82566251   -8.2322218    215.18066  0.016603446  0.016362101            3 
 1081000   0.80391496   -8.2166327    215.27108  0.016595057  0.016348086            2 
 1082000   0.80646938   -8.1976367    215.92563  0.016630132  0.016334168            4 
 1083000   0.82467641   -8.1980119    215.63776  0.016592626   0.01632026            4 
 1084000   0.83288189   -8.1997619    215.34772  0.016555022  0.016306376            6 
 1085000   0.81712935   -8.2235291    215.60263  0.016559342  0.016292449            3 
 1086000   0.79423625   -8.2112027    215.79619  0.016558946  0.016278537            2 
 1087000   0.82553054   -8.2100403    215.82113  0.016545625  0.016264647            4 
 1088000   0.80066273    -8.210272    215.91313  0.016537464  0.016250801            3 
 1089000   0.82233686   -8.2266213    216.06407  0.016533828  0.016236974            2 
 1090000   0.80821853   -8.2109787    216.35246  0.016540708  0.016223164            1 
 1091000   0.81476875   -8.1726847    216.68273  0.016550774  0.016209417            1 
 1092000   0.80999346   -8.2209575    215.81897  0.016469701  0.016195747            2 
 1093000   0.83489891   -8.1858635    216.00901  0.016469122  0.016182103            2 
 1094000   0.81207927   -8.2170095    216.61182  0.016499986  0.016168505            2 
 1095000   0.79975466    -8.194623    216.96616  0.016511885  0.016154976            1 
 1096000   0.81791258   -8.2539322    216.30897   0.01644685   0.01614144            3 
 1097000    0.8298011   -8.2252912    216.56595  0.016451379  0.016127824            3 
 1098000   0.80601426    -8.244796    216.74868  0.016450264  0.016114242            2 
 1099000   0.81871889   -8.1996181    216.89547  0.016446427  0.016100645            3 
 1100000   0.82989854   -8.2164629     216.5351  0.016404174  0.016087056            3 
 1101000   0.81750331   -8.2553701    216.46299  0.016383817  0.016073468            2 
 1102000   0.81720409    -8.225791    217.17803  0.016423021  0.016059905            2 
 1103000   0.79320608   -8.2498586    216.64082  0.016367545  0.016046398            3 
 1104000   0.82288704   -8.2558406    217.21536  0.016396087  0.016032848            2 
 1105000   0.80605593   -8.2446869       217.25  0.016383861   0.01601931            6 
 1106000   0.81258239    -8.238977    216.89337  0.016342177  0.016005717            4 
 1107000   0.83694471   -8.2654113    216.75657  0.016317116  0.015992102            4 
 1108000   0.80547664   -8.2362135    216.93948  0.016316146  0.015978464            4 
 1109000   0.82373484   -8.2761222    216.56846  0.016273554  0.015964885            3 
 1110000   0.79167409   -8.2670946    216.90333  0.016284034  0.015951323            2 
 1111000   0.81030625   -8.2701477     216.7471  0.016257658   0.01593772            2 
 1112000   0.81040352     -8.26445    216.66983  0.016237247  0.015924158            2 
 1113000   0.80370413   -8.2816313    216.45637  0.016206677   0.01591053            6 
 1114000   0.80506912   -8.2685823    217.02272  0.016234495   0.01589689            2 
 1115000   0.80457553   -8.2631367    216.68987  0.016195057  0.015883268            4 
 1116000   0.81369764   -8.2761206     216.7306  0.016183587  0.015869721            4 
 1117000    0.8100974   -8.2902284     216.7093  0.016167509  0.015856102            1 
 1118000   0.81739099   -8.2654781    216.71475  0.016153454  0.015842433            7 
 1119000    0.8026719   -8.2573949    216.82163  0.016146979  0.015828831            2 
 1120000   0.79029062   -8.2573234    216.74169  0.016126614  0.015815331            3 
 1121000   0.83948705   -8.2466695    217.18623  0.016145274  0.015801941            2 
 1122000   0.80308979   -8.2451789    217.62096  0.016163173  0.015788511            2 
 1123000   0.80755665   -8.2493663    217.79174  0.016161453  0.015775053            5 
 1124000   0.80415494     -8.27505    217.71211  0.016141171  0.015761641            3 
 1125000   0.78003003   -8.3026915    216.93351  0.016069149  0.015748119            3 
 1126000   0.79818963   -8.2890786     216.8345   0.01604755  0.015734559            5 
 1127000   0.80614627   -8.2889618    217.30655  0.016068215  0.015721115            4 
 1128000   0.80297696   -8.2621001    217.56516  0.016073076  0.015707657            3 
 1129000   0.79826438   -8.2683018    217.54865  0.016057621  0.015694236            4 
 1130000   0.81960673   -8.2996941    217.38344  0.016031227  0.015680816            3 
 1131000    0.8195013   -8.2395348    218.14894  0.016073456  0.015667438            3 
 1132000   0.80544063   -8.2657065    217.35682  0.016000943   0.01565405            6 
 1133000    0.7941205   -8.2818454    217.49896  0.015997275  0.015640686            2 
 1134000   0.80808595   -8.2621261     217.5622  0.015987816  0.015627394            3 
 1135000   0.79766303   -8.2843491    216.97904  0.015930913  0.015614053            2 
 1136000   0.79810145   -8.2703215    217.64902  0.015966037  0.015600665            7 
 1137000   0.79212233   -8.3223979    217.66658  0.015953282  0.015587301            2 
 1138000   0.80208684   -8.2849639    217.97325   0.01596172  0.015573939            1 
 1139000   0.80066439    -8.282753    217.71505  0.015928815  0.015560615            5 
 1140000    0.7813733   -8.3043862     217.3242  0.015886272  0.015547358            1 
 1141000   0.80083666   -8.2687593    217.91696  0.015915641  0.015534065            2 
 1142000   0.82167343   -8.2909211    218.03401  0.015910246  0.015520771            3 
 1143000   0.80176641   -8.2827438    218.29518  0.015915368  0.015507581            3 
 1144000   0.80590255   -8.2764669    217.73532  0.015860673  0.015494394            2 
 1145000   0.78921188      -8.2956    217.93044  0.015861022  0.015481191           10 
 1146000   0.78097453   -8.2898614    218.21799  0.015868091  0.015468008            6 
 1147000   0.80392152   -8.2291534    217.64327  0.015812501  0.015454865            3 
 1148000   0.78571957   -8.2768635    218.41332  0.015854626  0.015441738            1 
 1149000    0.8059448   -8.2879421    217.90234  0.015803767   0.01542861            3 
 1150000   0.80395751   -8.2672996    218.41496  0.015827171  0.015415444            1 
 1151000   0.79319961   -8.2900314    218.18589  0.015796836  0.015402327            1 
 1152000   0.79696921   -8.2862229    218.34665  0.015794752  0.015389247            1 
 1153000   0.80905311   -8.2751535    218.40502  0.015785272  0.015376144            2 
 1154000   0.78597536   -8.2746632    218.95087   0.01581101  0.015363068            6 
 1155000   0.79425362   -8.3099074    218.23785  0.015745876   0.01534993            3 
 1156000   0.78294528   -8.3159421    218.08255   0.01572106  0.015336808            5 
 1157000   0.79983322   -8.2967546    218.54829  0.015741018  0.015323706            6 
 1158000   0.79118929   -8.2919184    218.44355  0.015719887  0.015310661            6 
 1159000   0.77939307   -8.2986528    218.61913  0.015718948  0.015297644            7 
 1160000   0.79629274   -8.2980962    218.30583   0.01568289  0.015284622            4 
 1161000   0.78355915   -8.3303162    218.15526  0.015658574  0.015271575            4 
 1162000   0.78896173   -8.3241027     218.3344  0.015657946  0.015258496            3 
 1163000   0.79137542    -8.324073     218.3913   0.01564856  0.015245356            1 
 1164000   0.77455266   -8.3186534    218.27754  0.015626972  0.015232166            3 
 1165000   0.76708734   -8.3202047    218.23917  0.015610813  0.015219008            3 
 1166000   0.80233165   -8.3774378    218.23271  0.015596964  0.015205906            1 
 1167000   0.77792387   -8.3154154    218.70327    0.0156172   0.01519278            2 
 1168000   0.77734501   -8.2823684     218.7132  0.015604538    0.0151797            1 
 1169000   0.77627218    -8.301385    218.44401     0.015572  0.015166651            3 
 1170000   0.78799572   -8.2902185    218.84782  0.015587452  0.015153619            2 
 1171000   0.78266953   -8.3393656    218.24407  0.015531175  0.015140529            4 
 1172000   0.79179918   -8.3393791    218.00619  0.015501009  0.015127304            4 
 1173000   0.80666779   -8.3053354    218.05836  0.015491501   0.01511413            3 
 1174000   0.76878178   -8.3100042    218.20768  0.015488904  0.015100963            3 
 1175000   0.78191918    -8.332969    218.29839  0.015482155  0.015087801            5 
 1176000    0.8083651   -8.3396988    218.36929  0.015474014  0.015074667            2 
 1177000   0.78559278   -8.3182569    218.02408  0.015436426  0.015061525            1 
 1178000   0.76529176    -8.330963    218.87327  0.015483395   0.01504844            6 
 1179000   0.78204034   -8.3537873    217.52013   0.01537462  0.015035268            5 
 1180000   0.78754664   -8.3443405    218.61163  0.015438674  0.015022146            2 
 1181000   0.78548522   -8.3137386    218.53228  0.015420003   0.01500905            2 
 1182000   0.78101953   -8.3271087    218.21132  0.015384329  0.014995943            3 
 1183000    0.7853747   -8.3373415    218.23559  0.015373034  0.014982823            5 
 1184000   0.77726443   -8.3234466     218.4461  0.015374866  0.014969658            1 
 1185000   0.78718511   -8.3419017    218.29686  0.015351396  0.014956501            4 
 1186000   0.78566183    -8.328698    218.51666  0.015353897  0.014943383            4 
 1187000   0.77194655    -8.326373    218.43159   0.01533499  0.014930295            4 
 1188000   0.77755558   -8.3030352    218.61278  0.015334791  0.014917198            3 
 1189000   0.78950248   -8.3434817    218.18396  0.015291839  0.014904058            1 
 1190000   0.78143457   -8.3734998    218.35095  0.015290683  0.014890901            3 
 1191000   0.77987161   -8.3809891     218.5266  0.015290134  0.014877789            2 
 1192000    0.7876271   -8.3478101    218.13205  0.015249724  0.014864644            3 
 1193000   0.78136878   -8.3654112     218.4479  0.015259004  0.014851468            6 
 1194000   0.76716855   -8.3546978    218.12289   0.01522354  0.014838355            4 
 1195000   0.78479662   -8.3444859    217.75308  0.015185012  0.014825245            3 
 1196000   0.77793783   -8.3419144    218.39481  0.015217029  0.014812124            7 
 1197000    0.7726717   -8.3557985    218.37449  0.015202902   0.01479904            2 
 1198000   0.77718523    -8.344621    218.63362  0.015208237  0.014785977            3 
 1199000   0.77526572   -8.3542078    218.83502  0.015209551  0.014772943            2 
 1200000   0.77277144   -8.3318559    218.43455  0.015169066  0.014760019            5 
 1201000   0.77538273   -8.3548527    218.46027   0.01515822   0.01474707            4 
 1202000    0.7605986   -8.3267046    218.87368  0.015174271  0.014734192            3 
 1203000    0.7705095   -8.3435113    219.48421  0.015203949  0.014721343            2 
 1204000   0.75757118   -8.3530707    219.20429  0.015171947  0.014708452            5 
 1205000   0.77625113     -8.34592    219.29848   0.01516587  0.014695625            4 
 1206000   0.77419639    -8.345172    218.95482  0.015129548  0.014682727            3 
 1207000   0.79917323   -8.3686455    218.86329  0.015110694  0.014669812            5 
 1208000   0.76733565   -8.3807937    218.39347  0.015065775  0.014656871            9 
 1209000   0.78966073   -8.3886202    218.46711  0.015058389  0.014643886            7 
 1210000   0.75419961   -8.3785753    218.84747   0.01507214  0.014630956            5 
 1211000   0.76708284   -8.3585018    218.90998  0.015063995  0.014618049            4 
 1212000   0.77211662   -8.3786947    219.06854  0.015062468  0.014605151            2 
 1213000   0.78708804   -8.3788598    218.71845     0.015026   0.01459225            2 
 1214000   0.74926942   -8.3857406    218.43056   0.01499386   0.01457933            2 
 1215000   0.77733419   -8.3776905    218.44539  0.014982537  0.014566438            4 
 1216000   0.76923681   -8.3829928    219.06294  0.015012537  0.014553543            3 
 1217000   0.78317652   -8.3882928     218.6883  0.014974548  0.014540622            2 
 1218000   0.76550854   -8.3941572    218.66278  0.014960508  0.014527716            2 
 1219000   0.77128734   -8.3704295    219.03651  0.014973784   0.01451482            2 
 1220000   0.77961121   -8.3601956    218.81432  0.014946334  0.014501988            2 
 1221000   0.76064748   -8.3824147    219.35735  0.014971154  0.014489186            1 
 1222000   0.75328586    -8.365689    218.98509  0.014933517  0.014476376            3 
 1223000   0.77255576   -8.4036746    219.01332   0.01492323  0.014463645            3 
 1224000   0.77375021   -8.3819438    219.03457  0.014912484  0.014450894            2 
 1225000   0.77169961   -8.3840748    218.75062  0.014880994  0.014438153            3 
 1226000   0.74733764   -8.4003729    219.21283  0.014900274  0.014425421            6 
 1227000   0.76996282   -8.3722049    219.35533  0.014897808  0.014412725            6 
 1228000   0.76462156   -8.3910648     218.8803   0.01485344  0.014400064            6 
 1229000   0.76102499   -8.3960054    219.08297  0.014855097  0.014387394            5 
 1230000   0.76472535   -8.3921485    219.24571  0.014854045  0.014374716            6 
 1231000   0.77492057   -8.4101644    219.37869  0.014850981  0.014362084            7 
 1232000   0.75591615   -8.4390588     218.9006  0.014806588  0.014349433            4 
 1233000   0.76726653   -8.3963739     218.5234  0.014769087   0.01433676            2 
 1234000   0.75273712   -8.4125177    219.52715  0.014824902  0.014324105            5 
 1235000   0.74286988   -8.4142619    219.24214  0.014793667  0.014311467            2 
 1236000   0.76589392   -8.4168885    219.43545  0.014794731  0.014298819            5 
 1237000   0.76844124    -8.396918    218.87294  0.014744876  0.014286164            9 
 1238000   0.74886455   -8.4127115    219.41449  0.014769419  0.014273521            8 
 1239000   0.76962715    -8.408765    219.63588  0.014772389  0.014260938            6 
 1240000   0.77485636   -8.4258689    219.45502  0.014748322  0.014248331            6 
 1241000   0.75274114   -8.3960487     219.3065  0.014726464   0.01423576           10 
 1242000   0.75201272   -8.3831033     219.8368  0.014750188  0.014223196           10 
 1243000    0.7690906   -8.3878821     219.4635  0.014713294  0.014210731            8 
 1244000   0.75267257   -8.4026896    219.46343  0.014701462  0.014198246            3 
 1245000    0.7675492   -8.4165909     219.7681  0.014710047   0.01418579            5 
 1246000   0.75774414   -8.3892618    219.48352  0.014679208  0.014173344            2 
 1247000   0.76209528   -8.3974753    219.53601  0.014670944  0.014160856            4 
 1248000   0.74876086   -8.3972453    219.87223  0.014681639  0.014148383            8 
 1249000   0.75720421   -8.4064872    219.61819  0.014652935  0.014135899            3 
 1250000   0.74874843   -8.3846945    219.49782  0.014633188  0.014123412            8 
 1251000   0.74466412   -8.4325746    219.37482  0.014613297  0.014110949            6 
 1252000   0.74444212   -8.4373577    219.63834  0.014619166  0.014098466            2 
 1253000    0.7697861   -8.4318671    219.34815  0.014588198   0.01408598            5 
 1254000   0.76117772   -8.4471612    219.21499  0.014567716  0.014073491            6 
 1255000   0.75048673   -8.4281205    219.30116   0.01456183  0.014061038            4 
 1256000   0.75473265   -8.4141448    219.76996   0.01458134  0.014048624            5 
 1257000   0.75958159   -8.4188474    219.47838  0.014550409  0.014036232            3 
 1258000   0.75452762   -8.4014794    219.70953  0.014554156  0.014023818            3 
 1259000   0.75130153   -8.4206565    219.45681  0.014525868   0.01401145            1 
 1260000   0.74074902   -8.4233486    219.95583  0.014547343  0.013999079            2 
 1261000   0.74597179   -8.4270006    219.77227  0.014523676  0.013986692            5 
 1262000   0.74443737   -8.4035794    219.96834  0.014525115  0.013974352            4 
 1263000   0.74661761   -8.4366823    219.51941  0.014483994  0.013961955            3 
 1264000    0.7510826     -8.45578    219.01552  0.014439314  0.013949586            3 
 1265000   0.74250401   -8.4118842    220.15745  0.014503126  0.013937261            2 
 1266000   0.74713888   -8.4469198    220.01806  0.014482495  0.013924964            7 
 1267000    0.7480933   -8.4209122    219.89447  0.014462936  0.013912668            2 
 1268000   0.75677211   -8.4366682    220.07999  0.014463722  0.013900426            2 
 1269000   0.74255992   -8.4411245    219.89636  0.014440265  0.013888208            3 
 1270000   0.75459804    -8.430898    219.98976  0.014435023  0.013875998            4 
 1271000    0.7414603    -8.435995    219.87486  0.014416133  0.013863748            2 
 1272000   0.73389302   -8.4228819     219.6005  0.014386825  0.013851515            2 
 1273000   0.76273512   -8.4374342    220.24333  0.014417605  0.013839296            7 
 1274000    0.7367139   -8.4181294     220.7399  0.014438769  0.013827133            3 
 1275000   0.74078866   -8.4245728    220.38645  0.014404343   0.01381499            3 
 1276000   0.75823285   -8.4377948    220.21091  0.014381591  0.013802849            4 
 1277000   0.74989633   -8.4330927    219.76679  0.014341347  0.013790717            3 
 1278000   0.72956798   -8.4718332    219.58819  0.014318479  0.013778551            4 
 1279000   0.74184708   -8.4379836    219.87552  0.014326005  0.013766432            2 
 1280000   0.74130822   -8.4407039    219.71698  0.014304491    0.0137543            3 
 1281000   0.75761967   -8.4557827     219.7751  0.014297105   0.01374216            4 
 1282000   0.75484976    -8.430582    219.76559  0.014285335  0.013730017            2 
 1283000   0.74633195   -8.4589965    220.33439  0.014311145  0.013717892            4 
 1284000   0.74054184   -8.4445796    220.20691  0.014291726  0.013705791            2 
 1285000   0.72998257   -8.4447971    220.10654  0.014274095  0.013693725            2 
 1286000   0.74175229    -8.460474    220.36987  0.014280059  0.013681659            2 
 1287000   0.73848314   -8.4396951    220.07103  0.014249613  0.013669629            3 
 1288000   0.75431433   -8.4561568     220.8061  0.014286109  0.013657593            3 
 1289000   0.73249733   -8.4646548    219.93957  0.014219005  0.013645545            5 
 1290000   0.74132178   -8.4385307    220.14115  0.014221005  0.013633493            7 
 1291000   0.74512411   -8.4636622    219.84087  0.014190606  0.013621438            3 
 1292000   0.72989745   -8.4693327    220.18009  0.014201502  0.013609396            5 
 1293000   0.74452248    -8.448917    219.88334  0.014171393  0.013597379            1 
 1294000   0.73551894   -8.4710675    220.27384   0.01418559  0.013585365            5 
 1295000   0.73807829   -8.4790996    220.42184   0.01418416  0.013573368            2 
 1296000   0.73419504    -8.451359    219.86957  0.014137704  0.013561409            2 
 1297000   0.73075551   -8.4348017     220.0471   0.01413821  0.013549445            5 
 1298000   0.73245642   -8.4723375    220.07717  0.014129248  0.013537478            5 
 1299000   0.74707151   -8.4447759    220.21578  0.014127263  0.013525536            5 
 1300000   0.73987254   -8.4647204    220.56729  0.014138929  0.013513596            8 
 1301000   0.74119247   -8.4510412    220.05887  0.014095495  0.013501648            4 
 1302000   0.72875227   -8.4915742    220.16713  0.014091598  0.013489703            5 
 1303000   0.72813569   -8.4721255    219.90389  0.014063948  0.013477761            4 
 1304000   0.73231196   -8.4558926    220.18635  0.014071214  0.013465826            2 
 1305000   0.74028988   -8.4536293    220.51914  0.014081682   0.01345395            4 
 1306000   0.72208527   -8.4673862    220.17931  0.014049216   0.01344206            5 
 1307000   0.74832027   -8.5086047    219.86553   0.01401846  0.013430151            4 
 1308000   0.73304158   -8.4995204    220.15153  0.014025964  0.013418246            2 
 1309000   0.72705893   -8.4933723    220.62647  0.014045485  0.013406353            3 
 1310000   0.71298215   -8.4769429    220.01279  0.013995725   0.01339447            3 
 1311000   0.73749025   -8.4783756    220.38835  0.014008921  0.013382593            3 
 1312000   0.70767575   -8.4959802    220.23207  0.013988318  0.013370714            4 
 1313000   0.71839649   -8.4983595    220.40002  0.013988323  0.013358806            6 
 1314000   0.72993527   -8.5087236     220.3336  0.013973465  0.013346961            3 
 1315000   0.73218914   -8.4985088    220.24451  0.013957194  0.013335088            5 
 1316000     0.745403   -8.4841388    220.98982  0.013993783  0.013323243            3 
 1317000   0.72780977   -8.4860243    220.03162  0.013922527  0.013311403            2 
 1318000    0.7295132   -8.4917392    220.09401  0.013915909  0.013299555            3 
 1319000   0.73065169   -8.4929615    220.27787  0.013916974  0.013287694            2 
 1320000   0.71631844   -8.4803069    219.70139  0.013870037  0.013275868            2 
 1321000   0.73020214   -8.5074963    220.14217  0.013887343  0.013264034            1 
 1322000    0.7286005   -8.4929306    220.12536  0.013875779  0.013252211            2 
 1323000   0.72368253   -8.4990682    219.75207  0.013841778  0.013240408            5 
 1324000    0.7222515   -8.5078556    220.07569  0.013851692  0.013228614            2 
 1325000   0.71598338    -8.492016    220.25697   0.01385264  0.013216855            2 
 1326000   0.72865087   -8.5050976    220.37362  0.013849523  0.013205069            6 
 1327000   0.72065962   -8.4524463    220.43479  0.013842928  0.013193308            4 
 1328000   0.72574352   -8.5074016    220.23728  0.013820111  0.013181599            3 
 1329000   0.71557933   -8.4832636    220.52289   0.01382762  0.013169882            5 
 1330000   0.71815006   -8.4993304    220.30579  0.013803621  0.013158186            2 
 1331000   0.71380509    -8.494865    220.39225  0.013798664  0.013146522            7 
 1332000   0.71757229   -8.4965012    219.77593  0.013749746  0.013134862            5 
 1333000   0.71141985   -8.4968936    220.37043  0.013776596  0.013123201            7 
 1334000   0.73961849   -8.5035424    220.47501  0.013772802  0.013111545            8 
 1335000   0.72671007   -8.5148027     220.2347  0.013747484  0.013099853           12 
 1336000   0.72235975   -8.5047707    220.11925  0.013729993  0.013088189            4 
 1337000    0.7192809    -8.503782    220.42393  0.013738714  0.013076543           12 
 1338000   0.72497863   -8.5146356    220.27664  0.013719273  0.013064898            7 
 1339000    0.7225288   -8.5250484    220.36905  0.013714778  0.013053206            4 
 1340000   0.72166536    -8.504307    220.28365  0.013699232  0.013041555            8 
 1341000   0.72193118   -8.5047519    220.36172  0.013693868  0.013029872            4 
 1342000   0.72119107   -8.4895523    220.62955  0.013700295   0.01301825            9 
 1343000   0.72681046   -8.5335941     219.8105  0.013639271  0.013006609            3 
 1344000   0.72070181   -8.5317743    219.56766  0.013614066  0.012994946            9 
 1345000   0.72048892   -8.5062132    220.46084  0.013659284  0.012983324            5 
 1346000   0.73268783   -8.5192454    219.91866  0.013615568  0.012971705            7 
 1347000   0.72202348   -8.5378452    220.00914  0.013611058  0.012960062           20 
 1348000    0.7123021   -8.5148979     220.4403  0.013627615  0.012948415            8 
 1349000   0.71375038    -8.528698    220.67858  0.013632232  0.012936795            5 
 1350000   0.71194492   -8.5296051    220.11577  0.013587393  0.012925207           12 
 1351000   0.70555697   -8.5450282    219.85914  0.013561507  0.012913635            9 
 1352000   0.72860288    -8.540284    220.33171  0.013580603  0.012902066            6 
 1353000   0.72489023   -8.5419261    219.85875  0.013541436   0.01289048           11 
 1354000   0.72336752    -8.552041    219.65301  0.013518772  0.012878873           15 
 1355000    0.7217643   -8.5450143    220.04961  0.013533186  0.012867315            9 
 1356000   0.70875958   -8.5345223    220.29183  0.013538092  0.012855801            7 
 1357000   0.69060731    -8.560532    219.88892  0.013503373  0.012844259            8 
 1358000   0.70925479   -8.5273981    220.04931  0.013503271  0.012832721           12 
 1359000   0.70602784   -8.5625704    219.39588  0.013453267  0.012821195            8 
 1360000   0.72129507   -8.5533747    220.11475  0.013487424  0.012809678            7 
 1361000   0.69926989   -8.5413804    220.14997   0.01347967  0.012798147           17 
 1362000   0.71389186   -8.5291396    220.45589   0.01348849  0.012786618           10 
 1363000   0.70429256   -8.5589847    220.21697  0.013463987  0.012775126           22 
 1364000   0.70683253   -8.5618195    220.12991  0.013448797  0.012763634           20 
 1365000   0.71406471   -8.5481165    219.80754  0.013419264  0.012752159           30 
 1366000   0.72080827   -8.5931325    219.74071  0.013405363  0.012740667           26 
 1367000    0.7120192   -8.5269773    219.94221   0.01340784  0.012729193           13 
 1368000   0.70138392   -8.5663985    220.32855  0.013421573  0.012717744           15 
 1369000   0.70100695   -8.5416593     220.3346  0.013412138  0.012706307           24 
 1370000   0.69810886   -8.5510198    220.24657  0.013396993  0.012694865           28 
 1371000   0.70045106   -8.5559953    219.59839  0.013347824  0.012683423           20 
 1372000   0.71592647   -8.5354351    220.06262  0.013366291  0.012671989           24 
 1373000   0.71252231   -8.5591579    219.77333  0.013338998  0.012660591           34 
 1374000    0.7081746   -8.5537813    220.20959  0.013355749  0.012649202           31 
 1375000   0.69570061   -8.5693456    220.14184   0.01334193  0.012637809           15 
 1376000   0.70455779   -8.5785503     220.2657  0.013339735  0.012626388           22 
 1377000   0.70971616   -8.5279751    219.92397  0.013309366  0.012614991           17 
 1378000   0.71058114   -8.5548192    219.87603  0.013296809  0.012603624           21 
 1379000    0.7033655    -8.576137    220.17602  0.013305295   0.01259223           22 
 1380000   0.71463031   -8.5523841    220.52696  0.013316845  0.012580864           27 
 1381000   0.71134558   -8.5770355    220.45869  0.013303083  0.012569498           32 
 1382000     0.705419   -8.5547618    220.12974  0.013273622  0.012558139           34 
 1383000   0.72235085   -8.5475402    219.72966  0.013239917  0.012546789           12 
 1384000   0.69883025    -8.571119    219.70651  0.013228957  0.012535421           23 
 1385000   0.70451469   -8.5538215    220.46282  0.013264911  0.012524087           10 
 1386000   0.69697287   -8.5715912    220.28406  0.013244593  0.012512811            4 
 1387000   0.69880539   -8.5807224    220.00778  0.013218444  0.012501491           15 
 1388000   0.70626235   -8.5769584    219.65802  0.013187922  0.012490181           30 
 1389000   0.69436871   -8.5968197    219.69521  0.013180658  0.012478864           19 
 1390000   0.70612782   -8.6075645    219.53843  0.013161776  0.012467556           16 
 1391000    0.6927642    -8.599572    219.80807  0.013168468  0.012456246           32 
 1392000   0.70641126   -8.5853117    219.57705  0.013145178  0.012444954           19 
 1393000   0.69136903   -8.5922216    219.54107  0.013133589   0.01243368           12 
 1394000   0.70109398   -8.5973132    219.95709  0.013149037  0.012422386           21 
 1395000   0.69007089   -8.6131837    219.56838  0.013116391  0.012411081           23 
 1396000   0.69264995   -8.5864327    219.84485  0.013123499  0.012399802            9 
 1397000   0.69537018   -8.6012526    219.40099  0.013087627  0.012388538           21 
 1398000   0.67470927    -8.573483    219.94859  0.013110908  0.012377281           17 
 1399000   0.68996227   -8.5777612    219.63937  0.013083117  0.012366031           31 
 1400000   0.69009423   -8.5814384    219.42484  0.013061002  0.012354784           25 
 1401000   0.68035938   -8.5902799    219.58484  0.013061197  0.012343558           24 
 1402000   0.69697578   -8.5840776     219.3976  0.013040751  0.012332331           25 
 1403000   0.69506508   -8.6023191    219.53797  0.013039794  0.012321118           17 
 1404000   0.69593939   -8.5933951    219.41214  0.013023038  0.012309916           21 
 1405000   0.70550822   -8.5973082    219.57343  0.013023335  0.012298713           19 
 1406000   0.71361901   -8.5603986    219.91514  0.013034325  0.012287541           21 
 1407000   0.70530172    -8.601872     219.5787  0.013005135  0.012276363            8 
 1408000    0.6826793   -8.6004668    219.47466  0.012989741  0.012265179           20 
 1409000   0.69234824   -8.5980018    219.65043  0.012990918  0.012254023           14 
 1410000   0.67987991   -8.5936623    219.92043  0.012997661  0.012242882           14 
 1411000   0.67995241   -8.6113964    219.65703  0.012972894  0.012231747            9 
 1412000   0.68956495   -8.5695941     219.9143  0.012978889   0.01222063            7 
 1413000   0.69368385   -8.6128954     219.6591  0.012954653  0.012209519            4 
 1414000   0.68504773   -8.6122071    219.35034  0.012927295  0.012198394            9 
 1415000   0.69361008   -8.5971741    219.84534  0.012947311  0.012187286           12 
 1416000   0.69397696   -8.6306335    219.17003  0.012898425  0.012176189            6 
 1417000   0.69059148   -8.6288278    219.39358  0.012902469  0.012165115            7 
 1418000   0.68077372   -8.6345605    219.68832  0.012910691  0.012154049            5 
 1419000     0.679117   -8.6341955    219.87285  0.012912429  0.012142985            7 
 1420000    0.6831336   -8.6060882    219.59506  0.012887034  0.012131921           12 
 1421000    0.6795281   -8.6004181    219.81122  0.012890641  0.012120867            3 
 1422000   0.67827483   -8.5872561    219.50857   0.01286384  0.012109836            3 
 1423000   0.67962703   -8.6033669    219.22529  0.012838211  0.012098791            3 
 1424000   0.69011379   -8.6244017     219.2454  0.012830372  0.012087752            2 
 1425000   0.66862337   -8.6092184    219.55315  0.012839366  0.012076727            4 
 1426000   0.68963208   -8.6143703    219.34183  0.012818012  0.012065716            4 
 1427000    0.6873136   -8.6381242    219.70062  0.012829982  0.012054719            5 
 1428000    0.6772812   -8.6201817     219.6943  0.012820629   0.01204371            2 
 1429000   0.68848955    -8.617682    219.30478  0.012788942  0.012032696            2 
 1430000    0.7010902   -8.6072263    219.69553   0.01280277  0.012021696            2 
 1431000   0.67995942   -8.6417308    219.43355  0.012778567  0.012010694            1 
 1432000   0.66516798   -8.6567669    219.07829  0.012748969  0.011999681            2 
 1433000   0.69836688   -8.6230034    219.20236  0.012747288  0.011988691            3 
 1434000    0.6855972   -8.6467012    218.79953  0.012714989  0.011977689            5 
 1435000   0.69101046   -8.6591023    218.70694  0.012700752  0.011966716            3 
 1436000    0.6812002   -8.6399858    219.17822  0.012719256  0.011955752            5 
 1437000   0.67481172   -8.6489687    219.13717  0.012708024  0.011944814            2 
 1438000   0.66689708   -8.6312656    219.12534  0.012698501  0.011933885            2 
 1439000   0.69194271   -8.6597615    219.61872  0.012718249  0.011922949            2 
 1440000   0.67636707   -8.6448484    218.97424  0.012672121  0.011912029            6 
 1441000   0.66175676   -8.6381572    219.18919  0.012675757  0.011901106            5 
 1442000   0.65973902   -8.6386524    219.37504  0.012677707  0.011890191            6 
 1443000   0.67767209   -8.6585901    219.02185  0.012648525  0.011879282            3 
 1444000   0.66428579    -8.651035    219.20759  0.012650484  0.011868389            5 
 1445000   0.67243937   -8.6551091    219.31964  0.012648192  0.011857521            4 
 1446000    0.6781485   -8.6421129    219.58964  0.012655005  0.011846656            1 
 1447000   0.66943295   -8.6558672    218.93726  0.012608688    0.0118358            4 
 1448000   0.64436591    -8.668885    219.06668  0.012607429  0.011824925            4 
 1449000   0.66605768   -8.6533235    219.29329   0.01261176  0.011814059            5 
 1450000   0.68941825   -8.6549413    219.12276  0.012593262  0.011803215            7 
 1451000   0.67447404   -8.6647342    219.26962  0.012593017  0.011792403            3 
 1452000    0.6835511   -8.6351247    219.25639  0.012583585  0.011781606            5 
 1453000   0.66583555   -8.6550064    218.86607  0.012552539  0.011770807            4 
 1454000   0.67609793   -8.6603635    219.34216  0.012571192  0.011760028            3 
 1455000    0.6794377   -8.6507556    219.07355  0.012547168  0.011749232            3 
 1456000   0.66311102   -8.6552858     219.1867  0.012545026  0.011738427            5 
 1457000   0.65901289   -8.6400025    219.36859   0.01254682  0.011727682            3 
 1458000   0.67170449    -8.670763    218.99245  0.012516715  0.011716941            7 
 1459000   0.66423713   -8.6609588    219.33007   0.01252742  0.011706202            4 
 1460000   0.67183443   -8.6403558    219.43153  0.012524631  0.011695479            2 
 1461000    0.6572096   -8.6342707    219.28852  0.012507901  0.011684756            3 
 1462000    0.6715659   -8.6574945    218.98521  0.012482057  0.011674032            4 
 1463000   0.67446614   -8.6594899    219.31952  0.012492568  0.011663331            8 
 1464000   0.66928773   -8.6471919    218.84156  0.012456828  0.011652633            3 
 1465000   0.66485842   -8.6422549    219.20637  0.012469077   0.01164193            6 
 1466000   0.67789159   -8.6739889    219.12527  0.012455961  0.011631255            5 
 1467000   0.67475942    -8.649214    219.07876  0.012444829  0.011620612            3 
 1468000   0.67163778   -8.6655239    219.37312  0.012453061  0.011609962            5 
 1469000   0.67143147   -8.6730738    218.31058  0.012384308   0.01159931            6 
 1470000   0.67564339   -8.6719106    218.73647  0.012400027  0.011588663            8 
 1471000   0.66614916    -8.676522    219.31124  0.012424158  0.011578033            5 
 1472000   0.66623042   -8.6794609    219.46162  0.012424231  0.011567403            7 
 1473000   0.65531496   -8.6698347    219.07285  0.012393803  0.011556786            1 
 1474000    0.6697568   -8.6745606    218.74371  0.012366786  0.011546148            2 
 1475000   0.66266084   -8.6574688    219.11999  0.012379661  0.011535529            5 
 1476000   0.69194259   -8.6782075    219.00947  0.012365033  0.011524915            3 
 1477000    0.6630548   -8.6642036    218.82269  0.012346123  0.011514308            5 
 1478000   0.66317868   -8.6572141    219.01753  0.012348755  0.011503719            3 
 1479000   0.67265062   -8.6576751    219.21571  0.012351572  0.011493155            2 
 1480000   0.65322451   -8.6596705    218.90252  0.012325592  0.011482602            2 
 1481000   0.66321435   -8.6790852    219.11862   0.01232943   0.01147204            8 
 1482000   0.66228815   -8.6794148    219.17415  0.012324232  0.011461502            4 
 1483000   0.64878067   -8.6591599    219.08661  0.012311003   0.01145099            3 
 1484000   0.64465363   -8.6970218    219.16523  0.012307122  0.011440466            5 
 1485000   0.65576983   -8.6791586    219.09704  0.012295008  0.011429953            9 
 1486000   0.66572695   -8.6686675    218.83551  0.012272068  0.011419463            6 
 1487000    0.6601495   -8.6887026    219.03053  0.012274744  0.011408981            3 
 1488000   0.67127032   -8.6982037     218.5605  0.012240171  0.011398495            4 
 1489000   0.66156183   -8.7016721    219.06872  0.012260394  0.011388009            5 
 1490000   0.65483797   -8.6875706     218.7495  0.012234312  0.011377555            5 
 1491000    0.6505724    -8.678766    218.47254  0.012210627  0.011367093            6 
 1492000   0.65051633   -8.6696313    219.41784  0.012255242  0.011356634            6 
 1493000    0.6605742   -8.6894583    218.79665   0.01221236  0.011346186            5 
 1494000   0.65609963   -8.6805525    218.93979   0.01221217  0.011335772           12 
 1495000   0.64315447   -8.7105467    218.84761  0.012198864  0.011325336            7 
 1496000   0.65729777   -8.6881662    218.69556  0.012182239  0.011314901            6 
 1497000   0.65992514   -8.7078977    218.85713  0.012183096  0.011304499            5 
 1498000   0.65673538   -8.6982961    218.59546  0.012160406  0.011294106            6 
 1499000   0.65545434   -8.7061064    218.31886  0.012136917  0.011283714           10 
 1500000    0.6619627   -8.7122415    218.49513  0.012138619   0.01127332            6 
 1501000   0.63849283   -8.7146702    218.76511   0.01214552  0.011262939            5 
 1502000    0.6320536   -8.7237927    218.55115  0.012125563  0.011252538            3 
 1503000   0.66388882   -8.7119421     218.6254  0.012121612  0.011242157            4 
 1504000   0.65524294   -8.7158175    218.73887   0.01211984  0.011231773           10 
 1505000   0.66198776   -8.7038081    218.67757  0.012108393   0.01122144           12 
 1506000   0.65302023   -8.7089377    218.82022  0.012108246  0.011211109            5 
 1507000   0.63599195   -8.6996866    219.29104  0.012126246   0.01120079            7 
 1508000   0.67012056   -8.7210443    218.50048  0.012074518  0.011190484           10 
 1509000   0.64530029   -8.7092506    218.54532  0.012068992  0.011180189            8 
 1510000   0.65261185   -8.7274209    218.44406  0.012055412  0.011169875            2 
 1511000   0.64112807   -8.7045719    218.28181  0.012038485  0.011159596            9 
 1512000   0.64591489   -8.6961958    218.40639  0.012037389  0.011149334            5 
 1513000   0.65600061   -8.7011248    218.72268  0.012046854  0.011139073           13 
 1514000   0.65418023   -8.7053682    218.62832  0.012033703  0.011128826           17 
 1515000   0.66226146   -8.6964511    219.01408  0.012046979  0.011118588            7 
 1516000   0.64734456   -8.7052769    218.83809  0.012029359  0.011108361           17 
 1517000   0.64372531    -8.690367    218.56275  0.012006303  0.011098148           11 
 1518000   0.66257571   -8.6962531    218.98772  0.012021724  0.011087932           10 
 1519000   0.66457571   -8.7197082    218.91862  0.012010019  0.011077746           13 
 1520000   0.64586953   -8.7144389    218.66415  0.011988166  0.011067576           20 
 1521000    0.6446157   -8.6868469    218.76303  0.011985702  0.011057396           17 
 1522000   0.63284462    -8.720619    218.55391  0.011966377  0.011047239           12 
 1523000   0.64825182   -8.7238361     218.7785  0.011970809  0.011037077           13 
 1524000   0.63405696   -8.7041901    219.01871  0.011976089  0.011026918           15 
 1525000   0.63908954   -8.6968833     218.4445  0.011936858  0.011016791            8 
 1526000   0.63645869   -8.7183664    218.14856  0.011912875  0.011006656           10 
 1527000   0.64067105   -8.7176982    218.52093  0.011925395  0.010996519            3 
 1528000   0.64140501    -8.716999    218.30514  0.011905822  0.010986367           18 
 1529000   0.62575949   -8.7195197    218.13724  0.011888884  0.010976234            8 
 1530000   0.64736886   -8.7234691     218.4815  0.011899864  0.010966111           13 
 1531000    0.6573891   -8.7364284    218.43704  0.011889671  0.010955996           10 
 1532000   0.64311358   -8.7322293    218.24738  0.011871594  0.010945897           13 
 1533000   0.64303053   -8.7416272    218.60566  0.011883326  0.010935813           14 
 1534000   0.63596997   -8.7526604    218.01556  0.011843522  0.010925709            4 
 1535000   0.63644118     -8.73804    218.18783  0.011845159   0.01091563           10 
 1536000    0.6436036   -8.7215426    217.94643   0.01182435  0.010905561           14 
 1537000   0.63390408   -8.7303226    218.49035  0.011846148  0.010895512            9 
 1538000   0.64838739   -8.7228232    218.20404  0.011822932  0.010885474            6 
 1539000   0.63895961   -8.7281405    218.02424  0.011805514  0.010875427            7 
 1540000   0.63214345   -8.7374599    218.24847  0.011809982  0.010865393           20 
 1541000   0.63981645   -8.7324868    218.43904  0.011812624  0.010855371           15 
 1542000   0.62393168    -8.733126    218.56352   0.01181169  0.010845353           17 
 1543000   0.63180388   -8.7426152    218.26533  0.011787931   0.01083535           13 
 1544000    0.6355625   -8.7453836    218.35855  0.011785328  0.010825351           13 
 1545000   0.62991856   -8.7487271    218.44892  0.011782574  0.010815376           16 
 1546000   0.64647694   -8.7388548    218.09253  0.011755742  0.010805397           15 
 1547000   0.64277072   -8.7308061    218.05191  0.011745955  0.010795419            5 
 1548000   0.63669149   -8.7401838    218.08417  0.011740104  0.010785453           15 
 1549000   0.62773678   -8.7579051    217.90471   0.01172287  0.010775499           16 
 1550000   0.65161652   -8.7579716    217.94541  0.011717495   0.01076555           10 
 1551000   0.64048269   -8.7607552    218.04723  0.011715411  0.010755616            6 
 1552000   0.64174134   -8.7511642    218.26824  0.011719729  0.010745692           11 
 1553000   0.63622193   -8.7486772    218.33775  0.011715913  0.010735789           10 
 1554000    0.6418847   -8.7623005    218.17531  0.011699663  0.010725903           17 
 1555000   0.63405604   -8.7409027    218.22854  0.011694992  0.010716026           15 
 1556000   0.63284539   -8.7622637    218.61368  0.011708102  0.010706156           17 
 1557000   0.62639151   -8.7489351    218.40027   0.01168916  0.010696301           20 
 1558000   0.62007211   -8.7516747    218.24666  0.011673441  0.010686457           19 
 1559000   0.62955789   -8.7516308    218.27083  0.011667245  0.010676634           12 
 1560000   0.63654537   -8.7291853    218.16778  0.011654262  0.010666808           13 
 1561000   0.62839359   -8.7656278    217.98882  0.011637242  0.010656995            8 
 1562000   0.62105575   -8.7562764    218.02339  0.011631636  0.010647173           17 
 1563000   0.63771692   -8.7523285    218.17416  0.011632233  0.010637379           10 
 1564000   0.62775286   -8.7582195    217.82439  0.011606159    0.0106276            6 
 1565000   0.63921863   -8.7660073    218.31888  0.011625073  0.010617834           12 
 1566000   0.63234214   -8.7436719    218.19805   0.01161122  0.010608057            8 
 1567000   0.63884235   -8.7618572    217.93765  0.011589962    0.0105983           13 
 1568000   0.61766376   -8.7392524    217.87962  0.011579487  0.010588548            3 
 1569000   0.63103063   -8.7719345    218.12173  0.011584966   0.01057879           11 
 1570000   0.62343767   -8.7377579    218.35829  0.011590143  0.010569056           17 
 1571000   0.62910271   -8.7889187    218.03745  0.011565746  0.010559331           19 
 1572000   0.62660805   -8.7755728    218.08845  0.011561092  0.010549615           12 
 1573000   0.62385272   -8.7490955    218.21968  0.011560695  0.010539921            5 
 1574000   0.62422728   -8.7663874    218.39753  0.011562766   0.01053022           14 
 1575000   0.62360381   -8.7678944    218.07074  0.011538134  0.010520545           20 
 1576000   0.61730808   -8.7558239    218.06661  0.011530595  0.010510882            7 
 1577000   0.62609856   -8.7567049    217.95547   0.01151741  0.010501223           13 
 1578000   0.60724031   -8.7660531    218.30194  0.011528408  0.010491574            3 
 1579000    0.6229099   -8.7529045    218.28349  0.011520134  0.010481933            4 
 1580000   0.62570342   -8.7602058    217.83788   0.01148934  0.010472315           19 
 1581000   0.63168019   -8.7658626    217.96714  0.011488886  0.010462689            5 
 1582000   0.62213718   -8.7668598    217.77299  0.011471396  0.010453065           20 
 1583000   0.60606275   -8.7520965    217.64086  0.011457194  0.010443447           16 
 1584000   0.61845379   -8.7960433      217.733  0.011454808  0.010433834            4 
 1585000   0.62479165    -8.751851    217.63623  0.011442494  0.010424217            6 
 1586000   0.60192332   -8.7758631    217.89551  0.011448903  0.010414612            4 
 1587000   0.61804917   -8.8016996    217.66385  0.011429524  0.010404993           10 
 1588000   0.61284124   -8.7982667    218.16294  0.011448517  0.010395397            7 
 1589000   0.62430869   -8.7846913    217.82918  0.011423809  0.010385818            8 
 1590000   0.62050164   -8.8069237    217.50728  0.011399752  0.010376256            6 
 1591000   0.62989958   -8.8042887    218.07588   0.01142237  0.010366693           10 
 1592000   0.61930758   -8.7878707    217.98593  0.011410487  0.010357143            5 
 1593000   0.60805816   -8.7678007    217.99929  0.011404022  0.010347606            2 
 1594000   0.62286203   -8.7870833    217.82303  0.011387653  0.010338068           15 
 1595000   0.61239185   -8.7717885    217.98145  0.011388791  0.010328557            2 
 1596000   0.60772736   -8.8026799     217.5971  0.011361586  0.010319047           11 
 1597000   0.62572632   -8.7752757    217.59892  0.011354567  0.010309555            6 
 1598000   0.60398286   -8.7844013    217.58055  0.011346503  0.010300071            8 
 1599000   0.59576338   -8.8075099    217.75893  0.011348704  0.010290579            4 
 1600000   0.61725599    -8.782678    217.94195  0.011351143  0.010281107            9 
 1601000   0.61034061   -8.7972982    217.52322  0.011322258  0.010271633            4 
 1602000   0.59951147   -8.8055007    217.71879  0.011325364  0.010262156            9 
 1603000   0.61690127   -8.7796241    217.89369  0.011327391  0.010252719           10 
 1604000   0.61714186   -8.7806075    217.67859  0.011309154  0.010243294           16 
 1605000   0.62104918   -8.7872639    217.43872  0.011289653  0.010233877            4 
 1606000   0.60580184   -8.8040327    217.47834   0.01128468   0.01022447            3 
 1607000   0.60066583   -8.7974209    217.48893  0.011278206  0.010215061            3 
 1608000   0.61316802   -8.7953676    218.03846  0.011299671  0.010205671            9 
 1609000   0.60017929   -8.7940644    217.78838  0.011279696  0.010196282           16 
 1610000   0.61067145    -8.788874    217.59791  0.011262832  0.010186906           12 
 1611000    0.6037499   -8.7972072    217.71913  0.011262111   0.01017754            6 
 1612000   0.61145069   -8.8097633    217.88656   0.01126378  0.010168197           18 
 1613000   0.60937664   -8.7706164    217.53858  0.011238819  0.010158863           11 
 1614000   0.62227304   -8.7909172    217.59558  0.011234799  0.010149531           15 
 1615000   0.61178451   -8.7888656    217.43366  0.011219487  0.010140216           11 
 1616000   0.60289498   -8.7931929    217.80841  0.011231869  0.010130904           16 
 1617000   0.61017327   -8.8129969    217.62594   0.01121552  0.010121618            8 
 1618000   0.59869288   -8.8109452    217.72531  0.011213706  0.010112327           16 
 1619000   0.60865693   -8.8142778    217.47208  0.011193745  0.010103049           10 
 1620000   0.59924816   -8.8128242     217.6672  0.011196873  0.010093782           15 
 1621000   0.61836801   -8.8195823    217.71992  0.011192675  0.010084518            7 
 1622000   0.60213578   -8.8048973    217.49975  0.011174463  0.010075266           13 
 1623000   0.60710149   -8.8158206    217.52823   0.01116904  0.010066015            9 
 1624000   0.59760005   -8.7943981    217.36599  0.011153838   0.01005676            7 
 1625000   0.61154564     -8.81258    217.39302   0.01114836  0.010047521           14 
 1626000   0.60520455   -8.7929458    217.32166  0.011137847  0.010038287            8 
 1627000    0.5975739   -8.8049339    217.45578   0.01113787  0.010029078           13 
 1628000    0.6155119   -8.8079841    217.19784  0.011117826  0.010019881           14 
 1629000   0.60899773   -8.8288558    217.46423  0.011124628  0.010010687           13 
 1630000   0.60523815   -8.8218843    217.53363  0.011121351  0.010001505           18 
 1631000   0.61155526   -8.8277921    217.49093  0.011112351 0.0099923211           12 
 1632000   0.59686833   -8.8308077    217.16605  0.011088953  0.009983151           14 
 1633000   0.60945888   -8.8011303    217.26667  0.011087297 0.0099739901           17 
 1634000   0.60347081   -8.8195571    217.55337  0.011095133 0.0099648504           15 
 1635000   0.59614061   -8.8334515    217.12708   0.01106662 0.0099557068           14 
 1636000   0.60201195   -8.8303912    217.18137  0.011062621 0.0099465701           19 
 1637000   0.59764598   -8.8244975    217.53866  0.011074051 0.0099374492           12 
 1638000   0.60315353   -8.8096732    217.70676  0.011075843 0.0099283271            9 
 1639000   0.60652025   -8.8138809    217.20353  0.011043499 0.0099192203           16 
 1640000   0.61021928   -8.8242356    216.95843  0.011024311 0.0099101191            5 
 1641000   0.60133776   -8.8069817    217.38252  0.011039128 0.0099010225           16 
 1642000   0.58748417   -8.8179768    217.90685  0.011059016 0.0098919527            5 
 1643000    0.5840036   -8.8169177    217.58529  0.011035975 0.0098829039           11 
 1644000   0.60370549   -8.8057357    217.38488  0.011019104 0.0098738569           14 
 1645000   0.60724563   -8.8392073    217.35341  0.011010811 0.0098648114           22 
 1646000   0.60146184    -8.838529    217.44262  0.011008638 0.0098557859           22 
 1647000   0.60096451   -8.8183258    217.11788  0.010985523 0.0098467828           26 
 1648000   0.59772208    -8.818663     217.2142  0.010983728 0.0098377782           29 
 1649000   0.59624108   -8.8199643    217.70205   0.01100172 0.0098287873           19 
 1650000   0.59031883   -8.8322451    217.04951  0.010962096 0.0098197971           11 
 1651000   0.58607343   -8.8217318    217.48726  0.010977552 0.0098108144           23 
 1652000   0.59348621   -8.8255581    217.43893  0.010968469 0.0098018432           22 
 1653000   0.58901778   -8.8303426    217.20661  0.010950122 0.0097928831           15 
 1654000    0.5922211   -8.8283152    217.49043  0.010957801 0.0097839341           27 
 1655000   0.59602603   -8.8415351    216.95556  0.010924248 0.0097749778            8 
 1656000   0.59205493   -8.8077839    217.30992  0.010935483  0.009766041           20 
 1657000   0.58130199   -8.8339628     217.0271   0.01091466 0.0097571108            7 
 1658000   0.58142119   -8.8419052    217.33034  0.010923318 0.0097481843           15 
 1659000    0.5885708   -8.8191438    217.12852  0.010906596 0.0097392833           18 
 1660000   0.58402024   -8.8385281    216.93339  0.010890231 0.0097303839           10 
 1661000    0.5896283   -8.8179143    217.02092  0.010888065 0.0097214951            5 
 1662000   0.58824236   -8.8141155    217.27167  0.010894087 0.0097126131           12 
 1663000    0.5837775   -8.8417817    217.34939   0.01089143 0.0097037487           13 
 1664000   0.58342722   -8.8190243    217.17311  0.010876057 0.0096948978           10 
 1665000    0.5818887   -8.8455318     217.0312  0.010862422 0.0096860332            3 
 1666000   0.60292751   -8.8469375    217.37189  0.010872944 0.0096771885            7 
 1667000   0.58576559   -8.8369778    216.99107  0.010847384 0.0096683513           10 
 1668000   0.58018863   -8.8230949    217.39643  0.010861133 0.0096595244           17 
 1669000   0.58815222   -8.8521526    217.07096  0.010838374 0.0096507069           14 
 1670000   0.56981237   -8.8362325    217.08921  0.010832795  0.009641909            7 
 1671000   0.58496791   -8.8512382    216.83353  0.010813561 0.0096331058            8 
 1672000   0.59226021   -8.8544788    216.86257  0.010808541 0.0096243122            3 
 1673000   0.58213272   -8.8399388    217.14255  0.010816027  0.009615535            6 
 1674000   0.59952386   -8.8434683    217.04021  0.010804471 0.0096067715            6 
 1675000   0.59053215   -8.8272231    217.33313  0.010812593 0.0095980221           12 
 1676000     0.583886   -8.8237227    217.68519  0.010823647   0.00958928           11 
 1677000   0.57686541   -8.8431503    217.31049  0.010798574 0.0095805433            3 
 1678000   0.58096584   -8.8294003    217.33808  0.010793508 0.0095718178            2 
 1679000   0.58278916   -8.8246185    217.49078  0.010794658 0.0095631024            3 
 1680000   0.57089249     -8.84909    216.77417  0.010752687 0.0095543845            9 
 1681000   0.57024885   -8.8657751    216.93041  0.010754036 0.0095456737            5 
 1682000   0.57714728    -8.838614    216.98992   0.01075059 0.0095369893           13 
 1683000   0.56051803    -8.874498    217.09604  0.010749457 0.0095283053            7 
 1684000   0.58061242   -8.8496101    216.94653  0.010735676 0.0095196397           13 
 1685000   0.57733372   -8.8579784    216.88545  0.010726283 0.0095109726           16 
 1686000   0.59604757    -8.855336    217.01264  0.010726208 0.0095023173            9 
 1687000   0.59193508   -8.8353191    216.58146   0.01069855 0.0094936749           14 
 1688000   0.57878559    -8.840096    217.02564  0.010714141 0.0094850483           11 
 1689000   0.58273943   -8.8492837    216.95468  0.010704297 0.0094764389           17 
 1690000   0.57245816   -8.8303341    216.78987  0.010689836 0.0094678313           12 
 1691000   0.57283561   -8.8558328    217.10618  0.010699102 0.0094592378            7 
 1692000   0.57508717   -8.8475776    216.97615  0.010686375 0.0094506604           16 
 1693000   0.58381383     -8.84929    216.35556  0.010649516 0.0094420917           20 
 1694000   0.58391197   -8.8453631    217.37107  0.010693185 0.0094335268           21 
 1695000   0.57678415   -8.8437074      217.011  0.010669174 0.0094249711           16 
 1696000   0.57398001   -8.8547887    216.78703  0.010651879 0.0094164238           18 
 1697000   0.57983676   -8.8666574    217.11654  0.010661783 0.0094078897           16 
 1698000   0.56999894   -8.8674227    216.61064  0.010630676 0.0093993612           12 
 1699000   0.57758979   -8.8318743    217.14844  0.010650796 0.0093908457            5 
 1700000   0.57837186   -8.8354957    216.71254  0.010623164 0.0093823476           11 
 1701000   0.58149658    -8.856929    216.76583  0.010619529 0.0093738539           15 
 1702000   0.58112402   -8.8433924    217.05061  0.010627233 0.0093653703            7 
 1703000   0.58412727   -8.8437022    217.33645   0.01063498 0.0093568957            4 
 1704000   0.57050333   -8.8518477    216.88493  0.010606657 0.0093484314            5 
 1705000   0.57475325   -8.8525156    217.08677  0.010610301 0.0093399714            7 
 1706000   0.56754193   -8.8700381    217.22633  0.010610899 0.0093315211            6 
 1707000   0.57912962   -8.8459716    217.17755  0.010602302 0.0093230854           15 
 1708000   0.58227498   -8.8610134    217.13811   0.01059417 0.0093146455           15 
 1709000    0.5812085   -8.8630318    216.98514  0.010580512 0.0093062194           17 
 1710000   0.57646686   -8.8498487    217.13649    0.0105817 0.0092977991            5 
 1711000   0.57642365   -8.8527339    217.14694  0.010576025 0.0092893961           13 
 1712000   0.56304618    -8.852664    217.21655  0.010573236  0.009280998           11 
 1713000   0.57157708   -8.8604017    216.80116  0.010546855 0.0092726116           20 
 1714000   0.58404181   -8.8749458    216.85549  0.010543343 0.0092642227           20 
 1715000   0.56216982   -8.8621987    216.56736  0.010523195 0.0092558536           14 
 1716000   0.55991295   -8.8860987    216.80701  0.010528701 0.0092474736            8 
 1717000   0.56859176   -8.8765449    217.07349  0.010535502 0.0092391177           20 
 1718000   0.57290073   -8.8744554    216.93319  0.010522565 0.0092307636           12 
 1719000   0.55669049   -8.8595153    216.81642  0.010510782 0.0092224344           11 
 1720000   0.56340806   -8.8698427    216.97965   0.01051258 0.0092141039           14 
 1721000   0.56878243   -8.8661548    216.87313  0.010501314 0.0092057779           15 
 1722000   0.56527788   -8.8726575    216.57087  0.010480588 0.0091974681           11 
 1723000   0.56470377    -8.864905    216.50819  0.010471474  0.009189156           13 
 1724000   0.56719734   -8.8538694    216.76929   0.01047802 0.0091808579            9 
 1725000   0.55936176   -8.8669315    216.58552  0.010463069 0.0091725595           13 
 1726000   0.56229293   -8.8736099    216.50801  0.010453264 0.0091642745           14 
 1727000   0.56103341   -8.8596254    216.55031  0.010449253  0.009155997           16 
 1728000    0.5691265   -8.8769047    216.57712  0.010444498  0.009147719            7 
 1729000   0.54417276   -8.8894135    216.67325  0.010443091 0.0091394596           18 
 1730000   0.56385554   -8.8649798    217.01956  0.010453736 0.0091312049           12 
 1731000   0.54916404   -8.8682921      216.844  0.010439245 0.0091229583           18 
 1732000   0.53711828   -8.8842784    216.79741  0.010430976 0.0091147258           10 
 1733000   0.55990633   -8.8746912    216.40296   0.01040599 0.0091065011           15 
 1734000    0.5539341   -8.8847341    216.49894  0.010404601 0.0090982883           10 
 1735000   0.55480924   -8.8799842    216.92721  0.010419174  0.009090073            8 
 1736000   0.56443227   -8.9016836    216.77898  0.010406057 0.0090818777           10 
 1737000   0.55280443   -8.8839459    216.58282  0.010390655 0.0090736913           10 
 1738000   0.54756435   -8.8908852    216.68475  0.010389564  0.009065503            8 
 1739000   0.56547982   -8.8664167     216.3822  0.010369091 0.0090573253           15 
 1740000   0.55253772   -8.8650563    216.79486  0.010382895 0.0090491651           16 
 1741000   0.56087649   -8.8816078    216.02419  0.010340043 0.0090410148           13 
 1742000    0.5673183   -8.8683394    216.54321  0.010358936 0.0090328694           16 
 1743000   0.57378429   -8.8822244    216.11665    0.0103326 0.0090247317           12 
 1744000   0.55280271   -8.8958592    216.56458  0.010348078 0.0090166121           19 
 1745000   0.56562463   -8.9084397    216.47802  0.010338014 0.0090085108           11 
 1746000   0.55690675   -8.8697485    216.30168  0.010323677 0.0090004034            8 
 1747000   0.56625043   -8.8814931    216.47003  0.010325798 0.0089922981            6 
 1748000   0.55681168   -8.8911884    216.47971  0.010320352 0.0089842145           10 
 1749000   0.56154704   -8.8927631    216.58742  0.010319584 0.0089761232            9 
 1750000    0.5580499   -8.9101087    216.53083  0.010310992 0.0089680515           13 
 1751000   0.55012924   -8.9059617    216.20196  0.010289452 0.0089599797           21 
 1752000   0.55089429   -8.9025579    216.11186  0.010279293 0.0089519151           11 
 1753000   0.54097151   -8.8879759    216.27225  0.010281054 0.0089438548           20 
 1754000   0.54125489   -8.8965215    216.24964  0.010274118 0.0089358107           12 
 1755000   0.55257771   -8.8931749     216.3411  0.010272607 0.0089277777           12 
 1756000   0.54335699   -8.8714515    216.27689  0.010263709 0.0089197473            6 
 1757000   0.55211172   -8.8821998    216.16013   0.01025233 0.0089117305           16 
 1758000   0.54093114   -8.8932831    216.65327  0.010269875  0.008903725           15 
 1759000   0.54795753   -8.8960551    216.47992  0.010255823 0.0088957348           14 
 1760000   0.54367682   -8.9154478    216.29407  0.010241197 0.0088877508           11 
 1761000   0.53499271   -8.8772486    216.84833  0.010261609 0.0088797793           21 
 1762000   0.56254682   -8.9172608    216.61442  0.010244723 0.0088718168           15 
 1763000   0.54960763   -8.9057348    216.68771  0.010242376 0.0088638537           11 
 1764000   0.54916369    -8.899642    216.19501  0.010213294 0.0088558948            9 
 1765000   0.54172011   -8.9063687    216.32023   0.01021342 0.0088479486           17 
 1766000   0.55834078   -8.8954191    216.73562  0.010227238 0.0088400086           19 
 1767000    0.5501495   -8.9038062    216.37353  0.010204373 0.0088320801           14 
 1768000   0.56000691   -8.8914263    216.74402  0.010216064 0.0088241638           14 
 1769000   0.55206979   -8.9196936    216.25353  0.010187183 0.0088162559           13 
 1770000   0.54430139    -8.903506    216.11657   0.01017498 0.0088083517            7 
 1771000   0.55132537   -8.9230139    216.44344  0.010184615 0.0088004607           16 
 1772000   0.55707486    -8.894257    216.20081  0.010167457 0.0087925696           11 
 1773000   0.54980186   -8.9149341    216.45114  0.010173489 0.0087846977           11 
 1774000    0.5403266   -8.9180389    216.09729  0.010151131 0.0087768294           14 
 1775000   0.56300784   -8.9042262    216.43965  0.010161486 0.0087689768           22 
 1776000   0.54245434   -8.9064046    216.46036  0.010156736 0.0087611392            9 
 1777000   0.54315151   -8.9155486    216.38273   0.01014738 0.0087533098           14 
 1778000   0.54125681   -8.9100341     216.5377  0.010148936 0.0087454979            8 
 1779000   0.54388264   -8.9188169    216.46804  0.010139968 0.0087376807            7 
 1780000   0.53665912   -8.9017279    216.78059  0.010148904 0.0087298764            8 
 1781000   0.54165502   -8.9095793    216.64523  0.010136872 0.0087220832           11 
 1782000   0.54032271   -8.9085459    216.51675  0.010125175 0.0087142971           10 
 1783000    0.5352011   -8.9010895    216.03633  0.010097043 0.0087065164           10 
 1784000   0.53927915    -8.921092    216.34811  0.010105947 0.0086987359           14 
 1785000   0.54896752   -8.9199454    216.41878  0.010103585 0.0086909767           12 
 1786000   0.52916582     -8.91324    216.36525   0.01009543 0.0086832216           11 
 1787000   0.53584169   -8.9160069    216.30477   0.01008696 0.0086754753           17 
 1788000   0.53808963   -8.9143714    216.33711  0.010082826 0.0086677377            9 
 1789000   0.54409713   -8.9070853    216.57252  0.010088155 0.0086600083           10 
 1790000   0.54190838   -8.9040213    216.63084  0.010085235 0.0086522935           23 
 1791000   0.52682695   -8.8915601    216.34145  0.010066139 0.0086445766           12 
 1792000    0.5447394   -8.9063489     216.4988  0.010067839 0.0086368801           18 
 1793000   0.52999805   -8.9280695    216.13523  0.010045326 0.0086291903           10 
 1794000   0.52956924   -8.9078538    216.68802  0.010065404 0.0086214995           13 
 1795000   0.53136225    -8.920249    216.24041  0.010039016  0.008613828            5 
 1796000   0.53718803   -8.9160146    216.05546  0.010024845 0.0086061554            9 
 1797000   0.53707694   -8.9239561    216.31286  0.010031203  0.008598493            8 
 1798000   0.52804437   -8.9184322    216.25462  0.010022924 0.0085908405           11 
 1799000   0.53263018   -8.9234933    215.85831 0.0099989955 0.0085831995           11 
 1800000   0.55029512   -8.9068893    216.49598  0.010022962 0.0085755655           14 
 1801000   0.52000085   -8.9217845    216.14717  0.010001257 0.0085679537           10 
 1802000   0.51866045   -8.8959837    216.14466 0.0099955908 0.0085603429            9 
 1803000      0.52814   -8.9327457    216.39854  0.010001781 0.0085527332            5 
 1804000   0.52005437   -8.9232982    216.14855 0.0099846893 0.0085451377            8 
 1805000    0.5307907   -8.9408454    216.44285 0.0099927448 0.0085375524            7 
 1806000   0.52589129   -8.9242662    216.45745 0.0099878853 0.0085299728           11 
 1807000    0.5314076   -8.9172182    215.99318 0.0099609471 0.0085224015            6 
 1808000    0.5324763   -8.9187369    216.31045 0.0099700611 0.0085148285            9 
 1809000   0.53059615   -8.9279497    216.16833  0.009958003 0.0085072699            7 
 1810000    0.5351491   -8.9387998    216.04831 0.0099469756 0.0084997191           19 
 1811000    0.5223508   -8.9361627    215.88125 0.0099337959 0.0084921693           22 
 1812000   0.52426363   -8.9170972    215.95144 0.0099315418  0.008484636           11 
 1813000   0.54548959   -8.9260591    216.22574 0.0099386716 0.0084771024           13 
 1814000   0.53117962   -8.9424866    216.13697 0.0099291145 0.0084695748           14 
 1815000   0.52356748   -8.9188691    216.14175 0.0099238637 0.0084620591           16 
 1816000   0.53098205   -8.9273268    216.08022 0.0099155757 0.0084545534           11 
 1817000   0.52784927   -8.9524373    216.10078 0.0099110611 0.0084470575           12 
 1818000   0.52105206   -8.9254906    215.52239 0.0098790974 0.0084395682           11 
 1819000   0.53729444   -8.9087629    216.36198 0.0099121302 0.0084320863           16 
 1820000   0.52892795   -8.9401939     215.9109 0.0098860301 0.0084246163            7 
 1821000   0.52118573   -8.9375189    215.99764 0.0098845706 0.0084171537           10 
 1822000   0.51445166   -8.9353746    216.06282 0.0098821268 0.0084096907           12 
 1823000   0.52562449   -8.9286303    215.87029 0.0098679051  0.008402249           18 
 1824000   0.52819232   -8.9454353      215.951 0.0098661826 0.0083948106           21 
 1825000   0.52635083   -8.9340831    216.05991 0.0098657494 0.0083873787           22 
 1826000   0.53740606   -8.9434289    215.92665 0.0098542648 0.0083799601            9 
 1827000   0.51765283   -8.9563252    216.06616 0.0098552343 0.0083725507            9 
 1828000   0.52526846   -8.9334244    216.02182  0.009847822 0.0083651386           11 
 1829000   0.52256749   -8.9404285    216.03057 0.0098428362 0.0083577353            9 
 1830000   0.52524643    -8.940064    215.73676 0.0098240781 0.0083503423            9 
 1831000   0.52544013   -8.9640079    215.71355 0.0098176566 0.0083429612           24 
 1832000   0.52864221   -8.9550881    216.26819  0.009837527 0.0083355827           17 
 1833000   0.52056301   -8.9389975    216.04244 0.0098218966  0.008328212           16 
 1834000   0.52551704   -8.9519248    215.77831 0.0098045399 0.0083208474           14 
 1835000   0.52736245   -8.9277705    215.90131 0.0098047824 0.0083134969           11 
 1836000   0.51664864    -8.967219    216.09445 0.0098082086 0.0083061531           12 
 1837000   0.53081561    -8.956103    215.57572 0.0097793376 0.0082988176           18 
 1838000   0.52261646   -8.9448507    215.68482 0.0097789636 0.0082914905            6 
 1839000   0.52415172   -8.9489633    216.00444 0.0097881294  0.008284176           14 
 1840000   0.51808935   -8.9536281    215.75306 0.0097714247 0.0082768697           12 
 1841000    0.5035939   -8.9440966    215.87261 0.0097715285 0.0082695615           19 
 1842000   0.51636089   -8.9545329    215.63355 0.0097554085 0.0082622652           10 
 1843000   0.51259702   -8.9615912    215.79585 0.0097574541 0.0082549821            7 
 1844000   0.50917131   -8.9522467     216.0975 0.0097657943 0.0082477037           15 
 1845000    0.5014772   -8.9568867    215.63673 0.0097396895 0.0082404326           14 
 1846000   0.51772303   -8.9464957    215.58182 0.0097319346  0.008233168           13 
 1847000   0.51397077   -8.9654391    215.61219 0.0097280359 0.0082259146           14 
 1848000   0.52599964   -8.9466687    215.37786 0.0097122053 0.0082186631           11 
 1849000   0.51752816   -8.9618447    215.76963 0.0097246091 0.0082114267           20 
 1850000    0.5167693   -8.9580948    215.91927 0.0097260934 0.0082041933           18 
 1851000   0.51275941   -8.9684848     215.9173 0.0097207499 0.0081969688            9 
 1852000   0.52025997   -8.9510347    215.81155 0.0097107427  0.008189741           13 
 1853000   0.52315471   -8.9484453    215.92933 0.0097107992 0.0081825308           11 
 1854000   0.49771434   -8.9508605    216.02596 0.0097099046 0.0081753308           13 
 1855000   0.52184247   -8.9604648    215.60656 0.0096858291  0.008168144            6 
 1856000   0.51366232   -8.9752533    215.54074 0.0096776555 0.0081609629           14 
 1857000   0.50716969   -8.9540846    215.99199  0.009692694  0.008153785           18 
 1858000   0.51807604   -8.9423664     215.4074 0.0096612575 0.0081466179           23 
 1859000   0.50192808   -8.9561411    216.13397 0.0096886303 0.0081394589           12 
 1860000   0.50584971   -8.9691404    215.91289 0.0096735166 0.0081323021           17 
 1861000   0.50275809   -8.9838481    216.03029 0.0096735754 0.0081251574           18 
 1862000   0.50620681   -8.9636176     215.7583 0.0096562075 0.0081180213           19 
 1863000   0.50649143   -8.9632003    215.55667 0.0096420051 0.0081108936           28 
 1864000   0.50832502   -8.9730875    215.47467 0.0096331665  0.008103771           11 
 1865000   0.52611383   -8.9809828    215.88643 0.0096463999 0.0080966586            9 
 1866000   0.50099412   -8.9757434     215.5663 0.0096269336 0.0080895561           18 
 1867000   0.50124564   -8.9741106    215.53372 0.0096203234 0.0080824627           22 
 1868000   0.51177384   -8.9694457    215.67736 0.0096215811  0.008075373           10 
 1869000   0.49901743   -8.9641938    215.31847 0.0096004312 0.0080682884           14 
 1870000   0.51183442   -8.9647635    215.71816 0.0096131089 0.0080612158            8 
 1871000   0.50305213   -8.9588426    215.77161 0.0096103515 0.0080541476           11 
 1872000   0.50188316   -8.9865476    215.34448 0.0095862036  0.008047089           19 
 1873000    0.5144076   -8.9697925    215.66803 0.0095954811 0.0080400365           18 
 1874000   0.51185182   -8.9596607     215.5873 0.0095867709 0.0080329965           22 
 1875000   0.50242542   -8.9788947    215.43983 0.0095751035 0.0080259578           20 
 1876000   0.49799326   -8.9796722    215.68063 0.0095806963 0.0080189296           19 
 1877000   0.50557015   -8.9652821    215.39685  0.009562993 0.0080119137           23 
 1878000   0.50508684   -8.9770616    215.73933 0.0095730976 0.0080049119           21 
 1879000     0.495473   -8.9881599    215.86248 0.0095734644 0.0079979131           26 
 1880000   0.50100052   -8.9623472    215.53311 0.0095537726 0.0079909175           21 
 1881000   0.50318177   -8.9733448     215.4493 0.0095449806  0.007983942           13 
 1882000   0.50303797   -8.9787297    215.87957 0.0095589609 0.0079769689           14 
 1883000   0.48749991   -8.9654188    215.75966 0.0095485776  0.007970006           21 
 1884000   0.49822659   -8.9732765    215.55862 0.0095346167 0.0079630527           22 
 1885000   0.49534459    -8.968736    215.91689 0.0095453973 0.0079560997           32 
 1886000   0.50840542   -8.9733617     215.7086 0.0095311331 0.0079491552           24 
 1887000   0.50740123   -8.9598054    215.31701 0.0095087886 0.0079422196           20 
 1888000   0.49717624   -8.9886139    215.61613 0.0095169549 0.0079352897           24 
 1889000   0.49068876   -8.9932764    215.85771  0.009522574 0.0079283655           23 
 1890000   0.51073768   -8.9801775    215.63029 0.0095075085 0.0079214507           24 
 1891000   0.49277999   -8.9970167    215.24316 0.0094854204 0.0079145392           20 
 1892000   0.50119177      -8.9782    215.37176 0.0094860712 0.0079076389           23 
 1893000   0.49565534   -8.9827606    215.27907 0.0094769799 0.0079007367           10 
 1894000   0.50497153   -8.9702678    215.30729 0.0094732174   0.00789384           20 
 1895000   0.49947748   -8.9819683     215.7104 0.0094859455 0.0078869616           13 
 1896000   0.48687824   -8.9920898    215.34834  0.009465029 0.0078800886           14 
 1897000   0.49901434   -8.9691642    215.27538 0.0094568344 0.0078732267           22 
 1898000   0.49621001   -8.9983824     215.6012 0.0094661574 0.0078663703           14 
 1899000   0.49025665    -8.988568    215.23594 0.0094451441  0.007859523           13 
 1900000   0.49108061   -8.9884328    215.38857 0.0094468672 0.0078526905            9 
 1901000   0.49663628    -8.994162    215.50493 0.0094469984 0.0078458538           18 
 1902000   0.47893231   -9.0037793    215.27103 0.0094317836 0.0078390273           19 
 1903000   0.49178561   -8.9855849    215.31107 0.0094285808 0.0078322055           28 
 1904000   0.48247674   -9.0083953    215.24872 0.0094208997 0.0078253915           16 
 1905000   0.49248122   -8.9859967    215.40987 0.0094230038 0.0078185806           15 
 1906000   0.49407002   -8.9838168    215.49335 0.0094217099 0.0078117837           19 
 1907000   0.48601857   -9.0010202    215.56109 0.0094197293 0.0078049999           19 
 1908000    0.5054246   -8.9799527    215.37418 0.0094066292 0.0077982235           14 
 1909000   0.48774985   -9.0059816    215.41388 0.0094034345 0.0077914523           25 
 1910000   0.49258543    -8.997248    215.20127 0.0093892351  0.007784687           17 
 1911000   0.49432355   -9.0000073    215.65128 0.0094039455 0.0077779259           13 
 1912000   0.49446289     -9.00423    215.68475  0.009400486 0.0077711779            7 
 1913000   0.49093352   -9.0035264    215.68874 0.0093957456 0.0077644341           20 
 1914000   0.49733202   -9.0090157    215.13108 0.0093665568 0.0077576888           11 
 1915000   0.48529116   -8.9992297    215.49684  0.009377582 0.0077509651           10 
 1916000   0.48302364   -9.0051808    215.37252 0.0093672807 0.0077442453           14 
 1917000   0.49697422   -9.0177559    215.29429 0.0093589936 0.0077375275           18 
 1918000   0.48748436   -9.0087327    215.55302 0.0093653555   0.00773082           18 
 1919000   0.48645923   -8.9877109    215.60426 0.0093627002 0.0077241219           12 
 1920000   0.48991064   -9.0000716    215.34942 0.0093467629 0.0077174236            5 
 1921000   0.49584435     -9.01015    215.60356  0.009352922 0.0077107437           17 
 1922000   0.48441249   -9.0103272     215.3891 0.0093387575 0.0077040565           12 
 1923000   0.48739333   -9.0079034    215.20598 0.0093259656 0.0076973866           15 
 1924000   0.48758285   -8.9945452    215.35869 0.0093277325 0.0076907199           14 
 1925000    0.4807343   -9.0052478    215.28866 0.0093198556 0.0076840665           18 
 1926000   0.48475962   -9.0296035    215.51273 0.0093247115 0.0076774166           14 
 1927000   0.49132883   -9.0026239    214.99842 0.0092976312  0.007670772           14 
 1928000   0.48489988   -9.0001129    215.41962 0.0093110138 0.0076641401           20 
 1929000   0.49136157   -8.9969574    215.45716 0.0093078091  0.007657512           14 
 1930000   0.47858389   -9.0072908    215.45652 0.0093029587  0.007650896           14 
 1931000   0.47416099   -9.0222097    215.28485 0.0092907325 0.0076442805           11 
 1932000   0.48448418    -8.994833    215.24386 0.0092841556 0.0076376752           10 
 1933000   0.47084905   -9.0228692    215.24817 0.0092795382  0.007631074           13 
 1934000   0.48598018   -9.0115626    215.25588 0.0092750726 0.0076244849           18 
 1935000   0.48041597   -9.0087978    215.23585 0.0092694163 0.0076179079           22 
 1936000   0.47243958   -9.0213575    215.15853 0.0092613003 0.0076113327           21 
 1937000   0.47669299   -9.0229932    215.29949 0.0092625834 0.0076047675           19 
 1938000   0.47823795   -9.0100825    215.03275 0.0092463341 0.0075982062           10 
 1939000   0.47646822    -9.016148    215.27832 0.0092521196 0.0075916505           12 
 1940000   0.47828003   -9.0051628    215.25407 0.0092463089 0.0075851065           19 
 1941000   0.47585136   -8.9926028    215.30578 0.0092437654 0.0075785727           30 
 1942000   0.47640481    -9.012388    215.16796 0.0092330913  0.007572043           21 
 1943000   0.47640999   -9.0019712    215.24995 0.0092318557 0.0075655272           29 
 1944000   0.48520033   -9.0111217    215.26202 0.0092276245 0.0075590056           13 
 1945000   0.47608598   -9.0261381    215.29095 0.0092241197 0.0075524994           23 
 1946000   0.47238607   -9.0171323    215.25947 0.0092180314 0.0075459943           15 
 1947000   0.47585187   -9.0197174    215.08175 0.0092056904 0.0075394977           14 
 1948000   0.47165346   -9.0214666    214.66022 0.0091829322 0.0075330129           20 
 1949000   0.49148444   -9.0234644    215.08845 0.0091965303 0.0075265328           20 
 1950000   0.47750555   -9.0368247    215.17469 0.0091954997 0.0075200593           16 
 1951000   0.47254006   -9.0335999    214.82894 0.0091760184 0.0075135938           18 
 1952000   0.47461012   -9.0249094    215.21234 0.0091876855 0.0075071327           15 
 1953000   0.48104561   -9.0397011    215.07937 0.0091773069 0.0075006874           16 
 1954000   0.47727701   -9.0231323    215.15791 0.0091759601 0.0074942467           14 
 1955000   0.46571309   -9.0329931    214.99776 0.0091644398 0.0074878138           22 
 1956000   0.46742637   -9.0448283     215.1798 0.0091675103 0.0074813864           23 
 1957000   0.46890296    -9.018619    215.25941 0.0091662158 0.0074749665           33 
 1958000    0.4793136   -9.0228948     215.1941 0.0091587548 0.0074685529           25 
 1959000   0.46137302   -9.0266318    215.22701 0.0091554793 0.0074621507           23 
 1960000   0.47465888   -9.0414599    215.00044 0.0091411751 0.0074557573           19 
 1961000   0.47722519   -9.0211732    215.33698 0.0091508149 0.0074493685           23 
 1962000   0.47095711   -9.0257431     215.1504 0.0091382263 0.0074429842           23 
 1963000   0.46715108   -9.0218705    215.16802  0.009134319 0.0074366163           27 
 1964000    0.4686952   -9.0173291    215.12318 0.0091277655 0.0074302511           15 
 1965000   0.46763374   -9.0409887     215.1037 0.0091222942 0.0074238919           24 
 1966000   0.46641577   -9.0237731    215.17791 0.0091207998 0.0074175406           21 
 1967000   0.47328808   -9.0178719    215.02281 0.0091095919 0.0074111942           16 
 1968000   0.46305648   -9.0410277    215.03567 0.0091055078 0.0074048522           18 
 1969000   0.46272892   -9.0503116    214.93644 0.0090966834 0.0073985199           20 
 1970000   0.46436174   -9.0343323    215.33185 0.0091087925 0.0073921894           18 
 1971000   0.46863128   -9.0342951    214.95205 0.0090881129 0.0073858656           21 
 1972000   0.45905211   -9.0342476    215.06466  0.009088263 0.0073795492           17 
 1973000   0.46122799   -9.0475151    214.80488 0.0090726848 0.0073732354           19 
 1974000   0.46398144   -9.0259825    215.13555 0.0090820477 0.0073669373           12 
 1975000   0.46535608   -9.0276181    215.26184 0.0090827782 0.0073606476           16 
 1976000    0.4800885   -9.0505074    214.74336 0.0090563158 0.0073543614           12 
 1977000   0.46611606   -9.0358296    215.01044 0.0090629927 0.0073480771           17 
 1978000   0.45611949    -9.037273    215.14158 0.0090639358 0.0073418052            7 
 1979000   0.47505779    -9.028443    214.94643 0.0090511381 0.0073355407           11 
 1980000   0.47138204   -9.0488661    215.29795 0.0090613615 0.0073292849           12 
 1981000   0.46077511    -9.034356    214.86811 0.0090387056 0.0073230361           26 
 1982000   0.46126679   -9.0397237    214.87004 0.0090342264 0.0073167918           20 
 1983000    0.4699082   -9.0444046    214.90095 0.0090309693 0.0073105552           29 
 1984000   0.46563952   -9.0445193    215.02429 0.0090315982 0.0073043259           20 
 1985000    0.4693129   -9.0286874     214.8332 0.0090190262 0.0072981047           22 
 1986000   0.46347476   -9.0297689    214.70909 0.0090092769 0.0072918892           21 
 1987000   0.46562194   -9.0617057    214.95534 0.0090150704  0.007285678           22 
 1988000   0.45941633   -9.0411242    215.41788 0.0090299246 0.0072794724           25 
 1989000   0.46115034    -9.045149    215.04113 0.0090095999 0.0072732715           21 
 1990000   0.46232937   -9.0493729    214.56768 0.0089852464 0.0072670785           17 
 1991000   0.45871941   -9.0342968      214.987  0.008998284 0.0072608933           21 
 1992000   0.47216473   -9.0463549    215.06444 0.0089970062 0.0072547212           22 
 1993000   0.45203013   -9.0475118    215.16955 0.0089968872  0.007248553           20 
 1994000   0.45459277   -9.0429279    215.04097 0.0089870014 0.0072423838           14 
 1995000   0.45555863   -9.0670446    214.95333  0.008978836 0.0072362275           16 
 1996000   0.45460812   -9.0584126    214.69441 0.0089635273 0.0072300754           17 
 1997000   0.46384885   -9.0421692    215.20964 0.0089805391 0.0072239225           16 
 1998000   0.46095907   -9.0585702    214.76624 0.0089575511 0.0072177883           11 
 1999000   0.45929328   -9.0526701    214.50981 0.0089423799 0.0072116526           14 
 2000000   0.45682809   -9.0387149    214.85313 0.0089522139 0.0072055262            7 
 2001000   0.45557019   -9.0454508     214.6959 0.0089411918 0.0071994104           13 
 2002000   0.45820525   -9.0560509    214.82394 0.0089420556 0.0071932993           11 
 2003000    0.4549021   -9.0503885    214.79407 0.0089363483 0.0071871964           15 
 2004000   0.45432019   -9.0514241    214.83299 0.0089335075 0.0071810957           21 
 2005000   0.44902072   -9.0447022    214.81668 0.0089283739 0.0071750024            4 
 2006000   0.45150846   -9.0553567    214.74506  0.008920948 0.0071689188           15 
 2007000   0.44945475   -9.0607388    214.75905 0.0089170841   0.00716284           11 
 2008000   0.45757019   -9.0642189    214.88393 0.0089178256 0.0071567633           10 
 2009000   0.45217876   -9.0404645     214.6589 0.0089040526 0.0071506966            9 
 2010000   0.44980056   -9.0533155    214.84754 0.0089074435 0.0071446381           11 
 2011000   0.44919909   -9.0612532    214.70427 0.0088970775  0.007138584            9 
 2012000   0.44880885   -9.0659824    214.79484 0.0088964067 0.0071325395            4 
Loop time of 4935.06 on 48 procs for 2000000 steps with 4000 atoms

Performance: 70029.514 tau/day, 405.263 timesteps/s
99.4% CPU use with 48 MPI tasks x no OpenMP threads

MPI task timing breakdown:
Section |  min time  |  avg time  |  max time  |%varavg| %total
---------------------------------------------------------------
Pair    | 330.99     | 353.38     | 377.78     |  60.8 |  7.16
Neigh   | 33.045     | 34.324     | 35.531     |  10.9 |  0.70
Comm    | 314.39     | 338.02     | 362.84     |  65.0 |  6.85
Output  | 4.1502     | 4.1523     | 4.1839     |   0.2 |  0.08
Modify  | 4148.9     | 4160.7     | 4172.8     |   8.2 | 84.31
Other   |            | 44.51      |            |       |  0.90

Nlocal:        83.3333 ave          88 max          78 min
Histogram: 3 0 3 4 7 9 4 10 3 5
Nghost:        2212.38 ave        2233 max        2187 min
Histogram: 3 1 1 7 3 12 10 6 1 4
Neighs:        14821.4 ave       16377 max       13375 min
Histogram: 2 3 3 8 8 12 4 5 2 1
FullNghs:      29641.1 ave       31562 max       27624 min
Histogram: 3 2 3 8 9 5 10 2 4 2

Total # of neighbors = 1422772
Ave neighs/atom = 355.69300
Neighbor list builds = 106723
Dangerous builds = 0

#clear
#
#next RN
#
#jump SELF
Total wall time: 1:22:18
