
units lj                  # Use reduced LJ style units
atom_style atomic         # Uncharged point particles
atom_modify map hash      # Needed for indexing of clusters etc
                          # Used to be able to find where atoms are in relation to each other.

lattice fcc 1.0 spacing 1 1 1
Lattice spacing in x,y,z = 1.5874011 1.5874011 1.5874011
region box block 0 10 0 10 0 10 units lattice
create_box 2 box
Created orthogonal box = (0.0000000 0.0000000 0.0000000) to (15.874011 15.874011 15.874011)
  3 by 4 by 4 MPI processor grid
create_atoms 1 box
Created 4000 atoms
  using lattice units in orthogonal box = (0.0000000 0.0000000 0.0000000) to (15.874011 15.874011 15.874011)
  create_atoms CPU = 0.015 seconds
set type 1 type/fraction 2 0.79 78393
Setting atom values ...
  3145 settings made for type/fraction
mass 1 1.0
mass 2 1.0
pair_style lj/cut  3.5
pair_modify tail  yes
pair_coeff 1  1  1.0  1.0   # Intearaction between 1 and 1 set with epsilon = 1 and sigma = 1
pair_coeff 1  2  1.5  0.8
pair_coeff 2  2  0.5  0.88

write_data data.0
System init for write_data ...
Neighbor list info ...
  update every 1 steps, delay 10 steps, check yes
  max neighbors/atom: 2000, page size: 100000
  master list distance cutoff = 3.8
  ghost atom cutoff = 3.8
  binsize = 1.9, bins = 9 9 9
  1 neighbor lists, perpetual/occasional/extra = 1 0 0
  (1) pair lj/cut, perpetual
      attributes: half, newton on
      pair build: half/bin/atomonly/newton
      stencil: half/bin/3d
      bin: standard
WARNING: Not all mixed pair coeffs generated from mixing. Use write_data with 'pair ij' option to store all pair coeffs. (../write_data.cpp:312)


#############################
#   M E L T   S Y S T E M   #
#############################

velocity all create 2.4 2750902 mom yes dist gaussian # Assign velocities
                                                    # Temperature 2.4, random number seed, zero linear momentum
                                                                                # Gaussian distribution

timestep 0.002   # simulation timestep
thermo 1000       # output thermodynamic data every 1000 steps bf 100

# Define a fix  in this case with index 1 applied to all
# particles in the simulation. This fix is for simulations
# in the anisotropic NPT ensemble. Note that we use the MTK
# correction.
fix 1 all npt temp 2.4 2.4 0.1 iso 5.68 5.68 0.5 mtk yes tchain 5 pchain 5 # Use NPT ensemble
                                                                         # Set temperature and pressure and damping
                                                                         # Numbers of thermostats in chain and in barostat
run 10000          # run for 10000 steps
Per MPI rank memory allocation (min/avg/max) = 3.642 | 3.644 | 3.648 Mbytes
Step Temp E_pair E_mol TotEng Press Volume 
       0          2.4   -3.7530074            0  -0.15390738    -3.337815         4000 
    1000    2.4141664   -3.1230686            0   0.49727562    5.8177536    3781.4303 
    2000     2.428039   -3.1708779            0   0.47027002    5.6749427    3759.9573 
    3000    2.3784944   -3.1732541            0   0.39359554    5.8776126    3730.0993 
    4000    2.4529049   -3.1312591            0   0.54717842    5.8442437    3765.2643 
    5000    2.4127885   -3.0986609            0   0.51961704    5.7205237    3808.0147 
    6000    2.4033091   -3.1653677            0   0.43869479    5.5431465    3769.0423 
    7000    2.3868954   -3.1549999            0   0.42444807    5.8458822      3752.82 
    8000    2.3636926    -3.174404            0   0.37024852    5.6223734    3770.5372 
    9000    2.3916067   -3.1731917            0   0.41332156    5.7369606    3736.3409 
   10000    2.3914462   -3.1333207            0   0.45295185    5.5508948    3791.9522 
Loop time of 2.60066 on 48 procs for 10000 steps with 4000 atoms

Performance: 664447.185 tau/day, 3845.180 timesteps/s
99.6% CPU use with 48 MPI tasks x no OpenMP threads

MPI task timing breakdown:
Section |  min time  |  avg time  |  max time  |%varavg| %total
---------------------------------------------------------------
Pair    | 1.1462     | 1.2199     | 1.3762     |   4.0 | 46.91
Neigh   | 0.21117    | 0.22075    | 0.24504    |   1.3 |  8.49
Comm    | 0.72975    | 0.89512    | 0.98882    |   5.4 | 34.42
Output  | 0.00024008 | 0.00024929 | 0.00039243 |   0.0 |  0.01
Modify  | 0.19849    | 0.24932    | 0.30027    |   5.7 |  9.59
Other   |            | 0.01532    |            |       |  0.59

Nlocal:        83.3333 ave          92 max          75 min
Histogram: 2 8 5 2 10 5 0 9 5 2
Nghost:        1701.21 ave        1743 max        1672 min
Histogram: 1 8 8 7 11 4 4 4 0 1
Neighs:        10069.8 ave       11413 max        8761 min
Histogram: 1 4 8 4 8 5 7 6 2 3

Total # of neighbors = 483351
Ave neighs/atom = 120.83775
Neighbor list builds = 907
Dangerous builds = 224

# Equilibrate just above the melting temperature to avoid step fn in T

fix 1 all npt temp 1.25 1.25 0.1 iso 5.68 5.68 0.5 mtk yes tchain 5 pchain 5
run 2000
Per MPI rank memory allocation (min/avg/max) = 3.644 | 3.646 | 3.649 Mbytes
Step Temp E_pair E_mol TotEng Press Volume 
   10000    2.3914462   -3.1333207            0   0.45295185    5.5508948    3791.9522 
   11000    1.2415324   -4.6671945            0   -2.8053615    5.6322251    2887.8443 
   12000    1.2333826   -4.6800662            0   -2.8304549    5.6428827    2882.0089 
Loop time of 0.65147 on 48 procs for 2000 steps with 4000 atoms

Performance: 530492.520 tau/day, 3069.980 timesteps/s
99.6% CPU use with 48 MPI tasks x no OpenMP threads

MPI task timing breakdown:
Section |  min time  |  avg time  |  max time  |%varavg| %total
---------------------------------------------------------------
Pair    | 0.29059    | 0.31316    | 0.36555    |   2.9 | 48.07
Neigh   | 0.040453   | 0.04271    | 0.049786   |   0.9 |  6.56
Comm    | 0.19041    | 0.24762    | 0.27158    |   3.5 | 38.01
Output  | 5.0959e-05 | 5.2783e-05 | 6.792e-05  |   0.0 |  0.01
Modify  | 0.038116   | 0.043117   | 0.048916   |   1.6 |  6.62
Other   |            | 0.004807   |            |       |  0.74

Nlocal:        83.3333 ave          91 max          78 min
Histogram: 8 5 3 7 4 7 10 1 2 1
Nghost:        2046.42 ave        2074 max        2023 min
Histogram: 2 5 6 8 7 5 6 6 2 1
Neighs:        13241.5 ave       14934 max       11974 min
Histogram: 6 2 8 4 13 4 4 2 1 4

Total # of neighbors = 635591
Ave neighs/atom = 158.89775
Neighbor list builds = 142
Dangerous builds = 16

#############################
# L I N E A R  Q U E N C H  #
#############################

# Define solid atoms. This closely follows ten Wolde  Ruiz-Montero and Frenkel  Faraday Discuss  1996  104  93-110
# Compute components of the per-atom q6 vector
compute q6 all orientorder/atom degrees 1 6 components 6 nnn NULL cutoff 1.3 # compute the Q6 parameter.
                                                                             # Use all neighbours within 1.3 unit cell.

# get number of connections
compute coord_number all coord/atom orientorder q6 0.5

# An atom is solid if it has 8 or more connections (of a possible 14)
variable is_solid atom c_coord_number>=8
group solid dynamic all var is_solid    # Must be dynamic to update
dynamic group solid defined

# do clustering
compute cluster solid cluster/atom 1.3 # Create a cluster where all atoms within are solid and max 1.3 units from another member

# define chunks one chunk per cluster
compute clus_chunks solid chunk/atom c_cluster nchunk every compress yes  # Says which atoms are in which chunk

# count the size of each chunk
compute size_chunks solid property/chunk clus_chunks count


# Find the maximum entry in the vector of chunk sizes
variable max_n equal max(c_size_chunks)


# Thermo style which includes this variable
# thermo_style custom step temp pe vol v_max_n

thermo ${N}  # Print the thermo information every 100 steps
thermo 1000  

# Reset the npt fix at a lower temperature (below freezing)
fix 1  all npt temp  ${temp} ${temp}  0.1  iso  5.68  5.68  0.5  mtk yes tchain  5  pchain  5
fix 1  all npt temp  0.45 ${temp}  0.1  iso  5.68  5.68  0.5  mtk yes tchain  5  pchain  5
fix 1  all npt temp  0.45 0.45  0.1  iso  5.68  5.68  0.5  mtk yes tchain  5  pchain  5

dump dmp2 all dcd ${N} traj.dcd
dump dmp2 all dcd 1000 traj.dcd


compute msd all msd com yes
variable twopoint equal c_msd[4]/6/(step*dt+1.0e-6)
fix 9 all vector 10 c_msd[4]
variable fit equal slope(f_9)/6/(10*dt)
thermo_style custom step temp pe c_msd[4] v_twopoint v_fit v_max_n

fix 1 all npt temp 1.25 ${temp} 0.1 iso 5.68 5.68 0.5 mtk yes tchain 5 pchain 5
fix 1 all npt temp 1.25 0.45 0.1 iso 5.68 5.68 0.5 mtk yes tchain 5 pchain 5
run 500000 # 5000000  # Run for this many steps
Neighbor list info ...
  update every 1 steps, delay 10 steps, check yes
  max neighbors/atom: 2000, page size: 100000
  master list distance cutoff = 3.8
  ghost atom cutoff = 3.8
  binsize = 1.9, bins = 8 8 8
  4 neighbor lists, perpetual/occasional/extra = 1 3 0
  (1) pair lj/cut, perpetual
      attributes: half, newton on
      pair build: half/bin/atomonly/newton
      stencil: half/bin/3d
      bin: standard
  (2) compute orientorder/atom, occasional
      attributes: full, newton on
      pair build: full/bin/atomonly
      stencil: full/bin/3d
      bin: standard
  (3) compute coord/atom, occasional
      attributes: full, newton on
      pair build: full/bin/atomonly
      stencil: full/bin/3d
      bin: standard
  (4) compute cluster/atom, occasional
      attributes: full, newton on
      pair build: full/bin/atomonly
      stencil: full/bin/3d
      bin: standard
Per MPI rank memory allocation (min/avg/max) = 9.836 | 9.843 | 9.849 Mbytes
Step Temp PotEng c_msd[4] v_twopoint v_fit v_max_n 
   12000    1.2333826   -4.6800662 9.8804828e-31 6.8614461e-33 8.3333333e+20            2 
   13000    1.2531927   -4.6501313   0.76780552 0.0049218301  0.064953622            2 
   14000    1.2592131   -4.6822737    1.5580037 0.0092738312  0.064383459            2 
   15000    1.2453942   -4.6762959    2.3043245  0.012801803  0.064651148            2 
   16000    1.2600261   -4.6878747    3.1145084  0.016221398  0.064407416            1 
   17000    1.2303308   -4.6497193    4.0735736  0.019968497  0.066549071            2 
   18000     1.244158   -4.6910217    4.8852062  0.022616695  0.068117195            4 
   19000     1.220314    -4.703151    5.5900214  0.024517637  0.068363492            2 
   20000    1.2314499   -4.7180725     6.288146  0.026200608  0.067543267            5 
   21000    1.2308223   -4.7019676    7.0931352  0.028147361  0.066776763            1 
   22000     1.225989   -4.7070473    7.9854881   0.03024806  0.066605119            2 
   23000    1.2200866   -4.7117464    8.6630459  0.031387847  0.066367982            1 
   24000    1.2107397   -4.6941388    9.3103729  0.032327683  0.065860779            3 
   25000    1.2330457   -4.7295706    10.069033  0.033563444  0.065539107            3 
   26000    1.2416268   -4.7171965    10.883067  0.034881623  0.065240372            3 
   27000    1.2126571   -4.7329273    11.571381  0.035714139  0.064950701            5 
   28000    1.2320288   -4.6899108    12.226233  0.036387597  0.064545885            4 
   29000    1.1966015   -4.7349225    13.083373  0.037595899  0.064217342            2 
   30000    1.2122108   -4.7134287    13.865744  0.038515954  0.064053806            1 
   31000    1.2384107   -4.7252487    14.641528  0.039358946  0.063980665            1 
   32000    1.2137435   -4.6971678    15.285328  0.039805541  0.063800682            4 
   33000    1.2123647   -4.7064942    16.105448  0.040670321  0.063673718            2 
   34000    1.2223457   -4.7544993     16.84056  0.041275881  0.063561318            2 
   35000    1.2070205   -4.7116201    17.624286  0.041962585  0.063481513            1 
   36000    1.2011015   -4.7453969    18.236992  0.042215259  0.063371352            2 
   37000    1.2019804   -4.7366744    19.103632  0.043026198  0.063310623            2 
   38000    1.2214778    -4.727712    20.137132  0.044160376  0.063371788            3 
   39000    1.1936008   -4.7439024    21.037702  0.044952353  0.063545926            2 
   40000    1.1825266    -4.695996    21.759618  0.045332536  0.063679339            2 
   41000    1.2040351   -4.7494593    22.364062   0.04545541  0.063772063            2 
   42000    1.1913907   -4.7007824    23.077938  0.045789558  0.063750362            1 
   43000     1.208795    -4.717356    23.693727  0.045918074   0.06369586            1 
   44000    1.1899703   -4.7484118    24.268887  0.045963801  0.063582938            3 
   45000    1.1780972   -4.7525464    25.034024  0.046359303  0.063452548            2 
   46000    1.2100075   -4.7802659    25.701439  0.046560577  0.063352068            2 
   47000    1.2066288     -4.75455    26.703807  0.047347176  0.063273686            2 
   48000    1.1902245   -4.7737178    27.313152  0.047418666  0.063242597            1 
   49000    1.2362994   -4.8081447    27.859851  0.047380699  0.063123806            3 
   50000    1.1804069   -4.8430056    28.461767  0.047436277  0.062981348            2 
   51000    1.1792291    -4.815936     29.16135  0.047649265  0.062832502            1 
   52000    1.1943984   -4.7920258    30.087846  0.048217702  0.062706788            3 
   53000    1.1865759   -4.7662366    30.733519  0.048323143  0.062618732            5 
   54000    1.2212884   -4.7848548    31.313148  0.048322759  0.062482619            2 
   55000     1.188609    -4.783147    31.880716  0.048304115  0.062329917            1 
   56000    1.1506061    -4.781712    32.603125  0.048516554  0.062167058            4 
   57000    1.1863701   -4.7640309    33.392227  0.048819045  0.062009737            1 
   58000    1.2043784   -4.7708718     33.81944  0.048591148  0.061840665            6 
   59000    1.1958198    -4.815008    34.295084  0.048439384  0.061632472            1 
   60000    1.1560866   -4.7976341     34.86619  0.048425263  0.061428416            2 
   61000    1.1912125    -4.822485    35.607888  0.048644655  0.061227213            4 
   62000    1.1741059     -4.83746    36.211144  0.048670892  0.061011085            1 
   63000    1.1602165   -4.8248821    36.975604  0.048909528  0.060832715            3 
   64000    1.1777246   -4.8207938    37.579636  0.048931818  0.060663191            3 
   65000    1.1480133      -4.7975     38.19105  0.048962885  0.060476657            3 
   66000    1.1504696   -4.8100673    39.005431  0.049249281  0.060302611            3 
   67000    1.1767313   -4.8298394    39.370952  0.048968845  0.060118822            2 
   68000     1.155417   -4.8387296    39.901506  0.048898904  0.059926731            1 
   69000     1.141836   -4.8289319    40.481579  0.048890796  0.059720804            1 
   70000    1.1479533   -4.8708657    40.910576  0.048703066  0.059520678            2 
   71000    1.1791832   -4.8672131    41.606172  0.048833535  0.059338207            3 
   72000    1.1480506   -4.8316798     42.25061  0.048901168   0.05916027            3 
   73000    1.1838488   -4.8392023     43.04015  0.049132591  0.058990092            2 
   74000    1.1519882   -4.8044966    43.693724  0.049204644  0.058832829            1 
   75000    1.1824757   -4.8628893    44.418793  0.049354214   0.05870021            2 
   76000    1.1669756    -4.836115    45.196087  0.049557113  0.058585511            2 
   77000    1.1542727   -4.8265959    45.749422  0.049512362  0.058463232            1 
   78000    1.1426547   -4.8565512    46.333675  0.049501789  0.058336101            2 
   79000     1.135304   -4.8539398    46.867904  0.049438717  0.058200745            5 
   80000    1.1499108   -4.8336393    47.485682  0.049464252  0.058062555            2 
   81000    1.1699701   -4.8537339    48.076193  0.049461104  0.057930584            3 
   82000    1.1379696   -4.8531139    48.672765  0.049464192  0.057792942            2 
   83000    1.1465297   -4.8767004    49.192286  0.049389845  0.057674785            4 
   84000    1.1113198   -4.8725985     49.83466  0.049439146  0.057547347            4 
   85000    1.1295671   -4.8851104    50.549598  0.049558429  0.057424509            2 
   86000    1.1134091   -4.8554573    51.216523  0.049628413   0.05731403            2 
   87000    1.1141662    -4.883831    51.616093  0.049440701  0.057214439            3 
   88000    1.1408803   -4.9072665     52.25956   0.04948822  0.057116782           10 
   89000    1.1274392   -4.8942965     52.84107  0.049476657  0.057016335            4 
   90000    1.1536948   -4.9052634    53.733847  0.049753562  0.056911189            2 
   91000    1.1201045   -4.9259189    54.070324  0.049514948  0.056804039            2 
   92000    1.1062861   -4.9067402    54.778117  0.049617859   0.05669387            2 
   93000     1.107901   -4.8786081    55.429845   0.04966832  0.056586786            2 
   94000    1.1071027   -4.8692414    56.008908  0.049653287  0.056491309            1 
   95000    1.1161725   -4.8873971    56.780453  0.049807415   0.05639744            2 
   96000     1.112708   -4.9318271     57.15864  0.049616874  0.056303611            1 
   97000    1.1060108   -4.8993401    57.747285   0.04961107  0.056208235            1 
   98000    1.1067701   -4.9301895    58.438152  0.049692306  0.056110281            2 
   99000     1.135666   -4.9200586     58.94398  0.049616144  0.056013157            3 
  100000    1.0812297   -4.8684842    59.434236   0.04952853  0.055915033            5 
  101000    1.1346102    -4.951063    59.809777  0.049348001  0.055817763            5 
  102000    1.1131247   -4.9179036    60.297581   0.04926273  0.055707214            1 
  103000     1.107534   -4.9104798    61.182771  0.049500623  0.055599559            1 
  104000    1.0851933    -4.905832    61.548836  0.049317978  0.055491033            3 
  105000    1.1094375   -4.9322763    62.102907  0.049288021  0.055379735            3 
  106000    1.1040084    -4.948462    62.792998  0.049365565  0.055276144            1 
  107000    1.0884056   -4.9757994    63.014064  0.049076374  0.055167415            5 
  108000    1.1032875   -4.9312373     63.63381  0.049100162  0.055052317            2 
  109000     1.079531   -4.9517595    64.200158  0.049082689  0.054942683            1 
  110000    1.0986339   -4.9656965    64.759749  0.049060416  0.054834166            2 
  111000     1.091342   -4.9626637    65.583417  0.049236799  0.054738888            5 
  112000    1.1133317   -4.9264229    66.380591   0.04939032  0.054647809            4 
  113000    1.0817384   -4.9433465    66.563648  0.049088236  0.054561009            5 
  114000    1.0901857   -4.9678078    67.391604  0.049262869  0.054469534            2 
  115000    1.0850217   -4.9311517    67.836148  0.049156629  0.054380347            4 
  116000     1.068234   -4.9742648    68.282297  0.049053374  0.054293749            2 
  117000    1.0633142   -4.9797694     68.95331  0.049112044  0.054212352            3 
  118000    1.0773302   -4.9898815    69.639061  0.049180128  0.054127804            6 
  119000    1.0515472   -4.9765267     70.12131  0.049104558  0.054045188            2 
  120000    1.0768929   -4.9760819    70.790597  0.049160137  0.053963704            2 
  121000    1.0903112   -4.9828604    70.989017  0.048890507  0.053882363            2 
  122000    1.0443165   -4.9601374    71.694237  0.048971473  0.053795933            9 
  123000    1.0681916   -4.9635479    72.322279  0.048998833  0.053707729            2 
  124000    1.0805994    -4.977276    72.416101  0.048666734  0.053614341            2 
  125000    1.0698048   -4.9910282    73.109195  0.048739463  0.053518934            5 
  126000    1.0964062   -4.9720419    74.099968  0.049007915  0.053431922            2 
  127000    1.0898737   -4.9919343     74.32404  0.048769055   0.05334757            3 
  128000    1.0865624   -5.0206395    74.669555  0.048612992  0.053255381            3 
  129000    1.0422568   -5.0079387    74.968871  0.048429503  0.053159145            4 
  130000    1.0464424   -4.9935851    75.929724    0.0486729  0.053069094            3 
  131000    1.0643416   -4.9979073     76.12844  0.048427761  0.052977637            2 
  132000    1.0581666   -5.0153587    76.891149  0.048542392  0.052883298            3 
  133000    1.0875668   -4.9764958    77.537414   0.04858234  0.052795284            2 
  134000    1.0756282   -5.0022355    77.837408  0.048406348  0.052708634            2 
  135000    1.0573061   -5.0318072    78.656324  0.048553286  0.052625922            4 
  136000    1.0356872   -5.0238219    79.027681  0.048423824  0.052540953            3 
  137000    1.0548722   -5.0441428    79.422879  0.048310753  0.052456507            3 
  138000    1.0517138   -5.0422161    79.366686  0.047926743  0.052358223            5 
  139000     1.040109   -5.0215716      79.6421  0.047747062  0.052255215            3 
  140000    1.0487629   -5.0234037    80.531538  0.047935439  0.052147728            4 
  141000    1.0549299     -5.02014     80.77201  0.047737595  0.052040935            4 
  142000     1.072813    -5.042877    80.940541  0.047500318  0.051931055            2 
  143000    1.0477013   -5.0649512    80.889022  0.047138124  0.051816981            2 
  144000    1.0517664   -5.0501191    81.427816  0.047122578  0.051699385            4 
  145000    1.0172714   -5.0266902    81.697864  0.046952795  0.051574012            3 
  146000    1.0135899   -5.0339219    82.098623  0.046859944  0.051448838            1 
  147000    1.0061189      -5.0646    82.443582  0.046736724  0.051325224            5 
  148000    1.0204636   -5.0899695    83.199252  0.046846425  0.051203535            4 
  149000     1.044094   -5.0363146    83.608977  0.046761173  0.051079905            2 
  150000    1.0257057    -5.087461    83.591435  0.046439686  0.050955715            4 
  151000    1.0267643    -5.069499    84.105965  0.046416095  0.050826882            2 
  152000    1.0226472    -5.078212    84.291874   0.04621265  0.050693686            3 
  153000     1.022662   -5.0637063    84.521496  0.046035673  0.050559359            5 
  154000    1.0290477   -5.0883597    85.209688  0.046109139  0.050427644            2 
  155000    1.0071767   -5.0832825    85.579228  0.046010337     0.050301            4 
  156000    1.0360713   -5.1121184    86.419847  0.046164448  0.050176489            4 
  157000    1.0185972   -5.1054644    86.506287  0.045916288  0.050052313            4 
  158000    1.0325255   -5.1033664    86.713086   0.04573475  0.049925714            3 
  159000    1.0264503   -5.0873372    87.004195  0.045599683  0.049797385            2 
  160000    1.0114395   -5.0964611    87.894749  0.045778515   0.04966882            8 
  161000     0.997577   -5.1009336    88.109361  0.045605259  0.049544746            6 
  162000    1.0045409   -5.0871111    88.504127  0.045526814  0.049418808            2 
  163000    1.0215785   -5.1374246    88.498625  0.045244695  0.049288279            6 
  164000     1.015013   -5.0661653    88.976562  0.045211668  0.049155302            5 
  165000    0.9894642   -5.1437228    89.154428  0.045027489  0.049021833            6 
  166000   0.99932053    -5.128741    89.592097  0.044975952  0.048893077            4 
  167000   0.98455068   -5.1114905    90.212456  0.045016195  0.048768456            3 
  168000   0.98785317   -5.1420962    90.535172  0.044908319  0.048644229            2 
  169000    1.0185616   -5.1626171    90.845334  0.044795529   0.04852171            1 
  170000    0.9936365   -5.1562679    91.426359  0.044816842  0.048401662            3 
  171000   0.98663462   -5.1810331    91.489893  0.044585718  0.048279585            3 
  172000   0.99361137   -5.1496907    92.122271  0.044632883  0.048159617            4 
  173000   0.99077893   -5.1808602    92.578514   0.04459466   0.04803945            2 
  174000   0.97048929   -5.1421019    93.098459  0.044587385    0.0479203            5 
  175000   0.98347205   -5.1650292    93.618507  0.044580241  0.047802535            3 
  176000   0.99289456   -5.1880951    93.531416  0.044285708  0.047685933            4 
  177000   0.99751065   -5.1897028    94.196477  0.044348623  0.047568903            4 
  178000   0.98122474   -5.1623474    95.028412  0.044488957   0.04746075            4 
  179000    0.9878895   -5.1905402    95.196444  0.044318642  0.047353937            4 
  180000   0.97486904   -5.1608763    95.266089  0.044104671   0.04724134            4 
  181000   0.97827007   -5.2092766    95.725288  0.044072416  0.047126559            2 
  182000   0.97546526   -5.1752615     96.18855  0.044042376  0.047013745            3 
  183000   0.98212025   -5.1768782    96.081074  0.043752766   0.04689909            3 
  184000   0.99457272   -5.2031182    96.482074  0.043696591  0.046786627            6 
  185000   0.99664947   -5.1700384    97.027716  0.043706178  0.046673995            5 
  186000   0.96892335   -5.1896744    97.021673  0.043468491  0.046560232            6 
  187000   0.96133024    -5.198543    97.379856  0.043395658  0.046444335            4 
  188000   0.98535997   -5.1832355     98.18331  0.043520971  0.046329954            4 
  189000   0.97225123   -5.1914656    98.873137  0.043594857  0.046219422           12 
  190000    0.9712718   -5.1995796    99.012305  0.043426449  0.046112943            4 
  191000   0.95623022   -5.2092483    99.181749  0.043273014  0.046008676            5 
  192000   0.96413019   -5.1849271    99.765324  0.043300922  0.045901409            3 
  193000   0.96531602   -5.1838318    100.14532  0.043240641  0.045794552            4 
  194000   0.94793092    -5.208361    100.33485  0.043099162  0.045689179            2 
  195000   0.96586953   -5.2129488    100.93679  0.043135381  0.045584685            5 
  196000   0.94834637   -5.2149239    101.41799  0.043119896  0.045484315            4 
  197000   0.95381364   -5.2259498    101.55278  0.042958029  0.045383197            5 
  198000   0.93244517   -5.2360839    101.67708  0.042793384  0.045282524            2 
  199000    0.9496286   -5.1998058    102.60337  0.042966234  0.045180285            2 
  200000   0.95038511    -5.244514    102.64104    0.0427671  0.045079882            4 
  201000   0.97318677   -5.2494056    102.67451  0.042568203  0.044976375            4 
  202000   0.94177941   -5.2428451    103.03533  0.042506325  0.044875688            4 
  203000   0.95861998   -5.2370633    103.52745  0.042498953   0.04477448            5 
  204000   0.93973785   -5.2108543    103.89579  0.042441089  0.044674904            6 
  205000   0.95481361   -5.2917616    103.70891  0.042158093  0.044573842            9 
  206000   0.92640656   -5.2797285    104.17756  0.042143026  0.044470851           10 
  207000   0.92602886   -5.2763145    104.20359  0.041949915  0.044366016            3 
  208000   0.94394479   -5.2649419    104.67702   0.04193791  0.044259363            7 
  209000   0.94601411   -5.2702291    105.01596  0.041872394   0.04415451            3 
  210000   0.93329378   -5.2598926    105.27777  0.041776891  0.044049809            3 
  211000   0.91842418    -5.249163    105.67526  0.041735885  0.043947764            9 
  212000   0.92873259   -5.2663639    106.23532  0.041759167  0.043845388           10 
  213000   0.95721239   -5.2645677    106.22699  0.041559855  0.043742138            6 
  214000    0.9322023   -5.2722582    106.70671  0.041552456  0.043642213            3 
  215000   0.93781495   -5.2864472    106.99847  0.041472274  0.043541504            4 
  216000   0.94124245   -5.2804641    107.75907  0.041573716  0.043442973            3 
  217000   0.93234929   -5.3051644    107.72399  0.041368659  0.043346003            3 
  218000   0.91849111   -5.2858141     108.2197  0.041368386    0.0432501            3 
  219000   0.90725668   -5.3076846    108.33172  0.041222116  0.043153473            3 
  220000   0.91774611   -5.2701531    108.75807   0.04119624  0.043058047            3 
  221000   0.93677534   -5.3171227    108.85485  0.041046322  0.042959593            3 
  222000   0.91533775   -5.2952331    109.36703  0.041053689   0.04286263            5 
  223000   0.92512569   -5.3204011    108.87957  0.040687433  0.042764608            4 
  224000   0.90697422   -5.2876586    109.40689  0.040701967   0.04266538           10 
  225000   0.89696972   -5.3172727    109.79637  0.040665321  0.042567357            3 
  226000   0.91715393   -5.3111742    110.30872  0.040674306  0.042469159            3 
  227000   0.90029791   -5.3175762    110.79411  0.040673314  0.042374202            3 
  228000    0.9159191   -5.3592044    110.65216  0.040443041  0.042279433            4 
  229000   0.88376256   -5.3137769     111.2991  0.040501855   0.04218446            4 
  230000   0.88916741   -5.3330139     111.8442   0.04052326  0.042089772            5 
  231000   0.88991715   -5.3090849     112.2195  0.040483226  0.041997723            7 
  232000   0.89141152   -5.3584629    112.11679  0.040271836  0.041905294            4 
  233000   0.91076599   -5.3288258    112.82604  0.040352661  0.041812518            5 
  234000    0.9064091   -5.3526228    112.54711   0.04008088  0.041720828            4 
  235000   0.87618214   -5.3646272     112.6911  0.039961381  0.041627968            9 
  236000   0.89851571    -5.364589    112.96885  0.039890131  0.041533582            4 
  237000   0.88943837    -5.369931    113.21189  0.039807276  0.041436814            6 
  238000   0.89398961   -5.3324073    113.60654    0.0397782  0.041342326            4 
  239000   0.87342967   -5.3427697    113.91474  0.039719227  0.041248464            3 
  240000    0.8939617   -5.3830333    113.76503  0.039501745  0.041154709            4 
  241000   0.89272487   -5.3775381    114.88673  0.039725703  0.041061387            2 
  242000   0.88950997   -5.3507667    114.99747  0.039599679  0.040970193            4 
  243000   0.89130265   -5.3444751    114.87248  0.039393856  0.040878035            4 
  244000   0.85991528   -5.3860206    115.02098   0.03928312  0.040785228            3 
  245000   0.86633802    -5.385942    115.52645   0.03929471  0.040692404            5 
  246000   0.86607625    -5.365347    115.49748  0.039125162   0.04060114            3 
  247000   0.85844902   -5.4062078    115.80575  0.039070765  0.040508116            3 
  248000   0.87105009   -5.4180345    115.83996  0.038924717  0.040414111            4 
  249000   0.87588054   -5.4106937    116.09858  0.038854948  0.040322386            5 
  250000   0.86472852   -5.4152865    116.59335   0.03886445  0.040229073            8 
  251000   0.87404358   -5.3980372    116.41987  0.038652017  0.040138039            4 
  252000    0.8954648   -5.4161631     116.6906  0.038588162  0.040044726            8 
  253000   0.85837465    -5.403739    117.30098  0.038636685  0.039952986            5 
  254000   0.85574541   -5.4162762    117.88268  0.038675419  0.039862733            5 
  255000   0.86364321   -5.4345772    117.99913  0.038561808  0.039773701            2 
  256000   0.87002409   -5.4241794    118.14677  0.038459235   0.03968358            6 
  257000   0.84821382    -5.427856    118.38051   0.03838538  0.039592875            6 
  258000   0.82887588   -5.4087922    118.28805  0.038206736  0.039501422            6 
  259000   0.85716586   -5.4099962    118.82538  0.038232104  0.039410506            4 
  260000   0.86031609   -5.4704618     118.3671  0.037938173  0.039318312           10 
  261000   0.86366534   -5.4644556    118.77076    0.0379217  0.039225221            6 
  262000   0.86233775   -5.4357452    119.51665  0.038014203  0.039134058            5 
  263000   0.85394367   -5.4675668    119.36202  0.037820667  0.039043282            4 
  264000      0.84692   -5.4640736    119.68137  0.037778209  0.038952547            5 
  265000   0.84929728   -5.4655684    120.33754  0.037841994  0.038863837            4 
  266000   0.83523669    -5.447221    120.25445    0.0376737  0.038776809            6 
  267000   0.84102496   -5.4748187    120.90846  0.037736722  0.038687509            9 
  268000   0.83793024   -5.4680733    120.77982  0.037555914  0.038601008            3 
  269000   0.84269759   -5.4632389    120.90356  0.037454634  0.038513805            7 
  270000   0.83268585   -5.4750927    121.34149  0.037451078  0.038426587            5 
  271000   0.84288105   -5.4565048    121.47731  0.037354646  0.038338407            8 
  272000   0.83854884    -5.472052    121.46381  0.037213178  0.038249557            3 
  273000   0.83151609    -5.453815    122.05568  0.037257534  0.038162688            5 
  274000   0.84469939   -5.4760536    121.63358  0.036993181  0.038074487            7 
  275000   0.85145378   -5.5035557    122.39758  0.037090175  0.037987131            9 
  276000   0.81838783    -5.502284    122.73353  0.037057226   0.03790141            5 
  277000   0.81138318   -5.5052938    122.96665  0.036993577  0.037815704            5 
  278000    0.8337231   -5.4925744    123.31672  0.036965444  0.037731093            4 
  279000   0.83710501   -5.5236323    122.95043  0.036723544  0.037646425            6 
  280000   0.81706201   -5.5117991    123.38429  0.036721514  0.037561303            6 
  281000   0.82742018   -5.5169166    123.69737  0.036683681  0.037476589            7 
  282000   0.83675819   -5.5182786    123.66328  0.036543524  0.037392097            9 
  283000   0.81476175   -5.5426073    124.02005   0.03651945  0.037307785            6 
  284000   0.81339647   -5.5160158    124.33059  0.036481981  0.037223142            8 
  285000   0.81785862   -5.5042925    124.43463  0.036384395  0.037138801            9 
  286000   0.80947394   -5.5198983      124.786  0.036359558  0.037055557            5 
  287000   0.80958313      -5.5297    124.84272  0.036249337  0.036972693           14 
  288000   0.81871268   -5.5533517    124.97409  0.036161485  0.036887725            5 
  289000   0.80417937   -5.5186246     125.3492  0.036144521  0.036802875            3 
  290000    0.8096418   -5.5187912    124.71547  0.035837778  0.036717548            4 
  291000   0.79300709   -5.5543507    125.38954  0.035907659  0.036631903            7 
  292000   0.78607444    -5.571567    124.95904  0.035661827  0.036546688           10 
  293000   0.80247009   -5.5707451    125.34721  0.035650514  0.036460353            7 
  294000   0.79905778   -5.5740274    125.53753  0.035583201  0.036374245            6 
  295000   0.80436981   -5.5381299    125.89533  0.035563653  0.036289059           12 
  296000   0.80185394   -5.5591342     126.1331  0.035510445  0.036204149            9 
  297000   0.78436221   -5.5568237    125.52859  0.035221266  0.036119985            8 
  298000   0.79559902    -5.569337    126.51759  0.035379639  0.036036112            5 
  299000   0.80516984   -5.5339149    126.97124  0.035387748  0.035952455           10 
  300000   0.79288959   -5.5770804    126.62615   0.03517393  0.035869052            8 
  301000   0.77208413   -5.5863928    126.39097  0.034991963  0.035785224            4 
  302000   0.77986717   -5.5948169    126.80917  0.034991493  0.035701391            5 
  303000   0.78394611   -5.5832988    127.33203  0.035019811   0.03561834            5 
  304000   0.77252647   -5.5995569     127.4526  0.034937665  0.035533586            3 
  305000   0.77888678   -5.5915683    127.33982    0.0347923  0.035448877            9 
  306000   0.77696173   -5.5955864    127.68991   0.03477394  0.035365008            8 
  307000   0.77062307   -5.5945204    127.69508  0.034662074  0.035280578           10 
  308000   0.79685823   -5.6161159    127.65482  0.034538641  0.035195762            6 
  309000   0.76829353    -5.629035    127.98646  0.034516305  0.035110838            4 
  310000    0.7721673   -5.6334086    127.50968  0.034276795  0.035024759            8 
  311000   0.78125315   -5.6104826    128.09177  0.034322555  0.034939019            7 
  312000     0.752017   -5.6427889    128.17042  0.034233553  0.034854071            4 
  313000   0.76149324   -5.6249895    128.53462  0.034221145  0.034769534            5 
  314000    0.7722537   -5.6277689    128.37361  0.034069428  0.034685895            6 
  315000   0.75940743   -5.6416599    128.38094  0.033963211   0.03460151            4 
  316000   0.77120521   -5.6626281    128.34584  0.033846476  0.034517208           10 
  317000   0.75423031    -5.639316    128.39337  0.033752199  0.034432876           12 
  318000   0.76346752   -5.6348421    128.78113  0.033747676  0.034349206            6 
  319000   0.74890294   -5.6518927    128.97243  0.033691857  0.034264574            6 
  320000   0.75688072   -5.6388475    129.19106  0.033643506    0.0341801            8 
  321000   0.76278086   -5.6913126    128.86574  0.033454242  0.034095096            7 
  322000   0.74975635   -5.6607891    129.21545  0.033440851  0.034010212           15 
  323000   0.77157714   -5.6834075    129.12877  0.033314957  0.033925117            5 
  324000   0.76467006   -5.7007357    129.53734  0.033317218  0.033839989            7 
  325000   0.74762796   -5.6953603    128.96099   0.03306692  0.033754423            5 
  326000   0.74339699    -5.671222    129.50203   0.03310379  0.033669061            7 
  327000   0.76051655   -5.6884544    129.38435  0.032972567  0.033583542            9 
  328000    0.7296076   -5.6838133    129.62519  0.032933228  0.033498553            8 
  329000   0.75114122   -5.6789855    129.59032  0.032824296  0.033413162            8 
  330000   0.73794843   -5.7139379    129.35999  0.032666664  0.033327976            7 
  331000   0.73364857   -5.6853123    129.81477   0.03268247  0.033242935            8 
  332000   0.72781377   -5.6684836    130.21972  0.032685673  0.033158922            6 
  333000   0.71894041   -5.7089567    130.24741  0.032594448  0.033075125           14 
  334000    0.7357728    -5.731068    130.49421  0.032558435  0.032991688            7 
  335000   0.71136416   -5.7288923    131.21893  0.032641524  0.032909336           10 
  336000   0.72442213   -5.7125894    130.68364  0.032411618   0.03282753           16 
  337000   0.75290046   -5.7076782    130.95005  0.032381318  0.032745907           12 
  338000   0.72111966   -5.7099911    131.44832  0.032408364  0.032664597           10 
  339000   0.71344059   -5.7137233     131.8878  0.032420796  0.032584113            7 
  340000   0.72372718   -5.7409281    131.39906  0.032205651  0.032503845            4 
  341000   0.72349435   -5.7070012    131.71777  0.032189094  0.032423332           18 
  342000   0.72250787   -5.7446013    131.84583  0.032126176  0.032342045            9 
  343000   0.73103227   -5.7342674    131.72817  0.032003928  0.032261413            4 
  344000   0.73513006   -5.7312095    131.60871  0.031881955  0.032181364            7 
  345000    0.7132696    -5.723313     132.3025  0.031957125  0.032102272           12 
  346000   0.71107915   -5.7535163    132.23402  0.031848271  0.032023271           14 
  347000   0.71641804   -5.7189502    132.39227  0.031794494  0.031944978            4 
  348000   0.70747273   -5.7469142     132.2314  0.031664608  0.031866041            5 
  349000   0.69537884   -5.7977305    131.77644  0.031465245  0.031786504            8 
  350000     0.706748   -5.7796635    131.83745   0.03138987  0.031706846            9 
  351000   0.70722125   -5.7900952    132.39168  0.031432023  0.031626865            9 
  352000   0.70434556   -5.7922831    132.20039  0.031297441  0.031546726            5 
  353000   0.71412533   -5.7994945    132.16516  0.031200463  0.031466609           18 
  354000   0.71382695   -5.7914963    132.47677  0.031185681  0.031386295            6 
  355000   0.71868793   -5.7872258    132.43607  0.031088279  0.031306761           16 
  356000   0.70684781   -5.7975028    132.81445  0.031089525  0.031227248           11 
  357000   0.70198938   -5.7894424    132.60614  0.030953815  0.031147625           12 
  358000   0.69674322    -5.791859    132.68325    0.0308853  0.031068771            6 
  359000   0.69666025   -5.8052052    133.02369  0.030878293   0.03099032           12 
  360000   0.68411628   -5.8181288    133.05221  0.030799123  0.030911987           37 
  361000   0.68220346   -5.8039045    133.39231  0.030792316  0.030833113           13 
  362000    0.6979836   -5.8214043    133.29392  0.030684604  0.030754839            6 
  363000   0.69988515   -5.7913602    132.91187  0.030512367  0.030676695            5 
  364000   0.68556101   -5.8056571    133.02099  0.030453524   0.03059827           20 
  365000   0.69335263   -5.8112285    133.58771  0.030499477  0.030520071           17 
  366000   0.68611935   -5.8161564    133.63832  0.030427669  0.030442006           21 
  367000   0.68771915   -5.8240767    133.39121   0.03028865  0.030364156            5 
  368000    0.6890439    -5.845249    133.60318  0.030254344   0.03028627           10 
  369000   0.66980397   -5.8564858    133.92548  0.030245141  0.030208965           14 
  370000   0.67705667   -5.8094656    134.01023  0.030182484  0.030132376           34 
  371000   0.66305373   -5.8693212    133.83475  0.030061714  0.030055814            9 
  372000   0.68384595   -5.8359533    134.06199  0.030031809  0.029979283           33 
  373000   0.66970264   -5.8718547    133.85229  0.029904444  0.029902408           27 
  374000   0.65770804   -5.8510311     134.1051  0.029880816  0.029826001            7 
  375000   0.66525963    -5.860396    134.35644  0.029856986   0.02974951           25 
  376000   0.68524459   -5.8739595    134.28892  0.029762615  0.029673492            9 
  377000    0.6597291    -5.866576     134.4525  0.029719827  0.029597316            7 
  378000   0.66474895   -5.8825581    134.55273  0.029663301  0.029521394           11 
  379000   0.66385419   -5.8821298    134.01365  0.029466502  0.029444852            9 
  380000   0.64588731   -5.8631507    134.09377  0.029406529  0.029368521           11 
  381000   0.64999455   -5.8776327    134.34526  0.029384353  0.029292231            9 
  382000   0.65615726   -5.8961346    134.29833  0.029297192  0.029216158           25 
  383000   0.67740881   -5.9122471    134.14349  0.029187007  0.029139647           16 
  384000   0.66247929   -5.8743669    134.66395  0.029223947  0.029063592           12 
  385000   0.64980163   -5.9149258    134.33424  0.029076675  0.028988064           10 
  386000    0.6511233   -5.8989026    134.60003  0.029058729  0.028912045           13 
  387000   0.65991013    -5.942049    134.48239   0.02895831  0.028836213           19 
  388000    0.6608406   -5.9415579    134.56099  0.028900557  0.028760378           23 
  389000   0.64402997   -5.9131538    134.80624    0.0288788  0.028685289           15 
  390000   0.64660622   -5.9147336    134.90032  0.028824856  0.028610213            6 
  391000    0.6452958   -5.9383942    134.92721  0.028756865  0.028535358           11 
  392000   0.63704759   -5.9411535    134.94215  0.028686682  0.028460964           17 
  393000   0.63863624   -5.9543237    134.73086  0.028568884  0.028386319           10 
  394000   0.63385851   -5.9388756    134.97794  0.028548633  0.028311484           23 
  395000   0.63761448   -5.9651727    134.92287   0.02846474  0.028236929           40 
  396000   0.64317073   -5.9400792    135.01072  0.028411346   0.02816241           24 
  397000   0.62871386   -5.9546339    135.16016  0.028371149  0.028088408           24 
  398000   0.63268385   -5.9536766    134.85133  0.028235203  0.028014479           44 
  399000   0.63130236   -5.9615713    134.91552  0.028177844  0.027940413           17 
  400000   0.62735307   -5.9647783    134.98866  0.028122638  0.027866799           14 
  401000   0.63056596   -5.9621503    135.07185  0.028069795  0.027793369           12 
  402000    0.6305701   -5.9710138    134.81526  0.027946778  0.027719773           14 
  403000   0.63207403   -5.9850883    134.79724  0.027873706  0.027645882            6 
  404000   0.61184338   -5.9977195    134.85109  0.027815818  0.027572208           24 
  405000   0.62634416   -5.9863728    134.78422  0.027733378  0.027498482           34 
  406000   0.62381567   -5.9896461    134.92725  0.027694428  0.027425188           18 
  407000   0.62494658    -5.998478    134.72559  0.027585091  0.027351906           26 
  408000   0.60719199   -6.0070095    134.85309  0.027543524  0.027278375           25 
  409000   0.60872821     -5.98348    134.87042  0.027479712  0.027205388           32 
  410000   0.60821053   -6.0004085    134.87818  0.027414264  0.027132431           28 
  411000    0.6167129   -5.9698981    135.31014  0.027435147  0.027059747           19 
  412000   0.62505138   -5.9963037    135.04828  0.027315591   0.02698728           18 
  413000   0.60526805   -6.0029001    135.02949   0.02724566  0.026914824           35 
  414000   0.59364053   -5.9971709     135.1811  0.027210366  0.026842912           25 
  415000    0.6003412   -6.0294776    135.43219  0.027195218  0.026770868           31 
  416000   0.59017244   -6.0028311    135.34238  0.027111854  0.026698858           35 
  417000   0.58994866   -6.0221275    135.04165  0.026986741  0.026627177           13 
  418000   0.60140466   -6.0109254    135.37043  0.026987726  0.026555574           13 
  419000   0.58649044   -6.0306884    135.18992  0.026887415  0.026483847           32 
  420000   0.58876829   -6.0460348    135.17135  0.026819712   0.02641233           15 
  421000   0.58597914   -6.0251613    135.28823  0.026779142  0.026340797           16 
  422000   0.60854132   -6.0322203    135.35678  0.026729222  0.026269769           18 
  423000   0.58849386   -6.0570463    134.92388  0.026580749  0.026198437           27 
  424000   0.59466469    -6.051077    135.48556  0.026628452    0.0261271           13 
  425000   0.58399478   -6.0391713    135.05918  0.026482192  0.026056029           24 
  426000    0.5928737   -6.0505758    135.34527  0.026475992  0.025985302           17 
  427000   0.57861249   -6.0409814    135.46305  0.026436972  0.025914919           29 
  428000   0.59237547   -6.0407163    135.50024  0.026382445  0.025844851           19 
  429000   0.58193163   -6.0528677    135.42036  0.026305431  0.025775171           26 
  430000   0.58754349   -6.0690486    135.32521  0.026225816   0.02570535           12 
  431000   0.57240651   -6.0654905    135.46923  0.026192813  0.025635642           12 
  432000    0.5793875   -6.0457896    135.74952   0.02618625  0.025566057           17 
  433000   0.57489459   -6.0754775    135.38832  0.026056259  0.025496798           34 
  434000   0.57732815   -6.0757101    135.31536  0.025982211  0.025427175           24 
  435000   0.57643899   -6.0847812     135.3912  0.025937012  0.025357675           23 
  436000   0.58755033   -6.1143865    135.37461  0.025874352  0.025288183           24 
  437000   0.56387585   -6.1016279    135.36701  0.025813694  0.025218924           29 
  438000   0.57122175   -6.1163449    135.44223   0.02576907  0.025149707           26 
  439000   0.57334846   -6.1159638    135.38285  0.025699099  0.025080852           59 
  440000   0.57183526   -6.1355219    135.31676  0.025628174  0.025012036           31 
  441000   0.57342562   -6.1348407    134.98862  0.025508054  0.024943122           17 
  442000   0.56991992    -6.142123    134.95019  0.025443098  0.024874117           60 
  443000   0.55007497   -6.1332392    135.19549  0.025431807  0.024805517           98 
  444000   0.55713222   -6.1306524    135.06922  0.025350829  0.024736589           21 
  445000   0.55850703   -6.1279757    135.01503  0.025283713  0.024668025           48 
  446000   0.54319755   -6.1656707    135.14611  0.025251516  0.024599466           65 
  447000   0.55796813   -6.1425939    135.32443  0.025228268  0.024531043           36 
  448000   0.54972813   -6.1489077    135.22232  0.025152961  0.024462842           22 
  449000    0.5410232   -6.1536927    135.36445   0.02512332  0.024394911          118 
  450000   0.54885415   -6.1403087    135.23793  0.025044062  0.024327276           73 
  451000   0.55208681    -6.169092     135.3273  0.025005044  0.024259629           50 
  452000    0.5431381    -6.164361    135.28047  0.024941089  0.024192069          121 
  453000   0.53448443   -6.1571196    135.12896   0.02485816  0.024124704           85 
  454000   0.53543904   -6.1723446    134.97839  0.024775769  0.024057638           84 
  455000   0.54171001   -6.1992741    135.33507  0.024786643  0.023990644          133 
  456000   0.55203115   -6.1912875     135.3224   0.02472997  0.023923846          142 
  457000   0.53729813   -6.1870839    135.25857  0.024664218  0.023857321          201 
  458000   0.53332024   -6.1724773    134.92675  0.024549991  0.023790842          189 
  459000   0.53625545   -6.1840715    135.14903  0.024536861  0.023724411          118 
  460000   0.53968743   -6.1862311    134.88345  0.024435408  0.023658145           88 
  461000   0.52217517   -6.1955696    134.84995  0.024376348  0.023591786           56 
  462000     0.531351   -6.1917393    134.92661  0.024337411  0.023525696           95 
  463000   0.53368221    -6.177506    134.96824   0.02429234  0.023459909          101 
  464000   0.53368643   -6.1996954    135.06883  0.024258052  0.023394381          107 
  465000   0.52134316   -6.2174852    134.95639  0.024185732  0.023328715          167 
  466000   0.50998257   -6.1924441    134.91552  0.024126524  0.023263157          147 
  467000   0.52880577   -6.2120113     135.0339  0.024095984  0.023197927          143 
  468000   0.52123664   -6.2253807     134.8666  0.024014707  0.023132602          142 
  469000    0.5202178   -6.2325015    134.77368  0.023946993  0.023067332           78 
  470000   0.51374383   -6.2330691    134.62874  0.023870343  0.023002155           90 
  471000   0.51831273   -6.2187592    134.76433  0.023843654   0.02293715          116 
  472000   0.51252385   -6.2342615    134.60333  0.023764712  0.022872209           58 
  473000   0.50665639   -6.2614774    134.51933   0.02369967  0.022807397           76 
  474000   0.51913955   -6.2513951    134.76675   0.02369317  0.022742823           76 
  475000    0.5104044   -6.2552558     134.8201  0.023652648  0.022678523          113 
  476000    0.5162333   -6.2337917    134.78323  0.023596505  0.022614367           71 
  477000    0.5086049   -6.2446363    134.79619    0.0235493  0.022550499           61 
  478000   0.50549669   -6.2453952    134.61129  0.023467799  0.022486679           54 
  479000   0.50665364   -6.2356439      134.591  0.023415276  0.022422997           90 
  480000   0.49347308   -6.2561248    134.58361   0.02336521  0.022359505          160 
  481000   0.49655855   -6.2400644    134.58801  0.023317397  0.022296115          187 
  482000   0.49741509   -6.2574725    134.79542  0.023304878  0.022232926           73 
  483000   0.49861075   -6.2557176    134.83972  0.023264271  0.022170115          113 
  484000   0.49125781   -6.2711458    134.78364   0.02320655  0.022107353          167 
  485000   0.48088269   -6.2846783    134.54154  0.023117103  0.022044691           96 
  486000   0.50535376    -6.282413    134.69541  0.023095921  0.021982132           95 
  487000   0.48379504   -6.2853957    134.56192  0.023025654  0.021919611           29 
  488000   0.48233743   -6.2880776    134.23509   0.02292266  0.021857206          105 
  489000   0.48979693    -6.303891    134.65472  0.022947294  0.021794927           44 
  490000   0.48615635   -6.2967853    134.53626  0.022880316  0.021732898           79 
  491000    0.4879566   -6.2848095    134.50616  0.022828607  0.021671103           67 
  492000   0.48294053   -6.2871795    134.44506  0.022771859  0.021609517          162 
  493000   0.47379292   -6.3008747    134.29763  0.022700749   0.02154812           92 
  494000   0.47545505   -6.3267985     134.1757  0.022634228   0.02148686          199 
  495000   0.48253891   -6.3183045    134.48477  0.022640534  0.021425882          105 
  496000   0.48370022   -6.3103217    134.30436  0.022564576  0.021365045          155 
  497000   0.46392502   -6.3051183    134.41349  0.022537473  0.021304359           50 
  498000   0.47517921   -6.3304136    134.28891  0.022471371  0.021243851          159 
  499000   0.46990745   -6.3252528    134.31191  0.022430178  0.021183514          176 
  500000   0.47085331   -6.3390618    134.14652  0.022357753  0.021123211          206 
  501000   0.47318399   -6.3166302    134.40164  0.022355562  0.021063068          208 
  502000   0.47329012   -6.3375004    134.09467  0.022260072   0.02100319           72 
  503000   0.46892326    -6.331501    134.11517  0.022219212   0.02094337           72 
  504000   0.46154737   -6.3304213    134.35758  0.022215209  0.020883736          185 
  505000   0.44477684   -6.3365276    133.90829  0.022097078  0.020824124          141 
  506000   0.46107701    -6.338743    134.15535  0.022094096  0.020764724          225 
  507000    0.4646014   -6.3408747    134.05476  0.022033984  0.020705456          185 
  508000   0.45126237   -6.3616012    133.96375  0.021975681  0.020646396          184 
  509000    0.4533434   -6.3565328    134.07622  0.021950919  0.020587595          247 
  510000   0.45386571   -6.3562443    134.16928  0.021923085  0.020528875          176 
  511000   0.45349746   -6.3503431    134.04291  0.021859575  0.020470273          200 
  512000   0.44935646   -6.3606164    134.20317  0.021842964  0.020411878          243 
Loop time of 1273.41 on 48 procs for 500000 steps with 4000 atoms

Performance: 67849.205 tau/day, 392.646 timesteps/s
99.4% CPU use with 48 MPI tasks x no OpenMP threads

MPI task timing breakdown:
Section |  min time  |  avg time  |  max time  |%varavg| %total
---------------------------------------------------------------
Pair    | 89.5       | 95.63      | 99.73      |  28.6 |  7.51
Neigh   | 8.6333     | 9.0193     | 9.3859     |   6.6 |  0.71
Comm    | 85.48      | 89.393     | 96.195     |  30.2 |  7.02
Output  | 0.89666    | 0.89738    | 0.92107    |   0.4 |  0.07
Modify  | 1064.4     | 1066.8     | 1069.9     |   4.1 | 83.77
Other   |            | 11.68      |            |       |  0.92

Nlocal:        83.3333 ave          88 max          77 min
Histogram: 1 1 4 8 4 7 6 7 4 6
Nghost:        2355.88 ave        2387 max        2335 min
Histogram: 4 7 7 6 6 12 1 2 0 3
Neighs:        16182.7 ave       18498 max       14213 min
Histogram: 5 5 6 4 8 3 8 5 2 2
FullNghs:      32365.4 ave       34551 max       29921 min
Histogram: 1 4 2 8 8 6 6 6 5 2

Total # of neighbors = 1553537
Ave neighs/atom = 388.38425
Neighbor list builds = 26860
Dangerous builds = 0

#clear
#
#next RN
#
#jump SELF
Total wall time: 0:21:16
