
units lj                  # Use reduced LJ style units
atom_style atomic         # Uncharged point particles
atom_modify map hash      # Needed for indexing of clusters etc
                          # Used to be able to find where atoms are in relation to each other.

lattice fcc 1.0 spacing 1 1 1
Lattice spacing in x,y,z = 1.5874011 1.5874011 1.5874011
region box block 0 10 0 10 0 10 units lattice
create_box 2 box
Created orthogonal box = (0.0000000 0.0000000 0.0000000) to (15.874011 15.874011 15.874011)
  3 by 4 by 4 MPI processor grid
create_atoms 1 box
Created 4000 atoms
  using lattice units in orthogonal box = (0.0000000 0.0000000 0.0000000) to (15.874011 15.874011 15.874011)
  create_atoms CPU = 0.032 seconds
set type 1 type/fraction 2 0.34 78393
Setting atom values ...
  1376 settings made for type/fraction
mass 1 1.0
mass 2 1.0
pair_style lj/cut  3.5
pair_modify tail  yes
pair_coeff 1  1  1.0  1.0   # Intearaction between 1 and 1 set with epsilon = 1 and sigma = 1
pair_coeff 1  2  1.5  0.8
pair_coeff 2  2  0.5  0.88

write_data data.0
System init for write_data ...
Neighbor list info ...
  update every 1 steps, delay 10 steps, check yes
  max neighbors/atom: 2000, page size: 100000
  master list distance cutoff = 3.8
  ghost atom cutoff = 3.8
  binsize = 1.9, bins = 9 9 9
  1 neighbor lists, perpetual/occasional/extra = 1 0 0
  (1) pair lj/cut, perpetual
      attributes: half, newton on
      pair build: half/bin/atomonly/newton
      stencil: half/bin/3d
      bin: standard
WARNING: Not all mixed pair coeffs generated from mixing. Use write_data with 'pair ij' option to store all pair coeffs. (../write_data.cpp:312)


#############################
#   M E L T   S Y S T E M   #
#############################

velocity all create 2.4 3143649 mom yes dist gaussian # Assign velocities
                                                    # Temperature 2.4, random number seed, zero linear momentum
                                                                                # Gaussian distribution

timestep 0.002   # simulation timestep
thermo 1000       # output thermodynamic data every 1000 steps bf 100

# Define a fix  in this case with index 1 applied to all
# particles in the simulation. This fix is for simulations
# in the anisotropic NPT ensemble. Note that we use the MTK
# correction.
fix 1 all npt temp 2.4 2.4 0.1 iso 5.68 5.68 0.5 mtk yes tchain 5 pchain 5 # Use NPT ensemble
                                                                         # Set temperature and pressure and damping
                                                                         # Numbers of thermostats in chain and in barostat
run 10000          # run for 10000 steps
Per MPI rank memory allocation (min/avg/max) = 3.642 | 3.644 | 3.648 Mbytes
Step Temp E_pair E_mol TotEng Press Volume 
       0          2.4   -6.2108987            0   -2.6117987   -4.0679274         4000 
    1000     2.437541   -5.0269977            0   -1.3716003    5.6434182    4045.9817 
    2000    2.3743167   -5.1000175            0   -1.5394327    5.7358029    4000.3313 
    3000    2.4117449   -5.0078282            0   -1.3911153     5.798293    4046.2945 
    4000    2.3971429   -5.0044574            0    -1.409642    5.8621826    4037.4338 
    5000    2.4033241   -5.0070239            0    -1.402939    5.6626843    4052.6698 
    6000     2.415157    -4.986369            0   -1.3645392    5.6907943    4058.2378 
    7000    2.3748412   -5.0568343            0   -1.4954631    5.7500312    4015.4727 
    8000    2.3854323   -5.0362341            0   -1.4589802      5.72428    4030.9727 
    9000    2.3930971   -4.9546212            0    -1.365873     5.794402    4059.0877 
   10000     2.425443   -5.0339726            0   -1.3967177     5.592857    4048.0224 
Loop time of 2.50057 on 48 procs for 10000 steps with 4000 atoms

Performance: 691043.549 tau/day, 3999.095 timesteps/s
99.6% CPU use with 48 MPI tasks x no OpenMP threads

MPI task timing breakdown:
Section |  min time  |  avg time  |  max time  |%varavg| %total
---------------------------------------------------------------
Pair    | 1.0652     | 1.1401     | 1.2457     |   3.6 | 45.59
Neigh   | 0.20047    | 0.21248    | 0.23175    |   1.3 |  8.50
Comm    | 0.75544    | 0.861      | 0.94106    |   5.3 | 34.43
Output  | 0.00024174 | 0.00024859 | 0.00030398 |   0.0 |  0.01
Modify  | 0.235      | 0.27133    | 0.32166    |   4.1 | 10.85
Other   |            | 0.01545    |            |       |  0.62

Nlocal:        83.3333 ave          91 max          75 min
Histogram: 1 7 2 7 4 8 5 5 7 2
Nghost:        1630.42 ave        1656 max        1595 min
Histogram: 1 0 2 6 4 10 14 8 1 2
Neighs:        9436.54 ave       10595 max        8503 min
Histogram: 4 4 6 6 8 6 7 4 1 2

Total # of neighbors = 452954
Ave neighs/atom = 113.23850
Neighbor list builds = 899
Dangerous builds = 173

# Equilibrate just above the melting temperature to avoid step fn in T

fix 1 all npt temp 1.25 1.25 0.1 iso 5.68 5.68 0.5 mtk yes tchain 5 pchain 5
run 2000
Per MPI rank memory allocation (min/avg/max) = 3.643 | 3.645 | 3.649 Mbytes
Step Temp E_pair E_mol TotEng Press Volume 
   10000     2.425443   -5.0339726            0   -1.3967177     5.592857    4048.0224 
   11000    1.2363536   -6.9323067            0   -5.0782399    5.4612806    3248.9103 
   12000    1.2467843    -6.993187            0   -5.1234782    5.4410137    3237.0251 
Loop time of 0.601927 on 48 procs for 2000 steps with 4000 atoms

Performance: 574156.129 tau/day, 3322.663 timesteps/s
99.6% CPU use with 48 MPI tasks x no OpenMP threads

MPI task timing breakdown:
Section |  min time  |  avg time  |  max time  |%varavg| %total
---------------------------------------------------------------
Pair    | 0.25154    | 0.28179    | 0.31966    |   2.8 | 46.81
Neigh   | 0.037741   | 0.040829   | 0.045988   |   0.9 |  6.78
Comm    | 0.18975    | 0.22919    | 0.26272    |   3.5 | 38.08
Output  | 5.313e-05  | 5.5242e-05 | 6.8442e-05 |   0.0 |  0.01
Modify  | 0.04058    | 0.045294   | 0.0503     |   1.1 |  7.52
Other   |            | 0.004766   |            |       |  0.79

Nlocal:        83.3333 ave          92 max          74 min
Histogram: 1 3 5 5 3 14 7 5 2 3
Nghost:        1889.48 ave        1920 max        1864 min
Histogram: 2 5 4 6 10 11 4 2 3 1
Neighs:        11809.5 ave       13502 max       10106 min
Histogram: 1 4 5 4 8 10 10 1 3 2

Total # of neighbors = 566858
Ave neighs/atom = 141.71450
Neighbor list builds = 143
Dangerous builds = 11

#############################
# L I N E A R  Q U E N C H  #
#############################

# Define solid atoms. This closely follows ten Wolde  Ruiz-Montero and Frenkel  Faraday Discuss  1996  104  93-110
# Compute components of the per-atom q6 vector
compute q6 all orientorder/atom degrees 1 6 components 6 nnn NULL cutoff 1.3 # compute the Q6 parameter.
                                                                             # Use all neighbours within 1.3 unit cell.

# get number of connections
compute coord_number all coord/atom orientorder q6 0.5

# An atom is solid if it has 8 or more connections (of a possible 14)
variable is_solid atom c_coord_number>=8
group solid dynamic all var is_solid    # Must be dynamic to update
dynamic group solid defined

# do clustering
compute cluster solid cluster/atom 1.3 # Create a cluster where all atoms within are solid and max 1.3 units from another member

# define chunks one chunk per cluster
compute clus_chunks solid chunk/atom c_cluster nchunk every compress yes  # Says which atoms are in which chunk

# count the size of each chunk
compute size_chunks solid property/chunk clus_chunks count


# Find the maximum entry in the vector of chunk sizes
variable max_n equal max(c_size_chunks)


# Thermo style which includes this variable
# thermo_style custom step temp pe vol v_max_n

thermo ${N}  # Print the thermo information every 100 steps
thermo 1000  

# Reset the npt fix at a lower temperature (below freezing)
fix 1  all npt temp  ${temp} ${temp}  0.1  iso  5.68  5.68  0.5  mtk yes tchain  5  pchain  5
fix 1  all npt temp  0.45 ${temp}  0.1  iso  5.68  5.68  0.5  mtk yes tchain  5  pchain  5
fix 1  all npt temp  0.45 0.45  0.1  iso  5.68  5.68  0.5  mtk yes tchain  5  pchain  5

dump dmp2 all dcd ${N} traj.dcd
dump dmp2 all dcd 1000 traj.dcd


compute msd all msd com yes
variable twopoint equal c_msd[4]/6/(step*dt+1.0e-6)
fix 9 all vector 10 c_msd[4]
variable fit equal slope(f_9)/6/(10*dt)
thermo_style custom step temp pe c_msd[4] v_twopoint v_fit v_max_n

fix 1 all npt temp 1.25 ${temp} 0.1 iso 5.68 5.68 0.5 mtk yes tchain 5 pchain 5
fix 1 all npt temp 1.25 0.45 0.1 iso 5.68 5.68 0.5 mtk yes tchain 5 pchain 5
run 5000000 # 5000000  # Run for this many steps
Neighbor list info ...
  update every 1 steps, delay 10 steps, check yes
  max neighbors/atom: 2000, page size: 100000
  master list distance cutoff = 3.8
  ghost atom cutoff = 3.8
  binsize = 1.9, bins = 8 8 8
  4 neighbor lists, perpetual/occasional/extra = 1 3 0
  (1) pair lj/cut, perpetual
      attributes: half, newton on
      pair build: half/bin/atomonly/newton
      stencil: half/bin/3d
      bin: standard
  (2) compute orientorder/atom, occasional
      attributes: full, newton on
      pair build: full/bin/atomonly
      stencil: full/bin/3d
      bin: standard
  (3) compute coord/atom, occasional
      attributes: full, newton on
      pair build: full/bin/atomonly
      stencil: full/bin/3d
      bin: standard
  (4) compute cluster/atom, occasional
      attributes: full, newton on
      pair build: full/bin/atomonly
      stencil: full/bin/3d
      bin: standard
Per MPI rank memory allocation (min/avg/max) = 9.815 | 9.820 | 9.825 Mbytes
Step Temp PotEng c_msd[4] v_twopoint v_fit v_max_n 
   12000    1.2467843    -6.993187 1.5288124e-30 1.0616753e-32 8.3333333e+20            1 
   13000    1.2402751   -6.9440821   0.49566488 0.0031773389  0.040617174            1 
   14000    1.2723068   -6.9635755   0.95029716 0.0056565305  0.038898399            3 
   15000    1.2595008   -7.0092456    1.4287114 0.0079372851  0.038839657            1 
   16000    1.2606614   -7.0114567    1.9308648  0.010056587  0.039315181            1 
   17000    1.2610728   -6.9758314    2.4733924  0.012124472  0.040429668            1 
   18000     1.280451   -6.9736783    2.9690997  0.013745831  0.041196728            2 
   19000    1.2167004   -6.9205122    3.4836775  0.015279287  0.041431778            1 
   20000    1.2409356   -6.9578119    4.0027903  0.016678292  0.041802242            2 
   21000    1.2355145   -6.9740892    4.4517058  0.017665499  0.041787513            1 
   22000    1.2566117   -7.0012114    4.8997852  0.018559792  0.041536075            1 
   23000    1.2516119   -6.9994556    5.3469062  0.019372848  0.041238714            3 
   24000    1.2525843   -6.9542252    5.8823741   0.02042491   0.04106985            1 
   25000    1.2357599   -6.9577432    6.2669187  0.020889728  0.040842695            2 
   26000     1.251466   -6.9674306    6.6947069  0.021457393  0.040493885            1 
   27000    1.2508766   -7.0022603    7.1593215  0.022096671   0.04020574            1 
   28000    1.2341503     -7.00023     7.622154  0.022684982  0.039964227            2 
   29000    1.2376944   -7.0229501     8.087145  0.023238922  0.039767159            1 
   30000    1.2615839   -6.9354777    8.5248472  0.023680131  0.039565773       -1e+20 
   31000    1.2334853   -6.9289322    8.9743293  0.024124541   0.03937531            1 
   32000    1.2293672   -7.0001522    9.4404711   0.02458456  0.039213426            1 
   33000    1.2435521   -6.9896728    9.9619655  0.025156478  0.039135261            2 
   34000    1.2410778   -6.9903981    10.370503  0.025417899  0.039113993            3 
   35000    1.2273541   -7.0178018    10.822321  0.025767431  0.039077876            1 
   36000    1.2542766   -6.9844974    11.289954  0.026134153  0.039007423            1 
   37000    1.2286117   -7.0111658    11.746289  0.026455605  0.038934443            1 
   38000    1.2218554   -7.0199047    12.190334  0.026733188  0.038862126            1 
   39000    1.2146417   -6.9164201    12.669451  0.027071476  0.038811718            2 
   40000    1.2537098   -6.9993552    13.141927  0.027379015   0.03875921            1 
   41000    1.2291404   -7.0316025    13.464727  0.027367331  0.038696993            1 
   42000    1.2412851   -6.9987781    13.942869  0.027664422  0.038642829            1 
   43000    1.2161013   -6.9708776    14.416735  0.027939409  0.038568966            1 
   44000    1.2406847   -7.0045397    14.892556  0.028205598  0.038526111            1 
   45000    1.2638041   -6.9824321    15.450922  0.028612818   0.03851084            4 
   46000    1.2424116   -6.9507482    15.910083  0.028822613   0.03850803            3 
   47000     1.229971    -6.953167    16.405768  0.029088241  0.038533713            3 
   48000    1.2733295   -6.9752884    16.998806  0.029511815   0.03857843            1 
   49000    1.2241873   -6.9851615    17.458135  0.029690706   0.03864193            1 
   50000     1.260626   -6.9874957    17.842493  0.029737488   0.03864621            1 
   51000    1.2317613   -6.9620996    18.225095  0.029779567  0.038640618            1 
   52000    1.2469099   -6.9930714    18.709922  0.029983849  0.038644486            1 
   53000    1.2732988   -6.9963907    18.997583  0.029870414  0.038605699            1 
   54000    1.2347493   -7.0008199    19.572838  0.030204996  0.038564807            2 
   55000    1.2500769   -6.9560575    19.961007   0.03024395  0.038538766            2 
   56000    1.2405149   -7.0012348    20.360776  0.030298773  0.038507694            3 
   57000    1.2359745   -6.9679878    20.775977  0.030374235  0.038461023            1 
   58000    1.2539273   -6.9929475    21.285058   0.03058198  0.038417532            1 
   59000    1.2607728   -6.9684716    21.878635  0.030902026  0.038392281            2 
   60000    1.2469594   -6.9702552    22.289816  0.030958077  0.038375829            1 
   61000    1.2551597    -6.932161    22.712684  0.031028257  0.038355819            1 
   62000    1.2627427   -6.9847652    22.980213  0.030887383  0.038321415            2 
   63000    1.2530725    -6.969151    23.478499  0.031056216  0.038271422            1 
   64000    1.2325626   -6.9917009    23.834664  0.031034718   0.03822957            1 
   65000     1.203889   -7.0291478    24.200779  0.031026639  0.038176638            1 
   66000    1.2341528   -7.0162882    24.683262  0.031165735  0.038123693            1 
   67000    1.2301318   -6.9691567     25.16637  0.031301456  0.038076094            1 
   68000    1.2286136   -6.9851748    25.640125  0.031421721  0.038039474            1 
   69000     1.245447   -7.0103502    25.889679  0.031267728  0.037992244            2 
   70000    1.2555657   -6.9870911    26.438308  0.031474176  0.037929268            5 
   71000    1.2480218   -6.9908289    26.858238  0.031523754  0.037887941            4 
   72000    1.2174241   -7.0544226    27.148353  0.031421704  0.037845007            1 
   73000    1.2394919   -7.0218045    27.675811  0.031593391  0.037791721            1 
   74000    1.2366489   -7.0430196    27.899496  0.031418351  0.037740403            1 
   75000    1.2299914   -7.0210496    28.334632  0.031482925  0.037683745            1 
   76000     1.245728   -6.9949667    28.831632  0.031613631  0.037622296            2 
   77000    1.2234425   -7.0105405    29.253566  0.031659703  0.037569201            2 
   78000    1.2699815   -6.9981842    29.705968  0.031737146  0.037521146            1 
   79000    1.2495954     -7.01445    30.182009  0.031837562  0.037473556            1 
   80000    1.2346927   -7.0098995    30.689306  0.031968026  0.037434156            4 
   81000    1.2404683   -7.0090522    31.114457  0.032010758  0.037403973            2 
   82000    1.2269756   -7.0241625     31.45188  0.031963292  0.037374617            2 
   83000    1.2543044   -6.9953462    32.197068  0.032326374  0.037349281            1 
   84000    1.2260027   -6.9923089    32.570819   0.03231232  0.037336742            1 
   85000     1.268385   -7.0301259    32.924696  0.032279113  0.037323143            3 
   86000    1.2346038   -6.9725503     33.47597  0.032437955  0.037315286            2 
   87000    1.2374735   -6.9565104    34.103326  0.032666021  0.037309383            2 
   88000    1.2272653   -7.0051766    34.459206  0.032631824  0.037309222            1 
   89000    1.2744234   -6.9696898    34.939138  0.032714548  0.037303318            1 
   90000    1.2129629   -6.9700092    35.738029  0.033090768  0.037306008            1 
   91000    1.2249007   -6.9785353    35.953345  0.032924309  0.037317322            3 
   92000    1.2179586   -6.9766613    36.360766  0.032935476  0.037318521            2 
   93000    1.2140012   -7.0229198    36.782876  0.032959566  0.037317789            1 
   94000     1.266389   -6.9724531    37.275359  0.033045531  0.037319092            2 
   95000    1.2492594   -7.0292637    37.542389   0.03293192  0.037317557            4 
   96000    1.2419472   -7.0310068    38.023111  0.033006172  0.037319887            1 
   97000    1.2471035    -6.989881    38.509688  0.033083925  0.037320345            1 
   98000    1.2342252   -7.0392804     39.19019  0.033324992  0.037329375            3 
   99000     1.221159   -7.0296908     39.62543  0.033354739  0.037343663            2 
  100000    1.2219564   -6.9827368    40.337963  0.033614969  0.037361322            2 
  101000    1.2220855   -6.9995162     40.63638  0.033528366  0.037382782            2 
  102000    1.2096107   -6.9869233    41.117984  0.033593124  0.037404845            1 
  103000    1.2710684   -6.9992002    41.595915  0.033653653  0.037423603            2 
  104000    1.2617167   -6.9803755    41.910341  0.033582004  0.037436248            1 
  105000    1.2443459   -7.0016529    42.538091  0.033760389  0.037453562            1 
  106000    1.2458598   -6.9658592    43.003956  0.033808141  0.037471595           11 
  107000    1.2121123   -6.9735737    43.498188  0.033877094  0.037485036            2 
  108000    1.2071591   -7.0079443    43.556137   0.03360813  0.037489648            1 
  109000    1.2226309   -6.9611062    44.150313  0.033754062  0.037490281            1 
  110000    1.2449517   -6.9883054    44.593868  0.033783233  0.037496446            1 
  111000    1.2344383   -7.0028378    44.975845  0.033765649  0.037497618            3 
  112000    1.2431842   -7.0056252    45.563374   0.03390132  0.037501721            1 
  113000    1.2347186   -7.0163703    46.125505  0.034015859  0.037508308            2 
  114000    1.2348374   -6.9895063     46.44111   0.03394818  0.037514872            2 
  115000    1.2508408   -7.0077676    46.700996  0.033841301   0.03751567            2 
  116000    1.2152778   -7.0014532     47.25349  0.033946472  0.037511578            2 
  117000    1.2187123   -7.0439385    47.641634  0.033932787  0.037511436            2 
  118000    1.2203302   -7.0225313    48.141666  0.033998351  0.037512064            1 
  119000    1.1895434   -7.0144685    48.685251  0.034093313  0.037514362            2 
  120000    1.2601649   -7.0092377     49.19817  0.034165396  0.037516915            3 
  121000    1.2224013   -7.0243621    49.698612  0.034227694  0.037524812            2 
  122000    1.1938469    -7.026383    50.174395  0.034272127  0.037532895            4 
  123000    1.2087212   -6.9734768    50.789329  0.034410114  0.037542926            1 
  124000    1.2218641   -7.0153785     51.08817  0.034333447  0.037555033            1 
  125000    1.2331265   -7.0175262    51.430361  0.034286907  0.037565886            2 
  126000    1.2389831   -7.0426519    52.066929    0.0344358   0.03757705            3 
  127000    1.2285078   -6.9927339    52.928914  0.034730258  0.037590519            1 
  128000    1.2161209   -6.9996062    53.019302  0.034517775  0.037608646            2 
  129000     1.213566   -7.0366956    53.438373  0.034520912  0.037623023            2 
  130000    1.2047778   -7.0086748     53.72615   0.03443984  0.037627779            2 
  131000     1.211536   -7.0120961    54.187969  0.034470718  0.037630569            1 
  132000    1.2206387   -7.0060545    54.493592   0.03440252   0.03763387            1 
  133000    1.2101529   -7.0147462    55.083851  0.034513691  0.037637967            5 
  134000    1.2269579   -7.0465401    55.650149  0.034608301  0.037643199            1 
  135000    1.2514392    -7.034275    56.166601  0.034670741  0.037654452            1 
  136000    1.2143169   -7.0340697    56.426438  0.034575023  0.037661544            3 
  137000    1.2116603   -7.0366277    56.779512  0.034537416   0.03766389            1 
  138000    1.2295877   -7.0528604    57.100795  0.034481156  0.037662098            2 
  139000     1.214391   -7.0695035    57.443128  0.034438326  0.037658476            1 
  140000    1.2306607   -7.0553422    57.769857   0.03438682  0.037653218            3 
  141000    1.2137347    -7.051301    58.521436  0.034587137  0.037645587       -1e+20 
  142000    1.2115498   -7.0053209    58.802918  0.034508755  0.037637652            2 
  143000    1.2504394   -7.0116837    59.254568  0.034530634  0.037629587            1 
  144000    1.2585969    -7.011401    59.652379  0.034521052  0.037618973            2 
  145000    1.2295084   -7.0434147    59.964145  0.034462152  0.037610071            2 
  146000    1.2125318   -7.0422902      60.6042  0.034591438  0.037603187            2 
  147000    1.2215637   -7.0217248    61.099701  0.034637018  0.037594943            8 
  148000    1.2295381   -7.0198784    61.350793  0.034544365  0.037588119            1 
  149000    1.2451174   -7.0364971    62.007465   0.03467979  0.037581473            1 
  150000    1.2059595    -7.016616    62.426679  0.034681488  0.037574489            2 
  151000    1.2438969    -7.055815    62.743088  0.034626428  0.037567545            1 
  152000    1.2306461   -7.0278327    63.319749  0.034714775  0.037560617            2 
  153000    1.2495455    -7.027789    63.790427  0.034744241  0.037554885            1 
  154000    1.2157889   -6.9854407    64.228914  0.034755906  0.037551777            1 
  155000    1.2086297   -6.9995703    64.628462  0.034746485  0.037546214            1 
  156000    1.2528597   -7.0539108     65.07233   0.03476086  0.037541942            1 
  157000    1.2633644   -7.0578146    65.417961  0.034722909  0.037536939            1 
  158000    1.2123978   -7.0148945    65.747432  0.034676916  0.037528241            3 
  159000    1.2346682   -7.0470815    66.092767  0.034639815  0.037516916            1 
  160000    1.2382253   -7.0740784    66.691299  0.034735052  0.037505612            2 
  161000    1.2159863    -7.048923    67.173633  0.034768961  0.037497084            3 
  162000     1.235741   -7.0016828      67.5856  0.034766255  0.037487788            1 
  163000    1.2185224   -7.0575377    67.811299  0.034668353  0.037479382            1 
  164000    1.2405988    -6.996327    68.349859  0.034730619  0.037469733            1 
  165000    1.2330339   -7.0344351    68.656484  0.034674992  0.037457655            2 
  166000    1.2189206   -7.0252078    69.299979  0.034789146  0.037447894            1 
  167000     1.223219   -7.0663638    69.707972  0.034784417  0.037439625            1 
  168000    1.2404499    -7.011935    70.169572  0.034806335   0.03743383            2 
  169000    1.2065316   -7.0436125    70.201196  0.034615974  0.037424758            2 
  170000    1.2186499    -7.043492    70.830578  0.034720871  0.037416844            1 
  171000    1.2085429    -7.015338     71.39919  0.034794927  0.037409676            1 
  172000    1.2372391   -7.0294766    72.064377  0.034914911  0.037402654            1 
  173000     1.217888   -7.1057649    72.313611  0.034833146  0.037397745            1 
  174000    1.2252465   -7.0482364    73.004073  0.034963637  0.037394728            1 
  175000    1.1951591     -7.04282    73.424488  0.034964042  0.037391433            1 
  176000    1.2267445   -7.0327718     74.28373   0.03517222  0.037390054            1 
  177000    1.2073954   -7.0541777    74.510078  0.035080074   0.03739032            1 
  178000     1.209763   -7.0255405    74.972583  0.035099524  0.037389622            1 
  179000     1.247438   -7.0544581    75.222351  0.035019716  0.037391904            2 
  180000     1.209425   -7.0404298    75.728663  0.035059566   0.03739061            2 
  181000    1.2149642   -7.0437246    75.885597   0.03493812   0.03738624            1 
  182000     1.232335   -7.0016563    76.587006   0.03506731  0.037384516            1 
  183000    1.2305958   -7.0224189    76.765919  0.034957158   0.03737907            1 
  184000    1.2310952   -7.0390657    77.328413  0.035021926   0.03737065            2 
  185000    1.2266013   -7.0814936    77.639684  0.034972831  0.037363294            2 
  186000     1.252723   -7.0464825    77.723586  0.034822395  0.037354196            2 
  187000    1.2083396   -7.0247593    78.448865  0.034959387  0.037345372            1 
  188000    1.2241727   -7.0700334    78.785507  0.034922654  0.037337191            2 
  189000    1.2245338   -7.0239817     79.44443  0.035028408  0.037330099            3 
  190000    1.2276314   -7.0279302    79.622132  0.034921987  0.037322448            2 
  191000    1.2247667   -7.0295183    80.098993  0.034947204  0.037315834            2 
  192000    1.2329668   -7.0271621        80.48  0.034930556  0.037305928            1 
  193000    1.2435441   -7.0319764    80.662341  0.034828299  0.037294731            2 
  194000    1.2296498   -7.0528244    81.078902  0.034827707  0.037283823            1 
  195000     1.225374   -7.0359397    81.708744  0.034918266  0.037271142            1 
  196000    1.2109679   -7.0670097    81.684978  0.034730007   0.03725753            1 
  197000    1.2250335    -7.053481    82.276381  0.034803884  0.037241446            1 
  198000    1.2079629   -7.0420116    82.282035  0.034630486  0.037223979            1 
  199000    1.2498646   -7.0420349    83.203928  0.034842516  0.037208097            1 
  200000    1.2336388   -7.0199543    83.381512  0.034742296   0.03719189            2 
  201000    1.2090274   -7.0446877     83.69475  0.034699316  0.037174412            2 
  202000    1.2187433   -7.0529743    84.154597  0.034717243  0.037155001            1 
  203000    1.2279482   -7.0226147    84.546015  0.034706903  0.037134203            1 
  204000    1.2255971   -6.9988874    84.772703  0.034629372  0.037116352            2 
  205000    1.2026798   -7.0222641    85.276534  0.034665258  0.037097839            3 
  206000    1.2111199   -7.0293552    85.561674  0.034612328  0.037076687            2 
  207000    1.2063726   -7.0831341    85.865238  0.034567326  0.037055615            3 
  208000    1.1981888   -7.0916823    86.164613  0.034521079  0.037035729            1 
  209000    1.1902268    -7.043554    86.670461    0.0345576  0.037017268            1 
  210000    1.2106675   -7.0024597    87.284179  0.034636579  0.036996627            1 
  211000    1.2285328   -7.0215972     87.43968  0.034533839  0.036976904            2 
  212000    1.1998378   -7.0431128    87.809105  0.034516157   0.03695863            6 
  213000    1.2157855   -7.0619316    88.227371  0.034517751  0.036938185            1 
  214000    1.2066962   -7.0719802     88.84148  0.034595592  0.036918229            1 
  215000    1.2109565   -7.0774518    88.842261  0.034434985  0.036897443            1 
  216000    1.2230325   -7.0300854    90.086181  0.034755471  0.036879849            1 
  217000    1.2342622   -7.0693563    90.461197  0.034739323  0.036866652            2 
  218000     1.225521   -7.0811686    90.976823  0.034777073  0.036854538            2 
  219000    1.2125189   -7.0582647    91.755042    0.0349144  0.036845011            2 
  220000    1.2327319   -7.0382284    91.979757  0.034840817  0.036836155            2 
  221000    1.2257762   -7.0581617    92.144906   0.03474544  0.036826721            1 
  222000    1.2305085   -7.0104593      92.8504  0.034853754  0.036814785            2 
  223000    1.2006295   -7.0853694    92.832024  0.034690592   0.03680305            1 
  224000    1.2194195    -7.040517    93.677306  0.034850188  0.036790989            1 
  225000     1.203946    -7.090092    93.858855  0.034762539  0.036780758            1 
  226000    1.2353243   -7.0819822    94.444556  0.034824689  0.036770426            2 
  227000    1.2259592   -7.0244025    94.802995  0.034802862  0.036760667            2 
  228000    1.2054029    -7.072603     95.31829  0.034838556  0.036750143            2 
  229000    1.1840501   -7.0629799    95.728783  0.034835802  0.036740053            2 
  230000    1.1976274   -7.0242494    96.150943  0.034837298  0.036729995            1 
  231000    1.2393513   -7.0332095    96.744569  0.034900638  0.036719095            1 
  232000    1.2145109   -7.0591244    96.677603   0.03472615  0.036708814            3 
  233000    1.1883279   -7.0601681    97.349065  0.034817262  0.036698362            1 
  234000    1.1784341   -7.0607809    98.036546    0.0349133  0.036688722            2 
  235000    1.2358556   -7.0400182    98.243558  0.034838141  0.036678189            3 
  236000    1.2093695   -7.0502436    98.379868  0.034738654  0.036667623            1 
  237000    1.1994091   -7.0168292    99.171737  0.034870512  0.036656202            1 
  238000    1.2010752    -7.001888    99.340409  0.034783056    0.0366452            1 
  239000    1.2062192   -7.0772757    100.03696  0.034880391   0.03663476            1 
  240000    1.2253868   -7.0578238    99.791187  0.034649718  0.036623919            3 
  241000    1.2633917   -7.0786029    100.86495  0.034877229  0.036614054            2 
  242000    1.2150054   -7.0767321     100.8012  0.034711158  0.036603877            3 
  243000     1.209275   -7.0784289    101.41644  0.034779299  0.036593353            1 
  244000    1.2081492   -7.0885032    101.46091  0.034651951  0.036582406            1 
  245000    1.2100349   -7.0799865    101.85761  0.034645446  0.036570604            2 
  246000    1.1970994   -7.0886703     102.3884  0.034684417  0.036558121            2 
  247000    1.2193693   -7.0363648    102.74522  0.034664379  0.036544818            2 
  248000    1.2206865   -7.0412654    103.24652   0.03469305  0.036532828            1 
  249000    1.2344433   -7.0422641    103.60729  0.034674461  0.036519276            1 
  250000    1.2104197   -7.0717727    103.65497  0.034551657  0.036505888            1 
  251000    1.2011036   -7.0779644    104.31941  0.034634598  0.036492177            1 
  252000    1.2174461   -7.0493499     104.8073  0.034658497  0.036480341            1 
  253000    1.2260701   -7.0889525    104.85425  0.034536973  0.036466726            2 
  254000    1.1934381    -7.045938    106.05258  0.034794154  0.036455072            1 
  255000    1.2236458   -7.0886792    106.00228  0.034641268  0.036442746            1 
  256000      1.22663   -7.0660893    106.30085   0.03460314  0.036432191            1 
  257000    1.2027712    -7.014234    106.94278  0.034676646   0.03641959            4 
  258000    1.2288262   -7.0585446    107.03359  0.034571572  0.036406059            2 
  259000    1.2103783   -7.0908041    107.22594  0.034499981  0.036391972            1 
  260000    1.2051361    -7.084474    107.68208  0.034513489  0.036377348            1 
  261000    1.1938886   -7.0895664    108.02663  0.034491262  0.036362788            2 
  262000    1.2142924   -7.0668589    108.62515  0.034549984  0.036347295            2 
  263000    1.1942493   -7.1052068    108.62663  0.034419086  0.036333085            1 
  264000    1.2182267   -7.0853245    109.18241  0.034464144  0.036320233       -1e+20 
  265000    1.1807067   -7.0779627    110.21553   0.03465897  0.036308504            1 
  266000    1.2064575   -7.0154807    110.84043  0.034724446  0.036298483            2 
  267000    1.1918727   -7.0625798    111.05358  0.034660918  0.036289669            1 
  268000    1.1923141    -7.040254    111.51443  0.034674884  0.036280384            2 
  269000    1.2196841   -7.0740243     111.9546  0.034682343  0.036271006            1 
  270000    1.2439322   -7.0682384    112.52303   0.03472933  0.036263852            2 
  271000    1.2229409   -7.0587124    113.52018  0.034907805  0.036256782            2 
  272000    1.1971828   -7.0492012    113.57411  0.034795989   0.03624828            1 
  273000     1.229836   -7.0872954    114.08662  0.034824976  0.036240681            3 
  274000     1.186541    -7.050755    113.72018   0.03458643  0.036232775            3 
  275000    1.1901358   -7.0675437    114.54531  0.034710699   0.03622305            2 
  276000    1.2035875   -7.1256714     114.8332  0.034671859  0.036213689            2 
  277000    1.2361129   -7.0514239    115.72545  0.034815116  0.036206238            1 
  278000     1.211231   -7.0465978    116.18901   0.03482884   0.03619973            2 
  279000    1.2043883    -7.101895    116.12378  0.034684521  0.036193454            1 
  280000     1.205353    -7.110127    116.98562   0.03481715  0.036186995            1 
  281000    1.2125413   -7.0316833    117.37119   0.03480759  0.036180573            1 
  282000    1.1884353   -7.0666183    117.71262  0.034785053  0.036174038            2 
  283000    1.1954147   -7.0628091    118.06505  0.034765917  0.036167381            3 
  284000    1.1807439   -7.0931822    118.27061  0.034703817  0.036159465            1 
  285000    1.2379999   -7.1046935    118.69034  0.034704779  0.036151445            2 
  286000    1.2172927   -7.0573616    119.63888  0.034859813  0.036144488            2 
  287000    1.2496313   -7.0656414    119.80225  0.034785787  0.036138186            5 
  288000    1.2079652   -7.1181546    119.91257  0.034696924   0.03613208            2 
  289000    1.1834178   -7.0642616    120.52768  0.034754232  0.036124836            2 
  290000    1.2050373   -7.0645266    121.33401  0.034866096  0.036118275            2 
  291000    1.2216431   -7.0803396    121.27002  0.034727954  0.036111048            2 
  292000    1.1992375   -7.0437259    122.04553  0.034830344  0.036102764            2 
  293000    1.2066489   -7.0740125    121.79712  0.034640819  0.036094526            1 
  294000     1.197266   -7.0832762    122.46302  0.034711741  0.036086847            1 
  295000    1.1988547   -7.1183532    123.01857  0.034751007   0.03607943            1 
  296000    1.2206936   -7.0907265    123.35608  0.034728625  0.036072377            1 
  297000    1.1887306   -7.0789693    124.03707   0.03480277  0.036065901            1 
  298000    1.2193818   -7.0675372    124.22549  0.034738671  0.036060749            1 
  299000    1.2257035   -7.0781236    124.73433  0.034764305  0.036054387            1 
  300000    1.2039081   -7.0150853    125.21176  0.034781045  0.036048421            2 
  301000     1.215799   -7.0587897    126.14938  0.034925077  0.036043119            2 
  302000    1.1968779   -7.0995181     125.8427  0.034724806  0.036036692            2 
  303000    1.2005934   -7.0417001    126.48312  0.034786337  0.036029275            2 
  304000    1.2084063   -7.0793403    126.50958  0.034679161  0.036021502            1 
  305000     1.202191   -7.0566242    127.19822  0.034753612  0.036013925            4 
  306000    1.2084136   -7.0986172    127.20988  0.034643213  0.036005954            2 
  307000    1.2140879   -7.0743874    127.55401  0.034623781  0.035997027            1 
  308000    1.2142316   -7.0965512    128.05994  0.034648252  0.035987922            2 
  309000    1.2009231   -7.0643401    128.38551  0.034623925  0.035980018            1 
  310000    1.2405086   -7.0914018    128.46249  0.034532928  0.035970377            2 
  311000    1.2112346   -7.0923374    128.88413  0.034534869  0.035959753            1 
  312000    1.1997182   -7.0447681    129.44402  0.034573723  0.035948851            2 
  313000    1.1839393   -7.0609461    129.58408  0.034500555  0.035936816            1 
  314000    1.1861578   -7.0623531    129.96667  0.034492215  0.035925878            2 
  315000    1.2091294   -7.1002342    129.80208  0.034339173  0.035914183            2 
  316000    1.1895734   -7.0890654    130.61683  0.034445367  0.035903749            2 
  317000    1.2155601   -7.0592809    131.20074  0.034490205  0.035894192            2 
  318000    1.2038947   -7.0731269    130.94294  0.034314187  0.035883138            1 
  319000    1.2292355   -7.0709104    131.82763  0.034437729  0.035870947            2 
  320000    1.2138361   -7.0816449    132.67384  0.034550479   0.03585896            3 
  321000    1.1988589   -7.0993534    132.39777  0.034371177   0.03584801            2 
  322000    1.1961011   -7.0749091    133.34631  0.034509914   0.03583664            2 
  323000    1.1961177   -7.1108934    133.33746  0.034400789  0.035826242            1 
  324000    1.1907448    -7.082597    134.45507  0.034582065  0.035816257            2 
  325000    1.1987694   -7.0922109    135.03108  0.034623354  0.035806911            1 
  326000    1.2023494   -7.0878871    134.85194  0.034471355  0.035798466            1 
  327000    1.2039459   -7.1165668    135.31318  0.034483482  0.035788905            1 
  328000    1.1967157   -7.1040931    135.61781  0.034455744  0.035779561            1 
  329000    1.1903293    -7.071414    136.70231  0.034625711  0.035770919            2 
  330000    1.1932772   -7.1064615    136.66168  0.034510524  0.035761784            1 
  331000    1.1894862   -7.0740886    137.73457  0.034676378  0.035754216       -1e+20 
  332000    1.1908127   -7.0822898    138.13733  0.034673026  0.035747227            1 
  333000     1.198999   -7.0869155    138.06874  0.034551737  0.035739306            2 
  334000    1.2040611   -7.1155547    137.94939   0.03441851  0.035731083            2 
  335000    1.2063044   -7.0558288    139.44132  0.034686895  0.035723621            1 
  336000    1.1831558   -7.0780667      139.376   0.03456746  0.035716561            1 
  337000    1.1885313   -7.0873701    139.40343  0.034471669  0.035708517            2 
  338000    1.1871586   -7.0797251    140.40316  0.034616163  0.035701031            2 
  339000    1.2060619   -7.1130533    140.23257  0.034472116  0.035693858            1 
  340000    1.2159827   -7.0207929    141.68977  0.034727885  0.035687229            1 
  341000    1.1909196   -7.1042744    140.91402  0.034436465  0.035680146            2 
  342000    1.1736639   -7.1334707     141.6847  0.034523563  0.035672388            1 
  343000    1.1614605   -7.0819446     142.3956  0.034595626  0.035665736            1 
  344000    1.1867776   -7.1139544    143.41697  0.034742483  0.035661149            1 
  345000    1.1975146   -7.0663565    143.25541  0.034602756  0.035655487            1 
  346000    1.2030845   -7.0960693    143.70796  0.034611745  0.035648544            2 
  347000    1.1794531   -7.1071395    143.68321  0.034506054   0.03564194            2 
  348000    1.1843774   -7.1403433    144.14833  0.034518279  0.035634813            1 
  349000    1.2225119   -7.0819509     144.9468  0.034610029  0.035627581            4 
  350000    1.1809496    -7.076512    145.90185  0.034738537  0.035621742            1 
  351000     1.213978   -7.1346696    145.92277  0.034644532  0.035615964            3 
  352000    1.1855469    -7.123063    145.69335  0.034491796  0.035610409            2 
  353000    1.1936025    -7.076998    147.35202  0.034785652  0.035605559            2 
  354000     1.212956   -7.0654424     147.5598    0.0347363  0.035601308            3 
  355000    1.1857266    -7.064078    147.62898   0.03465469  0.035596629            2 
  356000    1.1928412   -7.0781087    148.03656  0.034652752  0.035592387            1 
  357000    1.1801864   -7.0783925    148.40945  0.034642728  0.035588328            1 
  358000    1.2084927   -7.1077986    149.05701  0.034696697  0.035585072            2 
  359000    1.1938834     -7.10104    149.70306  0.034750013  0.035581647            1 
  360000    1.1774173   -7.0794437    149.89053  0.034696881    0.0355784            2 
  361000     1.184721   -7.0973225    149.53469  0.034518626  0.035573795            1 
  362000    1.1948473   -7.1177843    150.46429  0.034637267  0.035567419            2 
  363000    1.2049193   -7.0771449    150.23274   0.03448869  0.035561115            1 
  364000    1.1967789   -7.1089117    150.81616  0.034527509  0.035555075            1 
  365000    1.1773787     -7.09624    151.52792  0.034595415  0.035548926            1 
  366000    1.1826982   -7.1065932    152.42569  0.034705303  0.035542471            1 
  367000    1.2175926   -7.0680178    152.16374  0.034551258  0.035536448            3 
  368000    1.2071195   -7.0938813    151.99764  0.034419754  0.035531711            1 
  369000    1.1901626    -7.097229    153.20699  0.034599591  0.035525461            2 
  370000    1.1632025   -7.1011692    153.52138  0.034576888  0.035519232            1 
  371000    1.1855836   -7.1016389    153.52886  0.034485367  0.035512797            1 
  372000    1.2261291   -7.0812293     153.8508  0.034464785  0.035505375            3 
  373000    1.2085333    -7.113012    154.52582  0.034523195  0.035498484            2 
  374000    1.2062181   -7.1382422    154.10803  0.034337795  0.035490103            2 
  375000    1.1803102   -7.1161894    154.86554  0.034414564  0.035480917            1 
  376000    1.1784204   -7.1184312    155.07963  0.034370485  0.035472241            1 
  377000    1.1824052   -7.0810264    155.92262  0.034465655  0.035463876            2 
  378000    1.1981778   -7.0821325    155.60245  0.034303891  0.035454988            1 
  379000    1.1912744   -7.1186563    156.35722  0.034379336  0.035446259            5 
  380000    1.2342027   -7.1308155    156.10886  0.034234399  0.035436728            1 
  381000    1.1753202   -7.1133988    156.76389  0.034287816  0.035427513            1 
  382000    1.2071427   -7.0670644    157.27409  0.034309357  0.035417998            4 
  383000    1.1905638   -7.1189743    157.19342  0.034202223  0.035407937            1 
  384000     1.171807   -7.0901209     157.8665  0.034259223   0.03539694            1 
  385000    1.1634265   -7.0872368    158.17379   0.03423675  0.035386502            3 
  386000    1.2002994   -7.0848661    159.11203  0.034350611  0.035376594            1 
  387000    1.2125186   -7.1110621    158.70809  0.034174868  0.035366857            1 
  388000    1.1941728   -7.0857214    159.33729  0.034221926  0.035356044            2 
  389000    1.1776652    -7.095409    160.03019  0.034282388  0.035345221            2 
  390000    1.1809767   -7.1238563    160.03931  0.034196433  0.035334506            2 
  391000    1.1997258   -7.1118753    159.75235  0.034047816  0.035323399            2 
  392000    1.1936717   -7.1346194    160.32969  0.034083692  0.035311534            1 
  393000    1.1985477   -7.1438098    160.44644  0.034021722  0.035299996            2 
  394000    1.1848885   -7.1173844    161.19626  0.034093965  0.035288691            1 
  395000    1.2166076   -7.1375661    161.04937   0.03397666  0.035277004            1 
  396000    1.1637957   -7.0587253    162.58538  0.034214096  0.035265045            2 
  397000    1.1502899   -7.1158661    161.63018   0.03392741  0.035252698            1 
  398000    1.2277308   -7.1084823     162.6268  0.034050838  0.035240738            1 
  399000     1.169447   -7.1044056    162.40973   0.03392016  0.035228035            1 
  400000    1.1912274   -7.0759364    163.19842   0.03399967  0.035214743            2 
  401000    1.1712428   -7.1575179    163.50652  0.033978912  0.035201112            1 
  402000    1.1872642    -7.106736    164.37839  0.034075122   0.03518806            1 
  403000    1.1776256   -7.1079552    164.11196  0.033935475  0.035175634            2 
  404000    1.1739797   -7.1299628    164.05689  0.033840119  0.035163268            2 
  405000    1.1976755   -7.1364018     164.1737  0.033780597   0.03515009            3 
  406000    1.1806181   -7.1203925    164.70056  0.033805534  0.035137381            2 
  407000     1.167924   -7.0717927    165.29939  0.033845083  0.035124619            2 
  408000     1.188944   -7.1235427    165.52093   0.03380738  0.035111557            1 
  409000    1.2011181   -7.1244497    165.79046  0.033779638  0.035097694            1 
  410000    1.1643526   -7.1137659    166.22785  0.033786149  0.035082619            2 
  411000    1.1861713   -7.0794708    166.64126  0.033787767  0.035068315            4 
  412000    1.1901479   -7.1006061    166.40935  0.033658848  0.035054386       -1e+20 
  413000    1.1672733   -7.1087496    166.89983  0.033676317  0.035039357            2 
  414000    1.1906064    -7.161334    166.92282  0.033599602  0.035023994            2 
  415000    1.1864144    -7.098293    166.84404  0.033502819  0.035008414       -1e+20 
  416000    1.1775978   -7.1019123    167.97977  0.033649793  0.034993063            1 
  417000     1.188763   -7.1401944    167.66045  0.033505287   0.03497715            1 
  418000    1.1855496   -7.1403247    168.27925  0.033548494  0.034960999            3 
  419000    1.2067938   -7.1513661    168.53205  0.033518704  0.034945201            1 
  420000    1.1863696   -7.1198444     169.3003   0.03359133  0.034930188            1 
  421000    1.1813202   -7.1370964    169.02626  0.033457297  0.034915278            1 
  422000    1.1924947   -7.1277027    170.28534  0.033626648  0.034900232            1 
  423000    1.1580401   -7.1033269    171.08187  0.033704073  0.034885803            1 
  424000    1.1923813   -7.1239049    170.70521  0.033550553   0.03487145            2 
  425000    1.1821287   -7.1705203    170.83556  0.033497169  0.034856192            1 
  426000    1.1896202   -7.1207678    171.13818  0.033477735  0.034841223            1 
  427000     1.163737   -7.1579065    171.32499   0.03343579  0.034825746            1 
  428000    1.1970739    -7.154079    172.21789   0.03353152  0.034810502            1 
  429000    1.1952715   -7.1442658    172.62649  0.033532728   0.03479611            2 
  430000     1.190628   -7.1404462    172.27414   0.03338646  0.034781644            3 
  431000     1.163519   -7.0824439    173.65153  0.033575316  0.034766909            2 
  432000    1.1961695   -7.1252326    173.84115  0.033534173  0.034751784            2 
  433000    1.2090613   -7.1086582    173.96036   0.03347967  0.034737643            1 
  434000    1.1877161   -7.0800893    174.32037  0.033471654  0.034724346            1 
  435000    1.1767889     -7.10413     175.4066  0.033602798  0.034711169            1 
  436000    1.1879733   -7.1436427    175.09231  0.033465655  0.034697575            1 
  437000     1.168436   -7.1006816    176.70564  0.033696728  0.034685105            2 
  438000    1.1861674   -7.1273732    176.34635  0.033551436  0.034672806            3 
  439000     1.179037   -7.1063649    176.60073  0.033523296  0.034659866            1 
  440000    1.1783242   -7.1450993    177.19174  0.033559042  0.034646917            3 
  441000    1.1837763   -7.1339721    176.90077   0.03342796  0.034633697            1 
  442000    1.1652657   -7.1546674    177.57341  0.033479151  0.034620452            2 
  443000    1.1628435   -7.1429869    178.05339  0.033493865  0.034607044            2 
  444000    1.1825952   -7.1495963    178.15152  0.033436846  0.034593589            2 
  445000    1.1801644   -7.1633359     178.9315  0.033507772  0.034580839            1 
  446000    1.1995206    -7.144716    179.83731  0.033601889  0.034568124            1 
  447000    1.1826627   -7.1130724    179.86865   0.03353256  0.034555559            1 
  448000    1.1918174   -7.0877023    180.23402  0.033525674  0.034542964            1 
  449000    1.1889633   -7.1502358    180.33638  0.033470004  0.034530753            1 
  450000    1.1781044   -7.1009933    181.32239  0.033578221  0.034518776            2 
  451000    1.1626298   -7.1586115    180.60661  0.033371509  0.034505731            1 
  452000    1.1690863   -7.1449934    181.18135  0.033403641  0.034492977            2 
  453000    1.1775275   -7.1106975    181.25253  0.033342996  0.034480469            1 
  454000    1.1607265    -7.102452    182.42662  0.033485062  0.034467986            2 
  455000    1.1812353   -7.1283963    182.94391  0.033506211   0.03445571            4 
  456000    1.1992445   -7.1168983    182.47113  0.033346333   0.03444379            4 
  457000    1.1903641   -7.1435047    183.11166  0.033390165  0.034431519            2 
  458000    1.1637196   -7.1543192    182.89742  0.033278278  0.034419139            1 
  459000    1.1439311   -7.1770294    183.29374  0.033277731  0.034407348            3 
  460000    1.1696021    -7.138003    184.40333    0.0334064  0.034396082            1 
  461000    1.1959155   -7.1535316    184.53201  0.033357196  0.034384967            2 
  462000    1.1719238    -7.202318    184.95217  0.033360781  0.034372924            3 
  463000    1.1586439   -7.1300065    185.28079  0.033347875  0.034361229            1 
  464000    1.1786399   -7.1445092    185.82236  0.033373269  0.034349339            1 
  465000    1.1788723   -7.1536842    185.88273  0.033312317  0.034337722            4 
  466000    1.1447244   -7.1487358    187.30014  0.033494302  0.034326821            2 
  467000    1.1863618   -7.1296456    187.19026  0.033402973  0.034315978            2 
  468000    1.1816645   -7.1265177    187.45008  0.033377864  0.034305098            3 
  469000    1.1798842   -7.1525273    187.78838  0.033366806  0.034293964            2 
  470000    1.1820947   -7.1426846    187.67133  0.033275058  0.034282514            1 
  471000    1.1734509   -7.1731361    187.93078  0.033250314  0.034270154            3 
  472000    1.1873636   -7.1518374    188.32684  0.033249796  0.034257851            2 
  473000    1.1863726   -7.0909898    189.96197  0.033467578  0.034245921            2 
  474000    1.1895076   -7.1268671     188.9306  0.033215646  0.034234587            2 
  475000    1.1646955   -7.1670047    189.35621  0.033220387  0.034222758            1 
  476000    1.1882566   -7.1634504    189.72432  0.033215041  0.034210248            1 
  477000    1.1725814   -7.1222101     190.1121  0.033213154  0.034198137            3 
  478000    1.2025736   -7.1850095     190.0951  0.033140708  0.034186081            3 
  479000    1.1811238   -7.1687474    190.50932  0.033143584  0.034173315            1 
  480000     1.171485   -7.1073914    191.77461  0.033294204  0.034161404            3 
  481000    1.1822847   -7.1433088    192.10132  0.033281587  0.034149418            1 
  482000    1.1748922   -7.1220233    192.41287  0.033266401  0.034137654            2 
  483000    1.1776724   -7.1743182    191.91077  0.033110899  0.034125815            3 
  484000    1.1786442   -7.1077486    192.52526  0.033148289   0.03411432            1 
  485000    1.1326227   -7.1152396     193.2727  0.033208367  0.034102977            1 
  486000    1.1782044   -7.0976304    193.40156  0.033162132  0.034091362            1 
  487000    1.1805459    -7.106155    194.57259  0.033294419  0.034080443            1 
  488000    1.1702242    -7.158308     193.5389  0.033049676  0.034069294            2 
  489000    1.1662871   -7.1199104    194.95432  0.033223299  0.034058527            1 
  490000    1.2033273   -7.0769756    196.20352  0.033367946  0.034047805            1 
  491000    1.1831327   -7.1233938    195.46307  0.033174316  0.034037959            1 
  492000    1.1900668   -7.1640759    195.99621  0.033197189  0.034027218            1 
  493000    1.1918128   -7.1627163    195.87762  0.033109808  0.034016416            1 
  494000    1.1787358   -7.1625156    196.00612  0.033064461  0.034005813            1 
  495000    1.1916384   -7.1406889    197.01926  0.033168225   0.03399501            1 
  496000    1.1540388   -7.1361692    197.07045  0.033109955  0.033983598            1 
  497000    1.1753396   -7.2039589    196.32564   0.03291845   0.03397192            3 
  498000    1.1611188   -7.1782557    197.65262  0.033074401  0.033960479            4 
  499000    1.1874167   -7.1444698    198.27879   0.03311269  0.033949791            2 
  500000    1.1487024   -7.1623763     198.3754  0.033062566  0.033939139            3 
  501000     1.184818   -7.1294357    199.20375  0.033134356  0.033928392            2 
  502000    1.1757138   -7.0972396    198.54426  0.032958874  0.033917015            4 
  503000    1.1817171   -7.1421628    199.43704  0.033041258  0.033905995            1 
  504000    1.1765564   -7.1809549    199.43231  0.032974919  0.033894693            5 
  505000    1.1532756   -7.1878312      199.157  0.032864192  0.033882911            2 
  506000    1.1482928   -7.1305429    200.36953  0.032998934  0.033870697            1 
  507000    1.1653151   -7.1555205     199.7931  0.032839102  0.033858442            1 
  508000    1.1572469   -7.1077488    201.45507  0.033047092    0.0338458            1 
  509000    1.1760049   -7.1635679    200.86506  0.032885569  0.033832919            1 
  510000    1.1614764     -7.18414    199.41406  0.032583996  0.033819091            2 
  511000    1.1805917   -7.1664781    201.65957  0.032886427  0.033805588            2 
  512000    1.1653207   -7.1595317    202.35276   0.03293502   0.03379344            1 
  513000    1.2107825    -7.181003    202.62099  0.032914391  0.033782226            1 
  514000    1.1559064   -7.1531472    203.50419  0.032993546  0.033771126            4 
  515000    1.1729689    -7.169853    203.28927  0.032894703  0.033760118            1 
  516000    1.1669415   -7.1377067    204.12574  0.032966043  0.033749376            2 
  517000    1.1746109   -7.1128379    205.14956  0.033067304  0.033738957            1 
  518000    1.1655944   -7.1873279    205.01105  0.032981185  0.033728727            2 
  519000    1.1733693   -7.1711619    205.71454  0.033030595   0.03371854            2 
  520000    1.1675211   -7.1529917    205.96015  0.033006435  0.033708297            1 
  521000    1.1671078   -7.1494308     205.6595  0.032894994  0.033698829            1 
  522000    1.1711928   -7.1490924    206.41261  0.032952205  0.033688798            2 
  523000    1.1489981    -7.156205    207.05644  0.032991785  0.033678894            2 
  524000    1.1660163   -7.1554733    206.98827  0.032917982  0.033669023            3 
  525000    1.1692793   -7.1618369    208.46533  0.033089734  0.033660061            1 
  526000    1.1760831    -7.152636    208.54373  0.033039247  0.033651278            1 
  527000    1.1797262   -7.1662369    208.51853   0.03297257  0.033642274            2 
  528000    1.1828072   -7.1310001    208.89238  0.032969125  0.033633734            1 
  529000    1.1833753   -7.1424737    210.28202  0.033125712  0.033625442            3 
  530000    1.1533801   -7.1581256    210.11162  0.033036418  0.033617167            3 
  531000    1.1791909   -7.1551552     209.8754   0.03293713  0.033608169            2 
  532000    1.1791331   -7.1618358    210.40536  0.032958234  0.033598662            1 
  533000    1.1885272   -7.1603773    211.08163  0.033002131  0.033589274            2 
  534000    1.1758243   -7.1744657    210.93273  0.032917093  0.033579425            5 
  535000    1.1537518   -7.1344097    211.01844  0.032868917  0.033569526            1 
  536000    1.1622687   -7.1989366    211.46568  0.032877128  0.033559118            2 
  537000    1.1850067   -7.1017421    212.14778  0.032921754  0.033548845            3 
  538000    1.1532103     -7.17502    211.64858  0.032783238  0.033538621       -1e+20 
  539000    1.1490692   -7.1906853    212.44352  0.032845318  0.033528353            2 
  540000    1.1369012   -7.2107106    212.46262  0.032787441  0.033517794            1 
  541000    1.1372417   -7.1491328    212.65107  0.032755865  0.033507331            1 
  542000    1.1570111   -7.1375257    213.44668  0.032817755  0.033497001            1 
  543000     1.153881   -7.1964974    213.13041   0.03270878  0.033486899            2 
  544000    1.2064524   -7.1782601    214.06229  0.032791405  0.033476339            3 
  545000    1.1701461   -7.1504464    214.37692  0.032779345  0.033465928            1 
  546000    1.1675755    -7.163449    214.36759  0.032717886  0.033455517            3 
  547000    1.1634562    -7.140525    214.99066  0.032752995  0.033445213            1 
  548000    1.1722498   -7.1500699    215.56125  0.032779996  0.033435162            1 
  549000    1.1614497   -7.1781335    215.23636  0.032670971  0.033425451            2 
  550000    1.1603449   -7.2334795    215.08966  0.032589342  0.033415502            1 
  551000    1.1627558   -7.1473657    217.07391  0.032830294  0.033405589            1 
  552000    1.1883625   -7.2013725    216.26514  0.032648723  0.033395778            3 
  553000    1.1890881   -7.1380215    217.07772  0.032712134  0.033385418            1 
  554000    1.1864959   -7.2298351    217.11732  0.032659043  0.033374924            2 
  555000     1.149358   -7.1442961    217.36164  0.032636883  0.033364068            1 
  556000    1.1694629   -7.1659481    217.03197  0.032528772  0.033353355            1 
  557000    1.1673652   -7.1472574    218.29034  0.032658638  0.033343182            1 
  558000    1.1592457   -7.1854712    218.87005  0.032686686  0.033333228            1 
  559000     1.153625   -7.1899232    218.37751  0.032554786  0.033322686            1 
  560000    1.1688646   -7.1741663    219.57729  0.032675193  0.033312643            1 
  561000    1.1719184   -7.2150326    219.62325  0.032623775  0.033302375            2 
  562000    1.1463336   -7.1940918    220.27094  0.032661764  0.033292285            1 
  563000    1.1635827   -7.1581113    219.70621  0.032520161  0.033282463            1 
  564000    1.1534733   -7.1663495    221.04094  0.032659714    0.0332725            3 
  565000    1.1170869    -7.152804    220.91806  0.032583785  0.033262711            2 
  566000    1.1809876   -7.2227201    221.39126  0.032595886   0.03325259            4 
  567000    1.1450017    -7.176452    221.43756  0.032545203  0.033243124            1 
  568000    1.1789318   -7.1809943    222.63288  0.032663275   0.03323413            3 
  569000    1.1570712   -7.1570992    223.04886  0.032666793  0.033225016            1 
  570000    1.1573571   -7.1511951    223.49173  0.032674229  0.033216254            1 
  571000     1.162866   -7.1474829    223.69516  0.032646696  0.033207859            1 
  572000    1.1754417    -7.201407    223.39711    0.0325462  0.033199057            2 
  573000    1.1685341   -7.2056786    224.01862  0.032579787  0.033190412            1 
  574000     1.155605   -7.1689983    224.89892  0.032650831  0.033181702            4 
  575000    1.1600125   -7.1815395    224.50552  0.032537032  0.033173086            1 
  576000    1.1356457   -7.1366725     226.2658  0.032735214  0.033164522            1 
  577000    1.1338089   -7.1975552    226.16341  0.032663693  0.033155332            2 
  578000    1.1411923   -7.1507827    226.76749  0.032694275  0.033146799            2 
  579000    1.1509503   -7.1706548    226.63887  0.032619297  0.033138363            2 
  580000    1.1881662    -7.200839    227.04276  0.032621087  0.033129552            2 
  581000    1.1537209    -7.144276    227.12451  0.032576665  0.033120797            2 
  582000    1.1671783   -7.1501904    227.12433  0.032520666  0.033111939            2 
  583000    1.1494909   -7.1542794    228.01003  0.032591485  0.033102652            1 
  584000    1.1613482   -7.1832819    227.69264  0.032490388  0.033093566            1 
  585000    1.1596494   -7.1970957    228.01974  0.032481444  0.033084252            1 
  586000    1.1441236   -7.1890094     227.2935  0.032322738  0.033074534            3 
  587000    1.1477279   -7.2081071    228.33371  0.032415348  0.033064514            3 
  588000    1.1439852   -7.2147497    227.50689   0.03224304   0.03305434            1 
  589000     1.153584   -7.1721753    229.11532  0.032415863    0.0330443            2 
  590000    1.1545924   -7.1527739    229.43619  0.032406242  0.033034088            2 
  591000    1.1490147   -7.1834968    229.31325  0.032334074  0.033023873            3 
  592000    1.1738877   -7.2078848    229.50833  0.032306916  0.033013579            3 
  593000    1.1560727   -7.2017382    229.66856  0.032274952  0.033002817            2 
  594000    1.1416767   -7.2001375    230.09858  0.032280946   0.03299188       -1e+20 
  595000    1.1556171   -7.2016577    229.90804  0.032200005  0.032981554            3 
  596000    1.1656142   -7.2076905    230.53319  0.032233387  0.032970184            2 
  597000     1.150265   -7.1978403    230.45672  0.032168722  0.032958796            1 
  598000    1.1387473    -7.199027    230.94403  0.032182836  0.032948051            2 
  599000    1.1557743   -7.1463281    232.25042  0.032310854  0.032937081            1 
  600000    1.1435905   -7.1904807    231.71236  0.032182273  0.032926255            2 
  601000    1.1359457   -7.2122402    231.78902  0.032139354  0.032915719            1 
  602000    1.1636468   -7.1761514     232.7943  0.032225124  0.032904713            3 
  603000    1.1583643   -7.2174691    232.46836  0.032126639  0.032894178            2 
  604000    1.1716577    -7.199521    233.08185  0.032158092  0.032882909       -1e+20 
  605000    1.1625044   -7.1856095    233.18892  0.032119685  0.032872266            1 
  606000    1.1461258   -7.2275003    233.77697  0.032147548  0.032861728            1 
  607000    1.1521401   -7.2099642    233.75783   0.03209196  0.032850855            1 
  608000    1.1518251   -7.1882737    235.11464  0.032225142  0.032840006            2 
  609000    1.1520139    -7.185282    234.50542  0.032088865  0.032828957            1 
  610000    1.1749092   -7.1907236    235.39872  0.032158296  0.032817913            1 
  611000    1.1361416   -7.1691705    236.47454  0.032252392  0.032806952            4 
  612000     1.145141    -7.208208    235.64029  0.032086096  0.032796094            2 
  613000    1.1608471   -7.2113142    235.67436  0.032038384  0.032784893            2 
  614000    1.1451882    -7.151209    235.90689  0.032017764  0.032773506            2 
  615000    1.1873461   -7.2039316    236.40664   0.03203342  0.032762079            2 
  616000    1.1460459   -7.1970325    236.40287  0.031980908  0.032750505            1 
  617000    1.1554205   -7.1885395    236.35793  0.031923005  0.032738575            2 
  618000    1.1240109   -7.1531266    237.61689  0.032041113  0.032726625            2 
  619000    1.1504577   -7.1960583    237.22215  0.031936207  0.032714588            1 
  620000     1.144262   -7.1737692    237.54982  0.031928739   0.03270271            2 
  621000    1.1445679    -7.214064    237.35971  0.031851813  0.032691024            3 
  622000    1.1488718   -7.2336134    238.48375    0.0319512  0.032679721            1 
  623000    1.1364303   -7.2266243    238.59067  0.031914214  0.032668031            1 
  624000    1.1614896   -7.2168445    239.08301  0.031928821  0.032656357            4 
  625000    1.1439643   -7.2164645    239.48959  0.031931945  0.032645457            1 
  626000    1.1683408   -7.2210933    239.86148  0.031930442  0.032634246            1 
  627000    1.1276086   -7.1662115    240.28873  0.031936301  0.032623001            1 
  628000    1.1759553   -7.1728122    240.92849  0.031970342  0.032612082            1 
  629000    1.1613094   -7.1691149    240.35963  0.031844148  0.032601403            2 
  630000    1.1559061   -7.1937672    241.25093  0.031911499  0.032590516            2 
  631000    1.1490619   -7.2128175    241.36409   0.03187587  0.032579479            2 
  632000    1.1608288   -7.2130805    241.87447  0.031892731  0.032568559            2 
  633000    1.1613655    -7.167501    241.98845  0.031857353   0.03255779            2 
  634000    1.1440385   -7.2022995    242.31302  0.031849765  0.032546767            2 
  635000    1.1710738   -7.2098685     242.4617  0.031819121  0.032535951            2 
  636000    1.1348889   -7.2070865    243.49915  0.031905025  0.032524902            1 
  637000     1.165337   -7.2313647    243.68289  0.031878976  0.032514528            3 
  638000    1.1466542   -7.1873685    244.44161   0.03192811  0.032503963            1 
  639000    1.1572763   -7.1731935    244.76472  0.031920282  0.032493603            1 
  640000     1.162527    -7.245786     244.4097   0.03182418  0.032483466            3 
  641000    1.1583506   -7.2246198    245.62645  0.031932715  0.032473699            2 
  642000    1.1376646   -7.1416119    246.38797  0.031981824  0.032463743            1 
  643000    1.1392148   -7.2310243    245.27161  0.031787405  0.032453576            1 
  644000    1.1376491   -7.2051582    246.14075  0.031850511   0.03244299            2 
  645000    1.1406052    -7.173545    246.66199  0.031868475  0.032432441            1 
  646000    1.1120228   -7.1666643    246.90868  0.031850964  0.032422446            1 
  647000    1.1503126   -7.2109767    248.23398  0.031972435  0.032412318            2 
  648000    1.1420901   -7.1788673    247.86594  0.031875764  0.032402678            4 
  649000    1.1274373   -7.2011983    247.77377  0.031814814  0.032392765            1 
  650000    1.1451432   -7.1977591    248.31713   0.03183553   0.03238277            1 
  651000    1.1398615   -7.2308059    248.70474  0.031836244  0.032372783            2 
  652000    1.1324823     -7.19376    249.54302  0.031894558  0.032363268            2 
  653000    1.1358164   -7.1995445    249.40469  0.031828061  0.032353566            3 
  654000    1.1453663   -7.2076254    249.32402  0.031769115  0.032343367            1 
  655000    1.1439822   -7.1706278    249.45739  0.031737582   0.03233293            5 
  656000    1.1349679   -7.2521733    250.09177  0.031769788  0.032322434            1 
  657000    1.1737742   -7.2451937    250.42763  0.031764032  0.032312058            1 
  658000    1.1532209   -7.1975102    251.28972  0.031824939  0.032301881            1 
  659000    1.1459689   -7.2115785    250.42941  0.031667857  0.032292182            1 
  660000    1.1397994   -7.2076082    251.63206  0.031771725  0.032282503            1 
  661000    1.1740165   -7.2359118    251.20801  0.031670198  0.032272152            2 
  662000    1.1323519   -7.1835866    252.30059  0.031759894  0.032262006            1 
  663000    1.1218117   -7.1529204    252.25548   0.03170632  0.032252191            2 
  664000     1.155367   -7.1958841    253.23988  0.031782113  0.032242674            2 
  665000    1.1596348   -7.2139824    253.08157  0.031714482  0.032233303            2 
  666000     1.146195   -7.2001529    253.30904  0.031695325  0.032223408            2 
  667000    1.1492982   -7.2362688    254.05227  0.031740664  0.032213844            3 
  668000    1.1562752   -7.2109823    254.12322  0.031701999  0.032204006            1 
  669000    1.1371756   -7.2117783    254.46274  0.031696903  0.032194473            1 
  670000    1.1498873   -7.2249803     254.1676  0.031612886  0.032184919            2 
  671000    1.1533879   -7.1857719    255.62401  0.031746647  0.032175536            1 
  672000    1.1748187   -7.1920259    255.89122  0.031732542  0.032166338            2 
  673000     1.134178   -7.2360039    255.67006  0.031658007  0.032156989            1 
  674000    1.1293537   -7.2063799    256.23115   0.03168041   0.03214729            1 
  675000    1.1430502   -7.1992766    256.56207   0.03167433  0.032137644            2 
  676000    1.1658265   -7.2164964    257.17129  0.031702575  0.032128122            1 
  677000    1.1407672   -7.1947905     257.1121  0.031648461     0.032119            1 
  678000    1.1383759   -7.2101678    257.60594   0.03166248  0.032109876            1 
  679000    1.1467098   -7.2521297    257.29751  0.031577996  0.032100173            2 
  680000    1.1305391    -7.223525    258.67965  0.031700938  0.032090784            6 
  681000    1.1503455   -7.2236999    258.48481  0.031630545  0.032081596            2 
  682000    1.1713413   -7.1872344    259.22437  0.031674532  0.032072411            1 
  683000    1.1526231   -7.1816036    259.28481  0.031635531  0.032063261            2 
  684000     1.138984    -7.164136    260.47326  0.031734072  0.032054646            2 
  685000    1.1417422   -7.2364979    259.27328  0.031541761  0.032045682            1 
  686000    1.1269437   -7.2424073     260.4371   0.03163716  0.032036982            2 
  687000    1.1327339   -7.2432803    260.29224  0.031573537  0.032028359            1 
  688000    1.1243324   -7.2189526    261.11662  0.031627497  0.032019504            2 
  689000    1.1425643   -7.2338279    261.11708   0.03158165  0.032010664            1 
  690000    1.1450811   -7.2357964    261.33372  0.031562043  0.032001545            1 
  691000    1.1381986   -7.2112744    261.45841  0.031531405  0.031992297            2 
  692000    1.1279888   -7.2629727    261.15714  0.031449559   0.03198311            1 
  693000    1.1465026   -7.1825264    263.48938  0.031684629  0.031973616            1 
  694000    1.1339676   -7.2083077     263.0364  0.031584582  0.031964618            2 
  695000     1.124927   -7.2223258    264.15651  0.031673443  0.031955958            1 
  696000    1.1519927   -7.2304125     262.5516  0.031435776   0.03194673            2 
  697000    1.1328978   -7.2513019    263.06708  0.031452305  0.031936883            1 
  698000    1.1402396   -7.2090587    263.65207  0.031477086  0.031927505            3 
  699000    1.1189403   -7.2382722    263.10131  0.031366394  0.031918204            3 
  700000    1.1357627   -7.1947434    264.62638  0.031503141  0.031908395            1 
  701000    1.1663127   -7.2065694    264.70383  0.031467407  0.031898938            1 
  702000    1.1104063   -7.2410334    264.41435  0.031388218  0.031889106            1 
  703000    1.1380295   -7.2157005    265.05658  0.031419699  0.031879155            5 
  704000    1.1411407   -7.2497907    265.56342  0.031435064  0.031869313            1 
  705000     1.145598   -7.2153037    265.65425  0.031401211  0.031859629            1 
  706000    1.1430727   -7.2189595    265.95935  0.031392746  0.031850224            1 
  707000    1.1407412   -7.2420507    266.26156  0.031383965  0.031840646            1 
  708000    1.1562549   -7.1901428    266.67643  0.031388469  0.031831039            2 
  709000    1.1401055   -7.2357477    267.30706  0.031418319  0.031822003            2 
  710000    1.1219182   -7.1733767     268.1082  0.031468099  0.031812775            2 
  711000    1.1484891    -7.219204    267.20392  0.031317853  0.031803229            2 
  712000    1.1372139   -7.2311712    267.87785  0.031352745  0.031793577            2 
  713000    1.1336109   -7.2472209     267.4727  0.031261418  0.031783966            3 
  714000    1.1472263   -7.2031576    268.74892  0.031366587  0.031773992            1 
  715000    1.1340359   -7.2380802    269.00687  0.031352782  0.031764494            2 
  716000    1.1039275   -7.2196021    268.02311  0.031194496  0.031754551            1 
  717000    1.1336133   -7.2601059    268.65286  0.031224182  0.031744792            3 
  718000    1.1310716   -7.2496912    268.88665  0.031207829  0.031735067            2 
  719000    1.1433703   -7.2610585    269.18942  0.031199515  0.031725053            1 
  720000    1.1183413   -7.2414902     269.8622  0.031234051  0.031715235            2 
  721000    1.1114736   -7.2296632    270.15365  0.031224417  0.031705507            1 
  722000    1.1169428   -7.2631023    270.02703  0.031166555  0.031695389            1 
  723000    1.1407438   -7.2201909    270.66819  0.031197348  0.031685613            1 
  724000    1.1381833   -7.2409665    270.39262  0.031122539  0.031676072            1 
  725000    1.1066715   -7.2709091    271.73387  0.031233778  0.031666286            2 
  726000    1.1242268   -7.2294129    272.39339  0.031266459  0.031656576            2 
  727000     1.142668   -7.2165593    272.61725  0.031249111  0.031646763            1 
  728000    1.1248555    -7.253141    271.62272  0.031092344   0.03163694            1 
  729000    1.1264509   -7.2037336    272.78438  0.031182485  0.031627007            2 
  730000    1.1301507   -7.2219216    273.42817  0.031213261  0.031617159            1 
  731000    1.1281651   -7.2279765    273.52825  0.031181971  0.031607506            2 
  732000    1.1149714   -7.2640651    274.25811  0.031222463  0.031598178            2 
  733000    1.1393898   -7.1998617    274.30741  0.031185471  0.031589188            2 
  734000    1.1297049   -7.2068011    274.84753  0.031204307  0.031580333            2 
  735000    1.1335285   -7.2387662    275.19284  0.031201003  0.031571274            1 
  736000    1.1093784   -7.2415755     274.8767  0.031122815  0.031562385            4 
  737000     1.137688   -7.2102806    275.61172  0.031163695  0.031553132            3 
  738000    1.1187554   -7.2206896    276.41135  0.031211761  0.031544038            1 
  739000    1.1377174   -7.2421986    275.67566  0.031086566   0.03153486            1 
  740000    1.1464153   -7.2440675    276.42315  0.031128733  0.031525418            1 
  741000    1.1281211   -7.2638353    276.51186    0.0310967  0.031516014            1 
  742000    1.1302204   -7.2487856    277.28311  0.031141409  0.031506472            2 
  743000    1.1243307   -7.2340896    277.38716  0.031111167  0.031497059            2 
  744000    1.1383976   -7.2177587    278.14247   0.03115395    0.0314878            3 
  745000    1.1355285   -7.2773544    277.67365  0.031059692   0.03147841            2 
  746000    1.1276166   -7.1843005    279.33182  0.031203287  0.031468874            1 
  747000    1.1198076   -7.2544189    278.66573  0.031087208  0.031459478            3 
  748000    1.1418531   -7.2512996    278.88269  0.031069818  0.031450053            1 
  749000    1.1170058   -7.2700848    278.28343  0.030961664   0.03144049            2 
  750000    1.1343297   -7.2544662    279.06594  0.031007327   0.03143074            1 
  751000    1.1390878   -7.2630314    279.34599  0.030997114  0.031420677            1 
  752000    1.1292214   -7.2192146    279.85598   0.03101241  0.031411087            2 
  753000    1.1538432   -7.2242243    279.89706   0.03097577  0.031401317            1 
  754000    1.1292985   -7.2466768    279.25417  0.030863635   0.03139164            5 
  755000    1.1219333   -7.2147255    280.89471  0.031003831  0.031382175            2 
  756000    1.1241948   -7.2906849    280.73086   0.03094476   0.03137252            2 
  757000    1.1135757   -7.2310508    281.26069  0.030962207  0.031362884            5 
  758000    1.1210024   -7.2435153    280.66363   0.03085572  0.031353238            1 
  759000    1.1132163   -7.2437231    281.58767  0.030916521  0.031343505            1 
  760000    1.1254272   -7.2738405    280.65126  0.030773164  0.031333502            2 
  761000    1.1143316   -7.2109812    282.94033  0.030983391  0.031323736            2 
  762000    1.1199624   -7.2763161    283.05511  0.030955283  0.031314423            1 
  763000    1.1241046   -7.2185273    282.93977  0.030902116  0.031305259            1 
  764000    1.1240057   -7.2246198    283.65289  0.030939452  0.031295818            1 
  765000    1.1311183   -7.2274787    284.44999  0.030985838  0.031286574            1 
  766000    1.1181223   -7.2331646    284.00402  0.030896869  0.031277418            1 
  767000    1.1340024   -7.2643075    285.32875  0.031000516  0.031268411            2 
  768000    1.1217455   -7.2355302    284.98582   0.03092294  0.031259511            3 
  769000    1.1206455    -7.271426    284.32611  0.030811239  0.031250469            8 
  770000    1.1449713   -7.2787958    284.93068  0.030836653  0.031240997            2 
  771000    1.1436842    -7.245535    285.49236  0.030857367  0.031231781            1 
  772000    1.1396868    -7.257881    285.33293  0.030800187  0.031222879            1 
  773000    1.1308165   -7.2507026     285.8905  0.030820451  0.031213516            3 
  774000    1.1156759   -7.2666384    285.59754  0.030749089  0.031204362            1 
  775000    1.1175645   -7.2333952    285.86169  0.030737816  0.031194927            3 
  776000    1.1400815   -7.2158721    287.75162  0.030901162  0.031185519            3 
  777000    1.1231443   -7.2735776    285.62468  0.030633277  0.031175952            2 
  778000    1.1351202   -7.2283028    286.93542  0.030734299  0.031165896            1 
  779000     1.124614   -7.2283329    287.06321  0.030708516  0.031156072            2 
  780000    1.1294749   -7.3126356    286.12811  0.030569242  0.031146177            1 
  781000    1.1152529   -7.2115006    288.23133  0.030754517  0.031136149            2 
  782000    1.1299264   -7.2800634    288.38788  0.030731871  0.031126764            1 
  783000    1.1257221    -7.245333    289.11535  0.030770046  0.031117162            1 
  784000    1.1512832   -7.2325721    288.77508   0.03069463  0.031107434            2 
  785000    1.1308094    -7.268201    289.16859  0.030697302  0.031097712            2 
  786000    1.1350712   -7.2326006    290.08874  0.030755803  0.031088234            1 
  787000    1.1143922    -7.249489    290.34558  0.030743919  0.031078819            2 
  788000    1.1220999   -7.2899537    289.68852  0.030635418  0.031069529            2 
  789000    1.1127403   -7.2714043    290.10727  0.030640819  0.031060035            2 
  790000    1.1521956   -7.2543487    290.85261  0.030680655  0.031050733            1 
  791000    1.1204397   -7.2533608     291.6985  0.030730984  0.031041749            1 
  792000    1.1462528   -7.2310593    292.12374  0.030736925  0.031032575            2 
  793000    1.1297228   -7.2451994    292.41423  0.030728692  0.031023546            1 
  794000    1.1336017   -7.2900177    291.77359  0.030622753  0.031014364            2 
  795000    1.1363782   -7.2700895    293.03852  0.030716826  0.031005401            1 
  796000    1.0978937    -7.265467    293.98414  0.030777234  0.030996596            2 
  797000    1.1126303   -7.2667781     293.3365  0.030670901  0.030988081            1 
  798000    1.1316092   -7.2802581     294.2061  0.030723276  0.030979472            1 
  799000    1.1320717   -7.2609743    294.32856  0.030697597  0.030970787            3 
  800000    1.1170722   -7.2930104    294.77771  0.030706012  0.030962603            2 
  801000    1.1440591   -7.2312368    295.17278  0.030708778  0.030954091            1 
  802000    1.1125407   -7.2879059    294.67754  0.030619029  0.030945451            3 
  803000    1.1261301   -7.2385987    295.78092  0.030695405  0.030936758            1 
  804000    1.1367095    -7.244685    295.81985  0.030661261  0.030928507            1 
  805000    1.1023388   -7.2670322    296.09524  0.030651681  0.030920136            1 
  806000    1.1443625   -7.2489162    295.78868  0.030581956  0.030911407            1 
  807000     1.143493   -7.2497703    296.25291  0.030591999  0.030902569            1 
  808000    1.0933876   -7.2679519    296.43784   0.03057321  0.030893345            2 
  809000    1.1337896   -7.2251539    297.05381  0.030598868  0.030884276            7 
  810000    1.1255403   -7.2713855    295.76631  0.030428633  0.030875028            1 
  811000    1.1157521   -7.2921864    296.64654  0.030481559  0.030865276            2 
  812000    1.1420778   -7.2281153     295.9573  0.030373287  0.030855281            1 
  813000     1.100878   -7.2429631    297.31705  0.030475302  0.030845882            2 
  814000    1.1158063   -7.2745405    297.15212  0.030420978   0.03083639            2 
  815000    1.1154064   -7.2574862    298.03207  0.030473627  0.030826821            4 
  816000    1.1244945   -7.3166886    298.42885  0.030476802   0.03081718            1 
  817000    1.1248966    -7.275945    298.38671  0.030435201  0.030807441            1 
  818000    1.1225621    -7.247929      299.047   0.03046526  0.030798115            1 
  819000    1.1153266   -7.2511731    298.57583  0.030380121  0.030788905            2 
  820000    1.1051407   -7.2546103    298.42469  0.030327713  0.030779564            2 
  821000    1.1320408   -7.2565195    299.86838   0.03043731  0.030770328            2 
  822000    1.1112679   -7.2675345    299.62806  0.030375918  0.030761171            2 
  823000    1.1128427   -7.2262401    299.92497  0.030369074  0.030751803            1 
  824000    1.1353064    -7.275232    300.57796  0.030398257   0.03074211            3 
  825000    1.0952509   -7.2687023    300.46609   0.03035011  0.030732425            5 
  826000    1.1098705   -7.2696607    300.39568  0.030306264  0.030722727            1 
  827000    1.1475752   -7.2581059    301.25599  0.030356307   0.03071321            1 
  828000    1.1174197   -7.2477959    301.46226  0.030340404  0.030703511            3 
  829000    1.1297225    -7.258905    301.32107  0.030289613  0.030693889            2 
  830000     1.125234    -7.241122    302.88242  0.030409882   0.03068443            2 
  831000    1.1446243   -7.3046249    301.54348  0.030239017  0.030674863            2 
  832000     1.100416   -7.2749311    302.61861  0.030310358  0.030665151            2 
  833000    1.1320078   -7.3067406    301.89803  0.030201884  0.030655671            2 
  834000    1.1317505   -7.2589161    303.20675  0.030296438  0.030646159            2 
  835000    1.1132279   -7.2722096    303.93923  0.030333257  0.030636908            1 
  836000    1.1065646    -7.228731    304.55538  0.030358391  0.030627703            1 
  837000    1.1122916   -7.2743693    303.64734  0.030231714  0.030618255            2 
  838000    1.1069316   -7.3062432    303.45637  0.030176647  0.030608922            1 
  839000    1.1012761   -7.2947244    304.17026  0.030211587  0.030599145            1 
  840000    1.1334075   -7.2398291    304.72069  0.030230227  0.030589571            1 
  841000    1.1208441   -7.2674221    304.41443  0.030163935  0.030580013            2 
  842000    1.1321111    -7.234365    305.51376  0.030236912  0.030570736            3 
  843000    1.0956434   -7.2690109    307.19171  0.030366915  0.030561534            1 
  844000    1.1165924   -7.2711094    305.98749  0.030212035  0.030552313            1 
  845000    1.1249301   -7.2947144    306.91081  0.030267338  0.030543413            2 
  846000    1.1069073   -7.2594841    307.39953  0.030279702  0.030534591            2 
  847000    1.0915573   -7.2696091    307.43432  0.030247375  0.030525609            2 
  848000    1.1039584   -7.3071214      307.554  0.030223467  0.030516455            1 
  849000    1.1138187   -7.2496775    308.21315  0.030252567  0.030507158            2 
  850000    1.1193602   -7.2043298    309.20406  0.030314124  0.030498322            2 
  851000    1.0998943   -7.3112834    308.39009  0.030198795  0.030489586            1 
  852000    1.1098724   -7.2771701    308.47268  0.030171428   0.03048086            2 
  853000    1.1099961   -7.2673386    308.27732  0.030116972  0.030471904            2 
  854000    1.0961263   -7.2795508    309.06656  0.030158719  0.030462898            1 
  855000    1.1176927   -7.3246846    308.56869  0.030074921   0.03045363            4 
  856000    1.0949216   -7.2420498    310.36782  0.030214935    0.0304444            1 
  857000    1.1328937   -7.2268682    310.25853  0.030169052  0.030435361            1 
  858000    1.1047396   -7.2564847    310.47318  0.030154737  0.030426397            2 
  859000    1.0999486   -7.2800745    309.65005  0.030039779  0.030417055            2 
  860000    1.1104237   -7.2283076    311.02985  0.030138551  0.030407874            1 
  861000     1.099148   -7.2407293    311.52664   0.03015163  0.030398547            2 
  862000    1.1031677   -7.2494639    312.02882  0.030165199   0.03038948            1 
  863000    1.1132424   -7.2532391    311.38751  0.030068319  0.030380265            1 
  864000    1.1155205   -7.2909532    312.30981  0.030122474  0.030370932            1 
  865000    1.1014401   -7.2778618    312.05715   0.03006331  0.030361958            5 
  866000    1.1011252   -7.2340789    313.14995  0.030133752  0.030353021            1 
  867000    1.1199103   -7.2922903    312.06716  0.029994921  0.030343999            4 
  868000    1.1141008   -7.2473601    313.51237  0.030099114  0.030335114            2 
  869000    1.1211533   -7.2941536    313.44846  0.030058349  0.030326179            3 
  870000    1.1018939   -7.2708379    314.09463  0.030085692  0.030317648            3 
  871000    1.0829832   -7.2935576    314.24666  0.030065696  0.030309096            1 
  872000    1.1045025   -7.2836875     315.0806  0.030110914   0.03030019            2 
  873000    1.1012685   -7.3152706    314.76833  0.030046614  0.030291451            1 
  874000    1.0928886   -7.2904433    314.94023  0.030028626  0.030282585            1 
  875000    1.0819218   -7.2708631    316.54018  0.030146684  0.030274014            2 
  876000    1.0971656    -7.273513    315.73533  0.030035705  0.030265198            1 
  877000    1.1324658   -7.2748455    315.52463  0.029981435  0.030256072            1 
  878000    1.1341033   -7.2806986    315.16375  0.029913037  0.030246896            1 
  879000    1.1222276    -7.272045     316.2916  0.029985931  0.030237739            1 
  880000    1.1285797   -7.2851888    316.47957  0.029969656   0.03022836            2 
  881000    1.1103884   -7.2829367    317.39387  0.030022121  0.030219402            1 
  882000    1.1022042   -7.3082073    317.62547  0.030009965  0.030210574            1 
  883000    1.0947754   -7.3441003    316.33355  0.029854053  0.030201748            2 
  884000    1.0923572   -7.2977905    317.48556   0.02992888  0.030192927            1 
  885000    1.0970002   -7.2452516    319.69967  0.030103547  0.030184494            2 
  886000    1.1101672   -7.2717636    318.13713  0.029922605  0.030175863            1 
  887000    1.1083716    -7.256552    319.18921  0.029987712  0.030167187            2 
  888000     1.087005   -7.3249328    317.87559  0.029830667  0.030158545            1 
  889000    1.1197214   -7.3018302    318.88539  0.029891769  0.030149762            1 
  890000    1.1280358   -7.2826574    318.99939  0.029868857  0.030140898            1 
  891000    1.1238812   -7.2822517    319.69359  0.029900261  0.030131836            2 
  892000    1.1231188   -7.3038412    320.12049  0.029906623  0.030123008            2 
  893000    1.1201779   -7.2616837    321.02769  0.029957791   0.03011394            2 
  894000    1.0943331   -7.2720406    319.61113  0.029792238  0.030104948            2 
  895000    1.1160719   -7.3158879     320.3972  0.029832142  0.030095843            3 
  896000    1.1070499   -7.2769251    320.31502  0.029791204  0.030086592            4 
  897000    1.0901506   -7.2868215    320.65562  0.029789634  0.030077459            1 
  898000    1.0839879   -7.2895796    320.84407  0.029773948  0.030068362            1 
  899000    1.1242401   -7.3077082    320.20025   0.02968115  0.030059115            2 
  900000    1.0938374   -7.2695565    322.05809  0.029820194  0.030049707            4 
  901000    1.1020908   -7.2519661    322.37639  0.029816536  0.030040728            5 
  902000    1.1080948   -7.2648786    321.96859  0.029745805   0.03003149            3 
  903000    1.1222842    -7.340424    321.79623  0.029696958  0.030022176            2 
  904000    1.1009285   -7.3060968     322.7615  0.029753088  0.030012977            1 
  905000    1.1097803   -7.3033976    322.73085  0.029717389  0.030003874            1 
  906000    1.0782879   -7.2871932    322.81136  0.029691994   0.02999455       -1e+20 
  907000    1.0769403   -7.3709302    321.59559  0.029547555  0.029985088            3 
  908000     1.103889   -7.2844515    323.70214  0.029708346  0.029975632            2 
  909000     1.113511   -7.2881593    324.26983  0.029727707  0.029966297            3 
  910000    1.0951155   -7.3164157    322.00836  0.029487945  0.029956858            3 
  911000    1.0965797   -7.2764682    324.13941  0.029650513  0.029947341            5 
  912000    1.1245313   -7.3260441    323.63097  0.029571544  0.029938008            1 
  913000    1.1011209   -7.3077025    324.21689  0.029592633  0.029928593            1 
  914000    1.1075554   -7.2895202    325.01851  0.029633343  0.029919222            2 
  915000      1.11173   -7.2922439    324.66707   0.02956895  0.029909822            1 
  916000    1.0918578   -7.2806085    325.10388  0.029576408  0.029900594            2 
  917000     1.074794   -7.3441599    325.08795  0.029542707  0.029891373            4 
  918000    1.0928566   -7.3551057    324.53341  0.029460186   0.02988197            2 
  919000    1.1047175   -7.2761898    325.96826  0.029558239  0.029872498            2 
  920000    1.0899625    -7.318691    325.90954  0.029520792  0.029862943            1 
  921000    1.1057109   -7.3044319    326.53349  0.029545195  0.029853556            2 
  922000    1.1218801    -7.316142    326.94503  0.029550347  0.029844565            2 
  923000    1.1192698   -7.3007704    327.71446  0.029587799  0.029835507            3 
  924000    1.0982467   -7.2820565    327.78346     0.029562  0.029826371            1 
  925000     1.098108   -7.2999578    328.34647  0.029580763  0.029817152            2 
  926000    1.1183139   -7.2884407    329.44896  0.029648034  0.029808246            2 
  927000    1.0713966   -7.2835211    329.10307  0.029584958  0.029799408            5 
  928000    1.1194158   -7.2829211    329.59256  0.029597033  0.029790204            1 
  929000    1.1297605   -7.2920338    329.77473  0.029581515  0.029781249            2 
  930000    1.1184416   -7.2886426    329.41942  0.029517869  0.029772418            1 
  931000    1.1200888    -7.298169    329.83122  0.029523023  0.029763848            3 
  932000    1.0810189    -7.323057    331.04799  0.029600142  0.029754992            2 
  933000    1.1016747   -7.3083725    330.83052  0.029548992  0.029746357            1 
  934000     1.102474   -7.2995349    330.63021  0.029499484  0.029737504            1 
  935000    1.0998884   -7.3192576    331.31709  0.029529152  0.029728786            1 
  936000    1.1138582   -7.2927923    331.94885  0.029553851  0.029720009            2 
  937000    1.1035236   -7.3620653    330.80793  0.029420841  0.029711052            1 
  938000    1.0967379   -7.3296515    331.51778  0.029452539  0.029702216            1 
  939000    1.1009688   -7.3150782    331.66781  0.029434488  0.029693596            2 
  940000    1.1018842    -7.307957    332.92728   0.02951483  0.029685265            3 
  941000    1.0940931   -7.3217194    333.21944  0.029509338  0.029676802            1 
  942000    1.0914173   -7.3202995    333.30458  0.029485544  0.029668519            1 
  943000    1.1018923   -7.3281473    334.19646  0.029533091  0.029660338            3 
  944000    1.0683899   -7.3270813    334.65573  0.029542349  0.029651878            2 
  945000    1.1038399   -7.3198803    333.85871  0.029440803  0.029643672            1 
  946000    1.1226907   -7.3199243    333.88641  0.029412122  0.029635108            1 
  947000    1.1057619   -7.3030854    334.00811  0.029391773  0.029626609            2 
  948000    1.1073155   -7.3130099    335.64593   0.02950474  0.029618067            1 
  949000    1.1155373   -7.2519342    335.99074  0.029503929  0.029609478            1 
  950000    1.1042794   -7.3469145    334.99082  0.029385159  0.029601073            2 
  951000    1.1109594   -7.3080765    336.08652  0.029450273  0.029592742            1 
  952000    1.1184855   -7.2864527    337.32018  0.029527326  0.029584651            1 
  953000    1.1346137   -7.2832783    337.09279   0.02947646   0.02957663            2 
  954000     1.109004   -7.3264477    336.41509  0.029386364  0.029568507            2 
  955000    1.0893846   -7.3206608    336.45271  0.029358875  0.029560085            1 
  956000    1.1266802   -7.3018347    337.06845  0.029381838  0.029551787            2 
  957000    1.1201855   -7.3114458    336.92209  0.029338391  0.029543219            4 
  958000     1.106732   -7.2983716    337.58457  0.029365394  0.029534692            1 
  959000    1.0869293   -7.2981083    339.13717  0.029469688  0.029526518            5 
  960000    1.1157643   -7.3129549    338.21879   0.02935927  0.029518181            1 
  961000    1.1130538   -7.3005959     339.5461  0.029443817  0.029509937            1 
  962000    1.0718207    -7.303959    338.83602    0.0293517  0.029501632            2 
  963000    1.1093594   -7.3172151     338.7227  0.029311414  0.029493399            2 
  964000    1.0968398   -7.3364468    338.91385  0.029297532  0.029484907            1 
  965000    1.1110587   -7.3177147    339.36787  0.029306379  0.029476389            3 
  966000    1.1035357   -7.3303142    339.16638  0.029258659  0.029467834            3 
  967000    1.0910562   -7.3373272    339.26993  0.029237326  0.029459037            2 
  968000    1.0996807   -7.3055121    340.72902  0.029332733   0.02945028            1 
  969000     1.080907   -7.2893295    340.72035  0.029301716  0.029441709            1 
  970000     1.082001   -7.2891731    340.37831  0.029242123  0.029433174            1 
  971000    1.0660837   -7.3371424    339.83949  0.029165765  0.029424398            2 
  972000    1.0809632   -7.3067361    342.29173  0.029345999  0.029415678            1 
  973000    1.0912624   -7.3221034    341.56802  0.029253856  0.029407104            1 
  974000    1.1010203   -7.3582391     341.0525  0.029179715  0.029398474            2 
  975000    1.0910651   -7.3088496    342.57846   0.02928021   0.02939005            2 
  976000    1.0920222   -7.3147319    341.70616  0.029175731  0.029381657            4 
  977000    1.0946518   -7.3008345    342.43438  0.029207982  0.029372993            2 
  978000    1.0788962   -7.3452572    342.02885  0.029143563  0.029364382            4 
  979000    1.1073088   -7.3378661    342.74431  0.029174694  0.029355887            1 
  980000    1.1049025   -7.3361165    342.87806  0.029156298  0.029347578            3 
  981000    1.1020433   -7.3439153    342.79889  0.029119851  0.029339017            1 
  982000    1.0950646   -7.3355926    344.02466  0.029194218  0.029330489            1 
  983000    1.0766719   -7.2644968    344.76763  0.029227504  0.029322296            2 
  984000    1.0783364   -7.2940594    344.58128  0.029182019  0.029314101            2 
  985000    1.1130602   -7.3075077    344.54164  0.029149039  0.029305752            1 
  986000    1.0909852   -7.3508263    344.53834  0.029119197  0.029297236            2 
  987000    1.0800126   -7.3264133    345.02785  0.029131024  0.029288575            1 
  988000    1.0827858   -7.3513473    345.35839  0.029129419  0.029280302            1 
  989000    1.0832517   -7.3242084     345.2852  0.029093798  0.029271945            1 
  990000    1.0676926   -7.3608682    345.57622  0.029088907  0.029263539            1 
  991000    1.0817985   -7.3242205    346.88628  0.029169717  0.029255237            1 
  992000    1.1074244   -7.2950188    347.14402  0.029161964  0.029247132            1 
  993000    1.0831985   -7.3329203     346.4586  0.029075076  0.029238948            1 
  994000    1.0838508   -7.3400975    347.49969  0.029133106  0.029230856            1 
  995000    1.1083739   -7.2934268     348.3641  0.029176223  0.029222848            4 
  996000    1.1079686   -7.3286347    347.86669  0.029105312  0.029214765            1 
  997000    1.0992182   -7.3014173    348.45436  0.029125239  0.029206787            1 
  998000    1.0843692   -7.3495549    348.44389  0.029095181  0.029198756            2 
  999000    1.0694487   -7.3457467    347.73956  0.029007304  0.029190424            5 
 1000000    1.0897117   -7.2934352    349.94155  0.029161796  0.029181974            3 
 1001000    1.0953416   -7.2843652    350.06049  0.029142565  0.029173895            1 
 1002000    1.1013037   -7.3137259    349.30555  0.029050694  0.029165718            2 
 1003000    1.0715958   -7.3623785    349.17675   0.02901103  0.029157635            1 
 1004000    1.0764794   -7.3574755    349.90812  0.029042839  0.029149513            1 
 1005000     1.074655    -7.309881    350.84406  0.029091547  0.029141729            2 
 1006000    1.1018271   -7.2581572    351.44434  0.029112354  0.029134039            1 
 1007000    1.1098334   -7.3409065    351.37769  0.029077929  0.029126184            1 
 1008000     1.075157   -7.3397715    350.51908  0.028978098  0.029118258            1 
 1009000    1.0819823   -7.3112055    351.81739  0.029056606  0.029110392            1 
 1010000    1.0990796   -7.3302332    352.46892  0.029081594  0.029102583            1 
 1011000    1.0831543   -7.3197772    354.26783  0.029201107  0.029094982            1 
 1012000    1.0809852   -7.3491291     352.8895  0.029058753  0.029087288            3 
 1013000    1.0930748   -7.3039026     353.4384  0.029075222  0.029079847            2 
 1014000     1.098331   -7.3450148    355.30581  0.029200017  0.029072212            3 
 1015000    1.0756344   -7.3522845    353.03854  0.028985101  0.029064736            2 
 1016000     1.080047   -7.3152576    354.91596  0.029110561  0.029057259            2 
 1017000    1.0956553   -7.3137542    354.25758  0.029027989  0.029049448            2 
 1018000    1.0969551   -7.3387017    354.82529  0.029045947   0.02904172            3 
 1019000    1.0818276    -7.314167    355.13839  0.029043048  0.029033995            1 
 1020000    1.0936038   -7.3384142    355.19005  0.029018795  0.029026137            4 
 1021000    1.0852806   -7.3599611    354.14501  0.028905077  0.029018319            1 
 1022000    1.1002335   -7.2857232    356.06898  0.029033675  0.029010796            2 
 1023000    1.0985266   -7.3225616    355.58683  0.028966017  0.029003338            2 
 1024000    1.0794407   -7.3528118    355.19954  0.028906212  0.028995498            1 
 1025000     1.069711   -7.3758591    355.45856   0.02889907  0.028987645            1 
 1026000    1.0899086   -7.3648853     356.8426  0.028983317  0.028980086            1 
 1027000    1.0940528   -7.3630989    357.61441  0.029017722  0.028972283            1 
 1028000    1.0891263   -7.3766371    355.72301  0.028836172  0.028964342            1 
 1029000    1.1050006   -7.3459889    357.49743  0.028951849  0.028956503            1 
 1030000    1.0829513   -7.3535926    356.43394  0.028837697  0.028948834            2 
 1031000    1.0671744   -7.3224139    357.64101  0.028907291   0.02894092            1 
 1032000    1.0940677    -7.316362    356.90756  0.028820055  0.028933047            1 
 1033000    1.0897648   -7.3279597    357.23536    0.0288186  0.028925177            2 
 1034000    1.0945592    -7.369992    358.21533  0.028869707  0.028917358            2 
 1035000    1.1201334   -7.3579942    358.92389  0.028898864  0.028909423            1 
 1036000    1.0822572   -7.2955263    358.75478  0.028857366  0.028901749            3 
 1037000    1.0521721    -7.317655    359.77339  0.028911395  0.028893962            3 
 1038000    1.0866883   -7.3767924    359.08602  0.028828357   0.02888605            2 
 1039000    1.0872555    -7.379396    358.07157  0.028719247  0.028877962            2 
 1040000    1.0924341   -7.3396887    358.15844  0.028698593  0.028869626            2 
 1041000    1.0599247   -7.3282364    360.02577  0.028820507  0.028861568            1 
 1042000    1.0699903   -7.3379036    361.10837  0.028879428  0.028853852            2 
 1043000    1.0970195   -7.3373147    360.25389  0.028783469  0.028846132            1 
 1044000      1.07451   -7.3607753    360.25465  0.028755959  0.028838279            7 
 1045000    1.1021595   -7.3572674    360.13421  0.028718836  0.028830408            1 
 1046000     1.057095    -7.327417    362.13889   0.02885109  0.028822791            2 
 1047000    1.0790785   -7.3643822    360.90483  0.028725313   0.02881495            2 
 1048000    1.0795789   -7.3558563    362.21801  0.028802323  0.028807092            2 
 1049000    1.0826102   -7.3489101    362.12471  0.028767454  0.028799332            1 
 1050000    1.0652408   -7.3176465    362.87882  0.028799907  0.028791467            3 
 1051000    1.0766312   -7.3673572    362.01208   0.02870378  0.028783675            2 
 1052000    1.0840118   -7.3339367    363.66321  0.028807288   0.02877587            3 
 1053000    1.0839261   -7.3732761    363.21544  0.028744495  0.028768046            2 
 1054000     1.074319   -7.3460375    363.96862  0.028776773  0.028760257            1 
 1055000    1.0957529   -7.3771393    363.29534  0.028696315  0.028752584            5 
 1056000    1.0770138   -7.3755359    363.33886  0.028672574  0.028744706            1 
 1057000    1.1068958    -7.377561    364.56056  0.028741766   0.02873698            2 
 1058000    1.1001969    -7.318821    364.91112  0.028742212  0.028729461            3 
 1059000     1.102671   -7.3774141    363.76755  0.028625083  0.028721895            2 
 1060000    1.0736876   -7.3480236    364.43007  0.028650163  0.028713971            3 
 1061000    1.1005602   -7.3620283    364.22923  0.028607385  0.028705977            1 
 1062000    1.0570376    -7.346554    366.59779  0.028766305  0.028698109            2 
 1063000    1.0807926   -7.3213537    366.56564  0.028736723  0.028690437            2 
 1064000    1.0856224   -7.3236498    365.93043  0.028659965  0.028682482            1 
 1065000    1.0793724   -7.3372843    366.26333  0.028659103  0.028674677            1 
 1066000    1.1047969   -7.3375608    365.75382  0.028592387  0.028666676            1 
 1067000    1.0848701   -7.3498618    366.44093  0.028619254  0.028658665            2 
 1068000    1.0805442   -7.3403469    367.99093    0.0287134  0.028650762            2 
 1069000    1.0944096   -7.3372108    366.06044  0.028536049  0.028642999            2 
 1070000    1.0940171   -7.3291568    367.45219  0.028617771  0.028635231            1 
 1071000    1.0632814   -7.3335692    368.33677   0.02865988  0.028627403            1 
 1072000    1.0686174   -7.3417435    367.34053    0.0285557  0.028619373            1 
 1073000    1.0453512   -7.3478492    367.72017  0.028558572  0.028611607            1 
 1074000    1.0721728   -7.3520645    367.61917  0.028524144  0.028603634            2 
 1075000    1.0928866   -7.3991873    367.96137  0.028524137  0.028595714            2 
 1076000    1.0772404   -7.3574965     368.9777   0.02857634  0.028587818            3 
 1077000    1.1224338   -7.3517957    369.37962  0.028580905  0.028579851            3 
 1078000    1.0754572    -7.369825    368.37818  0.028476977  0.028571876            1 
 1079000     1.082065   -7.3721039    368.86165  0.028487925   0.02856372            4 
 1080000    1.0877556   -7.3354017    369.64092  0.028521676  0.028555519            2 
 1081000    1.0705582    -7.328816    369.35683  0.028473391  0.028547359            1 
 1082000    1.0815253   -7.3690133    370.12953  0.028506587  0.028539321            1 
 1083000    1.0875172    -7.393387    369.24322  0.028412067  0.028531084            2 
 1084000    1.0947044   -7.3547849     370.0515  0.028447994  0.028523089            4 
 1085000    1.0704124   -7.3831893    369.66898  0.028392395  0.028514978            1 
 1086000    1.0951384   -7.3850034    369.45188  0.028349591  0.028506866            3 
 1087000    1.0944508   -7.3444899    370.86073  0.028431519  0.028498752            5 
 1088000    1.0825732   -7.3415886    372.11205   0.02850123  0.028490956            2 
 1089000    1.0552819   -7.3691566    370.90949  0.028383034    0.0284829            1 
 1090000    1.0661906   -7.3695978    371.74537    0.0284209   0.02847475            2 
 1091000    1.0689915   -7.3393488    372.38185  0.028443466   0.02846675            1 
 1092000     1.074208   -7.3711313    372.03322  0.028390814  0.028458796            3 
 1093000    1.0757193   -7.3203826     372.8329  0.028425808   0.02845103            2 
 1094000     1.073647   -7.3741446    372.87864  0.028403309  0.028443277            2 
 1095000    1.0774071   -7.3841933    373.58197  0.028430896    0.0284356            2 
 1096000    1.0608709   -7.3719546    374.10912  0.028445037  0.028427848            2 
 1097000    1.0805461   -7.3713292    373.68422   0.02838683  0.028420058            2 
 1098000    1.0812231   -7.3246068    374.74355  0.028441374  0.028412538            4 
 1099000    1.0752183   -7.3680134    374.36175  0.028386545  0.028404914            1 
 1100000    1.0879458   -7.3838771    374.43578  0.028366347  0.028397247            3 
 1101000    1.0831395   -7.3689316    375.79102  0.028443159  0.028389734            2 
 1102000    1.0880835   -7.3335287    375.92914  0.028427793  0.028382341            3 
 1103000    1.0503713   -7.3685536    376.88554  0.028474278  0.028375139            2 
 1104000     1.068612   -7.4070294    374.82893  0.028293247  0.028367674            2 
 1105000    1.0679011   -7.4166159    375.50895  0.028318925  0.028360034            1 
 1106000    1.0636747   -7.3659361       375.93  0.028325045   0.02835231            1 
 1107000    1.0726904   -7.3717865    376.70841  0.028358055  0.028344713            1 
 1108000    1.0484386   -7.3862798    376.86607   0.02834432  0.028337369            1 
 1109000     1.051791   -7.3498748    377.35881  0.028355787  0.028329797            1 
 1110000    1.0833936    -7.351162    377.53048  0.028343129  0.028322258            3 
 1111000    1.0591507   -7.3749192    376.92035  0.028271853  0.028314701            2 
 1112000    1.0782528   -7.3341881    377.50696  0.028290389  0.028307229            1 
 1113000    1.1030128   -7.3429884    378.32698  0.028326369  0.028299789            3 
 1114000    1.0593993   -7.3918935    377.61262  0.028247503  0.028292242            3 
 1115000    1.0620704   -7.3597465    377.71354  0.028229712  0.028284393            1 
 1116000    1.0854475   -7.4081726    378.04833  0.028229416   0.02827685            2 
 1117000    1.0760749    -7.416225    377.73562  0.028180813  0.028269199            1 
 1118000     1.067504   -7.3799537     378.6519  0.028223904  0.028261483            2 
 1119000    1.0650989   -7.3594786    378.29931  0.028172424   0.02825357            1 
 1120000    1.0803145   -7.3435606    380.12985  0.028283471  0.028245749            1 
 1121000    1.0515686   -7.3703022    379.39884  0.028203898  0.028238019            3 
 1122000    1.0580546    -7.388912    379.36252  0.028176063  0.028230294            1 
 1123000    1.0489659   -7.4101025    379.93846  0.028193712  0.028222633            1 
 1124000    1.0756191   -7.3939672    380.71862  0.028226469  0.028214921            2 
 1125000    1.0731239   -7.3901872    380.38317  0.028176531   0.02820732            2 
 1126000    1.0950872   -7.4110356    380.21001  0.028138692  0.028199738            2 
 1127000    1.0924625   -7.3668916    382.48327  0.028281815  0.028192259            1 
 1128000    1.0623834   -7.3877887    382.19946  0.028235776  0.028184777            1 
 1129000    1.0624465   -7.3697715    382.44236  0.028228695  0.028177277            1 
 1130000    1.0841853   -7.4051203    381.43609  0.028129505  0.028169868            1 
 1131000    1.0602864   -7.3606746    383.55784  0.028260967  0.028162379            1 
 1132000    1.0755302   -7.3627767    382.70127  0.028172944  0.028154751            1 
 1133000    1.0715812   -7.3592367    383.41553  0.028200612  0.028147167            3 
 1134000    1.0610234   -7.3304432    382.90654   0.02813834  0.028139628            2 
 1135000     1.080365   -7.3856827    382.51618  0.028084888  0.028132011            2 
 1136000    1.0567658   -7.4131976    381.74663  0.028003714  0.028124242            1 
 1137000    1.0464822   -7.3804631    384.39747  0.028173371  0.028116717            1 
 1138000     1.072257   -7.3908639    384.62086  0.028164972  0.028109229            1 
 1139000    1.0587212   -7.4205951    383.00127  0.028021749  0.028101601            3 
 1140000    1.0636539   -7.3636461    384.79284  0.028128132  0.028093957            1 
 1141000    1.0543592     -7.40979    384.71159  0.028097546  0.028086335            1 
 1142000    1.0670937   -7.3744678    384.63983  0.028067705  0.028078704            1 
 1143000    1.0693532   -7.4136741    384.05306  0.028000369  0.028071095            1 
 1144000    1.0625793   -7.3577703    385.23278  0.028061829  0.028063451            2 
 1145000    1.0829599   -7.3812392    384.37526   0.02797491  0.028055768            1 
 1146000    1.0513907   -7.3495893    386.20425  0.028083497  0.028048258            1 
 1147000    1.0808308   -7.4135274     383.9904  0.027898169  0.028040429            1 
 1148000    1.0715494     -7.35624    385.94328  0.028015627  0.028032444            1 
 1149000    1.0647197   -7.4193945    384.92904  0.027917685  0.028024689            1 
 1150000    1.0732898   -7.4081964    387.40869  0.028073093  0.028017026            3 
 1151000     1.049406   -7.3858284     385.6043  0.027918064   0.02800917            1 
 1152000     1.041131   -7.3585782    387.49895  0.028030885  0.028001526            2 
 1153000    1.0844673   -7.4262143    387.55502  0.028010626  0.027994115            1 
 1154000    1.0774224   -7.3610706    388.59029  0.028061113  0.027986613            3 
 1155000     1.066402   -7.3931705    387.88283  0.027985774  0.027979028            1 
 1156000    1.0823431   -7.3602464    388.19227  0.027983872   0.02797151            1 
 1157000    1.0772288   -7.3663781    387.80371  0.027931699  0.027963955            2 
 1158000    1.0424937   -7.3781018    388.29208  0.027942723   0.02795627            3 
 1159000    1.0634905   -7.3849103    387.93703  0.027893085  0.027948568            1 
 1160000    1.0733395   -7.4064478    387.96235  0.027870859  0.027940572            3 
 1161000    1.0560623   -7.3850328    389.19639  0.027935429  0.027932794            1 
 1162000    1.0495554   -7.3881282    390.61744  0.028013299  0.027925107            2 
 1163000    1.0973166    -7.415573    389.30435  0.027895124  0.027917454            2 
 1164000    1.0720195   -7.3573878    390.11005  0.027928841  0.027909804            1 
 1165000    1.0571429   -7.3846994    389.74939  0.027879069  0.027902033            2 
 1166000    1.0836178   -7.3962041     390.5467  0.027912143  0.027894369            1 
 1167000    1.0574973   -7.3831424    390.00498  0.027849542   0.02788668            2 
 1168000    1.0708515   -7.3510042    391.45725  0.027929313  0.027879198            1 
 1169000    1.0454586   -7.3937064    391.16263  0.027884419  0.027871827            2 
 1170000    1.0526727   -7.3828658    389.80169  0.027763653  0.027864197            1 
 1171000     1.081188   -7.3977349     390.7301  0.027806014  0.027856515            3 
 1172000    1.0871107   -7.3894613    391.36106  0.027827152  0.027848771            1 
 1173000    1.0763939   -7.4089041    392.72156  0.027900082  0.027841017            2 
 1174000    1.0569661   -7.4076877    391.83551  0.027813423  0.027833294            1 
 1175000    1.0655681    -7.396495    392.26596  0.027820281  0.027825795            1 
 1176000    1.0609642   -7.3659425    391.90378  0.027770959  0.027818274            3 
 1177000    1.0790026   -7.3571691    393.50774  0.027860928  0.027810646            2 
 1178000    1.0598562    -7.407955    393.27792  0.027821018   0.02780301            1 
 1179000    1.0449101   -7.3944001    393.20481  0.027792254  0.027795575            2 
 1180000     1.069102   -7.3972857    393.45252  0.027786195   0.02778803            1 
 1181000    1.0427721   -7.3839971    394.08373  0.027807207  0.027780628            1 
 1182000    1.0623167   -7.3880857     394.2673  0.027796623  0.027773107            2 
 1183000    1.0302636   -7.3816584    394.26334  0.027772847  0.027765563            1 
 1184000    1.0698887   -7.3735352    394.95323  0.027797947  0.027758161            2 
 1185000    1.0427206   -7.3980135    394.72952  0.027758757  0.027750723            1 
 1186000    1.0663529   -7.4107918    394.69683  0.027733054  0.027743273            3 
 1187000     1.073425   -7.3981329    396.16932  0.027813066  0.027735829            2 
 1188000     1.064141   -7.4157252    395.56572  0.027747315  0.027728356            1 
 1189000    1.0673346    -7.385265     396.0322  0.027756673  0.027721078            2 
 1190000     1.072351   -7.4246038    395.82704   0.02771898  0.027713585            2 
 1191000    1.0938005   -7.4392898    395.20375  0.027652096  0.027706062            3 
 1192000    1.0449525   -7.4159407    396.04688  0.027687841  0.027698369            7 
 1193000    1.0486242   -7.3939965    397.22646  0.027747029  0.027690734            2 
 1194000    1.0586221    -7.447929    396.75267  0.027690722  0.027683195            1 
 1195000    1.0711618    -7.357692    399.26444  0.027842708  0.027675672            3 
 1196000    1.0554495   -7.3750858    397.37564  0.027687823  0.027668253            1 
 1197000    1.0679217   -7.4264108    398.48978  0.027742257  0.027660861            1 
 1198000    1.0489679   -7.4028455    397.43499  0.027645728  0.027653413            1 
 1199000    1.0736418   -7.3937161    399.47202  0.027764249  0.027645989            3 
 1200000    1.0487584   -7.3868122    399.48741  0.027742181  0.027638602            2 
 1201000    1.0597067   -7.4197955    399.41547   0.02771409  0.027631263            2 
 1202000    1.0771264   -7.3822055    400.22394  0.027747084  0.027624162            1 
 1203000    1.0284953   -7.4291573    400.14773   0.02771874  0.027616988            4 
 1204000    1.0734002   -7.4035934    399.86598  0.027676217  0.027609701            2 
 1205000    1.0883723   -7.4060388    401.39556  0.027759029  0.027602439            2 
 1206000    1.0752894   -7.3978124    401.28348  0.027728267  0.027595276            2 
 1207000    1.0689782     -7.42315      400.964  0.027683236  0.027587983            2 
 1208000    1.0528283     -7.39936      400.968  0.027660596  0.027580736            2 
 1209000    1.0781453   -7.3861561    402.49389  0.027742893  0.027573707            1 
 1210000     1.073354   -7.3881396    401.23366  0.027633172  0.027566562            6 
 1211000    1.0437131   -7.3959308     402.5511  0.027701011   0.02755949            2 
 1212000    1.0539433   -7.3941058     402.8521  0.027698852  0.027552246            2 
 1213000    1.0460575   -7.4021407    403.15816  0.027697043  0.027544939            1 
 1214000    1.0601981   -7.3740229    401.75715  0.027578058   0.02753762            4 
 1215000    1.0655601   -7.4353163    400.98408  0.027502338  0.027530316            2 
 1216000     1.056802   -7.4167442    401.34471  0.027504435  0.027523016            2 
 1217000    1.0543712    -7.436903    402.60073   0.02756784  0.027515742            1 
 1218000    1.0541871   -7.4228053    403.57204  0.027611661  0.027508345            2 
 1219000    1.0876467   -7.3899492    404.17419  0.027630174  0.027501071            1 
 1220000    1.0718842    -7.398861    402.96248   0.02752476  0.027493877            1 
 1221000    1.0478019   -7.3812145    404.12433  0.027581513    0.0274867            2 
 1222000    1.0532129   -7.3949918    402.70248   0.02746198  0.027479549            3 
 1223000    1.0552118   -7.4158242    403.88512  0.027520109  0.027472362            2 
 1224000    1.0340889    -7.392254    404.89177  0.027566161  0.027465074            2 
 1225000    1.0705145   -7.3743373    404.89336  0.027543766  0.027457879            1 
 1226000    1.0412545   -7.3926531    406.38243  0.027622514   0.02745064            1 
 1227000    1.0948558   -7.4052296    405.55599  0.027543873  0.027443187            1 
 1228000    1.0579209   -7.3687825      406.353  0.027575529  0.027436173            4 
 1229000    1.0519734   -7.4377502    405.34457  0.027484714  0.027428963            1 
 1230000    1.0849908   -7.4216606    405.56158  0.027477072  0.027421742            1 
 1231000    1.0482782   -7.3852431    407.16351  0.027563195  0.027414694            2 
 1232000    1.0438141   -7.4231816    405.90854  0.027455935  0.027407498            3 
 1233000    1.0468528   -7.3889193    406.63432  0.027482719  0.027400335            1 
 1234000    1.0516298   -7.4126117    406.95994  0.027482438  0.027393084            2 
 1235000     1.043795   -7.4408989    407.22884  0.027478329  0.027386101            3 
 1236000     1.042892   -7.3816468    408.11143  0.027515603  0.027378963            1 
 1237000    1.0538063   -7.4219185    407.67172  0.027463738   0.02737183            3 
 1238000    1.0704752   -7.4233351    407.30097  0.027416597  0.027364424            2 
 1239000    1.0710091   -7.3993504    408.78953  0.027494588  0.027357201            1 
 1240000    1.0493523   -7.4410664    407.52172  0.027387212  0.027350046            3 
 1241000    1.0500615   -7.4129971     408.9107  0.027458414  0.027342717            1 
 1242000    1.0498041   -7.4507018    408.29795  0.027395193  0.027335455            1 
 1243000    1.0322968    -7.412234    408.06366  0.027357446  0.027328105            1 
 1244000    1.0606769   -7.4401566    407.48939  0.027296985  0.027320682            2 
 1245000    1.0522149   -7.3812047       409.84  0.027432396   0.02731337            2 
 1246000      1.04799   -7.4076776    409.29156    0.0273737  0.027306133            1 
 1247000    1.0682629   -7.4066598    410.45439  0.027429457  0.027298951            1 
 1248000    1.0464844   -7.3986555    410.04902   0.02738041  0.027291789            1 
 1249000    1.0334399   -7.4102444    410.46157  0.027386013  0.027284613            1 
 1250000    1.0580995   -7.4075766    410.12388  0.027341592  0.027277342            2 
 1251000    1.0567724   -7.4101048    410.81053  0.027365476  0.027270128            4 
 1252000    1.0719087   -7.4490392    409.47586  0.027254783  0.027262781            1 
 1253000    1.0419476   -7.4220379    410.77273  0.027319282  0.027255272            3 
 1254000     1.047989   -7.4552396    408.73145  0.027161846   0.02724774            3 
 1255000    1.0557116   -7.4221359    410.94917  0.027287462  0.027240379            1 
 1256000    1.0533421   -7.4237461    411.03475  0.027271414  0.027233017       -1e+20 
 1257000    1.0411212   -7.4494711    411.16976  0.027258669  0.027225661            1 
 1258000    1.0341371   -7.4177547    411.11787  0.027233564  0.027218273            1 
 1259000    1.0554656   -7.4119775    411.90885  0.027264287  0.027210932            1 
 1260000    1.0528475   -7.4418782    411.82301  0.027236971  0.027203493            4 
 1261000    1.0647997   -7.4043247    412.79119  0.027279355    0.0271962            2 
 1262000    1.0497346   -7.4293476     411.3418  0.027162031  0.027188773            4 
 1263000    1.0454405   -7.4577741    412.16785  0.027195028   0.02718121            1 
 1264000    1.0463553     -7.39309    412.62444  0.027203615  0.027173627            2 
 1265000    1.0477805   -7.4195609     412.8709  0.027198346  0.027166206            1 
 1266000    1.0405452   -7.4542304     411.5217  0.027088053  0.027158604            1 
 1267000    1.0521812   -7.4208041    412.50473  0.027131329  0.027150976            4 
 1268000     1.022189   -7.4244148    413.66396  0.027186117  0.027143431            3 
 1269000    1.0669636   -7.4393433    412.99368  0.027120678   0.02713579            2 
 1270000    1.0578763   -7.4677151     412.9229  0.027094679  0.027128197            2 
 1271000    1.0577119   -7.4768398    412.76251  0.027062845  0.027120591            1 
 1272000    1.0660978   -7.4305776    414.02686  0.027124401  0.027112974            2 
 1273000    1.0263731   -7.4270922    414.18816  0.027113653   0.02710544            3 
 1274000    1.0419984   -7.4363319    415.82201  0.027199242  0.027098039            1 
 1275000    1.0581684   -7.3691484    415.69463  0.027169584  0.027090783            2 
 1276000    1.0420651   -7.4519688    415.63404  0.027144334  0.027083575            2 
 1277000    1.0278174   -7.3920783    416.20834  0.027160555  0.027076292            1 
 1278000    1.0411986   -7.3883136    416.99186  0.027190393  0.027069007            2 
 1279000    1.0629696    -7.433849    417.11865  0.027177394  0.027061853            2 
 1280000     1.034463   -7.4318053    416.30426  0.027103142  0.027054688            2 
 1281000    1.0471237   -7.3996407    417.55777  0.027163529  0.027047431            1 
 1282000    1.0487338   -7.4108608    418.20383  0.027184336  0.027040307            1 
 1283000    1.0466791    -7.429177    417.35627  0.027108098  0.027033156            1 
 1284000    1.0473098   -7.4364439    418.41855  0.027155929  0.027025951            3 
 1285000    1.0640176    -7.483339    417.81739   0.02709581  0.027018759            2 
 1286000    1.0755275   -7.4658143    417.51695  0.027055272  0.027011483            1 
 1287000    1.0630667   -7.4164326    418.52994  0.027099841  0.027004362            2 
 1288000    1.0465789   -7.4374907    419.08955  0.027115007  0.026997321            1 
 1289000    1.0652284    -7.434545    420.26698  0.027170092  0.026990258            1 
 1290000    1.0182608   -7.4294661     420.0768  0.027136744  0.026983209            1 
 1291000      1.02865   -7.4250979    419.48412  0.027077467  0.026976094            1 
 1292000    1.0403671   -7.4472555    418.84404  0.027015224  0.026968949            1 
 1293000    1.0434808    -7.431622    419.88512  0.027061428  0.026961731            2 
 1294000     1.033584   -7.4011691    419.92236  0.027042913  0.026954377            1 
 1295000    1.0347723   -7.4569622    418.82942    0.0269517  0.026946884            7 
 1296000    1.0538318   -7.4320727    418.74775  0.026925653  0.026939438            2 
 1297000    1.0408579   -7.4461266    420.34616  0.027007592  0.026931962            1 
 1298000    1.0507329   -7.4246734    420.59944  0.027003046  0.026924538            4 
 1299000     1.055483   -7.4324483    421.37416  0.027031958  0.026917136            1 
 1300000    1.0304705    -7.454842    420.74508  0.026970838  0.026909797            3 
 1301000    1.0492086   -7.4304454    419.90615  0.026896371  0.026902228            1 
 1302000    1.0491834   -7.4768935    420.38893  0.026906614  0.026894639            2 
 1303000    1.0558414   -7.4411773    420.12991  0.026869398  0.026887016            4 
 1304000    1.0489599   -7.4330926    421.74937  0.026952286  0.026879654            2 
 1305000    1.0516496   -7.4518467     420.6447  0.026861092  0.026872264            1 
 1306000    1.0429622    -7.436439    422.19288  0.026939311  0.026864893            2 
 1307000     1.038723   -7.4569468     422.0615  0.026910323  0.026857425            1 
 1308000    1.0519854   -7.4354434     422.2614  0.026902484  0.026850077            1 
 1309000    1.0586988   -7.4462177    422.51994  0.026898392  0.026842688            2 
 1310000     1.042465   -7.4507679    422.29095  0.026863292  0.026835406            2 
 1311000    1.0228302   -7.4571533    423.16371  0.026898278  0.026828201            1 
 1312000    1.0485405   -7.4097287     423.8926  0.026924072  0.026820957            1 
 1313000    1.0517761   -7.4566333    423.76456  0.026895441  0.026813732            1 
 1314000    1.0350747   -7.4682015    423.28538  0.026844582  0.026806413            2 
 1315000    1.0469002   -7.4277733     425.2554  0.026949012  0.026799179            1 
 1316000    1.0426489   -7.4495452    424.84673  0.026902655  0.026792007            1 
 1317000    1.0363158   -7.4535185    424.54196  0.026862944  0.026784761            2 
 1318000    1.0318568   -7.4667927    425.31158  0.026891223  0.026777599            1 
 1319000     1.040505   -7.4244066    425.96303  0.026911994  0.026770398            3 
 1320000    1.0605048   -7.4267939    425.33525  0.026851973  0.026763395            2 
 1321000    1.0555382   -7.4164299    426.41609  0.026899829  0.026756425            8 
 1322000    1.0207837   -7.4445296    425.53288  0.026823807  0.026749221            3 
 1323000    1.0389544   -7.4582889    425.79427  0.026819997  0.026741931            2 
 1324000    1.0551983   -7.4263986    426.61822    0.0268516  0.026734641            1 
 1325000    1.0589058    -7.434057    426.59653  0.026829971  0.026727541            2 
 1326000    1.0191888   -7.4486376     425.8548  0.026763122  0.026720423            1 
 1327000    1.0207153   -7.4539403    425.87456  0.026744195  0.026713095            2 
 1328000    1.0137795   -7.4557592    426.99862  0.026794592  0.026705928            1 
 1329000    1.0194354   -7.4459013    427.00999  0.026775143  0.026698603            2 
 1330000    1.0244808    -7.422443     428.9846  0.026878734  0.026691498            2 
 1331000    1.0560666   -7.4772659    427.48257  0.026764498   0.02668443            1 
 1332000     1.043779   -7.4485376    428.94482  0.026835887  0.026677405            2 
 1333000    1.0361333   -7.4412726    429.34723  0.026840912  0.026670188            2 
 1334000    1.0406165   -7.4506788    427.76109  0.026721707  0.026663033            2 
 1335000    1.0428452    -7.426949    428.61741  0.026755144  0.026656003            3 
 1336000     1.057114   -7.4718528     427.9429  0.026693045  0.026648894            1 
 1337000    1.0530452   -7.4701222    428.33973  0.026697814  0.026641719            2 
 1338000    1.0464445   -7.4770977    428.08822  0.026662196  0.026634472            1 
 1339000    1.0442817   -7.4742061    428.45906  0.026665363   0.02662733            3 
 1340000    1.0320055   -7.4235673    429.48292  0.026709137    0.0266202            1 
 1341000    1.0258576   -7.4817262    429.22411  0.026673136  0.026613127            1 
 1342000    1.0086993   -7.4583899    430.95973  0.026761036  0.026606036            1 
 1343000    1.0479824   -7.4495958    432.67816  0.026847739  0.026599235            1 
 1344000    1.0290382   -7.4560885    431.43411  0.026750627  0.026592469            3 
 1345000    1.0531804   -7.4613024    431.77036  0.026751571  0.026585603            1 
 1346000    1.0293914   -7.4610258    433.06316  0.026811736  0.026578749            2 
 1347000    1.0279544   -7.4341087    432.47807  0.026755634  0.026572029            2 
 1348000     1.037792   -7.4754073    432.50877  0.026737683   0.02656525            2 
 1349000    1.0308093   -7.4452835     432.6989  0.026729608  0.026558444            2 
 1350000    1.0295126   -7.4861856    432.88536  0.026721318   0.02655163            1 
 1351000    1.0694368   -7.4807512    433.22199  0.026722304  0.026545021            2 
 1352000    1.0492927   -7.4605037    434.07429  0.026755072  0.026538303            2 
 1353000    1.0393526   -7.4458528    433.23676  0.026683713   0.02653159            4 
 1354000    1.0569927   -7.4603707    434.88685  0.026765562  0.026524844            1 
 1355000    1.0323447   -7.4164888    434.20885  0.026704111  0.026518099            1 
 1356000    1.0330109    -7.459151     435.2797  0.026750227  0.026511442            1 
 1357000    1.0429114   -7.4429003    435.62096  0.026751471  0.026504706            1 
 1358000      1.03509   -7.4528238    435.38036  0.026717008   0.02649799            2 
 1359000     1.030015   -7.4610727    435.26926  0.026690536  0.026491259            2 
 1360000    1.0290673   -7.4702776    434.13269  0.026601268  0.026484452            4 
 1361000    1.0513656   -7.4794899      436.202  0.026708425  0.026477641            1 
 1362000    1.0267974   -7.4347053    435.70079  0.026658149  0.026470834            2 
 1363000     1.034195   -7.4812393    435.15034  0.026604937  0.026464142            3 
 1364000     1.044104   -7.4651625    437.59049  0.026734512  0.026457461            3 
 1365000    1.0463626   -7.4825271    435.47077  0.026585517  0.026450823            3 
 1366000    1.0247681   -7.4562427    435.82656   0.02658776   0.02644399            2 
 1367000    1.0246907   -7.4533864    436.79629  0.026627426  0.026437068            2 
 1368000    1.0356417   -7.4387084    435.84663  0.026550111  0.026430183            1 
 1369000    1.0178131   -7.4929589    435.90394  0.026534206  0.026423221            4 
 1370000    1.0229875   -7.4857745    435.94244   0.02651718  0.026416367            3 
 1371000    1.0335243    -7.445294    437.02281  0.026563507  0.026409374            2 
 1372000    1.0088908   -7.4793983    435.71678  0.026464819  0.026402345            4 
 1373000    1.0248254   -7.4918349    437.52159  0.026555086  0.026395257            1 
 1374000    1.0450515   -7.4903874    438.06271  0.026568578  0.026388377            3 
 1375000    1.0240107   -7.4695393    438.43727  0.026571956  0.026381453            1 
 1376000    1.0051689    -7.461676     438.0221  0.026527501  0.026374709            1 
 1377000    1.0146443   -7.5098582    438.11918  0.026514112  0.026367822            3 
 1378000    1.0554647   -7.4794062    437.84015  0.026477997  0.026360911            3 
 1379000    1.0456469    -7.473746    437.95369  0.026465657  0.026354008            1 
 1380000    1.0045754   -7.4676524    438.26266  0.026465136  0.026347243            2 
 1381000    1.0032241   -7.4403168    439.88557  0.026543904   0.02634044            3 
 1382000    1.0333441   -7.4862094    439.01495  0.026472199  0.026333653            3 
 1383000    1.0206545   -7.4913615    438.59072  0.026427496  0.026326789            4 
 1384000    1.0588533    -7.478806    440.13022  0.026501097  0.026320041            2 
 1385000    1.0211959   -7.4259722    442.33112  0.026614388  0.026313319            2 
 1386000    1.0297174   -7.4776815    441.31439  0.026534054  0.026306722            2 
 1387000    1.0308693   -7.4892029    439.77548  0.026422463  0.026300061            2 
 1388000    1.0404145   -7.4690564    442.27221  0.026553327  0.026293373            3 
 1389000    1.0548573   -7.4767486    441.72021  0.026501093  0.026286689            3 
 1390000    1.0116966   -7.4401569    443.15361  0.026567962  0.026279999            1 
 1391000   0.99822059   -7.5137986    440.72622   0.02640344  0.026273203            1 
 1392000    1.0414699   -7.5302254    439.87307  0.026333398  0.026266237            4 
 1393000    1.0178119   -7.4811363    442.51451  0.026472512  0.026259268            2 
 1394000    1.0268955   -7.4727492     443.7312  0.026526256  0.026252397            2 
 1395000    1.0293617   -7.4346309    442.61183  0.026440372  0.026245503            2 
 1396000     1.038276   -7.4692702    441.86494  0.026376847  0.026238652            2 
 1397000    1.0250839   -7.5047458    442.68584  0.026406934  0.026231883            2 
 1398000    1.0202505   -7.4781706     441.8615  0.026338907   0.02622503            2 
 1399000    1.0298527   -7.4959424    442.68233  0.026368974   0.02621817            2 
 1400000    1.0301064   -7.4815182    441.58924  0.026285074  0.026211267            3 
 1401000   0.99960237   -7.4278964    442.25867  0.026306131  0.026204253            1 
 1402000    1.0441879   -7.4964405    443.34272  0.026351802  0.026197227            3 
 1403000    1.0064243   -7.4812763    443.37925  0.026335189  0.026190171            3 
 1404000    1.0559031   -7.4959191    443.03041  0.026295727  0.026183079            3 
 1405000    1.0447826   -7.4343283      444.707  0.026376453  0.026176065            2 
 1406000    1.0397634    -7.508188    443.45689  0.026283599  0.026169186            2 
 1407000    1.0058566   -7.4946423    443.59118  0.026272872  0.026162221            1 
 1408000    1.0267124   -7.4714183    444.13863  0.026286614  0.026155302            1 
 1409000    1.0327433   -7.4709382    443.13096  0.026208361   0.02614842            2 
 1410000     1.025559   -7.5112106    443.15445  0.026191161  0.026141304            2 
 1411000    1.0105801   -7.4773824    444.64055  0.026260368  0.026134169            2 
 1412000    1.0218507   -7.4897679    444.53679  0.026235647  0.026127187            2 
 1413000     1.016213   -7.4509463     446.2307  0.026316979  0.026120314            2 
 1414000    0.9971373   -7.4762048    446.19559  0.026296298  0.026113343            2 
 1415000    1.0373833   -7.5031201    444.84083  0.026197929  0.026106323            2 
 1416000    1.0421306   -7.4725712    444.89348  0.026182526  0.026099172            1 
 1417000    1.0461686   -7.4867837    444.76835   0.02615669  0.026092083            1 
 1418000    1.0263128    -7.486467    445.50389   0.02618147  0.026084955            2 
 1419000    1.0119231   -7.4746506    446.58732  0.026226646  0.026077905            4 
 1420000    1.0545175    -7.490203    447.26367  0.026247868  0.026070815            2 
 1421000    1.0279684   -7.4771193    448.02104  0.026273812  0.026063916            2 
 1422000     1.007074   -7.4815518    446.72241  0.026179232  0.026056994            2 
 1423000    1.0366052   -7.4974089    446.59983  0.026153656  0.026049957            1 
 1424000    1.0562081   -7.4819592    446.52934  0.026131165   0.02604296            2 
 1425000    1.0166417   -7.4678757    447.26756  0.026155998  0.026035994            3 
 1426000    1.0155258   -7.5021924    448.77983   0.02622603  0.026028989            2 
 1427000    1.0174243   -7.4889099    449.01164  0.026221189  0.026022042            1 
 1428000   0.97994284   -7.4935188    448.05095  0.026146764  0.026015147            4 
 1429000    1.0232715   -7.4882108    449.78403  0.026229533  0.026008285            2 
 1430000      1.03509   -7.5078813    447.21458  0.026061456  0.026001326            1 
 1431000    1.0243129   -7.5350879    448.37957  0.026111086  0.025994289            3 
 1432000    1.0450903   -7.5060189    449.59229  0.026163425  0.025987399            3 
 1433000    1.0202127     -7.50386     449.7934  0.026156862  0.025980539            1 
 1434000    1.0277038   -7.4372371    451.32173  0.026227436  0.025973763            3 
 1435000    1.0176926   -7.4837787    450.38687   0.02615487  0.025966952            4 
 1436000    1.0320698   -7.4950462    450.42376  0.026138797  0.025959988            3 
 1437000     1.012073   -7.4909861    449.82771  0.026086042  0.025953107            1 
 1438000    1.0273162   -7.5315109    449.11885  0.026026822  0.025946269            1 
 1439000     1.021702   -7.4617537    450.44391  0.026085471  0.025939338            3 
 1440000     1.030475   -7.4739949    450.90043  0.026093775  0.025932517            1 
 1441000    1.0516172   -7.4992897    451.00486  0.026081706   0.02592574            2 
 1442000    1.0012004    -7.453204    451.69761  0.026103653  0.025919036            2 
 1443000    1.0258232   -7.5478332    450.90302  0.026039675  0.025912177            2 
 1444000     1.030271   -7.4843915    450.95697  0.026024756  0.025905213            1 
 1445000    1.0404339   -7.5215696     452.0385  0.026069118  0.025898298            1 
 1446000    1.0299604   -7.5648438    451.08916  0.025996379  0.025891327            2 
 1447000      1.03039   -7.5266642    450.52958  0.025946187  0.025884414            3 
 1448000    1.0253975   -7.5036147    451.65761  0.025993186   0.02587747            5 
 1449000    1.0298068   -7.4878052    452.96275  0.026050307  0.025870524            2 
 1450000    1.0322502   -7.5466819    451.89723  0.025971105  0.025863563            2 
 1451000     1.007481   -7.4800209    453.64472  0.026053568  0.025856557            1 
 1452000    1.0062101   -7.4676392    452.25596  0.025955921  0.025849605            2 
 1453000    1.0237714    -7.514467    451.81046  0.025912507  0.025842593            2 
 1454000   0.99692462   -7.5058698     453.3167  0.025981012   0.02583568            3 
 1455000    1.0385394   -7.5180043    453.38076  0.025966825   0.02582875            1 
 1456000    1.0142016   -7.4930728    454.74383  0.026027005  0.025821953            2 
 1457000    1.0432289   -7.4913232    453.10298  0.025915293  0.025815143            2 
 1458000     1.018831   -7.4737989    455.36308  0.026026697  0.025808389            2 
 1459000    1.0146772   -7.4381911    454.83531  0.025978713  0.025801626            5 
 1460000    1.0171196   -7.5051952    454.76032  0.025956639  0.025794799            1 
 1461000     1.030027   -7.5036573    453.90292  0.025889968   0.02578782            1 
 1462000    1.0045593   -7.5427773      453.492  0.025848837  0.025780898            1 
 1463000   0.99626347   -7.4847091    455.27163  0.025932538  0.025774013            3 
 1464000    1.0257493   -7.5063101    455.86636  0.025948677  0.025767226            3 
 1465000     1.030628    -7.524533    454.89589  0.025875762  0.025760369            3 
 1466000    1.0145829   -7.5533658     456.6811   0.02595959  0.025753454            1 
 1467000    1.0244086   -7.5310368    455.83144  0.025893629  0.025746727            1 
 1468000    1.0057587   -7.5460205     455.2796  0.025844664  0.025739999            1 
 1469000    1.0067267   -7.5271736    455.89725  0.025862108  0.025733182            1 
 1470000    1.0163452   -7.5188615    458.44606  0.025989005  0.025726456            1 
 1471000   0.99916405   -7.4832264    458.68521  0.025984886  0.025719764            2 
 1472000    1.0240179   -7.5232456    457.39294  0.025894075  0.025713211            2 
 1473000    1.0045045   -7.4803941    458.82598  0.025957568  0.025706609            1 
 1474000    1.0130666   -7.4999467    458.47607  0.025920176  0.025699996            2 
 1475000   0.99716513   -7.4998511    458.59091  0.025909091  0.025693385            1 
 1476000   0.98952648   -7.5179491    458.64965  0.025894854  0.025686855            1 
 1477000    1.0059816   -7.5263408    458.28255   0.02585661  0.025680329            3 
 1478000    1.0167462     -7.49034    460.00475  0.025936217  0.025673785            4 
 1479000      1.01416   -7.4931439    460.33299  0.025937176  0.025667207            1 
 1480000       1.0227   -7.5112865    458.41652  0.025811741  0.025660609            3 
 1481000    1.0021719   -7.4919895     460.3203  0.025901435  0.025653866            3 
 1482000    1.0198932   -7.4543149    460.51025  0.025894639  0.025647129            3 
 1483000    1.0239436   -7.5153822    458.11535  0.025742602  0.025640338            1 
 1484000    1.0087027   -7.4848883    461.34473    0.0259066  0.025633503            3 
 1485000    1.0115933   -7.4834421    459.51372  0.025786404  0.025626748            1 
 1486000    1.0074629    -7.546635    459.27226   0.02575551  0.025619971            2 
 1487000    1.0186328   -7.4769519     461.6027   0.02586879  0.025613223            4 
 1488000    1.0196371   -7.5227386    460.91437  0.025812857  0.025606511            3 
 1489000     1.008177   -7.4851665    459.89872  0.025738679   0.02559975            1 
 1490000    1.0053611   -7.5285506    460.54192  0.025757378   0.02559298            4 
 1491000    1.0233164   -7.5267119    461.06647   0.02576942  0.025586209            1 
 1492000     1.002342   -7.5002247    460.63137  0.025727847   0.02557951            1 
 1493000    1.0400116   -7.5144503    461.77846   0.02577464  0.025572774            1 
 1494000   0.98988887   -7.4765079    462.06628  0.025773443  0.025565983            1 
 1495000    1.0001252   -7.4855817    461.72836  0.025737367  0.025559231            1 
 1496000   0.98674174   -7.5273223     461.5694  0.025711308  0.025552484            1 
 1497000    1.0282902   -7.5367672    461.62141  0.025697028  0.025545706            2 
 1498000    1.0006009   -7.5408221    461.64764  0.025681333  0.025538937            2 
 1499000     1.014557   -7.5032899    462.61653  0.025718064  0.025532131            1 
 1500000    1.0252534   -7.5438114    461.81017  0.025656121  0.025525259            1 
 1501000    1.0273899   -7.4763477     462.1034  0.025655307    0.0255183            2 
 1502000    1.0245692   -7.5012477    461.95361  0.025629916  0.025511349            2 
 1503000    1.0116684   -7.5033368     463.3523  0.025690414  0.025504603            2 
 1504000   0.98490308   -7.5063588    463.43876  0.025678123  0.025497815            2 
 1505000    1.0135479   -7.5133053     462.5092   0.02560959  0.025490936            1 
 1506000    1.0174645   -7.5241988    461.52328   0.02553803  0.025483981            1 
 1507000    1.0057358   -7.5045243    463.80952  0.025647507  0.025476975            2 
 1508000    1.0069771   -7.5225704    462.78587  0.025573932  0.025470042            3 
 1509000    1.0313423    -7.525302     463.9171  0.025619455  0.025463134            2 
 1510000    1.0109189   -7.5256332      463.488  0.025578808  0.025456237            2 
 1511000    1.0199924   -7.5446356    463.98653  0.025589374  0.025449377            2 
 1512000    1.0164738   -7.5290934    464.28836  0.025589085  0.025442392            1 
 1513000   0.99649535   -7.5088327    464.10472  0.025562057  0.025435472            2 
 1514000    1.0130191   -7.5180237     464.8563  0.025586542   0.02542846            3 
 1515000    1.0004761   -7.5589602    463.53684  0.025497076  0.025421326            4 
 1516000     1.013046   -7.5463333     464.1038  0.025511423  0.025414297            1 
 1517000    1.0114865   -7.5297804    464.71012  0.025527913  0.025407286            1 
 1518000   0.99564211      -7.5009      466.245  0.025595356  0.025400393            2 
 1519000    1.0299318   -7.4921551    466.97545  0.025618579  0.025393364            3 
 1520000    1.0117381   -7.5307613    464.40173  0.025460621  0.025386416            1 
 1521000    1.0316329   -7.5362471    467.00219  0.025586357  0.025379312            1 
 1522000   0.98175156   -7.5303445    464.59285  0.025437629  0.025372319            2 
 1523000     1.015085   -7.5229414    466.45374  0.025522748  0.025365198            2 
 1524000    1.0043603   -7.5408661    466.33448  0.025499479  0.025358104            2 
 1525000    1.0274554     -7.53826     465.8308  0.025455235  0.025351059            4 
 1526000    1.0075473   -7.5360922    466.02269  0.025449033  0.025343857            1 
 1527000    1.0007613   -7.5773209    464.05852  0.025325176  0.025336571            2 
 1528000    1.0140876   -7.5458444    466.10102  0.025419995  0.025329281            1 
 1529000   0.98172417   -7.5745025    465.24914   0.02535694  0.025322088            4 
 1530000    1.0003784   -7.5302096    466.43754  0.025405095  0.025314937            3 
 1531000    1.0039065   -7.5313324    465.80055  0.025353829  0.025307764            1 
 1532000    1.0025532   -7.5266525    467.36455  0.025422353  0.025300603            2 
 1533000    1.0015606   -7.5219326    466.35683  0.025350991   0.02529348            1 
 1534000    1.0162129   -7.5554633    467.56032  0.025399844  0.025286399            2 
 1535000    1.0081272   -7.5021936    468.40993  0.025429421  0.025279215            3 
 1536000    0.9926876   -7.5370094    467.14137  0.025344041  0.025272013            2 
 1537000   0.99899334   -7.4861321    468.18584  0.025384181  0.025264876            7 
 1538000    1.0060904   -7.5392138    468.67708  0.025394293  0.025257789            2 
 1539000    1.0152252   -7.5520426    467.52831   0.02531559  0.025250565            1 
 1540000   0.99141995   -7.5296156    466.60085  0.025248964  0.025243404            2 
 1541000    1.0045892   -7.5226354    468.35014  0.025327176  0.025236226            3 
 1542000   0.98741218    -7.503259    469.61869  0.025379306  0.025229127            2 
 1543000   0.99763611   -7.5528709    469.81301  0.025373353  0.025222162            2 
 1544000    0.9918996   -7.5104936    469.89856  0.025361537  0.025215192            2 
 1545000     1.002738   -7.5536723    469.70649  0.025334762  0.025208231            3 
 1546000   0.99974509   -7.5566649    469.37721  0.025300626  0.025201125            1 
 1547000    1.0095596   -7.5495312    468.71383  0.025248536  0.025193982            1 
 1548000    1.0023574   -7.5116539    470.37234  0.025321508  0.025186889            2 
 1549000    1.0080585   -7.5117948    471.30912  0.025355558  0.025179926            1 
 1550000   0.99512516   -7.5058749    470.35634  0.025287975  0.025172919            1 
 1551000    1.0143545   -7.5331148    471.21616  0.025317868  0.025165914            3 
 1552000    1.0017312    -7.532815    470.44566  0.025260184  0.025158793            3 
 1553000   0.99415597   -7.5770193    469.99807  0.025219901  0.025151643            3 
 1554000    1.0139574   -7.5513434    470.20542  0.025214791   0.02514455            3 
 1555000    1.0161939   -7.5391901    471.53762  0.025269969   0.02513755            1 
 1556000    1.0160985   -7.5240851    472.34017   0.02529671  0.025130557            2 
 1557000   0.99995379   -7.5047463    473.03898  0.025317864  0.025123566            2 
 1558000    1.0256168   -7.5217636    472.98629  0.025298796  0.025116657            1 
 1559000   0.99567474   -7.5895372    471.15858  0.025184872   0.02510968            2 
 1560000   0.99512671   -7.5413053    470.96436  0.025158353  0.025102615            1 
 1561000   0.98168694   -7.5588237    472.53754  0.025226219  0.025095518            1 
 1562000    1.0268379   -7.5635154     471.8897  0.025175507  0.025088501            1 
 1563000    1.0011322   -7.5650225    473.31603  0.025235446  0.025081583            1 
 1564000   0.99913653   -7.5194842    472.49153   0.02517538  0.025074613            1 
 1565000   0.99992292   -7.5600306    473.46272  0.025211008  0.025067635            3 
 1566000   0.99928273    -7.536979    472.80805  0.025160071  0.025060593            2 
 1567000    1.0213655   -7.5216036    475.85857  0.025306241  0.025053719            2 
 1568000   0.97355534   -7.5092044    474.79302  0.025233473  0.025046946            1 
 1569000    1.0153676   -7.5498308    474.36356   0.02519458  0.025040124            1 
 1570000   0.99629226   -7.5473085     475.3837  0.025232681  0.025033371            2 
 1571000   0.99595588   -7.5135657    476.90929  0.025297543  0.025026679            3 
 1572000   0.99136749   -7.5119032    476.39234  0.025254047  0.025020049            1 
 1573000    1.0117019   -7.5184718    476.09933  0.025222469  0.025013373            2 
 1574000    1.0250818    -7.512127    477.28845  0.025269401  0.025006686            3 
 1575000   0.99628555   -7.5283553    475.00367  0.025132469  0.025000037            2 
 1576000    1.0082967   -7.5794145     475.2589  0.025130018  0.024993233            1 
 1577000   0.99757982   -7.5630615    476.47649  0.025178424  0.024986409            3 
 1578000   0.99826381   -7.4946366    476.61607  0.025169839  0.024979677            2 
 1579000    0.9808681   -7.5705322    476.69189    0.0251579  0.024972989            2 
 1580000    1.0084317   -7.5678945    476.74251  0.025144647  0.024966155            1 
 1581000     1.012204   -7.5495319    475.97629  0.025088356  0.024959433            1 
 1582000    1.0149406   -7.5236971    477.93364  0.025175602   0.02495283            1 
 1583000   0.99928305     -7.51696     479.8984  0.025263129  0.024946172            2 
 1584000    1.0010279   -7.5497107    477.32936  0.025112024   0.02493955            2 
 1585000    1.0106121   -7.5481758      477.821  0.025122029  0.024932971            1 
 1586000   0.99157078   -7.5271011    478.18369  0.025125247  0.024926262            1 
 1587000    1.0060364   -7.5712473    478.39968  0.025120756  0.024919502            7 
 1588000   0.99089242   -7.5431644    479.26752  0.025150478  0.024912809            3 
 1589000    1.0095424   -7.5242594    479.79311  0.025162215  0.024906205            2 
 1590000   0.99257366   -7.5703706    479.37317   0.02512438  0.024899579            3 
 1591000   0.98271415   -7.5386351    480.74625  0.025180508  0.024892953            1 
 1592000     1.013415   -7.5516838    479.68555  0.025109168  0.024886248            3 
 1593000    0.9845973   -7.5971603     479.5684  0.025087278  0.024879592            1 
 1594000    1.0023946   -7.5314259     480.8861  0.025140428  0.024872998            3 
 1595000   0.99429281   -7.5501604    479.44093  0.025049161  0.024866378            2 
 1596000   0.99039616   -7.5692501    479.16399  0.025019005  0.024859704            3 
 1597000    1.0104219   -7.5747945    479.88357  0.025040888  0.024852976            4 
 1598000   0.99423872   -7.5216209    481.63037  0.025116311  0.024846316            1 
 1599000    1.0049458    -7.540679    481.29117  0.025082925   0.02483979            1 
 1600000     1.001678   -7.5190529    483.21554  0.025167476  0.024833289            2 
 1601000    1.0113254   -7.5396729    480.74157  0.025022984  0.024826672            5 
 1602000    1.0017929   -7.5330089    480.89497  0.025015344  0.024820065            3 
 1603000    1.0091271   -7.5638006    481.18191  0.025014655  0.024813441            2 
 1604000   0.99114497   -7.5694186    482.20197  0.025052056  0.024806846            2 
 1605000    1.0003837   -7.5704834    481.47128  0.024998509  0.024800176            2 
 1606000   0.99854885   -7.5544533      482.988  0.025061644  0.024793489            3 
 1607000   0.99416431   -7.5554171    483.67708  0.025081782  0.024786995            2 
 1608000   0.98579433   -7.5225417    483.65971  0.025065284  0.024780556            1 
 1609000    1.0154139   -7.5529666    483.54846  0.025043944  0.024774024            1 
 1610000   0.99362117   -7.5353652    483.07465  0.025003864  0.024767604            2 
 1611000   0.98965589   -7.5187606    483.87243  0.025029611  0.024761129            4 
 1612000   0.96420779   -7.5514009    483.74254  0.025007369  0.024754602            1 
 1613000   0.99200675   -7.5812589     484.4547  0.025028658  0.024748106            2 
 1614000    1.0073781   -7.5605204    484.53713  0.025017407  0.024741514            1 
 1615000   0.99377094   -7.5270158     485.0196  0.025026811  0.024735015            1 
 1616000   0.98051139   -7.5683096    483.30337  0.024922822  0.024728462            4 
 1617000    1.0218242   -7.5640457    483.26601  0.024905484   0.02472185            3 
 1618000   0.99602238   -7.5637933    484.76873  0.024967487  0.024715278            1 
 1619000   0.98129886    -7.588536    483.76959  0.024900638  0.024708782            3 
 1620000   0.99602546    -7.545847    485.05248  0.024951259  0.024702228            1 
 1621000   0.99553961   -7.5619505    485.41866  0.024954691  0.024695665            2 
 1622000   0.98704839   -7.5689863    485.01029  0.024918326  0.024689109            3 
 1623000   0.98975591   -7.5792109    486.33877  0.024971183  0.024682673            1 
 1624000   0.98897835   -7.6030589    485.18747   0.02489673  0.024676084            1 
 1625000   0.98959887   -7.5950776    485.00179  0.024871887  0.024669554            2 
 1626000   0.99186101   -7.5643099    486.16105  0.024916003  0.024663001            2 
 1627000    1.0025222   -7.5747043    486.63779  0.024925107  0.024656553            2 
 1628000   0.98276147   -7.5455137    487.11045  0.024933991  0.024650072            2 
 1629000    0.9526079   -7.5730177    487.87027  0.024957554  0.024643687            2 
 1630000   0.99901078   -7.5581095     488.4503  0.024971897  0.024637263            1 
 1631000   0.99226379   -7.5544075    488.33611  0.024950752  0.024630957            2 
 1632000      1.02196   -7.5976364    487.78403  0.024907273  0.024624637            1 
 1633000      1.00047    -7.586406    487.75873  0.024890729  0.024618241            4 
 1634000   0.99270747   -7.5771848    489.12338  0.024945093   0.02461182            1 
 1635000   0.99469001   -7.5571051    488.81548  0.024914143  0.024605404       -1e+20 
 1636000   0.98061769   -7.5729302    487.97316  0.024856008  0.024598982            3 
 1637000     0.994482   -7.5686021    487.84768  0.024834437  0.024592501            2 
 1638000   0.99618132   -7.5755474    489.31813  0.024894085  0.024586132            2 
 1639000   0.99683289   -7.5919345      485.943  0.024707291  0.024579758            2 
 1640000   0.99474308   -7.5812077    489.19673  0.024857558  0.024573369            3 
 1641000   0.97902705   -7.5660985    490.80983  0.024924326  0.024567039            1 
 1642000   0.99603656   -7.5780553    489.93859   0.02486493  0.024560699            3 
 1643000   0.98300824   -7.5816059    489.01592  0.024802998  0.024554353            2 
 1644000   0.98194763   -7.5757563    488.40076  0.024756729  0.024547985            2 
 1645000   0.99273903   -7.5767273    489.43614  0.024794131  0.024541606            3 
 1646000   0.98132953   -7.5706503     489.7932  0.024797144  0.024535117            1 
 1647000    1.0013654   -7.5700287    490.29022  0.024807236  0.024528591            3 
 1648000   0.98282022   -7.5461601     489.4506  0.024749727  0.024522165            3 
 1649000   0.99046724   -7.5627693    488.46644  0.024684983  0.024515632            5 
 1650000   0.98952614   -7.5687651    489.87347  0.024741084  0.024509092            1 
 1651000   0.96349971   -7.5740431    490.73087  0.024769375  0.024502583            2 
 1652000   0.99639984   -7.5446289    490.81598  0.024758676  0.024496065            1 
 1653000    1.0122232   -7.5630133    490.39478  0.024722463  0.024489587            1 
 1654000   0.98214936   -7.5954976    489.72799  0.024673921  0.024483008            5 
 1655000   0.97062895   -7.5723047    491.10828  0.024728514  0.024476458            1 
 1656000   0.95877978   -7.5885977     490.7144   0.02469376  0.024469887            2 
 1657000   0.98904778   -7.5648344     490.4343  0.024664771  0.024463335            1 
 1658000   0.96711765   -7.5566925    491.25232  0.024691009  0.024456726            1 
 1659000   0.99889941   -7.5736782    490.82376  0.024654599  0.024450178            1 
 1660000   0.97820583   -7.5548509    491.20599  0.024658935   0.02444362            1 
 1661000   0.97400475   -7.5465222    491.97125  0.024682483   0.02443714            1 
 1662000   0.98786346   -7.5655793    492.35224  0.024686735  0.024430602            2 
 1663000    1.0022536   -7.5698159    492.10439   0.02465947  0.024424035            1 
 1664000   0.98213947   -7.6076306    492.95826  0.024687413  0.024417588            2 
 1665000   0.99611343   -7.5408445    493.71394  0.024710408  0.024411195            2 
 1666000    1.0042062   -7.5732673     493.8794  0.024703852  0.024404759            2 
 1667000    1.0177484   -7.5493501    494.02753  0.024696437  0.024398349            2 
 1668000   0.97089767   -7.5897919    493.34768  0.024647666  0.024391892            2 
 1669000   0.97451919   -7.5941956    492.47265  0.024589208  0.024385336            1 
 1670000     1.006815    -7.574867    492.89318  0.024595468  0.024378739            3 
 1671000   0.99536431   -7.5781966    494.78934  0.024675311  0.024372119            2 
 1672000    0.9687419     -7.60133    492.49357  0.024546131  0.024365433            2 
 1673000    0.9942103   -7.5783477    493.51293  0.024582234  0.024358849            1 
 1674000    1.0031183   -7.5755347    494.04376  0.024593975  0.024352335            2 
 1675000   0.96198978   -7.5887171     493.7314  0.024563751  0.024345881            1 
 1676000   0.95921859   -7.5967923    495.31319  0.024627744  0.024339333            1 
 1677000   0.99710918   -7.5998162    494.49378   0.02457234  0.024332713            3 
 1678000   0.97179957   -7.5835147    494.22749  0.024544472  0.024326164            2 
 1679000    0.9707662     -7.58353    494.64065   0.02455036  0.024319686            1 
 1680000   0.97882945   -7.5863488    495.88726  0.024597582  0.024313171            4 
 1681000   0.97427763   -7.5735272    496.24339  0.024600604  0.024306686            2 
 1682000   0.99925812   -7.5849982    493.83627  0.024466719  0.024300206            1 
 1683000   0.96447296   -7.5819125    495.77863  0.024548357  0.024293709            1 
 1684000    1.0085699   -7.5778904    495.76543  0.024533127  0.024287318            1 
 1685000   0.99123869   -7.6135045    496.76034  0.024567771  0.024280924            1 
 1686000   0.98125115   -7.6282161    495.31826  0.024481923  0.024274335            2 
 1687000   0.96426263   -7.6325565    495.26311  0.024464686  0.024267803            3 
 1688000    1.0125642   -7.5901591    496.30385  0.024501573  0.024261257            4 
 1689000   0.97695891   -7.5683854    497.27047  0.024534758  0.024254881            1 
 1690000    0.9668209   -7.6034472    497.05666  0.024509697   0.02424855            1 
 1691000   0.97411394   -7.5898096    496.59319  0.024472363  0.024242192            2 
 1692000   0.98827213   -7.6019529    495.74005  0.024415881   0.02423574            4 
 1693000   0.98841139   -7.5981397    497.21555  0.024474087  0.024229206            2 
 1694000    1.0022172    -7.593468    498.89849  0.024542429  0.024222751            2 
 1695000   0.96882119   -7.5781688    498.15754  0.024491521  0.024216268            3 
 1696000   0.97710431   -7.5997925    498.49057  0.024493444  0.024209792            2 
 1697000   0.98210444   -7.5919122     498.9894  0.024503506  0.024203405            1 
 1698000   0.98233703   -7.6039657     498.6628  0.024473047  0.024196956            3 
 1699000    0.9779361   -7.5771165    498.16778  0.024434362  0.024190415            3 
 1700000   0.97879506   -7.5802958     498.0634  0.024414872  0.024184057            1 
 1701000   0.96739039   -7.5863375    498.75434  0.024434369   0.02417762            3 
 1702000   0.96679213    -7.589881    499.15947  0.024439848  0.024171091            2 
 1703000   0.98763276    -7.581567    498.75761  0.024405833  0.024164644            1 
 1704000   0.95966726   -7.5825267    499.20979  0.024413624  0.024158146            3 
 1705000   0.99547512   -7.6183023    498.88157  0.024383263  0.024151745            2 
 1706000    1.0053551   -7.6036276    500.14544  0.024430707  0.024145338            2 
 1707000   0.96820305   -7.5996427    501.09564  0.024462783  0.024138985            2 
 1708000   0.98419776   -7.6119623    500.46879  0.024417876  0.024132715            1 
 1709000   0.97303344   -7.6164018    499.74696  0.024368391  0.024126323            2 
 1710000   0.96653089   -7.6218917     500.0458  0.024368704  0.024120011            2 
 1711000   0.96234317   -7.6253597    500.96355   0.02439916  0.024113655            3 
 1712000    0.9744492   -7.6082576    500.66702  0.024370474  0.024107357            1 
 1713000    1.0005259   -7.6072555    501.70172  0.024406583  0.024101103            2 
 1714000   0.99598843   -7.5745701    502.88012  0.024449636  0.024094903            1 
 1715000    0.9903665   -7.5805292    502.59784  0.024421664  0.024088771            3 
 1716000   0.97452286   -7.6420909     501.1481  0.024337029  0.024082501            2 
 1717000   0.99031361   -7.5782587    503.58887  0.024441316  0.024076292            2 
 1718000   0.96637219   -7.5941234    503.83937   0.02443924  0.024070014            1 
 1719000   0.97111418   -7.5528648    503.73757  0.024420088  0.024063833            2 
 1720000   0.98556768   -7.6234371    503.56978  0.024397761  0.024057637            2 
 1721000    0.9951359    -7.627806    502.96312  0.024354209   0.02405138            2 
 1722000   0.96985232   -7.5941235    503.85326  0.024383143  0.024045187            4 
 1723000   0.97672571   -7.6087797     503.2752  0.024341033  0.024039062            1 
 1724000   0.97852337    -7.588905    504.14288  0.024368855  0.024032857            3 
 1725000   0.96322069   -7.6090598    503.96834  0.024346296  0.024026632            2 
 1726000   0.98850549   -7.5849459    505.53547  0.024407854  0.024020386            1 
 1727000   0.96728866   -7.5897725    503.98377  0.024318846  0.024014137            1 
 1728000   0.96673031   -7.6140528    504.22473  0.024316393  0.024007913            1 
 1729000   0.96822485    -7.595391    504.23039  0.024302602  0.024001656            5 
 1730000   0.97822265   -7.5849337    504.19905  0.024287045  0.023995345            2 
 1731000    1.0011117   -7.5879337    505.52577  0.024336885  0.023989192            1 
 1732000   0.96056569   -7.6163655    505.41667  0.024317584   0.02398302            2 
 1733000   0.96417407   -7.6050508    505.48307  0.024306745  0.023976766            2 
 1734000   0.98230638   -7.5829658    506.19931  0.024327148  0.023970576            4 
 1735000   0.96807379   -7.6034225    505.97002  0.024302114  0.023964464            1 
 1736000   0.98481927   -7.6002409    506.05974  0.024292422  0.023958255            2 
 1737000   0.97443396   -7.6228799    505.93752  0.024272574  0.023952048            2 
 1738000    0.9894842   -7.5944629    507.28297  0.024323119  0.023945938            2 
 1739000   0.97567746   -7.5853236     505.8184   0.02423895  0.023939798            3 
 1740000   0.98227964   -7.6354691    506.80465  0.024272253  0.023933632            1 
 1741000   0.94660622   -7.6191383    507.57616   0.02429524  0.023927426            1 
 1742000   0.97849657   -7.6179444    506.51149  0.024230362  0.023921303            2 
 1743000   0.95942484    -7.538263    507.95456  0.024285454  0.023915203            1 
 1744000   0.98716736   -7.6136571    507.68978  0.024258877  0.023909065            3 
 1745000   0.98152636   -7.6103052     507.5521    0.0242384  0.023902835            2 
 1746000    0.9747351   -7.6388584    507.62463   0.02422798  0.023896541            1 
 1747000   0.97189528   -7.6283686    506.42411  0.024156845  0.023890253            1 
 1748000   0.96616043   -7.6031102    507.51219  0.024194898  0.023884032            4 
 1749000   0.96931828   -7.5971336    508.01809  0.024205169  0.023877823            1 
 1750000   0.97534533   -7.6300175    507.49826  0.024166584   0.02387165            3 
 1751000    0.9857651   -7.6264219    507.20255  0.024138709  0.023865475            1 
 1752000   0.95733359   -7.6432113    508.59192  0.024191016  0.023859283            1 
 1753000   0.98458615   -7.6021345    508.12077  0.024154819  0.023853114            1 
 1754000   0.97632651   -7.6131325    508.91791   0.02417892  0.023846756            2 
 1755000   0.96994744   -7.6074477    508.48549   0.02414461  0.023840481            1 
 1756000   0.97671906   -7.6584301    507.65764  0.024091574  0.023833999            8 
 1757000   0.96216793   -7.6585167    508.49711  0.024117677  0.023827679            1 
 1758000   0.98127824   -7.6119424    509.01217  0.024128374  0.023821324            2 
 1759000   0.98809674   -7.5881554    509.81937  0.024152898  0.023814992            1 
 1760000   0.96429946   -7.6160235    508.83456  0.024092546  0.023808789            3 
 1761000   0.94930039   -7.6345862    509.70182  0.024119904  0.023802419            2 
 1762000   0.96783534   -7.6128343    508.72782   0.02406015  0.023796079            3 
 1763000     0.978455   -7.6032745    508.81857  0.024050793   0.02378973            1 
 1764000   0.96457211   -7.6247098    508.80264  0.024036406  0.023783398            1 
 1765000   0.98926673   -7.6007247    510.41455  0.024098893  0.023777094            2 
 1766000   0.97216823   -7.6355276    508.27611  0.023984339  0.023770719            9 
 1767000    1.0016632   -7.6251314    509.62364  0.024034316  0.023764403            2 
 1768000   0.96877561   -7.5582381    510.11586  0.024043923  0.023758162            3 
 1769000   0.99704033   -7.6389013     510.5898  0.024052657  0.023751977            2 
 1770000   0.96825884   -7.6022593    509.79207   0.02400151  0.023745728            2 
 1771000   0.97368708   -7.6257884    511.42902  0.024064983  0.023739481            2 
 1772000    0.9778276   -7.5974914    511.13429  0.024037542  0.023733191            2 
 1773000   0.97411702   -7.6177091     510.7072  0.024003911   0.02372695            2 
 1774000   0.98653068   -7.5967912    512.14506  0.024057923  0.023720681            2 
 1775000   0.97840681   -7.6144178    511.82604  0.024029392  0.023714379            2 
 1776000   0.97269045   -7.6570548    510.60168  0.023958412  0.023708013            1 
 1777000   0.95312475   -7.6190285    511.33482  0.023979311   0.02370159            1 
 1778000   0.95594122   -7.6122689    512.18149  0.024005507  0.023695325            3 
 1779000    0.9677488   -7.6410211    512.58168  0.024010759  0.023689058            2 
 1780000   0.98368982   -7.6642446    511.35035  0.023939623  0.023682734            4 
 1781000   0.96866124   -7.6533245    511.09585  0.023914273  0.023676386            2 
 1782000   0.97203598   -7.5888887    514.14717  0.024043545   0.02367017            1 
 1783000   0.96631112   -7.6480386    513.02294  0.023977516   0.02366397            2 
 1784000   0.95411217   -7.6642297    512.58062  0.023943414  0.023657795            2 
 1785000   0.97422987   -7.6361699    513.29419  0.023963314  0.023651497            3 
 1786000   0.98299352   -7.6443768    513.12615  0.023942056  0.023645271            1 
 1787000   0.95407149   -7.6112009    514.70192  0.024002141  0.023639132            2 
 1788000   0.97685184   -7.6431215    512.80314  0.023900221  0.023632946            3 
 1789000   0.96641803   -7.6527176    513.41861  0.023915531  0.023626732            2 
 1790000   0.96193881   -7.6114011     513.3659  0.023899716  0.023620586            2 
 1791000   0.96916813    -7.651243    515.22028  0.023972654  0.023614416            2 
 1792000   0.96800013     -7.63523    514.04409   0.02390458  0.023608276            2 
 1793000    0.9450432   -7.6350095    514.62339  0.023918172  0.023602253            1 
 1794000    0.9615747   -7.6494712    514.88969   0.02391721  0.023596085            1 
 1795000    0.9702101   -7.6045286    515.14427  0.023915704  0.023589882            3 
 1796000   0.97257967   -7.6579782    514.29821  0.023863132  0.023583785            5 
 1797000   0.96311745   -7.6212784    515.90217  0.023924234  0.023577586            3 
 1798000   0.95974412   -7.6346362    515.43511   0.02388928  0.023571419            6 
 1799000   0.96615632   -7.6226773    514.98176  0.023855001  0.023565259            2 
 1800000   0.94573769   -7.6081314    516.31341  0.023903398  0.023559114            1 
 1801000   0.96112838   -7.6737546    515.86012  0.023869152  0.023552922            3 
 1802000   0.97731183   -7.6472861    515.99318   0.02386206  0.023546757            2 
 1803000   0.96406612   -7.6277692    517.33291  0.023910747  0.023540633            4 
 1804000   0.98046258   -7.6149945    516.92113  0.023878471  0.023534433            2 
 1805000    0.9676752   -7.6171223    518.51012  0.023938602  0.023528399            3 
 1806000   0.94712647    -7.599529    517.65261  0.023885779  0.023522399            1 
 1807000   0.97518864   -7.6536412    516.38438  0.023814074  0.023516358            1 
 1808000   0.96303103   -7.6694894     517.8187  0.023867012  0.023510182            3 
 1809000   0.97017106   -7.6355318     517.0777  0.023819684  0.023504076            2 
 1810000    0.9612929    -7.623528    516.78441  0.023793021  0.023497977            3 
 1811000   0.93777686   -7.6585438     518.8231  0.023873693  0.023491849            1 
 1812000   0.95444618   -7.6429128    518.20235   0.02383197  0.023485781            6 
 1813000   0.95795729   -7.6008353    518.19966  0.023818701  0.023479714            3 
 1814000   0.96506822   -7.6168259    518.29445  0.023809925  0.023473661            2 
 1815000   0.96497201   -7.6244903     518.8259  0.023821208  0.023467717            1 
 1816000   0.96067641    -7.617672    520.57991  0.023888579  0.023461696            1 
 1817000   0.94578986   -7.6391831    519.82953  0.023841017    0.0234557            2 
 1818000   0.93845943   -7.6741293     519.4213  0.023809191  0.023449598            1 
 1819000   0.97937385   -7.6140796    519.53674   0.02380139  0.023443594            2 
 1820000   0.95760445   -7.6705062    518.18173   0.02372627  0.023437512            1 
 1821000   0.96064093   -7.6421084    517.86856  0.023698909  0.023431351            1 
 1822000   0.97686445   -7.6221331    518.95915  0.023735783  0.023425208            3 
 1823000   0.95626213   -7.6844079    519.30503  0.023738573   0.02341904            9 
 1824000   0.95040387   -7.6796705    519.14615    0.0237183  0.023412863            2 
 1825000   0.95629255   -7.6304416    520.11594  0.023749586  0.023406737            3 
 1826000   0.96031297   -7.6312347    521.18182  0.023785223  0.023400747            3 
 1827000   0.94329864   -7.6465806    520.11271   0.02372344  0.023394788            1 
 1828000   0.96138389   -7.6221033    521.00069  0.023750943  0.023388728            4 
 1829000   0.96818875   -7.6434158    521.05736  0.023740539  0.023382665            3 
 1830000   0.95964285   -7.6711417    520.02545  0.023680576  0.023376452            3 
 1831000   0.94330426   -7.6407761     519.9354  0.023663544  0.023370309            2 
 1832000    0.9311054   -7.6588504     520.0635  0.023656455  0.023364166            2 
 1833000   0.95267761   -7.6376828    519.86827  0.023634673  0.023357966            1 
 1834000   0.96327294   -7.6308315     521.6263  0.023701668  0.023351788            4 
 1835000   0.95182649   -7.6367883    521.04936   0.02366255  0.023345646            2 
 1836000   0.95025351   -7.6689759    520.70411  0.023633992  0.023339477            1 
 1837000   0.95128902   -7.6486936    520.69163   0.02362056  0.023333206            1 
 1838000   0.93172242    -7.668244    520.21538  0.023586116  0.023326911            1 
 1839000   0.95114375   -7.6332646    522.42917  0.023673608  0.023320667            1 
 1840000   0.96913457   -7.6437344     523.1279  0.023692387  0.023314502            1 
 1841000    0.9658242   -7.6360894    522.09499  0.023632762  0.023308295            2 
 1842000   0.96056688   -7.6278799    522.03773  0.023617342  0.023302171            1 
 1843000   0.96960171     -7.64599     522.8754  0.023642404  0.023296112            1 
 1844000   0.95457391   -7.6342319    524.21701  0.023690212  0.023290111            2 
 1845000   0.96920093      -7.6638    522.93362  0.023619405  0.023284055            3 
 1846000   0.96418538   -7.6690743    522.78523  0.023599911  0.023277941            1 
 1847000   0.96317839    -7.657917    523.93732  0.023639114  0.023271979            1 
 1848000   0.95570318   -7.6113131    522.69481  0.023570293  0.023265903            1 
 1849000   0.96144715   -7.6163788    523.72291  0.023603881  0.023259791            2 
 1850000   0.93574319   -7.6595111    523.31961  0.023572955  0.023253654            2 
 1851000   0.95034215   -7.6594979    523.63957  0.023574625   0.02324747            2 
 1852000   0.95772516     -7.65262    524.74789  0.023611766  0.023241366            3 
 1853000   0.96346119   -7.6198887    524.39658  0.023583224   0.02323527            1 
 1854000   0.95482987   -7.6361134    525.22913  0.023607926  0.023229198            1 
 1855000   0.96535684   -7.6573178     523.3302  0.023509892  0.023223091            2 
 1856000    0.9447429   -7.6510489    523.79153  0.023517939  0.023216985            1 
 1857000    0.9727225   -7.6173169     524.9541  0.023557445  0.023210912            2 
 1858000   0.95764696   -7.6563344    525.52065  0.023570176  0.023204809            3 
 1859000   0.96301878   -7.6524244    524.41122  0.023507765  0.023198672            2 
 1860000    0.9517396   -7.6619475    523.92967  0.023473552   0.02319246            1 
 1861000   0.94688076   -7.6852131    523.03137  0.023420713  0.023186154            1 
 1862000   0.96158879   -7.6452717    523.82197  0.023443518  0.023179875            2 
 1863000   0.94645592   -7.6510568    525.38251  0.023500739  0.023173655            2 
 1864000   0.94185519   -7.6336685    526.10839  0.023520583  0.023167566            2 
 1865000   0.95248154     -7.66204    526.34481  0.023518535  0.023161436            1 
 1866000   0.96820025   -7.6574409    525.30983   0.02345971   0.02315532            2 
 1867000   0.93055325   -7.6708142    526.01151  0.023478464  0.023149121            1 
 1868000   0.92523433   -7.6366592    526.38411  0.023482518  0.023142981            3 
 1869000   0.95043605   -7.6490693    525.71766  0.023440238  0.023136786            1 
 1870000   0.94732154   -7.6614758    525.66443  0.023425331  0.023130609            4 
 1871000   0.94889236   -7.6422847    526.29262   0.02344079  0.023124431            5 
 1872000   0.94757321   -7.6588203    525.55922   0.02339562  0.023118217            1 
 1873000   0.97669039   -7.6509972    526.65098  0.023431704  0.023112042            1 
 1874000     0.936527   -7.6156239    526.13649  0.023396322  0.023105867            1 
 1875000   0.95355141   -7.6544235    528.19699  0.023475422  0.023099725            1 
 1876000    0.9367058   -7.6766666    526.25192  0.023376507  0.023093518            1 
 1877000   0.95659887   -7.6947944    527.03601  0.023398864  0.023087227            3 
 1878000   0.95135285   -7.6556723    528.39345  0.023446639  0.023080992            2 
 1879000   0.95467102   -7.6619642    527.97348  0.023415535  0.023074896            6 
 1880000   0.96823627   -7.6462634    528.38141  0.023421162  0.023068736            1 
 1881000   0.95117631   -7.6606392    526.80804  0.023339006  0.023062598            1 
 1882000   0.95037594   -7.7022901    528.03382  0.023380881  0.023056392            1 
 1883000     0.920677   -7.6625612     529.2804  0.023423633  0.023050252            4 
 1884000   0.96388708   -7.6833129    528.62914  0.023382393  0.023044203            1 
 1885000   0.96196202   -7.6500546    528.71717   0.02337388  0.023038144            3 
 1886000   0.94284751   -7.7106531    528.84697  0.023367222   0.02303198            3 
 1887000   0.96931913   -7.6331892    530.07403  0.023409028   0.02302594            1 
 1888000   0.95362047   -7.6700571     530.0225  0.023394355  0.023019928            1 
 1889000   0.96082594   -7.6587402    528.63778  0.023320883  0.023013872            2 
 1890000   0.96975896   -7.6300137    531.20613  0.023421787  0.023007847            1 
 1891000   0.93709645    -7.616356    530.51589  0.023378983  0.023001844            4 
 1892000   0.92398599   -7.6385082    531.51125  0.023410467  0.022995853            1 
 1893000   0.93175234   -7.6451062    530.69871  0.023362331  0.022989871            1 
 1894000   0.94726337   -7.6849568    529.77513   0.02330936  0.022983762            3 
 1895000   0.96665012   -7.6740622    527.85358  0.023212559  0.022977602            2 
 1896000   0.96052322   -7.6691704    530.39995  0.023312234  0.022971459            2 
 1897000   0.92799776   -7.6652706     531.1992  0.023335055  0.022965347            2 
 1898000     0.948246   -7.6585357    530.77059  0.023303942  0.022959278            4 
 1899000   0.92375542    -7.671863    529.87483  0.023252362  0.022953153            2 
 1900000   0.93623594   -7.6654871    531.48605  0.023310791  0.022947042            2 
 1901000   0.93909983   -7.6727284    531.69224  0.023307568  0.022940927            1 
 1902000   0.92705827   -7.6817189    531.89565  0.023304226  0.022934905            1 
 1903000   0.96343193   -7.6596614    530.79852  0.023243936    0.0229288            3 
 1904000   0.97085407   -7.6474016    531.74683  0.023273233  0.022922647            1 
 1905000   0.95230749   -7.6539466    532.01428  0.023272716  0.022916569            1 
 1906000   0.95061197    -7.696472    529.77466  0.023162586  0.022910386            2 
 1907000    0.9400083   -7.6924341    530.95239  0.023201905  0.022904197            1 
 1908000    0.9390303   -7.6851985    532.12077  0.023240775  0.022898115            1 
 1909000     0.939468   -7.6266067    533.61194  0.023293694  0.022892075            3 
 1910000   0.96286938   -7.6746957    532.41677  0.023229353  0.022886013            2 
 1911000   0.94123339   -7.6556842    532.78828  0.023233398  0.022879893            3 
 1912000   0.93811944   -7.7015433    531.53675  0.023166699  0.022873867            2 
 1913000   0.94074776   -7.6723038    532.61558  0.023201585  0.022867791            4 
 1914000   0.94755947   -7.6794853    532.11268  0.023167567  0.022861703            2 
 1915000   0.93258354   -7.7049739    532.53744  0.023173953   0.02285565            3 
 1916000   0.94110177     -7.69902    533.12447   0.02318739  0.022849557            1 
 1917000   0.94701498   -7.6692432    532.79378  0.023160919  0.022843481            2 
 1918000   0.94561763   -7.7147129    531.96264  0.023112732   0.02283744            2 
 1919000   0.96764577   -7.6948318    533.20012  0.023154426  0.022831269            2 
 1920000   0.95874342   -7.7231189    532.14084  0.023096391  0.022825116            2 
 1921000   0.94781503   -7.6602561    533.64797  0.023149747  0.022819068            3 
 1922000   0.94200853   -7.6706006    534.60415   0.02317916  0.022812971            2 
 1923000   0.94052066   -7.6455211     534.3075  0.023154251  0.022806928            1 
 1924000   0.94658439   -7.6745593    535.44157  0.023191336  0.022800897            2 
 1925000   0.93156287   -7.6561882    534.91296  0.023156405   0.02279494            2 
 1926000   0.96367295   -7.6815643    533.95493  0.023102931   0.02278889            1 
 1927000   0.94002291   -7.6397019    535.46716  0.023156338  0.022782898            3 
 1928000   0.95530376   -7.6411491    535.17897  0.023131871  0.022776827            1 
 1929000   0.95371372   -7.6798317    535.12858  0.023117703  0.022770819            2 
 1930000   0.94254804   -7.6933114     534.3231  0.023070946  0.022764733            1 
 1931000   0.93769532   -7.6839425    535.46444  0.023108253  0.022758653            1 
 1932000   0.94241669   -7.7201821    534.60612   0.02305927  0.022752608            5 
 1933000    0.9529703   -7.6921016    536.55641   0.02313142  0.022746581            2 
 1934000   0.94355529   -7.6883091    535.67799   0.02308161   0.02274064            3 
 1935000   0.96829481     -7.68758     535.3181  0.023054182  0.022734631            1 
 1936000   0.94592096   -7.6988312    536.34079  0.023086294  0.022728647            1 
 1937000    0.9440333   -7.6778695    536.38352  0.023076214  0.022722772            1 
 1938000   0.94187817   -7.6516121    537.21361       0.0231   0.02271689            2 
 1939000   0.93304058   -7.7064429    537.14208  0.023085013  0.022710903            3 
 1940000   0.92402903   -7.6827631    536.03514  0.023025564  0.022704876            1 
 1941000   0.94688565    -7.718277    536.81663  0.023047254  0.022698891            4 
 1942000   0.94126535   -7.6745974    538.09299  0.023090156  0.022692972            2 
 1943000   0.95871466   -7.6755984    538.42145  0.023092359  0.022687134            2 
 1944000    0.9471746   -7.6628589    536.93366  0.023016703  0.022681272            3 
 1945000   0.91590738   -7.6756998     537.6979  0.023037614  0.022675396            2 
 1946000   0.94047673   -7.7118903    538.66968   0.02306739  0.022669492            2 
 1947000   0.96079744   -7.7059776    538.08164  0.023030373  0.022663509            4 
 1948000   0.95358639   -7.6623818    539.37111  0.023073713  0.022657634            1 
 1949000   0.94722017   -7.6709367    538.52302  0.023025612  0.022651784            2 
 1950000   0.96223212   -7.6139274    539.48948  0.023055106  0.022645856            1 
 1951000   0.95679572   -7.6850836    538.83501  0.023015334  0.022640041            3 
 1952000   0.94506833   -7.6959799    539.80703  0.023045041  0.022634117            1 
 1953000    0.9507849   -7.6898773    538.67418  0.022984903  0.022628215            1 
 1954000   0.93852064   -7.6813805    539.74811   0.02301894  0.022622262            2 
 1955000   0.93505566   -7.6776285     541.6837  0.023089672  0.022616363            1 
 1956000   0.92770718   -7.7071661    539.65838   0.02299158  0.022610508            2 
 1957000   0.95580016   -7.6489427    539.42212  0.022969772  0.022604665            2 
 1958000   0.94740599   -7.6904141    540.39589  0.022999485  0.022598901            2 
 1959000   0.94761004   -7.6620113    539.29397   0.02294087  0.022593074            2 
 1960000   0.94718177   -7.6863548    540.62014   0.02298555  0.022587192            2 
 1961000   0.93603093   -7.6872553    540.46653  0.022967301  0.022581321            2 
 1962000   0.93835835   -7.7003261    541.31329   0.02299156  0.022575365            1 
 1963000   0.92482976   -7.6966026     540.1194  0.022929164  0.022569454            2 
 1964000    0.9346515   -7.7095526    540.94826  0.022952659  0.022563535            1 
 1965000   0.94147031   -7.7248562    539.97547  0.022899723  0.022557555            5 
 1966000   0.93215746   -7.6769122    541.49124  0.022952325  0.022551605            2 
 1967000   0.93949324   -7.7148436    539.96231  0.022875882  0.022545666            1 
 1968000   0.93298249   -7.7055323    540.89912  0.022903926  0.022539738            1 
 1969000   0.91043281   -7.7021803    541.05218  0.022898772  0.022533888            1 
 1970000   0.91760349   -7.7183109    541.19527  0.022893201     0.022528            4 
 1971000   0.93466517   -7.7325729    541.28583  0.022885415  0.022522046            3 
 1972000   0.93563283   -7.7141662    541.16857  0.022868854  0.022516063            1 
 1973000   0.94356118   -7.6975313    542.61536  0.022918372  0.022510136            3 
 1974000    0.9354514   -7.7051788    542.29899  0.022893406  0.022504143            5 
 1975000   0.92699172   -7.7335062    541.24805   0.02283747   0.02249822            2 
 1976000   0.96737172   -7.6732502    542.15618  0.022864211  0.022492301            1 
 1977000   0.93989794   -7.7162219     543.3356   0.02290236  0.022486316            3 
 1978000    0.9468539   -7.6669551    541.71371  0.022822451  0.022480363            2 
 1979000   0.92632959   -7.6970565     541.3214    0.0227944  0.022474444            1 
 1980000   0.93885244   -7.7158438    541.90674  0.022807523  0.022468427            2 
 1981000   0.93190283   -7.6818844    543.68829  0.022870953  0.022462523            2 
 1982000   0.94999361   -7.6828475    544.26461  0.022883645  0.022456618            2 
 1983000   0.93202706   -7.6961905    542.87701  0.022813793  0.022450742            2 
 1984000   0.92805307   -7.6941342    543.31048  0.022820501  0.022444815            2 
 1985000   0.93594792   -7.7134722    542.02767   0.02275515  0.022438808            3 
 1986000   0.93179793   -7.7236214    541.95531  0.022740656  0.022432767            2 
 1987000   0.91940843   -7.7177027    543.11355  0.022777787  0.022426806            1 
 1988000   0.93112281   -7.7389939    541.86752  0.022714098  0.022420838            2 
 1989000   0.91879587   -7.7200726    542.82709  0.022742881  0.022414811            2 
 1990000   0.93437985   -7.6669322    545.56129   0.02284595  0.022408879            1 
 1991000   0.92469785   -7.7573592    541.78878  0.022676577  0.022402865            2 
 1992000   0.92894879   -7.7101083    542.84354  0.022709318  0.022396861            2 
 1993000   0.93342039   -7.6888866    544.95519  0.022786218  0.022390898            2 
 1994000   0.91119932   -7.7163424    544.39345  0.022751314  0.022384893            3 
 1995000   0.91972278   -7.6987317    544.66382  0.022751204  0.022378918            1 
 1996000   0.93523731   -7.6936344    545.75136   0.02278521  0.022372889            2 
 1997000    0.9144296   -7.6972272    543.63944  0.022685672  0.022366855            1 
 1998000   0.92275657    -7.719165    543.41568  0.022664985  0.022360825            1 
 1999000   0.92635679    -7.723245    543.99829  0.022677935  0.022354792            3 
 2000000   0.90320734   -7.7367005    542.45586  0.022602327  0.022348763            1 
 2001000   0.93783368   -7.7039782     544.9616  0.022695386  0.022342742            1 
 2002000   0.91189726   -7.7410182    545.36045  0.022700651   0.02233676            3 
 2003000   0.91719221   -7.6633272    545.54306  0.022696916  0.022330836            2 
 2004000   0.91572616   -7.6900925    546.75481  0.022735978  0.022324914            2 
 2005000   0.93518579    -7.728355    545.34202  0.022665919   0.02231891            2 
 2006000   0.92881809   -7.7572371    543.70357  0.022586556  0.022312859            2 
 2007000   0.92113507   -7.7477925    543.24686  0.022556339  0.022306726            3 
 2008000   0.92022464   -7.7035529    546.42451   0.02267698  0.022300675            5 
 2009000   0.90694738   -7.7427526    546.95628   0.02268775  0.022294649            2 
 2010000   0.92720571   -7.6706732    546.43988  0.022655053  0.022288669            2 
 2011000   0.93035497   -7.6856179    546.70814  0.022654904  0.022282731            2 
 2012000   0.91670165   -7.7358874     545.9354  0.022611639  0.022276717            3 
 2013000   0.93752282   -7.7277202    546.95958  0.022642804  0.022270656            3 
 2014000   0.94238983   -7.6875767    545.98819  0.022591368  0.022264653            2 
 2015000   0.91417383   -7.7299506    547.24517  0.022632141  0.022258622            1 
 2016000   0.93503192   -7.6988529    547.37555  0.022626304  0.022252623            3 
 2017000   0.92033621   -7.7577273    546.73329  0.022588551  0.022246625            2 
 2018000   0.91050636    -7.700483    546.30725  0.022559764  0.022240667            1 
 2019000    0.9401265   -7.7305875    546.58092  0.022559886   0.02223466            2 
 2020000   0.93564743   -7.7066859    547.38468  0.022581876  0.022228591            1 
 2021000   0.95540559   -7.7247465    546.13066  0.022518995  0.022222522            1 
 2022000   0.93371455   -7.7231997    545.70779   0.02249043  0.022216446            3 
 2023000   0.91670359   -7.7212679    547.46606  0.022551741  0.022210361            1 
 2024000   0.93848412   -7.6953544    547.53547  0.022543456  0.022204322            3 
 2025000   0.93821957   -7.7500656    548.13979  0.022557193  0.022198235            4 
 2026000   0.92512436   -7.7248408    547.63312  0.022525219  0.022192166            3 
 2027000    0.9380174   -7.7163099    548.89669  0.022566053   0.02218617            3 
 2028000   0.91888811   -7.6667279    549.77175  0.022590884  0.022180187            1 
 2029000   0.93628147   -7.6763374    549.30951  0.022560765  0.022174278            3 
 2030000   0.93179067   -7.7236551    548.41179  0.022512799  0.022168305            1 
 2031000   0.95055411   -7.7046672    548.31442  0.022497719  0.022162311            1 
 2032000   0.92845867   -7.7303635    547.68722  0.022460926  0.022156282            2 
 2033000   0.92296678   -7.7265004    547.88234  0.022457876  0.022150267            2 
 2034000   0.93448259   -7.7114022    549.21089  0.022501266  0.022144264            1 
 2035000   0.94161087   -7.7061033    549.78872  0.022513871  0.022138281            3 
 2036000   0.93729223   -7.6934116    549.02305  0.022471474  0.022132318            2 
 2037000   0.91425539   -7.7488761    549.33136  0.022473055  0.022126365            2 
 2038000   0.91136538   -7.7272488    549.74703  0.022479025  0.022120338            5 
 2039000   0.90478449   -7.7001797    550.52476  0.022499786  0.022114369            1 
 2040000   0.91756069   -7.7251689    548.20129  0.022393844  0.022108395            4 
 2041000   0.91806021    -7.755186    548.26801  0.022385596  0.022102377            2 
 2042000   0.94199077   -7.7014228    549.59932  0.022428963  0.022096375            1 
 2043000    0.9200746   -7.7805119     548.6152  0.022377843  0.022090349            2 
 2044000   0.94388447   -7.7521436     547.6849  0.022328967  0.022084297            1 
 2045000    0.9276645   -7.7101821    549.32332  0.022384813  0.022078278            2 
 2046000   0.93955253   -7.7260074    549.46873  0.022379795  0.022072219            2 
 2047000   0.92218062   -7.7160128    551.25843  0.022441721  0.022066179            1 
 2048000   0.93216527   -7.7176725    550.49183   0.02239957  0.022060133            1 
 2049000    0.9079323   -7.7226214    551.65397  0.022435903  0.022054096            2 
 2050000   0.91918911   -7.7224534    549.77664  0.022348644  0.022048029            1 
 2051000   0.92233213   -7.7199743     551.8241  0.022420937  0.022042045            1 
 2052000    0.9239608   -7.7472772    550.52351  0.022357193  0.022036073            2 
 2053000    0.9221929   -7.7409326    550.97555  0.022364651  0.022030022            1 
 2054000   0.91767208   -7.7408864    551.69401  0.022382912  0.022024091            3 
 2055000   0.93550945   -7.6952919    551.49557  0.022363973  0.022018185            1 
 2056000   0.90796205   -7.7139505    553.32245  0.022427142  0.022012272            2 
 2057000   0.94716708   -7.7019679    552.86482    0.0223977  0.022006253            1 
 2058000   0.93476259   -7.7442116    551.31393  0.022324017  0.022000287            2 
 2059000   0.92419923   -7.7062682    552.39998  0.022357131  0.021994321            4 
 2060000   0.93172345   -7.7657866    551.16266  0.022296224  0.021988368            2 
 2061000   0.93721682   -7.7714097    552.64704  0.022345425  0.021982375            3 
 2062000    0.9181495   -7.7121634    553.00326  0.022348984  0.021976327            2 
 2063000   0.91652026    -7.735419     551.4508   0.02227544  0.021970323            7 
 2064000   0.94265394   -7.7760474    551.26443  0.022257123  0.021964271            1 
 2065000    0.9087963   -7.7842588    551.05572  0.022237923  0.021958151            1 
 2066000   0.93438131   -7.7117533     552.0886  0.022268821  0.021952077            1 
 2067000   0.91479312   -7.7265805    552.18918  0.022262102  0.021946054            2 
 2068000   0.90922459   -7.7737839     551.7725  0.022234546  0.021939947            1 
 2069000   0.92998127   -7.7393755    550.85575  0.022186876  0.021933918            2 
 2070000   0.92461684   -7.7392769    552.44323  0.022240066  0.021927888            2 
 2071000   0.90263706   -7.7448509    552.69372  0.022239406  0.021921823            1 
 2072000   0.92860935   -7.7570851    553.66551  0.022267757  0.021915712            2 
 2073000   0.94792713   -7.7530057    551.06717  0.022152564  0.021909589            1 
 2074000   0.93207032   -7.7561163    552.84954  0.022213498  0.021903427            1 
 2075000   0.90430626   -7.7394981     551.8941  0.022164422  0.021897336            3 
 2076000   0.92791066   -7.7453509    551.89169  0.022153648  0.021891211            1 
 2077000   0.93336885   -7.7537973     552.4849  0.022166783  0.021885063            3 
 2078000   0.91742484   -7.7192889    552.50178  0.022156793  0.021878916            1 
 2079000   0.93153945   -7.7407727    552.64509   0.02215188  0.021872816            1 
 2080000   0.90687643    -7.719187    553.22606  0.022164506  0.021866744            2 
 2081000   0.92231963   -7.7611854    552.19242  0.022112463  0.021860665            3 
 2082000   0.91699277   -7.7441935    553.92251   0.02217109  0.021854517            2 
 2083000   0.90009759   -7.7358964    553.67827  0.022150675  0.021848382            1 
 2084000   0.92798987   -7.7748322     551.7855  0.022064359   0.02184223            1 
 2085000   0.91139637   -7.7509691    552.38441  0.022077714  0.021836063            2 
 2086000   0.94019357   -7.7399449    554.79477  0.022163422  0.021829942            2 
 2087000   0.91761651   -7.7170296    554.25094  0.022131087  0.021823823            2 
 2088000   0.93273662   -7.7683273      553.588  0.022094029  0.021817704            3 
 2089000   0.91857114   -7.7620296    553.46288  0.022078462  0.021811599            1 
 2090000   0.89149187    -7.715308    554.76007   0.02211962  0.021805471            1 
 2091000   0.91377763   -7.7451731    556.39208  0.022174083  0.021799396            3 
 2092000   0.93291769   -7.7268344    555.95724  0.022146162  0.021793327            2 
 2093000     0.922889   -7.7655594     554.5323  0.022078846  0.021787274            1 
 2094000   0.92947102   -7.7395197    555.28532   0.02209827  0.021781247            3 
 2095000   0.92168267   -7.7666006    554.59764  0.022060368   0.02177519            1 
 2096000   0.92263963   -7.7705201    555.54489  0.022087504  0.021769104            2 
 2097000   0.91316706   -7.7522766    554.66773  0.022042113  0.021763007            1 
 2098000   0.91104809   -7.7879982     556.4191  0.022101172  0.021756905            1 
 2099000    0.9290206   -7.7728498     555.4142  0.022050746  0.021750803            1 
 2100000   0.90427859   -7.7499449    555.10285  0.022027891  0.021744701            1 
 2101000   0.90936459   -7.7601225    554.65571  0.021999671  0.021738597            2 
 2102000    0.9256028   -7.7780389    555.66262  0.022029124  0.021732503            3 
 2103000   0.90066422   -7.7565875    556.82573  0.022064738  0.021726383            1 
 2104000    0.9007002   -7.7559752    556.17014  0.022028285  0.021720315            3 
 2105000   0.91242371   -7.7995362    555.03647   0.02197294  0.021714256            2 
 2106000   0.90993871    -7.779875    555.80737  0.021993011  0.021708195            2 
 2107000   0.93470101   -7.7497426    557.01957  0.022030516   0.02170215            1 
 2108000   0.91525281    -7.775505    557.27543   0.02203018  0.021696145            2 
 2109000   0.91359554   -7.7637119    557.07672  0.022011882  0.021690176            2 
 2110000   0.89885062   -7.7300205    558.48224   0.02205696  0.021684188            3 
 2111000   0.91190499   -7.7531213    556.62856  0.021973337  0.021678177            3 
 2112000    0.8971942   -7.7629597    557.89523  0.022012911  0.021672149            1 
 2113000   0.91565564   -7.8185642    556.79681  0.021959174  0.021666058            2 
 2114000   0.91752993   -7.7966285    557.46564  0.021975151  0.021659942            2 
 2115000   0.90508032   -7.7771801    558.62189  0.022010319   0.02165394            3 
 2116000   0.92319648   -7.7776979    558.41172   0.02199164  0.021648024            2 
 2117000   0.92130444   -7.7311749    558.75009  0.021994571   0.02164214            3 
 2118000   0.92094825   -7.7399603    556.76295  0.021906002  0.021636205            2 
 2119000    0.8991369   -7.7541177    558.65586  0.021970106  0.021630253            2 
 2120000   0.91185922   -7.7337387    558.02672  0.021935012  0.021624254            1 
 2121000   0.92139173   -7.7682007    558.93893  0.021960511  0.021618204            3 
 2122000   0.90949254   -7.7839887    558.22623  0.021922174   0.02161211            2 
 2123000   0.90036139   -7.7708948     558.7038  0.021930593  0.021606114            3 
 2124000   0.92803292   -7.7510385    559.03616  0.021933308   0.02160013            2 
 2125000   0.91582861   -7.7563542    558.72647  0.021910842   0.02159411            1 
 2126000   0.90474978   -7.7615132    559.48864  0.021930411  0.021588155            2 
 2127000   0.90543346   -7.7483094    560.43692  0.021957253  0.021582166            1 
 2128000   0.91300358   -7.7633285    557.96671    0.0218502  0.021576148            4 
 2129000   0.90675853   -7.7754484    559.82302  0.021912597  0.021570105            2 
 2130000   0.91310528   -7.7473484     560.0966  0.021913012  0.021564164            1 
 2131000   0.89778501   -7.7979091    558.57251   0.02184313  0.021558193            3 
 2132000   0.90742211   -7.7537684    560.26523  0.021899047  0.021552195            2 
 2133000   0.92221169   -7.7365853     562.1718  0.021963268  0.021546268            5 
 2134000   0.91699182   -7.7674083    560.37414  0.021882776  0.021540337            2 
 2135000   0.90937789   -7.7786867    560.71191  0.021885711  0.021534383            2 
 2136000   0.90085664   -7.7890992    561.51111  0.021906644  0.021528404            1 
 2137000   0.89358963   -7.7782161    561.30514  0.021888361  0.021522478            2 
 2138000   0.91720421   -7.7418373    561.04496  0.021867983  0.021516575            2 
 2139000   0.92699916   -7.7797356    561.66165  0.021881785  0.021510578            2 
 2140000   0.90843848   -7.7530364    559.83785  0.021800539  0.021504611            1 
 2141000   0.90076852   -7.7871944    560.58286  0.021819355   0.02149864            1 
 2142000    0.9192462   -7.7702516    560.93619  0.021822914   0.02149262            1 
 2143000     0.896534   -7.8131408    559.35047  0.021751068  0.021486556            1 
 2144000   0.90265353   -7.7789188    560.99812  0.021804964  0.021480516            1 
 2145000   0.90022085    -7.800487     560.7992  0.021787071  0.021474486            2 
 2146000   0.90629077   -7.7842919    561.13196   0.02178984  0.021468475            2 
 2147000   0.89427851   -7.7759671    560.67892  0.021762107  0.021462489            2 
 2148000   0.90052415    -7.762248    562.66517  0.021829034  0.021456547            1 
 2149000   0.91108381   -7.7551631    561.65672   0.02177977  0.021450578            1 
 2150000   0.89967248   -7.7524751    562.35907  0.021796863  0.021444656            4 
 2151000   0.94117326     -7.76911    561.41802  0.021750272  0.021438675            2 
 2152000   0.89966921   -7.7899313    562.12047  0.021767367  0.021432705            2 
 2153000   0.88702903   -7.7701083    562.22936  0.021761471  0.021426697            1 
 2154000   0.90639909    -7.805965    560.16141  0.021671364  0.021420666            2 
 2155000   0.93876676   -7.7702475    561.58176  0.021716232  0.021414642            3 
 2156000   0.90408188   -7.8107117    561.71156  0.021711177  0.021408601            3 
 2157000   0.93318352   -7.7810414    562.49191  0.021731259  0.021402521            2 
 2158000   0.89241234   -7.7474076    562.42204  0.021718491  0.021396537            1 
 2159000   0.89041477   -7.7547069    563.64679  0.021755704  0.021390614            1 
 2160000   0.91915148   -7.7822067    564.26454  0.021769465  0.021384691            1 
 2161000    0.8930042   -7.7605144    565.19989  0.021795461  0.021378778            2 
 2162000   0.89490059   -7.7696632     564.4539  0.021756626  0.021372826            3 
 2163000   0.90892762   -7.7639851    564.94746  0.021765582   0.02136691            3 
 2164000   0.93551219    -7.753844    563.77112  0.021710225  0.021361039            3 
 2165000   0.91872497   -7.7791369    563.20033  0.021678227  0.021355112            1 
 2166000    0.8974095   -7.8368234    563.40262  0.021676001  0.021349157            2 
 2167000   0.90753714   -7.7637251    564.02141  0.021689794  0.021343159            2 
 2168000   0.89918109   -7.7897587    564.80598  0.021709947   0.02133718            2 
 2169000   0.88803244   -7.7746882      564.514   0.02168872  0.021331227            3 
 2170000   0.89785555   -7.7761353    564.78278  0.021689047  0.021325333            4 
 2171000   0.93232075    -7.753943    565.29188  0.021698598  0.021319424            3 
 2172000   0.89676021   -7.7853776    564.26588  0.021649243  0.021313462            2 
 2173000   0.89371433   -7.7782362    563.81512  0.021621994   0.02130747            2 
 2174000    0.9047446   -7.7868805    563.70902  0.021607981   0.02130149            4 
 2175000   0.90009554   -7.7846563    563.85738  0.021603731  0.021295475            3 
 2176000   0.90710415   -7.8037044     564.5979  0.021622162   0.02128943            2 
 2177000   0.90006141   -7.7812048    563.62416  0.021574956  0.021283339            2 
 2178000   0.90829038   -7.8286524    564.23647  0.021588478   0.02127727            1 
 2179000    0.8904878   -7.7893158    564.94961  0.021605844  0.021271235            4 
 2180000   0.91617119    -7.780455     565.2521  0.021607496   0.02126528            4 
 2181000    0.8876117    -7.802652    563.81394  0.021542639  0.021259284            5 
 2182000   0.90936058   -7.7515543    566.25534  0.021626006   0.02125331            1 
 2183000   0.89349528    -7.796965    563.64832  0.021516579  0.021247416            3 
 2184000    0.9011657   -7.7713491     565.2115  0.021566373   0.02124146            2 
 2185000   0.89704509   -7.7847509    566.02844   0.02158766  0.021235517            3 
 2186000    0.9011717   -7.8271516    565.64168  0.021563041  0.021229551            1 
 2187000   0.91364961    -7.770062     566.6749  0.021592551   0.02122361            2 
 2188000    0.9176273   -7.7758114    566.22951  0.021565719  0.021217656            4 
 2189000   0.89437911   -7.8043157    565.89588  0.021543166  0.021211712            2 
 2190000   0.89540397   -7.7839942    566.79627   0.02156759  0.021205768            2 
 2191000   0.88339974   -7.7628519    566.63834   0.02155174  0.021199871            1 
 2192000   0.90041117   -7.7844591    568.02848  0.021594757  0.021193963            2 
 2193000   0.90691359   -7.8275123     567.5768  0.021567746  0.021188063            2 
 2194000   0.90268404   -7.7899882    567.16391  0.021542233  0.021182124            1 
 2195000    0.8905008   -7.7753144    566.87104    0.0215213  0.021176237            2 
 2196000   0.89109663   -7.7809368    566.62271  0.021502076  0.021170356            2 
 2197000    0.8927608   -7.7933555    567.51074  0.021525973  0.021164436            4 
 2198000   0.91517845   -7.8094475    567.38101  0.021511261  0.021158547            3 
 2199000   0.90811676   -7.7814298    568.11491   0.02152929  0.021152639            2 
 2200000   0.89128342   -7.8085227    567.24357  0.021486499  0.021146751            2 
 2201000   0.89047473    -7.827439    567.03078   0.02146868  0.021140856            2 
 2202000   0.90855344   -7.8100164    568.64977    0.0215202  0.021134982            2 
 2203000   0.87130974   -7.8347941    569.90642  0.021557967   0.02112913            2 
 2204000    0.9028312   -7.8310944     568.3318  0.021488649  0.021123268            1 
 2205000   0.90997727   -7.8248542    570.59173  0.021564313  0.021117465            1 
 2206000   0.90122352   -7.7968916    569.72916  0.021521954  0.021111676            2 
 2207000   0.89808921   -7.7884575    569.22542  0.021493181  0.021105904            2 
 2208000   0.91264303   -7.7712797     570.5384  0.021533001  0.021100176            1 
 2209000   0.89248185    -7.816943    570.80402  0.021533274  0.021094483            1 
 2210000   0.91940036   -7.7823218    569.68138  0.021481198  0.021088788            3 
 2211000   0.90853871   -7.7921504    571.21293  0.021529207   0.02108307            6 
 2212000   0.90657607   -7.7778677    571.60645    0.0215343  0.021077394            2 
 2213000   0.90653193   -7.7511084    570.51849    0.0214836  0.021071707            1 
 2214000   0.88494602   -7.8084348     571.3661    0.0215058  0.021066009            2 
 2215000    0.9031769   -7.7921497    571.57082  0.021503793  0.021060357            2 
 2216000   0.88978854   -7.7582369    572.87907  0.021543286  0.021054706            2 
 2217000   0.89692689   -7.7880521    572.07499  0.021503345  0.021049076            2 
 2218000   0.90682479   -7.8074393    570.97737  0.021452411  0.021043389            1 
 2219000   0.90466789    -7.806956    571.89617  0.021477248  0.021037632            2 
 2220000   0.90049473     -7.78345    571.54183  0.021454273  0.021031904            1 
 2221000   0.89730349   -7.8063294    571.23056  0.021432934  0.021026145            2 
 2222000   0.87960696   -7.8033922    571.61025  0.021437528  0.021020401            2 
 2223000   0.86699782   -7.7938093    573.11445  0.021484272  0.021014654            2 
 2224000   0.88753166   -7.7620786    572.08204  0.021435928  0.021008898            4 
 2225000   0.89731138   -7.8070773    570.59185  0.021370481  0.021003119            7 
 2226000   0.90604283   -7.7838717    572.53863  0.021433761  0.020997396            1 
 2227000   0.90199012   -7.8090848    572.00757  0.021404265  0.020991694            2 
 2228000   0.89587989   -7.8008338     571.0989  0.021360671  0.020985995            2 
 2229000   0.88843614   -7.8055777     571.1326  0.021352348  0.020980221            1 
 2230000   0.90582059   -7.8384532    571.27215  0.021347988  0.020974416            2 
 2231000   0.89259392   -7.7964866    572.31695  0.021377445   0.02096869            1 
 2232000   0.88212018   -7.8040737    571.74871  0.021346651  0.020962925            2 
 2233000   0.89480064    -7.803067    571.66542  0.021333983  0.020957184            2 
 2234000   0.90252401   -7.7984142    572.87656  0.021369612  0.020951417            2 
 2235000   0.87110358   -7.7776581    573.45437  0.021381595  0.020945675            2 
 2236000   0.90579798   -7.7925903    573.20871  0.021362877  0.020939938            1 
 2237000    0.8817035   -7.8023579    573.18156  0.021352316  0.020934188            1 
 2238000   0.89689982   -7.8049183    572.78719   0.02132809  0.020928498            2 
 2239000   0.88536721   -7.8161944    573.58736  0.021348346  0.020922746            2 
 2240000   0.90297865   -7.8002705    572.93314  0.021314477  0.020917054            1 
 2241000   0.88351783   -7.8101646    574.33567   0.02135712  0.020911363            1 
 2242000   0.89376212   -7.8218747    573.96251  0.021333724  0.020905649            1 
 2243000   0.89680758   -7.8168475    573.49264  0.021306756  0.020899895            3 
 2244000   0.88557426   -7.7913678     572.8666  0.021274012  0.020894139            2 
 2245000   0.91470492    -7.795301     573.7944  0.021298975   0.02088841            3 
 2246000   0.90086694   -7.8224381    575.31166  0.021345787   0.02088266            2 
 2247000   0.90344815   -7.8181274    573.97632  0.021286764  0.020876924            1 
 2248000    0.8824838     -7.80067    574.77126  0.021306764  0.020871277            2 
 2249000   0.89128284   -7.8261284    575.12361  0.021310346  0.020865579            1 
 2250000   0.89930164   -7.7936638    577.26685  0.021380254  0.020859919            2 
 2251000   0.89572704   -7.7948136    574.64498  0.021273692  0.020854233            3 
 2252000   0.88968897       -7.813    575.43636   0.02129353  0.020848501            2 
 2253000    0.9083084   -7.7931599    576.08041  0.021307901  0.020842828            4 
 2254000   0.87760974    -7.797294    574.15665  0.021227324  0.020837213            3 
 2255000   0.88083376    -7.798467    573.60696  0.021197596  0.020831522            1 
 2256000   0.87929875   -7.8268182    575.65483  0.021263846  0.020825828            2 
 2257000   0.89225684   -7.7860029    575.54381  0.021250325  0.020820154            2 
 2258000   0.88220828   -7.8032572    575.99775  0.021257667  0.020814453            3 
 2259000   0.89477017   -7.8279549    575.26926  0.021221383  0.020808802            1 
 2260000   0.88998298   -7.8174831    575.62492  0.021225108  0.020803124            3 
 2261000   0.87625111   -7.8357391    575.41676  0.021208048  0.020797442            1 
 2262000   0.88491344   -7.8356412    574.85518  0.021177983  0.020791782            3 
 2263000   0.88646097   -7.8240255    575.63853  0.021197471  0.020786082            2 
 2264000   0.89802903   -7.8174176    576.36804   0.02121496  0.020780366            2 
 2265000    0.8936896   -7.7614769    577.54838  0.021249021  0.020774712            6 
 2266000   0.88149415   -7.8339287    575.38802  0.021160195  0.020769086            3 
 2267000   0.87857622   -7.8536321    576.17752  0.021179882  0.020763433            2 
 2268000   0.89411293   -7.8267252      576.153  0.021169643  0.020757701            4 
 2269000   0.90258871   -7.7992514    577.75052  0.021218985  0.020752025            2 
 2270000   0.91225576    -7.810615    574.94997  0.021106827  0.020746288            4 
 2271000    0.8778677   -7.8149705    576.47994  0.021153675  0.020740598            1 
 2272000   0.88196152   -7.8461594    575.68567  0.021115231  0.020734845            2 
 2273000   0.89797373   -7.8579062    575.44777   0.02109722  0.020729077            2 
 2274000   0.88481074   -7.8427909    575.87233  0.021103501  0.020723323            2 
 2275000   0.88455752   -7.8146947    577.04134  0.021137045  0.020717617            2 
 2276000   0.89401442   -7.7821518    577.65902  0.021150374  0.020711939            1 
 2277000   0.87885865   -7.8608718    576.56531  0.021101058  0.020706213            2 
 2278000   0.88383134   -7.8069712    578.09662  0.021147813    0.0207005            2 
 2279000   0.88661126   -7.8413258    575.61526  0.021047801  0.020694759            2 
 2280000   0.86814535   -7.8316672    576.62205  0.021075367  0.020689013            1 
 2281000   0.88099022   -7.8441412    577.50787   0.02109849   0.02068331            1 
 2282000   0.89696894    -7.801482    577.42308  0.021086148  0.020677621            2 
 2283000   0.88364037    -7.836069    577.34571  0.021074088  0.020671939            2 
 2284000   0.88490731   -7.8247133    577.30261  0.021063289  0.020666282            3 
 2285000   0.85318927   -7.7789374    580.15413  0.021158064  0.020660599            6 
 2286000   0.87651255   -7.8041754    577.30146  0.021044818  0.020654909            3 
 2287000   0.88842714   -7.8065353    578.26552  0.021070745  0.020649205            4 
 2288000   0.89675835   -7.8333261    577.61992  0.021038021  0.020643439            2 
 2289000   0.86858126   -7.8476801      577.466  0.021023227  0.020637703            3 
 2290000   0.88947502   -7.8326068    578.13518  0.021038398  0.020631957            1 
 2291000   0.88956697   -7.8301752      578.488  0.021042049  0.020626263            1 
 2292000    0.8892889   -7.8334345     579.7522  0.021078832  0.020620564            4 
 2293000   0.88718355   -7.8187264    580.18546  0.021085385  0.020614922            3 
 2294000   0.87800557   -7.8058291    579.47822  0.021050502  0.020609276            2 
 2295000   0.88956626   -7.8630436     577.3626   0.02096451  0.020603569            3 
 2296000   0.88633693   -7.8327427    579.10928  0.021018775  0.020597855            3 
 2297000   0.89340482   -7.8082513    579.12802  0.021010304   0.02059213            1 
 2298000   0.88738482   -7.8479058    579.09002  0.020999783  0.020586411            3 
 2299000   0.86051276   -7.8226325    579.54586  0.021007172   0.02058068            2 
 2300000   0.89791229   -7.8166719     578.6131  0.020964243  0.020575029            3 
 2301000   0.88079973   -7.8209967    579.72076  0.020995247   0.02056934            2 
 2302000   0.88567506   -7.8053202    579.84259  0.020990537  0.020563644            2 
 2303000   0.88246625   -7.8609907     579.4016  0.020965465  0.020557932            2 
 2304000    0.8930859   -7.8317967    580.49339  0.020995855  0.020552253            3 
 2305000    0.8957393   -7.8185671    579.09615  0.020936231   0.02054659            2 
 2306000     0.869635   -7.8462166    579.33726  0.020935865  0.020540917            2 
 2307000   0.87484653   -7.7979749    581.41363  0.021001793   0.02053525            3 
 2308000   0.88055209   -7.8495483    580.72304  0.020967759  0.020529653            1 
 2309000   0.88203165   -7.8462701    580.57063  0.020953177  0.020523986            1 
 2310000   0.89320563   -7.8515464    580.51533  0.020942112  0.020518342            3 
 2311000    0.8769557   -7.8091777    582.18222  0.020993157  0.020512733            1 
 2312000   0.87865875   -7.8505431    580.35819  0.020918332  0.020507109            1 
 2313000   0.88678943   -7.8494159    580.74143  0.020923095  0.020501485            5 
 2314000   0.86087388   -7.8684734    581.39075  0.020937437  0.020495847            1 
 2315000   0.87493891    -7.818832     581.6332   0.02093712  0.020490185            1 
 2316000   0.88187182   -7.8780911    580.36377  0.020882404  0.020484542            2 
 2317000   0.86857506   -7.8447445    582.32246  0.020943837  0.020478846            2 
 2318000    0.8735543   -7.7991286    582.46243  0.020939834  0.020473161            1 
 2319000   0.87684037   -7.8625726    581.32132  0.020889799  0.020467522            1 
 2320000   0.86330561   -7.8375131    582.15274  0.020910659  0.020461889            5 
 2321000   0.86755093   -7.8714018    581.66779  0.020884238   0.02045628            1 
 2322000   0.88549862   -7.7980567    581.94118  0.020885055  0.020450649            1 
 2323000   0.85955174   -7.8375944    582.14909  0.020883523  0.020445053            2 
 2324000   0.85516084   -7.8323385    582.41075   0.02088392  0.020439429            2 
 2325000    0.8991623   -7.8319775    582.64582  0.020883363  0.020433765            1 
 2326000    0.8809271   -7.8501747    581.05148  0.020817264  0.020428081            2 
 2327000   0.86651592   -7.8553083    582.53854  0.020861572  0.020422418            1 
 2328000    0.8729284   -7.8646622    581.50448  0.020815596  0.020416713            3 
 2329000   0.87004778   -7.8349281    582.00732   0.02082465  0.020411014            1 
 2330000   0.88968586   -7.8385236    581.84329  0.020809846  0.020405344            1 
 2331000   0.88060603   -7.8312159    582.74673  0.020833217  0.020399664            3 
 2332000   0.88628027   -7.8100962    582.76702  0.020825008  0.020393988            2 
 2333000   0.87816866    -7.841778    582.84091  0.020818721  0.020388338            1 
 2334000   0.89124386   -7.8508024    582.76102  0.020806949  0.020382706            1 
 2335000   0.88321584   -7.8059483    583.61333  0.020828456  0.020377055            3 
 2336000   0.88844587   -7.8519217    582.18635  0.020768634  0.020371456            3 
 2337000   0.86834628   -7.8511655    583.36984  0.020801949  0.020365818            2 
 2338000   0.87921417   -7.8301262    583.76005  0.020806959  0.020360159            4 
 2339000    0.8624033    -7.864757    584.25789    0.0208158  0.020354544            1 
 2340000   0.86549794   -7.8330578    584.52206  0.020816313  0.020348934            4 
 2341000   0.88063694   -7.8405897     582.5688   0.02073789  0.020343334            4 
 2342000   0.87656671   -7.8602226    583.37611  0.020757761  0.020337696            2 
 2343000   0.86138215   -7.8309594    582.88401  0.020731399  0.020332031            1 
 2344000   0.88210831   -7.8622523    582.68899  0.020715621  0.020326412            3 
 2345000    0.8805119   -7.8715484    583.38857  0.020731648  0.020320774            4 
 2346000   0.89286303   -7.8539585    583.16737  0.020714953  0.020315099            1 
 2347000   0.88016276    -7.867052      584.944  0.020769209  0.020309385            1 
 2348000   0.86599844   -7.8712344    583.52507  0.020710004  0.020303686            2 
 2349000   0.86072963   -7.8475844    582.41654  0.020661861   0.02029799            1 
 2350000   0.89020126    -7.833712    585.36672  0.020757685   0.02029229            2 
 2351000   0.87535366   -7.8507828    583.52812  0.020683685  0.020286675            1 
 2352000   0.87739017   -7.8466968    584.20704  0.020698946  0.020280988            1 
 2353000   0.86042645    -7.811083      584.783  0.020710547  0.020275328            1 
 2354000   0.87307897   -7.8538382    584.43754  0.020689519  0.020269628            3 
 2355000   0.87315317   -7.8385673    584.72077  0.020690756  0.020263935            2 
 2356000   0.90683851   -7.8716935    583.40049  0.020635275  0.020258239            2 
 2357000   0.86778059   -7.8423771    583.82894  0.020641668  0.020252528            1 
 2358000   0.87884578   -7.8527623    586.54352  0.020728849  0.020246829            4 
 2359000   0.86062958   -7.8479227    584.98291  0.020664933   0.02024114            1 
 2360000   0.89207522   -7.8573905    584.28194  0.020631424  0.020235493            5 
 2361000   0.85320652   -7.8309273    585.48432  0.020665125  0.020229851            6 
 2362000   0.87723278   -7.8524035    585.20067  0.020646368  0.020224174            2 
 2363000   0.87844546   -7.8287639    583.71463  0.020585225  0.020218467            3 
 2364000   0.87064111   -7.8514522    586.07816  0.020659834  0.020212739            3 
 2365000   0.88636178    -7.859344    586.52979  0.020667012  0.020207038            1 
 2366000   0.86911844   -7.8237844    584.13191   0.02057382  0.020201316            4 
 2367000   0.87774515   -7.8659959    584.70059  0.020585149  0.020195589            2 
 2368000   0.87653543   -7.8706528    585.18574   0.02059353  0.020189824            1 
 2369000   0.87964845   -7.8867794    585.96589   0.02061228  0.020184085            1 
 2370000    0.8612511   -7.8705915    584.76198  0.020561251  0.020178342            1 
 2371000   0.86240112   -7.8853314    583.31559  0.020501743  0.020172539            1 
 2372000   0.86796429   -7.8753959    585.45286  0.020568186  0.020166778            1 
 2373000   0.85490794   -7.8532408    585.53532  0.020562415  0.020161058            2 
 2374000   0.85760414   -7.8434249    585.74037  0.020560951  0.020155362            1 
 2375000   0.88565472   -7.8503432    586.17799  0.020567649  0.020149669            3 
 2376000   0.86648601   -7.8756563    584.82791  0.020511641  0.020143978            2 
 2377000   0.89726684   -7.8540739    584.50367  0.020491644   0.02013824            3 
 2378000   0.84879707   -7.8726264    585.44779  0.020516113  0.020132526            2 
 2379000   0.88355089   -7.8649178    586.84854  0.020556555  0.020126848            1 
 2380000   0.86084602   -7.8190699    585.16179  0.020488858  0.020121123            2 
 2381000   0.86903009   -7.8598324     586.5631  0.020529298  0.020115388            2 
 2382000   0.89705736   -7.8644239    586.88969  0.020532105  0.020109707            1 
 2383000   0.87264138   -7.8722594    586.37344  0.020505436  0.020103971            2 
 2384000   0.88267641   -7.8641405    586.01668  0.020484364   0.02009826            2 
 2385000   0.87112641   -7.8407901    586.66894  0.020498565  0.020092519            4 
 2386000   0.86184524   -7.8428612    587.31586  0.020512568  0.020086822            1 
 2387000   0.87039437   -7.8538817    585.38432  0.020436542    0.0200811            2 
 2388000   0.86313682    -7.854431    587.01888  0.020485025  0.020075327            1 
 2389000   0.87989013   -7.8857135    585.51407  0.020423959  0.020069533            3 
 2390000   0.85468283   -7.8304714    585.40865  0.020411738  0.020063721            2 
 2391000   0.87161709   -7.8589785    585.03589  0.020390209  0.020057921            2 
 2392000   0.85935529   -7.8742486     585.5698  0.020400286   0.02005209            2 
 2393000     0.865648   -7.8530727    586.68392  0.020430559   0.02004627            2 
 2394000   0.87474006   -7.8654007    586.01313  0.020398675   0.02004043            2 
 2395000   0.87258868   -7.9000207    585.03771  0.020356218  0.020034603            2 
 2396000   0.88328039   -7.9105213     585.8444  0.020375779   0.02002873            4 
 2397000    0.8694153   -7.9100678     584.7169   0.02032808  0.020022845            4 
 2398000   0.86542853    -7.859617    586.88008  0.020394776  0.020016964            4 
 2399000   0.86201267    -7.862318    585.55784  0.020340345  0.020011113            2 
 2400000   0.84365339   -7.8186161    586.96886  0.020380863  0.020005267            4 
 2401000   0.87068689   -7.8673356    585.63534  0.020326091  0.019999412            4 
 2402000    0.8749608   -7.8551633    586.03026   0.02033133  0.019993533            1 
 2403000   0.85747822   -7.8949918    585.14507  0.020292172  0.019987687            1 
 2404000   0.87470055   -7.8601508    587.49783  0.020365288  0.019981861            2 
 2405000   0.86846728   -7.8534396    586.35175  0.020317108  0.019976045            1 
 2406000   0.86540129    -7.868124     586.1277  0.020300904  0.019970262            5 
 2407000   0.85130476   -7.8786268    586.59375  0.020308605  0.019964416            2 
 2408000   0.85374584   -7.8701245    587.39612  0.020327939  0.019958602            2 
 2409000   0.87066155   -7.8499818     586.2982  0.020281521  0.019952739            2 
 2410000   0.83438956   -7.8750031    586.21565  0.020270251  0.019946892            2 
 2411000   0.87490501   -7.8853363    586.11792  0.020258466  0.019941028            3 
 2412000    0.8649176   -7.8489963    586.62127  0.020267457  0.019935221            2 
 2413000   0.84604254   -7.8876451    587.91562  0.020303758   0.01992936            2 
 2414000   0.87422349   -7.8538457    587.71934  0.020288572  0.019923483            2 
 2415000   0.87587945    -7.883396    587.52075  0.020273318  0.019917697            1 
 2416000   0.86916996   -7.8825006    586.22531  0.020220244  0.019911845            2 
 2417000   0.87547595   -7.8678542    588.31725  0.020284004  0.019906006            2 
 2418000   0.84726023   -7.8472364    588.80693  0.020292491  0.019900178            2 
 2419000   0.86500615    -7.897501    587.73948  0.020247329  0.019894334            3 
 2420000   0.85893259   -7.8989535    587.09502  0.020216771   0.01988846            3 
 2421000    0.8518469   -7.8744761    587.98335  0.020238997  0.019882618            1 
 2422000   0.85842687   -7.8377972    588.76881  0.020257666  0.019876804            2 
 2423000   0.88476178   -7.8522361    588.83922  0.020251727  0.019871021            2 
 2424000   0.86041029   -7.8475432    590.09299  0.020286475  0.019865236            2 
 2425000    0.8733927   -7.8832646    587.69751  0.020195791  0.019859452            1 
 2426000   0.87536939   -7.8812883    587.13546  0.020168159  0.019853638            3 
 2427000   0.85658809   -7.8626877    587.98324  0.020188959  0.019847818            8 
 2428000   0.85731834   -7.8672205    588.56787  0.020200709  0.019842021            2 
 2429000   0.85555802   -7.8836181    587.43025  0.020153364  0.019836217            2 
 2430000   0.85853677   -7.9018378    587.90254  0.020161267  0.019830331            2 
 2431000   0.87297045   -7.8916583    588.22164  0.020163912  0.019824455            2 
 2432000   0.84675541   -7.9055916    587.14098  0.020118592  0.019818578            3 
 2433000   0.85144399   -7.8875417    588.15383  0.020145014  0.019812706            2 
 2434000   0.86342468   -7.8838507    588.51568  0.020149126  0.019806874            2 
 2435000   0.86369651   -7.8539085    588.75699   0.02014911  0.019801042            2 
 2436000   0.87469468   -7.8646996    589.95463  0.020181809  0.019795235            3 
 2437000   0.84877535   -7.8954192    587.75664  0.020098367  0.019789427            2 
 2438000   0.85323827   -7.8738886    589.87061  0.020162381  0.019783559            2 
 2439000   0.86985174   -7.9031243    587.91738  0.020087378   0.01977771            2 
 2440000   0.86027831   -7.9070836    587.70611   0.02007193  0.019771841            3 
 2441000   0.86730773   -7.8874743    588.88515  0.020103959  0.019765996            1 
 2442000   0.85135916   -7.8856865    589.39518  0.020113131   0.01976019            2 
 2443000   0.86914864   -7.8809453    590.47442  0.020141712  0.019754345            1 
 2444000   0.86251036   -7.8863424    589.56768  0.020102553  0.019748549            3 
 2445000   0.85932286   -7.8982045    589.36908  0.020087562  0.019742724            2 
 2446000   0.85898871   -7.9029577    589.46046  0.020082463   0.01973691            1 
 2447000   0.86028393   -7.8965727     590.7812  0.020119234  0.019731111            2 
 2448000   0.85361689   -7.8881849    590.50993  0.020101781  0.019725276            2 
 2449000   0.85900384   -7.8989482    589.71239  0.020066435  0.019719457            1 
 2450000   0.84799085   -7.8830026    590.05493  0.020069896  0.019713687            3 
 2451000   0.84803632   -7.8881501    590.98173  0.020093218  0.019707889            2 
 2452000    0.8631995   -7.8806478     590.8361  0.020080074   0.01970206            1 
 2453000   0.84605598   -7.9171844    589.29146  0.020019414  0.019696193            2 
 2454000     0.844674   -7.8940289    588.52702  0.019985297  0.019690317            3 
 2455000   0.85662735   -7.8950327    591.03812  0.020062394  0.019684424            3 
 2456000   0.86389465   -7.8916426    591.89034  0.020083141  0.019678555            2 
 2457000   0.85821392   -7.8842282    589.31414  0.019987591   0.01967273            2 
 2458000   0.86073317   -7.8939811    589.11289  0.019972637   0.01966687            2 
 2459000   0.84580373   -7.8989794    590.22581   0.02000223  0.019661019            2 
 2460000    0.8462031   -7.8815826    589.56629  0.019971758  0.019655122            2 
 2461000   0.83894974   -7.8853428    589.91966  0.019975608  0.019649255            2 
 2462000   0.88912393   -7.8837943    590.15639  0.019975508  0.019643367            2 
 2463000    0.8447255   -7.9100312     589.4871  0.019944752  0.019637478            2 
 2464000   0.84760834   -7.9403399    590.14962  0.019959065  0.019631556            2 
 2465000   0.87297791   -7.9392126    589.89342  0.019942306  0.019625653            1 
 2466000   0.84828608   -7.9620961    589.78884  0.019930685  0.019619789            3 
 2467000   0.85556916    -7.892885    590.21977  0.019937163  0.019613921            2 
 2468000   0.85555789    -7.887091    590.76352  0.019947444  0.019608086            3 
 2469000   0.84921893   -7.9252002     589.6651  0.019902292  0.019602212            2 
 2470000   0.86072678   -7.9107316    590.60791  0.019926043  0.019596343            2 
 2471000   0.85492673   -7.9095121    589.59533   0.01988383  0.019590484            1 
 2472000   0.86449324   -7.8988031     589.1634  0.019861226  0.019584589            2 
 2473000   0.85287202      -7.8755    591.48711  0.019931497  0.019578751            2 
 2474000   0.84391486   -7.8759474     590.9944  0.019906844    0.0195729            1 
 2475000   0.84943948   -7.8940682    589.83864  0.019859887   0.01956701            1 
 2476000   0.87411725   -7.8966348    590.75659  0.019882761  0.019561116            7 
 2477000   0.85442672   -7.8737288    589.97488  0.019848435  0.019555203            1 
 2478000   0.85828933   -7.9251071    590.79327  0.019867947  0.019549315            1 
 2479000   0.88564365   -7.9288426    589.76315  0.019825304  0.019543398            2 
 2480000   0.85091754   -7.9044315    589.61978  0.019812493  0.019537426            3 
 2481000   0.86214825   -7.9141333    590.67234  0.019839861   0.01953147            2 
 2482000   0.85029651   -7.9154707     591.0176   0.01984346  0.019525531            2 
 2483000   0.85405516   -7.9184115    590.62462  0.019822279  0.019519588            2 
 2484000   0.87048889   -7.9214037    590.12958  0.019797691  0.019513727            2 
 2485000   0.85841208   -7.9082636    592.15774  0.019857738  0.019507874            8 
 2486000   0.83606298   -7.9175232    591.96181  0.019843182  0.019502002            3 
 2487000   0.86509044   -7.8946225    592.50831  0.019853515  0.019496152            2 
 2488000    0.8290202   -7.9097857    592.37934  0.019841216    0.0194903            1 
 2489000   0.85942779   -7.9081107    591.74172  0.019811896  0.019484485            1 
 2490000   0.87188204   -7.8992407    592.39408  0.019825772  0.019478676            2 
 2491000   0.85065181   -7.9125318    591.59038  0.019790927  0.019472839            1 
 2492000   0.86926342   -7.9061562    591.93555  0.019794528  0.019466988            3 
 2493000   0.83669474   -7.8960476    591.82542  0.019782906  0.019461136            1 
 2494000   0.86163611    -7.903813    592.79566  0.019807393  0.019455276            2 
 2495000   0.85222749   -7.9203776    592.27409  0.019782034  0.019449443            2 
 2496000   0.85755127   -7.9127807    591.89621  0.019761492  0.019443625            2 
 2497000   0.84402225   -7.9105833    593.25136  0.019798804  0.019437855            3 
 2498000   0.82923585   -7.9134801    591.33985   0.01972711  0.019432012            1 
 2499000   0.87217079   -7.9209865    591.87003  0.019736896  0.019426154            2 
 2500000   0.86314142   -7.8991087    593.19744  0.019773248  0.019420306            2 
 2501000   0.87111042   -7.9079263    592.89262  0.019755185  0.019414473            3 
 2502000   0.82977337    -7.913979    592.77452  0.019743356  0.019408624            2 
 2503000   0.85016328   -7.8980805    593.28114  0.019752335  0.019402815            3 
 2504000   0.83902634   -7.9228251    591.89673  0.019698374  0.019396978            1 
 2505000   0.84627007   -7.9079713    593.03589  0.019728406   0.01939112            6 
 2506000     0.863651   -7.9341552    591.94672  0.019684315  0.019385295            3 
 2507000    0.8365393   -7.9079436    593.20783  0.019718383  0.019379489            2 
 2508000    0.8520142   -7.9044654    592.29058  0.019680043  0.019373679            5 
 2509000   0.86517585   -7.8810257    594.10683  0.019732524  0.019367887            5 
 2510000   0.84653558   -7.8935987     593.5064  0.019704728  0.019362103            3 
 2511000   0.85446698   -7.9016638    593.91303  0.019710375  0.019356294            2 
 2512000   0.84360552   -7.8893607    593.94779  0.019703682  0.019350469            2 
 2513000    0.8398828   -7.9012414    592.99254  0.019664164  0.019344651            2 
 2514000   0.84288352   -7.9103135    594.59633  0.019709505  0.019338842            2 
 2515000   0.84665354   -7.9046536    593.14386  0.019653541  0.019333027            1 
 2516000    0.8618219   -7.9450668    594.34031  0.019685357  0.019327179            3 
 2517000   0.84359791   -7.9408449    592.27961  0.019609311  0.019321345            2 
 2518000   0.83432095   -7.9340873    593.66535  0.019647384  0.019315492            2 
 2519000   0.83542014   -7.9253038    593.37277  0.019629905  0.019309656            1 
 2520000   0.84683944   -7.9294704    593.63953  0.019630937   0.01930384            2 
 2521000   0.85783146   -7.9474859    592.94133   0.01960007  0.019297995            1 
 2522000   0.84455898   -7.9463619    594.52437  0.019644607   0.01929215            3 
 2523000     0.844957   -7.9475711    593.99889  0.019619464  0.019286303            1 
 2524000   0.86056161   -7.9306593    594.43005  0.019625926   0.01928046            3 
 2525000   0.86656594   -7.9023722    595.85424  0.019665157  0.019274621            2 
 2526000   0.84840943   -7.9192887    594.39686  0.019609292  0.019268765            2 
 2527000   0.83664952   -7.9304317    594.26178  0.019597078  0.019262913            2 
 2528000   0.84287632   -7.9336039    592.52338  0.019532021  0.019257086            2 
 2529000   0.82914481   -7.9321644    593.53673  0.019557688  0.019251231            1 
 2530000   0.85436545   -7.9360054    594.82193   0.01959229  0.019245367            2 
 2531000   0.85029303   -7.9262804    593.18466  0.019530642  0.019239514            1 
 2532000   0.85673207    -7.944315    594.09528  0.019552899  0.019233618            2 
 2533000   0.86252991    -7.935396    594.12045  0.019546008  0.019227737            1 
 2534000   0.86763602   -7.9216477    594.18879  0.019540542  0.019221836            2 
 2535000     0.844382    -7.933136    594.02727  0.019527524  0.019215961            4 
 2536000   0.84848633   -7.9183752    594.79639  0.019545097  0.019210128            1 
 2537000   0.82397389   -7.9118192    595.09485  0.019547197  0.019204281            4 
 2538000   0.84638657    -7.944792    593.73817  0.019494949  0.019198463            1 
 2539000   0.83078521   -7.9165914    594.09682  0.019499042  0.019192602            2 
 2540000   0.84888785   -7.9174173    594.82765  0.019515343  0.019186789            1 
 2541000   0.84220865   -7.9403838    595.07513  0.019515779  0.019180966            2 
 2542000   0.84856069   -7.9335603    595.67765  0.019527854  0.019175123            2 
 2543000   0.84029071   -7.9432387      594.534  0.019482698  0.019169268            3 
 2544000   0.84426978   -7.9560888    596.09344  0.019526122  0.019163425            2 
 2545000   0.85251534    -7.942796    595.67601  0.019504781  0.019157554            1 
 2546000   0.83438452   -7.9571821    593.55526  0.019427706  0.019151705            1 
 2547000   0.86140489   -7.9582312    595.42818  0.019481356  0.019145843            3 
 2548000   0.81244062   -7.9472499    596.65386  0.019513797  0.019139989            2 
 2549000   0.83310548   -7.9529277    595.17582  0.019457821  0.019134176            3 
 2550000   0.81928892   -7.9356444    594.41161  0.019425216  0.019128294            6 
 2551000   0.83473497   -7.9069677    594.69974  0.019427014   0.01912245            2 
 2552000   0.83744808   -7.9489551    592.95605  0.019362462  0.019116591            1 
 2553000   0.86704899   -7.9606227    595.25379   0.01942988  0.019110745            2 
 2554000    0.8668656   -7.9279384    596.47312  0.019462057  0.019104931            1 
 2555000   0.85824376   -7.9007953    596.47542  0.019454515  0.019099122            2 
 2556000   0.83587906    -7.909818    597.90472  0.019493503  0.019093329            2 
 2557000   0.84076013   -7.9302125    595.29605  0.019400862  0.019087533            2 
 2558000   0.84145886    -7.944578    596.44583  0.019430735   0.01908176            1 
 2559000   0.84415117   -7.9064496    596.83847  0.019435928  0.019075994            2 
 2560000   0.83585214   -7.9262153    597.21291  0.019440524   0.01907024            2 
 2561000   0.84851228   -7.9182475    596.66289  0.019415036   0.01906446            2 
 2562000   0.84192952   -7.8933165    596.85374  0.019413666  0.019058693            2 
 2563000   0.82850478    -7.890818    598.95189   0.01947431  0.019052969            1 
 2564000   0.86523732   -7.9201522    596.00494  0.019370935  0.019047195            1 
 2565000   0.83911592   -7.9517853    596.96262  0.019394497  0.019041461            2 
 2566000   0.86061079   -7.9428684    596.86153  0.019383656  0.019035704            4 
 2567000   0.83303972   -7.9667276    597.14456  0.019385293  0.019029934            1 
 2568000   0.83283653   -7.9383678    597.70974  0.019396085  0.019024125            2 
 2569000   0.83137265   -7.9365804     597.7255  0.019389046   0.01901839            2 
 2570000   0.85262492   -7.9310964    598.42905  0.019404314  0.019012677            2 
 2571000   0.83438588   -7.9461826    597.27208  0.019359266  0.019006968            2 
 2572000   0.85532878   -7.9575183    598.48678  0.019391096  0.019001273            1 
 2573000   0.82601804   -7.9152786    598.11961  0.019371668  0.018995584            3 
 2574000   0.84536773   -7.9574486    597.46827  0.019343055   0.01898989            1 
 2575000   0.83419072   -7.9558299    597.59288  0.019339576  0.018984179            4 
 2576000   0.86010175    -7.921032    597.83469   0.01933989  0.018978476            2 
 2577000   0.83777087   -7.9470283    599.24155   0.01937788  0.018972784            2 
 2578000   0.83367194   -7.9586025     599.0348   0.01936368  0.018967078            4 
 2579000   0.87344019   -7.9623386    598.36926  0.019334667  0.018961385            3 
 2580000   0.82724204   -7.9518585    597.61975  0.019302964  0.018955687            2 
 2581000    0.8616027   -7.9654541    598.42137  0.019321367  0.018950005            1 
 2582000   0.83317396   -7.9356401    600.27003  0.019373549  0.018944303            3 
 2583000    0.8442949   -7.9716961    597.64934  0.019281499  0.018938581            7 
 2584000   0.82314749   -7.9416165    597.95157  0.019283784  0.018932846            2 
 2585000   0.84237918   -7.9265014     598.5435  0.019295406  0.018927157            1 
 2586000   0.81955185   -7.9105971    600.78604   0.01936021  0.018921445            3 
 2587000   0.82504922   -7.9613492    598.69415  0.019285342  0.018915777            2 
 2588000   0.84888838   -7.9464908    599.45842  0.019302499  0.018910076            1 
 2589000   0.83732233   -7.9513546    599.49383  0.019296183  0.018904355            4 
 2590000   0.84170902   -7.9405804     599.4282  0.019286622  0.018898713            2 
 2591000   0.84781933   -7.9514291    599.36544  0.019277159  0.018893029            1 
 2592000   0.83079631   -7.9626538     597.0792  0.019196219  0.018887325            1 
 2593000   0.83236514   -7.9485597    599.39738  0.019263317  0.018881602            1 
 2594000   0.85402794   -7.9716572    599.60467  0.019262551  0.018875912            1 
 2595000    0.8525292   -7.9277306    598.84221  0.019230643   0.01887024            1 
 2596000   0.83139733   -7.9562338    600.24404  0.019268234  0.018864556            2 
 2597000   0.85084297   -7.9301011    599.13783  0.019225319  0.018858904            1 
 2598000   0.82569532   -7.9221397    599.97911  0.019244903  0.018853257            2 
 2599000   0.85360784   -7.9259415    600.32375  0.019248549  0.018847609            2 
 2600000   0.83782843   -7.9553683    599.66371  0.019219991  0.018841913            1 
 2601000   0.82401283   -7.9540889    598.27875  0.019168229    0.0188362            2 
 2602000   0.82461312   -8.0102372    596.65444  0.019108841  0.018830439            1 
 2603000   0.83010398   -7.9774415    598.07519  0.019146984  0.018824641            2 
 2604000   0.82125542   -7.9695589    599.37743  0.019181305  0.018818883            2 
 2605000   0.81790379   -7.9875747    599.38401  0.019174152  0.018813107            4 
 2606000    0.8470329   -7.9526572    599.62561  0.019174521  0.018807355            3 
 2607000   0.81987668   -7.9745136    599.55483  0.019164903   0.01880162            2 
 2608000   0.84353933   -7.9875123    600.45504  0.019186319  0.018795909            2 
 2609000   0.82672776   -7.9299738    601.20633  0.019202962   0.01879021            2 
 2610000   0.81754428   -7.9941505    599.26604  0.019133654  0.018784468            1 
 2611000   0.85453621   -7.9750201    598.98583  0.019117383  0.018778712            2 
 2612000   0.83074144   -7.9744776    599.21516   0.01911738  0.018772955            1 
 2613000   0.82816617   -7.9933724    598.07623  0.019073741  0.018767184            3 
 2614000   0.83216464   -7.9741593    599.06796   0.01909806  0.018761436            2 
 2615000   0.83639317   -7.9676328    599.85472  0.019115829   0.01875569            2 
 2616000   0.82302354   -7.9771744    599.32779  0.019091736   0.01874992            3 
 2617000   0.82070528   -7.9998662    598.10046  0.019045359   0.01874415            4 
 2618000   0.83866412     -7.96977    599.52009  0.019083273  0.018738405            4 
 2619000   0.84867658   -7.9783174    600.43273  0.019105025  0.018732693            2 
 2620000   0.83399424    -7.985291    601.12994  0.019119909  0.018726951            1 
 2621000   0.82726328   -7.9873023     600.6447  0.019097186  0.018721224            1 
 2622000   0.81656215   -7.9683459    601.04565  0.019102646    0.0187155            1 
 2623000   0.82872261   -7.9979855    599.07319  0.019032698  0.018709753            1 
 2624000   0.83125153   -7.9663303     600.4242   0.01906835  0.018704058            3 
 2625000   0.82282684   -7.9768858    601.77853   0.01910408  0.018698346            1 
 2626000     0.825226   -7.9642598    600.55725  0.019058049  0.018692644            1 
 2627000   0.81474448   -7.9462722    601.34134  0.019075668  0.018686974            3 
 2628000    0.8341718   -7.9449896    601.20122  0.019063966  0.018681287            2 
 2629000   0.81281883   -7.9397721    601.21735  0.019057226  0.018675597            2 
 2630000   0.86378999   -7.9666226     601.3901  0.019055453  0.018669919            3 
 2631000   0.83966468   -7.9853134     599.1453  0.018977109  0.018664243            2 
 2632000   0.83616889   -7.9809181    600.72414  0.019019888  0.018658554            3 
 2633000   0.84170932   -7.9876838    601.53793   0.01903842  0.018652866            2 
 2634000   0.83290906   -7.9856879    601.05616  0.019015951  0.018647208            4 
 2635000   0.83114059   -7.9769294    599.77187  0.018968117  0.018641516            4 
 2636000    0.8400865   -8.0006128    601.55231  0.019017208  0.018635822            1 
 2637000   0.81773166   -7.9868834    602.61314   0.01904352  0.018630159            1 
 2638000    0.8379929   -7.9706199    602.15163  0.019021722  0.018624489            1 
 2639000   0.82872756   -7.9668182    601.62561  0.018997903  0.018618777            2 
 2640000   0.83021497   -7.9584691    603.22385  0.019041157  0.018613129            1 
 2641000   0.83870743   -7.9725317    603.36971  0.019038549  0.018607493            2 
 2642000   0.81053791    -7.968618    603.06117  0.019021611  0.018601875            2 
 2643000   0.81355636   -7.9560801    601.97366  0.018980126  0.018596204            1 
 2644000   0.82831816   -7.9927347    601.40249  0.018954945  0.018590553            5 
 2645000   0.83776369   -7.9601328    604.08252  0.019032215  0.018584897            2 
 2646000   0.81160264   -7.9739205    601.04863  0.018929473  0.018579237            5 
 2647000   0.81457834   -7.9819569    602.48746  0.018967619  0.018573578            2 
 2648000   0.81788533    -7.958656    603.28641  0.018985599   0.01856792            2 
 2649000   0.82589466   -7.9401967     603.5929  0.018988074  0.018562263            2 
 2650000   0.82066426   -7.9843024    602.17836  0.018936426  0.018556648            4 
 2651000   0.83698978   -7.9682219    602.90561  0.018952144  0.018551022            1 
 2652000   0.81937748   -7.9951599     603.0968  0.018951006   0.01854537            1 
 2653000   0.81667845   -7.9636525    602.57749   0.01892755  0.018539702            3 
 2654000   0.83870062   -7.9895168    602.86037  0.018929301  0.018534013            4 
 2655000   0.82658511   -7.9864743    600.55561  0.018849831   0.01852828            3 
 2656000   0.82038242   -7.9840723    601.84515  0.018883194  0.018522536            2 
 2657000   0.81863976    -7.940168    602.24072  0.018888493  0.018516829            4 
 2658000   0.86116824   -7.9702956    601.43688  0.018856185   0.01851113            2 
 2659000    0.7993042   -7.9834293     602.2972  0.018876056  0.018505405            9 
 2660000   0.82617212   -7.9928743    601.69339  0.018850044  0.018499654            5 
 2661000   0.80438796   -7.9870567    601.47256  0.018836044  0.018493934            4 
 2662000   0.82242119   -7.9861147    600.46561  0.018797446  0.018488176            2 
 2663000   0.80320771   -7.9738404    600.50181   0.01879152   0.01848245            2 
 2664000   0.82890374   -8.0005651    601.62915  0.018819731  0.018476698            3 
 2665000   0.82597281   -8.0253257    600.60481  0.018780638  0.018470945            1 
 2666000   0.84460873   -7.9863961    602.80106  0.018842244  0.018465205            3 
 2667000   0.83988469   -7.9730642    602.77331  0.018834312   0.01845951            2 
 2668000   0.82939987    -7.997912    601.67235  0.018792864  0.018453781            1 
 2669000   0.82541316   -7.9709935    602.25112  0.018803894  0.018448086            1 
 2670000    0.8137893   -7.9612929    603.10916  0.018823632  0.018442405            1 
 2671000    0.8298479   -7.9731069    603.24019  0.018820672  0.018436757            2 
 2672000   0.80964905   -8.0045755    603.36181  0.018817422  0.018431081            2 
 2673000   0.81214571   -7.9689064    603.56654  0.018816765  0.018425378            1 
 2674000   0.81401059    -8.013341    602.19339  0.018766934  0.018419646            1 
 2675000   0.82513153   -7.9904935    603.55358  0.018802292  0.018413925            7 
 2676000   0.84803588   -8.0053772    603.92569  0.018806854  0.018408231            1 
 2677000   0.82252333   -7.9967331    603.81053  0.018796243   0.01840253            1 
 2678000   0.81573854   -8.0118081    602.84934  0.018759315  0.018396854            3 
 2679000   0.84421166   -7.9984363    602.60683  0.018744769  0.018391178            2 
 2680000    0.8349332   -8.0236192    602.38429  0.018730855  0.018385484            2 
 2681000   0.84820575   -8.0180464    602.92215  0.018740586  0.018379794            4 
 2682000   0.82167459   -7.9643251    604.16616  0.018772252  0.018374072            2 
 2683000   0.82918898   -8.0164792    603.47731   0.01874386  0.018368339            1 
 2684000   0.82539206   -8.0018533    602.27148  0.018699438  0.018362628            1 
 2685000   0.81754287   -7.9884051     603.4684  0.018729621  0.018356947            1 
 2686000   0.82757571    -7.996387    604.03125  0.018740111  0.018351269            2 
 2687000   0.83368614   -7.9771186    604.72789  0.018754742  0.018345614            1 
 2688000   0.82763136   -7.9962886    603.74202    0.0187172  0.018339972            1 
 2689000   0.83617335   -7.9812584    603.97127  0.018717344  0.018334266            2 
 2690000   0.81265471   -7.9730373    603.03769  0.018681465   0.01832864            2 
 2691000   0.82639984   -7.9640175    604.82768  0.018729954  0.018322961            4 
 2692000   0.81545964    -7.976851    603.32929  0.018676613  0.018317312            3 
 2693000   0.81683972   -7.9959616    603.85845  0.018686052  0.018311632            1 
 2694000   0.82818076   -8.0031056    603.55795   0.01866982  0.018305954            1 
 2695000   0.83900862   -7.9859351    603.03564  0.018646742   0.01830027            2 
 2696000   0.81158809   -7.9838934    604.15427  0.018674403  0.018294579            3 
 2697000   0.81771171    -7.965155    604.71712   0.01868487  0.018288873            2 
 2698000   0.80599219     -7.97468    603.84168  0.018650905  0.018283204            1 
 2699000   0.82291493   -7.9731766     602.8759  0.018614175   0.01827751            1 
 2700000   0.82763679   -7.9927378    603.55309  0.018628182  0.018271775            5 
 2701000   0.84040168   -8.0006563    603.89923  0.018631964   0.01826606            2 
 2702000   0.81007741   -7.9949123    604.13024  0.018632193   0.01826033            2 
 2703000   0.82125931   -7.9837141    604.78195  0.018645392  0.018254586            1 
 2704000   0.83167768   -8.0172767      603.275  0.018592055  0.018248843            6 
 2705000   0.82849392   -7.9885498    603.54582  0.018593525  0.018243102            3 
 2706000   0.82525176   -8.0408285    603.16379  0.018574889  0.018237335            2 
 2707000   0.81745149   -8.0350418    604.40297  0.018606175  0.018231565            1 
 2708000   0.81878557    -8.012238    601.66704  0.018515111  0.018225817            1 
 2709000   0.82673454   -8.0107321    603.13294   0.01855337  0.018220072            4 
 2710000   0.81128728   -8.0054291    602.94659  0.018540793  0.018214315            6 
 2711000   0.82559058   -8.0374106    602.51664  0.018520738  0.018208555            2 
 2712000   0.81738987   -8.0035363    604.43863  0.018572967  0.018202817            1 
 2713000    0.8129714   -8.0060727    603.21749  0.018528612  0.018197036            2 
 2714000   0.82783753   -8.0420642    601.62899   0.01847301  0.018191241            1 
 2715000   0.81559516   -8.0151709    602.92403  0.018505956  0.018185428            1 
 2716000   0.82961427   -8.0188049    602.87765  0.018497719  0.018179618            4 
 2717000   0.82213665   -8.0156431    602.20998  0.018470432  0.018173811            1 
 2718000   0.81791031    -8.014052    604.40935  0.018531069  0.018168024            1 
 2719000   0.79997299   -8.0159297    604.14743  0.018516226  0.018162249            1 
 2720000   0.83325988   -8.0465819    604.18634  0.018510611  0.018156478            3 
 2721000   0.82339214   -8.0242382    603.97768  0.018497417  0.018150728            1 
 2722000   0.81209674   -8.0280052    602.76103  0.018453375  0.018144994            4 
 2723000   0.82899076   -7.9871013    603.93164  0.018482423  0.018139256            2 
 2724000   0.81716116   -8.0105855    604.82216   0.01850288  0.018133531            1 
 2725000   0.81404081   -8.0139429    604.55834  0.018488023  0.018127799            3 
 2726000   0.80523182    -8.006652    603.46544  0.018447831  0.018122093            2 
 2727000   0.80837077   -8.0001912    603.91933  0.018454936  0.018116383            2 
 2728000   0.80378066   -8.0233771    603.38642  0.018431892   0.01811063            1 
 2729000   0.81439269   -8.0402535    603.50216  0.018428672   0.01810487            1 
 2730000   0.83213161   -8.0132731    603.60679  0.018425116  0.018099113            1 
 2731000   0.82019217   -8.0109471    604.90726  0.018458052  0.018093361            3 
 2732000   0.83379596   -8.0258415    604.96447   0.01845304  0.018087607            5 
 2733000   0.81275658   -8.0472514    603.79652  0.018410676  0.018081852            2 
 2734000   0.82775846   -8.0194751     604.3122   0.01841966  0.018076101            2 
 2735000   0.83321344   -8.0294409    605.12739  0.018437763  0.018070366            2 
 2736000   0.80973158   -8.0379269    603.72842  0.018388414  0.018064625            4 
 2737000   0.80029407   -8.0363775    604.17585  0.018395319  0.018058874            1 
 2738000   0.82781022   -8.0237602    604.57422  0.018400725  0.018053149            1 
 2739000   0.80664839   -8.0198893    603.21758  0.018352731  0.018047413            2 
 2740000   0.81927422   -8.0175793    603.30694  0.018348751  0.018041686            2 
 2741000   0.80057703   -7.9995752    605.30796  0.018402893  0.018035967            3 
 2742000   0.82000832   -8.0265634    605.13132  0.018390813  0.018030255            1 
 2743000   0.80574558   -8.0441709    604.55789  0.018366688  0.018024545            3 
 2744000   0.81008154    -8.019199    606.20312  0.018409959  0.018018826            5 
 2745000   0.80773468   -8.0444541    604.15795  0.018341164  0.018013105            3 
 2746000   0.80830861   -7.9936493    606.53025  0.018406478  0.018007367            2 
 2747000   0.81013114   -8.0084445    605.71384   0.01837501  0.018001686            2 
 2748000   0.81914218    -7.978294     605.7347  0.018368956  0.017996004            2 
 2749000   0.77829612   -8.0193026    606.41662  0.018382946  0.017990295            2 
 2750000   0.79440497   -8.0247307    606.06462  0.018365595  0.017984576            2 
 2751000   0.82459439   -7.9734482    606.61217  0.018375505  0.017978933            3 
 2752000    0.7919118   -8.0069991    605.02432  0.018320746   0.01797326            1 
 2753000   0.81191536   -8.0097118    607.41002  0.018386306  0.017967584            1 
 2754000   0.81591657   -8.0024932    606.77653  0.018360461  0.017961913            2 
 2755000   0.81998971   -8.0325454    605.43074   0.01831309  0.017956199            4 
 2756000   0.81119496   -8.0053243    605.49511  0.018308391   0.01795054            2 
 2757000   0.82683332   -8.0478363    605.44626  0.018300274  0.017944855            2 
 2758000   0.81679577   -8.0262245    605.16486  0.018285136  0.017939147            1 
 2759000   0.80556906    -8.018918    606.32764  0.018313629   0.01793346            2 
 2760000   0.81972886   -8.0424994    607.19189  0.018333089  0.017927816            1 
 2761000   0.79050319   -8.0154229    606.25892  0.018298289  0.017922114            1 
 2762000    0.8016706   -8.0524808    605.68476  0.018274341  0.017916385            4 
 2763000   0.82886923   -8.0455662    606.60031   0.01829534  0.017910673            2 
 2764000   0.82628525   -8.0446235    606.84603   0.01829613  0.017904963            2 
 2765000   0.81050701   -8.0308544    606.78489   0.01828767  0.017899283            2 
 2766000   0.82692804   -8.0690643    605.23102  0.018234244  0.017893594            1 
 2767000    0.8165525   -8.0390804    606.01939  0.018251397  0.017887881            1 
 2768000   0.79895018   -8.0359652    604.62151  0.018202719  0.017882147            4 
 2769000   0.81184442   -8.0495138    605.79855  0.018231568  0.017876443            3 
 2770000   0.81791221   -8.0437225    605.54245  0.018217282  0.017870731            2 
 2771000   0.82638691   -8.0071229    608.42046  0.018297259  0.017865044            3 
 2772000   0.81289503   -8.0280378    605.71271  0.018209257  0.017859358            4 
 2773000   0.80576579   -8.0315825    606.68879  0.018232023  0.017853681            2 
 2774000    0.8169615   -8.0240404    606.75075  0.018227312  0.017848013            2 
 2775000   0.80348649    -8.014318     606.6327  0.018217198  0.017842338            2 
 2776000   0.80764017    -8.018881    605.77322  0.018184835  0.017836677            2 
 2777000   0.80076931   -8.0090193    606.78212  0.018208562  0.017831017            2 
 2778000   0.80336709   -8.0199895    606.56981  0.018195639  0.017825343            4 
 2779000   0.80188165   -8.0416889    606.51439  0.018187429  0.017819672            1 
 2780000   0.80250813   -8.0337578     606.8834  0.018191948  0.017813987            3 
 2781000   0.80574846   -8.0395047    606.68837  0.018179563  0.017808285            1 
 2782000   0.80796433   -8.0201162    606.96814  0.018181409  0.017802598            4 
 2783000   0.81136616   -8.0284609     606.6239  0.018164568  0.017796939            3 
 2784000   0.79869205   -8.0249685    605.63062  0.018128311  0.017791302            2 
 2785000   0.80924816   -8.0422244    606.09571  0.018135718  0.017785635            2 
 2786000   0.81601827   -8.0718661     607.1839  0.018161758  0.017779959            3 
 2787000   0.81330333   -8.0276264    607.10408  0.018152855   0.01777427            3 
 2788000   0.79979979    -8.040225    607.60923  0.018161443  0.017768617            2 
 2789000   0.81068498   -8.0292756    608.42007  0.018179158  0.017762973            1 
 2790000   0.80864387   -8.0414607     606.3077  0.018109549  0.017757292            3 
 2791000   0.80639703   -8.0295793     606.5327  0.018109779  0.017751594            1 
 2792000   0.81354677   -8.0579601    606.94021  0.018115455  0.017745922            4 
 2793000   0.79807956   -8.0679259    605.86795  0.018076977   0.01774024            5 
 2794000   0.81362391   -8.0355462    607.67078  0.018124278  0.017734566            2 
 2795000   0.79460602   -8.0418392    607.09756  0.018100702  0.017728888            2 
 2796000   0.80822333   -8.0765767    606.17609  0.018066765    0.0177232            2 
 2797000    0.7971087   -8.0578631    605.77169  0.018048257  0.017717517            5 
 2798000    0.7997426   -8.0652696    606.95924  0.018077175  0.017711839            2 
 2799000   0.80488057   -8.0228899    608.24205   0.01810891  0.017706182            3 
 2800000   0.80515294   -8.0510729    607.62664  0.018084126  0.017700526            3 
 2801000   0.80462328   -8.0429434    607.70754  0.018080077  0.017694856            3 
 2802000   0.80643449   -8.0787983    605.52032  0.018008575   0.01768918            3 
 2803000   0.79620681   -8.0419656     607.3042  0.018055185  0.017683509            3 
 2804000   0.80422618   -8.0465469     608.1987   0.01807533  0.017677832            1 
 2805000   0.80167351   -8.0617372    607.82069  0.018057656  0.017672162            2 
 2806000   0.79388992   -8.0476323    607.88898  0.018053248  0.017666526            2 
 2807000    0.8027641   -8.0601529    607.48052  0.018034691  0.017660879            1 
 2808000   0.80482216    -8.057705    607.81944  0.018038326  0.017655211            2 
 2809000   0.80297009   -8.0583579    607.64134  0.018026621  0.017649569            4 
 2810000   0.81010066   -8.0522107     608.3945  0.018042541  0.017643905            5 
 2811000    0.8186006   -8.0494133     608.6871  0.018044797  0.017638257            1 
 2812000    0.7910745   -8.0547419     607.0246  0.017989112  0.017632569            2 
 2813000   0.80288139   -8.0557198    607.63519  0.018000806  0.017626876            4 
 2814000   0.82053231   -8.0752447    607.00494  0.017975745  0.017621197            6 
 2815000   0.81898069   -8.0518792    607.23954  0.017976304  0.017615514            5 
 2816000   0.79878468     -8.06726    606.82738  0.017957723   0.01760983            1 
 2817000   0.78664082   -8.0621269    608.23198    0.0179929  0.017604155            2 
 2818000   0.79246545   -8.0630957    608.15212  0.017984153  0.017598465            1 
 2819000   0.82259068   -8.0620384    607.66506  0.017963375  0.017592787            1 
 2820000   0.80048598   -8.0516443    607.21806  0.017943796  0.017587132            4 
 2821000   0.79645305   -8.0734725    607.29022  0.017939567  0.017581486            2 
 2822000   0.78878835   -8.0550344     608.4386  0.017967121  0.017575854            1 
 2823000   0.78431346   -8.0543674    607.01706  0.017918794  0.017570207            1 
 2824000   0.80447683   -8.0415827    608.68359  0.017961626  0.017564579            3 
 2825000   0.80580646   -8.0520507    609.32589  0.017974215  0.017558951            3 
 2826000   0.78764333   -8.0612112    608.51611  0.017943976  0.017553317            2 
 2827000   0.79662033   -8.0671808    607.71216   0.01791393  0.017547649            3 
 2828000   0.78826995   -8.0772332    608.12136  0.017919654  0.017541984            3 
 2829000    0.7921065   -8.0669372    608.43374  0.017922521   0.01753631            4 
 2830000   0.80141184    -8.061217    608.85324  0.017928541  0.017530661            1 
 2831000   0.81107542   -8.0847263    609.23429  0.017933424  0.017524982            1 
 2832000   0.80316607   -8.0593236     608.1239  0.017894418  0.017519311            1 
 2833000   0.78025554   -8.0687569    609.20101  0.017919785  0.017513703            1 
 2834000   0.79838057   -8.0738478     608.2003  0.017884036  0.017508082            1 
 2835000   0.79475905   -8.0948155    607.39292  0.017853995  0.017502439            2 
 2836000   0.80540132    -8.063268    608.05771  0.017867234  0.017496789            2 
 2837000   0.79574645   -8.0546973    609.90199   0.01791511  0.017491159            2 
 2838000    0.7882186   -8.0578506    609.59135  0.017899675  0.017485537            1 
 2839000   0.80583162   -8.0655525     607.8882  0.017843378  0.017479924            2 
 2840000   0.80592552   -8.0522074    609.96518  0.017898039  0.017474305            6 
 2841000   0.79405185   -8.0765296    607.42247  0.017817156  0.017468689            1 
 2842000   0.80317383   -8.0644571     608.6243  0.017846126  0.017463086            2 
 2843000   0.81330865   -8.0667572    607.81859  0.017816233   0.01745745            6 
 2844000   0.79774424   -8.0567348    607.94737  0.017813742  0.017451815            2 
 2845000   0.77654639   -8.0869018    608.84793  0.017833859  0.017446176            2 
 2846000   0.79370013   -8.0842725    608.72522  0.017823999  0.017440534            1 
 2847000   0.79551213   -8.0907186    609.65103  0.017844837  0.017434913            1 
 2848000   0.78581832   -8.0747432    610.32251   0.01785822  0.017429313            1 
 2849000   0.81027345   -8.0754379    609.35338  0.017823604  0.017423721            4 
 2850000   0.78535896   -8.0757295    610.00009   0.01783626   0.01741812            3 
 2851000   0.80685123   -8.0542527    608.89865  0.017797809  0.017412543            2 
 2852000   0.80455896    -8.100043    609.34068  0.017804485  0.017406937            3 
 2853000   0.79344596   -8.1023684    609.09022  0.017790928  0.017401307            2 
 2854000   0.79096719   -8.0839123    610.35431  0.017821604  0.017395695            1 
 2855000   0.78975894   -8.0969193    609.19814  0.017781615  0.017390073            3 
 2856000   0.77309097   -8.0627265    609.00819  0.017769847  0.017384447            3 
 2857000    0.7990236   -8.0820518    608.62022  0.017752311  0.017378852            3 
 2858000   0.79652522   -8.0837118    609.12992  0.017760961   0.01737326            3 
 2859000   0.78239647   -8.0565675    610.16716  0.017784982  0.017367674            1 
 2860000   0.80630226   -8.0462991    611.34651  0.017813127  0.017362125            1 
 2861000   0.78847591    -8.049559     610.9084   0.01779414  0.017356601            1 
 2862000   0.78287927   -8.0319083    610.07946  0.017763786  0.017351072            3 
 2863000   0.80182029   -8.0523991     609.5275  0.017741515  0.017345522            1 
 2864000   0.79797925   -8.0617091    611.51582  0.017793174  0.017339994            2 
 2865000   0.79777637   -8.0578871     611.4629  0.017785425  0.017334489            3 
 2866000   0.80774733   -8.0365707    611.12376  0.017769358  0.017328976            1 
 2867000   0.80395131   -8.0731692    609.22386  0.017707937  0.017323439            1 
 2868000   0.80819533   -8.0302442    611.06669  0.017755308  0.017317887            4 
 2869000   0.80998902   -8.0353038    612.04268  0.017777468  0.017312335            1 
 2870000   0.79333929   -8.0538704    610.09929  0.017714846  0.017306787            3 
 2871000   0.78937624   -8.0485812    610.02434    0.0177065  0.017301241            2 
 2872000   0.79262396   -8.0639696    611.75736   0.01775062  0.017295682            2 
 2873000    0.7793904   -8.0683484    609.54545  0.017680283  0.017290123            2 
 2874000   0.78288667   -8.0737014    609.93942  0.017685555  0.017284547            2 
 2875000    0.7860933   -8.0625639    611.77946  0.017732738  0.017279022            2 
 2876000   0.77566582   -8.0725385    610.74498  0.017696598  0.017273453            3 
 2877000   0.78766625   -8.1064799    610.89055  0.017694663  0.017267887            3 
 2878000    0.7929581   -8.0936985    610.87292  0.017688004  0.017262342            3 
 2879000   0.78090801   -8.0876367    609.87582  0.017652999  0.017256758            1 
 2880000   0.81030258   -8.0843886    610.23739  0.017657332  0.017251169            2 
 2881000   0.78854652   -8.0899203    611.53247  0.017688663  0.017245596            3 
 2882000    0.8077832    -8.066459    612.28059  0.017704158  0.017240037            2 
 2883000   0.79157709   -8.1010391    611.19738  0.017666706  0.017234468            2 
 2884000   0.77426513   -8.0843037    612.35559  0.017694047  0.017228865            2 
 2885000   0.79567477   -8.0794265    610.69045  0.017639817  0.017223278            2 
 2886000   0.78258944   -8.0862667    608.84361  0.017580377  0.017217687            6 
 2887000   0.78033196   -8.0874007    609.69467  0.017598853   0.01721209            2 
 2888000   0.77245568    -8.096936    609.89017  0.017598401  0.017206494            2 
 2889000    0.8040572    -8.062095    612.09735  0.017655975  0.017200911            3 
 2890000   0.79264106   -8.0788449    610.37947  0.017600331  0.017195321            2 
 2891000   0.79286041   -8.0917033    609.96012  0.017582155  0.017189738            2 
 2892000   0.80135556   -8.0868562    609.44066  0.017561107  0.017184152            2 
 2893000   0.79218462   -8.1153037    609.65064  0.017561085  0.017178595            5 
 2894000   0.78750554   -8.0671542    611.56935  0.017610267  0.017173017            7 
 2895000    0.7976652   -8.1067006    610.87437  0.017584179  0.017167469            2 
 2896000   0.76890342   -8.0728467    611.34594  0.017591676  0.017161886            2 
 2897000   0.77277725    -8.097275    609.63815  0.017536479  0.017156324            2 
 2898000   0.79137074   -8.0616963    612.78269   0.01762085  0.017150793            2 
 2899000   0.80512944   -8.0638162    611.92047  0.017589987  0.017145269            2 
 2900000   0.79232927   -8.0718151     609.7168  0.017520598  0.017139751            2 
 2901000   0.79295778   -8.0908476    609.58647  0.017510814  0.017134216            4 
 2902000   0.78919422   -8.0692076    611.01551  0.017545817  0.017128683            2 
 2903000   0.79507927   -8.0822647    613.28015  0.017604781  0.017123169            2 
 2904000    0.8018805   -8.0889133    609.55413  0.017491797  0.017117642            2 
 2905000   0.77863192   -8.0783208    612.09822  0.017558756  0.017112121            2 
 2906000   0.79022725   -8.0920253    611.12431  0.017524785  0.017106621            1 
 2907000    0.7900134   -8.0517783    613.29888  0.017581094  0.017101133            4 
 2908000   0.78432081   -8.0901161    612.18818  0.017543219  0.017095647            2 
 2909000   0.79242884   -8.1047483     612.8619  0.017556489  0.017090184            2 
 2910000   0.77251304   -8.0833793    611.67579  0.017516489  0.017084711            1 
 2911000    0.7620679   -8.0796899    611.23657  0.017497898  0.017079232            4 
 2912000   0.77102609   -8.0591005    614.16264  0.017575625  0.017073778            2 
 2913000   0.78699223   -8.0512845    614.40899  0.017576639  0.017068335            2 
 2914000   0.78759463   -8.1036797    611.65344  0.017491805  0.017062894            2 
 2915000   0.78497986   -8.0783651    612.15093  0.017500027  0.017057436            1 
 2916000   0.79937093   -8.0856046    612.66415  0.017508692  0.017051952            1 
 2917000   0.78759048   -8.1097135    611.56739  0.017471357  0.017046496            2 
 2918000   0.77837731   -8.0960207    612.91406  0.017503828  0.017041037            5 
 2919000    0.7903725   -8.0901802    612.48406  0.017485556  0.017035605            1 
 2920000    0.7703872    -8.084982    613.00433  0.017494416  0.017030128            3 
 2921000   0.79494082   -8.1086371    611.57116   0.01744754  0.017024654            2 
 2922000   0.78237027   -8.0934733    612.34753   0.01746371  0.017019191            9 
 2923000   0.78035065   -8.1084701    614.53344  0.017520055  0.017013739            3 
 2924000   0.78777892   -8.1060243    612.84349    0.0174659  0.017008282            2 
 2925000   0.77627548   -8.0884456    612.76633   0.01745773  0.017002833            1 
 2926000   0.78239207   -8.0988808    612.31809  0.017438998  0.016997375            2 
 2927000   0.77980194   -8.0796194    613.95201  0.017479558  0.016991915            2 
 2928000     0.794479   -8.1051605    613.77892  0.017468662  0.016986459            2 
 2929000   0.76597694   -8.1057945    612.38549  0.017423054  0.016980997            6 
 2930000   0.79579218   -8.0938337    613.61779  0.017452156  0.016975546            5 
 2931000   0.78946049   -8.0891634    613.43704  0.017441062  0.016970107            5 
 2932000   0.78611031   -8.0970761    612.45979  0.017407338  0.016964664            7 
 2933000   0.79876207   -8.0802664    612.86802  0.017413002    0.0169592            2 
 2934000   0.79468844   -8.1000891    612.72957  0.017403135  0.016953732            2 
 2935000   0.79788372   -8.1003898    614.92886   0.01745965  0.016948255            3 
 2936000   0.78353257   -8.0952033    614.78861  0.017449722    0.0169428            2 
 2937000   0.77485905   -8.1277403    612.44052  0.017377157  0.016937353            3 
 2938000   0.77325882   -8.0727105    612.75281    0.0173801  0.016931895            2 
 2939000   0.78636664   -8.0951557    614.56918  0.017425688  0.016926456            1 
 2940000   0.78743382   -8.1127423    615.55209  0.017447622  0.016921028            2 
 2941000   0.78771528   -8.1376873    614.20668  0.017403567  0.016915601            2 
 2942000   0.77566784   -8.0705357    613.60463  0.017380598  0.016910173            3 
 2943000   0.77203456   -8.1261845    614.09875  0.017388684   0.01690475            2 
 2944000    0.7827247    -8.097604    613.35226  0.017361647  0.016899334            2 
 2945000   0.76884184   -8.0940174     614.2661   0.01738161  0.016893928            4 
 2946000   0.78633731   -8.0644416    614.13169  0.017371908  0.016888525            2 
 2947000   0.77609994   -8.0730567    614.68451  0.017381646  0.016883143            3 
 2948000   0.78705283   -8.0952351    614.05819  0.017358045  0.016877755            2 
 2949000   0.79045996   -8.1103373     613.3323  0.017331646  0.016872348            2 
 2950000   0.78135043   -8.1034203     612.6421  0.017306274   0.01686692            1 
 2951000   0.76832047   -8.1119768     613.4005  0.017321826  0.016861497            1 
 2952000   0.78908133   -8.1595526    613.38814  0.017315609  0.016856066            2 
 2953000   0.78797239   -8.1307554    613.25423  0.017305967  0.016850617            1 
 2954000   0.77753857    -8.161835    612.78493  0.017286869  0.016845173            2 
 2955000   0.77100616   -8.1065107    614.25867   0.01732258  0.016839736            2 
 2956000   0.78455949   -8.1324081    613.70736  0.017301177  0.016834332            3 
 2957000   0.78556216   -8.1153255    614.02156  0.017304181  0.016828905            1 
 2958000   0.77188195   -8.1196827    613.14213  0.017273556  0.016823478            2 
 2959000   0.76148067   -8.1211597    614.35989  0.017302013  0.016818054            1 
 2960000   0.77539636   -8.0703762    614.23854  0.017292752  0.016812667            2 
 2961000   0.76991818   -8.1189428    614.49632  0.017294167  0.016807289            1 
 2962000   0.79096274    -8.107127    614.21965  0.017280544  0.016801888            2 
 2963000   0.78239021   -8.1187816    613.44887  0.017253034  0.016796468            1 
 2964000   0.77695088   -8.0972199    615.71637  0.017310964  0.016791076            3 
 2965000   0.77085432   -8.1199616    614.79182   0.01727914  0.016785681            2 
 2966000   0.77801485   -8.1328971    613.03391  0.017223924  0.016780275            1 
 2967000    0.7816268   -8.1576937     612.6917  0.017208508  0.016774861            2 
 2968000   0.77155477   -8.1460363    613.66824  0.017230128  0.016769429            1 
 2969000   0.77472118   -8.1615104    613.85544  0.017229579   0.01676401            4 
 2970000   0.77171648   -8.1175917    613.36234  0.017209942  0.016758562            3 
 2971000   0.77733303   -8.1226743    614.01273  0.017222392  0.016753142            1 
 2972000   0.75829789   -8.1343631    613.45278  0.017200897  0.016747696            1 
 2973000   0.79260765   -8.1583836    612.65449  0.017172735  0.016742251            1 
 2974000   0.78166247   -8.1419636    612.89947  0.017173825  0.016736798            2 
 2975000   0.79928584   -8.1304061    614.14239  0.017202868  0.016731364            2 
 2976000    0.7762961   -8.0992705    615.23507  0.017227685  0.016725948            1 
 2977000   0.77764944   -8.1366504     614.8794  0.017211942  0.016720519            1 
 2978000   0.76878206   -8.1442108    615.28619  0.017217545  0.016715098            3 
 2979000   0.76924187   -8.1252369    614.44931  0.017188355  0.016709707            4 
 2980000   0.77603669   -8.1009955    614.78564  0.017191992  0.016704328            2 
 2981000   0.77615859   -8.1285593    613.60066  0.017153099  0.016698964            4 
 2982000   0.77541559   -8.0922801    613.52547  0.017145246  0.016693556            3 
 2983000   0.76777314   -8.1014964    614.81186  0.017175435  0.016688169            2 
 2984000   0.77070177   -8.0967999    615.10596  0.017177892  0.016682771            2 
 2985000   0.77786018   -8.1077205    614.49172  0.017154989  0.016677367            2 
 2986000   0.76569499   -8.1524156    613.98301  0.017135047  0.016671973            2 
 2987000   0.76376763   -8.1241946    615.63403  0.017175372   0.01666657            3 
 2988000   0.77009763    -8.155068    615.14084  0.017155869  0.016661177            1 
 2989000   0.77047694   -8.1336213    614.03569  0.017119318   0.01665576            3 
 2990000   0.78270986   -8.1119251     614.7596  0.017133768  0.016650365            3 
 2991000   0.77500377   -8.1410852    612.84539  0.017074707  0.016644989            2 
 2992000   0.78555706   -8.1360512    614.97723  0.017128377  0.016639604            1 
 2993000   0.80012704   -8.1270563    615.46855  0.017136333  0.016634235            1 
 2994000    0.7834162   -8.1271263    614.27776  0.017097466  0.016628886            4 
 2995000   0.76397453   -8.1333204    614.98303  0.017111381  0.016623532            2 
 2996000    0.7765599   -8.1162547    615.19241  0.017111493  0.016618157            4 
 2997000   0.75051718   -8.1076326    614.15116  0.017076831  0.016612807            4 
 2998000   0.77718037   -8.1046883     616.3359  0.017131863  0.016607473            5 
 2999000   0.75944488   -8.1212946    616.13483  0.017120563  0.016602141            2 
 3000000    0.7678511   -8.1268821    616.47675  0.017124354  0.016596793            3 
 3001000   0.78218842   -8.1087192    614.79698  0.017072003  0.016591423            1 
 3002000   0.75722587   -8.1323613    614.68919  0.017063324  0.016586053            2 
 3003000   0.78355808    -8.141532    615.82628  0.017089196  0.016580691            1 
 3004000   0.76079068   -8.1565339      613.997  0.017032762  0.016575307            1 
 3005000   0.76415998   -8.1687915    615.00699  0.017055102  0.016569919            5 
 3006000   0.77583138   -8.1335629    616.25247  0.017083956  0.016564539            2 
 3007000   0.78131444   -8.1371037    615.99655  0.017071183  0.016559161            4 
 3008000   0.79007766   -8.1373404    616.29757  0.017073847  0.016553788            2 
 3009000   0.75702112   -8.1645624    614.58906  0.017020856  0.016548391            1 
 3010000   0.75278982   -8.1595839    614.38537  0.017009562  0.016543024            3 
 3011000   0.77617427   -8.1191469    615.77294  0.017042316   0.01653764            4 
 3012000   0.76976514   -8.1461214    614.60422  0.017004322   0.01653227            1 
 3013000   0.77459511   -8.1443225    616.25499  0.017044335  0.016526879            2 
 3014000   0.77107331   -8.1305157    617.50377  0.017073208  0.016521516            4 
 3015000   0.78554557   -8.1512375    615.19776  0.017003808  0.016516182            1 
 3016000   0.77687747   -8.1168787    616.71842  0.017040186  0.016510838            2 
 3017000   0.75741316   -8.1598608    614.63914  0.016977106  0.016505497            1 
 3018000   0.77875111   -8.0988588    617.06401  0.017038436   0.01650017            3 
 3019000   0.76365317   -8.1152749    616.20493  0.017009079  0.016494836            2 
 3020000   0.78033506   -8.1063792    615.20689  0.016975908  0.016489527            2 
 3021000   0.77631715   -8.1331367    615.13034  0.016968177  0.016484209            2 
 3022000   0.75557996   -8.1147078    616.03141  0.016987409  0.016478912            2 
 3023000   0.76595799   -8.1481044    617.68243  0.017027303  0.016473608            3 
 3024000   0.75754765   -8.1247618    616.26138  0.016982512  0.016468293            2 
 3025000   0.78694971   -8.0967391    616.65984  0.016987874  0.016463025            3 
 3026000   0.76388045   -8.1236684    618.30544  0.017027579  0.016457733            3 
 3027000   0.76766505   -8.1481373    615.88878  0.016955423  0.016452434            1 
 3028000   0.76515473   -8.1236282    615.45424  0.016937864  0.016447124            2 
 3029000    0.7737639   -8.1389904    617.00258   0.01697487  0.016441827            2 
 3030000   0.77927323   -8.1141576    617.09438  0.016971793  0.016436551            3 
 3031000   0.76989949   -8.1250932    616.63803  0.016953646   0.01643128            1 
 3032000    0.7656274      -8.1101     617.5852  0.016974088   0.01642601            4 
 3033000   0.77981884   -8.1351948    617.62109  0.016969477  0.016420707            2 
 3034000   0.74507726   -8.1627999    616.25691  0.016926415  0.016415417            2 
 3035000   0.76264343   -8.1368724    618.47398  0.016981713  0.016410127            3 
 3036000   0.77886553    -8.109513    617.46979  0.016948556  0.016404858            1 
 3037000   0.77588275   -8.1475908    616.87878  0.016926758  0.016399576            1 
 3038000    0.7804234   -8.1501573    617.42145  0.016936072  0.016394271            1 
 3039000   0.77284995   -8.1364815    617.10223  0.016921746  0.016388951            4 
 3040000   0.77646346   -8.1502052    616.16311  0.016890436  0.016383628            2 
 3041000   0.76826805   -8.1529366    615.57482  0.016868761  0.016378316            4 
 3042000   0.76264714   -8.1591837    615.20844  0.016853179  0.016372974            2 
 3043000   0.76507112   -8.1547211    616.93613  0.016894954  0.016367637            1 
 3044000   0.76779239   -8.1467474    615.83015  0.016859126  0.016362293            4 
 3045000   0.76548675   -8.1817436    615.23584  0.016837325  0.016356941            1 
 3046000    0.7522697   -8.1771783    615.63639  0.016842755  0.016351573            1 
 3047000   0.75681998   -8.1362587    617.76418  0.016895421  0.016346217            1 
 3048000   0.75223425   -8.1840005    614.96685  0.016813398  0.016340853            1 
 3049000   0.78129352   -8.1627081    616.29731  0.016844247  0.016335495            2 
 3050000   0.74167073   -8.1738221    614.44525  0.016788122  0.016330124            1 
 3051000   0.76792162   -8.1781104    614.35461  0.016780143  0.016324754            2 
 3052000   0.77586516   -8.1742172    614.59472  0.016781201  0.016319394            2 
 3053000   0.76874243   -8.1359321     616.1925  0.016819317  0.016314021            1 
 3054000   0.75473659   -8.1847286    615.78139  0.016802592  0.016308681            1 
 3055000   0.75932468   -8.1698554    616.03524  0.016804016  0.016303325            1 
 3056000   0.75605785   -8.1863713    615.70559  0.016789529  0.016297997            1 
 3057000   0.76082236   -8.1851259     615.5861  0.016780779  0.016292641            3 
 3058000   0.76599472   -8.1554817     616.1554  0.016790805   0.01628729            2 
 3059000   0.76272431   -8.1575382    616.11527  0.016784223  0.016281947            3 
 3060000   0.75920905   -8.1794046    615.74494  0.016768653  0.016276608            3 
 3061000   0.77031498   -8.1693823    615.86801  0.016766525  0.016271274            3 
 3062000   0.74143669   -8.1362199    614.24248   0.01671681  0.016265954            2 
 3063000   0.76632578   -8.1367144    617.75456  0.016806904  0.016260632            2 
 3064000   0.75536902   -8.1313669    617.29128  0.016788819  0.016255329            1 
 3065000   0.75295084   -8.1429676    617.23013  0.016781678  0.016250012            2 
 3066000     0.770888   -8.1607983    616.79937  0.016764497  0.016244692            2 
 3067000   0.76736772   -8.1419572    615.52381  0.016724373  0.016239366            2 
 3068000   0.76763177    -8.182326    616.15544  0.016736078  0.016234056            2 
 3069000   0.77022499   -8.1804727     615.5913  0.016715306  0.016228719            1 
 3070000    0.7626832   -8.1753515    615.46163  0.016706342  0.016223371            1 
 3071000   0.78123283   -8.1600521    615.12117  0.016691663  0.016218026            1 
 3072000   0.74783764   -8.1648633    617.21273  0.016742967  0.016212671            2 
 3073000   0.75488987   -8.1566235    616.08273  0.016706875  0.016207324            1 
 3074000   0.76521076   -8.1509983    616.16013  0.016703539  0.016201976            2 
 3075000   0.77903509   -8.1177608    615.46229  0.016679195  0.016196662            1 
 3076000   0.76294924   -8.1647854    615.31834  0.016669873   0.01619132            3 
 3077000   0.76962555   -8.1611989    616.62417   0.01669982  0.016185997            1 
 3078000   0.75506878   -8.1558571    616.27479  0.016684936  0.016180677            2 
 3079000   0.74228315   -8.1306581    616.76031  0.016692658  0.016175365            1 
 3080000   0.76775187   -8.1099627    617.85973  0.016716984  0.016170076            2 
 3081000   0.76116907   -8.1482185    617.51955  0.016702357  0.016164763            6 
 3082000   0.76005958   -8.1341621    617.38505  0.016693301  0.016159464            2 
 3083000   0.76310387   -8.1465233    615.57411  0.016638937  0.016154168            1 
 3084000   0.76871859   -8.1623142    616.64594  0.016662504  0.016148837            2 
 3085000   0.76406837      -8.1309    617.48483  0.016679763  0.016143526            1 
 3086000   0.76874657   -8.1564302    616.27343  0.016641646  0.016138213            4 
 3087000   0.74511058   -8.1936479    615.75375  0.016622226  0.016132894            1 
 3088000   0.76207865   -8.1530482    616.60738   0.01663988  0.016127583            1 
 3089000   0.74280918   -8.1470997    615.18928  0.016596236   0.01612227            1 
 3090000   0.76567606   -8.1394603    617.38192  0.016649998  0.016116996            1 
 3091000   0.77275994   -8.1725715    616.03806  0.016608381  0.016111718            2 
 3092000    0.7561068   -8.1634606    617.84259  0.016651644   0.01610645            3 
 3093000   0.78212335   -8.1445287    617.38902   0.01663404   0.01610117            1 
 3094000   0.74608731   -8.1810372    617.22647  0.016624285  0.016095901            3 
 3095000   0.76336134   -8.1553994    617.05205  0.016614218   0.01609061            2 
 3096000   0.77351337   -8.1430252    616.98506  0.016607048  0.016085347            2 
 3097000   0.75522863   -8.1609151    617.07023  0.016603978   0.01608009            2 
 3098000   0.74603179    -8.179134    618.86475  0.016646889  0.016074813            1 
 3099000   0.75597757   -8.1824485     616.8709  0.016587902  0.016069544            2 
 3100000   0.75706653   -8.1655466    617.13338  0.016589607  0.016064249            2 
 3101000   0.77232033    -8.184551    616.58401  0.016569494  0.016058973            1 
 3102000   0.75006475   -8.1713806    618.02539  0.016602874  0.016053702            2 
 3103000   0.76860095   -8.1828604    616.60312  0.016559328   0.01604845            2 
 3104000   0.75225693   -8.1778326    617.09897  0.016567305  0.016043187            4 
 3105000    0.7592114   -8.1733123    616.02553   0.01653316  0.016037919            3 
 3106000   0.74619271   -8.1772368    616.69081  0.016545686  0.016032653            3 
 3107000   0.75770978   -8.1879875     616.1928  0.016527004  0.016027385            2 
 3108000   0.77069953   -8.1938139    617.20865  0.016548923  0.016022097            1 
 3109000    0.7452203   -8.1792863     616.9324  0.016536196  0.016016811            2 
 3110000    0.7519816   -8.1817789    616.25223  0.016512654  0.016011532            3 
 3111000   0.76576115   -8.1940866    618.86563   0.01657735  0.016006258            2 
 3112000   0.77062465   -8.1812745    616.11058  0.016498248  0.016000982            2 
 3113000   0.76091329   -8.1743237    616.64959  0.016507377  0.015995694            1 
 3114000   0.75041652   -8.1896644    617.01965  0.016511979  0.015990408            2 
 3115000   0.75059244   -8.1405029    617.31354  0.016514541  0.015985139            1 
 3116000   0.75871741   -8.2070663    617.20228  0.016506266  0.015979876            2 
 3117000   0.76708441   -8.2145041    616.18507  0.016473775  0.015974608            2 
 3118000   0.75023454   -8.1747299    616.55274  0.016478318  0.015969352            4 
 3119000   0.75787299   -8.1628378     617.7188  0.016504189  0.015964072            2 
 3120000   0.74747954   -8.1665988    617.50049  0.016493069  0.015958795            2 
 3121000   0.75518387   -8.1898405    616.06033  0.016449331  0.015953517            2 
 3122000   0.77635858   -8.1863598    616.85245  0.016465205  0.015948233            2 
 3123000   0.78125396   -8.2138452    616.56359  0.016452225   0.01594295            1 
 3124000   0.74455106   -8.1983546    615.62755   0.01642199  0.015937657            1 
 3125000   0.75569127   -8.1931971    616.37805  0.016436748  0.015932384            2 
 3126000   0.75459157   -8.1746678    618.05603  0.016476222  0.015927119            3 
 3127000   0.76452543   -8.1899563    616.64783  0.016433425  0.015921865            1 
 3128000   0.73862291   -8.1840722    617.40664  0.016448387  0.015916603            1 
 3129000   0.73161854   -8.1800139    617.69878   0.01645091  0.015911324            3 
 3130000   0.76107247   -8.1563258    617.77758  0.016447752  0.015906075            1 
 3131000   0.76165925     -8.19058    616.80144  0.016416519  0.015900813            2 
 3132000   0.76361389   -8.2175082    617.31066  0.016424826  0.015895534            1 
 3133000   0.73665169   -8.2111491    616.85267  0.016407402  0.015890254            1 
 3134000   0.73719523   -8.1929372    617.58204   0.01642156  0.015884976            3 
 3135000   0.73435936   -8.2001404    617.99376  0.016427266   0.01587971            2 
 3136000   0.75258143   -8.2093686    618.01702  0.016422646  0.015874448            1 
 3137000   0.76873687   -8.2072893    617.49206  0.016403466  0.015869175            2 
 3138000   0.75992296   -8.2053276    617.51861  0.016398943  0.015863914            1 
 3139000    0.7401992   -8.1795064    618.66271  0.016424092  0.015858653            1 
 3140000   0.76564177   -8.2227115    616.84113  0.016370518  0.015853392            2 
 3141000    0.7576812    -8.207949    617.56311  0.016384461  0.015848135            3 
 3142000   0.74208089   -8.1815172     617.2714   0.01637151  0.015842887            2 
 3143000   0.73965876   -8.1978487    617.06417  0.016360806  0.015837653            4 
 3144000   0.75127418   -8.2013628     617.1544  0.016357994  0.015832421            4 
 3145000   0.74247482   -8.1785038    615.76037  0.016315855  0.015827191            4 
 3146000   0.74440583    -8.185932    618.88252   0.01639337  0.015821952            1 
 3147000   0.73698191   -8.1962671    618.65722  0.016382195  0.015816724            5 
 3148000   0.74578654   -8.2122863    617.07202  0.016335028  0.015811504            4 
 3149000   0.75460735   -8.2252338    616.53963  0.016315752   0.01580625            3 
 3150000   0.74650532   -8.1832448    617.47596  0.016335343  0.015800998            3 
 3151000   0.74904896   -8.2032302    617.64284  0.016334572  0.015795752            3 
 3152000   0.74473261   -8.1960896    617.07217  0.016314302  0.015790502            2 
 3153000   0.76410241   -8.2249284    617.15169   0.01631123  0.015785233            2 
 3154000   0.74233699   -8.2327964    616.58202  0.016291007  0.015779978            2 
 3155000   0.73587772   -8.1779239    618.01778  0.016323766  0.015774729            1 
 3156000   0.76010664   -8.2098289    616.98171  0.016291237  0.015769488            3 
 3157000   0.75546616   -8.1923107    617.34865  0.016295762  0.015764243            1 
 3158000     0.739639   -8.2242918    616.63554  0.016271784  0.015759003            2 
 3159000   0.75841306   -8.2159904    617.26579  0.016283259   0.01575376            1 
 3160000   0.75048078   -8.2141706    617.38092  0.016281142  0.015748531            7 
 3161000    0.7371283    -8.172549    617.89794  0.016289622  0.015743296            3 
 3162000    0.7511067   -8.2168768    618.06222    0.0162888  0.015738058            2 
 3163000      0.75505    -8.248172    616.88347  0.016252594  0.015732814            1 
 3164000   0.76888896   -8.2109578     617.3308  0.016259239  0.015727568            2 
 3165000   0.75422979    -8.234218    617.31194  0.016253606   0.01572233            8 
 3166000   0.73679878   -8.2218726    616.63584  0.016230676  0.015717067            1 
 3167000   0.74779803   -8.2379304    615.92665   0.01620689  0.015711802            1 
 3168000   0.73546952   -8.2497474     616.7549  0.016223561  0.015706545            2 
 3169000   0.75210419   -8.2314388    617.91946  0.016249065  0.015701297            4 
 3170000   0.75610136   -8.2289683    616.66704  0.016211016  0.015696067            2 
 3171000    0.7499127   -8.2262805    616.87403  0.016211343  0.015690826            1 
 3172000   0.74909701   -8.2343091    618.27878  0.016243137  0.015685602            4 
 3173000    0.7444712   -8.2443901     617.4663   0.01621668  0.015680375            3 
 3174000   0.73121885   -8.2261347    617.27692  0.016206598   0.01567515            3 
 3175000   0.74800732   -8.2012635    617.95495   0.01621929   0.01566991            3 
 3176000   0.75292347   -8.2206067    618.38118  0.016225367  0.015664687            4 
 3177000   0.71681203   -8.2119898    619.28736  0.016244029  0.015659468            3 
 3178000   0.73683371   -8.2180544    617.45057  0.016190753   0.01565426            3 
 3179000   0.73886248   -8.2191075    618.07425  0.016202009  0.015649032            1 
 3180000   0.73400108     -8.20391    618.11179  0.016197898  0.015643806            2 
 3181000   0.74208387   -8.2198369     617.6023  0.016179459  0.015638605            1 
 3182000   0.73774013   -8.2201762    617.64517  0.016175497  0.015633394            2 
 3183000   0.74010904    -8.221979    617.63265  0.016170087  0.015628179            2 
 3184000   0.74784628    -8.196746    617.61418  0.016164525  0.015622964            1 
 3185000   0.73845403   -8.2427065    618.23998  0.016175824  0.015617746            2 
 3186000   0.73502143   -8.2411012    618.87385  0.016187326  0.015612535            1 
 3187000   0.74775037   -8.2230193     618.0323  0.016160242  0.015607317            2 
 3188000   0.74928269   -8.2159245     619.5364   0.01619449    0.0156021            1 
 3189000   0.75851028   -8.2162658    617.73848  0.016142429  0.015596893            2 
 3190000   0.72791568     -8.23936    616.71968  0.016110754  0.015591689            2 
 3191000   0.74710088   -8.2248152    618.67229  0.016156698  0.015586493            2 
 3192000   0.72270333   -8.2472469    618.05132  0.016135425   0.01558129            1 
 3193000    0.7407685   -8.2080461    617.76049  0.016122781  0.015576086            3 
 3194000   0.74525304   -8.2102209    616.64094  0.016088524  0.015570892            1 
 3195000   0.75226607   -8.2168567    618.85746    0.0161413  0.015565699            2 
 3196000   0.75185291    -8.218336    619.47259  0.016152289  0.015560515            1 
 3197000   0.73846445   -8.2182479    618.32245  0.016117257  0.015555341            4 
 3198000   0.73385067   -8.2265698    617.97731  0.016103224  0.015550162            3 
 3199000   0.74569739   -8.2341255    617.47015  0.016084978   0.01554499            2 
 3200000   0.75585972   -8.2343393    617.52177  0.016081296  0.015539819            2 
 3201000   0.72357762   -8.2022222    616.95398  0.016061491  0.015534644            1 
 3202000   0.74320251   -8.1792141    619.81033  0.016130812  0.015529484            3 
 3203000   0.73716684   -8.2236033    617.29055  0.016060218  0.015524327            2 
 3204000   0.72136728   -8.1945492    618.11997  0.016076778  0.015519172            5 
 3205000   0.73210938   -8.1649061    621.18629   0.01615149  0.015514039            1 
 3206000   0.72619313   -8.2012087    617.34204  0.016046528  0.015508905            4 
 3207000   0.74688227   -8.1925017    618.42219  0.016069592  0.015503765            1 
 3208000   0.75204305   -8.2091868     618.7332  0.016072662  0.015498632            2 
 3209000   0.75015716   -8.2014762    619.63262   0.01609101  0.015493498            5 
 3210000   0.74974642    -8.199496    618.84673  0.016065595  0.015488361            3 
 3211000    0.7266542   -8.2116982    619.62257  0.016080727  0.015483221            2 
 3212000   0.74527513   -8.1890175    618.96456  0.016058649  0.015478098            4 
 3213000   0.73447987    -8.199538    619.05006  0.016055868  0.015472966            2 
 3214000   0.73943721   -8.1908524    619.78343  0.016069888   0.01546786            3 
 3215000   0.72755193   -8.1875541    618.64093  0.016035275  0.015462765            3 
 3216000   0.74071181   -8.1956312    619.80442  0.016060438  0.015457647            2 
 3217000   0.72093513   -8.2094387    620.40014  0.016070877  0.015452531            2 
 3218000   0.73338326    -8.210678     619.2752  0.016036752  0.015447395            5 
 3219000   0.73784007   -8.1772924    619.60613  0.016040337   0.01544227            2 
 3220000   0.74632043   -8.1855111    620.01384  0.016045907  0.015437157            5 
 3221000   0.73769635   -8.1991095    619.22129   0.01602042  0.015432034            4 
 3222000   0.74889159   -8.2261986    619.53568   0.01602358  0.015426915            5 
 3223000   0.74455728   -8.2306101    618.34367  0.015987788  0.015421808            2 
 3224000   0.74017923   -8.2247154    619.53529  0.016013629  0.015416689            1 
 3225000   0.73537226   -8.2201426    618.93207  0.015993077  0.015411574            3 
 3226000     0.753164   -8.1956125    621.99648  0.016067278  0.015406484            3 
 3227000   0.72964991    -8.211345     619.5143    0.0159982  0.015401401            2 
 3228000   0.73932034   -8.2288723    618.90174   0.01597743  0.015396302            5 
 3229000    0.7223692   -8.2300065    618.07132  0.015951051   0.01539119            1 
 3230000   0.71358831   -8.2242198    618.44236  0.015955685  0.015386076            4 
 3231000   0.72227103   -8.2038832    620.56589  0.016005517  0.015380969            1 
 3232000   0.71392851   -8.2265828    619.16261  0.015964383  0.015375853            3 
 3233000   0.72264646   -8.2222087    619.82821  0.015976601  0.015370752            4 
 3234000   0.74968199   -8.2454065    619.99919  0.015976067   0.01536565           10 
 3235000   0.71605467   -8.2353495    617.65411  0.015910719   0.01536053            2 
 3236000   0.73340649   -8.2411768    619.86483  0.015962732  0.015355411            1 
 3237000   0.72056246   -8.2141015    619.49001  0.015948152   0.01535031            1 
 3238000   0.72377453   -8.2108688    619.48736  0.015943158   0.01534521            1 
 3239000   0.71825575   -8.2227205    619.76605  0.015945406  0.015340118            2 
 3240000   0.73068279   -8.2259382    619.17373   0.01592525  0.015335021            2 
 3241000   0.72225619   -8.2333244     620.6602  0.015958557  0.015329933            1 
 3242000   0.73026996   -8.2580864    618.57123  0.015899939  0.015324829            2 
 3243000   0.72200493   -8.2511665    618.37869  0.015890089  0.015319716            1 
 3244000   0.73095869   -8.1731028    618.77649  0.015895409  0.015314615            1 
 3245000   0.72186692   -8.2335161    620.61112  0.015937625  0.015309513            1 
 3246000   0.73729477   -8.2388671    619.26977  0.015898279  0.015304415            1 
 3247000   0.73222734   -8.2367635    621.03662  0.015938729  0.015299328            2 
 3248000   0.72933769   -8.2614828    617.60017  0.015845653   0.01529424            2 
 3249000   0.72222013   -8.2454333    620.25276  0.015908812  0.015289148            2 
 3250000     0.735655   -8.2397674    618.48294  0.015858537   0.01528407            7 
 3251000   0.71741103   -8.2399395    619.06382  0.015868549  0.015278978            3 
 3252000   0.72187744   -8.2560855    618.81401  0.015857268  0.015273871            2 
 3253000   0.74009671   -8.2601128     617.9745  0.015830887  0.015268755            1 
 3254000   0.75136141   -8.2605475    619.36239  0.015861565  0.015263639            3 
 3255000    0.7193496   -8.2473503    619.85169  0.015869219  0.015258544            1 
 3256000   0.72825666   -8.2470795    619.04721  0.015843755  0.015253454            2 
 3257000   0.73251951   -8.2303098    618.40569  0.015822477  0.015248358            2 
 3258000   0.71815441   -8.2599157    618.64836  0.015823828  0.015243288            1 
 3259000   0.73507614   -8.2809574    618.14029  0.015805981  0.015238211            4 
 3260000   0.71878763   -8.2434355    620.00365  0.015848764   0.01523311            1 
 3261000   0.72653188   -8.2622699    619.72337  0.015836741  0.015228018            3 
 3262000   0.73692877   -8.2479421    619.55308  0.015827536  0.015222927            2 
 3263000   0.72897792   -8.2594736    619.20763  0.015813863  0.015217833            3 
 3264000    0.7340527    -8.271472    619.18228  0.015808371  0.015212742            2 
 3265000   0.71145648   -8.2670085    620.23057  0.015830285  0.015207667            2 
 3266000   0.73245443   -8.2504999    618.48315  0.015780852  0.015202577            3 
 3267000   0.73155196   -8.2313404    620.59615  0.015829919  0.015197521            3 
 3268000   0.72571714   -8.2474179    620.04845  0.015811109  0.015192467            2 
 3269000   0.70911699   -8.2548987    620.65969  0.015821854  0.015187405            2 
 3270000   0.72195384   -8.2698151    618.67405  0.015766413  0.015182333            2 
 3271000   0.71577022   -8.2700246    619.22869  0.015775723  0.015177247            6 
 3272000   0.73008703   -8.2526503    618.92627    0.0157632  0.015172157            2 
 3273000   0.72676125   -8.2912709    618.21757   0.01574034  0.015167076            4 
 3274000   0.71217401   -8.2551592    619.02392  0.015756056  0.015161989            4 
 3275000   0.71731424   -8.2445464    620.03744  0.015777034  0.015156926            2 
 3276000   0.74290627   -8.2377343    620.82629  0.015792284  0.015151872            1 
 3277000   0.72628205   -8.2334012    619.85067  0.015762656  0.015146827            4 
 3278000   0.70745457   -8.2713923    620.36126  0.015770827   0.01514177            3 
 3279000   0.73390985   -8.2661921    619.29855   0.01573901  0.015136719            2 
 3280000   0.72957263   -8.2657071    619.88886  0.015749209  0.015131672            2 
 3281000   0.74704417   -8.2436296    620.26693  0.015754011  0.015126625            1 
 3282000    0.7087048   -8.2645997    619.49201  0.015729535  0.015121583            3 
 3283000   0.73112959   -8.2699336    620.43739  0.015748741  0.015116544            2 
 3284000   0.72030943   -8.2769987     620.0016  0.015732887  0.015111506            2 
 3285000   0.72953465   -8.2426083    620.61226  0.015743588   0.01510646            3 
 3286000   0.72096525   -8.2448649    621.14644  0.015752344  0.015101416            2 
 3287000   0.71847783   -8.2680247    621.68648  0.015761243  0.015096385            2 
 3288000   0.72069908   -8.2410912    621.05546  0.015740457  0.015091351            2 
 3289000   0.73398514   -8.2584826    621.09896  0.015736773  0.015086309            2 
 3290000   0.71068752   -8.2409211    619.35324  0.015687772  0.015081267            1 
 3291000   0.70055018   -8.2424858    620.54307  0.015713133  0.015076227            3 
 3292000    0.7116463   -8.2570402    619.17976   0.01567385  0.015071186            3 
 3293000   0.72486982   -8.2296031    619.83685  0.015685719  0.015066138            1 
 3294000   0.73074715   -8.2602653    620.04767   0.01568629  0.015061094            3 
 3295000   0.73032892   -8.2620561    619.95604  0.015679212   0.01505606            5 
 3296000   0.72169075   -8.2345597    620.38165  0.015685216  0.015051022            2 
 3297000   0.71804063   -8.2736557    618.68422  0.015637555  0.015045989            1 
 3298000   0.73626676   -8.2645729    620.07874   0.01566805  0.015040973            2 
 3299000    0.7281814   -8.2803667    619.21855  0.015641572  0.015035941            2 
 3300000   0.71248923   -8.2375664    619.82354  0.015652109  0.015030913            2 
 3301000   0.72591155   -8.2708187    619.72239  0.015644814    0.0150259            2 
 3302000   0.72480759   -8.2382726    620.63978  0.015663229  0.015020895            1 
 3303000    0.7174137   -8.2379663    620.15198   0.01564618   0.01501589            2 
 3304000   0.72465474    -8.234884    619.98262  0.015637173   0.01501091            2 
 3305000   0.71387495   -8.2656022     618.8993  0.015605126  0.015005912            2 
 3306000   0.72407987   -8.2504405    621.40752   0.01566363  0.015000913            2 
 3307000   0.71856109   -8.2437595    620.96389  0.015647714  0.014995915            2 
 3308000   0.71819542   -8.2720062    619.35634  0.015602487  0.014990904            3 
 3309000   0.72219205   -8.2374137    621.17444  0.015643559  0.014985916            3 
 3310000   0.72215622   -8.2578909    620.77816  0.015628856  0.014980931            3 
 3311000    0.7107741    -8.267447    620.11716  0.015607499  0.014975925            3 
 3312000   0.72420456   -8.2464629    619.47886  0.015586727  0.014970916            2 
 3313000   0.72714477   -8.2604647    620.50156  0.015607746  0.014965897            2 
 3314000   0.71102474   -8.2861697    620.52842  0.015603712  0.014960868            3 
 3315000   0.71781068   -8.2635433    620.13466  0.015589107  0.014955846            5 
 3316000   0.71607427    -8.293709    618.99869  0.015555858   0.01495083            1 
 3317000   0.73068812   -8.2840433    619.32553  0.015559379    0.0149458            2 
 3318000   0.72201723   -8.2594185    619.49237   0.01555888  0.014940767            2 
 3319000    0.7142833   -8.2800832    619.76286  0.015560984   0.01493576            2 
 3320000    0.7301195   -8.2952363    619.42587  0.015547838  0.014930733            4 
 3321000   0.72576692   -8.2756793     618.9757   0.01553186  0.014925702            3 
 3322000   0.71609006   -8.2677148    619.26064  0.015534333  0.014920685            1 
 3323000   0.71622664   -8.2818856    620.25455  0.015554583  0.014915669            1 
 3324000   0.71859076   -8.2568459    620.10542  0.015546165  0.014910659            4 
 3325000   0.72088311   -8.2554967    620.14931  0.015542589  0.014905648            1 
 3326000   0.74079263     -8.27578     619.2786    0.0155161  0.014900638            2 
 3327000   0.70908035   -8.2808252    620.65837  0.015545997  0.014895623            2 
 3328000   0.72161013   -8.2566614    619.62275  0.015515393  0.014890616            6 
 3329000   0.71345374    -8.313733    619.45919  0.015506638  0.014885603            3 
 3330000   0.73071248   -8.2711224     620.6832  0.015532613   0.01488059            1 
 3331000   0.71210789   -8.2737045    619.36354  0.015494935  0.014875569            1 
 3332000   0.70653541   -8.2507048    621.71144  0.015549006  0.014870567            3 
 3333000   0.70423206   -8.2628645    621.22961  0.015532294  0.014865561            3 
 3334000   0.73482117   -8.2732043    620.60042  0.015511908   0.01486056            1 
 3335000   0.72791569   -8.3095293    619.37723  0.015476692  0.014855548            2 
 3336000   0.71911939   -8.2683399     619.3397  0.015471116  0.014850523            3 
 3337000   0.73188073   -8.2787131    618.81837   0.01545346  0.014845508            2 
 3338000   0.73895689   -8.2996948    620.55112  0.015492089  0.014840481            2 
 3339000   0.72817643   -8.2980898    618.81584  0.015444141  0.014835454            2 
 3340000   0.72657385   -8.3084149    618.19827  0.015424109  0.014830433            3 
 3341000   0.71499122   -8.3155201    618.32849   0.01542274  0.014825409            5 
 3342000   0.71992141   -8.2751753    619.84643  0.015455975  0.014820391            1 
 3343000   0.68914884    -8.284565    618.80009  0.015425269  0.014815374            2 
 3344000   0.71659772   -8.3059979    618.81182  0.015420948  0.014810348            1 
 3345000   0.70582129    -8.290558    619.80944  0.015441192  0.014805327            2 
 3346000   0.71875912   -8.2928443    619.59031   0.01543112  0.014800305            3 
 3347000   0.73470127   -8.3086434    619.73772  0.015430179  0.014795283            2 
 3348000   0.72940444   -8.3030918    618.33561  0.015390671  0.014790271            1 
 3349000   0.71377079    -8.271762    619.61303  0.015417862   0.01478527            3 
 3350000   0.71927636   -8.2906782     618.3819  0.015382634  0.014780269            2 
 3351000    0.7073428   -8.2917367    620.39829  0.015428188  0.014775262            4 
 3352000   0.71511543   -8.2903503    619.58172  0.015403285  0.014770273            2 
 3353000   0.71846892   -8.3034471     620.2579  0.015415496  0.014765281            2 
 3354000   0.72816255   -8.2885348    620.12592  0.015407621  0.014760289            2 
 3355000    0.7280815   -8.3134841    618.86774  0.015371777   0.01475528            5 
 3356000   0.71614411    -8.291157    617.48453   0.01533285  0.014750268            1 
 3357000    0.7063552   -8.2957546    620.09056  0.015392974  0.014745268            5 
 3358000     0.727611   -8.3160205     618.7701  0.015355621   0.01474026            2 
 3359000   0.72762619   -8.2886308    618.75092  0.015350573  0.014735266            3 
 3360000   0.72577092   -8.2939599    619.14484  0.015355775  0.014730275            3 
 3361000   0.69448638   -8.2817843    619.17737  0.015352012  0.014725298            1 
 3362000   0.72514107   -8.3012244    619.10654  0.015345691   0.01472031            2 
 3363000   0.73070011   -8.2956206    619.80501  0.015358435  0.014715328            2 
 3364000   0.71371221   -8.2962489    618.70068  0.015326513  0.014710344            4 
 3365000   0.72905687   -8.3191704    619.64911  0.015345446  0.014705353            2 
 3366000   0.72400004   -8.2994636    620.73627  0.015367802  0.014700361           10 
 3367000   0.71026889   -8.3215203    619.04972  0.015321496  0.014695381           11 
 3368000   0.72438139   -8.2986406    619.18746  0.015320355  0.014690407            2 
 3369000   0.71846431   -8.3026137    620.05385  0.015337238  0.014685417            2 
 3370000   0.71911062   -8.2933161    619.26696  0.015313228  0.014680415            2 
 3371000   0.70687007   -8.3034029    619.68956  0.015319133  0.014675425            1 
 3372000   0.70255717   -8.2889561    620.87431  0.015343869  0.014670451            2 
 3373000   0.71125836   -8.2851982     619.9491  0.015316462  0.014665482            2 
 3374000   0.70683548   -8.2810691    621.14307  0.015341412  0.014660514            3 
 3375000   0.71377783   -8.2860454    620.65055  0.015324705  0.014655545            3 
 3376000   0.71076175   -8.2857824     619.6703  0.015295969  0.014650605            2 
 3377000   0.71153399   -8.2636825    622.67101  0.015365487  0.014645669            1 
 3378000   0.70259804   -8.2619328    620.52042  0.015307885   0.01464073            4 
 3379000   0.69729356   -8.2759896    620.38883  0.015300109  0.014635803            2 
 3380000   0.71108477   -8.3058639    620.96285  0.015309735  0.014630858            4 
 3381000   0.70505701   -8.2681996    619.64566  0.015272741  0.014625912            2 
 3382000   0.70857156   -8.3059903    620.44768  0.015287987  0.014620958            3 
 3383000   0.69981604   -8.3215125    619.74394  0.015266133  0.014615994            6 
 3384000    0.7112734    -8.294691    619.29301  0.015250517  0.014611046            1 
 3385000   0.72435743   -8.3202157    618.09808  0.015216595  0.014606094            2 
 3386000   0.72642569   -8.2762495    619.15234  0.015238047  0.014601138            3 
 3387000   0.71734862   -8.2933438    621.30997  0.015286634  0.014596188            2 
 3388000   0.71163281   -8.2873438    620.68329  0.015266708  0.014591254            1 
 3389000   0.70414306   -8.2913472    620.14446  0.015248954  0.014586319            7 
 3390000   0.70350195   -8.3111878    620.96017  0.015264508  0.014581381            2 
 3391000   0.69951027   -8.3080868    619.63431  0.015227423  0.014576454            2 
 3392000   0.70398305   -8.2854697    619.26282  0.015213807  0.014571528            2 
 3393000   0.69491296   -8.3045211    620.12107  0.015230403  0.014566604            1 
 3394000   0.70225227   -8.2687365    621.52904  0.015260485  0.014561682            3 
 3395000   0.71145405   -8.3187937    619.96199  0.015217525  0.014556754            2 
 3396000   0.70647697   -8.2634433    619.92152  0.015212051  0.014551828            2 
 3397000   0.70791883   -8.3094971    619.95286  0.015208342  0.014546908            4 
 3398000   0.72162381    -8.300952    620.17263  0.015209256  0.014541981            3 
 3399000    0.6976114   -8.3338468    618.81931  0.015171602   0.01453704            3 
 3400000   0.69792815   -8.3114718    618.40489  0.015156983  0.014532093            2 
 3401000   0.69477478   -8.3116885    620.17801  0.015195972  0.014527138            2 
 3402000   0.68792224   -8.3252148    618.83938  0.015158715  0.014522172            1 
 3403000   0.69640197   -8.3071909    619.38171  0.015167541  0.014517208            3 
 3404000   0.70559605    -8.326879    618.62853  0.015144647  0.014512248            2 
 3405000   0.69390405   -8.2922688    618.10159  0.015127303   0.01450731            1 
 3406000   0.71063945   -8.3110017    619.81993  0.015164903  0.014502358            1 
 3407000   0.70770446   -8.2957781    621.12259  0.015192315  0.014497417            1 
 3408000   0.71824793   -8.3122725    620.10291  0.015162923  0.014492493            2 
 3409000   0.71425925   -8.3058101     618.9805  0.015131038  0.014487553            3 
 3410000   0.71661423   -8.3068292    619.60243  0.015141799  0.014482609            1 
 3411000   0.68883168   -8.3315472    618.15529  0.015102006  0.014477662            1 
 3412000   0.71385413   -8.2917983     620.6943  0.015159591  0.014472726            3 
 3413000    0.7031015   -8.3169858    620.31442  0.015145874  0.014467796            2 
 3414000   0.72038111   -8.3056666     619.3838  0.015118722   0.01446287            2 
 3415000   0.70413373   -8.3082391    619.40974  0.015114928  0.014457939            2 
 3416000   0.70674421   -8.3130532    620.40622  0.015134812     0.014453            1 
 3417000   0.71078062   -8.3111043    619.66519  0.015112311  0.014448094            6 
 3418000   0.71482686   -8.3257006    618.61003  0.015082164  0.014443169            4 
 3419000   0.70821254   -8.3117919    619.14098  0.015090694  0.014438242            2 
 3420000   0.70750958   -8.3273341    619.23337  0.015088533  0.014433317            6 
 3421000   0.69542671   -8.3288609     619.9518  0.015101622  0.014428373            2 
 3422000   0.69977793   -8.3224297    618.62081  0.015064797   0.01442344            2 
 3423000    0.7115941   -8.3237877    619.49222   0.01508161  0.014418515            2 
 3424000   0.71024321   -8.3162794    618.26467  0.015047329  0.014413591            2 
 3425000   0.70804037   -8.3116955    619.46938  0.015072248  0.014408663            3 
 3426000   0.69711883   -8.3019368    619.78295  0.015075475  0.014403744            4 
 3427000   0.70223547   -8.3163063     619.3981  0.015061718  0.014398819            1 
 3428000   0.70411945   -8.3378767    619.76769  0.015066309  0.014393893            4 
 3429000   0.69947842   -8.3261298    619.31733   0.01505097  0.014388958            3 
 3430000   0.70774768   -8.3288623    618.50936  0.015026952  0.014384021            2 
 3431000    0.7062209   -8.3284375      619.842   0.01505494  0.014379089            2 
 3432000   0.70778756   -8.3507547    618.84501  0.015026346  0.014374164            2 
 3433000   0.70668392   -8.3036178     618.7722  0.015020201   0.01436923            4 
 3434000   0.69955151   -8.3305616    619.49581  0.015033387  0.014364303            1 
 3435000   0.69519078   -8.3567524    618.36669  0.015001618  0.014359368            2 
 3436000   0.71166662   -8.3428894    619.77103  0.015031311  0.014354436            2 
 3437000    0.7146954   -8.3427739    617.52548  0.014972493  0.014349502            1 
 3438000     0.707839   -8.3306174    617.48702  0.014967205  0.014344562            3 
 3439000    0.7104693   -8.3432802    619.07984   0.01500145  0.014339633            1 
 3440000   0.70094368   -8.3462579    618.23539  0.014976633  0.014334709            2 
 3441000   0.70055262   -8.3029477    619.21874  0.014996095  0.014329783            1 
 3442000   0.71059264   -8.3307793    619.37357  0.014995486  0.014324877            3 
 3443000   0.70267925   -8.3449587    619.53974  0.014995153  0.014319953            1 
 3444000   0.70674693   -8.3220092     618.0415  0.014954547  0.014315052            1 
 3445000   0.70721636    -8.337012    619.88827  0.014994878  0.014310156            2 
 3446000   0.71161419   -8.3440218    619.75053  0.014987196  0.014305256            1 
 3447000   0.71063306   -8.3188851    618.99522  0.014964588  0.014300362            1 
 3448000    0.7068819   -8.3263687    620.49038  0.014996384  0.014295458            3 
 3449000   0.70324019   -8.3291537    618.96849  0.014955264  0.014290556            3 
 3450000   0.69645021   -8.3594232    619.37358  0.014960715  0.014285639            3 
 3451000   0.69075388   -8.3376149    619.35518  0.014955935  0.014280738            3 
 3452000   0.69668733   -8.3223022    620.13014  0.014970311   0.01427583            2 
 3453000   0.69409079    -8.330717    619.08886  0.014940845  0.014270922            3 
 3454000    0.6951194   -8.3441407    618.75698  0.014928512  0.014266015            1 
 3455000   0.69682432   -8.3495733    618.94388  0.014928699  0.014261113            3 
 3456000   0.70137312   -8.3196344     618.0977  0.014903976  0.014256206            2 
 3457000   0.70315725   -8.3262779    618.80377  0.014916685  0.014251302            3 
 3458000   0.70376036   -8.3365223     618.9149   0.01491505  0.014246397            1 
 3459000   0.70250878   -8.3407341    618.75887  0.014906979  0.014241489            1 
 3460000   0.69666684    -8.333473    618.96251  0.014907575  0.014236599            1 
 3461000   0.71181817   -8.3116306    618.97064  0.014903463  0.014231708            2 
 3462000   0.70343768   -8.3288867    619.01246  0.014900165   0.01422683            2 
 3463000   0.70799827   -8.3449643    618.40587  0.014881265  0.014221942            3 
 3464000   0.69814437   -8.3230091    618.91359  0.014889184  0.014217052            2 
 3465000   0.70930291   -8.3422678     619.4485  0.014897751  0.014212158            2 
 3466000   0.71631474   -8.3461382    619.41539  0.014892657  0.014207274            3 
 3467000   0.69858194   -8.3478933    618.40415  0.014864055  0.014202385            2 
 3468000   0.71661777   -8.3230127    619.05697  0.014875456  0.014197513            1 
 3469000   0.68594365   -8.3366047    620.43077   0.01490417  0.014192636            2 
 3470000   0.70202188   -8.3239927    619.78853  0.014884451   0.01418777            1 
 3471000   0.69106399   -8.3160871    619.13097  0.014864376  0.014182909            3 
 3472000   0.70542056   -8.3525184    618.04176  0.014833952  0.014178035            4 
 3473000   0.69735492   -8.3307184    619.45784  0.014863659  0.014173159            2 
 3474000    0.7174446   -8.3432288    620.13527   0.01487563  0.014168284            2 
 3475000   0.69771855   -8.3727103    618.99662  0.014844044  0.014163404            3 
 3476000   0.70187265   -8.3645139    618.69377  0.014832513  0.014158524            2 
 3477000   0.69195568   -8.3231531    618.19071   0.01481619  0.014153656            2 
 3478000   0.68174871   -8.3383469    618.56357  0.014820864  0.014148775            3 
 3479000    0.6921355   -8.3429311    620.20996   0.01485604  0.014143911            1 
 3480000   0.69227262   -8.3678571    618.94934  0.014821584  0.014139051            2 
 3481000   0.69533975   -8.3689142    618.68462  0.014810989  0.014134185            1 
 3482000   0.68951267   -8.3584834    618.79896  0.014809472  0.014129314            2 
 3483000   0.70361315   -8.3462387    619.05519   0.01481135  0.014124436            2 
 3484000    0.6961528   -8.3632905    618.43067  0.014792161  0.014119558            1 
 3485000   0.69591133   -8.3513361    617.37832  0.014762753  0.014114685            6 
 3486000   0.69871344   -8.3497662    619.36424  0.014805992  0.014109813            7 
 3487000   0.68441011   -8.3457909    619.76633  0.014811355  0.014104941            3 
 3488000   0.69330985   -8.3409192    619.00051  0.014788812  0.014100063            3 
 3489000   0.69366637   -8.3588549    618.48842  0.014772342  0.014095208            3 
 3490000    0.6894904   -8.3262135    619.46685  0.014791472  0.014090351            3 
 3491000   0.69038618   -8.3470126    619.30836  0.014783452  0.014085501            2 
 3492000   0.67662964   -8.3634054    618.27202  0.014754487  0.014080651            2 
 3493000   0.69443044   -8.3327328    620.97919  0.014814849  0.014075807            1 
 3494000   0.69550619   -8.3380798    619.23528  0.014769015   0.01407096            2 
 3495000   0.69492216   -8.3773532    619.78604  0.014777922  0.014066111            2 
 3496000   0.69038933   -8.3117288    618.90254  0.014752635  0.014061258            3 
 3497000   0.69858511   -8.3538836      619.675  0.014766824  0.014056412            6 
 3498000    0.6899922   -8.3239224    618.86241  0.014743244  0.014051576            3 
 3499000   0.69630649   -8.3459902    618.14454  0.014721933  0.014046732            4 
 3500000    0.6954025   -8.3547155    618.37289  0.014723164  0.014041884            3 
 3501000   0.70393303   -8.3662523    617.94281  0.014708722  0.014037039            3 
 3502000   0.68377736   -8.3582213    618.57439   0.01471955  0.014032198            4 
 3503000    0.6895288   -8.3573073    617.84601  0.014698021  0.014027363            3 
 3504000   0.68529975    -8.367575    618.33396  0.014705431  0.014022529            3 
 3505000   0.67844106   -8.3500383    619.07991  0.014718971    0.0140177            3 
 3506000   0.68725188   -8.3439131    618.88836   0.01471022  0.014012863            2 
 3507000   0.69199417   -8.3756214    618.84863  0.014705081  0.014008038            5 
 3508000   0.69165838   -8.3295972    618.53659  0.014693476  0.014003211            2 
 3509000    0.6903196   -8.3731664    620.06844  0.014725668  0.013998385            2 
 3510000   0.68273794   -8.3309874    619.40451   0.01470571  0.013993555            2 
 3511000   0.69595604    -8.345158    619.32918  0.014699734  0.013988735            1 
 3512000   0.69502428   -8.3401397    618.08599  0.014666049  0.013983915            1 
 3513000   0.69558494    -8.383004    618.09294  0.014662039  0.013979078            2 
 3514000   0.70587565   -8.3707876    618.56311  0.014669017  0.013974256            4 
 3515000   0.69880774   -8.3841869    620.24797  0.014704788  0.013969438            1 
 3516000   0.70354156   -8.3437617    620.19743  0.014699408  0.013964619            2 
 3517000   0.68531872   -8.3746095     619.8808  0.014687726  0.013959816            1 
 3518000   0.68688719   -8.4063842    619.18083  0.014666971  0.013955004            2 
 3519000   0.68078093   -8.3607323    619.63502  0.014673558  0.013950193            2 
 3520000    0.7072167   -8.3647406    618.58106  0.014644438  0.013945385            4 
 3521000   0.67155096    -8.372525    618.74765  0.014644222  0.013940572            1 
 3522000   0.69135872    -8.369517    618.19421  0.014626969  0.013935753            4 
 3523000   0.67588033   -8.3798512    618.15155  0.014621808  0.013930927            2 
 3524000   0.71487529   -8.3625205    618.57676  0.014627714  0.013926122            1 
 3525000   0.69770752   -8.3631754    617.47453  0.014597507  0.013921316            2 
 3526000   0.70474334    -8.333218     621.1799  0.014680939  0.013916519            2 
 3527000   0.68701784    -8.367071    619.14284  0.014628647  0.013911727            3 
 3528000   0.68243228   -8.3698429     618.9529  0.014620014  0.013906934            2 
 3529000   0.68812958   -8.3450524    620.19694  0.014645248  0.013902144            2 
 3530000   0.68055258   -8.3452177    618.60234  0.014603455  0.013897365            4 
 3531000   0.69215287   -8.3578448    618.46358  0.014596044  0.013892596            2 
 3532000   0.69244941   -8.3584279    619.97277  0.014627519  0.013887832            2 
 3533000   0.69452802   -8.3663263    620.79195  0.014642701  0.013883065            2 
 3534000   0.69390538   -8.3645773      620.971   0.01464278  0.013878301            3 
 3535000   0.67338469    -8.355873    618.52812  0.014581049  0.013873533            5 
 3536000   0.68580996   -8.3685453    619.21992   0.01459323  0.013868748            9 
 3537000    0.6773772   -8.3507681    617.88982  0.014557766  0.013863981            1 
 3538000   0.68099014   -8.3562804    619.85616  0.014599966  0.013859215            3 
 3539000   0.69825194   -8.3729323    619.17831  0.014579879  0.013854441            1 
 3540000   0.68998496   -8.3398552    619.88042  0.014592289  0.013849683            2 
 3541000   0.67686003   -8.3551141    618.84534  0.014563808  0.013844918            4 
 3542000    0.6925681   -8.3670478     618.1685  0.014543772  0.013840162            4 
 3543000   0.68758076   -8.3545893    619.45757  0.014569987  0.013835396            4 
 3544000   0.66925003   -8.3690006     619.6519  0.014570445  0.013830631            6 
 3545000   0.66699347   -8.3790905    619.12648  0.014553984  0.013825853            3 
 3546000   0.68253589   -8.3824956    618.75728  0.014541203   0.01382108            2 
 3547000   0.66257007   -8.3704294    618.33135  0.014527097  0.013816301            2 
 3548000   0.67270156   -8.3837763    620.10769  0.014564724  0.013811538            2 
 3549000   0.69014266   -8.3667434    617.77598   0.01450587  0.013806774            8 
 3550000   0.68964926   -8.3805669    619.08286  0.014532461   0.01380201            1 
 3551000   0.69337131   -8.3799371    619.90495  0.014547661  0.013797247            5 
 3552000   0.67627758   -8.3873871    618.62976  0.014513649  0.013792466            6 
 3553000   0.66769665   -8.3492327    620.12401   0.01454461    0.0137877            3 
 3554000   0.68571187   -8.3758137    618.03053  0.014491431  0.013782922            1 
 3555000   0.68462239   -8.3930045    618.59323  0.014500545  0.013778149            1 
 3556000   0.68006904   -8.3747691    618.15398  0.014486173   0.01377339            2 
 3557000    0.6995159   -8.3815033     619.4673  0.014512869  0.013768628            3 
 3558000   0.67097235   -8.3642342    618.43511  0.014484615   0.01376387            2 
 3559000   0.67842357   -8.3919331    617.79701  0.014465604  0.013759096            1 
 3560000   0.68492849   -8.3941316    617.75506  0.014460559  0.013754322            1 
 3561000   0.68407756   -8.3938247    618.51421  0.014474263  0.013749561            3 
 3562000   0.68991175   -8.3738712    620.09158  0.014507102   0.01374479            3 
 3563000   0.68679627   -8.3839255    617.10594  0.014433201  0.013740026            2 
 3564000   0.67661949   -8.3880637      618.811  0.014469019   0.01373526            2 
 3565000   0.69351421   -8.3718677    619.25267  0.014475285  0.013730506            3 
 3566000   0.67350357   -8.4023042    618.67095  0.014457631  0.013725745            5 
 3567000   0.68221053   -8.3788353    618.64341  0.014452935  0.013720982            1 
 3568000   0.65649519    -8.396964    619.63287  0.014471993  0.013716224            2 
 3569000   0.67310442   -8.3843966    619.42104  0.014462992   0.01371146            1 
 3570000   0.67286229   -8.3825535    618.57263  0.014439137  0.013706697            1 
 3571000   0.66678695   -8.3851029    619.19009  0.014449503  0.013701933            1 
 3572000   0.68595552   -8.3901721    618.71378  0.014434345  0.013697172            1 
 3573000   0.68391154    -8.391651    617.85626  0.014410305  0.013692409            1 
 3574000    0.6803726   -8.4101425    617.76803  0.014404216  0.013687638            2 
 3575000    0.6730704   -8.3908021     617.9036  0.014403347  0.013682866            1 
 3576000   0.68621802   -8.4040349    617.48449  0.014389553  0.013678105            1 
 3577000   0.66921683   -8.3865043    616.87632  0.014371361  0.013673338            1 
 3578000   0.67001236    -8.397109    616.90812  0.014368085  0.013668567            1 
 3579000   0.67828729   -8.3892637    617.61269  0.014380476   0.01366379            1 
 3580000   0.67667874   -8.4045266    618.52679  0.014397737  0.013659027            1 
 3581000   0.66035229   -8.4019977    616.59556  0.014348775  0.013654256            2 
 3582000   0.66743128   -8.3974567    616.95966   0.01435324  0.013649496            1 
 3583000   0.68987567   -8.3777204    617.66169  0.014365562  0.013644749            2 
 3584000   0.67642742   -8.4044724    618.09515  0.014371632  0.013639995            2 
 3585000   0.66809376   -8.4038886    618.71794    0.0143821  0.013635245            4 
 3586000   0.68290031   -8.3870088    618.39528  0.014370591  0.013630516            3 
 3587000   0.66939019    -8.391453    617.83832  0.014353646  0.013625779            1 
 3588000   0.66172475   -8.3616202    618.88561  0.014373969  0.013621052            2 
 3589000   0.67668773   -8.3850463    619.03091  0.014373338  0.013616329            3 
 3590000   0.67190306   -8.3694239    619.27263  0.014374945  0.013611623            3 
 3591000   0.69037443   -8.3601697    619.24387  0.014370275  0.013606919            2 
 3592000   0.68217598   -8.3815801    619.13633  0.014363779  0.013602208            3 
 3593000   0.68092071   -8.3638291    617.85139  0.014329979  0.013597504            2 
 3594000   0.68006876   -8.3751651    618.70352   0.01434575  0.013592788            3 
 3595000   0.69241917   -8.3840877    619.86445  0.014368671  0.013588065            2 
 3596000   0.67762327   -8.3843484    618.99528  0.014344533  0.013583354            2 
 3597000   0.67993085    -8.390533    617.85378  0.014314099  0.013578641            1 
 3598000   0.67771078    -8.369618    619.08773    0.0143387   0.01357394            2 
 3599000   0.67339074   -8.3739618    619.54355  0.014345271   0.01356924            4 
 3600000   0.67261914   -8.3656442     619.3005   0.01433566  0.013564544            1 
 3601000   0.67338221   -8.3731192    619.04899  0.014325858  0.013559859            1 
 3602000   0.67390173   -8.4010884    619.17636  0.014324828  0.013555177            1 
 3603000   0.67195443   -8.3711691    619.06838  0.014318355  0.013550493            2 
 3604000   0.69123624   -8.4153435    619.28064   0.01431929  0.013545805            3 
 3605000   0.67801846   -8.3793189    618.65824   0.01430093  0.013541126            2 
 3606000   0.67073502   -8.4025903    618.63914  0.014296523   0.01353645            2 
 3607000   0.68098462   -8.4014909    619.47986  0.014311983  0.013531764            3 
 3608000   0.67239615   -8.3876617    618.34455  0.014281794  0.013527077            2 
 3609000   0.67510595   -8.3899067    618.33609  0.014277641  0.013522399            1 
 3610000   0.66671378   -8.3768232    618.54787  0.014278575  0.013517731            2 
 3611000   0.67466527   -8.3581649    618.67364  0.014277523  0.013513062            3 
 3612000    0.6785493    -8.374096    618.96405  0.014280271   0.01350839            1 
 3613000   0.67949982   -8.3984511    619.87264  0.014297275  0.013503719            2 
 3614000   0.67687833    -8.367858    618.68036  0.014265826  0.013499041            2 
 3615000    0.6734578   -8.3680416    618.87179  0.014266293  0.013494375            1 
 3616000   0.66708946   -8.3762006    619.02577  0.014265896  0.013489714            1 
 3617000    0.6650525    -8.387348    619.00854  0.014261555  0.013485042            2 
 3618000   0.68414097    -8.390083    618.53515   0.01424671  0.013480385            1 
 3619000   0.67515714    -8.384589    619.06187  0.014254902  0.013475727            1 
 3620000   0.67440613   -8.4067915    617.34273  0.014211389  0.013471064            1 
 3621000   0.68337562   -8.3742215    618.10644   0.01422504    0.0134664            1 
 3622000    0.6871499   -8.3978141    619.48122  0.014252743  0.013461737            2 
 3623000   0.66920206   -8.4003754     618.2582  0.014220678  0.013457077            2 
 3624000   0.66893757   -8.3853436    618.74806  0.014228018  0.013452422            2 
 3625000   0.68121799   -8.4009759    619.04031  0.014230812   0.01344777            5 
 3626000   0.68370974    -8.360122    618.40349  0.014212252   0.01344312            3 
 3627000   0.66820988   -8.4058062    618.23474  0.014204456   0.01343847            4 
 3628000   0.66389978   -8.3767181    618.66414  0.014210404  0.013433821            1 
 3629000   0.67557409   -8.3991026    618.89661  0.014211826  0.013429172            2 
 3630000   0.65575232   -8.3829663    619.58957  0.014223819  0.013424516            2 
 3631000   0.67293572   -8.3799644     620.1315  0.014232339  0.013419876            3 
 3632000    0.6743628   -8.3665738    618.82095  0.014198352  0.013415228            3 
 3633000   0.67909792   -8.4161497    618.59709  0.014189308  0.013410578            2 
 3634000   0.67314354   -8.3920415    618.85552   0.01419133  0.013405932            3 
 3635000   0.68812915    -8.405244    617.34448  0.014152785  0.013401286            2 
 3636000   0.67242765    -8.392244     618.4394  0.014173987   0.01339664            2 
 3637000   0.67534597   -8.4059986    618.48373  0.014171105  0.013391989            3 
 3638000   0.68213801   -8.3702824    619.07384  0.014180728  0.013387348            3 
 3639000   0.66936452    -8.385123    619.46045  0.014185684  0.013382704            3 
 3640000   0.67165994   -8.4014627    618.62639  0.014162692   0.01337806            2 
 3641000   0.66343017   -8.4017691    618.36799  0.014152888  0.013373412            4 
 3642000   0.67410139   -8.3942712    618.78295  0.014158497  0.013368764            4 
 3643000     0.673008   -8.3750677    618.18645  0.014140965   0.01336412            3 
 3644000   0.68028975   -8.3959229    619.36947  0.014164139  0.013359481            3 
 3645000   0.65702164   -8.3890093    618.77721  0.014146713  0.013354846            2 
 3646000   0.65527225    -8.395713    618.33898  0.014132816  0.013350208            3 
 3647000   0.65865027   -8.3991333    618.81301  0.014139773  0.013345557            2 
 3648000   0.67434897   -8.4024447    618.42639  0.014127065  0.013340912            2 
 3649000   0.67364072   -8.4068564    617.54204  0.014102997  0.013336265            2 
 3650000   0.67464011   -8.3835838    618.89985  0.014130134  0.013331626            2 
 3651000   0.66519417   -8.3835719    619.03727    0.0141294  0.013326987            4 
 3652000   0.68388499   -8.3989956    618.64047  0.014116477  0.013322355            2 
 3653000   0.68837715   -8.4044549    618.96338  0.014119979  0.013317719            2 
 3654000   0.67351522   -8.4037126     618.5639  0.014107004  0.013313093            2 
 3655000   0.66841422    -8.381027     618.9752  0.014112522  0.013308468            2 
 3656000   0.66111919   -8.3892035    618.38568  0.014095224  0.013303844            1 
 3657000    0.6691436    -8.397487     619.2532  0.014111138  0.013299215            1 
 3658000    0.6516556   -8.3963016      618.034  0.014079506  0.013294588            1 
 3659000   0.66085413   -8.3722154    618.18001  0.014078983  0.013289958            3 
 3660000   0.66629669   -8.4115505     618.7196  0.014087423  0.013285339            1 
 3661000   0.65625125   -8.3859593    619.50329  0.014101413  0.013280726            3 
 3662000   0.66922094   -8.3881051    618.82522  0.014082132  0.013276104            1 
 3663000   0.65726441   -8.3997485    618.79565  0.014077615  0.013271491            2 
 3664000   0.68405552   -8.3937543    618.91825  0.014076561  0.013266883            1 
 3665000   0.66696325   -8.3720342    618.89826  0.014072266  0.013262279            2 
 3666000   0.66289182    -8.415706    618.23333  0.014053313  0.013257676            3 
 3667000   0.68112209   -8.3943014    619.42142   0.01407648  0.013253071            2 
 3668000   0.66154215   -8.4139296    616.84812  0.014014179  0.013248457            3 
 3669000   0.67678971   -8.4327112    618.32641  0.014043936  0.013243836            3 
 3670000   0.66985002   -8.4088959    618.53189  0.014044775  0.013239208            1 
 3671000   0.66365189   -8.4099922    618.03143  0.014029589  0.013234599            2 
 3672000   0.66620425   -8.4184611    617.74146  0.014019187  0.013229993            1 
 3673000   0.66332047   -8.3924419    620.27363   0.01407282  0.013225393            2 
 3674000   0.64923417   -8.3941803    618.78396  0.014035201  0.013220797            1 
 3675000   0.67448281   -8.4081875    618.07774  0.014015368  0.013216197            2 
 3676000   0.64988185   -8.3991289    617.78444  0.014004907   0.01321159            2 
 3677000   0.66781312   -8.4071424    618.93599  0.014027196  0.013206988            1 
 3678000   0.67121841   -8.3987344    618.82142  0.014020786  0.013202387            2 
 3679000    0.6545253   -8.3810497    618.51884  0.014010122  0.013197792            2 
 3680000   0.66411631   -8.3964832     619.4752  0.014027971  0.013193205            2 
 3681000   0.66964763   -8.3790979    618.00441  0.013990863  0.013188609            1 
 3682000   0.66544607   -8.4146389    617.84486  0.013983452  0.013184014            4 
 3683000   0.64830192   -8.3957277     619.3458  0.014013617  0.013179427            3 
 3684000   0.65744347   -8.4076764    617.47469  0.013967488  0.013174841            2 
 3685000   0.66065753   -8.3895761    617.56611  0.013965764  0.013170264            3 
 3686000   0.65354359   -8.4018839    617.78557  0.013966937  0.013165685            2 
 3687000   0.66600181   -8.4095664    617.79855  0.013963442  0.013161111            2 
 3688000   0.65756199   -8.4020379    617.66127  0.013956554  0.013156547            1 
 3689000   0.65060681   -8.4046771    619.23148  0.013988242   0.01315198            6 
 3690000   0.67068795   -8.4042314    618.78332   0.01397433  0.013147408            3 
 3691000   0.65784952   -8.3866342    618.61535  0.013966751  0.013142843            2 
 3692000   0.66266751   -8.3891401    619.14249  0.013974867  0.013138266            1 
 3693000   0.65805984    -8.421261    617.72175  0.013939023  0.013133688            1 
 3694000   0.66025375    -8.398853    617.68717   0.01393447  0.013129107            1 
 3695000   0.66593246   -8.4156806    618.41969  0.013947219  0.013124533            3 
 3696000   0.67256659   -8.4210108    618.43247  0.013943734  0.013119953            1 
 3697000   0.64949594   -8.4185653    616.48972  0.013896171  0.013115373            3 
 3698000   0.65506573   -8.4281016    616.20705  0.013886043   0.01311081            2 
 3699000   0.66574115   -8.4372992    617.94822  0.013921515  0.013106234            1 
 3700000   0.66091567   -8.4071438    619.01426  0.013941763  0.013101661            1 
 3701000   0.64678821   -8.4173833    617.66648  0.013907648  0.013097097            2 
 3702000   0.66822069   -8.4162048    617.76468  0.013906102  0.013092544            1 
 3703000   0.67393966   -8.4486354    619.11495  0.013932734  0.013087983            1 
 3704000   0.67756839   -8.4269243     617.7782  0.013898898  0.013083426            2 
 3705000   0.66091896   -8.4288572    618.50874  0.013911578  0.013078862            1 
 3706000   0.66929085    -8.421314    617.70477  0.013889746  0.013074298            1 
 3707000   0.65799133   -8.4128708    617.11685  0.013872782  0.013069732            2 
 3708000   0.66478797   -8.4217731    618.10461   0.01389124  0.013065172            2 
 3709000   0.65267663   -8.3905811    619.88302  0.013927452  0.013060621            2 
 3710000   0.63919434    -8.399131    617.43091  0.013868619   0.01305609            4 
 3711000   0.66258267   -8.4398264    617.90291  0.013875481  0.013051546            5 
 3712000    0.6530122   -8.4236344     618.6481  0.013888472  0.013047006            3 
 3713000   0.64672641   -8.4305064    618.12957  0.013873094  0.013042468            1 
 3714000   0.65185619   -8.4299387    616.63971   0.01383593  0.013037942            2 
 3715000   0.66183666   -8.4208701    618.80559  0.013880789  0.013033408            2 
 3716000    0.6757893   -8.4345181    619.08892  0.013883408  0.013028875            3 
 3717000   0.65057415   -8.4032797     619.4548  0.013887876  0.013024341            3 
 3718000   0.66227924   -8.4112225    618.56838  0.013864273  0.013019818            2 
 3719000   0.65269776   -8.4027843    618.35845   0.01385584  0.013015292            2 
 3720000   0.66378781   -8.4205076    618.56778  0.013856805  0.013010768            2 
 3721000   0.65371621   -8.4275966    618.27875  0.013846608  0.013006251            1 
 3722000    0.6480908   -8.4239509    618.46975  0.013847164  0.013001729            2 
 3723000   0.65070257   -8.4215987    617.43399  0.013820261  0.012997209            2 
 3724000    0.6526727   -8.4076268    618.35257  0.013837105  0.012992677            1 
 3725000   0.64034703   -8.4295411    617.23759  0.013808447   0.01298815            3 
 3726000   0.63257623   -8.4441613    617.43058  0.013809057  0.012983623            2 
 3727000   0.68116049   -8.4406937    618.73231  0.013834458  0.012979103            1 
 3728000   0.66298838   -8.4154153    618.26566  0.013820316  0.012974582            1 
 3729000   0.66052171   -8.4232101    617.79918  0.013806185  0.012970066            2 
 3730000    0.6512254   -8.4312928    618.00903  0.013807172  0.012965545            3 
 3731000   0.65602612   -8.4334664    616.75658  0.013775498  0.012961028            3 
 3732000   0.65301311   -8.4157408    618.45395  0.013809708  0.012956513            4 
 3733000   0.65036368   -8.4304042    617.65057  0.013788074  0.012951999            3 
 3734000   0.65371419   -8.4476513    618.15752  0.013795695   0.01294749            2 
 3735000   0.65529483   -8.4407217    617.96757  0.013787764  0.012942973            1 
 3736000   0.66011471   -8.4192527    617.53285  0.013774377  0.012938462            2 
 3737000   0.66527347   -8.4439988    616.55236  0.013748826  0.012933944            3 
 3738000   0.65357044   -8.4269464    616.77506  0.013750113  0.012929423            1 
 3739000    0.6551278   -8.4304586     618.2351  0.013778976  0.012924917            1 
 3740000    0.6445703   -8.4453105     617.3496  0.013755562  0.012920409            3 
 3741000   0.65734631   -8.4198298    617.71835  0.013760099  0.012915906            4 
 3742000   0.66801196   -8.4304666     618.3553  0.013770606  0.012911409            2 
 3743000   0.65096926   -8.4271901    618.17647  0.013762946  0.012906907            4 
 3744000   0.63926054   -8.4251217    616.86152  0.013730002  0.012902402            3 
 3745000   0.64508925   -8.4574596    617.27944  0.013735635  0.012897889            1 
 3746000   0.64039741   -8.4284077    617.31044  0.013732658  0.012893379            2 
 3747000   0.64327412   -8.4194802    618.66331  0.013759081  0.012888876            4 
 3748000   0.65419901   -8.4411188    617.43524  0.013728105  0.012884373            2 
 3749000   0.64893312   -8.4529201    616.54493  0.013704653  0.012879868            2 
 3750000    0.6556602   -8.4326071    618.33073  0.013740683  0.012875357            3 
 3751000   0.64982321     -8.45872    618.16535  0.013733345  0.012870848            1 
 3752000   0.64016176   -8.4212166    617.93883  0.013724654  0.012866333            3 
 3753000   0.65170584   -8.4814733     616.7085  0.013693678  0.012861819            1 
 3754000   0.66400321   -8.4683655    616.36843  0.013682481  0.012857303            2 
 3755000   0.65768389   -8.4491451     616.6851  0.013685866  0.012852799            3 
 3756000   0.66254818    -8.429885    617.21499  0.013693978  0.012848302            3 
 3757000   0.65369469   -8.4373975    617.40146  0.013694469  0.012843807            1 
 3758000   0.64309048   -8.4407904    617.15343  0.013685325  0.012839325            2 
 3759000   0.66266692   -8.4437432    617.36069  0.013686279  0.012834831            3 
 3760000    0.6426469   -8.4613437    617.42842   0.01368414  0.012830334            2 
 3761000   0.66861869   -8.4496277    617.01731  0.013671393  0.012825834            3 
 3762000   0.66473544   -8.4517622    617.30164  0.013674057  0.012821345            2 
 3763000    0.6530466   -8.4558291     617.2392  0.013669041  0.012816855            2 
 3764000    0.6419384   -8.4216809    618.39091  0.013690908  0.012812363            2 
 3765000   0.65773047   -8.4547003    616.80581  0.013652187  0.012807873            2 
 3766000   0.64896919    -8.441831    617.17941  0.013656829  0.012803377            2 
 3767000    0.6539049   -8.4424947    617.84741  0.013667981   0.01279889            2 
 3768000   0.63703234   -8.4481341     617.6584  0.013660173    0.0127944            3 
 3769000   0.65053612   -8.4580996    616.71936  0.013635787  0.012789919            1 
 3770000   0.63069335   -8.4640787    615.71143   0.01360989  0.012785442            2 
 3771000   0.62406173   -8.4420691    617.01052  0.013634989  0.012780962            2 
 3772000   0.64188597   -8.4161285    616.75988  0.013625837  0.012776489            1 
 3773000    0.6538186   -8.4278598    617.54301  0.013639522  0.012772013            3 
 3774000   0.65390018   -8.4564392    616.31681  0.013608833  0.012767544            3 
 3775000   0.65092888   -8.4321202    617.45853  0.013630431  0.012763077            2 
 3776000    0.6599613   -8.4461108     616.3788  0.013602993  0.012758612            3 
 3777000   0.64826055   -8.4710506    616.20863  0.013595637  0.012754138            2 
 3778000   0.63681649   -8.4514321     616.9178   0.01360768  0.012749664            5 
 3779000   0.63243758   -8.4696348     617.4558  0.013615943  0.012745195            2 
 3780000   0.65012707   -8.4587926    616.71649  0.013596043  0.012740725            2 
 3781000   0.64243303   -8.4688683    617.13978  0.013601776  0.012736265            2 
 3782000   0.65370815   -8.4660141     616.5881  0.013586024  0.012731802            3 
 3783000   0.64312875   -8.4415456    617.01647  0.013591869  0.012727331            1 
 3784000   0.64723417   -8.4619652    617.42495  0.013597272  0.012722864            2 
 3785000   0.63882694   -8.4912935    616.83376  0.013580664  0.012718405            2 
 3786000   0.63538778   -8.4769742    617.20923  0.013585341  0.012713939            4 
 3787000   0.66068666   -8.4625228    618.37991  0.013607515   0.01270948            2 
 3788000   0.63083128   -8.4881274    616.84749   0.01357021  0.012705016            2 
 3789000   0.65556732   -8.4573121     617.3974  0.013578724  0.012700554            3 
 3790000   0.63870195   -8.4599964     617.4246  0.013575739    0.0126961            2 
 3791000   0.63431979   -8.4574795    617.47596  0.013573287  0.012691643            2 
 3792000   0.64584206   -8.4920858    616.03383  0.013538015  0.012687189            2 
 3793000   0.64652582    -8.452581    616.08581  0.013535588  0.012682744            2 
 3794000   0.65637748   -8.4771309    616.88239  0.013549517  0.012678293            2 
 3795000   0.64193508   -8.4996572    616.79914  0.013544118  0.012673845            2 
 3796000   0.63274313   -8.4650147    616.15608  0.013526433  0.012669393            2 
 3797000   0.63394514   -8.4832256    617.03376  0.013542133  0.012664939            1 
 3798000   0.64322025   -8.4650491    616.95145  0.013536762  0.012660495            2 
 3799000   0.63115483   -8.4635142    616.59864  0.013525459   0.01265605            2 
 3800000   0.65189945   -8.4762511    617.07535  0.013532354  0.012651603            3 
 3801000    0.6484746   -8.4866328    615.95714  0.013504278  0.012647151            1 
 3802000   0.63816828   -8.4710746    616.32832  0.013508862  0.012642706            2 
 3803000   0.65303655   -8.4832311    615.93609  0.013496715  0.012638255            3 
 3804000     0.659766   -8.4687031    616.72879  0.013510532  0.012633802            2 
 3805000   0.64652456   -8.4696816     615.9605  0.013490156  0.012629351            4 
 3806000   0.65308097   -8.4749048    616.61537   0.01350095  0.012624914            2 
 3807000   0.63599416   -8.4767807    616.62333  0.013497578  0.012620481            2 
 3808000   0.64037979   -8.4765072    616.18061  0.013484345  0.012616043            1 
 3809000   0.64407576   -8.4802944    616.59394  0.013489847  0.012611607            3 
 3810000   0.64287322   -8.4770705    615.80658  0.013469085   0.01260718            3 
 3811000   0.62765029   -8.4733864    617.07374   0.01349326  0.012602753            3 
 3812000    0.6426504   -8.4743283    616.92761  0.013486525  0.012598323            2 
 3813000   0.64488821   -8.4576322    617.41123  0.013493558  0.012593893            3 
 3814000   0.64492017   -8.4759785    616.54392   0.01347107  0.012589469            2 
 3815000   0.63728036   -8.4521715    617.17868  0.013481404  0.012585041            1 
 3816000   0.64051248   -8.4756033    616.24613  0.013457506  0.012580615            2 
 3817000   0.63780281   -8.4668883    615.26185  0.013432492  0.012576181            2 
 3818000   0.63007466   -8.4881707    615.61475  0.013436676  0.012571748            6 
 3819000   0.63900088   -8.4818554     616.9847  0.013463051   0.01256732            5 
 3820000    0.6433996   -8.4680556    616.76405  0.013454713  0.012562893            2 
 3821000   0.64544063   -8.4878491    616.72723  0.013450389  0.012558464            4 
 3822000   0.64199824   -8.4703435    617.14128  0.013455897  0.012554045            4 
 3823000   0.64872619    -8.487355    615.33803  0.013413071  0.012549625            2 
 3824000   0.65144384   -8.4701665    616.08723   0.01342589  0.012545202            2 
 3825000   0.63319974   -8.4699548    616.01559  0.013420819  0.012540792            2 
 3826000   0.64649929   -8.4884338    616.13259  0.013419859  0.012536376            5 
 3827000   0.63589508   -8.4712842    617.57018  0.013447657  0.012531962            4 
 3828000   0.64531149   -8.4827819    616.04849  0.013411017  0.012527554            2 
 3829000   0.64367368   -8.4791569    616.81628  0.013424225  0.012523146            1 
 3830000   0.63494065   -8.4766417    617.31526  0.013431577  0.012518737            4 
 3831000   0.64401483   -8.4901375    615.96502    0.0133987  0.012514331            3 
 3832000   0.64082229   -8.4867281    616.10697   0.01339829  0.012509927            1 
 3833000   0.64262378    -8.498551    615.79146  0.013387935   0.01250553            2 
 3834000   0.64154763   -8.4781327     616.1991  0.013393303  0.012501128            2 
 3835000   0.63950938   -8.5179499    616.24109  0.013390723  0.012496733            1 
 3836000   0.64351598    -8.506666    616.20549  0.013386459  0.012492335            2 
 3837000    0.6217244   -8.4782073    616.62411  0.013392062  0.012487945            2 
 3838000   0.64144478   -8.4866398    617.33652  0.013404041  0.012483558            4 
 3839000   0.64588671   -8.4942524    617.39418  0.013401801  0.012479165            3 
 3840000   0.64767923   -8.4919309    616.78884  0.013385174  0.012474777            5 
 3841000   0.64419672   -8.5021893    616.97785   0.01338579  0.012470392            2 
 3842000   0.63593086   -8.4858102    617.48801  0.013393372  0.012466001            1 
 3843000   0.64035379   -8.4920937    616.76101  0.013374122   0.01246162            2 
 3844000   0.62499143   -8.4689047    616.34772  0.013361683  0.012457242            1 
 3845000    0.6473336   -8.4549503    616.08072  0.013352421  0.012452872            1 
 3846000   0.63520791    -8.473573    616.65023  0.013361289  0.012448488            2 
 3847000    0.6382922   -8.4765261    616.60846  0.013356912  0.012444112            2 
 3848000   0.63866736   -8.4704652    615.89164  0.013337917  0.012439735            2 
 3849000   0.64491238   -8.4730118    616.09688  0.013338895  0.012435361            1 
 3850000   0.62112707   -8.4643262    618.07223  0.013378187  0.012430993            1 
 3851000   0.62408253   -8.4782309    616.97571  0.013350985  0.012426627            2 
 3852000   0.63557464   -8.4958109     616.4694  0.013336565  0.012422265            1 
 3853000   0.63386415   -8.4789803    615.32663  0.013308388  0.012417894            3 
 3854000     0.627807   -8.4696753    617.34148  0.013348501  0.012413524            1 
 3855000   0.64323287   -8.4888295    615.44463  0.013304034  0.012409165            3 
 3856000    0.6339448   -8.4850826    616.83398   0.01333061  0.012404801            2 
 3857000   0.62139198   -8.5030077    616.32505  0.013316158   0.01240044            2 
 3858000   0.64160615   -8.5094081    615.16429  0.013287634  0.012396086            2 
 3859000   0.64228467   -8.4907241    615.14832  0.013283846  0.012391735            1 
 3860000   0.64394382   -8.4829245    617.83108  0.013338322  0.012387392            3 
 3861000   0.60894634   -8.4770981    615.85122  0.013292135   0.01238304            3 
 3862000    0.6225711   -8.4930966    616.08866  0.013293817  0.012378687            3 
 3863000   0.62937493   -8.5003787    616.60284  0.013301468  0.012374327            1 
 3864000   0.63768711   -8.5119107    616.62303  0.013298461  0.012369981            4 
 3865000   0.62530689   -8.4975474    617.05331  0.013304297  0.012365632            1 
 3866000   0.62655727   -8.4981034    616.50402  0.013289016  0.012361287            2 
 3867000   0.63684175   -8.4858958    616.23443   0.01327977  0.012356948            2 
 3868000    0.6365094   -8.4938223    617.03222  0.013293524    0.0123526            1 
 3869000   0.64217585   -8.5286077    615.73849  0.013262223   0.01234825            1 
 3870000    0.6227388   -8.5030217    615.67004  0.013257322  0.012343904            6 
 3871000   0.63680897   -8.4933179    616.01457  0.013261314  0.012339561            4 
 3872000   0.63520266   -8.4831522    615.81665   0.01325363  0.012335218            3 
 3873000    0.6351856   -8.5032944    615.30172  0.013239128  0.012330885            1 
 3874000   0.62601971   -8.5032931    616.35412  0.013258349  0.012326554            1 
 3875000   0.62441305    -8.485445    615.75525  0.013242048  0.012322223            1 
 3876000   0.64177498   -8.4909855    616.60317  0.013256862  0.012317894            3 
 3877000   0.63683816    -8.494081    616.73558  0.013256289  0.012313568            1 
 3878000   0.63069399   -8.4859236    616.97754   0.01325807  0.012309245            3 
 3879000   0.62233913   -8.5141837    615.87116  0.013230883  0.012304922            3 
 3880000   0.62376851   -8.5002984    617.17921  0.013255567  0.012300594            1 
 3881000   0.63408505   -8.4907995    616.78181  0.013243619  0.012296276            1 
 3882000   0.64204888   -8.5046359    616.34907  0.013230918  0.012291954            1 
 3883000   0.61790433   -8.4881862    616.69528   0.01323494  0.012287643            2 
 3884000   0.63065585   -8.4978154    615.87652  0.013213966  0.012283337            2 
 3885000   0.64603933   -8.4939718    617.35277   0.01324223  0.012279029            1 
 3886000   0.63003201   -8.5139664    616.50349   0.01322061   0.01227472            1 
 3887000   0.63652269   -8.4984963    616.59004  0.013219064  0.012270407            2 
 3888000   0.63471551    -8.486221    616.61252  0.013216146  0.012266099            1 
 3889000   0.64363195   -8.5056471    616.40021  0.013208199   0.01226179            2 
 3890000   0.63937803   -8.5033934    617.10413  0.013219883   0.01225748            2 
 3891000   0.62759879   -8.4826916    616.59643  0.013205612  0.012253177            3 
 3892000   0.64614452   -8.4997288    614.99635  0.013167959  0.012248875            1 
 3893000   0.62119904   -8.4957624    616.12864  0.013188814  0.012244566            3 
 3894000   0.62833366   -8.4989354    615.58491  0.013173791  0.012240263            1 
 3895000   0.62122469    -8.517754    617.42164  0.013209706  0.012235964            3 
 3896000    0.6207385   -8.4937975    616.72208  0.013191352   0.01223166            2 
 3897000   0.62488379   -8.5058054    616.27682  0.013178445  0.012227364            1 
 3898000   0.61332627   -8.4897192    616.17406  0.013172868  0.012223062            2 
 3899000   0.62900241   -8.4926729    615.34601  0.013151791  0.012218759            3 
 3900000   0.62078279    -8.518731    615.50254  0.013151764   0.01221446            1 
 3901000   0.62584155   -8.5027813    617.42862  0.013189537  0.012210162            3 
 3902000   0.63225246   -8.4943117    615.93235  0.013154202  0.012205865            2 
 3903000   0.62585598    -8.509736    615.04472   0.01313188   0.01220157            1 
 3904000   0.63923172   -8.5124661    615.82079  0.013145082  0.012197275            2 
 3905000   0.63157453   -8.5054569    616.29713  0.013151881  0.012192988            3 
 3906000   0.64237553   -8.5411871    615.32627  0.013127801  0.012188696            3 
 3907000   0.62824913   -8.5199867    614.77086  0.013112594  0.012184403            1 
 3908000   0.61868666   -8.5034809    616.31086  0.013142077  0.012180105            1 
 3909000   0.62534816   -8.5337558    615.16839   0.01311436  0.012175817            1 
 3910000   0.63697018   -8.5090784     616.0295  0.013129359  0.012171527            3 
 3911000   0.62192596   -8.5098566    616.74624  0.013141273  0.012167238            1 
 3912000   0.62816196   -8.5046066    615.20039  0.013104984  0.012162943            3 
 3913000   0.61854991   -8.5150982    615.14886  0.013100538  0.012158652            3 
 3914000   0.63215214   -8.5346914    615.15978  0.013097423  0.012154367            2 
 3915000   0.63223251   -8.5243835    615.86018  0.013108986  0.012150081            3 
 3916000   0.63141142   -8.5277353    615.14359   0.01309039  0.012145793            4 
 3917000   0.62322648   -8.5205612    615.14002  0.013086972  0.012141515            5 
 3918000   0.62897746   -8.5162356    615.21623  0.013085252   0.01213724            2 
 3919000   0.62813436   -8.5305193    615.83118   0.01309499  0.012132966            2 
 3920000   0.62431424   -8.5286253    616.24539  0.013100455  0.012128688            1 
 3921000   0.63160143   -8.5085311    614.08032  0.013051099  0.012124409            1 
 3922000   0.62857586   -8.5170701    615.73425  0.013082914  0.012120128            2 
 3923000   0.61330071   -8.5295976     614.8944  0.013061739  0.012115839            5 
 3924000   0.62181427   -8.5214089     614.7862  0.013056112  0.012111551            2 
 3925000   0.62147619   -8.5300712    613.86536  0.013033235  0.012107268            1 
 3926000   0.62238991   -8.5068912    613.67473  0.013025869  0.012102981            2 
 3927000   0.62089292   -8.5164107    614.02504  0.013029986  0.012098692            3 
 3928000   0.62638517    -8.522424    614.39474  0.013034512  0.012094412            2 
 3929000   0.62265045   -8.5114328    614.01475  0.013023135  0.012090134            3 
 3930000   0.60897671   -8.5452021    614.40476  0.013028091  0.012085859            1 
 3931000   0.63559441   -8.5311259    615.61759  0.013050487  0.012081581            1 
 3932000   0.60326086   -8.5521425    613.72001  0.013006952  0.012077307            2 
 3933000    0.6257508   -8.5383542    615.36487  0.013038496  0.012073035            1 
 3934000   0.61365926   -8.5285548    614.91386  0.013025628  0.012068765            1 
 3935000   0.61531645   -8.5507353    614.73511  0.013018533  0.012064494            2 
 3936000   0.61822701    -8.517123    615.77672  0.013037278  0.012060227            1 
 3937000   0.60474279    -8.528153    614.66644  0.013010466  0.012055964            2 
 3938000   0.63595338   -8.5383212    615.36634  0.013021973  0.012051701            1 
 3939000    0.6275532   -8.5521936    615.11294  0.013013306  0.012047439            2 
 3940000   0.62246159   -8.5211207      614.871  0.013004886  0.012043179            1 
 3941000   0.61274029   -8.5376625    614.95456  0.013003353  0.012038924            1 
 3942000   0.62202077   -8.5297945    615.30509  0.013007464  0.012034661            2 
 3943000   0.61698087    -8.515664    615.04127   0.01299859  0.012030402            1 
 3944000   0.61485233   -8.5313702    614.86047  0.012991474  0.012026144            1 
 3945000   0.60431826   -8.5534686     615.2915  0.012997286  0.012021889            2 
 3946000   0.62406109    -8.539659    614.34497  0.012974003  0.012017638            1 
 3947000   0.62161849   -8.5539953    612.83279  0.012938789  0.012013386            2 
 3948000   0.63635592   -8.5479535    614.22226   0.01296484  0.012009137            2 
 3949000   0.62663922   -8.5598422    614.55744   0.01296863  0.012004885            1 
 3950000   0.63660748   -8.5394482    614.37808  0.012961563  0.012000642            2 
 3951000   0.61832245    -8.558578    614.11639  0.012952763    0.0119964            2 
 3952000   0.62214694   -8.5269595    615.79755  0.012984935  0.011992159            1 
 3953000   0.62690505   -8.5430228      616.578  0.012998103   0.01198792            1 
 3954000   0.61007008   -8.5444038    616.30397   0.01298904  0.011983684            3 
 3955000   0.61324039   -8.5320531    615.37882  0.012966262  0.011979454            1 
 3956000    0.6115157   -8.5229197    615.27974  0.012960898  0.011975224            2 
 3957000   0.63107445    -8.546655    615.32253  0.012958524  0.011970989            1 
 3958000   0.63594687   -8.5264825    615.76153  0.012964492  0.011966764            2 
 3959000   0.60991659   -8.5571804    614.62215  0.012937235  0.011962533            1 
 3960000   0.61130882   -8.5322266    615.57233  0.012953963  0.011958313            1 
 3961000   0.60281346   -8.5441872    614.47651  0.012927639  0.011954088            1 
 3962000   0.62207374   -8.5427885    614.14619  0.012917428  0.011949859            1 
 3963000   0.61047131   -8.5454107    615.82453   0.01294946  0.011945627            1 
 3964000   0.62061291   -8.5335771    615.37807  0.012936808  0.011941409            2 
 3965000   0.61345166   -8.5411645    614.79434  0.012921277  0.011937193            1 
 3966000   0.61987659   -8.5587232    614.35941   0.01290888  0.011932977            3 
 3967000   0.61341664   -8.5340667    614.57837  0.012910225  0.011928763            2 
 3968000   0.61128253   -8.5514222     613.3396  0.012880956  0.011924541            6 
 3969000   0.61163365   -8.5504452    613.77449  0.012886842  0.011920328            2 
 3970000   0.60876133   -8.5451939    614.69686  0.012902957  0.011916119            3 
 3971000   0.61963738   -8.5486793    613.26824  0.012869727  0.011911906            1 
 3972000   0.62433468   -8.5436347    614.73122  0.012897181  0.011907696            2 
 3973000   0.61979682   -8.5484217    614.17779  0.012882326  0.011903489            4 
 3974000   0.61750566    -8.528074    615.25428  0.012901658  0.011899288            2 
 3975000   0.62940893   -8.5551519    613.62771  0.012864313  0.011895082            2 
 3976000   0.61066378   -8.5508294     613.8264  0.012865241  0.011890882            3 
 3977000   0.60878108   -8.5713256    613.10978  0.012846991  0.011886671            3 
 3978000   0.62396438   -8.5289815     614.3771   0.01287031  0.011882467            2 
 3979000   0.60466322   -8.5370529    614.32323  0.012865947  0.011878261            1 
 3980000   0.62417178   -8.5605871    614.15888  0.012859273  0.011874059            4 
 3981000   0.60168442   -8.5322537     614.1533  0.012855926  0.011869862            3 
 3982000   0.61743438   -8.5515542    615.38526  0.012878479  0.011865662            2 
 3983000   0.61024468   -8.5544279    614.85656  0.012864184  0.011861465            2 
 3984000   0.62152905   -8.5474382    614.20247  0.012847274  0.011857273            3 
 3985000   0.61068803   -8.5414312     613.9749  0.012839291  0.011853081            3 
 3986000   0.62637873   -8.5381705    615.29645  0.012863699    0.0118489            1 
 3987000   0.61679697   -8.5641152      614.549   0.01284485  0.011844716            2 
 3988000   0.59624933   -8.5417107    615.03452  0.012851775  0.011840531            1 
 3989000   0.60358275   -8.5204539    614.05602  0.012828111  0.011836351            2 
 3990000   0.60343414   -8.5552246    613.77287  0.012818982  0.011832172            3 
 3991000   0.61574192   -8.5404175    613.76537  0.012815614  0.011827995            1 
 3992000   0.61627797    -8.545031     613.6417  0.012809822  0.011823817            1 
 3993000   0.60998275   -8.5402888    614.10452  0.012816273  0.011819643            5 
 3994000    0.6253292   -8.5336385    614.97027  0.012831127  0.011815473            2 
 3995000     0.613044   -8.5447444    615.92905  0.012847915  0.011811301            2 
 3996000   0.60566428   -8.5534706    614.47358  0.012814347  0.011807132            3 
 3997000   0.60671288   -8.5610673    613.57823  0.012792474  0.011802953            2 
 3998000   0.60150384    -8.558275    614.29783  0.012804274   0.01179878            3 
 3999000   0.60046835   -8.5514384    613.85594  0.012791863   0.01179461            3 
 4000000   0.60247482   -8.5606242    614.39035  0.012799799  0.011790446            1 
 4001000    0.6270373   -8.5549518    614.40728  0.012796952  0.011786281            1 
 4002000   0.59713441    -8.547818    614.19342  0.012789302  0.011782117            3 
 4003000    0.6240697   -8.5581605    613.76992   0.01277729  0.011777952            1 
 4004000    0.6058323   -8.5627332    615.21416  0.012804158  0.011773785            3 
 4005000   0.61050782   -8.5565182    614.99929   0.01279649  0.011769621            1 
 4006000   0.61465578   -8.5589173    614.40755  0.012780986  0.011765455            5 
 4007000   0.61443503   -8.5598022    614.36413  0.012776893  0.011761301            2 
 4008000   0.61104026   -8.5666839    613.79302  0.012761831  0.011757141            2 
 4009000   0.59590313   -8.5627363    614.56336   0.01277466  0.011752984            3 
 4010000   0.60520359   -8.5559431    613.92444  0.012758197  0.011748833            2 
 4011000   0.59794103   -8.5367787    614.45901  0.012766122  0.011744681            2 
 4012000   0.61079178   -8.5495025    613.88642  0.012751047  0.011740539            3 
 4013000   0.61855843   -8.5408952    613.92571  0.012748686  0.011736391            4 
 4014000   0.58864102   -8.5594124    613.55847  0.012737885  0.011732245            3 
 4015000   0.58849733   -8.5560115    615.77987  0.012780819  0.011728104            3 
 4016000   0.60833201   -8.5704168    615.06995  0.012762906  0.011723962            2 
 4017000   0.60883083   -8.5538631    614.59888  0.012749956  0.011719821            2 
 4018000   0.61332977   -8.5690675    614.79425  0.012750835  0.011715685            1 
 4019000   0.59350738   -8.5585797    613.80995  0.012727253   0.01171155            4 
 4020000   0.58414866   -8.5657264    614.93835  0.012747478  0.011707416            4 
 4021000   0.60346337   -8.5399965    614.29187   0.01273091  0.011703283            3 
 4022000   0.61618248   -8.5682279    613.89564  0.012719535  0.011699153            2 
 4023000   0.61008279   -8.5649835    614.51781  0.012729261  0.011695029            3 
 4024000   0.59713484   -8.5469962    614.49854  0.012725699  0.011690899            2 
 4025000   0.60257766   -8.5604926     614.0876  0.012714029  0.011686775            1 
 4026000   0.61803528   -8.5708066    614.05351  0.012710165  0.011682651            2 
 4027000   0.60588268   -8.5465022    613.85933  0.012702991  0.011678528            5 
 4028000   0.60043265    -8.536147    614.64452  0.012716082  0.011674405            2 
 4029000   0.61555189   -8.5497709    614.53195  0.012710597   0.01167029            1 
 4030000   0.60242609   -8.5513607    615.17922  0.012720828  0.011666173            3 
 4031000   0.60171983   -8.5629684    614.27249  0.012698927  0.011662057            2 
 4032000   0.61302451   -8.5633251     614.1355  0.012692946  0.011657944            2 
 4033000   0.60214385   -8.5618902    615.56199  0.012719274   0.01165383            1 
 4034000    0.6152593   -8.5651296    613.86613  0.012681088  0.011649717            1 
 4035000   0.60637341   -8.5712722    613.18853  0.012663952  0.011645601            1 
 4036000   0.61746886   -8.5432657    614.32313   0.01268424  0.011641489            3 
 4037000   0.60408856   -8.5517473    614.19825  0.012678521  0.011637378            7 
 4038000   0.59974132   -8.5585016    613.19876  0.012654754  0.011633267            3 
 4039000   0.59800299   -8.5741175    614.78883  0.012684427  0.011629159            2 
 4040000   0.60811031   -8.5627008     614.8817  0.012683203  0.011625054            2 
 4041000   0.59800116   -8.5649113    613.54252  0.012652448  0.011620949            7 
 4042000   0.60838526   -8.5674045    613.27302  0.012643762  0.011616851            6 
 4043000    0.6026719   -8.5763396    612.90325  0.012633013  0.011612749            5 
 4044000   0.59770813    -8.568199    612.90729  0.012629972   0.01160864            7 
 4045000   0.60505401    -8.562268    614.35911   0.01265676  0.011604536            2 
 4046000   0.60634736   -8.5632764    614.62583  0.012659125  0.011600438            6 
 4047000   0.58162819   -8.5446307    612.36246  0.012609391  0.011596342            2 
 4048000   0.60290899   -8.5596299    614.72541   0.01265492  0.011592247            4 
 4049000   0.59419761   -8.5529871    614.01158  0.012637103  0.011588157            1 
 4050000    0.5990777   -8.5879065     612.5821   0.01260457  0.011584061            5 
 4051000   0.61032565   -8.5576569     614.5548  0.012642039  0.011579967            2 
 4052000   0.59958823    -8.578789    613.47383  0.012616688  0.011575882            1 
 4053000   0.59188899   -8.5728722    613.08881  0.012605658  0.011571787            1 
 4054000   0.59841931   -8.5600202    614.31901  0.012627837  0.011567702            2 
 4055000   0.61263167   -8.5730735    613.03687  0.012598374   0.01156362            1 
 4056000   0.59918421    -8.592484    612.85825  0.012591598  0.011559535            3 
 4057000   0.61585296   -8.5717022    612.67551  0.012584741  0.011555449            3 
 4058000   0.58815597   -8.5733344    613.49084  0.012598383  0.011551364            2 
 4059000   0.61174137   -8.5991489    613.95112  0.012604728  0.011547277            1 
 4060000   0.61174265   -8.5839732    614.61719  0.012615295  0.011543198            5 
 4061000   0.59786657    -8.594828     613.5775  0.012590854  0.011539117            2 
 4062000   0.60198072   -8.5761986    613.75107  0.012591315  0.011535039            1 
 4063000   0.60469869   -8.5815416    612.97125  0.012572222  0.011530963            1 
 4064000   0.60392035   -8.5906675    614.62333  0.012603005  0.011526888            1 
 4065000   0.59672384   -8.5949804    613.17181  0.012570148  0.011522813            2 
 4066000    0.5815929    -8.582393    614.66896  0.012597741  0.011518741            1 
 4067000   0.58684851   -8.5772754    614.99063  0.012601234  0.011514667            1 
 4068000   0.59449541   -8.5977666    613.66219  0.012570923  0.011510596            1 
 4069000   0.59658913   -8.5727945    613.49381  0.012564385   0.01150653            1 
 4070000   0.60762909   -8.5637969    613.28069  0.012556935   0.01150246            1 
 4071000   0.60573047   -8.5894888    613.06517  0.012549439  0.011498399            2 
 4072000   0.59603067   -8.5599133    614.28228  0.012571265  0.011494342            2 
 4073000   0.61219184    -8.593741    613.11954  0.012544389  0.011490281            1 
 4074000   0.59953155   -8.5643752     613.7114  0.012553416  0.011486216            2 
 4075000   0.59915219   -8.5904343     613.8661  0.012553499  0.011482158            2 
 4076000    0.6101121   -8.5820098    613.17892   0.01253637  0.011478102            5 
 4077000    0.5917736   -8.5915134    612.68339  0.012523166  0.011474048            2 
 4078000   0.59735581   -8.5870397    613.44033  0.012535563  0.011469996            2 
 4079000    0.5867213    -8.566682    613.64472  0.012536666  0.011465946            2 
 4080000   0.59628672   -8.5795935    611.97117  0.012499411  0.011461897            3 
 4081000   0.59169234   -8.5853464    613.67224  0.012531084  0.011457846            2 
 4082000   0.60166154   -8.6043418       613.49  0.012524294  0.011453797            2 
 4083000    0.5933533   -8.5758935    613.41638  0.012519724  0.011449749            1 
 4084000   0.60316289   -8.5954309    611.86819  0.012485068  0.011445696            4 
 4085000   0.60078288   -8.5909972    613.16086  0.012508382  0.011441651            1 
 4086000    0.5964864   -8.6079877    614.17233  0.012525949  0.011437603            1 
 4087000   0.59448604   -8.6006453    613.24558  0.012503988  0.011433554            3 
 4088000   0.58925443    -8.601345    614.21054    0.0125206  0.011429515            1 
 4089000   0.58800711   -8.6058488    612.01716  0.012472837  0.011425472            3 
 4090000   0.59799124   -8.6020604    613.30061  0.012495938  0.011421433            2 
 4091000   0.58923651   -8.5915388    612.81882  0.012483069  0.011417394            2 
 4092000   0.59762852   -8.5823032    613.22027  0.012488194  0.011413354            1 
 4093000   0.59743611   -8.5833252    613.29068  0.012486576  0.011409317            1 
 4094000   0.59564883   -8.5960611    613.45702  0.012486912  0.011405279            1 
 4095000   0.60739246   -8.5849049    614.19549  0.012498891  0.011401244            2 
 4096000   0.58654039   -8.5780233    612.57905  0.012462953  0.011397209            1 
 4097000   0.59917206   -8.6026503    612.48823  0.012458063  0.011393175            2 
 4098000   0.59916402   -8.6004498    612.16367  0.012448423  0.011389143            2 
 4099000     0.597921    -8.597549     612.9577  0.012461529  0.011385115            1 
 4100000   0.59890627   -8.5843192    612.19517  0.012442991  0.011381087            1 
 4101000   0.59323069   -8.5847965    612.71472  0.012450515  0.011377061            2 
 4102000   0.59008971   -8.6090151    613.29405  0.012459248  0.011373031            4 
 4103000   0.59089408   -8.5835309    613.49213  0.012460235  0.011369007            2 
 4104000    0.6056297   -8.6015797    613.36548  0.012454627  0.011364987            1 
 4105000   0.58387529   -8.5823411    613.21268  0.012448491  0.011360963            2 
 4106000   0.59552179   -8.6094882    614.09013  0.012463268  0.011356943            1 
 4107000   0.60556077   -8.5970286    613.26148  0.012443419  0.011352923            1 
 4108000   0.59340235   -8.6195763    613.37729  0.012442739   0.01134891            4 
 4109000     0.605413   -8.5997415    612.54984   0.01242293  0.011344891            2 
 4110000   0.59501354   -8.6079825    613.47812  0.012438729  0.011340874            1 
 4111000    0.5875529   -8.6186711     613.4127  0.012434377  0.011336861            1 
 4112000    0.5982659   -8.6122585    612.34473   0.01240971  0.011332848            1 
 4113000   0.59461679   -8.5964049    611.60761  0.012391758  0.011328833            2 
 4114000   0.59424084   -8.5906251    612.52697  0.012407369  0.011324822            2 
 4115000   0.59094574   -8.6107321    611.97419  0.012393159  0.011320817            2 
 4116000   0.59648203   -8.5834511    612.66699  0.012404175  0.011316815            1 
 4117000   0.57547498   -8.5945648    613.47106  0.012417437  0.011312812            2 
 4118000   0.59960392   -8.6102505    613.33483  0.012411665  0.011308809            2 
 4119000   0.60252598   -8.6015973    612.51246  0.012392014  0.011304805            1 
 4120000   0.59267473   -8.6033149    612.56167  0.012390001  0.011300807            2 
 4121000   0.59979691    -8.598438    613.09095  0.012397698  0.011296811            2 
 4122000   0.58867187   -8.5973763     612.7136  0.012387061  0.011292816            1 
 4123000   0.57796634   -8.5913857    613.08557  0.012391575   0.01128883            2 
 4124000   0.58273366   -8.5916047    613.05697  0.012387992  0.011284843            1 
 4125000   0.59907786   -8.6117203    612.34732  0.012370653  0.011280855            1 
 4126000   0.58330648   -8.5993281    612.69892  0.012374756  0.011276875            3 
 4127000    0.5820184   -8.6035609    611.19994   0.01234149  0.011272889            6 
 4128000   0.58443606   -8.5941003    612.83433  0.012371494  0.011268907            2 
 4129000   0.58532486   -8.5880246    614.10154  0.012394073  0.011264924            1 
 4130000   0.59659657   -8.6142605    613.15763  0.012372026  0.011260946            1 
 4131000    0.5904909   -8.6252237    612.94913  0.012364826  0.011256966            1 
 4132000   0.57275523   -8.5988331    612.70315  0.012356872  0.011252989            2 
 4133000   0.59851133   -8.6150429    612.43681  0.012348512  0.011249008            3 
 4134000    0.5843847   -8.5939647     612.3541  0.012343858  0.011245035            2 
 4135000   0.59587557   -8.5972229    612.89747  0.012351823  0.011241064            2 
 4136000   0.58582001   -8.5943208    613.10834  0.012353085  0.011237095            2 
 4137000   0.59883491   -8.6002685    611.80673  0.012323881  0.011233127            2 
 4138000   0.58000302   -8.6054843    612.87901  0.012342497  0.011229163            1 
 4139000   0.58153342   -8.6104729    612.70026  0.012335916  0.011225201            2 
 4140000   0.58472365   -8.6054624    612.95808  0.012338126  0.011221235            2 
 4141000   0.58534884   -8.5938205    612.24162  0.012320728  0.011217271            2 
 4142000   0.58977842    -8.611495    612.83557  0.012329703  0.011213311            1 
 4143000   0.58470057   -8.5921365    612.23824  0.012314712  0.011209355            5 
 4144000   0.58944018   -8.5980674    612.34225  0.012313832  0.011205395            2 
 4145000   0.58276774   -8.6051602    612.38206  0.012311662  0.011201443            5 
 4146000   0.58055811   -8.6136796    612.92266  0.012319558  0.011197494            2 
 4147000   0.58668444   -8.6155034    611.92898   0.01229662  0.011193543            1 
 4148000   0.58850953   -8.6122778    613.09814  0.012317144  0.011189595            2 
 4149000   0.57183071   -8.6037367    612.20876  0.012296312  0.011185648            1 
 4150000   0.58415774    -8.593734    612.06545  0.012290471  0.011181696            2 
 4151000   0.59181293   -8.6122968    612.84251   0.01230311  0.011177746            2 
 4152000   0.58479408   -8.6109525    612.42803  0.012291828  0.011173796            4 
 4153000   0.58843349   -8.6015352    612.44893  0.012289288  0.011169852            3 
 4154000   0.60514447   -8.6104808    612.26983  0.012282736  0.011165907            1 
 4155000   0.58342757   -8.6103203    612.47837  0.012283962  0.011161967            2 
 4156000    0.5835064   -8.6147425    611.95941  0.012270601  0.011158027            3 
 4157000   0.58709416   -8.6143496    613.09048  0.012290323  0.011154088            3 
 4158000   0.60425125   -8.6100312     613.2838  0.012291242  0.011150151            2 
 4159000   0.58582923   -8.6095303    613.20189  0.012286645  0.011146219            1 
 4160000   0.59098072   -8.6219906    613.41642  0.012287989  0.011142285            3 
 4161000   0.57883152   -8.6192241    612.12307  0.012259134  0.011138356            2 
 4162000    0.5821196    -8.616151    611.90538   0.01225183  0.011134427            2 
 4163000   0.57599965   -8.6383359    612.55987  0.012261988  0.011130494            2 
 4164000   0.60043975   -8.6090041    613.13673  0.012270588  0.011126568            2 
 4165000   0.58090583   -8.6328621    612.20818  0.012249063  0.011122644            4 
 4166000   0.57303512   -8.6221567    611.73231  0.012236604  0.011118716            2 
 4167000   0.58987684   -8.5906061    612.04355  0.012239892   0.01111479            2 
 4168000   0.58575991   -8.6107457     611.5105  0.012226298  0.011110867            2 
 4169000   0.57562688   -8.6203838    612.29074  0.012238961  0.011106953            2 
 4170000   0.58659346   -8.6128953    612.27381  0.012235688  0.011103036            3 
 4171000    0.5950553   -8.6297013     612.8783  0.012244831  0.011099119            7 
 4172000   0.58312267   -8.6172624    613.54037  0.012255121  0.011095203            2 
 4173000   0.59290084   -8.6175125    613.13283  0.012244046  0.011091292            4 
 4174000   0.58365146   -8.6114542    613.49264  0.012248296  0.011087382            3 
 4175000   0.57530419   -8.6380209     613.2442  0.012240403  0.011083477            2 
 4176000   0.57532357   -8.6260576    613.68339  0.012246236   0.01107957            2 
 4177000   0.59628317   -8.6020356    612.08238  0.012211363  0.011075664            3 
 4178000   0.57450981   -8.6233734    612.95743  0.012225894   0.01107176            1 
 4179000   0.56198119   -8.6014927    612.51494  0.012214145  0.011067857            3 
 4180000   0.59628334   -8.6227019    612.54972  0.012211916  0.011063958            5 
 4181000   0.57611236   -8.6185554    612.63157  0.012210627  0.011060057            6 
 4182000   0.59627834   -8.5962616    612.96762  0.012214403  0.011056165            2 
 4183000   0.59529825   -8.6061867    612.97615  0.012211653  0.011052274            3 
 4184000   0.57972196   -8.6321678    611.21423  0.012173642  0.011048385            4 
 4185000   0.57630897   -8.5996823    611.23545  0.012171156  0.011044491            2 
 4186000   0.60410299   -8.6224718    613.12623  0.012205889  0.011040602            6 
 4187000   0.57098843   -8.6418788    612.67427  0.012193979  0.011036718            4 
 4188000   0.58190103   -8.6142786    612.43346  0.012186275  0.011032829            1 
 4189000   0.58971899   -8.6231375    612.08377   0.01217641  0.011028947            6 
 4190000   0.57850131   -8.6187232    612.10999  0.012174025  0.011025064            5 
 4191000   0.58147719   -8.5959223    611.67777  0.012162526  0.011021182            2 
 4192000   0.57511467   -8.5949931    612.89102  0.012183743  0.011017306            2 
 4193000   0.58080438   -8.6105705    611.92382  0.012161615   0.01101343            2 
 4194000   0.59034347   -8.6185546    612.39878  0.012168153  0.011009552            2 
 4195000    0.5758705   -8.6192473    613.19883  0.012181145  0.011005676            3 
 4196000   0.58223038   -8.6470705    612.30963  0.012160582  0.011001804            5 
 4197000   0.59152084    -8.606912    612.85301  0.012168474  0.010997934            2 
 4198000   0.57874218   -8.6253391    611.72676  0.012143218  0.010994059            1 
 4199000   0.58816223   -8.6072107    612.75942   0.01216082  0.010990191            2 
 4200000   0.57695548   -8.6335267    611.76942  0.012138282  0.010986322            2 
 4201000   0.57500516   -8.6281285    611.85211  0.012137033  0.010982454            8 
 4202000   0.57513989   -8.6232614    611.72966  0.012131716  0.010978586            1 
 4203000   0.58567888   -8.6303018    612.22235  0.012138598  0.010974723            6 
 4204000   0.57331884   -8.6357397    611.97605  0.012130829   0.01097086            1 
 4205000   0.56953209   -8.6049663    612.28294  0.012134026  0.010966996            2 
 4206000   0.57198508   -8.6354906    612.21789  0.012129852  0.010963135            2 
 4207000    0.5648604   -8.6104814    611.99786   0.01212261  0.010959273            1 
 4208000    0.5825202   -8.6225331    612.89093  0.012137415  0.010955417            7 
 4209000   0.58307251   -8.6147828    611.86863  0.012114291  0.010951563            1 
 4210000   0.58020917   -8.6114546    612.36319  0.012121203  0.010947707            1 
 4211000   0.58367826   -8.6406834    611.36905  0.012098651  0.010943853            2 
 4212000   0.57258042   -8.6332854    611.67957  0.012101922  0.010939997            6 
 4213000   0.58153192    -8.616076    611.48351  0.012095172  0.010936143            7 
 4214000   0.57682063   -8.6253856    610.95943  0.012081938  0.010932288            2 
 4215000   0.57708733   -8.6150693    612.74574  0.012114388  0.010928438            1 
 4216000    0.5761405   -8.6499144    612.15762   0.01209989  0.010924586            6 
 4217000   0.57494605   -8.6261099    611.33887  0.012080841  0.010920737            2 
 4218000   0.57944124    -8.632913    611.45083  0.012080189  0.010916886            5 
 4219000   0.58455989   -8.6314949    610.32044  0.012054998  0.010913038            3 
 4220000   0.57997988   -8.6373394    610.87749  0.012063142  0.010909192            2 
 4221000   0.57112051   -8.6278016    611.05508   0.01206379  0.010905347            1 
 4222000   0.57533787   -8.6296732    611.48843  0.012069486  0.010901505            5 
 4223000   0.57467264   -8.6194008    611.81644    0.0120731  0.010897664            1 
 4224000   0.56199891   -8.6366248    611.17893  0.012057665  0.010893822            2 
 4225000   0.57307699   -8.6181318    611.85858  0.012068217  0.010889986            6 
 4226000   0.57646476   -8.6060332    612.49691  0.012077948  0.010886151            2 
 4227000   0.57989113   -8.6275429    611.60037  0.012057416  0.010882318            3 
 4228000   0.57686572   -8.6134134    610.55069  0.012033875  0.010878483            5 
 4229000   0.57514491   -8.6190827    611.21927  0.012044204  0.010874653            6 
 4230000    0.5711348   -8.6233341    611.46124  0.012046124  0.010870826            1 
 4231000   0.58670275   -8.6348712    611.90384  0.012051994  0.010866999            2 
 4232000   0.56564054   -8.6217801    611.37923  0.012038816  0.010863179            9 
 4233000   0.56351584   -8.6289547    611.05321  0.012029554   0.01085935            5 
 4234000   0.57501709   -8.6379214    612.29609  0.012051175  0.010855526            3 
 4235000   0.56773971   -8.6303628    612.07006  0.012043882  0.010851699            3 
 4236000   0.58309144   -8.6516525    611.47645   0.01202936  0.010847874            2 
 4237000   0.57352349   -8.6296939    611.79221  0.012032732  0.010844053            4 
 4238000   0.58740992   -8.6274938    610.53725  0.012005216  0.010840235            1 
 4239000   0.56567898   -8.6462687    610.74176  0.012006404  0.010836417            5 
 4240000   0.57413162   -8.6442127    611.17284  0.012012045  0.010832602            1 
 4241000   0.57410593   -8.6255832    610.85393  0.012002946  0.010828785            6 
 4242000   0.58110014   -8.6231703    610.99582  0.012002904  0.010824975            2 
 4243000   0.57318111   -8.6497824    610.98093  0.011999783  0.010821167            2 
 4244000   0.57572011   -8.6390647     611.1077  0.011999444  0.010817359            7 
 4245000    0.5850034   -8.6351006     611.7965  0.012010139  0.010813557            4 
 4246000   0.57615448   -8.6245294    611.36803  0.011998901  0.010809751            6 
 4247000   0.57786073   -8.6199351    611.88936  0.012006306  0.010805948            5 
 4248000   0.57557399   -8.6533447    612.14984  0.012008589  0.010802152            3 
 4249000   0.57264528   -8.6452761    611.38318  0.011990727  0.010798354            5 
 4250000   0.57054693   -8.6439507    611.69539  0.011994027  0.010794552            2 
 4251000   0.57438939   -8.6364257    611.16246  0.011980759  0.010790758            2 
 4252000   0.57498016   -8.6179235    612.18215  0.011997926  0.010786969            4 
 4253000   0.57979004   -8.6357936    610.40943   0.01196037  0.010783177            1 
 4254000    0.5672638   -8.6393427    611.33797  0.011975748  0.010779385            2 
 4255000   0.56589983   -8.6476835    611.63103  0.011978673  0.010775596            2 
 4256000   0.56227168   -8.6330989    612.19021  0.011986807  0.010771806            2 
 4257000   0.55962974   -8.6266292    611.64388  0.011973297  0.010768018            4 
 4258000    0.5778662   -8.6327536    611.55306  0.011968707  0.010764232            1 
 4259000   0.57249859   -8.6448322    611.09852  0.011957003  0.010760448            4 
 4260000    0.5743148   -8.6225217    611.74547  0.011966852  0.010756666            2 
 4261000   0.57279378   -8.6385293    611.09876  0.011951396  0.010752885            4 
 4262000   0.55152534   -8.6604485    611.58508    0.0119581  0.010749103            2 
 4263000   0.56287317   -8.6357058    611.30849  0.011949888  0.010745318            2 
 4264000   0.57238018   -8.6336509    612.29306  0.011966328   0.01074154            2 
 4265000   0.57432012   -8.6362005    611.51209  0.011948263  0.010737766            4 
 4266000   0.56969998   -8.6449499    611.58812  0.011946947  0.010733998            5 
 4267000   0.57569394   -8.6528532    612.02544  0.011952688  0.010730232            4 
 4268000   0.57132121   -8.6584096    612.19563  0.011953211  0.010726461            5 
 4269000   0.57297639   -8.6559296    610.97082  0.011926502  0.010722695            3 
 4270000   0.57776802   -8.6538618    610.96654  0.011923625  0.010718925            3 
 4271000   0.56402042   -8.6464824    611.48935  0.011931034   0.01071516            2 
 4272000   0.57627953   -8.6570653    611.16248  0.011921865    0.0107114            4 
 4273000   0.56171828   -8.6486702    611.62859  0.011928165  0.010707638            3 
 4274000    0.5633444   -8.6419518    611.66141  0.011926014  0.010703879            4 
 4275000    0.5812016   -8.6574376    610.13696  0.011893508  0.010700119            4 
 4276000   0.56913656   -8.6388197    612.55162  0.011937785  0.010696364            2 
 4277000   0.56731441   -8.6460413    611.94095  0.011923095  0.010692611            3 
 4278000   0.56401401   -8.6567713    611.59294  0.011913529  0.010688856            3 
 4279000    0.5601221   -8.6425533    610.73341  0.011894006  0.010685103            3 
 4280000   0.56387787   -8.6290272    610.81106  0.011892739  0.010681351            7 
 4281000   0.56808305   -8.6356249     611.7408  0.011908059  0.010677601            1 
 4282000   0.56234348   -8.6405195    612.46874  0.011919445  0.010673856            4 
 4283000   0.56186885   -8.6449861    611.98557  0.011907261  0.010670109            1 
 4284000    0.5719294   -8.6396791    611.60418  0.011897062  0.010666363            4 
 4285000   0.56219374   -8.6274091    611.93398    0.0119007  0.010662624            6 
 4286000   0.55400129   -8.6312139    611.06665  0.011881059  0.010658882            3 
 4287000   0.56243931   -8.6452344    611.39093  0.011884592  0.010655144            2 
 4288000   0.57942473    -8.624752    611.30166  0.011880085  0.010651405            6 
 4289000      0.57165   -8.6470808    611.29522   0.01187719  0.010647671            4 
 4290000   0.56296882   -8.6369869     611.0823  0.011870286  0.010643933            1 
 4291000   0.58508573    -8.644674     610.9659  0.011865259  0.010640195            4 
 4292000   0.56333371      -8.6448    610.63512  0.011856072  0.010636463            5 
 4293000   0.57343059   -8.6475528    610.55889   0.01185183  0.010632728            2 
 4294000   0.56889635   -8.6349929    612.41988  0.011885186  0.010628997            6 
 4295000   0.56552841    -8.633383     610.8453  0.011851869   0.01062527            3 
 4296000   0.56337334   -8.6361838    611.86387  0.011868868  0.010621543            4 
 4297000   0.57767733   -8.6502896    611.33547  0.011855858  0.010617819            4 
 4298000   0.57281042     -8.64126    609.87368  0.011824757  0.010614097            3 
 4299000   0.55108165   -8.6619545     611.4611  0.011852778  0.010610375            3 
 4300000   0.56843334   -8.6442656    610.70757  0.011835418  0.010606657            2 
 4301000   0.57583136   -8.6439758    611.58617  0.011849689  0.010602935            3 
 4302000   0.56938147   -8.6503787    610.72014  0.011830159  0.010599219            4 
 4303000   0.57098647   -8.6412497    610.86787  0.011830271  0.010595505            2 
 4304000   0.55871306   -8.6414903    611.10954  0.011832202  0.010591791            4 
 4305000   0.56188687    -8.649787    609.96526  0.011807303   0.01058808            5 
 4306000   0.56873984   -8.6323423    610.96133  0.011823837  0.010584372            4 
 4307000   0.55982949   -8.6363208    610.64692  0.011815009   0.01058067            6 
 4308000   0.55156249   -8.6285501    611.33137  0.011825506  0.010576963            5 
 4309000   0.55492758   -8.6599668    611.22587  0.011820722  0.010573258            3 
 4310000   0.54836018    -8.644025    610.60155  0.011805908  0.010569554            5 
 4311000   0.56273417   -8.6684493    610.72697  0.011805594  0.010565843            2 
 4312000   0.56611923   -8.6413833    611.07098  0.011809504  0.010562138            2 
 4313000   0.55884986   -8.6515508    610.75489  0.011800659  0.010558433            1 
 4314000   0.55709132   -8.6385464     611.2315   0.01180713  0.010554733            3 
 4315000   0.56674042   -8.6353837    610.94055  0.011798775  0.010551033            2 
 4316000   0.55858933   -8.6612608    610.77515  0.011792847   0.01054734            1 
 4317000   0.55566678   -8.6575232    611.05636  0.011795544  0.010543646            4 
 4318000   0.57349049   -8.6552085    610.83901  0.011788618  0.010539956            3 
 4319000   0.55591735    -8.661848    610.59862   0.01178125  0.010536262            1 
 4320000   0.54576358   -8.6590671    611.18871  0.011789906  0.010532571            2 
 4321000   0.56085739   -8.6672938    611.82655  0.011799478  0.010528886            1 
 4322000   0.55227924   -8.6583982    611.74708  0.011795216  0.010525201            4 
 4323000   0.56668443   -8.6477983    610.59937  0.011770363  0.010521517            4 
 4324000   0.56906956   -8.6710314    610.82956  0.011772077  0.010517836            3 
 4325000   0.54864473   -8.6572455    611.17463  0.011776004  0.010514157            3 
 4326000   0.55325013   -8.6604844    610.79847  0.011766036  0.010510474            1 
 4327000   0.56582439   -8.6641753    611.19476  0.011770949  0.010506795            3 
 4328000    0.5640448   -8.6614415    611.11506  0.011766695  0.010503119            3 
 4329000   0.55024132   -8.6534218       610.22  0.011746747  0.010499438            2 
 4330000   0.56795881   -8.6448138    609.32845  0.011726876  0.010495761            1 
 4331000   0.55181043   -8.6554142    611.33137  0.011762706  0.010492085            5 
 4332000   0.56589077   -8.6723759    610.09223  0.011736154  0.010488411            2 
 4333000   0.54997895   -8.6591145    610.26479  0.011736764  0.010484741            2 
 4334000    0.5626571   -8.6629224    610.48176  0.011738228   0.01048107            1 
 4335000   0.55971657   -8.6579551    611.27938  0.011750853    0.0104774            4 
 4336000   0.55884642   -8.6624422    610.59116  0.011734916  0.010473729            4 
 4337000   0.55754538   -8.6542218    610.92469  0.011738619  0.010470062            6 
 4338000   0.56336394   -8.6527846    611.12175  0.011739699    0.0104664            5 
 4339000   0.55226623   -8.6639751    609.11084  0.011698372  0.010462733            1 
 4340000   0.55550966   -8.6566509    610.04641  0.011713641  0.010459069            2 
 4341000    0.5665078   -8.6600237    611.01643  0.011729564  0.010455405            1 
 4342000   0.55937556   -8.6613623    610.14785  0.011710192  0.010451746            2 
 4343000   0.54155109   -8.6603063    610.09403  0.011706463  0.010448085            1 
 4344000   0.54893675   -8.6583443    610.79975  0.011717307  0.010444429            2 
 4345000   0.56644246   -8.6794285    610.64144  0.011711574  0.010440773            2 
 4346000   0.55957235   -8.6561419    610.51574  0.011706468  0.010437115            1 
 4347000   0.54939881   -8.6621346    610.90667   0.01171127  0.010433464            2 
 4348000   0.55135076   -8.6779473    610.50164  0.011700813  0.010429808            2 
 4349000    0.5610686   -8.6515987    610.50971  0.011698278   0.01042616            2 
 4350000   0.55376088    -8.665308    610.60995  0.011697509  0.010422515            1 
 4351000   0.56061556   -8.6580878    610.73799  0.011697273  0.010418868            1 
 4352000   0.56503908   -8.6708528    610.65327  0.011692962  0.010415225            2 
 4353000   0.56449563   -8.6769469    609.83407  0.011674594  0.010411583            3 
 4354000   0.56337978   -8.6554071    610.76378  0.011689706  0.010407944            1 
 4355000   0.56341331   -8.6598802    611.26505  0.011696614  0.010404308            2 
 4356000   0.55783596    -8.671437    610.92787  0.011687478  0.010400674            4 
 4357000   0.55503681   -8.6701082    610.73088  0.011681028  0.010397041            4 
 4358000   0.55270627   -8.6463996    611.14644  0.011686294  0.010393406            3 
 4359000   0.56059801   -8.6597775    610.56097   0.01167242  0.010389776            1 
 4360000   0.55224655   -8.6759496    610.58723  0.011670245  0.010386148            5 
 4361000    0.5511617   -8.6642843    610.67646  0.011669274  0.010382519            4 
 4362000   0.55386031   -8.6541041    610.32814  0.011659945  0.010378894            2 
 4363000   0.54668834   -8.6585387    611.82764  0.011685913  0.010375267            1 
 4364000   0.54942496   -8.6751752    610.36632   0.01165533  0.010371644            3 
 4365000   0.54548685   -8.6659442    611.38362  0.011672081   0.01036802            2 
 4366000   0.55281937   -8.6827182    609.54605  0.011634334  0.010364395            1 
 4367000   0.54710248   -8.6564446    610.81522  0.011655889  0.010360774            3 
 4368000   0.54500916   -8.6750965    611.21981   0.01166094  0.010357153            2 
 4369000   0.54891736   -8.6656668    610.09565  0.011636829  0.010353536            1 
 4370000   0.55147567   -8.6691206    609.86154  0.011629701  0.010349917            2 
 4371000   0.55454431   -8.6715344    611.00751  0.011648889  0.010346295            1 
 4372000   0.55266895   -8.6384806    610.87834  0.011643762  0.010342683            2 
 4373000   0.55504347    -8.670929    610.48248  0.011633556  0.010339067            2 
 4374000    0.5579539   -8.6716145    610.73024  0.011635617  0.010335456            3 
 4375000   0.56557968   -8.6880402    610.59804  0.011630439  0.010331841            4 
 4376000   0.55093081   -8.6866816    611.00042  0.011635444  0.010328229            2 
 4377000   0.55013921   -8.6697162    610.31364   0.01161971  0.010324618            2 
 4378000    0.5490485   -8.6758264    610.27151  0.011616254  0.010321013            3 
 4379000   0.55223862    -8.684083    610.39225  0.011615899  0.010317407            1 
 4380000   0.55104198   -8.6833923    610.11533  0.011607978  0.010313799            2 
 4381000   0.54248985   -8.6876585    609.97071  0.011602578  0.010310193            1 
 4382000   0.55506899   -8.6876515    609.87464  0.011598103  0.010306588            1 
 4383000   0.55326511   -8.6679642    610.68175  0.011610802  0.010302984            4 
 4384000   0.53755965   -8.6799309    610.24193  0.011599793  0.010299382            2 
 4385000    0.5465554   -8.6760537    610.10538  0.011594553  0.010295784            1 
 4386000   0.54875605   -8.6835431    611.16451  0.011612033   0.01029219            3 
 4387000   0.56643226   -8.6881586    609.95207  0.011586355  0.010288598            2 
 4388000   0.55194276   -8.6728426    610.54748  0.011595022  0.010285006            3 
 4389000   0.54362641    -8.663298    610.73869  0.011596011  0.010281415            2 
 4390000   0.54775364   -8.6668114    610.47948  0.011588449  0.010277822            3 
 4391000   0.54453159   -8.6848582     610.5726  0.011587577  0.010274235            2 
 4392000    0.5346871   -8.6686675    609.73959  0.011569133   0.01027065            2 
 4393000   0.54967353   -8.6790715    609.44592  0.011560929  0.010267066            3 
 4394000   0.54387091   -8.6863987    609.75488  0.011564157  0.010263484            2 
 4395000    0.5534632   -8.6888516    610.44597   0.01157463  0.010259904            3 
 4396000   0.55980513   -8.6697634    610.91246   0.01158084  0.010256327            2 
 4397000   0.53858301   -8.6575148     610.0066  0.011561038  0.010252753            2 
 4398000   0.55126338   -8.6549636    609.79634  0.011554425  0.010249181            3 
 4399000   0.54030476   -8.6773814    610.14754  0.011558452  0.010245611            3 
 4400000   0.55162132   -8.6533111    611.07905  0.011573467  0.010242045            1 
 4401000   0.54704664   -8.6748444    609.64898  0.011543759  0.010238477            1 
 4402000    0.5499397   -8.6717426    611.05886  0.011567826  0.010234906            2 
 4403000   0.55212521   -8.6797827    610.44401  0.011553562  0.010231337            1 
 4404000   0.54045692   -8.6946346    610.17084   0.01154577  0.010227771            2 
 4405000   0.56373693   -8.6761414    609.34267  0.011527481   0.01022421            8 
 4406000   0.53513656   -8.6847852    610.03066  0.011537878  0.010220651            2 
 4407000   0.55483371   -8.6781012    610.52051  0.011544522  0.010217091            3 
 4408000   0.54904188   -8.6660743    609.51012  0.011522802  0.010213534            2 
 4409000    0.5456477   -8.6736769    609.95784   0.01152865  0.010209979            4 
 4410000   0.55954192   -8.6833878    610.15639  0.011529788  0.010206425            2 
 4411000   0.54630683   -8.6681725    610.17521   0.01152753  0.010202871            2 
 4412000   0.54337381    -8.692721    610.12733  0.011524013  0.010199319            4 
 4413000   0.54226466   -8.6662344    610.11789  0.011521223  0.010195766            2 
 4414000   0.54426006   -8.6892965    610.42355  0.011524384  0.010192217            1 
 4415000   0.54423897   -8.6763197     610.5325   0.01152383  0.010188669            3 
 4416000    0.5393483   -8.6926693    610.31784  0.011517169  0.010185123            2 
 4417000   0.54993382   -8.6579783    609.89142  0.011506517  0.010181577            6 
 4418000   0.54928671   -8.6596162     610.3121  0.011511847  0.010178035            4 
 4419000   0.54442281   -8.6775634    610.62193  0.011515085  0.010174497            2 
 4420000   0.54309363   -8.6758506    609.62639   0.01149371  0.010170957            2 
 4421000    0.5430776   -8.7060452    610.06732  0.011499422  0.010167419            5 
 4422000   0.54030208   -8.6724511    610.11218  0.011497667  0.010163884            2 
 4423000   0.53912214    -8.674881    610.86841  0.011509315  0.010160352            1 
 4424000   0.52878775   -8.6960722    610.61298  0.011501902   0.01015682            2 
 4425000    0.5447136   -8.6804735     609.1853  0.011472416  0.010153289            3 
 4426000    0.5516142   -8.6720112    610.22883  0.011489472  0.010149759            5 
 4427000   0.54301198    -8.685888    610.94984  0.011500449  0.010146233            2 
 4428000   0.52278762   -8.7022362    610.12155  0.011482263  0.010142705            3 
 4429000   0.54615233   -8.6901925    610.35114  0.011483991  0.010139182            5 
 4430000    0.5374986    -8.686585    609.80121  0.011471054  0.010135652            4 
 4431000   0.53692947   -8.6736556    610.20888  0.011476132  0.010132129            1 
 4432000   0.55312739   -8.6848603    609.36033  0.011457587  0.010128609            1 
 4433000   0.54344805    -8.670581    609.88957  0.011464952  0.010125091            1 
 4434000   0.54070003   -8.6722336    610.33093  0.011470661  0.010121573            2 
 4435000   0.53518198   -8.6877602    609.26435  0.011448034  0.010118054            2 
 4436000   0.55473312   -8.6795712    610.35085  0.011465864  0.010114539            1 
 4437000   0.53625244   -8.6887068    610.30391  0.011462398   0.01011103            1 
 4438000   0.52775947   -8.6842407    610.16159  0.011457143  0.010107515            2 
 4439000   0.54217332   -8.6729172    610.72283  0.011465098  0.010104006            3 
 4440000   0.54719901   -8.6847088    609.70737  0.011443457  0.010100497            2 
 4441000    0.5354286   -8.6876157    610.04331  0.011447184  0.010096994            3 
 4442000   0.54942022   -8.6817205    609.66979  0.011437599   0.01009349            2 
 4443000   0.53988765   -8.6802043    610.03807  0.011441932  0.010089985            3 
 4444000   0.54157344   -8.6883728    609.82995  0.011435455  0.010086479            1 
 4445000   0.53388342   -8.6646118    609.52002  0.011427072  0.010082977            1 
 4446000   0.52811137   -8.6760304    610.64663  0.011445618  0.010079476            3 
 4447000   0.53693386   -8.6975771    610.21336  0.011434925  0.010075974            7 
 4448000   0.52988819   -8.6965671     609.7336  0.011423366  0.010072476            3 
 4449000   0.54010986   -8.6872396    609.11186  0.011409153   0.01006898            3 
 4450000   0.53908464   -8.7026644    610.45022  0.011431652  0.010065482            2 
 4451000   0.54940005   -8.6783602    610.78713  0.011435391  0.010061992            4 
 4452000   0.53586511   -8.6721781    610.20622  0.011421949  0.010058504            1 
 4453000   0.53108235   -8.6893098    610.91326  0.011432616  0.010055018            2 
 4454000   0.54131468   -8.6950686     610.0733  0.011414334  0.010051531            5 
 4455000   0.52149137     -8.68532    609.79359  0.011406539  0.010048046            2 
 4456000   0.53735085   -8.6836361    610.78464  0.011422513   0.01004456            2 
 4457000   0.55021626   -8.6614829    610.37163  0.011412228  0.010041074            2 
 4458000   0.52587118   -8.6869325    610.19663  0.011406397  0.010037593            2 
 4459000   0.53893572   -8.6780812    609.82959   0.01139698  0.010034113            4 
 4460000   0.53879034   -8.7087828    609.09007  0.011380607  0.010030631            2 
 4461000   0.53650151   -8.6873028     610.1529   0.01139791   0.01002715            3 
 4462000   0.53800121   -8.6710044    610.17739  0.011395813  0.010023669            3 
 4463000   0.54545575   -8.7020795    609.86026  0.011387338  0.010020193            3 
 4464000   0.54393311   -8.6888077    609.57611  0.011379482  0.010016717            3 
 4465000   0.52977764   -8.7120695    609.44921  0.011374565  0.010013241            3 
 4466000   0.53124856   -8.6938318    610.15587  0.011385204  0.010009765            3 
 4467000   0.53035323   -8.7010482    608.67179   0.01135497  0.010006293            2 
 4468000   0.54070334   -8.6913475    609.88484  0.011375053  0.010002822            4 
 4469000   0.54730575   -8.7047945    609.83669   0.01137161 0.0099993525            2 
 4470000   0.54145027   -8.6945068    609.33235  0.011359664 0.0099958882            2 
 4471000   0.53917203   -8.6978842    609.12228  0.011353207 0.0099924225            2 
 4472000   0.53483436   -8.6914235    610.40673  0.011374604 0.0099889573            1 
 4473000   0.54292661   -8.6796322    609.61089  0.011357234 0.0099854966            8 
 4474000   0.54503254   -8.7155156    609.35405  0.011349911  0.009982037            2 
 4475000   0.54188589   -8.6854519    610.07027  0.011360713 0.0099785864            1 
 4476000   0.53995997   -8.7060047    610.27983  0.011362076  0.009975136            2 
 4477000   0.53365156   -8.7039287    609.53482  0.011345671 0.0099716845            2 
 4478000   0.54980744   -8.7090923    609.99359  0.011351675 0.0099682317            2 
 4479000   0.54344781     -8.69378    609.74888  0.011344587 0.0099647795            2 
 4480000   0.53690769   -8.7023186    610.04831  0.011347625 0.0099613287            2 
 4481000   0.54268155   -8.7047531    609.13833  0.011328169   0.00995788            4 
 4482000   0.54047243   -8.6907521    609.88693  0.011339561 0.0099544311            3 
 4483000   0.53672995   -8.6906404    609.74959  0.011334478 0.0099509847            2 
 4484000    0.5274456   -8.7043611    610.95057   0.01135427   0.00994754            4 
 4485000   0.54363282   -8.7037699    610.24767  0.011338678 0.0099440944            3 
 4486000    0.5335136   -8.6894439    610.34826  0.011338019 0.0099406457            2 
 4487000   0.53631706   -8.6812482     609.3611  0.011317159 0.0099372029            2 
 4488000   0.54489011   -8.6968615    609.87115  0.011324108 0.0099337598            1 
 4489000   0.52433591   -8.6996199    609.86585  0.011321487 0.0099303182            5 
 4490000   0.55143514   -8.7045899    608.95593  0.011302077 0.0099268771            5 
 4491000   0.53135777    -8.719697    609.69987  0.011313365 0.0099234379            3 
 4492000    0.5409183   -8.7005236    609.17855  0.011301175 0.0099200023            3 
 4493000   0.52904761   -8.6984037    609.35077  0.011301854 0.0099165711            5 
 4494000   0.53666337   -8.7074237    609.97363  0.011310889 0.0099131384            3 
 4495000   0.53334081   -8.6812806    608.32693  0.011277845  0.009909703            1 
 4496000   0.54409011   -8.6983785    610.18752  0.011309822 0.0099062717            1 
 4497000   0.54356826   -8.7105692    609.10699  0.011287284  0.009902842            1 
 4498000   0.53188518   -8.7056287    608.84702  0.011279958  0.009899417            3 
 4499000   0.53364171   -8.6953569     609.2918  0.011285689 0.0098959885            3 
 4500000   0.52664384   -8.7053204    610.28971  0.011301661 0.0098925621            3 
 4501000   0.51914026   -8.7066449    609.89161   0.01129178 0.0098891346            3 
 4502000    0.5466864   -8.7155389    609.25231  0.011277438 0.0098857117            2 
 4503000    0.5411629   -8.7135676    609.85331  0.011286056 0.0098822896            1 
 4504000   0.53702084   -8.7175502    609.12305  0.011270039   0.00987887            3 
 4505000   0.52594377   -8.7096227    609.45828  0.011273738 0.0098754522            4 
 4506000   0.52958056   -8.7039291    609.96889  0.011280679  0.009872036            4 
 4507000   0.51892889   -8.7100227    609.23752  0.011264654 0.0098686213            3 
 4508000   0.52588604   -8.7003139    609.68433  0.011270414 0.0098652098            1 
 4509000   0.54179941   -8.7150349    609.80536  0.011270152 0.0098617957            2 
 4510000   0.52758416   -8.7185219    610.97721  0.011289306 0.0098583828            2 
 4511000   0.52770659   -8.7178272    609.15815  0.011253199 0.0098549718            5 
 4512000   0.53044586    -8.695776    608.47234  0.011238038 0.0098515616            2 
 4513000   0.54294835   -8.7083797    608.62492  0.011238365 0.0098481503            4 
 4514000   0.52818061   -8.7183764    608.87328  0.011240461 0.0098447446            1 
 4515000   0.53222834   -8.7011501    608.93461  0.011239103 0.0098413355            3 
 4516000   0.53733575   -8.7185071     609.3609  0.011244481 0.0098379313            1 
 4517000   0.53180211   -8.6953459    610.09528   0.01125554 0.0098345321            3 
 4518000   0.53134289   -8.7035095    608.74429   0.01122813 0.0098311342            4 
 4519000   0.53818282   -8.6817352     609.6896  0.011243077 0.0098277386            3 
 4520000   0.52480721   -8.7182936    609.67349  0.011240293 0.0098243406            7 
 4521000   0.52280222   -8.7095142    609.11177  0.011227453 0.0098209399            2 
 4522000    0.5368574   -8.6981863    608.57554  0.011215088  0.009817543            2 
 4523000   0.54140404    -8.692466    608.68663  0.011214655 0.0098141507            3 
 4524000   0.52235433   -8.7297155    609.31735  0.011223794 0.0098107584            2 
 4525000   0.51385892   -8.7084446    609.54325  0.011225474 0.0098073654            3 
 4526000   0.53576017   -8.7077797    609.30154  0.011218544 0.0098039754            2 
 4527000   0.53321556   -8.7140252    610.13108  0.011231336 0.0098005864            2 
 4528000   0.52613143   -8.7024715    609.72039  0.011221297 0.0097971962            2 
 4529000   0.53047366   -8.6995714    610.14584  0.011226648 0.0097938053            2 
 4530000   0.53654333   -8.7044669    609.34255  0.011209392 0.0097904182            1 
 4531000   0.53325771   -8.7149638    609.29903  0.011206118 0.0097870351            2 
 4532000   0.52908621   -8.7190331    609.20038  0.011201831 0.0097836528            4 
 4533000    0.5283384   -8.6956793    609.30582  0.011201298 0.0097802737            1 
 4534000   0.52232077   -8.7189549    610.25808   0.01121633 0.0097768923            2 
 4535000   0.52356773   -8.7129305    608.61966   0.01118375 0.0097735136            5 
 4536000   0.53207003   -8.7056801     608.9897  0.011188082 0.0097701362            3 
 4537000   0.53000891   -8.7137699    608.98025  0.011185443 0.0097667584            1 
 4538000   0.53694143   -8.7165344    609.03025  0.011183896 0.0097633834            1 
 4539000   0.51840899   -8.7120022    610.21524  0.011203188 0.0097600105            2 
 4540000   0.52737677   -8.7083473    608.69148  0.011172751 0.0097566402            2 
 4541000   0.51829892   -8.7069673    609.09212  0.011177643   0.00975327            2 
 4542000   0.51487118   -8.7173318    609.35211  0.011179952 0.0097498982            2 
 4543000   0.53172648   -8.7070624    608.62213  0.011164101 0.0097465291            2 
 4544000   0.52960146   -8.7127451    608.85404  0.011165897 0.0097431666            1 
 4545000   0.53322332   -8.7103599    609.62112  0.011177505  0.009739803            3 
 4546000    0.5242689   -8.7105045    608.72923  0.011158697 0.0097364429            2 
 4547000    0.5325551   -8.7240745    609.19662  0.011164809 0.0097330845            2 
 4548000   0.54931499    -8.732257     609.0563  0.011159783 0.0097297256            1 
 4549000   0.51593163   -8.7220261    610.46509  0.011183137 0.0097263673            3 
 4550000   0.51751508   -8.7213232    608.83402  0.011150806 0.0097230138            1 
 4551000   0.51273597    -8.712084    609.25544  0.011156073   0.00971966            2 
 4552000     0.523424   -8.7179038    610.07502  0.011168626 0.0097163088            2 
 4553000   0.53701047    -8.718441    609.30775   0.01115213 0.0097129574            5 
 4554000   0.51602127    -8.723216    608.73615  0.011139221 0.0097096078            2 
 4555000   0.53500005   -8.7223815    608.25366  0.011127948  0.009706261            2 
 4556000   0.52778143   -8.7058072     608.7881  0.011135281 0.0097029138            2 
 4557000   0.52103341    -8.721628    609.25171  0.011141316 0.0096995714            3 
 4558000    0.5337045    -8.716241    608.70298  0.011128839 0.0096962262            3 
 4559000   0.52341817   -8.7213517    609.12954  0.011134195 0.0096928827            8 
 4560000   0.52343123   -8.7204804    609.07858  0.011130822 0.0096895448            2 
 4561000   0.52123073   -8.7387735    609.21149   0.01113081 0.0096862056            2 
 4562000    0.5102634   -8.7156362    608.80978  0.011121032  0.009682871            2 
 4563000   0.52619991   -8.7206101    608.70936  0.011116761 0.0096795363            4 
 4564000   0.52979035   -8.7061335    608.32755  0.011107354  0.009676204            3 
 4565000   0.51927167   -8.7153755    609.68057   0.01112962 0.0096728771            5 
 4566000   0.52961122   -8.7430677    609.62957  0.011126252 0.0096695531            2 
 4567000   0.52424362    -8.732998    609.16028  0.011115252 0.0096662247            3 
 4568000   0.52683785    -8.727622    608.93308  0.011108674 0.0096628956            1 
 4569000   0.52208135   -8.7258591     609.4046  0.011114843 0.0096595697            2 
 4570000   0.52140567   -8.7196442    608.96245  0.011104348 0.0096562445            2 
 4571000   0.52526867   -8.7326126    609.53705  0.011112394 0.0096529185            3 
 4572000   0.51807343   -8.7275472    608.77379  0.011096052 0.0096496009            5 
 4573000   0.52415231   -8.7301361    608.32205  0.011085394 0.0096462789            2 
 4574000   0.51014625   -8.7291584     608.9339  0.011094117 0.0096429584            5 
 4575000   0.52220301   -8.7257943    608.21077   0.01107852 0.0096396382            2 
 4576000   0.51537322   -8.7128849    609.06822  0.011091714 0.0096363225            7 
 4577000    0.5181651   -8.7086749    608.60431  0.011080845 0.0096330083            3 
 4578000   0.51956928   -8.7181954    610.33696  0.011109964 0.0096296909            2 
 4579000   0.52151734   -8.7293462    609.77791  0.011097363  0.009626377            5 
 4580000   0.52303414   -8.7376306    608.77615  0.011076713 0.0096230632            4 
 4581000   0.52007355   -8.7238752    608.46482  0.011068632 0.0096197513            3 
 4582000   0.51955363   -8.7377011    608.33461  0.011063848   0.00961644            2 
 4583000   0.52255347    -8.737294    609.57509   0.01108399 0.0096131293            3 
 4584000   0.51835451   -8.7288628    607.96229  0.011052252 0.0096098196            1 
 4585000   0.50744138   -8.7383375    608.73523   0.01106389 0.0096065096            2 
 4586000   0.51614806   -8.7429179    608.28833  0.011053357 0.0096032004            4 
 4587000   0.52345603   -8.7463011     608.0288  0.011046232 0.0095998958            4 
 4588000   0.52278532   -8.7361632    609.38581  0.011068472 0.0095965915            2 
 4589000   0.51705481    -8.721349    608.73566  0.011054254 0.0095932899            4 
 4590000   0.51639061   -8.7266769    609.32213  0.011062493 0.0095899874            3 
 4591000   0.50291268   -8.7322268     609.2033  0.011057927 0.0095866853            5 
 4592000   0.51611838   -8.7404137    608.64198  0.011045332 0.0095833857            2 
 4593000   0.52316374   -8.7257882    607.65977  0.011025107 0.0095800868            4 
 4594000   0.53483942   -8.7449188    609.62881  0.011058424 0.0095767945            4 
 4595000   0.52507553   -8.7188615    608.08813  0.011028076 0.0095735017            1 
 4596000    0.5041871   -8.7162691     608.5268  0.011033631 0.0095702095            3 
 4597000   0.51538438   -8.7118043    609.31809  0.011045575 0.0095669203            1 
 4598000   0.51097089   -8.7288682    608.69856  0.011031944 0.0095636311            3 
 4599000   0.51567976   -8.7255435    608.78924  0.011031189 0.0095603439            2 
 4600000   0.51198199   -8.7466085    608.74549  0.011027998 0.0095570551            2 
 4601000   0.52415062   -8.7315887     608.5697  0.011022417 0.0095537708            3 
 4602000   0.51301648   -8.7196127    609.91543  0.011044391  0.009550488            4 
 4603000   0.51292524   -8.7457279    609.03513  0.011026054 0.0095472064            2 
 4604000   0.50803511   -8.7359698    607.63735  0.010998359 0.0095439253            2 
 4605000    0.5169767   -8.7263713    608.22338  0.011006576 0.0095406454            2 
 4606000   0.50839714   -8.7377738    608.03795  0.011000831 0.0095373666            4 
 4607000   0.50758944   -8.7304689    608.64081  0.011009348 0.0095340903            2 
 4608000   0.51409912   -8.7336652     609.3367  0.011019544 0.0095308123            2 
 4609000   0.51200346   -8.7287206    609.69481  0.011023628  0.009527539            4 
 4610000   0.51080093   -8.7525137    608.54673  0.011000483 0.0095242675            2 
 4611000   0.51800673   -8.7285677    609.47401  0.011014856 0.0095209982            3 
 4612000   0.51442097   -8.7241879    609.40947  0.011011302 0.0095177306            6 
 4613000   0.50595404   -8.7621278    608.43385   0.01099129 0.0095144644            1 
 4614000   0.52515199    -8.738675    608.19314   0.01098456 0.0095111977            1 
 4615000   0.50730035   -8.7353719    607.91897   0.01097723 0.0095079332            4 
 4616000   0.52065712   -8.7236613    608.66793  0.010988372 0.0095046717            5 
 4617000   0.50439857   -8.7362874    608.74427   0.01098737 0.0095014105            5 
 4618000   0.51999287   -8.7377837    608.90624  0.010987914 0.0094981494            3 
 4619000   0.50192157   -8.7285923    608.74545  0.010982634 0.0094948901            4 
 4620000   0.51841255   -8.7247989    608.73716  0.010980108 0.0094916316            2 
 4621000   0.50692168   -8.7405861     609.0811  0.010983934 0.0094883765            5 
 4622000   0.51497291   -8.7347947    608.11974  0.010964224 0.0094851202            5 
 4623000   0.51708977    -8.734335    609.30871  0.010983285 0.0094818627            4 
 4624000   0.50344178   -8.7318305    607.94158  0.010956271 0.0094786112            6 
 4625000   0.50720739   -8.7313859    608.81763  0.010969687 0.0094753608            4 
 4626000   0.51585269   -8.7333987    608.63385  0.010964005 0.0094721099            2 
 4627000   0.49418141    -8.739194    608.83375  0.010965236 0.0094688569            3 
 4628000   0.51394751   -8.7467889     608.8849  0.010963787 0.0094656076            2 
 4629000   0.51432766   -8.7428007    608.40448   0.01095277 0.0094623633            3 
 4630000   0.51090144   -8.7334569     608.4581   0.01095137 0.0094591168            3 
 4631000   0.50468036   -8.7575855    608.62532  0.010952014 0.0094558674            7 
 4632000   0.50899283    -8.741361    608.45077  0.010946509 0.0094526211            3 
 4633000   0.50795221   -8.7426133     607.8854  0.010933977 0.0094493758            4 
 4634000   0.50240599   -8.7338867    607.90116  0.010931901  0.009446134            1 
 4635000   0.51099898   -8.7560858    608.51285   0.01094054 0.0094428964            3 
 4636000    0.5098199   -8.7639795    608.18388  0.010932267 0.0094396552            2 
 4637000   0.50567445   -8.7567261    608.52112   0.01093597  0.009436418            1 
 4638000   0.51251252    -8.747208    608.31314  0.010929875 0.0094331831            4 
 4639000   0.51103134    -8.771845    607.02696  0.010904415 0.0094299496            3 
 4640000   0.50214822   -8.7235344    608.24546  0.010923949  0.009426714            5 
 4641000   0.50512001   -8.7468137    608.12734  0.010919474 0.0094234824            8 
 4642000   0.49632838   -8.7274304    609.23596  0.010937024 0.0094202518            1 
 4643000   0.49464155   -8.7297774    608.49539  0.010921376 0.0094170233            3 
 4644000   0.51321102   -8.7472322    608.89103  0.010926124 0.0094137957            3 
 4645000   0.49996524   -8.7376249    608.36362   0.01091431 0.0094105691            3 
 4646000   0.51596758   -8.7390436    607.86709  0.010903054 0.0094073428            2 
 4647000   0.49160015   -8.7499991    608.45681  0.010911283 0.0094041178            5 
 4648000   0.50701515   -8.7344934    608.07767  0.010902138  0.009400894            4 
 4649000   0.51311522   -8.7499156    608.22483  0.010902431 0.0093976712            2 
 4650000   0.51335504   -8.7585633    608.26948  0.010900887 0.0093944481            5 
 4651000   0.51287259   -8.7523446    607.65389  0.010887513 0.0093912259            3 
 4652000   0.50375869   -8.7546323    608.80029  0.010905709  0.009388006            4 
 4653000   0.50751812   -8.7543548    607.89196  0.010887097 0.0093847847            5 
 4654000   0.50532474   -8.7591487    608.49714  0.010895594 0.0093815673            3 
 4655000   0.50658924    -8.738444    609.00388  0.010902325 0.0093783536            4 
 4656000   0.50096545   -8.7348934    608.21817  0.010885921 0.0093751401            3 
 4657000   0.50531451   -8.7660585    607.87089  0.010877369 0.0093719309            4 
 4658000     0.510302   -8.7347969    607.59649  0.010870125 0.0093687194            2 
 4659000   0.50523965   -8.7525006    608.52245  0.010884354 0.0093655113            5 
 4660000   0.50296787   -8.7552496    607.18358  0.010858075  0.009362306            3 
 4661000   0.51103824   -8.7447349    608.59348  0.010880953 0.0093591004            1 
 4662000   0.51446453   -8.7491022    608.29748  0.010873328 0.0093558991            2 
 4663000    0.5139455   -8.7595354    608.17081  0.010868733 0.0093526964            8 
 4664000   0.51419096   -8.7466866    607.80644  0.010859892 0.0093494929            1 
 4665000   0.50238149   -8.7527564    608.30788  0.010866522 0.0093462915            1 
 4666000   0.49420276   -8.7385651    607.35872  0.010847241 0.0093430917            3 
 4667000   0.50556389   -8.7490969    607.89479  0.010854489 0.0093398934            2 
 4668000   0.51089386   -8.7625031    607.56101  0.010846205 0.0093366973            2 
 4669000   0.51665119    -8.752616    608.31999  0.010857428 0.0093335006            7 
 4670000    0.5044798   -8.7514238    608.05233  0.010850327 0.0093303079            4 
 4671000   0.50470486   -8.7513302    607.91961  0.010845636  0.009327115            6 
 4672000   0.50631541   -8.7429901    608.03975  0.010845458 0.0093239241            3 
 4673000   0.50640546   -8.7597015    607.22506  0.010828609 0.0093207351            3 
 4674000   0.51472798   -8.7371657    607.06715  0.010823477 0.0093175475            7 
 4675000   0.50998965   -8.7504828    607.93314  0.010836598 0.0093143603            8 
 4676000   0.49784381   -8.7493126    608.81776  0.010850046 0.0093111782            1 
 4677000   0.50258975   -8.7609867    608.10854  0.010835089 0.0093079946            2 
 4678000   0.49228568   -8.7520075    608.44253  0.010838723 0.0093048107            4 
 4679000   0.50063767   -8.7580941    607.55859  0.010820663 0.0093016288            1 
 4680000   0.49745496   -8.7395736    608.19573  0.010829696 0.0092984503            3 
 4681000   0.50667378   -8.7416572    607.38669   0.01081298 0.0092952726            5 
 4682000    0.5153915   -8.7643132    608.13625  0.010824011 0.0092920966            4 
 4683000   0.49277603   -8.7617891    607.16283  0.010804378 0.0092889213            2 
 4684000   0.49805217   -8.7631339    606.93724  0.010798058 0.0092857451            6 
 4685000   0.49648223    -8.751477    608.14539  0.010817243   0.00928257            2 
 4686000   0.50488106   -8.7450831    607.82535  0.010809243 0.0092793955            6 
 4687000   0.50324524   -8.7446338    607.82514  0.010806933 0.0092762253            4 
 4688000   0.50744373   -8.7430237    608.04614  0.010808556  0.009273057            5 
 4689000   0.49848055   -8.7511336     608.3622  0.010811868 0.0092698907            2 
 4690000   0.50773778   -8.7472084     608.0059  0.010803232 0.0092667261            6 
 4691000    0.5004174   -8.7548849    608.20318  0.010804434 0.0092635619            7 
 4692000   0.49471284   -8.7585414    607.51922  0.010789983 0.0092604013            3 
 4693000      0.50275   -8.7524003    607.71813  0.010791216 0.0092572379            1 
 4694000   0.50268411   -8.7697116    609.11599  0.010813734 0.0092540745            2 
 4695000   0.50295837   -8.7692719    608.43368   0.01079932 0.0092509159            1 
 4696000   0.50754204   -8.7532123    608.19609  0.010792804 0.0092477573            5 
 4697000   0.50813477   -8.7599808    608.01823  0.010787351 0.0092445989            1 
 4698000   0.50571848   -8.7736693    608.22977  0.010788807 0.0092414415            2 
 4699000   0.50045606   -8.7599943    607.12366  0.010766895 0.0092382855            1 
 4700000   0.50978987   -8.7503293    607.40974  0.010769676 0.0092351338            1 
 4701000    0.5049091   -8.7561611    608.00363  0.010777913  0.009231982            4 
 4702000   0.49194784   -8.7578412    608.63546  0.010786819 0.0092288319            2 
 4703000    0.4994285    -8.742722    607.65508  0.010767154 0.0092256809            2 
 4704000   0.50135383   -8.7791724    607.52786  0.010762611  0.009222533            6 
 4705000   0.48678799   -8.7629637     609.0938  0.010788059 0.0092193855            3 
 4706000   0.49915984   -8.7550252    607.43165  0.010756333 0.0092162391            2 
 4707000   0.49632034   -8.7610521    607.03236  0.010746979 0.0092130947            4 
 4708000   0.50464451   -8.7404663    607.47041   0.01075245 0.0092099512            2 
 4709000   0.50154273   -8.7683614    608.03576  0.010760171 0.0092068115            2 
 4710000   0.51123917   -8.7552439     607.4926  0.010748277 0.0092036731            4 
 4711000     0.505861   -8.7615549    607.63426  0.010748501 0.0092005364            4 
 4712000   0.49814227   -8.7584282    606.76306  0.010730812 0.0091973982            3 
 4713000   0.49703462   -8.7651083    607.87941  0.010748274 0.0091942669            2 
 4714000   0.50209621   -8.7639142    608.03426  0.010748732  0.009191132            3 
 4715000   0.50219943   -8.7505525    607.42775  0.010735733 0.0091879993            2 
 4716000   0.49940924   -8.7366935    607.21907  0.010729769 0.0091848675            6 
 4717000   0.49473309   -8.7702935    607.59393  0.010734116 0.0091817373            2 
 4718000   0.49190138   -8.7798826    607.72252  0.010734113 0.0091786047            2 
 4719000   0.49550645   -8.7715856    607.73819  0.010732115 0.0091754739            5 
 4720000   0.49756524   -8.7621764    607.84687   0.01073176 0.0091723485            2 
 4721000   0.49044458   -8.7508732    607.81595  0.010728941 0.0091692242            6 
 4722000   0.49826178   -8.7773234     606.9778  0.010711877 0.0091661013            3 
 4723000   0.50282307   -8.7526902    608.21568   0.01073145 0.0091629785            3 
 4724000   0.49340387   -8.7568875    607.39598  0.010714719 0.0091598599            1 
 4725000   0.49038211   -8.7797643    607.72876   0.01071832 0.0091567396            2 
 4726000    0.4899972   -8.7647866    606.62564  0.010696601 0.0091536197            5 
 4727000   0.49950458   -8.7626711    608.38085  0.010725281 0.0091505045            2 
 4728000   0.49648302   -8.7741533     607.4105   0.01070591 0.0091473886            1 
 4729000   0.49004121   -8.7657312    607.16042  0.010699239 0.0091442743            3 
 4730000   0.48947194   -8.7637162    606.84771  0.010691468 0.0091411617            4 
 4731000    0.4895215   -8.7661652     607.9045  0.010707822  0.009138051            2 
 4732000   0.49985474   -8.7593476    607.58326  0.010699902  0.009134942            4 
 4733000   0.49913243   -8.7605878     606.6509  0.010681226 0.0091318344            4 
 4734000   0.49144679   -8.7582674     607.9854  0.010702461 0.0091287247            3 
 4735000   0.50506481   -8.7677866    608.13436  0.010702822  0.009125618            4 
 4736000   0.49249179   -8.7531745      607.117  0.010682661 0.0091225142            2 
 4737000   0.49608349   -8.7585234    607.14882  0.010680966 0.0091194103            4 
 4738000   0.48973682   -8.7595903    608.22258  0.010697597  0.009116309            4 
 4739000   0.49318492   -8.7666206    607.31792  0.010679432 0.0091132103            3 
 4740000   0.50243123   -8.7673875    606.90562   0.01066993 0.0091101107            2 
 4741000   0.49401087   -8.7782277    607.81511  0.010683666 0.0091070091            3 
 4742000   0.50483071   -8.7439846    608.01105  0.010684856 0.0091039156            3 
 4743000   0.49154686   -8.7765713    607.92302  0.010681057 0.0091008178            3 
 4744000   0.49397688   -8.7630159     607.1648  0.010665486 0.0090977233            2 
 4745000   0.49553769   -8.7514277    606.92399  0.010659009 0.0090946314            3 
 4746000   0.48368496   -8.7847459    607.49214  0.010666739 0.0090915407            2 
 4747000   0.49562496   -8.7786274     607.6675  0.010667571 0.0090884495            2 
 4748000   0.47475426    -8.758197     607.0066  0.010653724 0.0090853587            3 
 4749000   0.49637259   -8.7711839    606.97275  0.010650887 0.0090822713            7 
 4750000   0.49153356   -8.7656125    607.17358  0.010652168 0.0090791847            2 
 4751000   0.48699401   -8.7673487    607.93952  0.010663361 0.0090761001            2 
 4752000     0.492795   -8.7692148    607.13967   0.01064709 0.0090730148            2 
 4753000   0.48514084   -8.7663948    607.68923  0.010654485  0.009069935            2 
 4754000    0.4842006   -8.7553863    606.85525  0.010637625 0.0090668543            4 
 4755000   0.49892964   -8.7903281    606.64232  0.010631657 0.0090637749            2 
 4756000   0.48184059   -8.7720232    607.43714  0.010643348 0.0090606989            2 
 4757000   0.48947082   -8.7630618    608.10856  0.010652872 0.0090576229            3 
 4758000   0.49596473   -8.7635378    607.89465  0.010646887 0.0090545471            2 
 4759000   0.49890478   -8.7812075    607.68971  0.010641061 0.0090514774            3 
 4760000   0.48447526   -8.7489864    606.91344  0.010625235 0.0090484078            2 
 4761000   0.48889498   -8.7605342    608.05324  0.010642954 0.0090453397            2 
 4762000   0.49004668   -8.7850916    607.43758  0.010629945 0.0090422695            3 
 4763000     0.489828   -8.7707974    606.79856  0.010616533 0.0090392015            2 
 4764000   0.49598806   -8.7784606    606.86312  0.010615434 0.0090361349            2 
 4765000   0.49292528   -8.7594016    607.60314  0.010626148 0.0090330684            5 
 4766000   0.49622513   -8.7746562    607.36558  0.010619765 0.0090300056            2 
 4767000   0.49794587   -8.7647759     607.7544  0.010624334  0.009026942            3 
 4768000   0.48918151   -8.7740089    606.94595  0.010607976 0.0090238816            6 
 4769000   0.49066967   -8.7752114      608.025  0.010624607 0.0090208203            3 
 4770000   0.48097268   -8.7718864    606.65797  0.010598497 0.0090177606            3 
 4771000   0.49559389   -8.7691524     608.4676  0.010627884 0.0090147053            4 
 4772000   0.49387015   -8.7779021    607.46301  0.010608114 0.0090116487            2 
 4773000   0.48922367   -8.7696247     607.9789  0.010614898 0.0090085966            2 
 4774000   0.48925242   -8.7695436    607.40467  0.010602651 0.0090055427            4 
 4775000   0.48264035   -8.7747135    607.52049  0.010602452 0.0090024906            2 
 4776000   0.47912348   -8.7706278    607.33316  0.010596963 0.0089994406            2 
 4777000   0.48757216   -8.7701781    608.00845  0.010606525 0.0089963893            4 
 4778000   0.48531736   -8.7703617    607.52124  0.010595808 0.0089933392            1 
 4779000   0.48730098   -8.7682125    607.51072  0.010593407 0.0089902923            2 
 4780000    0.4863768   -8.7848799    606.91667  0.010580834 0.0089872447            2 
 4781000   0.48924991   -8.7857634    607.35103  0.010586192 0.0089841985            1 
 4782000   0.48238017   -8.7757016    606.64857  0.010571737 0.0089811537            4 
 4783000   0.49382723   -8.7880008    606.42287  0.010565595 0.0089781131            2 
 4784000   0.48334684   -8.7779005    607.82142  0.010587748 0.0089750729            5 
 4785000   0.48398231   -8.7849908     606.5627  0.010563614 0.0089720321            2 
 4786000   0.49047824   -8.7796433    607.80029  0.010582955 0.0089689931            2 
 4787000   0.47865817   -8.7719952     607.8512  0.010581631 0.0089659558            2 
 4788000    0.4921534   -8.7887134    607.63039  0.010575578 0.0089629199            2 
 4789000   0.48698953   -8.7643634    606.57534  0.010555011 0.0089598856            2 
 4790000   0.47982735   -8.7897525    607.22181  0.010564054 0.0089568514            1 
 4791000   0.48656017   -8.7887069    608.03103  0.010575924 0.0089538179            3 
 4792000   0.48126604    -8.796312    606.74641  0.010551377 0.0089507861            3 
 4793000   0.48468357   -8.7972525    607.68857  0.010565557 0.0089477526            3 
 4794000   0.49214545   -8.7717913    607.37363  0.010557878 0.0089447214            3 
 4795000   0.48415662   -8.7844876    608.08244  0.010567995 0.0089416955            4 
 4796000   0.48576971   -8.7951788    607.29741  0.010552151 0.0089386697            2 
 4797000   0.48739208   -8.7941045    607.93139  0.010560965 0.0089356463            1 
 4798000   0.48742907   -8.7831871    607.61348  0.010553242 0.0089326251            2 
 4799000   0.49299577    -8.786999    606.65085  0.010534328 0.0089296011            1 
 4800000   0.47914777   -8.7968037    607.11701  0.010540226 0.0089265796            2 
 4801000   0.48458054   -8.7897048    606.87614  0.010533849 0.0089235583            7 
 4802000   0.48802831   -8.7801801    606.58363   0.01052658 0.0089205413            2 
 4803000   0.48031668   -8.7730699    607.91812  0.010547542 0.0089175221            2 
 4804000   0.47964153    -8.787077    607.05917  0.010530446 0.0089145074            2 
 4805000   0.47808731   -8.7856674    607.54236  0.010536635 0.0089114926            4 
 4806000   0.48641019   -8.7861124    607.79085  0.010538751 0.0089084796            3 
 4807000   0.49184862   -8.7592149    606.66747  0.010517084 0.0089054668            4 
 4808000   0.47042628   -8.7942442    607.47653  0.010528919 0.0089024581            1 
 4809000   0.48616663   -8.7929602    607.47025  0.010526621  0.008899448            2 
 4810000   0.48631348   -8.7863311    606.80021  0.010512824 0.0088964373            2 
 4811000   0.48231893   -8.7906292    607.56743  0.010523928 0.0088934322            2 
 4812000   0.48770967   -8.7733256    607.19558  0.010515302 0.0088904266            4 
 4813000   0.49328355   -8.7842882    606.92001  0.010508346 0.0088874236            4 
 4814000   0.49640231   -8.7899258    606.82907  0.010504589 0.0088844225            2 
 4815000   0.48327254   -8.7801128    607.66779  0.010516923 0.0088814205            2 
 4816000   0.48729486   -8.7899153    606.85759   0.01050072 0.0088784209            3 
 4817000   0.48327487   -8.7782698    607.00549  0.010501098 0.0088754217            2 
 4818000   0.48674245   -8.7913097    606.88058  0.010496758 0.0088724242            2 
 4819000   0.47330941   -8.7812217    606.99269  0.010496519 0.0088694289            2 
 4820000    0.4903325   -8.7798923     606.6239  0.010487965  0.008866434            6 
 4821000   0.47969451    -8.800827    607.63853  0.010503328 0.0088634435            3 
 4822000   0.48559662   -8.7850564    607.84305  0.010504684 0.0088604473            2 
 4823000   0.47707992   -8.7972619    606.22518  0.010474552 0.0088574548            2 
 4824000   0.48601083   -8.7848031    606.13001  0.010470737 0.0088544656            3 
 4825000   0.48173692    -8.770914     607.1659  0.010486458 0.0088514768            1 
 4826000   0.47992844   -8.7889039    607.48211  0.010489745 0.0088484915            3 
 4827000   0.48724272   -8.8001915    607.29201   0.01048429 0.0088455061            1 
 4828000   0.48637761    -8.793047    607.18096  0.010480202 0.0088425241            2 
 4829000   0.48105558   -8.7848254    606.71323   0.01046996  0.008839542            3 
 4830000   0.47918879   -8.7909146    607.10289  0.010474515 0.0088365615            3 
 4831000   0.46750355   -8.7895784    606.87138  0.010468353 0.0088335794            1 
 4832000   0.48474691   -8.7949618    607.09333  0.010470015 0.0088306008            1 
 4833000   0.47703297   -8.8012744    607.39169  0.010472993 0.0088276234            4 
 4834000   0.46609279   -8.7966898    607.37292  0.010470503 0.0088246478            2 
 4835000   0.47464483   -8.7838966    607.53469  0.010471125 0.0088216736            4 
 4836000   0.48598259   -8.7928361    606.45378  0.010450334 0.0088187004            2 
 4837000   0.48647614   -8.7967051    606.22598  0.010444249 0.0088157259            2 
 4838000    0.4807503   -8.7808995    606.93383  0.010454283 0.0088127563            2 
 4839000   0.48143935   -8.7840479    607.29154  0.010458282 0.0088097904            3 
 4840000   0.47747991   -8.7767674     605.7358  0.010429335  0.008806824            5 
 4841000   0.49733304    -8.801676    606.68174  0.010443465  0.008803858            2 
 4842000   0.47445912   -8.8002679    606.88888  0.010444873 0.0088008915            2 
 4843000   0.48163222    -8.806319    606.88971   0.01044273 0.0087979284            2 
 4844000   0.47709425   -8.7972757    606.26217  0.010429779 0.0087949641            4 
 4845000   0.47394873   -8.7870847    606.78772  0.010436665 0.0087920019            3 
 4846000   0.47907676    -8.799276    606.30124  0.010426146 0.0087890388            3 
 4847000   0.48341243   -8.8076147    606.70558  0.010430947 0.0087860789            3 
 4848000   0.47143773   -8.7847808    606.41757  0.010423844 0.0087831197            4 
 4849000   0.47597715   -8.8116712    606.59344  0.010424717 0.0087801613            2 
 4850000   0.47915272   -8.7976118     606.4563  0.010420211 0.0087772031            3 
 4851000   0.47680592   -8.7967854    607.41639  0.010434556 0.0087742458            1 
 4852000   0.46325961   -8.8063758    606.56097  0.010417714 0.0087712899            3 
 4853000   0.48786255   -8.8074881    605.87792  0.010403838 0.0087683358            3 
 4854000   0.47773021   -8.8187608    607.06645  0.010422099 0.0087653842            2 
 4855000    0.4791435   -8.7812995    607.01416  0.010419055 0.0087624356            1 
 4856000   0.47680794   -8.7919852    606.64125   0.01041051 0.0087594865            4 
 4857000    0.4755137   -8.7903693    607.23815  0.010418608 0.0087565397            1 
 4858000   0.45585735   -8.7994286    606.05822  0.010396223 0.0087535932            2 
 4859000    0.4694667   -8.8094593    606.76956  0.010406283 0.0087506469            2 
 4860000   0.47213853   -8.7865025    605.51969  0.010382711 0.0087477006            4 
 4861000   0.46212892    -8.814709    606.72501  0.010401238 0.0087447581            4 
 4862000   0.47190919   -8.7977663    606.54693  0.010396046 0.0087418162            3 
 4863000   0.48070342   -8.8064738    607.34239   0.01040754 0.0087388758            3 
 4864000   0.47688686    -8.803186    606.41632  0.010389534 0.0087359372            3 
 4865000   0.47475039   -8.7896981    606.83666  0.010394598 0.0087330003            5 
 4866000   0.48408753   -8.8180795    606.15355  0.010380764 0.0087300639            2 
 4867000   0.46562756   -8.8037513    607.31822  0.010398572 0.0087271275            3 
 4868000   0.47117009   -8.7819351    607.46369  0.010398927  0.008724193            3 
 4869000   0.47579013   -8.8078828    606.74744  0.010384532 0.0087212609            3 
 4870000   0.46949706   -8.8085864    606.39369  0.010376346 0.0087183299            2 
 4871000   0.48709696   -8.8144301     606.3752    0.0103739 0.0087154006            2 
 4872000   0.47367474   -8.7855426    606.90935  0.010380907  0.008712471            4 
 4873000   0.47337799   -8.8064756    606.73986  0.010375878 0.0087095431            2 
 4874000   0.45994663   -8.8110175    605.83173  0.010358223 0.0087066143            2 
 4875000    0.4670563    -8.795369    606.45201  0.010366701 0.0087036885            2 
 4876000   0.47618252   -8.8101264    606.58182  0.010366793 0.0087007661            1 
 4877000   0.47067234   -8.8128961    605.88382  0.010352741 0.0086978421            3 
 4878000   0.47382662   -8.8129449    606.68319  0.010364275 0.0086949209            5 
 4879000   0.47174553   -8.8053408    607.08832   0.01036907 0.0086920004            2 
 4880000    0.4721543    -8.806808    606.98783  0.010365229 0.0086890843            1 
 4881000   0.47280335   -8.7947098    606.58368  0.010356206 0.0086861663            4 
 4882000   0.47701104   -8.7969895     607.0699  0.010362384 0.0086832522            2 
 4883000   0.46768313   -8.8007055    606.56049  0.010351568  0.008680338            2 
 4884000   0.46817619   -8.7774678    605.85497  0.010337411 0.0086774267            4 
 4885000   0.47162821   -8.8078083    607.13701  0.010357165 0.0086745153            1 
 4886000   0.46966182    -8.791693    606.15124  0.010338232 0.0086716031            5 
 4887000   0.46070246   -8.7956243    606.58543  0.010343521 0.0086686925            3 
 4888000   0.47493721   -8.8085834    606.84605  0.010345848 0.0086657833            3 
 4889000   0.46131496   -8.8086722     606.3576  0.010335406  0.008662877            2 
 4890000   0.46527003   -8.8112501    606.69576  0.010339055 0.0086599741            2 
 4891000   0.46827498   -8.8066592    605.99311  0.010324969 0.0086570693            3 
 4892000   0.46380308     -8.80873    606.15466  0.010325611 0.0086541631            3 
 4893000   0.45870396   -8.8170997    606.48464   0.01032912 0.0086512615            3 
 4894000   0.46408705   -8.8261541    607.16153  0.010338536 0.0086483598            4 
 4895000    0.4738158   -8.8161691    606.10473  0.010318433 0.0086454603            1 
 4896000   0.46537461   -8.8093403      605.805  0.010311223 0.0086425622            4 
 4897000   0.48005045   -8.8019678    605.35561  0.010301471 0.0086396647            2 
 4898000   0.47876342    -8.809812    607.28602  0.010332211 0.0086367684            5 
 4899000   0.48305997    -8.806458    606.33797  0.010313975 0.0086338745            2 
 4900000   0.47098507   -8.7999186    606.61317   0.01031655  0.008630981            3 
 4901000   0.47572562   -8.8139024      606.776  0.010317214 0.0086280915            5 
 4902000   0.46641695   -8.8078017    606.50194  0.010310451 0.0086252018            5 
 4903000   0.45795439   -8.8130891    606.30782  0.010305048 0.0086223132            2 
 4904000   0.47163958   -8.8139968    606.77023  0.010310805 0.0086194275            2 
 4905000   0.46639238   -8.8229569    605.96928  0.010295095 0.0086165406            1 
 4906000   0.46562413   -8.7926494    605.24024  0.010280613 0.0086136552            3 
 4907000   0.46113114    -8.805315    605.59134   0.01028448 0.0086107722            2 
 4908000   0.46836564   -8.7981351    606.78683  0.010302683   0.00860789            6 
 4909000   0.46332888    -8.810795    606.44221  0.010294734 0.0086050098            2 
 4910000   0.46573568   -8.8034754    606.74658  0.010297803 0.0086021292            2 
 4911000   0.45354306   -8.8084019    606.58515  0.010292967 0.0085992494            1 
 4912000   0.47082885   -8.8154161    606.69086  0.010292665 0.0085963699            1 
 4913000   0.46142587   -8.8094932    605.75731  0.010274736 0.0085934926            4 
 4914000   0.46862215   -8.7969837    605.38751  0.010266373 0.0085906183            3 
 4915000   0.47223375   -8.7974112    605.18372  0.010260829 0.0085877459            4 
 4916000   0.46841918   -8.8207487    606.75612  0.010285397 0.0085848728            1 
 4917000   0.46643084   -8.8085494    605.77409  0.010266661 0.0085820023            2 
 4918000   0.45437693   -8.8186268    606.56245  0.010277932 0.0085791317            1 
 4919000   0.45613835   -8.8095528     606.4379  0.010273733 0.0085762629            4 
 4920000   0.46230702   -8.8242247    606.40378  0.010271067 0.0085733946            2 
 4921000   0.46128352   -8.8163558    606.57461  0.010271872 0.0085705266            3 
 4922000   0.46530815   -8.8079082     606.2032  0.010263497 0.0085676612            4 
 4923000   0.46115833   -8.8110842     605.5418  0.010250217 0.0085647963            2 
 4924000   0.47411146   -8.8142549    606.02335  0.010256285 0.0085619313            1 
 4925000   0.46818767   -8.8147669    607.66376  0.010281959 0.0085590704            2 
 4926000   0.46590088   -8.8150171    605.73512  0.010247245 0.0085562102            4 
 4927000   0.47514506   -8.7979521    606.98867  0.010266367 0.0085533533            1 
 4928000   0.46173967   -8.8131168    605.89628  0.010245811 0.0085504959            5 
 4929000   0.46472685    -8.818541     606.0113  0.010245677  0.008547637            3 
 4930000   0.46305237   -8.8156971    605.76695  0.010239468 0.0085447787            2 
 4931000   0.46959457   -8.8077543    606.66953  0.010252645  0.008541924            3 
 4932000   0.45875271   -8.8008011    606.38329   0.01024573 0.0085390705            3 
 4933000   0.46407896   -8.8045673    605.72013   0.01023245 0.0085362158            1 
 4934000   0.46902462   -8.8132267    606.44389    0.0102426 0.0085333644            3 
 4935000   0.46635453   -8.8210114    606.14679  0.010235508 0.0085305141            2 
 4936000    0.4576747   -8.8375666    605.94808   0.01023008  0.008527664            4 
 4937000   0.45988803   -8.8194531    607.57186  0.010255416 0.0085248152            2 
 4938000   0.46632589   -8.8115266     605.5805  0.010219733  0.008521968            4 
 4939000   0.46026713   -8.8067555     606.2611  0.010229147  0.008519122            2 
 4940000   0.46053438   -8.8142155    606.41895  0.010229739 0.0085162781            3 
 4941000   0.47020952   -8.8212117    606.07137  0.010221807 0.0085134358            1 
 4942000   0.45987205   -8.8221439    605.93489  0.010217437  0.008510593            1 
 4943000   0.45422391   -8.8192997    607.12477   0.01023543 0.0085077522            5 
 4944000   0.47107567   -8.8193753    606.16151  0.010217124 0.0085049127            5 
 4945000   0.46901446   -8.8107324    605.09228  0.010197039 0.0085020736            2 
 4946000   0.45243767   -8.8146371    606.26896  0.010214803 0.0084992351            4 
 4947000   0.45839024   -8.8303151    606.50466  0.010216708 0.0084963999            2 
 4948000   0.47024458   -8.8053721    606.68873  0.010217743 0.0084935661            2 
 4949000   0.47030088   -8.8219958    605.30476  0.010192375 0.0084907315            3 
 4950000    0.4607593   -8.8280632    605.42607  0.010192358 0.0084879001            2 
 4951000   0.45283377   -8.8116149    606.64514  0.010210818 0.0084850711            2 
 4952000   0.46023334   -8.8181048    605.12779  0.010183222 0.0084822404            3 
 4953000   0.46269862   -8.8191045    606.40213  0.010202607   0.00847941            1 
 4954000   0.45232036   -8.8133919    605.01193  0.010177162 0.0084765836            1 
 4955000   0.46996577   -8.8285216    606.17888  0.010194734 0.0084737569            3 
 4956000   0.45612736   -8.8286794    605.76958  0.010185795 0.0084709321            5 
 4957000   0.45394472   -8.8176532    605.48756  0.010178999 0.0084681099            4 
 4958000   0.45919139   -8.8212764    606.28116  0.010190284 0.0084652861            3 
 4959000   0.46116696   -8.8238645    606.14103  0.010185875 0.0084624648            1 
 4960000   0.46576181   -8.8070614    605.81661  0.010178371 0.0084596456            4 
 4961000   0.44706424   -8.8206489    606.53614  0.010188405 0.0084568264            4 
 4962000   0.45583275   -8.8256119    605.83743  0.010174618 0.0084540082            1 
 4963000   0.45125002   -8.8172458    605.17058   0.01016137  0.008451192            3 
 4964000   0.46567595   -8.8159435    605.39237  0.010163047 0.0084483766            3 
 4965000   0.45542053   -8.8193675    605.88685  0.010169299 0.0084455616            2 
 4966000   0.45794082   -8.8277513    605.60346  0.010162496 0.0084427481            2 
 4967000   0.46034287   -8.8204267    606.00318  0.010167156 0.0084399369            3 
 4968000   0.46232216   -8.8137963     606.0667  0.010166175 0.0084371292            4 
 4969000   0.46266089   -8.8348032    606.00394  0.010163077 0.0084343213            2 
 4970000    0.4586103   -8.8215665    606.01043  0.010161141 0.0084315125            5 
 4971000   0.44862853   -8.8318974    605.96037  0.010158257 0.0084287058            5 
 4972000   0.46015631   -8.8257766    604.69154  0.010134948  0.008425899            1 
 4973000   0.45491396   -8.8215067    606.28052  0.010159537 0.0084230965            6 
 4974000   0.44510701   -8.8237124    605.65769   0.01014706 0.0084202941            4 
 4975000   0.46109204   -8.8348666     605.9417  0.010149777 0.0084174916            4 
 4976000   0.44852424   -8.8058918    606.11388  0.010150621 0.0084146909            2 
 4977000   0.45884299   -8.8192049     606.6576  0.010157685  0.008411892            4 
 4978000   0.45520368   -8.8099928    606.29405  0.010149559 0.0084090957            2 
 4979000   0.45932676   -8.8178469     605.5121  0.010134433 0.0084062972            4 
 4980000   0.45714994   -8.8179102    606.75638  0.010153219 0.0084035047            4 
 4981000    0.4599752   -8.8077937    605.75181  0.010134374 0.0084007109            2 
 4982000   0.45647281   -8.8227549      605.967  0.010135939 0.0083979195            5 
 4983000   0.46071798   -8.8192177     605.9026  0.010132828 0.0083951281            6 
 4984000   0.45664197   -8.8191826    606.15198  0.010134965 0.0083923373            2 
 4985000   0.45443152   -8.8235835     605.7396  0.010126038 0.0083895507            5 
 4986000   0.46220715   -8.8159079    606.65087  0.010139238 0.0083867628            4 
 4987000   0.45930879   -8.8267922    605.94314  0.010125378  0.008383977            5 
 4988000   0.45785481   -8.8317675    605.41615  0.010114544 0.0083811906            2 
 4989000   0.45299006   -8.8274289    605.66798  0.010116723 0.0083784042            2 
 4990000   0.44747808   -8.8241232    605.46684  0.010111337 0.0083756209            2 
 4991000    0.4506406    -8.831949    606.13512  0.010120469 0.0083728385            3 
 4992000    0.4430119   -8.8210202    605.85325  0.010113736 0.0083700574            1 
 4993000   0.45191407   -8.8164216    605.05027  0.010098309 0.0083672778            7 
 4994000   0.45367864   -8.8153383    605.78619  0.010108567 0.0083645002            2 
 4995000   0.45383278   -8.8230011    605.09267  0.010094973 0.0083617216            3 
 4996000   0.44636791   -8.8478025    606.16172  0.010110784 0.0083589429            3 
 4997000   0.45637827   -8.8375584      605.907  0.010104513 0.0083561654            3 
 4998000   0.44204345   -8.8308639    604.27752  0.010075322 0.0083533902            2 
 4999000   0.44991003   -8.8248114    605.90647  0.010100461 0.0083506163            5 
 5000000   0.45591698   -8.8352487    605.90857  0.010098476 0.0083478438            2 
 5001000   0.45996397   -8.8363304    606.42678  0.010105092 0.0083450739            4 
 5002000   0.44416978   -8.8325104    606.24983  0.010100124 0.0083423045            4 
 5003000   0.44552545   -8.8372103    605.65227  0.010088152 0.0083395372            2 
 5004000   0.44988129   -8.8209806    605.95342  0.010091151 0.0083367701            2 
 5005000   0.45099938   -8.8359799     606.5981  0.010099868 0.0083340055            3 
 5006000   0.44624471   -8.8336388    605.90196  0.010086263  0.008331239            2 
 5007000   0.45080797   -8.8181746    604.39813  0.010059219 0.0083284733            3 
 5008000   0.44901491   -8.8250679    606.05876  0.010084844 0.0083257094            1 
 5009000   0.44947715   -8.8330422    605.78715  0.010078312 0.0083229478            3 
 5010000   0.45164631   -8.8395736    605.37752  0.010069486 0.0083201865            2 
 5011000   0.44503384   -8.8355615    605.59887  0.010071158 0.0083174268            2 
 5012000   0.45198631   -8.8449876    604.85184  0.010056728 0.0083146687            2 
Loop time of 12207 on 48 procs for 5000000 steps with 4000 atoms

Performance: 70779.318 tau/day, 409.603 timesteps/s
99.4% CPU use with 48 MPI tasks x no OpenMP threads

MPI task timing breakdown:
Section |  min time  |  avg time  |  max time  |%varavg| %total
---------------------------------------------------------------
Pair    | 805.43     | 858.01     | 926.06     | 109.8 |  7.03
Neigh   | 79.468     | 82.601     | 86.562     |  18.4 |  0.68
Comm    | 750.86     | 821.38     | 893.83     | 119.8 |  6.73
Output  | 13.97      | 13.975     | 14.058     |   0.3 |  0.11
Modify  | 10296      | 10326      | 10345      |  10.6 | 84.59
Other   |            | 104.9      |            |       |  0.86

Nlocal:        83.3333 ave          91 max          78 min
Histogram: 4 6 6 13 2 5 8 0 2 2
Nghost:        2110.92 ave        2138 max        2093 min
Histogram: 3 4 9 9 8 6 5 2 1 1
Neighs:        13880.1 ave       15701 max       12379 min
Histogram: 1 5 5 10 8 10 3 2 3 1
FullNghs:      27760.7 ave       30680 max       26089 min
Histogram: 7 8 7 6 4 8 4 0 2 2

Total # of neighbors = 1332515
Ave neighs/atom = 333.12875
Neighbor list builds = 267324
Dangerous builds = 1

#clear
#
#next RN
#
#jump SELF
Total wall time: 3:23:30
