
units lj                  # Use reduced LJ style units
atom_style atomic         # Uncharged point particles
atom_modify map hash      # Needed for indexing of clusters etc
                          # Used to be able to find where atoms are in relation to each other.

lattice fcc 1.0 spacing 1 1 1
Lattice spacing in x,y,z = 1.5874011 1.5874011 1.5874011
region box block 0 10 0 10 0 10 units lattice
create_box 2 box
Created orthogonal box = (0.0000000 0.0000000 0.0000000) to (15.874011 15.874011 15.874011)
  3 by 4 by 4 MPI processor grid
create_atoms 1 box
Created 4000 atoms
  using lattice units in orthogonal box = (0.0000000 0.0000000 0.0000000) to (15.874011 15.874011 15.874011)
  create_atoms CPU = 0.002 seconds
set type 1 type/fraction 2 0.9 78393
Setting atom values ...
  3586 settings made for type/fraction
mass 1 1.0
mass 2 1.0
pair_style lj/cut  3.5
pair_modify tail  yes
pair_coeff 1  1  1.0  1.0   # Intearaction between 1 and 1 set with epsilon = 1 and sigma = 1
pair_coeff 1  2  1.5  0.8
pair_coeff 2  2  0.5  0.88

write_data data.0
System init for write_data ...
Neighbor list info ...
  update every 1 steps, delay 10 steps, check yes
  max neighbors/atom: 2000, page size: 100000
  master list distance cutoff = 3.8
  ghost atom cutoff = 3.8
  binsize = 1.9, bins = 9 9 9
  1 neighbor lists, perpetual/occasional/extra = 1 0 0
  (1) pair lj/cut, perpetual
      attributes: half, newton on
      pair build: half/bin/atomonly/newton
      stencil: half/bin/3d
      bin: standard
WARNING: Not all mixed pair coeffs generated from mixing. Use write_data with 'pair ij' option to store all pair coeffs. (../write_data.cpp:312)


#############################
#   M E L T   S Y S T E M   #
#############################

velocity all create 2.4 6583654 mom yes dist gaussian # Assign velocities
                                                    # Temperature 2.4, random number seed, zero linear momentum
                                                                                # Gaussian distribution

timestep 0.002   # simulation timestep
thermo 1000       # output thermodynamic data every 1000 steps bf 100

# Define a fix  in this case with index 1 applied to all
# particles in the simulation. This fix is for simulations
# in the anisotropic NPT ensemble. Note that we use the MTK
# correction.
fix 1 all npt temp 2.4 2.4 0.1 iso 5.68 5.68 0.5 mtk yes tchain 5 pchain 5 # Use NPT ensemble
                                                                         # Set temperature and pressure and damping
                                                                         # Numbers of thermostats in chain and in barostat
run 10000          # run for 10000 steps
Per MPI rank memory allocation (min/avg/max) = 3.642 | 3.644 | 3.648 Mbytes
Step Temp E_pair E_mol TotEng Press Volume 
       0          2.4   -3.1995671            0   0.39953293    -2.596694         4000 
    1000    2.3440599   -2.2649498            0     1.250261    5.6366394    3967.8385 
    2000    2.3950195   -2.1699868            0    1.4216444    5.8913676    4040.2642 
    3000    2.4073911   -2.2874096            0    1.3227742    5.3728272    4035.1538 
    4000    2.4226644   -2.2316916            0    1.4013965    5.6940703    4015.5508 
    5000    2.4806375   -2.2777536            0    1.4422725    5.7340759    3990.8692 
    6000    2.3889519   -2.2391696            0    1.3433624    5.5449978    4026.3694 
    7000    2.3941448    -2.222756            0    1.3675634    5.6426315    4032.8215 
    8000    2.4294512   -2.2798207            0    1.3634451    5.7239668    3971.2094 
    9000    2.4513521   -2.2569924            0    1.4191165    5.7398223    3985.3929 
   10000    2.3557424   -2.2182173            0     1.314513    5.6596445    4026.4847 
Loop time of 2.47181 on 48 procs for 10000 steps with 4000 atoms

Performance: 699084.092 tau/day, 4045.626 timesteps/s
99.6% CPU use with 48 MPI tasks x no OpenMP threads

MPI task timing breakdown:
Section |  min time  |  avg time  |  max time  |%varavg| %total
---------------------------------------------------------------
Pair    | 1.0648     | 1.1511     | 1.2031     |   2.6 | 46.57
Neigh   | 0.20616    | 0.21515    | 0.22551    |   0.9 |  8.70
Comm    | 0.78038    | 0.84735    | 0.91879    |   3.6 | 34.28
Output  | 0.00024399 | 0.0002498  | 0.00031497 |   0.0 |  0.01
Modify  | 0.21582    | 0.24286    | 0.27277    |   2.8 |  9.83
Other   |            | 0.01508    |            |       |  0.61

Nlocal:        83.3333 ave          95 max          73 min
Histogram: 2 1 6 6 9 16 3 1 3 1
Nghost:        1638.54 ave        1675 max        1593 min
Histogram: 1 2 5 5 4 8 8 9 5 1
Neighs:        9486.83 ave       11470 max        8285 min
Histogram: 2 11 5 10 10 3 2 4 0 1

Total # of neighbors = 455368
Ave neighs/atom = 113.84200
Neighbor list builds = 908
Dangerous builds = 217

# Equilibrate just above the melting temperature to avoid step fn in T

fix 1 all npt temp 1.25 1.25 0.1 iso 5.68 5.68 0.5 mtk yes tchain 5 pchain 5
run 2000
Per MPI rank memory allocation (min/avg/max) = 3.643 | 3.645 | 3.649 Mbytes
Step Temp E_pair E_mol TotEng Press Volume 
   10000    2.3557424   -2.2182173            0     1.314513    5.6596445    4026.4847 
   11000    1.2765098   -3.3525251            0   -1.4382391    5.7229324    3102.6708 
   12000    1.2712369   -3.3496372            0   -1.4432585     5.687495    3112.0966 
Loop time of 0.60371 on 48 procs for 2000 steps with 4000 atoms

Performance: 572460.435 tau/day, 3312.850 timesteps/s
99.7% CPU use with 48 MPI tasks x no OpenMP threads

MPI task timing breakdown:
Section |  min time  |  avg time  |  max time  |%varavg| %total
---------------------------------------------------------------
Pair    | 0.26406    | 0.29062    | 0.32252    |   1.8 | 48.14
Neigh   | 0.038318   | 0.041553   | 0.044678   |   0.6 |  6.88
Comm    | 0.18935    | 0.22341    | 0.25515    |   2.5 | 37.01
Output  | 5.0221e-05 | 5.1695e-05 | 6.7452e-05 |   0.0 |  0.01
Modify  | 0.038475   | 0.043346   | 0.04705    |   1.1 |  7.18
Other   |            | 0.004727   |            |       |  0.78

Nlocal:        83.3333 ave          92 max          77 min
Histogram: 4 2 6 6 15 6 4 1 2 2
Nghost:        1943.23 ave        1965 max        1913 min
Histogram: 1 0 3 4 7 13 6 7 3 4
Neighs:        12269.5 ave       13863 max       10904 min
Histogram: 2 5 6 6 7 9 6 2 4 1

Total # of neighbors = 588934
Ave neighs/atom = 147.23350
Neighbor list builds = 144
Dangerous builds = 10

#############################
# L I N E A R  Q U E N C H  #
#############################

# Define solid atoms. This closely follows ten Wolde  Ruiz-Montero and Frenkel  Faraday Discuss  1996  104  93-110
# Compute components of the per-atom q6 vector
compute q6 all orientorder/atom degrees 1 6 components 6 nnn NULL cutoff 1.3 # compute the Q6 parameter.
                                                                             # Use all neighbours within 1.3 unit cell.

# get number of connections
compute coord_number all coord/atom orientorder q6 0.5

# An atom is solid if it has 8 or more connections (of a possible 14)
variable is_solid atom c_coord_number>=8
group solid dynamic all var is_solid    # Must be dynamic to update
dynamic group solid defined

# do clustering
compute cluster solid cluster/atom 1.3 # Create a cluster where all atoms within are solid and max 1.3 units from another member

# define chunks one chunk per cluster
compute clus_chunks solid chunk/atom c_cluster nchunk every compress yes  # Says which atoms are in which chunk

# count the size of each chunk
compute size_chunks solid property/chunk clus_chunks count


# Find the maximum entry in the vector of chunk sizes
variable max_n equal max(c_size_chunks)


# Thermo style which includes this variable
# thermo_style custom step temp pe vol v_max_n

thermo ${N}  # Print the thermo information every 100 steps
thermo 1000  

# Reset the npt fix at a lower temperature (below freezing)
fix 1  all npt temp  ${temp} ${temp}  0.1  iso  5.68  5.68  0.5  mtk yes tchain  5  pchain  5
fix 1  all npt temp  0.45 ${temp}  0.1  iso  5.68  5.68  0.5  mtk yes tchain  5  pchain  5
fix 1  all npt temp  0.45 0.45  0.1  iso  5.68  5.68  0.5  mtk yes tchain  5  pchain  5

dump dmp2 all dcd ${N} traj.dcd
dump dmp2 all dcd 1000 traj.dcd


compute msd all msd com yes
variable twopoint equal c_msd[4]/6/(step*dt+1.0e-6)
fix 9 all vector 10 c_msd[4]
variable fit equal slope(f_9)/6/(10*dt)
thermo_style custom step temp pe c_msd[4] v_twopoint v_fit v_max_n

fix 1 all npt temp 1.25 ${temp} 0.1 iso 5.68 5.68 0.5 mtk yes tchain 5 pchain 5
fix 1 all npt temp 1.25 0.45 0.1 iso 5.68 5.68 0.5 mtk yes tchain 5 pchain 5
run 2000000 # 5000000  # Run for this many steps
Neighbor list info ...
  update every 1 steps, delay 10 steps, check yes
  max neighbors/atom: 2000, page size: 100000
  master list distance cutoff = 3.8
  ghost atom cutoff = 3.8
  binsize = 1.9, bins = 8 8 8
  4 neighbor lists, perpetual/occasional/extra = 1 3 0
  (1) pair lj/cut, perpetual
      attributes: half, newton on
      pair build: half/bin/atomonly/newton
      stencil: half/bin/3d
      bin: standard
  (2) compute orientorder/atom, occasional
      attributes: full, newton on
      pair build: full/bin/atomonly
      stencil: full/bin/3d
      bin: standard
  (3) compute coord/atom, occasional
      attributes: full, newton on
      pair build: full/bin/atomonly
      stencil: full/bin/3d
      bin: standard
  (4) compute cluster/atom, occasional
      attributes: full, newton on
      pair build: full/bin/atomonly
      stencil: full/bin/3d
      bin: standard
Per MPI rank memory allocation (min/avg/max) = 9.822 | 9.827 | 9.833 Mbytes
Step Temp PotEng c_msd[4] v_twopoint v_fit v_max_n 
   12000    1.2712369   -3.3496372            0            0 8.3333333e+20            1 
   13000     1.232338   -3.3243658   0.99093524 0.0063521487  0.085285678            2 
   14000    1.2609554   -3.3540251    2.0723447  0.012335385  0.086388108            1 
   15000    1.2405529   -3.3457529    3.1759712  0.017644284  0.088954182            2 
   16000    1.2744383   -3.3490924    4.3601725  0.022709231  0.091268717            3 
   17000    1.2476902   -3.3214264    5.5549746  0.027230267  0.093142107            2 
   18000    1.2329608   -3.3587919    6.6169631  0.030634088  0.093591327            1 
   19000    1.2294122   -3.3801188    7.6978285  0.033762405   0.09368553            2 
   20000    1.2417888   -3.3595256    8.8889917  0.037037464   0.09363104            2 
   21000    1.2393124   -3.3228886    9.9871655  0.039631608   0.09364676            1 
   22000    1.2310454   -3.3645717    10.954152  0.041492998  0.093295585            6 
   23000    1.2815552   -3.4082633    12.073313  0.043743888  0.092741134            2 
   24000    1.2346892   -3.3610402    13.155439  0.045678606  0.092516594            2 
   25000    1.2305401   -3.4044036    14.131438  0.047104792  0.092283919            3 
   26000    1.2070055    -3.395093    15.233131  0.048824138  0.091934008            2 
   27000    1.2458004   -3.3669001     16.43298  0.050719073  0.091768069            1 
   28000    1.2565802   -3.4006573    17.469446  0.051992399  0.091683125            2 
   29000    1.2546279   -3.3935531    18.666019  0.053637985  0.091694769            2 
   30000    1.2464708   -3.3638994    19.660006  0.054611126  0.091752076            2 
   31000    1.2270226   -3.3877664    20.743029  0.055760829  0.091551319            1 
   32000    1.2532751   -3.3554854    21.698611  0.056506798  0.091361099            3 
   33000    1.2564394   -3.3579545    22.855657  0.057716305  0.091117441            2 
   34000    1.2848257   -3.3718345    23.845623  0.058445154  0.090936255            1 
   35000    1.2303973   -3.3804662    24.839811  0.059142406  0.090699251            1 
   36000    1.2305834   -3.3939156    25.994513  0.060172482  0.090515113            4 
   37000    1.2599036   -3.3839648     27.01049  0.060834436  0.090358898            2 
   38000    1.2609078     -3.36194    28.108165  0.061640711  0.090249003            3 
   39000    1.2194835   -3.4150959    28.946622  0.061851755   0.09014037            1 
   40000    1.2154184   -3.3589003    30.197103   0.06291063  0.089998688            4 
   41000     1.235705   -3.3740491    31.487437  0.063998855  0.089950039            2 
   42000    1.2341309   -3.3408825    32.386383  0.064258695  0.089928895            1 
   43000     1.227236   -3.3536447    33.497766   0.06491815   0.08989338            2 
   44000    1.2407724   -3.3860288    34.349839  0.065056512  0.089781132            1 
   45000    1.2447554   -3.3501029    35.689725  0.066092082  0.089686914            2 
   46000    1.2360357   -3.3985478    36.792389  0.066652878  0.089722263            3 
   47000    1.2376165    -3.378048    38.164821  0.067668121  0.089804315            2 
   48000    1.2272069   -3.4050202    39.347425  0.068311502  0.089958214            2 
   49000    1.2151889   -3.3619269    40.197483  0.068363065  0.090090924            1 
   50000    1.2171525   -3.3747156    41.396207  0.068993678  0.090191355            1 
   51000    1.2495801   -3.3644245    42.625472  0.069649464  0.090270559            1 
   52000    1.2115571   -3.3871595    43.364256  0.069493999   0.09032382            3 
   53000    1.2346727   -3.3955281    44.794787  0.070432054  0.090389686            1 
   54000    1.2383881   -3.3522434    45.797617  0.070675334  0.090439382            1 
   55000    1.2360672   -3.3893152    46.561663  0.070547974  0.090435309            2 
   56000    1.2143664   -3.3641388    47.673038   0.07094202  0.090418345            1 
   57000    1.1916395   -3.3567217    48.569471  0.071007998  0.090347976            2 
   58000     1.238962   -3.3714742    49.893986  0.071686761  0.090282497            1 
   59000    1.2530241   -3.3564485    50.544028   0.07138987  0.090230785            2 
   60000    1.2532268   -3.3775428    51.447525  0.071454895  0.090120771            2 
   61000    1.2337022    -3.377775    52.319584  0.071474841  0.089992191            1 
   62000     1.246361   -3.3556825    53.719311  0.072203375  0.089866396            6 
   63000    1.1940035   -3.4306454    54.363226  0.071909029  0.089730416            1 
   64000    1.1931289   -3.3877839    55.401691  0.072137618  0.089602744            3 
   65000    1.2092439   -3.3782862    56.438521  0.072357078  0.089484725            1 
   66000    1.2541035   -3.3639121     57.53977  0.072651224  0.089363395            1 
   67000    1.2018232   -3.4065042    57.996776  0.072135294  0.089205306            2 
   68000    1.2201816   -3.3861665    59.270265  0.072635128  0.089056752            1 
   69000    1.2306795   -3.3963218    60.514293  0.073084894  0.088942949            1 
   70000    1.2468332   -3.4052422     61.99281  0.073800964  0.088868294            1 
   71000    1.2042914   -3.3395508    63.072123  0.074028313  0.088842952            1 
   72000     1.237762   -3.3962833    64.126586  0.074220585  0.088806348            2 
   73000    1.2285368   -3.4017115    64.989745  0.074189207  0.088780356            1 
   74000    1.2152382   -3.3971109    66.529863  0.074921017  0.088740337            1 
   75000     1.232638   -3.4110869    67.454328  0.074949252  0.088722147            3 
   76000     1.233969   -3.4186427    68.953721   0.07560715  0.088716028            3 
   77000    1.2051719   -3.4145031    69.674945  0.075405784  0.088736564            2 
   78000    1.2635909   -3.3684744    70.635466   0.07546524  0.088759129            2 
   79000    1.2096492    -3.376037    71.756678  0.075692698  0.088753293            1 
   80000    1.2137264   -3.4208685    72.707118  0.075736581  0.088753789            1 
   81000    1.2234247   -3.3820825    74.614334  0.076763718  0.088791419            2 
   82000    1.2035261   -3.3707562     75.33201  0.076556921  0.088829301            2 
   83000    1.2156574   -3.4069271    76.386257  0.076693028  0.088877811            6 
   84000    1.2176056   -3.4160725    77.345332   0.07673148  0.088896354            4 
   85000    1.2183734   -3.3874674    78.419674  0.076882033  0.088913894            2 
   86000    1.2171401    -3.369962    79.307536  0.076848387  0.088909896            2 
   87000    1.2136916   -3.4099827    79.955839  0.076586053  0.088904081            2 
   88000      1.23654    -3.378938    81.646874  0.077317115   0.08889512            3 
   89000    1.2360069   -3.3872092    82.348711  0.077105534  0.088915202            3 
   90000     1.199663   -3.3671902     83.38098   0.07720461  0.088923527            1 
   91000     1.212403   -3.3911675    84.909581  0.077756026  0.088929099            1 
   92000    1.2228439   -3.3688664    85.907814  0.077815048  0.088933053            1 
   93000    1.2357294   -3.4252386    86.609749  0.077607302  0.088920054            5 
   94000    1.1949432   -3.3858922     87.60423  0.077663324  0.088901554            2 
   95000    1.2363394   -3.4133758    88.621005  0.077737724  0.088875924            2 
   96000    1.2206592     -3.41055    89.723527  0.077885006  0.088857388            1 
   97000    1.2317157   -3.3885695    90.389375  0.077654102  0.088838157            2 
   98000    1.2242708    -3.409356    90.944296  0.077333585  0.088798688            1 
   99000    1.2170046   -3.4163999    91.809921  0.077281078  0.088733062            1 
  100000    1.1970802   -3.4139805    93.609166  0.078007638  0.088671825            1 
  101000    1.2335414   -3.4505007    93.718457  0.077325459  0.088619046            2 
  102000    1.2131606   -3.3963439    95.299178  0.077858805  0.088560837            2 
  103000    1.2211611   -3.4030044    95.921246  0.077606186  0.088503701            2 
  104000    1.2146503   -3.4091479    97.899485    0.0784451  0.088459216            1 
  105000    1.1880414    -3.408543    97.823222  0.077637478  0.088414618            1 
  106000    1.2184685   -3.4497533    99.541736  0.078256081   0.08837576            1 
  107000    1.2116873   -3.3987169    100.30234  0.078117087  0.088331248            3 
  108000    1.2386305   -3.4200577    101.20696  0.078091793  0.088289348            1 
  109000    1.2254472   -3.4426319      102.413  0.078297401  0.088253404            2 
  110000    1.2067291   -3.4067377    103.73103   0.07858411  0.088208922            2 
  111000    1.2116853    -3.439215    104.19173  0.078222019  0.088169894            1 
  112000    1.2212149   -3.4370693    105.71857  0.078659651  0.088134149            2 
  113000    1.2047875   -3.3928137    106.61425  0.078624081  0.088098427            2 
  114000    1.1941367   -3.4436169    107.55731  0.078623767  0.088052635            2 
  115000    1.2047554   -3.4399528    107.58197  0.077957947  0.087995657            1 
  116000    1.2098587   -3.4051929    109.50412  0.078666752  0.087945024            1 
  117000    1.2274305   -3.3772073    110.42622  0.078651156  0.087891926            2 
  118000    1.2268299   -3.4236822    110.76591   0.07822451  0.087831758            2 
  119000       1.1854   -3.4433204    111.21593  0.077882306  0.087773381            1 
  120000    1.1845335   -3.4300529    113.05746  0.078512126   0.08771641            1 
  121000    1.1954631   -3.3735796    114.25069  0.078685047  0.087657601            2 
  122000    1.1837323   -3.4157076    115.22155  0.078703246  0.087600347            1 
  123000    1.1982335   -3.4389712    115.55845  0.078291631  0.087530497            1 
  124000    1.2377099   -3.3991951    116.93633   0.07858624  0.087466932            4 
  125000    1.2273824   -3.4325843    117.66574  0.078443827  0.087405369            3 
  126000     1.207329   -3.3792987     118.9175  0.078649143  0.087354868            1 
  127000    1.2089712   -3.4078699    120.43621  0.079026382  0.087307373            2 
  128000    1.1900554   -3.4051461     120.2774    0.0783056  0.087247382            4 
  129000    1.1824445     -3.41685    121.55476  0.078523749  0.087178109            2 
  130000     1.175452    -3.381887    123.00788  0.078851208  0.087110207            1 
  131000    1.1685759   -3.4371988    123.47884  0.078548879  0.087051371            2 
  132000    1.2171051   -3.4298287    124.36965  0.078516194  0.086977527            1 
  133000    1.1829547   -3.4278123    125.75429  0.078793412   0.08691119            2 
  134000    1.2079278   -3.4181205    125.71854  0.078183169  0.086842998            2 
  135000    1.2034488   -3.4296298    126.95035  0.078364416  0.086771087            2 
  136000    1.2060121   -3.4645916    127.33862  0.078026115  0.086684925            2 
  137000    1.1860326    -3.420423    128.90498  0.078409357  0.086600516            1 
  138000    1.1771988   -3.4511063    128.74854  0.077746703  0.086508053            4 
  139000    1.2155188   -3.4198625    130.42421  0.078191971  0.086425225            2 
  140000    1.1734086   -3.4239998    131.37204   0.07819764  0.086347881            2 
  141000    1.2087904   -3.4393709    132.13072  0.078091441  0.086271206            2 
  142000    1.2007744   -3.4498034    132.94742  0.078020788  0.086193866            3 
  143000    1.2129609   -3.4176566    134.80546  0.078557961  0.086126853            1 
  144000    1.1897996   -3.4082928    136.37985  0.078923522  0.086069283            4 
  145000    1.1709919   -3.4319254    136.91045  0.078684167  0.086011251            4 
  146000    1.1937667    -3.438669    137.45206  0.078454373  0.085953802            2 
  147000    1.1879294    -3.403146    138.53017  0.078531844  0.085892567            3 
  148000    1.2284001   -3.4248432    139.83692  0.078737005  0.085832933            3 
  149000     1.187642   -3.4170572    140.82523  0.078761312  0.085773869            2 
  150000    1.1940244   -3.4575759    140.88018  0.078266769  0.085716208            1 
  151000    1.2060508   -3.4364446    142.89065  0.078857977  0.085652955            1 
  152000    1.1863064   -3.4421258    142.91116  0.078350418  0.085599361            2 
  153000    1.1773292   -3.4398187    144.28347  0.078585765  0.085542817            2 
  154000     1.194534   -3.4199529    145.05792  0.078494544  0.085480082            1 
  155000    1.2106017   -3.4483199    146.18004  0.078591421   0.08542088            3 
  156000     1.187359   -3.4579904    147.40743  0.078743287  0.085367581            4 
  157000    1.1964531   -3.4460345    148.13786  0.078629437  0.085330194            2 
  158000    1.1900663   -3.3901039     150.9079  0.079592775  0.085294161            1 
  159000    1.1836183   -3.4204417    151.03103  0.079156724  0.085266561            1 
  160000    1.1585447   -3.4637344    151.63236  0.078975186    0.0852308            1 
  161000    1.1829071    -3.430167    152.96695  0.079175441  0.085194144            2 
  162000     1.204361   -3.4754807    153.66508  0.079045825  0.085161362            1 
  163000     1.208867   -3.4571124    155.55204  0.079525581  0.085128019            1 
  164000    1.1624242   -3.4698754     156.2271  0.079383687  0.085100344            2 
  165000    1.2022912   -3.4572367    157.55605  0.079573764  0.085081798            1 
  166000    1.2002808   -3.4059365    158.51761  0.079577114  0.085062414            3 
  167000    1.1914644   -3.4665139    159.53541  0.079608488  0.085043992            2 
  168000    1.1622614   -3.4338175    160.61374  0.079669513  0.085025552            3 
  169000     1.187123   -3.4215495      161.681  0.079724358   0.08501744            2 
  170000    1.1802055   -3.4649731    163.10147  0.079951703  0.085008113            3 
  171000    1.1887557   -3.4661534    163.66076  0.079756707  0.084995105            3 
  172000    1.2147306   -3.4329279     164.5699  0.079733479  0.084981181            1 
  173000    1.1970346   -3.4381688    164.92986  0.079445984  0.084962035            3 
  174000    1.1839443   -3.4618705    166.39912  0.079693064  0.084946822            2 
  175000    1.1726256   -3.4293079    166.95087  0.079500415  0.084932471            1 
  176000    1.1771218   -3.4582115    168.28705  0.079681368  0.084912591            1 
  177000    1.1523775    -3.455253    168.96228  0.079549097  0.084899488            2 
  178000     1.188723   -3.4283499    171.46257  0.080272737  0.084895132            3 
  179000    1.1935036   -3.4416375    172.56151  0.080335897  0.084893834            2 
  180000    1.1809107   -3.4627232    172.84634  0.080021456  0.084894824            2 
  181000    1.2033729   -3.4346295    174.22409  0.080213669  0.084887544            1 
  182000    1.1683121   -3.4294157    174.22257  0.079772237  0.084873319            2 
  183000    1.1742427   -3.4501662    175.24946  0.079803941  0.084856093            3 
  184000     1.179108   -3.4524291    176.17833  0.079790911  0.084838281            3 
  185000    1.1795371    -3.414908    177.50959  0.079959275  0.084821543            2 
  186000    1.1922004   -3.4530219    178.66846  0.080048594  0.084805192            1 
  187000    1.1543139   -3.4412595    179.67266  0.080068032  0.084796033            1 
  188000    1.1781538   -3.4435981    180.31556  0.079927108  0.084774717            2 
  189000    1.1742576   -3.4632544    180.98665  0.079800111  0.084763849            1 
  190000    1.1962409   -3.4439127    183.48378  0.080475343  0.084749361            2 
  191000    1.1762361   -3.4655837    184.04873  0.080300494   0.08474176            5 
  192000    1.1812249   -3.4596021    183.17932  0.079504911  0.084726377            2 
  193000    1.1735895   -3.4644175    185.05552  0.079903075  0.084706743            1 
  194000    1.1774524   -3.4166891    186.90734  0.080286656  0.084687445            5 
  195000    1.1759506   -3.4471453    186.25412  0.079595776  0.084667621            3 
  196000    1.1552479   -3.4620201    188.01199   0.07993707  0.084648465            1 
  197000    1.1872364   -3.4726145    189.08438  0.079984933  0.084627879            3 
  198000    1.2033388   -3.4446751    189.90847  0.079927809   0.08461111            3 
  199000    1.1627683   -3.4571349    191.22667  0.080078171  0.084593282            3 
  200000    1.1700035   -3.4548483    191.72426  0.079885108   0.08457576            1 
  201000    1.1661278   -3.4548504    192.97458  0.080006044  0.084551881            2 
  202000    1.1759032   -3.4162079    193.78797  0.079945531   0.08453478            2 
  203000    1.1829633   -3.4456148    194.98741  0.080044094  0.084514863            3 
  204000    1.1578693   -3.4471951    196.19206  0.080143814  0.084492769            3 
  205000    1.1533394   -3.4310498    197.22701  0.080173581   0.08447032            2 
  206000    1.1793474   -3.4367725      197.647  0.079954289  0.084443751            1 
  207000    1.1683255   -3.4589031    197.99225  0.079707023  0.084409427            2 
  208000    1.1893755   -3.4512749    198.95357  0.079708963  0.084376711            1 
  209000    1.1601078   -3.4523153    199.27735   0.07945668  0.084339584            1 
  210000    1.1682621   -3.4726745     200.2008  0.079444762  0.084301484            3 
  211000    1.1560208    -3.451936    200.99521  0.079381996  0.084263391            8 
  212000    1.1625885   -3.4794591    202.46905   0.07958689  0.084224873            1 
  213000    1.1637054   -3.4278042    203.78454  0.079727909  0.084193446            1 
  214000    1.1822633   -3.4431377    204.52456  0.079643521  0.084160214            2 
  215000    1.1883112   -3.4712261    205.34451  0.079590895  0.084129852            2 
  216000    1.1626161   -3.4509823    206.09519  0.079512032  0.084104486            4 
  217000    1.1978285   -3.5042692    206.38924   0.07925854  0.084075064            2 
  218000    1.1674363   -3.4594859    207.52865  0.079330524  0.084044645            1 
  219000    1.1814706   -3.4812284    209.70541  0.079796578  0.084013725            3 
  220000     1.162062   -3.4778615    210.45808  0.079718971   0.08398796            2 
  221000    1.1760588   -3.4624607    211.44415  0.079730073  0.083965788            2 
  222000    1.1937103   -3.4717183    211.56875  0.079417697  0.083937696            2 
  223000    1.1462798   -3.4610431    212.85534  0.079542355  0.083907469            2 
  224000    1.1611662   -3.4530177    214.56653  0.079823858  0.083880991            2 
  225000    1.1663351   -3.4911007    214.20732  0.079336046  0.083850076            1 
  226000    1.1273989   -3.4679325    215.63782  0.079512472      0.08382            2 
  227000    1.1549343   -3.4414634    217.25422  0.079755588   0.08379214            1 
  228000    1.1460344   -3.4593139     216.9125  0.079280884  0.083756956            1 
  229000     1.162144    -3.487304    217.57154  0.079174505  0.083719679            1 
  230000    1.1410467   -3.4759557    218.24851  0.079075548  0.083686067            2 
  231000    1.1557314   -3.4353287     219.8907   0.07932565    0.0836522            2 
  232000    1.1745409   -3.4590314    220.69628   0.07927309  0.083616771            3 
  233000    1.1400726   -3.4666527    220.91565  0.079011321  0.083578328            1 
  234000     1.153938   -3.4791104    221.28488  0.078805157  0.083533777            4 
  235000    1.1318475   -3.4678517    222.92617  0.079051834  0.083486924            1 
  236000    1.1691928   -3.4699789    222.59348  0.078599394  0.083440875            1 
  237000    1.1542619   -3.4609091    223.39759  0.078550489  0.083390583            1 
  238000    1.1777071   -3.4724622    224.63453  0.078653547  0.083347416            2 
  239000    1.1447828   -3.4849766    225.83673  0.078743629  0.083302928            3 
  240000     1.181857    -3.488768    227.26725   0.07891224   0.08325933            1 
  241000    1.1499476   -3.4591529    228.14761  0.078889215  0.083211983            4 
  242000    1.1698868   -3.4510463    228.12799  0.078556469  0.083162779            1 
  243000    1.1705459   -3.4880128    229.06417  0.078554241  0.083118765            2 
  244000     1.159044   -3.5193742     229.3482  0.078329302  0.083074827            1 
  245000    1.1180825   -3.4334318    230.94618  0.078553121  0.083031243            2 
  246000    1.1510325   -3.4992981    232.22175  0.078665906  0.082986845            1 
  247000     1.165869   -3.4944528    233.91242  0.078917821  0.082946323            3 
  248000    1.1311446   -3.5130148    233.95703  0.078614595  0.082907599            2 
  249000    1.1495972   -3.4402991    235.78515  0.078910692  0.082869367            3 
  250000    1.1732424    -3.460537    236.16285  0.078720949  0.082830124            3 
  251000    1.1564499   -3.4553454    236.78516  0.078613932  0.082789433            1 
  252000    1.1451711   -3.4969781    237.65981  0.078591206  0.082749923            2 
  253000    1.1309669   -3.4878051     239.0277  0.078731127  0.082707532            3 
  254000    1.1522994   -3.4383833    240.05369  0.078757771  0.082670248            2 
  255000    1.1587615   -3.4538342    241.53481  0.078932945  0.082636458            3 
  256000    1.1426985   -3.4875848    241.42293  0.078588192  0.082601493            5 
  257000    1.1223823   -3.4928084     241.2434   0.07822419  0.082565095            4 
  258000    1.1726094   -3.5152081    244.11222  0.078847616   0.08252897            2 
  259000    1.1405261    -3.466269    243.33529  0.078293208  0.082495509            1 
  260000    1.1528582   -3.4918803    244.55363  0.078382573  0.082461649            1 
  261000    1.1504229   -3.5147467    246.30482  0.078641386   0.08242118            3 
  262000    1.1662915   -3.4971319    246.09961  0.078275958  0.082382553            2 
  263000    1.1594544   -3.5067113    247.57014  0.078444277  0.082340646            3 
  264000    1.1212035   -3.4900068    249.35877  0.078711732  0.082301252            2 
  265000    1.1422666   -3.5189876    249.60926  0.078493479  0.082260713            2 
  266000    1.1347426   -3.4838219    250.26894  0.078405055  0.082223265            4 
  267000    1.1623094   -3.4861625      253.515  0.079124531  0.082192588            3 
  268000    1.1445623   -3.4946188    252.83447  0.078617682  0.082161393            2 
  269000    1.1822266   -3.4701857    255.11561  0.079032098   0.08212838            2 
  270000    1.1555221   -3.5146658    252.43492  0.077912011  0.082095994            2 
  271000    1.1678259   -3.4967604     255.6733  0.078620326  0.082063275            2 
  272000    1.1336466   -3.5040569    256.46078  0.078572544  0.082031586            6 
  273000    1.1468503   -3.5205734    257.17181  0.078501772   0.08199944            1 
  274000    1.1549111   -3.4970975    258.68429  0.078675271  0.081966865            2 
  275000    1.1449007   -3.4830498    259.24028   0.07855766  0.081931937            1 
  276000    1.1653488   -3.4778772    259.71922  0.078417638  0.081895869            5 
  277000    1.1590195   -3.4938607     260.4401  0.078351414  0.081860478            3 
  278000    1.1479218   -3.4854957    261.48521  0.078382857  0.081826086            1 
  279000    1.1245495   -3.4982886    262.60232   0.07843558  0.081788635            1 
  280000    1.1287794   -3.5295775    261.45969  0.077815384  0.081748308            2 
  281000    1.1537584   -3.5000157    262.28549   0.07778336  0.081708285            3 
  282000    1.1435537   -3.5209626    263.78025  0.077949247  0.081667305            2 
  283000      1.14198    -3.509001    263.59128  0.077618162  0.081624357            3 
  284000    1.1251683   -3.5269688    264.55554  0.077627799  0.081578303            2 
  285000    1.1429109   -3.4886899    265.13487  0.077524814  0.081534296            1 
  286000    1.1605716   -3.5123443    266.47253  0.077643511  0.081489735            3 
  287000    1.1387657   -3.5057427     269.3689  0.078213967  0.081449092            1 
  288000    1.1322595   -3.5005468    269.75081  0.078052897  0.081414204            4 
  289000    1.1241155   -3.4952395    270.97641   0.07813622  0.081380199            2 
  290000     1.139326   -3.4628997    272.86947  0.078410768  0.081343833            4 
  291000    1.1547602   -3.4931828    272.99001  0.078175833  0.081309794            2 
  292000    1.1355071   -3.4843529    273.35177  0.078011351  0.081276621            2 
  293000    1.1424744   -3.5065746    274.04869  0.077943314  0.081241292            3 
  294000    1.1410774   -3.5215714    274.64962  0.077848531  0.081206008            1 
  295000    1.1663675   -3.4978469    276.97882  0.078242603  0.081168862            3 
  296000    1.1280471   -3.4828038    276.37848  0.077809257  0.081132531            2 
  297000    1.1429814   -3.5315232    276.60788  0.077611639  0.081092845            4 
  298000    1.1097395   -3.5173023    278.20058  0.077796582  0.081055558            1 
  299000     1.110262   -3.5012503    277.76292  0.077414414  0.081013472            4 
  300000    1.1416006   -3.4917427     278.1669  0.077268584  0.080969233            1 
  301000    1.1254133   -3.5058929    279.63934   0.07741953  0.080926972            1 
  302000     1.143786   -3.5300027    280.14185  0.077301835  0.080886199            3 
  303000    1.1305898   -3.5298245    281.40169  0.077393205  0.080840201            1 
  304000    1.1210179   -3.4966855    282.75038  0.077508328  0.080799702            3 
  305000    1.1312931   -3.5141179    283.55567  0.077474226  0.080761211            2 
  306000    1.1376959   -3.5010436    284.34208  0.077435206  0.080724497            3 
  307000    1.1297245   -3.5068326    285.81105  0.077581718  0.080685535            1 
  308000    1.1325662   -3.5449974    285.87918  0.077348263  0.080651069            5 
  309000    1.1343778   -3.4962844    287.51746  0.077539768  0.080614817            2 
  310000    1.1261182   -3.5272727    287.73914   0.07734923  0.080575167            2 
  311000    1.1141576   -3.5348579    288.77359  0.077377703  0.080538967            2 
  312000    1.1174827   -3.5066673    290.55444  0.077605352    0.0805033            3 
  313000    1.1396788    -3.522923    291.20897  0.077531675  0.080466953            2 
  314000    1.1439536    -3.493688      290.133  0.076999204  0.080429969            9 
  315000    1.1226445   -3.4900277     293.2487   0.07757902  0.080394021            3 
  316000    1.1106891   -3.5152253    291.98595  0.077000515  0.080355142            3 
  317000    1.1376732   -3.5370828    292.46838  0.076884432  0.080316518            1 
  318000    1.1244156     -3.53225    293.95029  0.077030997  0.080273446            2 
  319000    1.1218667   -3.5194439    294.64182  0.076970173  0.080232475            1 
  320000    1.1305674   -3.5223162    295.01273  0.076826232  0.080189066            1 
  321000    1.1485909    -3.519588    296.20856  0.076897341  0.080148579            2 
  322000    1.1229504   -3.5262792    297.13965  0.076899494  0.080108362            3 
  323000    1.1041247   -3.5181376    297.81441  0.076835502  0.080067007            2 
  324000    1.1448784     -3.52029    299.48376  0.077027715  0.080025799            2 
  325000    1.1215014   -3.5421105    300.33765  0.077009653  0.079985767            2 
  326000     1.128291   -3.4987656    300.64611  0.076852279  0.079944607            3 
  327000    1.0850895   -3.4946801    301.59375  0.076858754  0.079902941            2 
  328000    1.1018009   -3.5023868    302.18565   0.07677481  0.079864505            2 
  329000    1.1387721   -3.5316342    303.98199   0.07699645  0.079826254            2 
  330000    1.1143415   -3.4982759    303.99494  0.076766399  0.079786784            2 
  331000    1.1101137   -3.5189737    304.13707  0.076570259  0.079743123            2 
  332000    1.1409932   -3.5171404    304.95252  0.076544308  0.079698289            2 
  333000    1.1522612   -3.5541426    304.12502  0.076107361  0.079650737            2 
  334000     1.141916   -3.5172986    305.60024  0.076247565  0.079603595            3 
  335000    1.1540265    -3.534914    305.66908  0.076037084  0.079556625            2 
  336000     1.128105   -3.5455309     307.0631  0.076156524  0.079508722            2 
  337000    1.1341919    -3.493893    308.19468  0.076210357  0.079459983            1 
  338000    1.1300967   -3.5413386    308.55533  0.076073799  0.079412413            5 
  339000    1.1016745   -3.5327048    307.48518  0.075586326  0.079363681            2 
  340000    1.1265425   -3.5260976    309.68083  0.075902163  0.079313382            1 
  341000    1.1039192   -3.5610618    309.28598  0.075583083  0.079264684            2 
  342000    1.1022678   -3.5440547    311.84599  0.075985865   0.07921727            1 
  343000    1.1045096   -3.5182536      313.768  0.076231293  0.079170731            2 
  344000    1.1141771   -3.5093286    313.79813  0.076016989  0.079126232            1 
  345000    1.1138209   -3.5203939    314.98082  0.076082323  0.079078219            2 
  346000    1.1296053   -3.4979377    315.23878  0.075924561  0.079031136            1 
  347000    1.1185994   -3.5479087    314.38995  0.075501908  0.078983467            2 
  348000    1.1246075   -3.5332131    315.84254  0.075632792  0.078934892            2 
  349000    1.1158638   -3.5309785    316.97482  0.075686442  0.078888455            1 
  350000    1.0768026   -3.5398973    318.10478  0.075739234  0.078842321            4 
  351000    1.1426617   -3.5255306    319.52116  0.075859724  0.078794485            3 
  352000     1.094974   -3.5620093    317.12704  0.075077423  0.078747844            3 
  353000    1.1168091   -3.5359791    320.06841  0.075559114  0.078698892            1 
  354000    1.0932142   -3.5852597    320.00346   0.07533038  0.078651735            3 
  355000    1.1109484   -3.5601217    322.23678  0.075642437  0.078605473            3 
  356000    1.1283549   -3.5000742    322.51275  0.075494556  0.078558696            4 
  357000    1.1104495    -3.536098    324.42362  0.075729136  0.078513385            1 
  358000    1.1143537   -3.5392737    325.16906  0.075691121  0.078468818            3 
  359000    1.1107199   -3.5127919    327.12264  0.075933761  0.078425407            1 
  360000    1.1249645   -3.5268337    327.57535  0.075827628   0.07838485            5 
  361000     1.112312   -3.5482536    326.35454  0.075335767  0.078345523            2 
  362000    1.0788608   -3.5429065    327.79496  0.075459246  0.078302165            2 
  363000     1.093268   -3.5754161     327.8478  0.075263499  0.078259968            1 
  364000    1.1295539   -3.5366462     329.7359  0.075488987  0.078214924            4 
  365000    1.1220677   -3.5706403    328.17646  0.074926131  0.078170922            4 
  366000    1.1106605   -3.5471621    329.63115   0.07505263  0.078123832            2 
  367000    1.1166864   -3.5550082    331.00631  0.075160378  0.078076595            2 
  368000    1.0968983   -3.5489703    332.70985  0.075341903  0.078027577            2 
  369000    1.1273039   -3.5553574    331.18129  0.074792522  0.077980377            1 
  370000    1.0959924   -3.5485218     332.5368  0.074895676  0.077931523            1 
  371000    1.1105071   -3.5315631    334.63677  0.075165491  0.077883394            2 
  372000    1.0955817   -3.5475945    334.21449  0.074868838  0.077838602            4 
  373000    1.1199095   -3.5489545    335.40265  0.074933568  0.077793957            3 
  374000    1.0875817   -3.5720847    335.85738  0.074834531  0.077751392            3 
  375000    1.0914965   -3.5621729    337.15496  0.074923325  0.077709828            5 
  376000     1.065839   -3.5657074    337.50849  0.074802413  0.077666434            3 
  377000      1.08562   -3.5497788    338.89408  0.074910275  0.077623192            1 
  378000    1.1200653   -3.5553196    338.76245   0.07468308  0.077579808            3 
  379000    1.1172097   -3.5708896    339.05267  0.074549839  0.077534253            1 
  380000    1.0887334   -3.5512415    341.26181  0.074838117  0.077488657            3 
  381000    1.1121723   -3.5634114    340.88735  0.074559788  0.077443433            3 
  382000    1.1020217   -3.5705273    340.53701  0.074288178  0.077396757            1 
  383000    1.0681398   -3.5424434    342.57159    0.0745369  0.077347645            3 
  384000    1.0906698   -3.6069997    342.05436  0.074230548  0.077301059            2 
  385000    1.1018232   -3.5738749    343.40081  0.074329179  0.077254229            3 
  386000     1.115402   -3.5652896    345.01071  0.074484177  0.077208047            3 
  387000    1.1299336   -3.5600353    345.80964  0.074463747   0.07716068            3 
  388000     1.111446   -3.5418507    345.50128  0.074205602  0.077113534            3 
  389000    1.1095769   -3.5610465    346.28182  0.074182051  0.077068126            2 
  390000    1.1173789   -3.5260561    347.89964   0.07433753  0.077021441            2 
  391000     1.110347   -3.5828487    346.72594   0.07389726  0.076974103            4 
  392000    1.0978627   -3.5771529    349.78105  0.074358217  0.076927693            2 
  393000    1.0966045   -3.5658346    349.18506  0.074042633  0.076881787            7 
  394000     1.081797   -3.5380077    350.70047  0.074175226  0.076835514            1 
  395000    1.0790045   -3.5731982    350.30046  0.073903051  0.076787687            2 
  396000    1.0963244   -3.5730849    350.99131  0.073861807  0.076741195            2 
  397000    1.1190081   -3.5561406    353.82819   0.07427124  0.076694522            5 
  398000    1.0947151   -3.5630813    353.96947   0.07411421  0.076648312            3 
  399000    1.1086181   -3.5513714    355.65886  0.074281298  0.076602943            3 
  400000    1.0973988   -3.5839261    353.74853  0.073697609   0.07655932            3 
  401000    1.0936556   -3.5784682    354.78189  0.073728572  0.076512914            2 
  402000    1.0920212    -3.530057    355.26731  0.073645794  0.076468229            3 
  403000    1.0735774   -3.5806057    356.22581  0.073661252  0.076422247            2 
  404000    1.0968878   -3.5792872    355.93746  0.073419442  0.076376722            4 
  405000    1.0825283   -3.5690277    357.30233  0.073518997  0.076331036            2 
  406000    1.0948843   -3.5507705    359.33702  0.073755545  0.076284935            3 
  407000    1.1118564   -3.5583708    359.60512  0.073629222  0.076239368            2 
  408000    1.0939167   -3.5792439    359.16961  0.073359806  0.076192839            3 
  409000    1.1041327   -3.5828838    360.82248  0.073517212  0.076147517            2 
  410000    1.0889356   -3.5680322    361.85788  0.073548349  0.076101132            4 
  411000     1.088801   -3.5655691    363.15032  0.073631452  0.076056327            5 
  412000    1.0880891   -3.6036386    362.09452  0.073239183  0.076011793            2 
  413000    1.0997099   -3.5762926    364.30196  0.073507257  0.075967901            1 
  414000    1.0807711    -3.570382    366.77837  0.073828173  0.075927098            2 
  415000    1.1078633   -3.5764709    367.18702  0.073732333   0.07588475            2 
  416000    1.1016796   -3.5931889    366.99455  0.073516536  0.075844106            1 
  417000    1.0915517   -3.5384307    369.16587  0.073774154  0.075804811            5 
  418000    1.0947244   -3.5840109    368.82257   0.07352922  0.075764891            3 
  419000    1.0908093   -3.5754515    370.09213  0.073606232  0.075725134            3 
  420000    1.1027257   -3.5837619    371.18651  0.073648116  0.075685898            3 
  421000    1.1023858   -3.5999131    370.37843  0.073313228  0.075646757            5 
  422000    1.1142735   -3.5742097    371.73062  0.073406521   0.07560647            4 
  423000     1.100383    -3.581179    373.29137  0.073540459  0.075565101            3 
  424000    1.1137051   -3.5636886    373.13811  0.073336893  0.075523535            3 
  425000    1.0608427   -3.5801902    372.47623  0.073034555  0.075482045            1 
  426000    1.0945551   -3.5722993    373.14852  0.072994624  0.075438208            3 
  427000      1.06983   -3.5990203    374.16799  0.073022636  0.075393277            2 
  428000     1.096759   -3.5760493     374.1544  0.072849377  0.075351206            2 
  429000    1.0584633   -3.5850842    375.23584  0.072889635   0.07530879            2 
  430000    1.0718322   -3.5938083    375.63541  0.072797561  0.075263767            2 
  431000     1.099327   -3.5757955    377.08992  0.072909883  0.075219013            3 
  432000    1.0706093   -3.5969592    378.83719  0.073078162  0.075176187            1 
  433000    1.0738408   -3.5849274    379.61419  0.073058928  0.075132843            2 
  434000    1.0767159   -3.5850761    377.17145  0.072421553  0.075089367            8 
  435000    1.0796812   -3.6238853    379.52156  0.072705279  0.075045866            4 
  436000    1.0744194   -3.5991615    380.94101  0.072809826  0.075003733            1 
  437000    1.0718066   -3.5990229    381.50284   0.07275035  0.074960516            3 
  438000    1.1055201   -3.6018014    380.68583  0.072428811  0.074916205            6 
  439000    1.0619341   -3.5854299    383.23878   0.07274844  0.074874077            1 
  440000    1.0651185   -3.5851055    384.86922  0.072891897  0.074832533            2 
  441000    1.0712618   -3.6028202    385.24986  0.072798538  0.074791676            2 
  442000    1.0896058   -3.5884891    385.61601  0.072702868  0.074749503            6 
  443000    1.0803261    -3.573395    385.57096  0.072530279  0.074707854            5 
  444000    1.0679401   -3.5711854    385.44004  0.072342349  0.074666593            3 
  445000    1.0867994   -3.5873343    387.63174  0.072590214  0.074624719            3 
  446000      1.07651   -3.5968858    385.97963  0.072118765  0.074580237            4 
  447000     1.060946   -3.5963392    386.38936  0.072033811  0.074536296            1 
  448000    1.0847945   -3.6253246    387.31059   0.07204438  0.074491964            3 
  449000     1.080757   -3.6203474    388.69482  0.072140835  0.074447505            5 
  450000    1.0738749   -3.5744346    389.11929  0.072059127  0.074401664            5 
  451000    1.0852413   -3.5991054    387.61034  0.071620536  0.074355164            1 
  452000    1.0849032   -3.6194432    388.96923  0.071712615  0.074308405            2 
  453000    1.0835303   -3.5904529    391.39657  0.072000841  0.074261114            2 
  454000    1.0659671   -3.5891964    390.60732  0.071697378  0.074214561            3 
  455000    1.0839196     -3.59384    392.77568  0.071936938  0.074168889            2 
  456000    1.0540561   -3.5987921    392.69403  0.071764261  0.074121258            1 
  457000    1.0776397   -3.6006529    391.01942  0.071301863   0.07407171            3 
  458000    1.0756832   -3.5870977    393.84685  0.071660635  0.074024979            2 
  459000    1.0635806   -3.6200259    395.36835  0.071780746  0.073978403            2 
  460000    1.0616075   -3.5904425    397.55508  0.072020847  0.073932814            3 
  461000    1.0707016   -3.5960313    397.13672  0.071788995  0.073887438            2 
  462000    1.0873824   -3.5990144    396.64939  0.071545705   0.07384372            3 
  463000    1.0729768   -3.5534175    397.93594   0.07162274  0.073799015            4 
  464000    1.0700812   -3.5872788    398.39723  0.071551227  0.073755506            2 
  465000    1.0680582   -3.6098789    399.45658  0.071587201  0.073711609            2 
  466000    1.0595897    -3.587928    400.28482  0.071581691  0.073669756            1 
  467000     1.069518   -3.6031036    401.95328  0.071726139   0.07362536            2 
  468000    1.0650288   -3.6340726    399.76344  0.071182948  0.073580655            7 
  469000     1.061692   -3.5963001    402.21982   0.07146763  0.073534663            4 
  470000    1.0536241   -3.6395913    401.58029  0.071202179  0.073489035            2 
  471000    1.0959786    -3.583984    403.67284  0.071421238  0.073444275           11 
  472000     1.058975   -3.6003147    404.09006  0.071343584  0.073401181            2 
  473000    1.0689527   -3.6412102     404.5532  0.071274348   0.07335758            1 
  474000      1.07896   -3.6102369    406.07964  0.071392341  0.073315037            3 
  475000    1.0585472   -3.6253496    408.68142  0.071698495  0.073271521            2 
  476000    1.0597816   -3.5895494    409.56631  0.071702786  0.073229279            3 
  477000    1.0831217   -3.6138138    406.97577   0.07109989  0.073183762            2 
  478000    1.0678868   -3.6029302    409.51992  0.071394686  0.073139056            2 
  479000    1.0517476   -3.6098732    408.78439  0.071117673  0.073093982            3 
  480000    1.0709449   -3.6065367    406.49019  0.070571213  0.073047795            3 
  481000    1.0625906   -3.6340819    406.34513  0.070399363  0.072998743            1 
  482000    1.0654284   -3.6224921    407.61143  0.070472239  0.072948998            6 
  483000    1.0639114   -3.6009393    409.23395  0.070606272  0.072901221            3 
  484000    1.0656414   -3.6073019    410.35888  0.070654076  0.072856371            5 
  485000    1.0605749   -3.6011125    410.51485  0.070535197  0.072809744            4 
  486000    1.0500436   -3.6456214    411.15402   0.07049966  0.072762689            3 
  487000     1.065163   -3.6190503    411.71319  0.070450579  0.072716087            2 
  488000    1.0747895   -3.6151274    412.48095  0.070437321  0.072671069            3 
  489000    1.0795635   -3.6278679    412.36303  0.070273181  0.072625917            4 
  490000    1.0460909   -3.5980119    416.81031  0.070886107  0.072580627            5 
  491000     1.067127   -3.6230247    414.10667   0.07028287   0.07253656            1 
  492000    1.0518648   -3.6447793    414.43284  0.070195264   0.07249022            8 
  493000    1.0468051   -3.6136295    417.88927  0.070637132  0.072446786            2 
  494000    1.0538373   -3.6148977    418.33414  0.070569187  0.072403308            4 
  495000    1.0718789    -3.629458    419.28823  0.070587244  0.072359922            3 
  496000    1.0559762   -3.6175542    419.34675  0.070454764  0.072318236            3 
  497000    1.0509534   -3.6334135    419.51715  0.070341574  0.072275464            2 
  498000    1.0460648   -3.6373756    421.88716  0.070596914  0.072235102            1 
  499000    1.0706037   -3.6224798    422.44259  0.070548195  0.072193237            2 
  500000    1.0501417   -3.6607289       420.91  0.070151666  0.072151804            3 
  501000    1.0668389   -3.6199312    422.59737  0.070292311  0.072108964            3 
  502000    1.0475499   -3.6381516    422.75905  0.070179126  0.072066854            4 
  503000    1.0471781   -3.6258171     424.9254  0.070398508  0.072025629            2 
  504000     1.046228   -3.6217238    422.58264  0.069871468  0.071983822            2 
  505000    1.0689886   -3.6654396    425.29417  0.070180557  0.071941547            1 
  506000    1.0673319    -3.604948     425.7797  0.070121821   0.07189876            3 
  507000    1.0505057   -3.6336517    425.77618  0.069982935  0.071857021            3 
  508000    1.0500738   -3.6373444    425.34044  0.069773694   0.07181437            4 
  509000    1.0599231    -3.624783    427.45141  0.069982221  0.071771148            2 
  510000    1.0272626   -3.6406244     428.7506  0.070057287  0.071728786            2 
  511000    1.0498459   -3.6266227    431.27094  0.070331203  0.071684792            6 
  512000    1.0522511   -3.6618365    428.27231  0.069705779  0.071641647            3 
  513000    1.0696284   -3.6054049     431.2584   0.07005497   0.07159909            3 
  514000    1.0706359   -3.6463991    429.28596  0.069598892  0.071557518            2 
  515000    1.0337091    -3.595236    431.81891  0.069873611  0.071517083            3 
  516000    1.0722202   -3.6390747    432.05578  0.069776451   0.07147447            2 
  517000    1.0407538   -3.6555313    432.62462  0.069733175  0.071432738            2 
  518000    1.0386761   -3.6196295    433.82973  0.069792428  0.071391769            2 
  519000    1.0386971   -3.6604893    434.31885  0.069736488  0.071349981            2 
  520000    1.0298813    -3.639044    433.42015  0.069458357  0.071307044            3 
  521000    1.0394555   -3.6616354    434.67324  0.069525471  0.071264792            2 
  522000     1.050602   -3.6340558    433.89739  0.069268421  0.071223357            4 
  523000    1.0380604   -3.6310027    436.82032  0.069601708  0.071182754            2 
  524000    1.0579789   -3.6465798    436.63382  0.069439221  0.071141825            2 
  525000    1.0340346   -3.6093164    440.32141  0.069892287  0.071101699            2 
  526000        1.034   -3.6092778    439.97577  0.069704653  0.071063142            2 
  527000    1.0447932   -3.6658819    439.20174   0.06944999   0.07102538            3 
  528000     1.037231   -3.6277569    439.20908  0.069319614  0.070985501            2 
  529000    1.0254147   -3.6405233    441.99681  0.069627727  0.070946868            1 
  530000    1.0351903   -3.6384189    443.49303  0.069731608  0.070908618            5 
  531000    1.0382253   -3.6619802    444.03504  0.069685348  0.070872056            3 
  532000    1.0301308   -3.6311056    444.10741  0.069565697  0.070835055            2 
  533000    1.0464889   -3.6285857     445.5068  0.069653971  0.070798166            2 
  534000    1.0495611   -3.6528605    444.81627  0.069415772  0.070760659            5 
  535000    1.0428118   -3.6548833    445.22797  0.069350151  0.070722706            5 
  536000    1.0236631   -3.6184933    446.89141  0.069479386  0.070685943            2 
  537000    1.0322157   -3.5988309    449.00674  0.069678266  0.070649118            3 
  538000    1.0450853   -3.6438007      449.213  0.069580701  0.070613591            1 
  539000    1.0322208   -3.6562706    449.54808  0.069503414  0.070577374            2 
  540000    1.0309979    -3.614671    450.64662  0.069544232  0.070540852            3 
  541000    1.0274663   -3.6192342    451.39269  0.069530606  0.070504278            4 
  542000    1.0434512   -3.6292772    450.69343  0.069294807  0.070468098            5 
  543000    1.0577982   -3.6423037    449.46482  0.068978641  0.070430789            1 
  544000    1.0585473   -3.6572552    451.09079  0.069100917  0.070392715            2 
  545000     1.068329   -3.6294317    454.06701  0.069429206  0.070355446            2 
  546000    1.0511092   -3.6583797    452.92244  0.069127357  0.070318131            5 
  547000    1.0117042   -3.6943766    452.31232  0.068908032  0.070281505            5 
  548000    1.0436832   -3.6860211    452.68398  0.068838805  0.070243764            7 
  549000    1.0306417   -3.6512828    455.76174  0.069180592  0.070206688            2 
  550000     1.028548   -3.6577868    454.83256  0.068914024  0.070169698            5 
  551000    1.0446929   -3.6845732    457.64682  0.069214583  0.070133835            1 
  552000    1.0412044   -3.6134475    456.82862  0.068965674  0.070096803            2 
  553000    1.0238467   -3.6462869    457.95974  0.069011413  0.070061086            2 
  554000    1.0485904   -3.6557097    459.84573  0.069170537  0.070025651            2 
  555000    1.0315722   -3.6756292    459.59205  0.069007815  0.069990678            2 
  556000     1.060337   -3.6777386    460.00175  0.068945106  0.069954035            2 
  557000    1.0170706   -3.6502587    460.52708  0.068899922  0.069917913            1 
  558000    1.0382766   -3.6458792    461.28623  0.068889819  0.069881994            3 
  559000     1.021269   -3.6542753    463.70323  0.069126898  0.069846133            2 
  560000    1.0075313   -3.6648964    462.16748  0.068774923  0.069810638            3 
  561000    1.0332244   -3.6551982    463.01275   0.06877789  0.069774408            2 
  562000    1.0182052   -3.6461148    462.63946  0.068600157  0.069739442            2 
  563000    1.0278282   -3.6415702    464.48648  0.068751699  0.069703552            6 
  564000    1.0234585   -3.6401885    465.15783  0.068728994  0.069668095            5 
  565000    1.0414665    -3.703178    465.16894  0.068608989  0.069632732            2 
  566000    1.0342481    -3.652855    465.05462  0.068470939  0.069597569            3 
  567000    1.0118753   -3.6706964    466.21767  0.068521115  0.069562376            1 
  568000    1.0133757   -3.6602296    468.89524  0.068793315  0.069527427            3 
  569000    1.0256882     -3.66925    469.80192  0.068805202  0.069495039            2 
  570000    1.0346175   -3.6664334    469.06206  0.068576325  0.069461087            4 
  571000    1.0265317   -3.6588597     471.2132  0.068770169  0.069428509            2 
  572000    1.0087874   -3.6623206    472.13737  0.068784582  0.069394856            2 
  573000    1.0417759   -3.6601607    471.47514  0.068568228  0.069362356            2 
  574000    1.0114863   -3.6768834     471.0129  0.068381664  0.069328624            4 
  575000    1.0249838   -3.6886313    472.91768  0.068538794  0.069294971            2 
  576000    1.0252013   -3.6884282    473.90588  0.068562772   0.06926193            2 
  577000    1.0219515   -3.6508275    475.40184      0.06866  0.069230536            3 
  578000    1.0338833   -3.6665836    477.62122  0.068861191   0.06919908            1 
  579000    1.0207266   -3.6754465    477.84916  0.068775066  0.069167055            1 
  580000    1.0130755   -3.6905784    476.45854  0.068456687  0.069136424            4 
  581000   0.99939108    -3.695923    477.43593  0.068479048  0.069104916            3 
  582000     1.004963   -3.6522744    477.42696  0.068360103  0.069074001            1 
  583000    1.0215028   -3.6857285    478.74766  0.068431627  0.069043236            2 
  584000     1.012834   -3.6558447    479.35234  0.068400733  0.069010876            4 
  585000    1.0217446   -3.7024484    477.52672  0.068023749  0.068977255            4 
  586000    1.0130087   -3.6751446      479.813  0.068232793  0.068942149            3 
  587000    1.0128098   -3.6594944    480.00394   0.06814366  0.068907755            6 
  588000    1.0294178   -3.6527714    482.11139  0.068326444  0.068874745            6 
  589000     1.016962   -3.6535163    481.95152  0.068187821  0.068842209            2 
  590000    1.0025972   -3.6639976     482.5021  0.068150014  0.068808817            3 
  591000    1.0362207   -3.6639784    483.04274  0.068110933  0.068775257            2 
  592000    1.0061615   -3.7089157    481.62603  0.067796456  0.068740551            4 
  593000    1.0288783   -3.6784312    481.48074  0.067661712  0.068706206            3 
  594000    1.0119074   -3.6753672    483.87645  0.067883901  0.068671243            3 
  595000    1.0245627    -3.688505    483.32016    0.0676919  0.068636168            3 
  596000   0.99072167   -3.6934865     484.2971  0.067714919  0.068600504            4 
  597000    1.0255963   -3.6591993    484.12788  0.067577872  0.068565106            3 
  598000   0.98492494    -3.657923    485.08448  0.067598171  0.068529607            4 
  599000    1.0181104   -3.6867314    484.49665   0.06740354  0.068493646            4 
  600000    1.0246444   -3.6888788    486.62765  0.067587173  0.068458187            2 
  601000    1.0038007   -3.6736302    485.20911  0.067278024  0.068422837            1 
  602000    1.0173596   -3.6881912    487.12466  0.067431431   0.06838706            2 
  603000    1.0056487   -3.6842486    489.21047  0.067607859  0.068350908            3 
  604000    1.0135412   -3.6818904    488.54992   0.06740479  0.068315579            2 
  605000    1.0136285   -3.6658641    489.65346   0.06744538  0.068280001            3 
  606000    1.0305833   -3.6841532    488.66927  0.067198744  0.068244185            6 
  607000    1.0215354   -3.6865309    488.99117  0.067132231  0.068208151            3 
  608000    1.0303955   -3.6714871    490.04361  0.067166065  0.068171966            3 
  609000    1.0079473   -3.7000928    488.29013  0.066815836  0.068134294            3 
  610000     1.012073   -3.6901358    491.86666  0.067194899  0.068097077            2 
  611000   0.99296974   -3.7153132    489.47301  0.066758457  0.068060285            4 
  612000    1.0095424   -3.6727229    493.13836  0.067148469  0.068023597            5 
  613000   0.99412142   -3.7031612    492.45043  0.066945409  0.067987204            2 
  614000    1.0174595   -3.6842874    495.79383   0.06729015  0.067952495            2 
  615000   0.99544359   -3.7054503    494.25311  0.066971967  0.067917689            5 
  616000   0.99141254   -3.7162426    495.50839  0.067033062   0.06788257            2 
  617000    1.0074692   -3.7113037    497.24997   0.06715964  0.067847838            2 
  618000   0.98594645   -3.7216288    496.55122  0.066956744  0.067813303            5 
  619000   0.98337927   -3.6958844    497.58546  0.066987811  0.067778463            3 
  620000    1.0008518   -3.6679442    498.78188  0.067040575  0.067743177            2 
  621000    1.0007297   -3.7025162    498.07861  0.066838246  0.067708244            4 
  622000    1.0116421   -3.7036447     496.6002  0.066532717  0.067672851            2 
  623000   0.98887742   -3.7250021    498.80946  0.066721437  0.067637864            2 
  624000    1.0177689   -3.7065931     497.8398  0.066485017  0.067602239            4 
  625000    1.0024414   -3.6872937    499.60049  0.066613399  0.067566896            2 
  626000   0.99779217   -3.6967422     500.4276  0.066617093  0.067531868            4 
  627000   0.98756144   -3.7144688    501.57791  0.066663731  0.067496221            1 
  628000    1.0038009   -3.6950886    502.09625   0.06662636  0.067460344            1 
  629000    1.0203444   -3.6749327    505.24135  0.066937115  0.067424159            4 
  630000    1.0042077   -3.7067298    502.06716     0.066411  0.067388264            3 
  631000   0.99287973   -3.7314284    502.29383  0.066335688  0.067352513            2 
  632000    1.0129506   -3.6940272    505.04209  0.066593102  0.067317151            4 
  633000   0.99206451   -3.7147978    505.53792  0.066553175  0.067281483            6 
  634000    1.0156507    -3.695729    505.17815  0.066400914  0.067246648            4 
  635000    1.0111066   -3.7218185    506.75015  0.066502645  0.067212554            4 
  636000    1.0025502   -3.7039843    510.13296  0.066841321  0.067177966            2 
  637000    0.9872373   -3.7132979    508.21677   0.06648571  0.067144494            4 
  638000   0.99228626   -3.6914815    508.56736  0.066427294  0.067110269            3 
  639000    1.0148329   -3.7040174    509.09575  0.066392247  0.067076272            4 
  640000    1.0159106   -3.7179995    508.94928  0.066269437  0.067042964            2 
  641000    1.0168664   -3.7232207    508.14743  0.066061808  0.067009563            3 
  642000    1.0043319   -3.7131375    510.55852  0.066271874  0.066975863            3 
  643000    1.0201837   -3.7284466    510.97285  0.066222505  0.066942262            3 
  644000   0.98345174    -3.699772    512.28332   0.06628925  0.066908865            2 
  645000    1.0073989   -3.7141704    511.62634  0.066101594  0.066874951            2 
  646000    1.0175432    -3.715208    511.10232  0.065931672  0.066839932            3 
  647000    1.0310347    -3.682866     512.5936  0.066021844  0.066804997            4 
  648000   0.99050147   -3.6971764    512.01326  0.065845327   0.06677001            2 
  649000   0.97779945    -3.722393    514.55806  0.066070629   0.06673453            2 
  650000    1.0018704   -3.7123004    513.67545  0.065855827  0.066699257            3 
  651000    1.0025523   -3.7314568    514.43643  0.065852077   0.06666353            2 
  652000     0.988849   -3.7407651    514.01862  0.065697676   0.06662863            6 
  653000   0.98823601   -3.7285672    514.43307  0.065649958  0.066592598            2 
  654000   0.99595068   -3.7210217     517.8951  0.065990712  0.066558134            5 
  655000   0.97218679   -3.7425812     516.5998  0.065725165  0.066523714            3 
  656000    1.0042126    -3.731497    516.89029  0.065661876  0.066488326            8 
  657000   0.97704449   -3.7498613    519.58485   0.06590371  0.066452914            3 
  658000   0.96981871   -3.6952612    519.56806  0.065801426   0.06641828            5 
  659000     1.003985   -3.7184111    520.51376  0.065821163  0.066383866            1 
  660000    1.0222328   -3.7347683    520.45698  0.065714265  0.066349671            2 
  661000   0.98702423   -3.7366982    519.88669  0.065542951  0.066315888            2 
  662000   0.98596892   -3.7460121     522.1503  0.065728889  0.066282105            3 
  663000    1.0029026   -3.7212248    522.19112  0.065634882  0.066248695            3 
  664000   0.99184107   -3.6957988    523.78642  0.065736248  0.066215391            2 
  665000    1.0181988   -3.7222556     524.3254  0.065704938  0.066182488            2 
  666000   0.97624652   -3.7357544     522.3941  0.065364628  0.066149745            3 
  667000    1.0030295   -3.7158878    524.60189  0.065542466  0.066116712            2 
  668000   0.98869717   -3.7117146    524.24157  0.065399397  0.066083773            2 
  669000    1.0082985   -3.7100745    528.36314  0.065815039  0.066050405            3 
  670000   0.98171845   -3.7562825    523.74992  0.065143025  0.066016186            4 
  671000   0.99414347    -3.739709    524.40428  0.065127208  0.065982028            4 
  672000    1.0126664   -3.7351343     526.8965  0.065339348  0.065948134            4 
  673000   0.98405886   -3.7116097    528.13771  0.065395952  0.065914048            2 
  674000   0.98007592   -3.7156391    528.23821  0.065311352  0.065880153            2 
  675000   0.99805708   -3.6894902    528.37538  0.065231528  0.065846618            3 
  676000    1.0078328   -3.7023077    527.81914  0.065066463  0.065813159            1 
  677000   0.97475989   -3.7289854    531.49085   0.06542231  0.065780752            6 
  678000   0.98391355   -3.7236487    533.75725  0.065604381  0.065748168            2 
  679000   0.97610589   -3.7196282    531.38851  0.065217048   0.06571598            3 
  680000   0.96211542   -3.7557704    530.31849  0.064990011  0.065683152            5 
  681000   0.98525207   -3.7247932    534.21521  0.065371416  0.065650397            2 
  682000   0.98828428   -3.7232621    532.88977  0.065113608  0.065618613            3 
  683000   0.98310588   -3.7683377    533.82535  0.065132424   0.06558595            5 
  684000    0.9816623   -3.7639935    533.30561  0.064973881  0.065553137            2 
  685000   0.97496394   -3.7276276    536.51208  0.065269109  0.065521103            3 
  686000   0.97004674    -3.734312     536.6961   0.06519632  0.065489697            3 
  687000   0.99327721   -3.7580576    536.34488  0.065058816   0.06545865            4 
  688000   0.96068115   -3.7444985    537.15478  0.065062352  0.065426976            5 
  689000   0.99148073   -3.7446922      536.721  0.064915457  0.065395852            3 
  690000   0.96838683   -3.7440121    537.16446  0.064874935  0.065363552            2 
  691000   0.96204945   -3.7256505    538.63313  0.064958168  0.065332189            3 
  692000    1.0054939    -3.715056    540.76364  0.065120863  0.065301166            3 
  693000    0.9730779   -3.7445631    539.95542  0.064929704  0.065269816            2 
  694000   0.98829422   -3.7542449    538.48147  0.064659158  0.065238224            3 
  695000   0.97258558   -3.7461839     540.2872  0.064782638  0.065206665            5 
  696000   0.95826486    -3.747257    541.54515  0.064840176  0.065175062            2 
  697000   0.96086513   -3.7576758    542.96677  0.064917117  0.065143621            8 
  698000   0.97386903   -3.7296323    543.37478  0.064872825  0.065112288            2 
  699000   0.96142153   -3.7319434     542.2018  0.064640177    0.0650806            1 
  700000   0.97361458   -3.7499358    543.88336  0.064748019   0.06504906            1 
  701000   0.97196743   -3.7427211    541.78373  0.064406054  0.065017596            3 
  702000    0.9639221   -3.7244144    544.32715  0.064616234  0.064986065            3 
  703000   0.98100245   -3.7506728    542.50601  0.064308441  0.064954254            2 
  704000   0.93857052    -3.732309    545.71528  0.064596979  0.064922937            2 
  705000   0.97008798     -3.73868    546.92345  0.064648162  0.064891807            3 
  706000   0.96729003   -3.7499661    546.35666  0.064489691  0.064861352            2 
  707000   0.96781341   -3.7402275    547.59535  0.064544478  0.064831539            6 
  708000   0.96982757   -3.7412125    548.31126  0.064537577  0.064801293            5 
  709000   0.97918517   -3.7664009    548.17088  0.064430052  0.064771071            2 
  710000   0.98694747   -3.7396726    551.85717  0.064771969  0.064739795            3 
  711000    0.9664949   -3.7703931    549.68194  0.064425919  0.064710098            4 
  712000    0.9760934   -3.7687781    550.96738  0.064485882  0.064679646            3 
  713000   0.97464192   -3.7198426    553.96596  0.064745905  0.064650719            2 
  714000   0.96225318   -3.7284319    554.71217  0.064742317  0.064621426            2 
  715000   0.96047948   -3.7617857     553.1892  0.064474266  0.064591424            5 
  716000   0.97083715   -3.7748251    553.04973  0.064367985  0.064562431            3 
  717000   0.96764332   -3.7131503    555.70588  0.064586922  0.064532589            2 
  718000   0.95982767   -3.7487775    556.38859  0.064576206  0.064504299            4 
  719000   0.97771354   -3.7415329    555.89209  0.064428847   0.06447675            4 
  720000   0.96502935   -3.7453602    557.22166  0.064493247   0.06444827            5 
  721000   0.96615764   -3.7683324    558.30738  0.064529286  0.064420627            4 
  722000   0.94801357   -3.7344697    558.62308  0.064476348  0.064392562            3 
  723000   0.97900824   -3.7613877    559.95463  0.064540644  0.064363965            1 
  724000   0.95394707   -3.7832539    557.91816  0.064217099  0.064335325            3 
  725000   0.96056784   -3.7570898    559.69932  0.064333255  0.064306539            3 
  726000   0.95743808   -3.7534767    560.42508  0.064327948  0.064277872            2 
  727000   0.95127042   -3.7397952     560.6054  0.064260133  0.064249865            3 
  728000   0.95664588   -3.7409015    562.05147  0.064337393  0.064221447            3 
  729000   0.94746604   -3.7465219    563.29621  0.064391428  0.064193571            2 
  730000   0.95499929   -3.7598177    562.06453  0.064162618  0.064164939            1 
  731000   0.96844428   -3.7658163    561.89822  0.064055884  0.064136484            2 
  732000   0.95284561    -3.764923    563.69408  0.064172823  0.064108768            2 
  733000   0.96603129   -3.7979829    563.22233  0.064031643  0.064080529            1 
  734000   0.96319051   -3.7648783    566.56806  0.064324257  0.064054061            2 
  735000   0.95927839   -3.7602009    564.93714   0.06405183  0.064026758            4 
  736000   0.96222366   -3.7749708    565.48666  0.064027022  0.063999315            3 
  737000   0.95784973   -3.7723581    566.11141  0.064010788  0.063971569            3 
  738000   0.95209438   -3.7597782    566.06942  0.063919311  0.063942972            5 
  739000   0.94679535   -3.7818845    566.79994  0.063915194  0.063914365            3 
  740000   0.96321491   -3.7528221    570.20118  0.064211845   0.06388659            2 
  741000   0.93065119   -3.7519373     570.7459  0.064186448  0.063859316            4 
  742000   0.93620327   -3.7534759    569.22347  0.063928961  0.063831388            3 
  743000   0.96077675    -3.777619    569.64477  0.063890172  0.063803443            3 
  744000   0.96064723   -3.7782192    567.82784  0.063600789  0.063775587            2 
  745000   0.95944218   -3.7793481    572.00263  0.063982397  0.063747905            4 
  746000   0.96242373   -3.7550174    572.14167  0.063912161  0.063720542            2 
  747000   0.93800225   -3.7569278    571.44642  0.063749043  0.063693031            2 
  748000    0.9482548   -3.7538091    575.14065  0.064075384  0.063665647            4 
  749000   0.96873599   -3.7757005     571.4009  0.063573753   0.06363783            4 
  750000   0.96841174   -3.7492644    575.41547  0.063935052  0.063610072            1 
  751000   0.96400079   -3.7591133    574.87321  0.063789748  0.063582966            5 
  752000   0.93566139    -3.768881    574.83776  0.063700993  0.063555714            3 
  753000    0.9631185   -3.7693389    575.54545  0.063694716  0.063529267            3 
  754000   0.96838517   -3.7533374    575.40129  0.063594307  0.063502374            4 
  755000   0.95078303   -3.7774302    575.36131  0.063505664  0.063475526            2 
  756000   0.93658396   -3.7914645    576.89045  0.063590217  0.063447389            3 
  757000   0.94778249   -3.7845206    575.87627   0.06339457  0.063419493            4 
  758000   0.95048996   -3.7895027    578.17532   0.06356369  0.063391371            3 
  759000   0.93853831   -3.7740952    578.53523  0.063519459   0.06336355            3 
  760000   0.95473958   -3.7755878    577.11094  0.063279708  0.063336157            3 
  761000   0.95513379    -3.797208    577.71464  0.063262663  0.063308354            3 
  762000   0.95909542   -3.7951624    579.22906   0.06334526  0.063280341            4 
  763000    0.9320817   -3.7793883    579.76032  0.063320262  0.063252921            2 
  764000   0.93622398   -3.7897103    580.78504  0.063349153  0.063224586            3 
  765000     0.943936   -3.8167054    579.64639  0.063142308  0.063196163            2 
  766000   0.94115203   -3.7687092    579.66544   0.06306195  0.063166867            4 
  767000   0.91462655   -3.7876336    582.35495  0.063271941  0.063138439            3 
  768000    0.9453544   -3.7924801    582.41544   0.06319612  0.063109874            7 
  769000    0.9469058   -3.7729934    582.19768  0.063090342  0.063081408            4 
  770000   0.93673579   -3.8130761     583.4321  0.063142002  0.063053183            5 
  771000   0.96750819   -3.7661671    584.19492  0.063142555  0.063025463            3 
  772000   0.92797123   -3.8016999    585.88339  0.063243025  0.062997722            2 
  773000   0.96419545   -3.7851891    585.79607  0.063151797  0.062970186            2 
  774000   0.94511584    -3.785763    585.06588   0.06299159  0.062942837            1 
  775000    0.9335995   -3.8076036    585.05706  0.062909362  0.062915005            2 
  776000   0.96562621   -3.7995163    585.00858  0.062823086  0.062887598            5 
  777000   0.95827665   -3.7976461    586.89608  0.062944667  0.062859425            3 
  778000   0.96263801   -3.7760623    588.11159  0.062993957  0.062832236            3 
  779000   0.95193795   -3.7744631    589.12364  0.063021357  0.062805349            4 
  780000   0.96194427   -3.7906261    587.99585  0.062820069  0.062777979            8 
  781000   0.94545676   -3.8176755    587.91881  0.062731413  0.062750178            2 
  782000   0.94002998   -3.8150957    590.62342  0.062939409  0.062723104            2 
  783000   0.91567782   -3.7794439    590.60999  0.062857598  0.062696161            1 
  784000   0.95359459   -3.7805707     591.6248  0.062885289  0.062669097            5 
  785000   0.95076233   -3.7852124    593.58781  0.063013568   0.06264189            3 
  786000   0.95361126    -3.795296    592.12402  0.062778204  0.062614721            2 
  787000   0.92997261   -3.7893115    593.80835  0.062876785   0.06258724            4 
  788000   0.93148704    -3.767591    593.12474  0.062724698  0.062560257            2 
  789000   0.94892009     -3.78048     595.2315  0.062867712  0.062533606            1 
  790000   0.94386623   -3.7941485    593.34205  0.062588824  0.062507011            3 
  791000   0.93487825   -3.8103062    593.98543  0.062577479  0.062479958            4 
  792000   0.92947976   -3.8176583    596.49442   0.06276246  0.062453606            2 
  793000   0.95093769   -3.8013695    598.38455  0.062881941  0.062427323            3 
  794000   0.93239419   -3.8091498      597.562  0.062716415   0.06240113            2 
  795000   0.94523901    -3.799188    597.77566  0.062659923  0.062374638            2 
  796000   0.91018006   -3.8055579    597.53352  0.062555855  0.062348051            5 
  797000   0.94551878   -3.7907835    597.45487  0.062469142  0.062321755            3 
  798000   0.92589167   -3.7744322    599.21668  0.062574841  0.062295225            1 
  799000   0.92900522   -3.8136524    599.52147  0.062528313  0.062268944            3 
  800000   0.94484774   -3.7953581    598.82974  0.062378098  0.062242134            3 
  801000   0.92570037   -3.8013233    600.72805  0.062497716  0.062215948            2 
  802000   0.94180636   -3.8199369    598.95426   0.06223548  0.062189652            5 
  803000   0.92876328   -3.8070255    599.38551   0.06220273  0.062162889            2 
  804000   0.93631197   -3.8063072    600.52673  0.062243649  0.062135725            4 
  805000   0.93078763   -3.8129459     603.8355  0.062508851  0.062108869            3 
  806000   0.93372493   -3.8177158    602.54695  0.062298072  0.062082676            3 
  807000   0.92095475   -3.8153543    603.61192  0.062330846  0.062056915            2 
  808000   0.93843801   -3.7888656    605.25886  0.062423562  0.062031354            2 
  809000   0.92390929   -3.8196937    604.09339  0.062226348  0.062005398            2 
  810000   0.93749209   -3.8058782    606.91767   0.06244009  0.061979594            3 
  811000   0.91966697   -3.8026939    606.70072  0.062340806  0.061953977            4 
  812000   0.90317371   -3.8157974    607.04275  0.062299133  0.061928336            3 
  813000   0.92997814   -3.8093715    610.86084  0.062613862   0.06190343            3 
  814000   0.92566812   -3.8195083    608.68605  0.062314297  0.061878597            2 
  815000   0.93384823   -3.8194773     608.7106  0.062240348  0.061853413            2 
  816000   0.90891072   -3.8225049    609.60699  0.062255616  0.061828047            3 
  817000    0.9215461   -3.8073392     611.0482  0.062326418  0.061802948            6 
  818000   0.92421158   -3.8213131     612.5347  0.062401661  0.061777893            4 
  819000   0.93012356   -3.8133085    612.24708  0.062296203  0.061752376            5 
  820000   0.92982295   -3.8385441    611.92673  0.062187676   0.06172746            7 
  821000   0.92437176   -3.7989022    616.66821    0.0625932  0.061702715           10 
  822000   0.91853318   -3.7956128    612.60129  0.062104753  0.061678304            3 
  823000   0.92102028   -3.8167969    613.71482  0.062142044  0.061653021            7 
  824000   0.93408581   -3.8221443    613.63891  0.062058951  0.061627986            4 
  825000   0.92940687   -3.8132333    615.44844  0.062166509  0.061603221            3 
  826000   0.92651879   -3.8250334    616.01808  0.062148716  0.061578272            2 
  827000   0.92046444   -3.8218709    614.91551  0.061962465  0.061553322            1 
  828000   0.93094522   -3.7870207    615.89912  0.061986627  0.061528873            3 
  829000    0.9027607    -3.857387    615.44848  0.061866554  0.061504003            4 
  830000   0.92775553   -3.8285191    616.11781  0.061859217  0.061479231            2 
  831000   0.92632322   -3.8471183    619.17406  0.062091261  0.061454537            1 
  832000   0.90127216   -3.8326978    618.44755  0.061943866  0.061430156            5 
  833000   0.93123577   -3.8273309    622.71679  0.062296597  0.061406052            3 
  834000   0.92680897   -3.8104853    621.78855  0.062129152  0.061382789            3 
  835000   0.91286508   -3.8458144     620.2985  0.061906038  0.061358337            2 
  836000   0.92633577   -3.8180911    621.87486  0.061989121  0.061334172            5 
  837000   0.91997773   -3.8280604    620.07132  0.061735495  0.061309695            2 
  838000   0.92497664   -3.8402379    621.98694  0.061852321  0.061284852            3 
  839000   0.93579009    -3.792237    624.68087  0.062046172  0.061260684            3 
  840000   0.92057613   -3.8594772    619.90745  0.061498755  0.061236127            4 
  841000   0.89606842   -3.8363186    620.62866  0.061497093  0.061211041            6 
  842000   0.89979544   -3.8259344    621.53008   0.06151327  0.061186098            3 
  843000   0.88117278   -3.8288238    621.57865  0.061445101  0.061160938            4 
  844000   0.89876374   -3.8275142    625.13145   0.06172309  0.061135781            2 
  845000    0.9231506   -3.8317092    624.20892  0.061559065   0.06111043            5 
  846000   0.92108918   -3.8338185    624.90314  0.061554683  0.061085134            4 
  847000   0.92500835   -3.8660097     624.2947  0.061422146  0.061060181            4 
  848000   0.92058346   -3.8303792    625.47634  0.061465836  0.061034748            3 
  849000   0.91452054   -3.8653889    625.26316  0.061372513  0.061009991            6 
  850000   0.93261822   -3.8617751    626.03962  0.061376433  0.060984857            6 
  851000   0.93300688     -3.85036    626.47381  0.061346829  0.060960385            4 
  852000   0.91052813   -3.8566198    628.05953  0.061429923  0.060935836            5 
  853000   0.92695682     -3.85335    627.84927  0.061337365  0.060911652            3 
  854000   0.90602936   -3.8432142    627.98629  0.061278912  0.060886712            4 
  855000   0.90626929    -3.838399    628.39493  0.061247069   0.06086173            2 
  856000   0.90720936   -3.8429102    629.21478  0.061255333    0.0608359            5 
  857000   0.91890465   -3.8354979    630.29062   0.06128847  0.060810619            5 
  858000   0.91480807   -3.8414381    629.71702  0.061161327  0.060784527            2 
  859000   0.91413516   -3.8287645    630.94119  0.061208886  0.060759052            3 
  860000   0.89462006   -3.8303691    629.94069  0.061040764   0.06073295            5 
  861000   0.92245665   -3.8448013    630.95143  0.061067695  0.060706857            2 
  862000   0.91077186   -3.8441916    631.79344  0.061078252  0.060680948            3 
  863000   0.93006409    -3.818268    632.61632  0.061086937  0.060654834            6 
  864000   0.91190134    -3.832476    631.16976  0.060876713  0.060628736            2 
  865000   0.92620862   -3.8221995     633.1341  0.060995578  0.060602325            2 
  866000   0.90532164   -3.8375411    631.66096  0.060783387  0.060576136            3 
  867000   0.91223324   -3.8564143     632.2743  0.060772232  0.060549311            5 
  868000   0.90195022   -3.8787321    633.06575  0.060778201  0.060522615            4 
  869000   0.90718627   -3.8630709    633.08917  0.060710508   0.06049616            4 
  870000    0.9071309   -3.8280006      634.868  0.060811111    0.0604699            2 
  871000   0.89096291   -3.8356995    633.56208  0.060616349  0.060443201            2 
  872000   0.91045477   -3.8555216      633.432  0.060534403  0.060416253            7 
  873000   0.92604712   -3.8476636     634.8209  0.060597643  0.060388863            2 
  874000      0.90524   -3.8341235    635.24963  0.060569187  0.060361842            3 
  875000   0.92732297   -3.8521776    634.91389  0.060467989  0.060334887            2 
  876000   0.92365441   -3.8433715    635.24887  0.060430828  0.060307521            5 
  877000   0.88233671   -3.8327221    635.80127  0.060414412  0.060280501            2 
  878000   0.89456759   -3.8525515    634.89754  0.060259827  0.060253307            3 
  879000   0.91430973   -3.8607919    634.70512   0.06017303  0.060226147            6 
  880000   0.90310484   -3.8560504    638.87652   0.06049967  0.060198948            3 
  881000   0.89043035   -3.8567609     638.3216   0.06037851  0.060172022            3 
  882000   0.91888449   -3.8499124    641.27456  0.060589055  0.060145633            8 
  883000   0.89504738   -3.8574508    640.72643  0.060468708  0.060119071            4 
  884000   0.90240972   -3.8478444    640.67035  0.060395018  0.060092605            4 
  885000   0.89806054   -3.8323653    640.70547  0.060330082  0.060066263            4 
  886000   0.90368783   -3.8655271    639.91702  0.060187831  0.060039931            4 
  887000   0.89087709   -3.8577521    644.00346  0.060503896  0.060013897            7 
  888000   0.88825301   -3.8628295    645.17663  0.060545854  0.059987738            3 
  889000   0.90768701   -3.8509923    642.48382   0.06022533  0.059961981            4 
  890000   0.91708459   -3.8498953    641.42181  0.060058222  0.059935721            2 
  891000   0.87915893   -3.8566236    642.23666  0.060067028  0.059909426            3 
  892000   0.89578535   -3.8568359    644.45334  0.060206777  0.059882538            5 
  893000   0.91111774   -3.8752349    642.24314  0.059933104  0.059856038            4 
  894000   0.88495822   -3.8879668    644.96838  0.060120096  0.059829212            2 
  895000   0.89662514   -3.8573993    645.41435  0.060094446  0.059803161            9 
  896000   0.91781823   -3.8639142    644.29217  0.059923007  0.059777589            4 
  897000   0.89054046   -3.8628303     647.5235  0.060156401  0.059750973            8 
  898000   0.89347411   -3.8688538     646.3367  0.059979278  0.059724703            6 
  899000   0.89540083   -3.8521804    648.24488   0.06008944  0.059698276            5 
  900000   0.90071078   -3.8909833    647.97416  0.059997607  0.059671707            3 
  901000   0.87366213   -3.8905133    645.78896  0.059728909   0.05964414            7 
  902000   0.90629035   -3.8862301    645.77305   0.05966122   0.05961658            9 
  903000   0.89303918   -3.8803855    647.29207  0.059735333  0.059589363            3 
  904000   0.89957623   -3.8310502    650.55528  0.059970066  0.059562673            7 
  905000   0.88127515    -3.863007    649.02919  0.059763277   0.05953613            2 
  906000   0.89517133   -3.8643377    649.92869  0.059780049  0.059509675            3 
  907000   0.87166128   -3.8677752    647.86183   0.05952424  0.059482987            3 
  908000   0.90406198   -3.8614069    650.79336  0.059727731  0.059456058            4 
  909000    0.8981222   -3.8857908    649.94524  0.059584272  0.059429718            2 
  910000   0.89973467   -3.8777022    650.35608  0.059556418  0.059403704            5 
  911000   0.90469488   -3.8887091     651.7353  0.059617206  0.059377617            4 
  912000   0.87908728   -3.8453038    653.24387  0.059689681  0.059351997            2 
  913000   0.87406861    -3.852561    652.26173  0.059534659  0.059325652            4 
  914000   0.89415624   -3.8759106    654.14762  0.059641468   0.05929967            4 
  915000   0.89812892   -3.8938707    652.81505  0.059454923  0.059273176            3 
  916000   0.88497813   -3.8539302    656.30704    0.0597077  0.059247543            3 
  917000    0.8902189    -3.908763    655.61761  0.059579935  0.059221657            3 
  918000   0.90101747   -3.8514253    657.13251  0.059652552    0.0591958            4 
  919000   0.90228906   -3.8578219    656.07154  0.059491435  0.059169776            2 
  920000   0.88418965     -3.86833    656.42816  0.059459073  0.059144084            4 
  921000   0.86583458   -3.8835789     654.8589  0.059252524  0.059117983            4 
  922000   0.89441547   -3.8644511    659.81337   0.05963606  0.059091901            2 
  923000   0.87120943   -3.8748245    656.51629  0.059273771  0.059065688            2 
  924000    0.8731108   -3.9146928    657.75783  0.059321594  0.059038482            2 
  925000   0.87122434   -3.8908688    658.20401  0.059297659  0.059011745            2 
  926000   0.87127215    -3.901153    657.15584  0.059139295  0.058985182            8 
  927000    0.8763242   -3.8860571    658.34163  0.059182095  0.058958508            3 
  928000   0.87323237    -3.874079    660.75193  0.059334764   0.05893193            2 
  929000   0.88059429   -3.8957755     658.0157  0.059025448  0.058904897            3 
  930000   0.86367935   -3.8891369    658.77693  0.059030191  0.058877694            5 
  931000   0.88626884   -3.8836931    660.69137  0.059138146  0.058850429            4 
  932000   0.88939394   -3.8792523    660.96123  0.059098822  0.058823776           10 
  933000   0.88206901   -3.8895262    659.49369  0.058904402  0.058796689            2 
  934000   0.85799883   -3.9089799    660.63788  0.058943422  0.058769771            3 
  935000   0.91268621   -3.8884827    660.91524  0.058905101  0.058742663            4 
  936000   0.87091505   -3.9060646    662.96172   0.05902437  0.058715991            6 
  937000   0.88179828   -3.9058872    663.31098  0.058992438   0.05868965            6 
  938000   0.87229646   -3.8884717    664.33034  0.059020109  0.058663065            4 
  939000   0.87906621   -3.8652538    665.43489  0.059055279  0.058636259            5 
  940000   0.89846137   -3.8992876    664.71398  0.058928544  0.058609912            4 
  941000   0.89677255   -3.9006171    664.37831  0.058836195  0.058583167            7 
  942000   0.89387623   -3.9045741    665.37959  0.058862313   0.05855628            2 
  943000    0.8806431   -3.9008586    667.51267  0.058988394  0.058529802            2 
  944000   0.87955356   -3.8998888    662.94511  0.058522697  0.058503506            4 
  945000   0.89329198   -3.8839129    665.83705  0.058715789  0.058477295            4 
  946000   0.86144538   -3.8956324    665.66824  0.058638852  0.058450857            3 
  947000   0.90056637   -3.9099202    667.02539  0.058696356  0.058424768            3 
  948000   0.86205248   -3.9160659    666.16343   0.05855867  0.058398255            2 
  949000   0.86592574   -3.9007207    668.42365  0.058695438  0.058371735            3 
  950000   0.86675583   -3.9033784    667.18114  0.058524661   0.05834539            3 
  951000   0.87274325   -3.9046486    667.97667  0.058532831  0.058319132            7 
  952000   0.88041392   -3.9197139    669.32582  0.058589445  0.058292345            3 
  953000   0.89176476   -3.8897079    671.63147   0.05872958  0.058266184            6 
  954000   0.86155643    -3.903384    669.59552  0.058490175  0.058239727            3 
  955000   0.86920887   -3.9063833    669.75362  0.058442724  0.058213238            3 
  956000   0.88034169   -3.9297662    669.03951  0.058319343  0.058186647            3 
  957000   0.86000779   -3.8970853    671.06066  0.058434401  0.058159534            4 
  958000   0.85491974    -3.905527    670.10777  0.058290515  0.058132303            3 
  959000   0.85321655   -3.8899989    669.64691  0.058189686  0.058105551            3 
  960000   0.87285713   -3.9035426    671.62586  0.058300856  0.058078216            4 
  961000   0.86659974    -3.917079    670.68133  0.058158284   0.05805075            2 
  962000   0.87928507   -3.9258826    672.07198  0.058218294  0.058023255            5 
  963000   0.86537097   -3.9236662    669.62551  0.057946132   0.05799578            5 
  964000   0.86412249   -3.9066919    672.78567  0.058159204  0.057967998            4 
  965000    0.8657657   -3.8896856    672.56146  0.058079574  0.057940316            2 
  966000   0.85647054   -3.9421833     669.3365  0.057741244  0.057912736            5 
  967000   0.87023763   -3.8931452    672.74691  0.057975431  0.057885397            4 
  968000    0.8533383   -3.9178439    673.42474  0.057973893  0.057857896            2 
  969000    0.8496223   -3.9464806    674.00189  0.057963699  0.057830246            3 
  970000   0.87572255    -3.899376    673.67667  0.057876003  0.057802414            4 
  971000   0.85884502   -3.9168637    672.88047  0.057748066  0.057774535            4 
  972000   0.88015695   -3.9169626    673.35692  0.057729502   0.05774608            2 
  973000   0.85625994    -3.899534    673.30994  0.057666148   0.05771763            5 
  974000   0.85687553   -3.9227568    672.90975  0.057572703  0.057689475            2 
  975000   0.85941508   -3.9100634    675.86285  0.057766056   0.05766187            3 
  976000   0.87766713   -3.9387504    675.43541  0.057670373  0.057633873            4 
  977000   0.86016814   -3.9160918    676.23233  0.057679319  0.057605708            3 
  978000   0.87650408   -3.8836153    677.83124  0.057756581  0.057577772            5 
  979000   0.86325814   -3.9286773    674.59054  0.057421735  0.057549681            3 
  980000    0.8666977   -3.9113676     677.2277   0.05758739  0.057521359            3 
  981000   0.87192935    -3.947702    677.31575  0.057536167  0.057493831            8 
  982000   0.85881171   -3.9003347    679.67446  0.057677738  0.057466001            6 
  983000   0.87988559   -3.8960951    679.08123  0.057568772  0.057438419            3 
  984000   0.86396481   -3.9280912    680.78197  0.057654299  0.057410981            4 
  985000   0.86136414   -3.9306828    680.98158  0.057612655  0.057383439           13 
  986000   0.85572306   -3.9409115    680.30415   0.05749697  0.057356022            3 
  987000   0.86886248   -3.9216707    682.24174  0.057602309  0.057328884            6 
  988000    0.8681713   -3.9249176    682.58052  0.057572581  0.057301504            2 
  989000   0.88013756    -3.941676    681.28159   0.05740492  0.057274189            2 
  990000   0.85617999   -3.9460822    677.86588  0.057059417  0.057246153            3 
  991000   0.83326134   -3.9351191    679.85762  0.057169326  0.057218103            4 
  992000   0.87445362   -3.9316252    681.96058  0.057288355   0.05719029            5 
  993000   0.87260672   -3.9368884     683.2245  0.057336732  0.057162466            2 
  994000   0.86176149   -3.9364104    680.28559  0.057032661  0.057134147            3 
  995000   0.87622257     -3.96347    681.35721  0.057065093  0.057105511            5 
  996000   0.86159004   -3.9550623    681.10988  0.056987105  0.057077144            3 
  997000    0.8315445   -3.9002805    682.14537  0.057016497  0.057048439            5 
  998000   0.84260169   -3.9334135    683.24334  0.057051047  0.057020612           14 
  999000   0.84539801   -3.9511516    681.72903   0.05686762  0.056992596            3 
 1000000   0.86919553   -3.9369157    684.39051  0.057032542  0.056964532            4 
 1001000   0.83466628   -3.9524668    685.56032  0.057072953  0.056937171            3 
 1002000   0.82190931   -3.9153882    685.94031  0.057047597  0.056909467           12 
 1003000   0.86077829   -3.9741977    684.43304   0.05686549  0.056881309            5 
 1004000   0.85210712    -3.927492    687.06036  0.057026922  0.056853185            2 
 1005000   0.85431161   -3.9189686    687.63972  0.057018219  0.056825286            3 
 1006000   0.83340086   -3.9301613    687.20282   0.05692535  0.056797121            3 
 1007000   0.87651332   -3.9421119    685.21448  0.056704277  0.056768664            3 
 1008000   0.86011496   -3.9348791     684.5503  0.056593114  0.056740256            3 
 1009000   0.84541428   -3.9465519      687.133   0.05675033  0.056711714            6 
 1010000   0.85299015   -3.9354316    686.31578  0.056626715  0.056683534            3 
 1011000   0.86125707   -3.9583329    686.12196  0.056554728  0.056655371            2 
 1012000   0.84993314   -3.9358898    689.04506  0.056739547  0.056627532            3 
 1013000   0.86372857   -3.9389062    690.44887  0.056799018  0.056599832            4 
 1014000   0.85057062    -3.963839    689.34306  0.056652125  0.056572313            4 
 1015000   0.84664756   -3.9261731     689.8467   0.05663766  0.056544735            8 
 1016000   0.85074169   -3.9564194    689.40829  0.056545955  0.056517135            5 
 1017000   0.85029887   -3.9556281    688.54603  0.056419701  0.056489234            2 
 1018000   0.86248684   -3.9455245    690.74788  0.056544522  0.056461406            3 
 1019000   0.84906024   -3.9510147    691.49007  0.056549727   0.05643365            2 
 1020000   0.84030293   -3.9618785    691.84362  0.056523172  0.056405623            8 
 1021000   0.84508819     -3.97727    690.71401  0.056375613  0.056377808            4 
 1022000   0.85063308   -3.9391986    693.38761  0.056538455  0.056349997            3 
 1023000   0.83728601   -3.9498992    691.34483  0.056316783  0.056322609            3 
 1024000   0.87498019   -3.9720357    695.12118  0.056569106  0.056295581            5 
 1025000     0.839298   -3.9581085    693.61549  0.056391503  0.056268456            5 
 1026000   0.86178782   -3.9440399    692.23401  0.056224335  0.056241274            5 
 1027000   0.86314583    -3.950578    694.19587  0.056328779  0.056213696            4 
 1028000    0.8577631   -3.9731856    693.65534  0.056230167  0.056186509            3 
 1029000   0.83530057   -3.9506325    696.06925  0.056371012  0.056159146            4 
 1030000   0.84705212   -3.9319549    696.24382  0.056330406  0.056132078            4 
 1031000   0.83998761   -3.9302572    696.19603  0.056271907  0.056105084            4 
 1032000   0.84735217   -3.9616198    695.42242  0.056154911  0.056078041            3 
 1033000   0.82776492   -3.9606805    698.34544  0.056336353  0.056051153            4 
 1034000   0.83802153   -3.9646279    696.37568  0.056123121  0.056023963            2 
 1035000   0.84085859   -3.9636135    695.00991   0.05595893   0.05599669            5 
 1036000   0.86718667   -3.9522551    696.79716  0.056048678  0.055969036            2 
 1037000   0.83797451   -3.9799276    696.52233  0.055972544   0.05594145            5 
 1038000    0.8161344   -3.9634512    700.74598  0.056257706  0.055913997            3 
 1039000   0.85774834   -3.9426944    700.12855  0.056154038  0.055886753            2 
 1040000   0.85092437   -3.9826838    696.25397  0.055789581  0.055858664            8 
 1041000    0.8532017   -3.9556159    697.09601  0.055803395  0.055831389            3 
 1042000   0.82038868   -3.9966792    696.91665  0.055735497  0.055803135            5 
 1043000   0.84222796   -3.9791403    697.82026  0.055754255  0.055774691            6 
 1044000   0.84378661   -3.9397504    696.24402  0.055575034  0.055746497            3 
 1045000   0.83962492   -3.9708834    698.41743   0.05569517  0.055718724            3 
 1046000   0.82987087   -3.9780577    699.43573   0.05572305  0.055690673            5 
 1047000   0.83746757   -3.9994528    697.96698  0.055552928  0.055662365            3 
 1048000   0.82121962   -3.9739021    698.26381  0.055523522  0.055633862            6 
 1049000   0.83353161    -3.979803    698.33449  0.055476207  0.055605405            7 
 1050000   0.81140002   -3.9651792    699.21992  0.055493644  0.055576709           16 
 1051000   0.82260189   -3.9409912    701.20895  0.055598553  0.055548435            5 
 1052000   0.83573099   -3.9997163    700.60897  0.055498176  0.055520285            3 
 1053000   0.85514327   -3.9699138    702.80728  0.055619443  0.055492223            4 
 1054000   0.82948029   -3.9784338    701.69519  0.055478747   0.05546449            3 
 1055000   0.83054398    -3.983568    700.24996  0.055312003  0.055436421            3 
 1056000   0.82596883   -3.9923066    702.71749  0.055454347  0.055408288            3 
 1057000   0.84354152   -3.9576261    704.50935  0.055543152  0.055381046            3 
 1058000   0.83688101   -3.9489129    702.20298  0.055308993  0.055353231            5 
 1059000   0.82850904   -3.9960026    702.99707  0.055319253  0.055325443            5 
 1060000   0.84830195   -3.9612153    703.42573  0.055300765  0.055297475            4 
 1061000    0.8353325   -3.9847029    704.62326    0.0553427  0.055269414            3 
 1062000   0.81970164   -3.9627897    704.63998  0.055291901  0.055241153            6 
 1063000    0.8282212   -3.9656831    702.84713  0.055099336  0.055213023            5 
 1064000   0.82622167   -3.9854598     703.8355  0.055124961  0.055184562            3 
 1065000   0.85197615   -3.9986776    704.83002  0.055151019  0.055155903           15 
 1066000   0.82965571   -3.9690427    705.66956  0.055164912  0.055127814            4 
 1067000   0.82626911   -3.9905931    703.08031   0.05491099  0.055099468            5 
 1068000   0.84756734   -3.9878439    704.84354  0.054997155  0.055070978            4 
 1069000    0.8327653   -3.9492328    708.03511  0.055194505  0.055042588            7 
 1070000   0.83140302   -3.9969784    707.30586  0.055086126  0.055014317            3 
 1071000   0.81667314   -3.9907499    706.40081  0.054964271  0.054985824            6 
 1072000   0.83306056   -3.9753298    706.49849  0.054920592  0.054957666            5 
 1073000   0.82581697    -3.958775    706.65703   0.05488172  0.054929282            3 
 1074000   0.82616027    -3.976624    708.31861  0.054959545  0.054900601            4 
 1075000   0.81962929   -3.9852975    706.18656  0.054743144  0.054872188            3 
 1076000    0.8219356   -3.9963819    707.10718  0.054763567  0.054843561            2 
 1077000    0.8449996   -3.9592439    707.13095  0.054714558  0.054814954            7 
 1078000   0.83104607   -3.9947417    707.56706  0.054697516  0.054786406            4 
 1079000   0.80700038   -3.9940269    706.72509  0.054581796  0.054757888            5 
 1080000   0.81561288   -3.9700532    711.29721  0.054884044  0.054729007            3 
 1081000   0.81350756   -3.9913905     705.9912  0.054424237   0.05470063            3 
 1082000   0.84022328   -3.9899207    710.63431   0.05473154  0.054671915            7 
 1083000   0.83267829   -4.0043982    708.25373  0.054497825  0.054642894            2 
 1084000   0.82517287   -3.9996617    708.70401  0.054482165  0.054613914            9 
 1085000      0.82365   -3.9875268    710.60493  0.054577951  0.054585282            4 
 1086000   0.83577794   -3.9865043    707.54873   0.05429318  0.054556489            5 
 1087000   0.82309548   -4.0014185    709.61074  0.054401314  0.054528067            8 
 1088000   0.84679187   -3.9823935    712.48084  0.054571143  0.054499253            3 
 1089000   0.82923654   -3.9952972    709.55256  0.054296951  0.054470318            4 
 1090000   0.81017609   -3.9969926    711.64034  0.054406754  0.054441144            4 
 1091000   0.81236203   -3.9770072    713.81922  0.054523314  0.054412256            2 
 1092000   0.81140548   -3.9927988    709.51898  0.054145221  0.054383495            4 
 1093000   0.80795075   -3.9780798    710.95781  0.054205384  0.054354502            9 
 1094000   0.80334306   -4.0047678    711.71913  0.054213828  0.054325233            3 
 1095000   0.82031328   -4.0104414     710.5615  0.054076217  0.054296005            7 
 1096000   0.82791111   -3.9897451    710.78605  0.054043952  0.054266547            4 
 1097000   0.81500026   -4.0017316    709.64126  0.053907723  0.054236874            5 
 1098000   0.81190155   -4.0266879    712.97871  0.054111924  0.054207264            4 
 1099000   0.80951467   -3.9977157    711.89625  0.053980607  0.054178063            5 
 1100000   0.79386699   -3.9932939    712.17677  0.053952785  0.054148685            4 
 1101000   0.80667808   -4.0041616     711.2701  0.053835157   0.05411931            4 
 1102000    0.8190598    -3.995716    713.13072  0.053927005  0.054089898            5 
 1103000   0.81035191   -4.0022439    711.02794  0.053719246  0.054060232            3 
 1104000   0.80309229   -4.0124927    712.51996   0.05378321   0.05403078            3 
 1105000   0.81593058    -3.995733    713.62673  0.053818004  0.054001646            5 
 1106000   0.82326728   -3.9858319    715.94209  0.053943798   0.05397251            4 
 1107000   0.81564093   -4.0131893     712.5099  0.053636698   0.05394318            7 
 1108000   0.82297985   -4.0005634    714.89589  0.053767741  0.053913902            3 
 1109000     0.811258   -3.9942322    714.37137  0.053679844  0.053884407            6 
 1110000   0.80309996   -3.9966951      716.387  0.053782808  0.053854792            3 
 1111000   0.78821744   -4.0309808    715.72042    0.0536844  0.053825295            4 
 1112000   0.81280093   -4.0261315    713.90643  0.053500182  0.053795608            3 
 1113000   0.82456099   -4.0332994      714.516  0.053497754  0.053765845            5 
 1114000   0.81671702   -3.9865511    717.95795  0.053707208  0.053736007            4 
 1115000    0.8022582   -4.0077651    714.34823  0.053389255  0.053706229            4 
 1116000    0.8083145   -4.0276892    715.18749  0.053404084  0.053676487            2 
 1117000   0.80335672   -4.0130703    716.30651  0.053439758  0.053647183            4 
 1118000    0.8043151   -4.0189233    719.96295  0.053664502  0.053618126            5 
 1119000   0.79025462    -4.023157    716.94888  0.053392083  0.053589046            8 
 1120000   0.79730103    -4.001994    719.65626  0.053545853  0.053559872            7 
 1121000   0.81264307   -4.0150318    719.35875   0.05347597  0.053530954            3 
 1122000   0.81769334   -4.0238011    722.06769  0.053629508   0.05350236            5 
 1123000   0.80607197   -4.0323437    721.93501  0.053571906  0.053473954            5 
 1124000   0.80144924   -3.9980974    723.75965  0.053659523  0.053445852            4 
 1125000   0.80631976   -4.0015681      723.126  0.053564889   0.05341829            4 
 1126000   0.78929585   -4.0172957    723.46062  0.053542083  0.053390263            3 
 1127000   0.81075385    -4.018323    721.00233  0.053312801  0.053362303            9 
 1128000   0.79341505   -4.0303763    722.10033  0.053346656  0.053334178            5 
 1129000    0.8016921   -4.0182612    724.57374  0.053481971  0.053306274           14 
 1130000   0.79627231   -4.0626742    724.51411  0.053430244  0.053278197            6 
 1131000    0.8099524    -4.025837    722.62755  0.053243999  0.053250126            3 
 1132000   0.82513145   -4.0035754    724.42177  0.053329047  0.053222001            3 
 1133000   0.82167599   -4.0161505    723.85056  0.053239965   0.05319355            4 
 1134000   0.79342236   -4.0103404    722.80809  0.053116409  0.053165453            6 
 1135000   0.80448414   -4.0147187     723.4743  0.053118525  0.053137222            4 
 1136000   0.79394181   -4.0041463    727.26532  0.053349862  0.053109091            7 
 1137000   0.79573206   -4.0604988    726.09338  0.053217046  0.053080739            5 
 1138000   0.79609328   -4.0031432    726.26516  0.053182861  0.053053028            9 
 1139000   0.81858431   -4.0305579    726.41274  0.053146967  0.053024717            9 
 1140000   0.78796521   -4.0205455     727.2413  0.053160914  0.052996874            4 
 1141000   0.79861813   -4.0351017    727.68778  0.053146931  0.052969324            3 
 1142000   0.80219907   -4.0306816    728.62411  0.053168718  0.052941509            3 
 1143000   0.80145405   -4.0220219    727.56748  0.053045164  0.052913761            9 
 1144000   0.80338257   -4.0314165    729.87273   0.05316672  0.052885994            4 
 1145000   0.80551139   -4.0490686    729.26618  0.053076141  0.052858285            6 
 1146000    0.8150053   -4.0326003    727.65181  0.052912435  0.052830969            5 
 1147000    0.7912634   -4.0401186    729.75583  0.053019168  0.052803666            6 
 1148000   0.79057481   -4.0060334    732.85254  0.053197774  0.052776276            6 
 1149000   0.78527043   -4.0245978     729.5831  0.052914353  0.052749286            5 
 1150000   0.79404873   -4.0495363    727.62794  0.052726662  0.052722195            2 
 1151000    0.8011426   -4.0399395    732.51063  0.053034363  0.052694949            4 
 1152000   0.79330826   -4.0418964     732.3175  0.052974356  0.052667804            2 
 1153000   0.77896978   -4.0596752    730.78023  0.052817305  0.052640445            6 
 1154000   0.77913392   -4.0579585     732.2298  0.052876213  0.052613074            4 
 1155000   0.79652626   -4.0360065    736.33781  0.053126826  0.052586073            3 
 1156000   0.79618042   -4.0392706    732.95788  0.052837217  0.052559111            4 
 1157000   0.79200633   -4.0258016    733.24755  0.052812413  0.052532121            5 
 1158000   0.77885393    -4.056214    732.14981   0.05268781  0.052505073            3 
 1159000   0.78758143   -4.0499673    731.80528  0.052617578  0.052478033            4 
 1160000   0.79284562   -4.0566393    734.24813  0.052747711  0.052451087            5 
 1161000    0.7720826   -4.0774145    736.17383  0.052840498   0.05242443            6 
 1162000   0.80622074   -4.0460134    737.91522  0.052919909  0.052398088            9 
 1163000   0.80062023   -4.0575899    732.96656  0.052519817  0.052371536            4 
 1164000   0.77702089    -4.058217    736.43808   0.05272323  0.052344945            3 
 1165000   0.79624524   -4.0266288    736.68659   0.05269575   0.05231858            5 
 1166000    0.7951124   -4.0279007    736.93559  0.052668353  0.052292325            6 
 1167000    0.7908048    -4.037635    739.34809  0.052795493  0.052266109            3 
 1168000   0.79430218   -4.0567983    739.37504  0.052752215  0.052240055            4 
 1169000   0.77666101   -4.0368162    738.67747  0.052657362  0.052213846            4 
 1170000   0.79534292   -4.0603484    739.73369  0.052687585  0.052187908            4 
 1171000   0.78429224    -4.056488    739.95308  0.052658204  0.052161858            4 
 1172000   0.78415917   -4.0548666    741.37623  0.052714465  0.052135742            3 
 1173000   0.78650404   -4.0828671    739.09312  0.052507326  0.052109449            7 
 1174000   0.80093236    -4.056108    739.39454  0.052483996  0.052083334            5 
 1175000    0.7887968   -4.0750287    739.77477  0.052466296  0.052057193            4 
 1176000   0.77817454   -4.0343512    740.40115  0.052466068  0.052030899            4 
 1177000   0.77443817   -4.0782596    738.64011  0.052296807  0.052004704            7 
 1178000   0.76998772   -4.0916183    739.27389  0.052297247   0.05197839            5 
 1179000   0.77674156   -4.0520897    741.07538  0.052380222  0.051952179            6 
 1180000   0.78533041   -4.0337803    743.15225  0.052482504  0.051926254            5 
 1181000   0.77411192   -4.0699361    740.67482  0.052263253  0.051900368            9 
 1182000   0.78655668   -4.0597613    739.47487  0.052134438   0.05187416            3 
 1183000   0.78592218   -4.0770758    741.76509  0.052251697  0.051848053            7 
 1184000   0.77477893   -4.0794788    743.76265  0.052348159  0.051822049            5 
 1185000   0.77174607   -4.0707283    744.16565  0.052332324  0.051796031            7 
 1186000    0.7852706   -4.0544034    742.70121  0.052185301  0.051770125            7 
 1187000   0.80392509   -4.0543941    742.27908  0.052111702  0.051744323            7 
 1188000   0.78940533   -4.0710264    745.06555  0.052263296  0.051718305            5 
 1189000   0.78874364   -4.0776727     744.3206  0.052167129  0.051692167            8 
 1190000   0.78158651   -4.0539062    742.10222  0.051967942  0.051666029            4 
 1191000   0.77028773   -4.0830913    743.64502  0.052032257  0.051639809            5 
 1192000   0.78503045   -4.0544863    745.96056  0.052150486  0.051614084            4 
 1193000     0.786027   -4.0720193    746.48157  0.052143167   0.05158817            4 
 1194000   0.76318394   -4.0288722    746.74876  0.052118143  0.051562544           10 
 1195000   0.78804324   -4.0785033    745.78887  0.052007592  0.051536813            4 
 1196000   0.78024765    -4.066625    746.24599  0.051995958  0.051510791            7 
 1197000    0.7656529   -4.0695767    749.05194  0.052147865  0.051485065            4 
 1198000   0.77500345    -4.066461    746.89697  0.051954436  0.051458871            6 
 1199000   0.76860154   -4.0488025    745.79223  0.051834322  0.051432972            7 
 1200000   0.77375625   -4.1020171    746.42187  0.051834852  0.051406834            5 
 1201000   0.74870064   -4.0855383    747.43297  0.051861849  0.051380735            5 
 1202000    0.7584138   -4.0791816    745.19797  0.051663753  0.051354714            3 
 1203000   0.77254219   -4.0607006    748.42172   0.05184412   0.05132856            6 
 1204000   0.78301818   -4.0564955    749.02194  0.051842604  0.051302345            5 
 1205000   0.77795262   -4.0800596    747.58219  0.051700013  0.051276305            3 
 1206000   0.78170267   -4.0967856    749.08294  0.051760844   0.05125055            6 
 1207000    0.7574621   -4.0686123    750.44724  0.051812154  0.051224628            8 
 1208000   0.77729488   -4.0725884    748.37199  0.051626103  0.051198878            3 
 1209000   0.77959577   -4.0713307    749.55121  0.051664682  0.051173042            4 
 1210000   0.76135262   -4.1151311     748.2648  0.051533388  0.051147124            3 
 1211000   0.76187321   -4.0838035    750.28749  0.051630023   0.05112135            3 
 1212000   0.77210984   -4.0701482    751.43722  0.051666476  0.051095696            2 
 1213000    0.7630882   -4.0593728    752.34418   0.05168619  0.051070149            6 
 1214000   0.75692283   -4.0981304    751.74562  0.051602527  0.051044605            5 
 1215000   0.76813904   -4.0809378    751.88702  0.051569754  0.051018553            5 
 1216000    0.7529036   -4.0774086    751.24774  0.051483535  0.050992823            8 
 1217000   0.75497907   -4.0913556    751.95751  0.051489832  0.050967066            4 
 1218000   0.75528986   -4.0788838    753.18408  0.051531478  0.050941421            7 
 1219000   0.76321661   -4.0928228     752.8585  0.051466947  0.050915604            7 
 1220000   0.75850189   -4.0838279    752.23327  0.051382054  0.050889958            3 
 1221000   0.78165467   -4.0775879    755.69341  0.051576127  0.050864606            2 
 1222000   0.75896566   -4.0894822    751.88876  0.051274465  0.050839355           11 
 1223000   0.76608691   -4.1090163    755.54332  0.051481557  0.050813726            6 
 1224000    0.7584934   -4.0902103    754.06995  0.051339185  0.050788074            4 
 1225000   0.75133427   -4.0644302    754.10202  0.051299457  0.050762599            4 
 1226000   0.75913282   -4.1175608    753.23952  0.051198989  0.050737095            4 
 1227000   0.75263287   -4.1060937    753.07774  0.051146274   0.05071089            9 
 1228000   0.74016846   -4.1023275    753.86812   0.05115826  0.050684751            6 
 1229000   0.77175191   -4.0916693    756.60191  0.051302001  0.050658685            3 
 1230000   0.75277297   -4.0960385    755.27749  0.051170562  0.050632826            6 
 1231000   0.77439899   -4.0713059    755.60891  0.051151429  0.050607237            7 
 1232000   0.75405468   -4.0905146    757.18111  0.051216255  0.050581718            3 
 1233000   0.75364312   -4.0928605    757.77371  0.051214768  0.050556165            4 
 1234000   0.78145608   -4.0956261    758.18812   0.05120125  0.050530514            4 
 1235000   0.76793087   -4.0854212     754.3454  0.050900499  0.050505074            3 
 1236000   0.77690063   -4.0951869     755.8894  0.050963417  0.050479533            4 
 1237000     0.786388   -4.1097211    755.41255  0.050890094  0.050453673            9 
 1238000   0.74320415   -4.1080727    755.63516  0.050863971   0.05042805            4 
 1239000   0.74343803   -4.0784849    756.34256  0.050870498   0.05040215            4 
 1240000    0.7469188   -4.0990126     758.0523  0.050944375  0.050376608            3 
 1241000   0.75622132   -4.1087788    757.52524  0.050867932  0.050350862            5 
 1242000   0.77473448   -4.1083753    758.10174  0.050865656  0.050324986            3 
 1243000   0.75018188   -4.0877689    759.42888  0.050913708  0.050299075            8 
 1244000   0.75085408    -4.122345    757.54989  0.050746911  0.050273301            4 
 1245000   0.75872208   -4.0812985    758.40043  0.050763081  0.050247771            5 
 1246000   0.74190149     -4.11472    759.22832   0.05077771  0.050222127            7 
 1247000   0.76306906   -4.0979904    760.30557  0.050808979  0.050196508            4 
 1248000   0.73863729   -4.1039633    758.55432   0.05065133  0.050170801            9 
 1249000    0.7518516   -4.1197627    760.60284  0.050747454   0.05014522            4 
 1250000   0.73883454    -4.092174     761.2523  0.050750154  0.050119693           12 
 1251000   0.75975878   -4.1223334     758.8864  0.050551985  0.050094297            5 
 1252000   0.75793597   -4.1105509    760.00733  0.050586217  0.050068725            6 
 1253000   0.73640439   -4.0952064    764.35157  0.050834768  0.050043208           10 
 1254000   0.75812745    -4.095678    763.92182  0.050765671  0.050017988            3 
 1255000   0.74612209   -4.1087163    761.88006  0.050589645  0.049992542            5 
 1256000   0.75440051   -4.1141483    761.99458  0.050556965  0.049966985           11 
 1257000   0.75583155   -4.1140495    762.37233  0.050541788  0.049941351            7 
 1258000   0.76116939   -4.1117578    764.31858  0.050630537  0.049916046            6 
 1259000   0.75927411   -4.1238895    763.75026  0.050552705   0.04989109            9 
 1260000   0.74848459     -4.09798    764.88256  0.050587471  0.049865995            4 
 1261000   0.75205797   -4.1403864    763.27362  0.050441027  0.049840886            3 
 1262000   0.75284286   -4.1064652    766.96618  0.050644888  0.049815718            3 
 1263000   0.76615168   -4.1190836    763.94034  0.050405143  0.049790916            4 
 1264000   0.75354664   -4.1289194    764.18208  0.050381203  0.049765907            6 
 1265000   0.74364087   -4.1219479    764.09357  0.050335545  0.049741139            4 
 1266000   0.74968376   -4.1292017    762.42886  0.050186208  0.049716346            7 
 1267000   0.75985519   -4.1402986    763.78788  0.050235982  0.049691454            5 
 1268000   0.74436563   -4.1286135    765.70627  0.050322441  0.049666568            4 
 1269000   0.74148748   -4.1487858    763.93643  0.050166564  0.049641375            5 
 1270000   0.73230525   -4.1247912    768.11003  0.050400921  0.049616448            3 
 1271000   0.74616602   -4.1230331    765.09742  0.050163744  0.049591335            6 
 1272000   0.75580179   -4.1414465    765.13026  0.050126458  0.049565954            5 
 1273000   0.72322097   -4.1050471    768.34243  0.050297357  0.049540582            3 
 1274000   0.75796903   -4.1289094    765.14418  0.050048677   0.04951554           16 
 1275000   0.75523424   -4.1119979    770.06793  0.050331237  0.049490812            6 
 1276000   0.74981646   -4.1175939    769.19581  0.050234836  0.049466118            2 
 1277000   0.73527688     -4.11891    767.31341  0.050072658   0.04944148            7 
 1278000   0.72876015   -4.1126724    769.29496  0.050162686  0.049416761            6 
 1279000   0.74325737   -4.1120853     771.3625  0.050258177  0.049392109            9 
 1280000   0.73305855    -4.134874    769.13197  0.050073696  0.049367284            6 
 1281000   0.74185198   -4.1245496    769.68582  0.050070636  0.049342474            6 
 1282000   0.73874448   -4.0992436    770.80114  0.050104078  0.049317748            7 
 1283000   0.75476329   -4.1129607    768.70166  0.049928661  0.049292948            3 
 1284000   0.73045688   -4.1382698      768.638  0.049885644  0.049268237            6 
 1285000   0.73551771   -4.1407928    770.53057  0.049969557  0.049243249            6 
 1286000   0.74590096   -4.1374848    769.55128  0.049867242  0.049218459            4 
 1287000   0.76131321   -4.1404853    770.60875  0.049896966  0.049193832            6 
 1288000   0.73137173   -4.1449864    771.33367  0.049905129  0.049169253           10 
 1289000   0.73836471   -4.1397006    770.97779  0.049843405  0.049144326            4 
 1290000    0.7413786   -4.1530117    768.20111  0.049625395  0.049119534            5 
 1291000   0.73665352   -4.1279681    770.58546  0.049740863  0.049094722            8 
 1292000   0.73594587   -4.1278937    774.86016  0.049978081  0.049070125           10 
 1293000   0.73686762   -4.1197995    772.37367  0.049779174  0.049045742            9 
 1294000   0.76150114   -4.1313161    771.92332  0.049711703  0.049020964            5 
 1295000   0.75270105   -4.1522366    770.12466  0.049557571  0.048996106           11 
 1296000   0.73443404   -4.1026153    770.77692  0.049561273   0.04897128            5 
 1297000   0.74534656   -4.1251561    774.49121  0.049761707  0.048946433            9 
 1298000   0.72584635    -4.153323    771.36288  0.049522527  0.048921713            6 
 1299000   0.72606992   -4.1511921    773.80252  0.049640911  0.048896531            4 
 1300000   0.72953016   -4.1510174    773.01441  0.049552206  0.048871661            7 
 1301000   0.73229606   -4.1503316    774.44125  0.049605512  0.048846995            6 
 1302000   0.71377273   -4.1223099    775.91919  0.049662006  0.048822531            5 
 1303000   0.73669776   -4.1258113    772.80071  0.049424451  0.048798002            5 
 1304000   0.72833937   -4.1331286    772.96273  0.049396903  0.048773522            6 
 1305000   0.74110301    -4.156033    772.53563  0.049331777  0.048748824           10 
 1306000     0.723944   -4.1399264    775.12202  0.049459037  0.048724216            4 
 1307000   0.72619713    -4.152473    773.79589  0.049336642  0.048699719            7 
 1308000   0.72352149   -4.1491936     775.6918  0.049419712  0.048675025            7 
 1309000   0.71361723   -4.1416213    776.21309  0.049415145  0.048650732            7 
 1310000   0.72350076   -4.1568808    776.94977  0.049424285  0.048626337            4 
 1311000   0.74394921   -4.1558346    775.80037  0.049313525  0.048602055            7 
 1312000   0.72782675   -4.1746176    776.61438  0.049327641  0.048577594           12 
 1313000   0.72606947   -4.1850285    777.22255  0.049328671  0.048553353            5 
 1314000   0.72025098   -4.1665327    777.44254  0.049305083   0.04852919            8 
 1315000   0.72245523   -4.1768458    777.80943  0.049290839  0.048505058            9 
 1316000   0.74855688   -4.1551961    778.56541  0.049301255  0.048480828            4 
 1317000   0.70341822   -4.1567899    777.00744  0.049165239  0.048456398            5 
 1318000   0.73057529   -4.1636266    779.01708     0.049255  0.048432018            3 
 1319000    0.7315991   -4.1741259    777.29756   0.04910902  0.048407662            2 
 1320000   0.72176637   -4.1538141    779.89725  0.049235938   0.04838312            4 
 1321000   0.73131126   -4.1845596    779.12051  0.049149666  0.048358889            9 
 1322000    0.7350977   -4.1784926    780.32945  0.049188695  0.048334397            8 
 1323000   0.71427954   -4.1643154    779.55319  0.049102619  0.048310118            6 
 1324000   0.73192362    -4.177107    782.43098  0.049246663  0.048285979            4 
 1325000    0.7433952   -4.1562493    781.14295  0.049128487  0.048261726            8 
 1326000   0.71564645   -4.1719869    781.51428  0.049114774  0.048237652            4 
 1327000   0.73947576   -4.1918668    780.01408  0.048983552  0.048213225            7 
 1328000   0.70565892   -4.1811055    781.31464  0.049028278  0.048188835            7 
 1329000   0.72910806   -4.1507707    780.51213  0.048941067  0.048164657            6 
 1330000   0.72837048   -4.1748868    782.34663  0.049019213  0.048140566            5 
 1331000   0.73703474   -4.1694092    780.96661  0.048895981  0.048116487           13 
 1332000   0.73234954   -4.1843702    779.57342  0.048772111  0.048092292           10 
 1333000   0.72747993    -4.167108    780.98818  0.048823967   0.04806786            3 
 1334000    0.7212506   -4.1441971    783.54806   0.04894728  0.048043489           12 
 1335000   0.72640644   -4.1790571    779.84075  0.048679198  0.048019281           15 
 1336000   0.72135174    -4.166002    781.42302  0.048741456  0.047994983            5 
 1337000   0.71635819   -4.1593434    780.50298  0.048647655  0.047970741            4 
 1338000   0.72290754    -4.137703    783.74862  0.048813441  0.047946263            5 
 1339000   0.72245252   -4.1827205    781.99807   0.04866804  0.047921831            8 
 1340000   0.72071148   -4.1611725    782.64121  0.048671717  0.047897403            4 
 1341000    0.7352382   -4.2039685    779.73811  0.048455016  0.047872791            5 
 1342000   0.72909913   -4.1890381    781.60553  0.048534869  0.047847925            5 
 1343000   0.72104295   -4.1527934    782.23986   0.04853809  0.047823719            4 
 1344000   0.69600585   -4.1617711    782.65455  0.048527688  0.047799359            5 
 1345000   0.72542127   -4.1674285    783.59857  0.048550097  0.047775026           13 
 1346000   0.72244635    -4.156388    784.65369  0.048579352  0.047750533           11 
 1347000   0.71775453   -4.1582339    784.25943  0.048518896  0.047726257            7 
 1348000   0.70249661   -4.1660645    782.37508  0.048366412  0.047701806            8 
 1349000   0.72305019   -4.1520951    784.63559  0.048470199  0.047677659           13 
 1350000   0.70868433   -4.1675692    785.89766  0.048512202  0.047653601            9 
 1351000   0.70497739   -4.1589796    783.31662  0.048317087  0.047629412           12 
 1352000   0.71011474   -4.1821397    787.62386  0.048546835   0.04760508            3 
 1353000   0.71477817   -4.1626548    787.08302  0.048477643  0.047580736            4 
 1354000   0.71906054   -4.1836753    786.55762  0.048409504  0.047556494            5 
 1355000   0.71456774   -4.1849488     784.4212  0.048242386  0.047531954            5 
 1356000   0.71474351    -4.183643    784.15528  0.048190467   0.04750752            3 
 1357000   0.70455666   -4.1780767    786.06702  0.048272355  0.047483116            5 
 1358000   0.69308635   -4.1868543    785.34615  0.048192572    0.0474587            8 
 1359000   0.69281605   -4.2000197    785.50889  0.048167089  0.047434395            4 
 1360000   0.71338024   -4.1801958    785.69241  0.048142917  0.047410018            6 
 1361000   0.68982129    -4.196409    784.97354  0.048063528  0.047385569           12 
 1362000   0.70569476   -4.2036773    785.94766   0.04808784  0.047361007            7 
 1363000   0.71609919   -4.2130294    787.43447  0.048143462   0.04733613            4 
 1364000   0.70959629   -4.1935433    785.11371   0.04796638  0.047311629            6 
 1365000   0.70477404   -4.1855747    783.94255   0.04785974  0.047286946            8 
 1366000   0.70387369   -4.1575661    789.54162  0.048166278   0.04726251            7 
 1367000   0.69948627   -4.1852881    787.32326   0.04799581  0.047238013            4 
 1368000   0.70088307   -4.1912822    787.73617  0.047985878  0.047213433            5 
 1369000   0.71048495   -4.1876369    786.79984   0.04789383  0.047188662            7 
 1370000     0.707145   -4.1844951    785.87159  0.047802408   0.04716398            9 
 1371000   0.70444309   -4.1909737    786.34812  0.047796506  0.047139022            4 
 1372000   0.70085384   -4.1913868    785.36841  0.047702163  0.047114001            7 
 1373000   0.69467414   -4.1948001    785.57637  0.047680042  0.047088811            6 
 1374000    0.7123047   -4.1840235    786.23045   0.04768501  0.047063723            7 
 1375000   0.70143709   -4.1881573    784.83022  0.047565468  0.047038697            5 
 1376000   0.71511324   -4.1942954    787.43779   0.04768882   0.04701363           14 
 1377000   0.71706495   -4.1766868    788.39659  0.047712212  0.046988494            7 
 1378000   0.70500917   -4.2089956    786.02692  0.047534284  0.046963364            4 
 1379000    0.6969591   -4.1915312    785.78042  0.047484918  0.046938252            7 
 1380000   0.71320173   -4.2033445    787.70636  0.047566809  0.046913061            6 
 1381000   0.69007578   -4.1927566    788.22455  0.047563634  0.046888156            9 
 1382000   0.70428481   -4.2175412     787.8319  0.047505542  0.046863148            7 
 1383000   0.70857207   -4.1870508    788.75147  0.047526601  0.046838282            8 
 1384000   0.70534526   -4.1774842    788.97644  0.047505807  0.046813425            8 
 1385000   0.70158983   -4.2239944    785.74099  0.047276835  0.046788281            7 
 1386000   0.71171799   -4.2140371    785.48439  0.047227296  0.046763038            8 
 1387000   0.69462221   -4.1919123    785.89929  0.047218174  0.046738015            9 
 1388000   0.70764903   -4.2108307    787.18218  0.047261178   0.04671297            9 
 1389000    0.6865686   -4.2145689    787.70598  0.047258578  0.046687987            8 
 1390000   0.69536505   -4.2054492    786.79403  0.047169906  0.046662791            7 
 1391000    0.7155456   -4.2157305    788.28513  0.047225325  0.046637562            9 
 1392000   0.68217585   -4.2050786    789.95601  0.047291428  0.046612261            4 
 1393000   0.69655883   -4.2061358    786.60936  0.047057272  0.046586925           11 
 1394000    0.6929701   -4.2060136    787.31965  0.047065976  0.046561731            8 
 1395000   0.70984131     -4.21291    787.38428  0.047036098  0.046536675            8 
 1396000   0.69858676   -4.2166655    787.65351  0.047018476  0.046511583            4 
 1397000   0.69424942   -4.2069727    789.62008  0.047102128  0.046486401            8 
 1398000   0.70118111   -4.1994933     791.2926  0.047168133  0.046461443            6 
 1399000   0.71003019   -4.2337959    787.74519  0.046923111   0.04643643            5 
 1400000   0.69735812   -4.2300162    789.05826  0.046967754  0.046411206            9 
 1401000   0.70140316   -4.2120424    789.90872  0.046984816  0.046386001            8 
 1402000   0.67949746   -4.2240219    789.26373  0.046912966  0.046360786            6 
 1403000   0.68975951   -4.2426901    789.14413  0.046872424  0.046335377            8 
 1404000   0.67839061   -4.2118102      791.968  0.047006648    0.0463103            4 
 1405000   0.69165386   -4.2205441    790.48118  0.046885005  0.046285191            4 
 1406000   0.69891263   -4.2302889    790.01345  0.046823936  0.046260003            8 
 1407000   0.68739263   -4.2254006     788.9271  0.046726315  0.046234746            5 
 1408000   0.70355334   -4.2516544    787.01431  0.046579919  0.046209375            9 
 1409000   0.69089628   -4.2199345    789.45418  0.046691163  0.046183835            8 
 1410000   0.69144514   -4.2137294     791.4802  0.046777789  0.046158494            6 
 1411000   0.68757408    -4.220578    790.14071  0.046665527  0.046133175            5 
 1412000   0.70270914   -4.2187687    790.68373  0.046664526  0.046107909            7 
 1413000   0.69073858   -4.2376479    790.16892  0.046601139  0.046082675            4 
 1414000   0.68767022    -4.207641    790.89886  0.046611201   0.04605752            4 
 1415000   0.68530352   -4.2081299    792.40663  0.046667057  0.046032549           11 
 1416000   0.69474261   -4.2229445    789.74961  0.046477731  0.046007454            7 
 1417000   0.68947703   -4.2338831    789.50591  0.046430599  0.045982223            7 
 1418000   0.67691974    -4.215366    792.56489  0.046577627   0.04595696            5 
 1419000   0.67137434    -4.248517    791.83692  0.046502051  0.045931939           11 
 1420000   0.67626511   -4.2374368    790.75438  0.046405773  0.045906767            7 
 1421000    0.6831631   -4.2450018    792.56238  0.046479145  0.045881668            6 
 1422000   0.68486886   -4.2267172    794.06664  0.046534613  0.045856746            5 
 1423000    0.7016914   -4.2056936    792.96041  0.046437128  0.045831814            8 
 1424000    0.6761493   -4.2300871    793.87977   0.04645832  0.045806832            7 
 1425000   0.68733021   -4.2241693    795.09178  0.046496595  0.045781955            9 
 1426000   0.67843027   -4.2473462    792.56816  0.046316512  0.045757032           18 
 1427000   0.67237905   -4.2418526    793.50799  0.046338939  0.045732058            9 
 1428000   0.68742671   -4.2597568    794.94106  0.046390118  0.045707266            7 
 1429000   0.70292878   -4.2332047    794.65614  0.046341039  0.045682299            6 
 1430000   0.69329988   -4.2381017    792.87272  0.046204704   0.04565737            7 
 1431000   0.68341516   -4.2630215    794.63834  0.046275235  0.045632267           12 
 1432000   0.67518958   -4.2277394    793.80581  0.046194472  0.045607248            5 
 1433000    0.6787498   -4.2463921    794.58049  0.046207286  0.045582121            7 
 1434000   0.68383969   -4.2190029    794.08373  0.046146195  0.045557102           12 
 1435000   0.66463874   -4.2370571     792.3901  0.046015685  0.045531765            6 
 1436000   0.67755541   -4.2568407    793.77879  0.046064229  0.045506398           13 
 1437000   0.68005998   -4.2576021    794.44203  0.046070635  0.045481172            8 
 1438000   0.65673877   -4.2334667    794.73761  0.046055726  0.045456019            6 
 1439000    0.6628677   -4.2545879    792.33791  0.045884752  0.045430853           12 
 1440000   0.68810206   -4.2358757    793.87554  0.045941871  0.045405535            3 
 1441000   0.68958727   -4.2623963    791.41242  0.045767547  0.045380176            6 
 1442000   0.66673982   -4.2306876    794.85863  0.045934965   0.04535482            6 
 1443000   0.66070402   -4.2492992    795.10497  0.045917358  0.045329426            4 
 1444000   0.68137275   -4.2561455    794.06987  0.045825823  0.045303963           11 
 1445000   0.66755095   -4.2458424    788.84465  0.045492771  0.045278264            5 
 1446000   0.68085299   -4.2708627    791.93444  0.045639375  0.045252612           11 
 1447000    0.6747315   -4.2479376    791.23444  0.045567522  0.045227161            8 
 1448000   0.69066766   -4.2614952    792.56164  0.045612433  0.045201378           11 
 1449000   0.67303287   -4.2464037    793.77618  0.045650804  0.045175752            8 
 1450000   0.67116587   -4.2564432    796.32894  0.045766031  0.045150578            9 
 1451000   0.66699611   -4.2629024    794.15749   0.04560978  0.045125243            5 
 1452000   0.68353397   -4.2525699    795.10297  0.045632631  0.045099896            5 
 1453000   0.65378734   -4.2559292    794.84494  0.045586427  0.045074466            8 
 1454000    0.6676364   -4.2440234    794.94356  0.045560727  0.045049128            5 
 1455000   0.68307909     -4.25437    796.15942   0.04559905  0.045023711            4 
 1456000   0.66228915   -4.2687116    795.43362  0.045526191  0.044998349            6 
 1457000   0.66920184   -4.2565177    795.05732  0.045473423  0.044973007           10 
 1458000   0.67676542   -4.2782756    795.61305  0.045473997  0.044947663            6 
 1459000   0.67612044   -4.2671017    796.91965  0.045517458  0.044922488           16 
 1460000   0.67217988   -4.2573084    796.09063  0.045438963  0.044897204           23 
 1461000   0.67071583    -4.283276    797.33289  0.045478718  0.044872086            5 
 1462000   0.66989598   -4.2553359    797.73208  0.045470365  0.044847013            6 
 1463000   0.66946357   -4.2650105    794.75619  0.045269776  0.044822044            8 
 1464000   0.67267204   -4.2742762    796.65906  0.045347168  0.044796931            7 
 1465000   0.66843105    -4.275086    794.70425   0.04520502  0.044771778            8 
 1466000   0.67351759   -4.2773102    796.10191  0.045253633  0.044746579           11 
 1467000   0.66307409    -4.270036    797.99037  0.045330059  0.044721397           13 
 1468000   0.67412839   -4.2802908    798.11369  0.045306181  0.044696428            7 
 1469000   0.65312875   -4.2527941    801.18402  0.045449513  0.044671479            8 
 1470000   0.66772236   -4.2637955    798.09556  0.045243513  0.044646541            7 
 1471000   0.65933955     -4.27938    798.44281  0.045232428  0.044621568           15 
 1472000   0.67052593   -4.2898631    799.74006  0.045275139   0.04459649            5 
 1473000   0.67126129   -4.2879772    799.28349  0.045218573  0.044571524            7 
 1474000   0.66901897   -4.2833165    798.56466  0.045147256  0.044546483           15 
 1475000   0.65478496    -4.287616    800.18385  0.045208127   0.04452151           12 
 1476000   0.66370839   -4.2824565    799.19018  0.045121397  0.044496634            7 
 1477000   0.67989372   -4.2788724    798.79276  0.045068425  0.044471545            9 
 1478000   0.65249981   -4.3025152    795.41621  0.044847554  0.044446347            9 
 1479000   0.67494884    -4.264033    801.01188  0.045132515  0.044421292            4 
 1480000   0.67736454   -4.2810705    800.45852  0.045070863   0.04439627            6 
 1481000   0.67158485   -4.2926586    799.30978  0.044975792  0.044371157            7 
 1482000    0.6614656   -4.2855163    799.43306  0.044952376  0.044346095           15 
 1483000   0.65639528    -4.257996    798.07564  0.044845788  0.044321025            7 
 1484000   0.65907889   -4.2580997    798.75736   0.04485385  0.044295914            5 
 1485000   0.66280208   -4.2825293    798.13808  0.044788893  0.044270832            8 
 1486000   0.66741801   -4.2894312    800.30738  0.044880405  0.044245513            6 
 1487000   0.64833704    -4.277583    799.85802   0.04482504  0.044220137            7 
 1488000   0.67033345   -4.3030111    801.46743  0.044885049  0.044195146            9 
 1489000    0.6665834   -4.2768805    801.78533  0.044872696  0.044170139           21 
 1490000   0.65758036   -4.2980061     801.2248   0.04481123  0.044145239            4 
 1491000   0.67740103    -4.287215    800.67159  0.044750257  0.044120196            5 
 1492000   0.65499086   -4.2774645     800.8902  0.044732473  0.044095403           20 
 1493000   0.65682334   -4.2792578    800.48224  0.044679741  0.044070493            3 
 1494000   0.66110339   -4.2819646    800.42604    0.0446467   0.04404559            6 
 1495000   0.65593387   -4.2861792    800.55704  0.044624138  0.044020719            7 
 1496000   0.64823756   -4.2946572    801.65395  0.044655411  0.043995689            6 
 1497000   0.64747805   -4.2772399    801.06078  0.044592562  0.043970781           12 
 1498000   0.66524265   -4.2846287      800.839  0.044550456  0.043946016           13 
 1499000   0.66923251   -4.2885605    801.47569  0.044556131  0.043921114            7 
 1500000   0.62997892    -4.286958    801.11779  0.044506544  0.043896136            7 
 1501000   0.67629989   -4.2874578    800.36627  0.044435169  0.043871145            7 
 1502000   0.66437899   -4.3149796     801.6111  0.044474651   0.04384617            7 
 1503000   0.65596702    -4.306613     800.5152  0.044384298  0.043821273            3 
 1504000   0.66116618   -4.2635229    803.19312  0.044503165  0.043796449            5 
 1505000   0.66245104   -4.2822468    800.82886  0.044342683  0.043771654            5 
 1506000   0.65215394   -4.2945956    802.46201  0.044403608    0.0437469            5 
 1507000   0.64784092   -4.3097836    802.39756   0.04437058   0.04372195            7 
 1508000   0.65403399   -4.2973747    801.98792  0.044318519  0.043696848            6 
 1509000   0.65006819   -4.2831501    802.72273  0.044329729  0.043672089            9 
 1510000   0.65441063   -4.2820118    803.78046  0.044358745  0.043647394            6 
 1511000   0.65585443    -4.293536    803.12076  0.044293005  0.043622621            6 
 1512000   0.66362147   -4.2923957      802.601  0.044235064  0.043597738            7 
 1513000   0.64115165   -4.3077565    802.59812  0.044205669  0.043572677            8 
 1514000   0.63520134   -4.3007366    804.03445  0.044255529  0.043547761            5 
 1515000   0.65823805   -4.2813188    804.77046  0.044266802  0.043522965            7 
 1516000   0.65396232   -4.2779742     801.6905  0.044068299  0.043498249            6 
 1517000   0.65552578   -4.2828137    803.73715  0.044151678   0.04347324            5 
 1518000   0.65014071   -4.3158709    802.04188  0.044029528    0.0434484            8 
 1519000   0.64946827   -4.2953446    805.56857  0.044194019  0.043423608           14 
 1520000   0.64932041   -4.2958849    803.75198   0.04406535  0.043398856            6 
 1521000   0.63813234   -4.2909212    803.23941  0.044008295  0.043374162            6 
 1522000   0.64103543   -4.3011427    804.73185  0.044061095  0.043349443           12 
 1523000   0.64046165   -4.3114468    804.36146  0.044011899  0.043324863            7 
 1524000   0.64025193    -4.315522    802.70766  0.043892589  0.043300126            5 
 1525000   0.66197704   -4.2929093    806.45745  0.044068713  0.043275406           11 
 1526000   0.64185712   -4.2982144    802.67813   0.04383345  0.043250683            9 
 1527000   0.64856256   -4.3187175    802.89056  0.043816337  0.043225953           12 
 1528000   0.63316464     -4.30631    803.71238  0.043832481  0.043201111            7 
 1529000   0.65102815   -4.2961851     803.4339  0.043788636  0.043176286            6 
 1530000   0.65940122   -4.3205782    803.01367  0.043737128  0.043151541            6 
 1531000   0.63902767   -4.3315034    804.52125  0.043790619  0.043126577            6 
 1532000   0.63531003   -4.3094127    804.08661  0.043738393  0.043101726            4 
 1533000    0.6530396   -4.3263714    803.03077  0.043652466  0.043076915            6 
 1534000   0.63351747   -4.3143291    803.33535  0.043640555  0.043052012           10 
 1535000   0.64539382   -4.3265974    801.37386  0.043505638  0.043026938           20 
 1536000   0.64837593   -4.3218154    800.92732  0.043453088  0.043001772            4 
 1537000    0.6341542   -4.3159562    804.36396  0.043611145  0.042976784            6 
 1538000   0.64760456   -4.3248034    802.44705  0.043478926  0.042951886            8 
 1539000   0.63811287   -4.3331444    804.26641  0.043549188  0.042926821           15 
 1540000   0.64501875    -4.326196    802.53504  0.043427221  0.042901859            7 
 1541000   0.64060363   -4.3070889    803.55793  0.043454355  0.042876944            7 
 1542000   0.61513622   -4.3226131    803.82508  0.043440612  0.042851971            7 
 1543000   0.63951849   -4.3267138    804.40175  0.043443603  0.042826976            8 
 1544000   0.63752728   -4.3441252    803.56818  0.043370476  0.042801855            9 
 1545000   0.63942349   -4.3330657    804.55551  0.043395659  0.042776827           10 
 1546000   0.64229191   -4.3107352    802.80969  0.043273485  0.042752028           18 
 1547000   0.63613421   -4.3163586    805.30957  0.043380175  0.042727107            8 
 1548000   0.63938488   -4.3359908    804.34914  0.043300449  0.042702203            4 
 1549000   0.63405383   -4.3180113    805.37803  0.043327848  0.042677298           10 
 1550000   0.63669512    -4.314066    805.69517  0.043316944  0.042652522            7 
 1551000    0.6254392    -4.346154    802.70297  0.043128249  0.042627503           12 
 1552000   0.64302214   -4.3196548    805.28258   0.04323897  0.042602433           15 
 1553000   0.63387785   -4.3241432    807.29535  0.043319132   0.04257733            9 
 1554000   0.63152284   -4.3207389    804.49789  0.043141243  0.042552464           19 
 1555000   0.63050696   -4.3391861    802.94013  0.043030018   0.04252746           13 
 1556000   0.63304295    -4.335176    805.83438  0.043157368  0.042502387           16 
 1557000   0.61896289   -4.3366947    804.36124  0.043050805  0.042477309            8 
 1558000   0.63078302   -4.3421806    804.51068  0.043031166  0.042452365           14 
 1559000   0.64382576   -4.3294145    806.26838  0.043097519  0.042427219            9 
 1560000   0.62903472   -4.3355116    805.60294  0.043034345   0.04240222            4 
 1561000   0.64122088   -4.3453417    804.69975   0.04295856  0.042377273           12 
 1562000   0.61804593   -4.3200886    804.01037  0.042894279  0.042352324            9 
 1563000   0.63877002   -4.3383974    806.26149  0.042986857   0.04232744            5 
 1564000   0.61353307   -4.3510868    806.76233  0.042986058  0.042302572            7 
 1565000   0.62127638   -4.3459686    805.67152  0.042900507  0.042277658            6 
 1566000   0.62411012   -4.3421331    806.70834  0.042928285  0.042252825            6 
 1567000   0.63324331   -4.3357328    806.95183  0.042913839     0.042228           14 
 1568000   0.63076307    -4.337042    806.37846  0.042855998  0.042203129            9 
 1569000   0.62317692   -4.3334219    806.50885  0.042835609  0.042178401            8 
 1570000   0.63427249   -4.3554077    806.08495  0.042785825  0.042153821            8 
 1571000   0.61709645   -4.3463513    805.57056  0.042731305  0.042129216            6 
 1572000   0.61919205   -4.3471996    807.06061  0.042783111  0.042104513            3 
 1573000   0.64562779   -4.3297914    809.14625  0.042866404  0.042079864           17 
 1574000   0.61983262   -4.3568038    806.81126  0.042715547  0.042055369            7 
 1575000   0.62525089   -4.3381583    808.70573  0.042788663   0.04203076            6 
 1576000   0.62710482   -4.3389205    808.72195   0.04276237  0.042006113            5 
 1577000   0.61468059   -4.3560122    808.04472  0.042699467   0.04198135            8 
 1578000   0.62608552    -4.345169    807.53009  0.042645231  0.041956599            5 
 1579000   0.63303209   -4.3381999    807.52826  0.042618126  0.041931897            7 
 1580000   0.63152643   -4.3528307    806.81217  0.042553385   0.04190734           12 
 1581000   0.62192097   -4.3577813    807.39557   0.04255722  0.041882631           10 
 1582000    0.6063529   -4.3706806    806.62082  0.042489508  0.041858149            8 
 1583000   0.62323122   -4.3611581    810.03859  0.042642588  0.041833524           14 
 1584000   0.61369326   -4.3516055    808.63252  0.042541694  0.041808887            5 
 1585000    0.6203667    -4.360424    805.90541  0.042371472  0.041784176           12 
 1586000   0.62900675   -4.3552627    807.94789  0.042452075   0.04175947            9 
 1587000   0.62138874   -4.3441724    809.69601  0.042517119  0.041734978           10 
 1588000   0.62180063   -4.3564469      808.849  0.042445896  0.041710464            6 
 1589000   0.62237141   -4.3521602    808.19644  0.042384961  0.041685977            9 
 1590000   0.62512199   -4.3467107    809.03497  0.042402252  0.041661531            8 
 1591000   0.60817594   -4.3549819    809.12849  0.042380499  0.041637141           12 
 1592000   0.61745236   -4.3693619    808.62821  0.042327691  0.041612774           15 
 1593000   0.62501935   -4.3581886    808.86799  0.042313663  0.041588337            8 
 1594000   0.60997827   -4.3760744    806.06423  0.042140539  0.041563778           22 
 1595000   0.61450367   -4.3520643    809.03476  0.042269319  0.041539176           10 
 1596000   0.61089704   -4.3727219    807.99245  0.042188411  0.041514787            4 
 1597000   0.61030914   -4.3814136    807.86726  0.042155461  0.041490107            9 
 1598000   0.61362972   -4.3679092    809.38673  0.042208319  0.041465464           11 
 1599000   0.60944134   -4.3757164    809.26156  0.042175399  0.041440888           19 
 1600000   0.61813633   -4.3413815    811.84687  0.042283691  0.041416429            6 
 1601000   0.60586038   -4.3545366    806.47977  0.041977918  0.041392043            7 
 1602000   0.61850284   -4.3798301    807.08812   0.04198336   0.04136745            7 
 1603000   0.61059892   -4.3669261     807.9205  0.042000442  0.041342799           17 
 1604000   0.61738562   -4.3481977    810.59571  0.042113244  0.041318259            6 
 1605000    0.6203875   -4.3576535    807.94678  0.041949469  0.041293761            6 
 1606000   0.61700659   -4.3688733    806.88377  0.041868191  0.041269141            8 
 1607000   0.61027537   -4.3592103    807.71075  0.041885021  0.041244711           12 
 1608000   0.61549131   -4.3577086     809.4184  0.041947471  0.041220296           11 
 1609000   0.60133582   -4.3738259     807.6293   0.04182874  0.041195889            7 
 1610000   0.61131886   -4.3748749    812.00437  0.042029212  0.041171394            5 
 1611000   0.59970951   -4.3893927    808.75664  0.041835125  0.041146823            3 
 1612000    0.6102607   -4.3982843    808.80701  0.041811777  0.041122492           26 
 1613000   0.60889079   -4.3666459    811.44986  0.041922394  0.041098102            7 
 1614000   0.60417183   -4.3791587    809.59328  0.041800562  0.041073908            5 
 1615000   0.61538787   -4.3582242    809.35416  0.041762341  0.041049697            8 
 1616000   0.61406064   -4.3993375      809.969  0.041768203  0.041025338           16 
 1617000    0.6095846   -4.3957445     808.9295  0.041688801  0.041001011           23 
 1618000   0.60563067   -4.3899129    809.29538   0.04168188  0.040976512           12 
 1619000   0.60656436   -4.3798787    810.93433  0.041740495  0.040952189            7 
 1620000   0.60516704   -4.3785619    809.94904  0.041664045  0.040927962           15 
 1621000   0.61214911   -4.3924892    809.49633  0.041615069  0.040903689           11 
 1622000   0.61610608   -4.3947803    808.78129  0.041552676  0.040879399           19 
 1623000   0.59268075   -4.4082203      813.534  0.041771103  0.040855255           10 
 1624000   0.59844541   -4.3833506    813.17664  0.041727045  0.040831213           21 
 1625000   0.60901515   -4.4040991    810.31643  0.041554688  0.040807163            8 
 1626000    0.6056429   -4.3950905    811.98263  0.041614526  0.040783044            9 
 1627000   0.61013558   -4.3749364    812.30508  0.041605464  0.040758903            7 
 1628000    0.5885117   -4.3892069    811.67331  0.041547569  0.040734825           27 
 1629000   0.59287885   -4.3980767    811.70107  0.041523484  0.040710674           15 
 1630000   0.60507199   -4.3829263    813.02752  0.041565824  0.040686701            9 
 1631000   0.59841086   -4.3935417    812.35299  0.041505875  0.040662705            9 
 1632000   0.59267759   -4.3966053    813.65507   0.04154693  0.040638821            8 
 1633000   0.61143956   -4.3963024    812.90722  0.041483324  0.040614902            8 
 1634000   0.60380663   -4.4021059    812.63039  0.041443819  0.040590881           10 
 1635000   0.60483132   -4.3987689     811.8937  0.041380922  0.040567022           13 
 1636000   0.60133093   -4.3907945    813.49488  0.041437188  0.040543104            5 
 1637000   0.60607676   -4.3770079    811.71785  0.041321414  0.040519202            6 
 1638000   0.59593087    -4.398819    813.54885  0.041389339  0.040495396            7 
 1639000   0.59487442   -4.4139476    813.05785  0.041339122  0.040471601           11 
 1640000   0.59412868   -4.4225705      813.746  0.041348882  0.040447808           16 
 1641000   0.60759346   -4.3964809    812.00851  0.041235451  0.040423878           25 
 1642000   0.58865793   -4.3965535    812.57183  0.041238928  0.040400044           15 
 1643000    0.6051982   -4.4060967    813.31707  0.041251627  0.040376278           13 
 1644000   0.59396242   -4.3992114    815.76244  0.041350489  0.040352609            8 
 1645000   0.60204219   -4.3943779    814.62843  0.041267904  0.040328932            5 
 1646000   0.59339105   -4.3980502    814.60676  0.041241736  0.040305215            9 
 1647000   0.59570351   -4.3887249     813.2473  0.041147911  0.040281456            6 
 1648000   0.60670078   -4.4084335    813.64717  0.041143162  0.040257686           10 
 1649000   0.59068443   -4.3850897    814.49445  0.041161029  0.040234057           11 
 1650000   0.58332048   -4.4064673    813.34101  0.041077829  0.040210327           11 
 1651000   0.59391991   -4.4124421     812.2275  0.040996744  0.040186595           12 
 1652000   0.59059244   -4.4066301    813.00286   0.04101104  0.040162882           11 
 1653000   0.60511472   -4.4148892    812.40141  0.040955909  0.040139112           14 
 1654000   0.59345642   -4.4284128    814.98587   0.04106136   0.04011538           15 
 1655000   0.59469109   -4.4176383    812.44403  0.040908562  0.040091631            5 
 1656000   0.58651943    -4.437558    814.42582  0.040983586  0.040067823           21 
 1657000   0.58480755   -4.4118803    816.04031  0.041040048   0.04004414           11 
 1658000   0.59452776   -4.4047588    814.12235  0.040918896  0.040020605            8 
 1659000   0.59153506   -4.4018691    816.91168  0.041034342  0.039996866            3 
 1660000   0.57107191   -4.4076069    813.74176   0.04085049  0.039973263            9 
 1661000   0.59303138   -4.4006016    814.96733  0.040887384  0.039949647           27 
 1662000   0.59647903   -4.4205726    814.69195  0.040848974  0.039926102           11 
 1663000   0.58507935    -4.404179    816.16109   0.04089803  0.039902647            7 
 1664000   0.59507515   -4.4158064    815.40626   0.04083565  0.039879209           13 
 1665000   0.59416941   -4.4104114    815.35078  0.040808348  0.039855733           28 
 1666000   0.59761249   -4.4134428     817.4293   0.04088782  0.039832329           11 
 1667000   0.58348746   -4.4434876    814.68228  0.040725969  0.039808794           15 
 1668000   0.59814135   -4.4217347    815.56852  0.040745829  0.039785164           13 
 1669000   0.57589458   -4.4285848    816.25719  0.040755801  0.039761659           10 
 1670000   0.60079561   -4.4321862    812.07182  0.040522546  0.039737905            9 
 1671000   0.59136757   -4.4306971    811.41398  0.040465489  0.039714203           14 
 1672000   0.58001797   -4.4613496    813.28655  0.040534617  0.039690505            7 
 1673000    0.5872818   -4.4277437     817.0767  0.040699178  0.039666914            9 
 1674000   0.58174647   -4.4413598     814.1953  0.040531426  0.039643471            9 
 1675000   0.58458578   -4.4552039    812.99659  0.040447592  0.039619855           17 
 1676000   0.58448306   -4.4276308    814.85308  0.040515766  0.039596101            8 
 1677000   0.59453219   -4.4339187    815.43917   0.04052073  0.039572601           15 
 1678000   0.59948855   -4.4283224    814.30834  0.040440422  0.039549191           18 
 1679000   0.58411821   -4.4153918    817.43729  0.040571634  0.039525815            9 
 1680000   0.59043685   -4.4124467    818.71217  0.040610723   0.03950245           13 
 1681000   0.57674974   -4.4380265    815.92529  0.040448408  0.039479072            7 
 1682000   0.58113414   -4.4265826    815.49256  0.040402921  0.039455569           10 
 1683000   0.59170735   -4.4532374    816.62162   0.04043482  0.039432073           13 
 1684000   0.58573996   -4.4351005    815.20156  0.040340536  0.039408639           15 
 1685000   0.57750512    -4.453366    815.54909  0.040333783  0.039385169            6 
 1686000   0.58377146   -4.4581993    816.17575  0.040340834  0.039361663           12 
 1687000   0.56987902    -4.432774    817.07092   0.04036114  0.039338121            8 
 1688000   0.57124781   -4.4526417     814.0136  0.040186295  0.039314505           10 
 1689000   0.58616515   -4.4671728    815.91039  0.040256088  0.039290862           13 
 1690000   0.57735649   -4.4483873    815.14303   0.04019443  0.039267353           19 
 1691000   0.57399084   -4.4352992    815.21818  0.040174363  0.039243811           16 
 1692000   0.59442696   -4.4548185    814.27147  0.040103993  0.039220332           12 
 1693000   0.58070109   -4.4466777    816.39778  0.040184967  0.039197021            9 
 1694000    0.5792774   -4.4394409    815.28929  0.040106714  0.039173655            9 
 1695000   0.58077957   -4.4311963    815.96645  0.040116345   0.03915038            6 
 1696000   0.56931513   -4.4112211    816.06664  0.040097614  0.039127117           30 
 1697000   0.56163555   -4.4382388     817.2352  0.040131369  0.039103897           11 
 1698000   0.58404797   -4.4657991    814.40313  0.039968744  0.039080545           14 
 1699000   0.56977607    -4.439305    816.29325  0.040037927  0.039057174           12 
 1700000   0.57105165   -4.4401425    817.01256  0.040049635  0.039033803           18 
 1701000   0.56542262   -4.4589591    815.19207  0.039936903  0.039010486            8 
 1702000   0.57485519   -4.4603097    814.32246  0.039870861  0.038987204           18 
 1703000   0.57470378   -4.4490907    816.45998  0.039952044  0.038963949           12 
 1704000   0.57386964    -4.455689    817.25693  0.039967573  0.038940706           28 
 1705000   0.58298282   -4.4278697     817.7092  0.039966237   0.03891743           19 
 1706000   0.58027377   -4.4669405    815.61024  0.039840281  0.038894296            7 
 1707000   0.56867185   -4.4531646    816.86955   0.03987842  0.038871174           10 
 1708000    0.5724446   -4.4458302    818.75726  0.039947173  0.038848046           20 
 1709000   0.56613547   -4.4590413    818.27578  0.039900321  0.038824844            7 
 1710000   0.57087056    -4.462326    817.60902  0.039844494   0.03880177           20 
 1711000   0.57392614   -4.4240028    817.85064  0.039832975  0.038778679           11 
 1712000   0.58762351   -4.4683545    816.60241  0.039748949  0.038755663           13 
 1713000   0.56228567   -4.4730234    817.21902  0.039755741  0.038732504           12 
 1714000   0.55541533   -4.4699623       819.28   0.03983275  0.038709334           17 
 1715000   0.57822081   -4.4442843    818.42843  0.039768145  0.038686393           22 
 1716000   0.56853842   -4.4615776    815.86166  0.039620321  0.038663373           12 
 1717000   0.56241263   -4.4529475     818.7035  0.039735173  0.038640248           14 
 1718000   0.56603299   -4.4638792    816.61062  0.039610527  0.038617248           24 
 1719000   0.56195204   -4.4732786    817.40843   0.03962616  0.038594103            8 
 1720000    0.5649705   -4.4578151    820.26467  0.039741505  0.038571079            7 
 1721000   0.55726711   -4.4638638    817.93217   0.03960547  0.038548063            9 
 1722000   0.56298234   -4.4699948    817.39203  0.039556331  0.038525087           11 
 1723000   0.56741208    -4.441746    818.37576  0.039580952  0.038502255            4 
 1724000   0.56990104   -4.4741506    818.96913  0.039586675  0.038479308            8 
 1725000   0.57033287   -4.4758152     818.1378  0.039523565  0.038456206            8 
 1726000   0.56603661   -4.4840427    817.13994  0.039452488  0.038433159           34 
 1727000   0.55920591   -4.4764593    818.58877  0.039499555  0.038410067            8 
 1728000   0.56310545   -4.4590079    818.07096  0.039451724   0.03838707           17 
 1729000   0.56057032   -4.4561121    819.16538  0.039481655    0.0383641           10 
 1730000    0.5583755   -4.4630858    817.51408  0.039379291  0.038341213           12 
 1731000   0.56125545   -4.4646919     820.5868  0.039504467  0.038318351           30 
 1732000   0.56425365   -4.4697308    818.04987  0.039359597  0.038295427           11 
 1733000   0.55719098   -4.4666444    816.66739  0.039270407  0.038272499            7 
 1734000   0.55704108    -4.493844    817.80076  0.039302228  0.038249603            5 
 1735000   0.55810163   -4.4944453    817.04547  0.039243298  0.038226616            7 
 1736000   0.54903749   -4.4699531    818.90923  0.039310159  0.038203652           10 
 1737000   0.56287664   -4.4700197    817.67847  0.039228482  0.038180754           18 
 1738000   0.55412278   -4.4760194    818.88467  0.039263745  0.038157917            9 
 1739000   0.55177191   -4.4653798    819.87168  0.039288465  0.038135275           10 
 1740000   0.56212854   -4.4720117    819.55107   0.03925053  0.038112682           24 
 1741000     0.557577   -4.4809894    818.35177   0.03917058   0.03808988            8 
 1742000   0.55900919   -4.4774943    820.48874  0.039250322  0.038067208           12 
 1743000   0.56526915   -4.4904292    820.06303   0.03920745  0.038044514           28 
 1744000   0.55463971   -4.4865708    820.89897  0.039224913  0.038021834           16 
 1745000   0.55765137   -4.4866883    818.20447  0.039073757  0.037999188           17 
 1746000   0.54882404   -4.4869422    819.24377  0.039100982  0.037976636           11 
 1747000     0.559332    -4.488927    821.20426  0.039172117  0.037954074            9 
 1748000   0.54856189   -4.4900621    820.29227  0.039106229  0.037931566           28 
 1749000   0.54636825   -4.4928182    823.02817  0.039214226   0.03790901           13 
 1750000   0.56343929   -4.5039008    821.24951  0.039107119  0.037886576           11 
 1751000   0.54799085   -4.4777361    820.88176  0.039067283  0.037864215            8 
 1752000   0.55712035   -4.4963389    820.27784   0.03901626  0.037841807            9 
 1753000   0.55264586   -4.4826132    822.41441   0.03909557  0.037819455           11 
 1754000   0.55288029   -4.5043571    823.47482  0.039123661  0.037797068            4 
 1755000   0.55918147   -4.5104485    820.04667  0.038938588  0.037774788           27 
 1756000   0.56362297   -4.5028289    820.35934  0.038931252  0.037752423           10 
 1757000   0.54295659   -4.4961542    823.26022  0.039046681  0.037730195           32 
 1758000   0.55693723   -4.5186676    821.11784  0.038922916  0.037707917            8 
 1759000   0.55253792   -4.5007581    820.12831  0.038853909  0.037685653            9 
 1760000   0.55142586   -4.4919297    822.23627  0.038931642  0.037663449           20 
 1761000   0.55732171   -4.4781399    822.45095  0.038919693  0.037641313           31 
 1762000   0.55530196   -4.4913172    822.84482  0.038916232  0.037619117           16 
 1763000   0.54710499   -4.4965782    824.25133  0.038960641   0.03759697           21 
 1764000   0.54927057   -4.5038548    821.57351  0.038812052   0.03757474           15 
 1765000   0.55056688   -4.5093415    822.95111  0.038855104  0.037552594           18 
 1766000   0.54705813   -4.5052294    822.99251  0.038835056  0.037530443           18 
 1767000   0.56170352   -4.4869897     821.4439  0.038740044   0.03750826           10 
 1768000    0.5549622   -4.4983596    822.71413  0.038778004  0.037486095           15 
 1769000   0.53713618   -4.4999902    822.13735  0.038728912  0.037464056           14 
 1770000   0.54100582   -4.5002938    824.19596  0.038803953  0.037442129            9 
 1771000   0.55621791   -4.5209437    820.88672  0.038626328  0.037419958           13 
 1772000   0.54061334   -4.5046686    822.61612   0.03868586  0.037397807            9 
 1773000   0.55460791   -4.5127385    822.91308  0.038677998  0.037375654           12 
 1774000   0.56081451   -4.5183966    822.30583  0.038627669  0.037353496           46 
 1775000   0.53487704   -4.5079055    821.53026  0.038569496  0.037331258           17 
 1776000   0.55841803   -4.5139741    821.54725  0.038548576  0.037309147           20 
 1777000   0.54740483   -4.5134709     823.4854  0.038617773  0.037286903           37 
 1778000   0.54946413   -4.5183291    820.87941  0.038473913  0.037264641           23 
 1779000   0.53793192   -4.5095219    820.68875  0.038443355  0.037242505           14 
 1780000   0.54478881   -4.5012563    822.68746   0.03851533  0.037220469            8 
 1781000   0.54549249    -4.509562    822.18648  0.038470264  0.037198395           14 
 1782000   0.55216622   -4.5188701    822.80868  0.038477772  0.037176361           11 
 1783000   0.53048233   -4.5119918    822.88251  0.038459642  0.037154301           11 
 1784000   0.54669138   -4.5297187    822.95072   0.03844127   0.03713223           43 
 1785000   0.54193536    -4.505219    822.54204  0.038400655  0.037110202           17 
 1786000   0.51763909   -4.5239015    822.98057  0.038399616   0.03708817            8 
 1787000   0.53187359   -4.5120114    823.49934  0.038402319  0.037066187            8 
 1788000    0.5310675   -4.5061064    821.28644  0.038277705  0.037044291           13 
 1789000   0.53507987   -4.5180828      823.208  0.038345817  0.037022284           11 
 1790000   0.54538028   -4.5145764     823.6227  0.038343701  0.037000315            8 
 1791000   0.53620787   -4.5082597    824.96412  0.038384707  0.036978394            8 
 1792000   0.53691665   -4.5024357     822.5103  0.038249177  0.036956421            5 
 1793000   0.54879434   -4.4983628    824.66663  0.038328064  0.036934537           16 
 1794000   0.53588495   -4.5289905    823.51204  0.038253068   0.03691267           14 
 1795000   0.52790769   -4.5118482    824.25553  0.038266273  0.036890772           23 
 1796000   0.53537021     -4.53762     822.4567  0.038161502  0.036868841           11 
 1797000   0.52724361   -4.5167427    822.86522  0.038159211  0.036846889           15 
 1798000   0.51593491   -4.5388864    821.98741  0.038097303  0.036824971           25 
 1799000   0.52862872   -4.5282034    822.07519  0.038080192  0.036803099           15 
 1800000   0.53533418   -4.5260025    825.40923   0.03821339  0.036781284           20 
 1801000   0.53892276    -4.536151    823.39298  0.038098879  0.036759454            7 
 1802000   0.53917862   -4.5222993     825.6701  0.038183042  0.036737698           13 
 1803000   0.53921102   -4.5239483    822.62767  0.038021246  0.036715887           17 
 1804000   0.53612759   -4.5286011    823.26685  0.038029695  0.036693976            9 
 1805000   0.52999799   -4.5413956    825.15174  0.038095648  0.036672135            9 
 1806000    0.5371559   -4.5018785    823.47297  0.037997091  0.036650235           20 
 1807000   0.53768491   -4.5389024    822.58091  0.037934925  0.036628337           14 
 1808000   0.53113085   -4.5459451    823.24606  0.037944601  0.036606513           11 
 1809000    0.5337521   -4.5423279    822.17052  0.037874079   0.03658462           16 
 1810000   0.52330349   -4.5509991    823.33989  0.037906993  0.036562695           19 
 1811000   0.54300798   -4.5308921    823.22756  0.037880892  0.036540775           14 
 1812000   0.53806264   -4.5301369    824.10838  0.037900496  0.036518889           16 
 1813000   0.54954042   -4.5374798    822.61663  0.037811023  0.036496913           13 
 1814000   0.52213922   -4.5602279    822.34023  0.037777482  0.036474917           23 
 1815000   0.54016033   -4.5252748    822.99925  0.037786926  0.036452932            8 
 1816000   0.52501259   -4.5469868    822.41124  0.037739136  0.036431005           23 
 1817000   0.54217101   -4.5454358    822.58744  0.037726446   0.03640908           29 
 1818000    0.5056935   -4.5477494    822.66221  0.037709122  0.036387216           21 
 1819000   0.53488189   -4.5387313    821.09759  0.037616712  0.036365377           12 
 1820000    0.5222839   -4.5505373    823.51756  0.037706848  0.036343532           11 
 1821000   0.52778133   -4.5348328    821.37536  0.037588109  0.036321676           27 
 1822000   0.52081652   -4.5397022    823.03482  0.037643378   0.03629985           21 
 1823000    0.5152523   -4.5460184    823.12501  0.037626852  0.036277976           18 
 1824000   0.53417777   -4.5634187    821.92555  0.037551423  0.036256051           28 
 1825000   0.52378233   -4.5490035    819.69108  0.037428816  0.036234059           26 
 1826000   0.52780926   -4.5596543    822.41184  0.037532486  0.036212059           20 
 1827000   0.52830514   -4.5717321    822.01783  0.037493971  0.036190144           23 
 1828000   0.52883081   -4.5344089    822.30322  0.037486471  0.036168229            7 
 1829000   0.51937074   -4.5669533    821.99581  0.037451969   0.03614627           15 
 1830000   0.52016428   -4.5564285    820.86862  0.037380174  0.036124305           36 
 1831000    0.5213448   -4.5578245    822.36903  0.037428046  0.036102395           13 
 1832000   0.51140777   -4.5512688    821.04969  0.037347602  0.036080542           18 
 1833000   0.51839379   -4.5511533    822.09902  0.037374933  0.036058651           14 
 1834000   0.53141504    -4.546035    823.27657  0.037408059   0.03603687           14 
 1835000   0.53226705   -4.5653444    821.39002  0.037301999   0.03601514           17 
 1836000   0.52596107   -4.5696311    822.31299  0.037323575  0.035993264           26 
 1837000   0.53367371   -4.5811545    821.32686  0.037258522  0.035971378           17 
 1838000   0.51187782   -4.5559279    823.39986  0.037332239   0.03594952           34 
 1839000   0.50342055    -4.568089    821.78097  0.037238579  0.035927641            9 
 1840000   0.52291007   -4.5739304    822.51035  0.037251374  0.035905864           24 
 1841000   0.52917668   -4.5506149     822.4465   0.03722825  0.035884218           16 
 1842000    0.5179885   -4.5573681    820.97793    0.0371416  0.035862434           14 
 1843000   0.51980003   -4.5681053    822.52963  0.037191609  0.035840611           14 
 1844000   0.53645967   -4.5677954    821.48969  0.037124444  0.035818786           21 
 1845000   0.51420156   -4.5619637    822.15678  0.037134453  0.035797042           14 
 1846000   0.52133491   -4.5754857    822.06338   0.03711012  0.035775224           24 
 1847000   0.50628425   -4.5608737    821.22076   0.03705201  0.035753456           20 
 1848000   0.51202114   -4.5714887     820.6042  0.037004158  0.035731707           15 
 1849000   0.52740867   -4.5888941    821.37232  0.037018763  0.035709946           15 
 1850000   0.51562722   -4.5724469    822.86829  0.037066139  0.035688129           24 
 1851000   0.51289853   -4.5748622    822.66457  0.037036943  0.035666363            9 
 1852000   0.51687294    -4.556234    821.24802  0.036953204  0.035644589           10 
 1853000   0.51500855   -4.5787697    821.68172  0.036952767  0.035622678           13 
 1854000   0.51009776    -4.589935    821.92567    0.0369438   0.03560087           14 
 1855000   0.50855866   -4.5649429    821.18612  0.036890661  0.035579003           14 
 1856000   0.50691181   -4.5673284    820.87082  0.036856628  0.035557263            9 
 1857000   0.51880796   -4.5761174    821.55364  0.036867422  0.035535524            9 
 1858000   0.51026095   -4.5837234    822.57129  0.036893223   0.03551378           20 
 1859000    0.5092108    -4.592493     821.3238  0.036817456  0.035491918           34 
 1860000   0.51236034   -4.5837248    821.38529  0.036800416  0.035470164           28 
 1861000   0.50207575   -4.5777052    822.48179  0.036829742  0.035448362           29 
 1862000    0.5100962   -4.5790947    821.16915  0.036751215   0.03542663            9 
 1863000    0.5177821   -4.5744142    822.88365  0.036808179   0.03540486           13 
 1864000   0.50440691   -4.5820846    822.09973  0.036753386  0.035383205           17 
 1865000   0.50242483   -4.5802668    822.02175  0.036730194  0.035361481           23 
 1866000   0.50982533   -4.5834463    822.29442  0.036722687  0.035339803           16 
 1867000   0.50531198   -4.5928457    819.59049  0.036582328  0.035318067           20 
 1868000   0.50389566   -4.5828741    822.33497  0.036685179  0.035296403           43 
 1869000   0.50186684   -4.5845587    822.58933  0.036676892  0.035274819           29 
 1870000   0.50318719    -4.615465    819.99415  0.036541629  0.035253092           41 
 1871000   0.50125568   -4.5930554    822.38938  0.036628781  0.035231417           26 
 1872000   0.50936572   -4.5910898    821.50258  0.036569737  0.035209786           13 
 1873000   0.51148622   -4.5905326    822.29993  0.036585688  0.035188119           39 
 1874000   0.50108863   -4.5845111    822.76855  0.036587004  0.035166483           15 
 1875000   0.50344844   -4.5900971    820.21974  0.036454211  0.035144856            8 
 1876000   0.50480013   -4.5870236    819.75643  0.036414198  0.035123255           14 
 1877000   0.49547735   -4.5853779    824.01922  0.036584053  0.035101664           13 
 1878000   0.50620795   -4.5903466    821.42933  0.036449651  0.035080049           32 
 1879000   0.51014673   -4.6002764     821.5421  0.036435253  0.035058394           32 
 1880000   0.50431389   -4.6028477    821.42937  0.036410876  0.035036723           15 
 1881000   0.49977141   -4.5796527     822.8292  0.036453535   0.03501509           19 
 1882000   0.51669862   -4.5907682    821.67566  0.036383088   0.03499347           17 
 1883000   0.48674041   -4.5922623    820.44011  0.036309086  0.034971861           32 
 1884000   0.51656013    -4.601604     821.2721  0.036326615  0.034950254           17 
 1885000   0.49710087   -4.5998263    820.98897  0.036294826  0.034928683           44 
 1886000   0.50834351   -4.6048046    821.62565  0.036303714  0.034907092           62 
 1887000   0.48396048   -4.6100887    820.49531  0.036234557   0.03488545           38 
 1888000   0.50089365   -4.5822957    820.95988   0.03623587  0.034863837           31 
 1889000   0.49269105   -4.6099586    820.85072  0.036211872  0.034842249           16 
 1890000    0.5043007     -4.59815    821.27778  0.036211543  0.034820685           15 
 1891000   0.49739593   -4.6047747    821.11084  0.036185036  0.034799154           33 
 1892000   0.51553017   -4.6081355    820.96111  0.036159316  0.034777595           23 
 1893000   0.48589571   -4.5956815    821.99667  0.036185802  0.034756135           12 
 1894000   0.49848097   -4.5787708    824.43081  0.036273795  0.034734787           18 
 1895000   0.50143935   -4.6048271    820.06741  0.036062771  0.034713353           20 
 1896000   0.50186411   -4.6040668    822.34663  0.036143927    0.0346919           27 
 1897000    0.4993961   -4.6025698    821.55677  0.036090176   0.03467046           40 
 1898000   0.48941245   -4.6168945     820.1845  0.036010911  0.034648947           23 
 1899000   0.48375075    -4.607539    820.90173  0.036023422  0.034627444           29 
 1900000   0.49623485   -4.6004721     822.3127  0.036066346   0.03460593           34 
 1901000   0.48970122   -4.5967469    821.22289  0.035999601  0.034584499           44 
 1902000   0.48966708   -4.6056574    820.76775  0.035960732  0.034563091           46 
 1903000   0.49901249   -4.6070059    821.45949  0.035972127   0.03454161           65 
 1904000   0.49856483   -4.6059513    820.01479  0.035890003  0.034520071           22 
 1905000   0.49843556   -4.6178511    820.11023  0.035875338  0.034498489           22 
 1906000   0.49273917   -4.6112001    819.33888  0.035822791  0.034476938           48 
 1907000   0.49446549   -4.5955613    820.38629  0.035849777  0.034455435           23 
 1908000   0.49446126   -4.5978947    820.36562  0.035830085  0.034433975           22 
 1909000   0.49196969   -4.6181873    819.94534  0.035792969  0.034412566           16 
 1910000   0.48719412    -4.622733    821.20759  0.035829301  0.034391122           32 
 1911000   0.49638424   -4.6112088    822.82746  0.035881191  0.034369728           51 
 1912000   0.49784131   -4.6220791    821.54298  0.035806441  0.034348386           25 
 1913000   0.48522736   -4.6220842    820.11966  0.035725721  0.034326967           15 
 1914000   0.49517141   -4.6182444    820.25169  0.035712804  0.034305515           47 
 1915000   0.49152767   -4.6308236     821.0599  0.035729326  0.034284095           21 
 1916000   0.48727322   -4.6435862    820.83064  0.035700706  0.034262608           25 
 1917000   0.47881844   -4.6136254    820.48655  0.035667125  0.034241142           45 
 1918000   0.48104611   -4.6090137    819.76465  0.035617164  0.034219742           42 
 1919000    0.4767154   -4.6419519    820.15754  0.035615665  0.034198388           43 
 1920000    0.4939142   -4.6334563    820.01048  0.035590733   0.03417697           57 
 1921000   0.48328121   -4.6131359    819.10163  0.035532779  0.034155585           23 
 1922000   0.49985864   -4.6489734    819.97337  0.035552088  0.034134175           26 
 1923000   0.48917609   -4.6407404    820.40965  0.035552507  0.034112765           26 
 1924000    0.4792775   -4.6411735    820.06395  0.035519055  0.034091385           54 
 1925000   0.47940515    -4.638087    817.99927  0.035411224  0.034070016           25 
 1926000   0.47350071   -4.6547025    819.11339  0.035441043  0.034048628           66 
 1927000   0.48418443   -4.6509181    818.76389  0.035407537  0.034027225           31 
 1928000   0.48955141    -4.659461    821.10773  0.035490479  0.034005744           56 
 1929000   0.47428315   -4.6527787    820.96438  0.035465888  0.033984385           18 
 1930000   0.49219663    -4.619832    821.71985  0.035480132  0.033963106           27 
 1931000   0.48725501   -4.6301372     820.5204  0.035409995  0.033941915           31 
 1932000   0.48166236   -4.6162199    819.41781  0.035344109  0.033920728           61 
 1933000    0.4816278   -4.6473634    820.16553  0.035358059  0.033899534           45 
 1934000   0.48631442   -4.6516748     818.9057  0.035285492  0.033878303           59 
 1935000   0.48792547   -4.6465879    819.40791  0.035288885  0.033857069           38 
 1936000   0.47602276   -4.6346156    821.09634  0.035343334  0.033835781           36 
 1937000   0.47706027   -4.6400659    819.80838  0.035269677  0.033814561           40 
 1938000   0.47019442   -4.6481553    821.30101  0.035315661  0.033793335           47 
 1939000   0.47583209   -4.6419154    819.96607  0.035240075  0.033772124           12 
 1940000   0.48059162   -4.6380775     821.6072  0.035292405  0.033750998           32 
 1941000   0.47738922    -4.660558    821.62813  0.035275121  0.033729888           51 
 1942000   0.47464938   -4.6398004    820.83116  0.035222758  0.033708793           27 
 1943000   0.48102828   -4.6560761    820.87407  0.035206471  0.033687691           37 
 1944000   0.47479783    -4.648512    820.53508  0.035173829  0.033666627           36 
 1945000   0.47467257   -4.6386361    819.00698  0.035090273  0.033645534           83 
 1946000   0.48089115   -4.6409556    818.81893  0.035064189   0.03362445           56 
 1947000   0.49049084   -4.6511928    819.63008  0.035080897  0.033603363           37 
 1948000    0.4692921    -4.659439    821.15791  0.035128247  0.033582243           65 
 1949000   0.46763709   -4.6605922    819.67649  0.035046883  0.033561122           42 
 1950000   0.48426454   -4.6421718    820.92276  0.035082169  0.033540044           43 
 1951000   0.48956238   -4.6492657     821.1825  0.035075282  0.033519018           37 
 1952000   0.47699737   -4.6590184     820.0002  0.035006839  0.033497892           73 
 1953000   0.47766096    -4.653984    818.45493  0.034922979  0.033476766          139 
 1954000   0.48229306   -4.6613972    820.62962  0.034997851  0.033455683           68 
 1955000   0.46553788   -4.6534348    818.41448  0.034885528  0.033434548           76 
 1956000    0.4752776   -4.6551566     819.5556  0.034916309  0.033413405           36 
 1957000   0.47345281   -4.6522019    818.12507  0.034837552  0.033392336           66 
 1958000   0.46210666   -4.6554423    819.01088   0.03485746  0.033371268           94 
 1959000   0.47406748   -4.6767497    820.53422  0.034904467  0.033350184           96 
 1960000   0.46359539   -4.6613711    820.22218  0.034873392  0.033329171           91 
 1961000   0.47289803    -4.650512    818.97213  0.034802487  0.033308164          119 
 1962000    0.4607995   -4.6663416    817.05725  0.034703417  0.033287113           95 
 1963000   0.46054119   -4.6546486    821.70815  0.034883179  0.033266087          130 
 1964000   0.47040756   -4.6694908    817.87231  0.034702661   0.03324499          127 
 1965000   0.46412909   -4.6778045    817.75422  0.034679992  0.033223826          162 
 1966000    0.4725291   -4.6893882    818.76062  0.034705011  0.033202679          181 
 1967000   0.47211877   -4.6851474    817.56567  0.034636743  0.033181591          155 
 1968000   0.46799425   -4.6767165    816.78379  0.034586035  0.033160409          156 
 1969000   0.47173832   -4.6704354    818.90266  0.034658145   0.03313927          170 
 1970000    0.4667746    -4.694811    817.91852  0.034598922  0.033118131          199 
 1971000   0.46988217   -4.6642074    817.78521  0.034575732  0.033097012          151 
 1972000   0.46942938   -4.7014542    817.00495  0.034525226  0.033075917          183 
 1973000    0.4725515   -4.6876847    817.98986  0.034549327  0.033054798          158 
 1974000   0.45849704    -4.681749     818.8239  0.034567034  0.033033682          124 
 1975000   0.46428397   -4.6963863    817.47322  0.034492541  0.033012607          126 
 1976000   0.46340183   -4.6689938     817.1008  0.034459379  0.032991639          110 
 1977000   0.46373519   -4.6893517     819.3164   0.03453534  0.032970645          149 
 1978000   0.46151605   -4.6839212    818.16509  0.034469375  0.032949716          189 
 1979000   0.47031971   -4.6909406    817.43597  0.034421255  0.032928719          111 
 1980000   0.45703736   -4.7035276    818.74125  0.034458807  0.032907686          171 
 1981000   0.46215648   -4.6973079    817.57904  0.034392522   0.03288664          132 
 1982000   0.46328179   -4.6883755     815.5947  0.034291738  0.032865579           45 
 1983000   0.45023602   -4.6842891    818.39186  0.034391993  0.032844581           72 
 1984000   0.45247749     -4.68552    816.59177   0.03429905  0.032823574           71 
 1985000   0.47004164   -4.6823483    817.76613  0.034331072  0.032802609           66 
 1986000   0.45540466   -4.6951959    819.28416  0.034377482  0.032781662           75 
 1987000   0.45976394   -4.6839955    817.91854  0.034302908  0.032760693           78 
 1988000   0.46356361   -4.7000999    816.59838  0.034230315  0.032739726           89 
 1989000   0.45972859   -4.7033747    817.87426   0.03426656  0.032718796           26 
 1990000   0.45991081   -4.6922866    817.78087   0.03424543  0.032697879           50 
 1991000    0.4609914   -4.7039453    818.76637  0.034269478  0.032676937           22 
 1992000   0.45773233   -4.7058237    817.38299  0.034194402  0.032656015           34 
 1993000   0.45155846   -4.7057001    817.26066   0.03417213  0.032635077           45 
 1994000   0.46317565   -4.6835795    816.54346  0.034125019  0.032614213           23 
 1995000   0.46601486   -4.6932662    816.40766  0.034102241  0.032593375           30 
 1996000   0.45321888   -4.6973953    820.35563  0.034249984  0.032572515           26 
 1997000   0.44901968   -4.6896146    815.92803  0.034048073  0.032551642           57 
 1998000    0.4540739   -4.7059896    816.38374  0.034050039  0.032530774           14 
 1999000   0.46639641   -4.6845772    819.03453   0.03414351  0.032509999           27 
 2000000   0.45520796   -4.6950015    818.16114  0.034090048  0.032489207           23 
 2001000   0.46071447   -4.6865162    817.58397  0.034048974  0.032468411           69 
 2002000   0.45861262   -4.6942209     817.4828  0.034027756  0.032447571           54 
 2003000   0.45124591   -4.6942882    815.90864  0.033945275  0.032426813          112 
 2004000    0.4641915   -4.6852908    816.81906  0.033966195  0.032406016           67 
 2005000    0.4497843    -4.703797    816.23962  0.033925171  0.032385236          102 
 2006000   0.44581061    -4.705128    816.23319  0.033907992  0.032364418           69 
 2007000   0.45331359    -4.670516    816.37892  0.033897148  0.032343643           39 
 2008000   0.44772873   -4.6988494    817.97642  0.033946565  0.032322862           57 
 2009000   0.45377639   -4.6954921    816.90354  0.033885164  0.032302149           45 
 2010000   0.45014483   -4.7065996    817.82729  0.033906604  0.032281452           55 
 2011000   0.46094671   -4.6987922    817.56085  0.033878703  0.032260737           50 
 2012000   0.44074381   -4.6992077    817.11316  0.033843322  0.032240055           76 
Loop time of 4916.19 on 48 procs for 2000000 steps with 4000 atoms

Performance: 70298.298 tau/day, 406.819 timesteps/s
99.4% CPU use with 48 MPI tasks x no OpenMP threads

MPI task timing breakdown:
Section |  min time  |  avg time  |  max time  |%varavg| %total
---------------------------------------------------------------
Pair    | 340.59     | 358.84     | 380.4      |  51.9 |  7.30
Neigh   | 33.298     | 34.621     | 36.35      |  12.6 |  0.70
Comm    | 315.25     | 340.77     | 361.06     |  62.2 |  6.93
Output  | 4.2426     | 4.2441     | 4.2788     |   0.2 |  0.09
Modify  | 4125.9     | 4133       | 4145.7     |   7.6 | 84.07
Other   |            | 44.73      |            |       |  0.91

Nlocal:        83.3333 ave          90 max          76 min
Histogram: 3 0 4 4 7 14 4 6 5 1
Nghost:        2256.29 ave        2281 max        2232 min
Histogram: 2 0 4 7 13 8 6 5 2 1
Neighs:        15180.1 ave       17244 max       13670 min
Histogram: 6 4 5 6 7 8 9 2 0 1
FullNghs:      30361.3 ave       32924 max       27201 min
Histogram: 2 3 1 6 5 10 9 6 5 1

Total # of neighbors = 1457341
Ave neighs/atom = 364.33525
Neighbor list builds = 108102
Dangerous builds = 0

#clear
#
#next RN
#
#jump SELF
Total wall time: 1:21:59
