
units lj                  # Use reduced LJ style units
atom_style atomic         # Uncharged point particles
atom_modify map hash      # Needed for indexing of clusters etc
                          # Used to be able to find where atoms are in relation to each other.

lattice fcc 1.0 spacing 1 1 1
Lattice spacing in x,y,z = 1.5874011 1.5874011 1.5874011
region box block 0 10 0 10 0 10 units lattice
create_box 2 box
Created orthogonal box = (0.0000000 0.0000000 0.0000000) to (15.874011 15.874011 15.874011)
  3 by 4 by 4 MPI processor grid
create_atoms 1 box
Created 4000 atoms
  using lattice units in orthogonal box = (0.0000000 0.0000000 0.0000000) to (15.874011 15.874011 15.874011)
  create_atoms CPU = 0.019 seconds
set type 1 type/fraction 2 1.0 78393
Setting atom values ...
  4000 settings made for type/fraction
mass 1 1.0
mass 2 1.0
pair_style lj/cut  3.5
pair_modify tail  yes
pair_coeff 1  1  1.0  1.0   # Intearaction between 1 and 1 set with epsilon = 1 and sigma = 1
pair_coeff 1  2  1.5  0.8
pair_coeff 2  2  0.5  0.88

write_data data.0
System init for write_data ...
Neighbor list info ...
  update every 1 steps, delay 10 steps, check yes
  max neighbors/atom: 2000, page size: 100000
  master list distance cutoff = 3.8
  ghost atom cutoff = 3.8
  binsize = 1.9, bins = 9 9 9
  1 neighbor lists, perpetual/occasional/extra = 1 0 0
  (1) pair lj/cut, perpetual
      attributes: half, newton on
      pair build: half/bin/atomonly/newton
      stencil: half/bin/3d
      bin: standard
WARNING: Not all mixed pair coeffs generated from mixing. Use write_data with 'pair ij' option to store all pair coeffs. (../write_data.cpp:312)


#############################
#   M E L T   S Y S T E M   #
#############################

velocity all create 2.4 2750902 mom yes dist gaussian # Assign velocities
                                                    # Temperature 2.4, random number seed, zero linear momentum
                                                                                # Gaussian distribution

timestep 0.002   # simulation timestep
thermo 1000       # output thermodynamic data every 1000 steps bf 100

# Define a fix  in this case with index 1 applied to all
# particles in the simulation. This fix is for simulations
# in the anisotropic NPT ensemble. Note that we use the MTK
# correction.
fix 1 all npt temp 2.4 2.4 0.1 iso 5.68 5.68 0.5 mtk yes tchain 5 pchain 5 # Use NPT ensemble
                                                                         # Set temperature and pressure and damping
                                                                         # Numbers of thermostats in chain and in barostat
run 10000          # run for 10000 steps
Per MPI rank memory allocation (min/avg/max) = 3.642 | 3.644 | 3.648 Mbytes
Step Temp E_pair E_mol TotEng Press Volume 
       0          2.4   -2.7016284            0   0.89747158   -1.6956087         4000 
    1000    2.3994813   -1.4518517            0    2.1464704    5.6734669    4246.9035 
    2000    2.3877869    -1.461132            0     2.119653     5.478723    4273.7023 
    3000    2.3535095   -1.4466107            0     2.082771    5.6671783    4248.4872 
    4000    2.4278343   -1.4060547            0    2.2347862    5.9347813    4252.9526 
    5000    2.4429623   -1.4229641            0    2.2405631    5.8624518    4260.0003 
    6000    2.4379331   -1.4458736            0    2.2101117    5.5624027    4281.3322 
    7000    2.4100392   -1.4206028            0    2.1935522    5.6075704    4297.8551 
    8000    2.3944992   -1.4327234            0    2.1581274    5.9513422    4200.4197 
    9000    2.4186132   -1.4193604            0    2.2076524    5.6716527    4286.2955 
   10000    2.3805577   -1.3906015            0    2.1793423    5.6838033     4308.803 
Loop time of 2.4148 on 48 procs for 10000 steps with 4000 atoms

Performance: 715587.974 tau/day, 4141.134 timesteps/s
99.6% CPU use with 48 MPI tasks x no OpenMP threads

MPI task timing breakdown:
Section |  min time  |  avg time  |  max time  |%varavg| %total
---------------------------------------------------------------
Pair    | 1.0289     | 1.0886     | 1.2617     |   3.6 | 45.08
Neigh   | 0.20334    | 0.2098     | 0.24065    |   1.3 |  8.69
Comm    | 0.68569    | 0.8399     | 0.91907    |   5.2 | 34.78
Output  | 0.00024537 | 0.00025044 | 0.00032121 |   0.0 |  0.01
Modify  | 0.21126    | 0.26139    | 0.31004    |   6.0 | 10.82
Other   |            | 0.01485    |            |       |  0.62

Nlocal:        83.3333 ave          92 max          75 min
Histogram: 2 4 7 4 8 7 3 7 4 2
Nghost:        1558.08 ave        1592 max        1524 min
Histogram: 1 6 5 6 5 8 5 7 3 2
Neighs:        8854.62 ave        9958 max        7727 min
Histogram: 3 4 5 4 7 8 4 6 5 2

Total # of neighbors = 425022
Ave neighs/atom = 106.25550
Neighbor list builds = 910
Dangerous builds = 225

# Equilibrate just above the melting temperature to avoid step fn in T

fix 1 all npt temp 1.25 1.25 0.1 iso 5.68 5.68 0.5 mtk yes tchain 5 pchain 5
run 2000
Per MPI rank memory allocation (min/avg/max) = 3.643 | 3.645 | 3.649 Mbytes
Step Temp E_pair E_mol TotEng Press Volume 
   10000    2.3805577   -1.3906015            0    2.1793423    5.6838033     4308.803 
   11000    1.2404352   -2.2212707            0  -0.36108304     5.686601    3339.0662 
   12000    1.2685561   -2.2094007            0  -0.30704223    5.9050288     3333.014 
Loop time of 0.581231 on 48 procs for 2000 steps with 4000 atoms

Performance: 594600.135 tau/day, 3440.973 timesteps/s
99.6% CPU use with 48 MPI tasks x no OpenMP threads

MPI task timing breakdown:
Section |  min time  |  avg time  |  max time  |%varavg| %total
---------------------------------------------------------------
Pair    | 0.25049    | 0.27325    | 0.32122    |   2.4 | 47.01
Neigh   | 0.037988   | 0.04042    | 0.046795   |   0.7 |  6.95
Comm    | 0.16567    | 0.21789    | 0.24549    |   3.0 | 37.49
Output  | 5.1514e-05 | 5.4015e-05 | 7.0952e-05 |   0.0 |  0.01
Modify  | 0.041311   | 0.04484    | 0.049715   |   1.1 |  7.71
Other   |            | 0.004777   |            |       |  0.82

Nlocal:        83.3333 ave          91 max          75 min
Histogram: 1 2 2 7 4 17 12 0 2 1
Nghost:        1857.69 ave        1877 max        1819 min
Histogram: 1 0 2 4 5 5 5 10 10 6
Neighs:        11465.0 ave       12961 max        9730 min
Histogram: 1 1 1 8 10 8 9 8 1 1

Total # of neighbors = 550322
Ave neighs/atom = 137.58050
Neighbor list builds = 145
Dangerous builds = 14

#############################
# L I N E A R  Q U E N C H  #
#############################

# Define solid atoms. This closely follows ten Wolde  Ruiz-Montero and Frenkel  Faraday Discuss  1996  104  93-110
# Compute components of the per-atom q6 vector
compute q6 all orientorder/atom degrees 1 6 components 6 nnn NULL cutoff 1.3 # compute the Q6 parameter.
                                                                             # Use all neighbours within 1.3 unit cell.

# get number of connections
compute coord_number all coord/atom orientorder q6 0.5

# An atom is solid if it has 8 or more connections (of a possible 14)
variable is_solid atom c_coord_number>=8
group solid dynamic all var is_solid    # Must be dynamic to update
dynamic group solid defined

# do clustering
compute cluster solid cluster/atom 1.3 # Create a cluster where all atoms within are solid and max 1.3 units from another member

# define chunks one chunk per cluster
compute clus_chunks solid chunk/atom c_cluster nchunk every compress yes  # Says which atoms are in which chunk

# count the size of each chunk
compute size_chunks solid property/chunk clus_chunks count


# Find the maximum entry in the vector of chunk sizes
variable max_n equal max(c_size_chunks)


# Thermo style which includes this variable
# thermo_style custom step temp pe vol v_max_n

thermo ${N}  # Print the thermo information every 100 steps
thermo 1000  

# Reset the npt fix at a lower temperature (below freezing)
fix 1  all npt temp  ${temp} ${temp}  0.1  iso  5.68  5.68  0.5  mtk yes tchain  5  pchain  5
fix 1  all npt temp  0.45 ${temp}  0.1  iso  5.68  5.68  0.5  mtk yes tchain  5  pchain  5
fix 1  all npt temp  0.45 0.45  0.1  iso  5.68  5.68  0.5  mtk yes tchain  5  pchain  5

dump dmp2 all dcd ${N} traj.dcd
dump dmp2 all dcd 1000 traj.dcd


compute msd all msd com yes
variable twopoint equal c_msd[4]/6/(step*dt+1.0e-6)
fix 9 all vector 10 c_msd[4]
variable fit equal slope(f_9)/6/(10*dt)
thermo_style custom step temp pe c_msd[4] v_twopoint v_fit v_max_n

fix 1 all npt temp 1.25 ${temp} 0.1 iso 5.68 5.68 0.5 mtk yes tchain 5 pchain 5
fix 1 all npt temp 1.25 0.45 0.1 iso 5.68 5.68 0.5 mtk yes tchain 5 pchain 5
run 500000 # 5000000  # Run for this many steps
Neighbor list info ...
  update every 1 steps, delay 10 steps, check yes
  max neighbors/atom: 2000, page size: 100000
  master list distance cutoff = 3.8
  ghost atom cutoff = 3.8
  binsize = 1.9, bins = 8 8 8
  4 neighbor lists, perpetual/occasional/extra = 1 3 0
  (1) pair lj/cut, perpetual
      attributes: half, newton on
      pair build: half/bin/atomonly/newton
      stencil: half/bin/3d
      bin: standard
  (2) compute orientorder/atom, occasional
      attributes: full, newton on
      pair build: full/bin/atomonly
      stencil: full/bin/3d
      bin: standard
  (3) compute coord/atom, occasional
      attributes: full, newton on
      pair build: full/bin/atomonly
      stencil: full/bin/3d
      bin: standard
  (4) compute cluster/atom, occasional
      attributes: full, newton on
      pair build: full/bin/atomonly
      stencil: full/bin/3d
      bin: standard
Per MPI rank memory allocation (min/avg/max) = 9.806 | 9.816 | 9.821 Mbytes
Step Temp PotEng c_msd[4] v_twopoint v_fit v_max_n 
   12000    1.2685561   -2.2094007 4.0137243e-30 2.7873084e-32 8.3333333e+20            3 
   13000    1.2514851   -2.2214405      1.14907 0.0073658327  0.098252865            1 
   14000    1.2520577   -2.2033836    2.4211231  0.014411446   0.10221956            2 
   15000    1.2212684   -2.2244891    3.7336101  0.020742278    0.1044499            2 
   16000    1.2476143   -2.2432355    5.0290068  0.026192743   0.10658149            1 
   17000    1.2463986   -2.2273123    6.3679656  0.031215517   0.10753415            3 
   18000    1.2243871   -2.2438023    7.6255613  0.035303524   0.10801506            1 
   19000    1.2489225   -2.2373245    8.9288371  0.039161565    0.1080384            1 
   20000    1.2537524   -2.2281801    10.290056  0.042875231   0.10822929            1 
   21000    1.2334695   -2.2452339    11.581145  0.045956922   0.10829144            1 
   22000    1.2324188   -2.2702185    13.009935  0.049280057   0.10869823            2 
   23000    1.2314804   -2.2434974     14.18987  0.051412572   0.10902664            2 
   24000    1.2077078   -2.2497572    15.563851  0.054041147   0.10903694            4 
   25000    1.2072178   -2.2661934    16.747949  0.055826497   0.10902501            1 
   26000    1.2223134   -2.2657938    18.084982  0.057964684   0.10888873            1 
   27000    1.2286625   -2.2416246    19.442479   0.06000765   0.10906268            1 
   28000    1.2108025   -2.2248262     20.88223  0.062149492   0.10929266            2 
   29000    1.2415365    -2.290786     22.08484  0.063462182    0.1093699            3 
   30000    1.2246169   -2.2528636    23.489757  0.065249324   0.10945017            2 
   31000    1.2037805   -2.2616212    24.746079  0.066521716   0.10954316            2 
   32000    1.2122102   -2.2462593    26.042856  0.067819936   0.10957446            2 
   33000    1.1931031   -2.2767483    27.457922  0.069338185   0.10959613            1 
   34000     1.201614    -2.255854    28.765962  0.070504808   0.10963325            2 
   35000    1.2013195   -2.2681187    29.916699  0.071230236   0.10961576            1 
   36000    1.2202972   -2.2762087    31.661621  0.073290789   0.10976536            2 
   37000    1.2159654   -2.2792437    33.199832  0.074774395   0.11005016            1 
   38000    1.2150555   -2.2761718    34.622863   0.07592733   0.11037854            3 
   39000    1.1800296   -2.2724687    35.615402  0.076101285   0.11060678            2 
   40000    1.2306151    -2.257382    37.104625  0.077301301   0.11076564            2 
   41000    1.2098443   -2.2592771    38.383015  0.078014257   0.11087916            1 
   42000     1.193707   -2.2849214    39.274505  0.077925603   0.11084583            1 
   43000     1.179376   -2.2691186    40.442085  0.078376133   0.11066715            1 
   44000    1.2010189   -2.3043069    41.593756  0.078776052   0.11041981            2 
   45000    1.2303614   -2.2928008    42.680937  0.079038772   0.11009454            2 
   46000    1.1852507   -2.2486712    44.111506  0.079912148    0.1098339            3 
   47000    1.2031459   -2.3118688    45.232617  0.080199675   0.10954702            2 
   48000     1.215554   -2.2564445    46.197195  0.080203463   0.10928541            1 
   49000    1.1976313   -2.2436477    46.956799  0.079858501    0.1088507            2 
   50000    1.1837824   -2.2853379    47.937529  0.079895881     0.108339            1 
   51000    1.1906625   -2.2917566    49.346145  0.080630955   0.10787227            2 
   52000    1.1460162   -2.2942329    50.768532  0.081359826   0.10750647            2 
   53000    1.1725635   -2.2844127    51.892134  0.081591404    0.1071985            1 
   54000    1.1796507   -2.2945192    53.119863  0.081975097   0.10690173            1 
   55000    1.1806254   -2.2697219    54.497707  0.082572283   0.10661802            3 
   56000    1.2147036    -2.295434    55.415182  0.082463067   0.10635307            1 
   57000    1.1913292   -2.3083379    56.663328  0.082841122   0.10606585            1 
   58000    1.1863884   -2.2732526    57.186749  0.082164868   0.10577146            2 
   59000     1.179651   -2.2813978    58.624675  0.082803213   0.10543668            2 
   60000    1.1584649    -2.326422    59.693277  0.082907328   0.10513571            1 
   61000    1.1928114   -2.3002633    60.978975  0.083304609   0.10484324            2 
   62000    1.1717805   -2.3005672    62.108494  0.083479158   0.10455618            1 
   63000    1.1716427   -2.3199256    62.737323  0.082985876   0.10422774            2 
   64000    1.1701629   -2.3112447    63.915761  0.083223646   0.10390443            1 
   65000    1.1743136   -2.3165829    64.930028  0.083243625   0.10357566            3 
   66000     1.180694   -2.3189659    65.904837  0.083213177   0.10325737            2 
   67000    1.1762685   -2.2986398    67.931286  0.084491649   0.10299215            2 
   68000    1.1775395    -2.312425     68.88506  0.084417966   0.10275271            1 
   69000    1.1812026   -2.3212957    70.077293  0.084634411   0.10255713            3 
   70000    1.1466617   -2.3496121    71.575096  0.085208447   0.10240527            1 
   71000    1.1513879   -2.3195164    72.280862  0.084836692   0.10225314            1 
   72000     1.172508   -2.3220569    74.048465  0.085704241   0.10211649            1 
   73000    1.1759001   -2.3540394    74.976598  0.085589723   0.10200307            2 
   74000    1.1308122   -2.3461985    75.889997  0.085461708   0.10187223            3 
   75000    1.1794827   -2.2968232    76.915288  0.085461431   0.10174374            2 
   76000    1.1472759   -2.2929142    78.902594  0.086516002   0.10164614            1 
   77000    1.1334168   -2.3408777    80.158602  0.086751733    0.1015882            2 
   78000    1.1562194   -2.3087875    81.673571  0.087258088   0.10153559       -1e+20 
   79000    1.1449305   -2.3135114    82.608625  0.087139899   0.10150588            1 
   80000    1.1281169   -2.3457382    83.535202  0.087015835   0.10145987            2 
   81000     1.142393   -2.3464803    85.250358   0.08770613   0.10139784            2 
   82000     1.143904   -2.3324978    86.078918  0.087478575   0.10136066            2 
   83000    1.1475327   -2.3667563    87.480583   0.08783191   0.10131781            1 
   84000    1.1472013   -2.3264877    88.316118  0.087615196   0.10127352            1 
   85000    1.1370546    -2.347895    89.620104  0.087862846   0.10123282            2 
   86000    1.1295037    -2.353125    90.900599  0.088081975   0.10118912            2 
   87000    1.1297596   -2.3067387    91.815703  0.087946075   0.10114617            2 
   88000     1.130318   -2.3575027     93.51515  0.088556013   0.10110321            2 
   89000    1.1107616   -2.3664802    94.903513  0.088860966   0.10107494            2 
   90000     1.115855   -2.3510591    95.582212  0.088502048   0.10105461            3 
   91000    1.1129288   -2.3659074    97.057633  0.088880616   0.10103256            2 
   92000      1.13121   -2.3495309    97.918123  0.088693951   0.10098783            4 
   93000    1.1101424   -2.3521835    99.057193  0.088760925   0.10093898            3 
   94000    1.1132463   -2.3722655    99.947947  0.088606335   0.10089501            1 
   95000    1.1127775   -2.3413698    101.45899  0.088999117   0.10085367            2 
   96000    1.1296928   -2.3514176     102.0041  0.088545224   0.10079629            2 
   97000    1.1268729   -2.3530245    103.33029  0.088771729   0.10074318            2 
   98000    1.1005214   -2.3698867    104.61079  0.088954757   0.10066473            2 
   99000    1.1170644   -2.3711838    104.81235  0.088225887    0.1005771            2 
  100000    1.1105172   -2.3331302     106.2214  0.088517829   0.10045816            1 
  101000    1.0860084   -2.3907555    106.69394  0.088031305   0.10030863            1 
  102000    1.0743612   -2.3803667    107.51761  0.087841188   0.10015089            2 
  103000    1.0995837   -2.3481055    108.79243  0.088019762   0.10001774            1 
  104000    1.1021195   -2.3734266    109.80912  0.087988077  0.099901421            3 
  105000     1.092654    -2.405296    110.89543  0.088012242  0.099766953            1 
  106000    1.0939841   -2.3766756    111.94319  0.088005655  0.099643999            1 
  107000    1.0942114   -2.3729799    113.43616  0.088345917  0.099517606            2 
  108000    1.0686027   -2.3662704    114.69283  0.088497557  0.099397308            1 
  109000    1.0768351   -2.3914361    115.42999  0.088249227  0.099289446            2 
  110000    1.1114271   -2.3881288    116.28476  0.088094514  0.099167226            2 
  111000    1.0825694   -2.3908128      117.566  0.088262766  0.099051613            1 
  112000    1.0782881   -2.3995466    119.07805  0.088599742  0.098949974            1 
  113000    1.1035767   -2.3778671    120.89991  0.089159224  0.098861407            5 
  114000    1.0868405   -2.3696048    120.80989  0.088311326  0.098770973            1 
  115000    1.0771435   -2.4057668    121.51467  0.088054108  0.098657302            3 
  116000    1.0805958   -2.3741798    122.89925  0.088289689  0.098514769            3 
  117000    1.0532139   -2.4020518     123.2465  0.087782406   0.09838602            3 
  118000    1.0875632   -2.3850989    124.67109  0.088044553  0.098256408            2 
  119000    1.0855267   -2.3788573    125.43922  0.087842594  0.098129036            2 
  120000    1.0910412   -2.3973685    126.81232  0.088064113  0.098007519            2 
  121000    1.0543677   -2.3838457    127.87535  0.088068426  0.097876797            1 
  122000    1.0873229     -2.38122    129.12293  0.088198725  0.097738695            4 
  123000    1.0504061    -2.390315    129.45551  0.087706986  0.097602544            3 
  124000    1.0637491   -2.4046812    129.60824   0.08710231  0.097451083            4 
  125000     1.064627   -2.4385645     130.1562  0.086770797  0.097280401            4 
  126000    1.0808028   -2.4247688     130.9939   0.08663618  0.097103259            1 
  127000    1.0450965    -2.424137    133.00144  0.087271289  0.096929378            3 
  128000    1.0894555   -2.4212361    133.41005    0.0868555  0.096761169            2 
  129000    1.0667515   -2.4249639    133.71698  0.086380479   0.09658039            4 
  130000    1.0457335   -2.4264434    134.82121   0.08642385  0.096402197            2 
  131000    1.0664595   -2.3855043    135.54737  0.086226059  0.096208055            1 
  132000    1.0401527   -2.4428851    136.54155  0.086200476  0.096021483            3 
  133000    1.0371354   -2.4264929    137.47331  0.086136161  0.095846165            3 
  134000    1.0639485   -2.4224975    138.29291  0.086003054  0.095672951            2 
  135000    1.0802279   -2.4520193     139.3604   0.08602494   0.09549155            3 
  136000    1.0438051    -2.397914    140.55277  0.086123019  0.095308896            2 
  137000     1.044523   -2.4200246    141.71124  0.086199049  0.095136168            2 
  138000    1.0648652   -2.4325683     142.1824  0.085858935  0.094957969            4 
  139000    1.0504195   -2.4186806    143.26303  0.085889108  0.094781064            2 
  140000    1.0529512   -2.4324483    143.89937  0.085654385  0.094600511            1 
  141000    1.0529238   -2.4310451    144.36372  0.085321345  0.094412019            2 
  142000    1.0568121   -2.4382849     144.8846  0.085026174  0.094217493            1 
  143000    1.0370807   -2.4376944    146.60463  0.085433936  0.094029466            5 
  144000     1.058298   -2.4411606    146.17544  0.084592267  0.093844376            2 
  145000    1.0324188   -2.4216045    148.18697  0.085164926  0.093671604            3 
  146000    1.0378356   -2.4448421    148.93541  0.085008793  0.093510105            4 
  147000    1.0307226   -2.4394264    150.15949  0.085124427  0.093349404            5 
  148000    1.0215392   -2.4291392    151.61311  0.085367744  0.093185944            3 
  149000    1.0233543    -2.438252    152.33646  0.085199364  0.093023196            3 
  150000    1.0151055   -2.4442468    152.09871  0.084499284  0.092855849            2 
  151000    1.0332878   -2.4509533    153.32999    0.0846192  0.092683947            3 
  152000    1.0488607   -2.4776709    153.93501  0.084394196  0.092514609            3 
  153000    1.0162163   -2.4641488    155.11791  0.084486881  0.092351046            7 
  154000    1.0245288   -2.4679584     156.5138  0.084693613  0.092187488            2 
  155000    1.0251537   -2.4553437    157.25689  0.084546717  0.092032396            3 
  156000    1.0044832   -2.4588234    157.95054   0.08437529  0.091872591            2 
  157000   0.99830694   -2.4440922    158.28656   0.08401622  0.091724776            5 
  158000    1.0132205   -2.4756842    160.34146  0.084568282  0.091577932            3 
  159000     1.015065   -2.4697042    160.74352  0.084247126  0.091430902            3 
  160000    1.0062534   -2.4810565     161.7444  0.084241877   0.09128454            2 
  161000    1.0010449   -2.4529536    163.13212  0.084436916  0.091142988            5 
  162000    1.0123362   -2.4672463    163.75036  0.084233722  0.090994807            2 
  163000    1.0058097    -2.470388    163.38139  0.083528318  0.090846229            2 
  164000   0.98759094   -2.4811783    165.36635  0.084027615  0.090695154            4 
  165000   0.98991529   -2.4938502    165.20966   0.08343922   0.09054548            2 
  166000    1.0011948   -2.5004257    167.13289  0.083902051  0.090401259            4 
  167000     1.017432    -2.498544    167.38548  0.083525688  0.090252771            3 
  168000    1.0109238   -2.5013192    168.48844  0.083575617  0.090102695            3 
  169000   0.98539761   -2.4818839    168.63353  0.083152627  0.089958972            1 
  170000   0.98660355   -2.4617128    169.96672  0.083317018  0.089809315            1 
  171000   0.97938047    -2.475005    170.61818   0.08314726  0.089659479            3 
  172000     1.020843   -2.4958373    171.29469  0.082991614  0.089506957            2 
  173000   0.99203114   -2.4964396    172.43336  0.083060383  0.089361357            2 
  174000   0.99773409   -2.4979087     173.1704  0.082936015  0.089215948            1 
  175000   0.97250208   -2.4889362    173.44834  0.082594449  0.089068341            2 
  176000   0.99429691   -2.5075217    173.75398  0.082269875  0.088918223            7 
  177000   0.98853759   -2.5170495    174.67399  0.082238223  0.088761051            3 
  178000   0.98218943   -2.5005238    175.48979  0.082158142  0.088608422            2 
  179000   0.97578793   -2.5280709    176.81762  0.082317329  0.088453339            2 
  180000   0.97547164   -2.5100202    177.71222  0.082274174  0.088300349            2 
  181000   0.97778666   -2.5244244    177.79343  0.081857009  0.088147237            4 
  182000   0.98174186   -2.5003146    178.62393  0.081787515  0.087990413            1 
  183000   0.97239893   -2.5119173    180.07794  0.082002706  0.087833774            1 
  184000    0.9855674   -2.5299931    179.41651  0.081257478  0.087673792            3 
  185000   0.96619504   -2.5099877    181.00758  0.081534946   0.08751616            3 
  186000   0.96972546   -2.4861649    181.47058  0.081304021  0.087359295            2 
  187000   0.97250078   -2.5182025    181.82624  0.081027734  0.087199865            2 
  188000   0.95142053   -2.5208844    182.95959  0.081099109  0.087037386            2 
  189000   0.97280308    -2.512323    182.70754  0.080558881   0.08687654            3 
  190000   0.96116363   -2.5303946    184.22818  0.080801835  0.086714481            4 
  191000   0.94840905   -2.5478274     184.6246  0.080551745  0.086554436            1 
  192000   0.96429828   -2.5288105    185.12918  0.080351207  0.086389675            3 
  193000   0.98408622   -2.5217132    185.62759  0.080150081   0.08622549            2 
  194000   0.96667133   -2.5575055    185.72317  0.079777994   0.08606266            6 
  195000   0.97439116   -2.5303679    186.46847  0.079687381  0.085898402            2 
  196000   0.97048661   -2.5351938    188.23616  0.080032379  0.085730047            4 
  197000   0.95735076   -2.5332508    189.58449  0.080196485  0.085568792            2 
  198000   0.97465569   -2.5451202    189.05222  0.079567434  0.085401936            2 
  199000   0.95454176   -2.5460237    189.58515  0.079390766  0.085237115            3 
  200000   0.94082706   -2.5447429    190.81903  0.079507931  0.085077045            5 
  201000   0.93025299    -2.517034    190.81289  0.079109823  0.084916356            2 
  202000   0.95982944   -2.5623039     192.1698  0.079277968  0.084746679            2 
  203000   0.95113601   -2.5320734    191.72002  0.078702799    0.0845763            3 
  204000   0.95766137   -2.5622255    192.62405  0.078686294  0.084405134            2 
  205000   0.92466753   -2.5518402    193.76098  0.078764625  0.084240107            3 
  206000   0.94614203   -2.5328156    195.31558  0.079011158  0.084077298            2 
  207000   0.95347376   -2.5514808    195.13599  0.078557162  0.083920157            3 
  208000   0.93305364   -2.5493819     195.7904  0.078441665  0.083758902            2 
  209000   0.93655332   -2.5552796    195.91154  0.078114649  0.083594684            2 
  210000   0.94506975   -2.5743257    198.17435  0.078640615  0.083428104            2 
  211000   0.91425506    -2.597004    198.23803  0.078293059  0.083267011            2 
  212000    0.9169038   -2.5535663    199.00889  0.078226764  0.083110634            4 
  213000   0.91974172   -2.5486245    199.06727  0.077882343   0.08295601            5 
  214000   0.93146767   -2.5406464    201.45252  0.078447243   0.08280411            2 
  215000   0.93479205   -2.5606514    201.47276  0.078090219  0.082654494            2 
  216000   0.89541171   -2.5586135    201.19412  0.077621188  0.082504091            2 
  217000   0.92566531   -2.5528602    203.49198  0.078145922  0.082357633            8 
  218000   0.91018677   -2.5453551    203.30036  0.077714205  0.082218165            4 
  219000   0.91951769   -2.5850927    204.51475  0.077821443  0.082073407            3 
  220000   0.94117716   -2.5599577    205.01271  0.077656331  0.081929246            2 
  221000   0.92049878    -2.607504    204.79192  0.077221688   0.08178526            2 
  222000   0.93607911   -2.5803748    205.65838   0.07719909  0.081641007            3 
  223000   0.92107933   -2.5845217    206.60069  0.077205041  0.081498729            4 
  224000   0.90995217   -2.6101441    208.05788  0.077402486  0.081359824            3 
  225000   0.89999839   -2.5939209    208.12806  0.077084468  0.081214565            2 
  226000   0.92439631   -2.6073505    208.65052  0.076936033  0.081076805            2 
  227000    0.9083303   -2.5869978    210.17398   0.07715638  0.080942685            2 
  228000   0.91262925   -2.5576615    212.19263  0.077555784  0.080812325            2 
  229000   0.90050896   -2.5914049    212.10414  0.077184912   0.08068845            4 
  230000    0.9191607   -2.5995028    212.35685  0.076940888  0.080559076            2 
  231000   0.90532071   -2.5904969    212.76028  0.076753347   0.08042796            2 
  232000   0.91466669   -2.5894079    213.33317  0.076628293  0.080291935            3 
  233000   0.88668739   -2.6258285    214.15103  0.076591927  0.080155884            1 
  234000   0.88531924   -2.5789598    214.61745  0.076430715  0.080023953            3 
  235000   0.88334164   -2.6059944    214.36953  0.076017564  0.079885873            3 
  236000   0.89761734   -2.5967179     215.6947  0.076163383   0.07975297            3 
  237000   0.89187623   -2.5951639    216.54188  0.076139901  0.079619778            5 
  238000   0.89830465   -2.6133897    217.82103  0.076267867  0.079485186            2 
  239000   0.88690225   -2.5989528    217.12285  0.075705316  0.079351921            3 
  240000   0.86557293   -2.6030315    218.12717  0.075738602   0.07921641            2 
  241000   0.88716838    -2.636504    217.48374  0.075201846  0.079079643            3 
  242000   0.87343002   -2.6040299    219.28661  0.075511918   0.07894378            2 
  243000   0.85522126   -2.6419096    219.12888  0.075147076  0.078806172            4 
  244000   0.87151033   -2.6166715    219.95598  0.075121578  0.078666761            5 
  245000   0.87467539   -2.6288636    220.23065  0.074908383  0.078527361            1 
  246000   0.86885937   -2.5999946    220.37982  0.074654411  0.078387713            4 
  247000     0.862074   -2.6134715    221.72069   0.07480455  0.078249414            3 
  248000   0.87872217   -2.6324516    221.35419  0.074379767  0.078111045            2 
  249000   0.88505041   -2.6190315    222.83844  0.074577792  0.077976488            3 
  250000   0.86597654   -2.6452107    223.76472  0.074588239   0.07783865            3 
  251000   0.87153988   -2.6155038    223.51953   0.07420967  0.077699851            2 
  252000   0.84466162   -2.6414103    224.73508  0.074317155  0.077560286            3 
  253000   0.87011649   -2.6356819    224.22121  0.073854152  0.077420356            2 
  254000   0.85275781   -2.6570225    224.61834  0.073693681  0.077279627            4 
  255000   0.84884114   -2.6483462    225.46985  0.073682959  0.077137561            3 
  256000   0.83435292   -2.6593453    226.09008   0.07359703  0.076997514            4 
  257000    0.8487044   -2.6503361    227.50902   0.07377076  0.076860657            3 
  258000   0.85371515   -2.6593675    226.81444  0.073260479  0.076726675            2 
  259000   0.86565354   -2.6659946    228.49395  0.073518001  0.076587896            5 
  260000   0.86012871   -2.6583865    228.09978  0.073108905  0.076449471            2 
  261000   0.85776964   -2.6806793    229.27704  0.073204674  0.076310833            4 
  262000   0.85176777   -2.6574316    227.91205   0.07249111  0.076171297            2 
  263000   0.83256997   -2.6500936     230.0166  0.072882321  0.076031836            3 
  264000    0.8347944    -2.661542    230.65675  0.072808318  0.075894787            4 
  265000   0.83601812   -2.6595412    231.22121  0.072711071  0.075758265            6 
  266000   0.84830676   -2.6818175    233.35994   0.07310775  0.075624333            2 
  267000   0.84249062   -2.6679459    232.74226  0.072641153  0.075491244            2 
  268000   0.84043529   -2.6783735    232.67211  0.072348292  0.075359149            3 
  269000   0.84662795   -2.6974688    233.76519  0.072417965  0.075228802            5 
  270000   0.85057769   -2.6650564    234.18792  0.072280221  0.075097063            3 
  271000   0.83768337   -2.6735605    235.82963  0.072518337  0.074970397            2 
  272000   0.85027194   -2.6900582    235.53392  0.072161127   0.07484657            3 
  273000   0.81738883   -2.6924175    235.94436  0.072022089  0.074721166            2 
  274000   0.82978179   -2.6761059    236.76129  0.072007691  0.074595397            2 
  275000   0.79849152   -2.6680637    237.31479  0.071913571   0.07447019            4 
  276000   0.83669967   -2.7078295     236.7425  0.071480223   0.07434121            4 
  277000   0.83172108   -2.6932781    238.19887   0.07166031  0.074210619            3 
  278000   0.83414832   -2.6916659    237.83917  0.071294716  0.074080421            4 
  279000   0.81827694   -2.7192906      238.742   0.07130884  0.073950912            2 
  280000   0.83168075   -2.6906068    238.85363  0.071087391  0.073820066            3 
  281000   0.80529383   -2.7019947    240.48141  0.071317144  0.073690179            4 
  282000   0.81217685   -2.7097886     239.9914  0.070919445  0.073558113            3 
  283000   0.81776379   -2.7014546    239.87306  0.070633998  0.073428274            3 
  284000   0.81444404   -2.6859636    240.57355  0.070590829  0.073298081            1 
  285000   0.80663867   -2.7059429    241.07881   0.07049088  0.073167597            5 
  286000   0.80991466   -2.7105109     241.3977  0.070337324  0.073036435            2 
  287000   0.81960025   -2.7077696    241.84859  0.070223167  0.072903663            3 
  288000   0.82058463    -2.690517    242.66411   0.07021531  0.072770542            2 
  289000   0.80686295   -2.7122276     241.9052  0.069753518  0.072635681            5 
  290000   0.80879609   -2.7283403     243.2016  0.069885518  0.072501571            3 
  291000   0.79532263    -2.721582    244.06141  0.069891585  0.072368064            6 
  292000   0.78939672   -2.7142359    244.39343  0.069746984  0.072234471            3 
  293000   0.80009857   -2.7224806    244.33438  0.069492144  0.072100422            4 
  294000   0.79561958   -2.7134317    244.97808   0.06943823  0.071966842            4 
  295000   0.81081786   -2.7308768    245.33327  0.069303185   0.07183329            3 
  296000   0.78467689   -2.7069649    245.91249   0.06923212  0.071700448            4 
  297000   0.79235176   -2.7072818    246.25427  0.069094914  0.071569273            7 
  298000   0.79162374   -2.7029165    247.29363  0.069153699  0.071438811            5 
  299000   0.78981408   -2.7464728    247.71688  0.069040378  0.071307941            4 
  300000   0.77872185   -2.7544493    248.44807  0.069013353  0.071177413            3 
  301000   0.80987051   -2.7357133    247.98924  0.068657042  0.071047296            3 
  302000   0.78044689   -2.7560968    248.48173  0.068565598  0.070917658            5 
  303000    0.7912122   -2.7530019    249.75498   0.06868949  0.070789361           10 
  304000   0.78641625   -2.7406902      249.199  0.068311128  0.070659808            4 
  305000   0.76095685   -2.7467754    250.19834  0.068360202  0.070531409           12 
  306000   0.79263432   -2.7515635    250.55733  0.068234567  0.070405736            3 
  307000   0.75140956   -2.7591738    250.55866  0.068012666  0.070278237            4 
  308000    0.7883308   -2.7729366    250.39535   0.06774766  0.070147335            2 
  309000   0.77391819   -2.7638201    251.53091  0.067834658   0.07001654            3 
  310000   0.77704222   -2.7591818    251.29115  0.067551385  0.069885074            6 
  311000    0.7574021   -2.7663866    252.59716  0.067684126   0.06975421            5 
  312000   0.75202702   -2.7527589    253.09795  0.067600947  0.069624002            1 
  313000   0.77349371   -2.7560985    252.89103  0.067329881  0.069492886            5 
  314000   0.74675954   -2.7673913    253.06885  0.067162646  0.069362739            7 
  315000   0.76311755   -2.7768843    253.59549  0.067088754  0.069230807            2 
  316000   0.76775634   -2.7896379    253.47728  0.066845273  0.069098821            6 
  317000   0.76746765   -2.7616705    255.21531  0.067091302  0.068968951            2 
  318000   0.75148746   -2.7818685    254.84683   0.06678376  0.068839941            2 
  319000   0.76771988   -2.7806167     255.6004  0.066771263  0.068710434            3 
  320000   0.75220013   -2.7718696    255.35932  0.066499824  0.068582811            3 
  321000   0.74392541   -2.7819123    256.89439  0.066691171  0.068454959            3 
  322000   0.76265681   -2.7868333    256.57203  0.066400628  0.068326834            3 
  323000   0.75188137   -2.8091418    257.84318  0.066523007    0.0681999            3 
  324000    0.7456924   -2.7853112     257.0099  0.066103369  0.068072329            3 
  325000   0.76814699   -2.7718286    257.28508  0.065970533   0.06794679            3 
  326000   0.75876637   -2.7829224    258.58004  0.066099191  0.067821712            4 
  327000   0.73164014   -2.7913087     258.5526  0.065890061  0.067693994            6 
  328000   0.73613873   -2.7979672    258.88795  0.065774378  0.067568754            3 
  329000   0.75065445   -2.7847275    260.17351  0.065900079  0.067444872            4 
  330000   0.74614804   -2.8149972    260.55965  0.065797892  0.067323737            3 
  331000   0.73481235   -2.8188135    260.10139  0.065483733  0.067201195            8 
  332000   0.73063912   -2.8168405     260.0155  0.065264934  0.067080258            4 
  333000   0.72433857   -2.8381396    262.26212   0.06563116   0.06695863            3 
  334000   0.73808942   -2.8026772    262.61608  0.065522973  0.066838933            4 
  335000   0.73098848   -2.8350108    263.16344  0.065463541  0.066718924            2 
  336000   0.73589508   -2.8026303    264.15398  0.065514379  0.066600597            3 
  337000   0.72070364   -2.8209028    262.40244  0.064886855  0.066481358            4 
  338000   0.72714481   -2.8416834    262.97768  0.064836707  0.066361348            5 
  339000   0.73608523   -2.8489316    263.27832  0.064719351  0.066240616           11 
  340000   0.72247271   -2.8157922    263.31894  0.064538956  0.066116725            5 
  341000   0.72458662   -2.8361477     263.9691  0.064508576  0.065993599            3 
  342000   0.73205513    -2.840469    264.62686  0.064480228   0.06587158            4 
  343000   0.71390802   -2.8071859    265.13123  0.064414779  0.065752555            5 
  344000   0.73591584   -2.8467728    264.73058  0.064130471  0.065632328            4 
  345000   0.72626649    -2.868141    264.83752  0.063970416  0.065511862            4 
  346000    0.7216542   -2.8374822    265.51717  0.063949222  0.065390662            4 
  347000   0.71463471   -2.8306688    267.04903  0.064132812  0.065271509            4 
  348000   0.72339334   -2.8514355    266.94008  0.063922434  0.065152608            6 
  349000   0.72777757   -2.8504878    266.26189  0.063577337  0.065034241            2 
  350000   0.70859913   -2.8634016    267.63195  0.063721892  0.064917195            8 
  351000   0.70464392    -2.838719    268.16863  0.063667767  0.064798804            4 
  352000   0.69581785   -2.8631354    267.66749  0.063368251  0.064681783            4 
  353000   0.69294918   -2.8837584    267.70015  0.063196446  0.064562839            5 
  354000   0.69709368   -2.8782962    268.29944  0.063159003  0.064443921            3 
  355000   0.70906824   -2.8610554    269.26064  0.063206724  0.064325888            5 
  356000   0.69961228   -2.8563891    269.57305  0.063102305  0.064207599           11 
  357000   0.69200182   -2.8565166    269.28321  0.062857891   0.06408811            8 
  358000   0.70230959   -2.8494382    270.19568  0.062894711   0.06396916            8 
  359000   0.70925704   -2.8591359    270.63496  0.062821486  0.063849799            4 
  360000   0.69071942   -2.8703826    270.26001  0.062560187  0.063731231            7 
  361000   0.68646501    -2.891176    270.22867  0.062379656  0.063612648            3 
  362000   0.68586046   -2.8883398    271.20837  0.062432867  0.063493036            4 
  363000   0.69160285   -2.8594457    270.34133  0.062061829  0.063373948            5 
  364000   0.69451018    -2.888543    271.49296  0.062154983  0.063253751            5 
  365000   0.69812014   -2.8909635    270.78608  0.061823307  0.063133662            9 
  366000   0.67409991   -2.8861628    270.49029  0.061587043  0.063012077            4 
  367000   0.67660873   -2.8800151    269.98745  0.061305051  0.062890232            9 
  368000   0.67889777   -2.8901468    271.73207  0.061533529  0.062768215            4 
  369000   0.67690798   -2.8847575    272.29506  0.061493917  0.062646499            3 
  370000   0.68127605   -2.8986685    272.54267  0.061383483  0.062524665            6 
  371000   0.65879147   -2.8939906     271.6984  0.061028392  0.062403077            4 
  372000   0.66786586   -2.9012518    271.98734  0.060929065  0.062280785            8 
  373000   0.66210453   -2.8870723     272.6904  0.060922789  0.062159999            3 
  374000    0.6685046   -2.8888784    273.60219  0.060963054  0.062038851            5 
  375000   0.65812904   -2.9208598    273.05933  0.060679852  0.061918058            8 
  376000   0.65537686   -2.9070253    273.62313  0.060643423  0.061797226            5 
  377000   0.67050053   -2.9039458    274.07336  0.060582087   0.06167793            8 
  378000   0.65316635   -2.9006327    274.03924  0.060414294  0.061559176            5 
  379000   0.65702874   -2.9054631    274.54544  0.060366192  0.061440347            6 
  380000   0.66220043   -2.8830937    276.09525  0.060547204  0.061321687            6 
  381000   0.66706651   -2.9079638    274.61032  0.060063499   0.06120316            6 
  382000   0.66716865   -2.9159583    274.74156  0.059934894  0.061084396            6 
  383000   0.65460975   -2.9103791    276.49451  0.060159816  0.060966867           10 
  384000   0.65211141   -2.9539128    275.53706  0.059795369  0.060849125           12 
  385000   0.65152945   -2.9182858    276.51519  0.059851772  0.060731768            5 
  386000     0.664504   -2.9107698    277.12313  0.059827965  0.060616453            7 
  387000   0.63764231   -2.9233883    276.37792  0.059512903  0.060499533            7 
  388000   0.64772043   -2.9346938     276.9415  0.059480562  0.060380935            3 
  389000   0.64063262   -2.9362758    276.82725   0.05930318  0.060261801            5 
  390000   0.64776042   -2.9390101    276.25195  0.059028195  0.060142853            5 
  391000   0.63559699   -2.9480325    277.17453  0.059073855  0.060023935           10 
  392000     0.632809   -2.9519911    277.62533  0.059018991   0.05990569            7 
  393000   0.63092033   -2.9475559    277.44285  0.058830122  0.059787005           12 
  394000   0.65069831   -2.9630231    278.04856  0.058808918  0.059669433            7 
  395000   0.63727889   -2.9572754    278.87795  0.058835011  0.059551621            6 
  396000   0.64262936    -2.943906    278.69401  0.058647728  0.059434005            5 
  397000   0.63464737   -2.9447899    279.05126  0.058574991  0.059316399            7 
  398000   0.62456932   -2.9833228    279.45642   0.05851265   0.05920007           10 
  399000   0.62908863   -2.9695421    279.60211  0.058396431  0.059083299            8 
  400000   0.62501955   -2.9737264    278.91426  0.058107138  0.058965964            9 
  401000   0.62817893   -2.9756595    279.49209  0.058082314    0.0588478           18 
  402000   0.61993724   -3.0017391    278.94221  0.057823841  0.058730136            4 
  403000   0.62469745   -2.9742984    280.16823  0.057933877  0.058611889            5 
  404000   0.62223067   -2.9800282    279.94132  0.057743671  0.058494823            4 
  405000   0.61764288   -2.9895924    279.93092  0.057598955  0.058378839            4 
  406000   0.61950676   -2.9860771    280.78062   0.05763149  0.058263301            9 
  407000   0.62826559   -2.9936715    280.85206  0.057504517  0.058148397            7 
  408000   0.62077378   -2.9869589    280.59721  0.057311522  0.058032664            9 
  409000   0.61810452   -2.9799454    280.08709   0.05706746  0.057916311            9 
  410000   0.60631655   -2.9813515    280.17139  0.056945404  0.057800011            5 
  411000   0.62287423    -2.972155    281.23745  0.057023003  0.057683625            6 
  412000   0.59608045   -2.9930627    281.52942  0.056943654   0.05756743           13 
  413000   0.60522924    -2.990003      281.406  0.056780871  0.057451724           13 
  414000   0.61964583   -2.9738707    281.13028   0.05658822  0.057335608            4 
  415000   0.59156207   -3.0042592    281.29896  0.056485735  0.057219807            7 
  416000   0.60171764   -3.0182247    281.55536  0.056401314  0.057102834           17 
  417000   0.61162152   -2.9866111    281.69885  0.056294734  0.056986251            5 
  418000    0.6087559   -3.0168894     281.9356  0.056207257  0.056869175            8 
  419000   0.59055042   -2.9915697    282.54317  0.056193949  0.056752851            7 
  420000   0.58063896   -3.0458287    281.90782  0.055934092   0.05663602            6 
  421000   0.59994634   -3.0107477    281.91129  0.055801918   0.05651939           10 
  422000   0.60110888   -3.0414062    281.93537  0.055674441  0.056403221            9 
  423000    0.5856911   -3.0405754     282.7513  0.055703565  0.056287433            7 
  424000   0.58145021   -3.0328806    282.15386  0.055454767  0.056172042            7 
  425000   0.59834781   -3.0412977    282.92571   0.05547563  0.056056273           16 
  426000    0.5852876   -3.0049281    282.98904  0.055357794   0.05594086            7 
  427000   0.58732422   -3.0387558    283.40767   0.05530985  0.055825517            4 
  428000   0.59902249   -3.0168208    283.37415  0.055174094   0.05571137            7 
  429000   0.57046475   -3.0129455    284.08424  0.055183419  0.055597386            9 
  430000   0.57195223   -3.0551667    283.77415   0.05499499  0.055482829            9 
  431000   0.58317619   -3.0671183    282.88779  0.054696016  0.055368486            8 
  432000   0.58890885   -3.0519625    284.39148  0.054859467  0.055254673            6 
  433000   0.58075818   -3.0521661    284.61735  0.054776241  0.055141072            7 
  434000   0.57537825   -3.0498671    284.61835  0.054650221  0.055027145           15 
  435000   0.55647468   -3.0304592     284.8949  0.054577567  0.054912896           11 
  436000   0.55450368   -3.0353884     284.3137  0.054341303  0.054799367           22 
  437000   0.56361235    -3.054444    284.83695  0.054316734   0.05468694           12 
  438000   0.56178699    -3.076792     284.6107  0.054149677  0.054573823           19 
  439000   0.55306656   -3.0785869     284.5594   0.05401659  0.054459556            8 
  440000   0.55849395   -3.0767557    284.62209  0.053905699  0.054344977           19 
  441000    0.5720568   -3.0766964    284.96873  0.053848966  0.054231833           13 
  442000   0.55241872   -3.0723689    285.60662  0.053847403  0.054118987           19 
  443000   0.55024766    -3.072812    285.97756  0.053795629  0.054005723            5 
  444000   0.55057602   -3.0654248    285.03237  0.053497066   0.05389209            9 
  445000   0.54975809   -3.0747314    284.99155  0.053369204  0.053778479            5 
  446000   0.55632389   -3.0863386    285.79163  0.053399034  0.053665741            8 
  447000   0.55292668   -3.0717156    285.41563  0.053209475  0.053553082           15 
  448000   0.55643137   -3.0668428    285.46655  0.053100177  0.053440327            6 
  449000   0.55227007   -3.0933492    285.73491   0.05303172  0.053327401            9 
  450000   0.54753095   -3.1021198    285.15675  0.052806805  0.053214317            6 
  451000   0.54271053    -3.072102    285.02185  0.052664792  0.053100616            8 
  452000   0.54100791   -3.0989554     284.9321   0.05253173  0.052987042           13 
  453000   0.54556293   -3.1144106    285.53459  0.052526598  0.052872941            9 
  454000   0.55800193   -3.1065529    285.75738  0.052451796  0.052759588           13 
  455000   0.54792066   -3.1104191    285.62452  0.052312183  0.052646132            8 
  456000   0.53639778   -3.1130028    286.61837  0.052379087  0.052532972           19 
  457000   0.53902293   -3.1140244     286.0471  0.052160303  0.052420236           10 
  458000   0.53719262   -3.1164471    286.14734  0.052064654  0.052306598            9 
  459000   0.52185831   -3.1220906    285.48831  0.051831573  0.052193441           13 
  460000   0.52787254    -3.124078    285.79401  0.051774277  0.052080375           31 
  461000   0.52913324   -3.1343056    286.40568  0.051772538  0.051968035           16 
  462000   0.52840895    -3.118026    286.36907  0.051653872  0.051856111           10 
  463000   0.52486797   -3.1218431    286.58547  0.051581257  0.051743194           12 
  464000   0.51765611   -3.1254666    285.58109  0.051289707  0.051630816            6 
  465000    0.5217461    -3.132233    287.10107  0.051451805  0.051519002           12 
  466000   0.50650138   -3.1335039    286.95716  0.051315657  0.051407308           11 
  467000   0.52294441   -3.1426426    286.29891  0.051088313   0.05129519           10 
  468000   0.52988037   -3.1401378    287.08838  0.051119725  0.051183768           16 
  469000   0.52283376   -3.1464071    286.32229  0.050874608  0.051072555           16 
  470000   0.52376509   -3.1443022    286.64767  0.050824055  0.050960775           14 
  471000   0.51706079   -3.1617159    286.65383  0.050717238  0.050848517           16 
  472000   0.51370087    -3.143221    286.39827  0.050564667  0.050736158            9 
  473000   0.51569836   -3.1517832     286.6657  0.050504881  0.050623933           14 
  474000   0.50294379   -3.1793772    286.50768  0.050370549  0.050511715           17 
  475000   0.50595204   -3.1525943    286.38492  0.050242969  0.050399979            8 
  476000   0.51431227   -3.1494288    286.18254  0.050101985  0.050288981            7 
  477000   0.49780488   -3.1636113     286.7289  0.050092401    0.0501773           18 
  478000   0.49058436   -3.1735052    286.05759   0.04987057  0.050065876           29 
  479000   0.50187629   -3.1905524    286.55894  0.049853678  0.049954525            8 
  480000   0.49641997   -3.1811496    286.21755  0.049690547  0.049842856            9 
  481000    0.5036776   -3.1741159    285.79118  0.049513371  0.049731194           12 
  482000   0.49463593    -3.189718    286.55617  0.049542906   0.04961947           13 
  483000   0.50493344   -3.1713346    286.45385   0.04942268  0.049508222           32 
  484000    0.4963771   -3.1825403    287.36788   0.04947794  0.049397152            7 
  485000   0.49710798   -3.1915231    286.67211  0.049256377  0.049285937           20 
  486000   0.48429779    -3.189123    286.19381  0.049073013  0.049174592           18 
  487000   0.47615399   -3.1988157    286.97135  0.049105296  0.049064037           17 
  488000   0.49263456   -3.2014205    286.50816  0.048925574   0.04895357           54 
  489000   0.49833946   -3.1973064     287.0806  0.048923074  0.048843042           40 
  490000   0.48092152   -3.1964381    286.84859  0.048783774  0.048733138           35 
  491000   0.49164685   -3.1905268    286.74608  0.048667019  0.048623285           33 
  492000   0.48979368   -3.1939165    287.35831  0.048671801  0.048513475           22 
  493000   0.48702779   -3.1922652     287.5902  0.048612272  0.048403736           25 
  494000   0.48110323   -3.1995817    286.81575  0.048383224  0.048294099           14 
  495000   0.47811242   -3.2227636    286.66946  0.048260851  0.048184691           27 
  496000   0.48154355    -3.221637    287.24523  0.048260287  0.048075575           14 
  497000   0.46837353   -3.2214712    287.01984  0.048125393  0.047965973           30 
  498000   0.46135583   -3.2057892    286.76776  0.047986573    0.0478567           17 
  499000   0.47495111   -3.2145691    286.59513  0.047861579  0.047747147           46 
  500000   0.47397799   -3.2359669    287.00204  0.047833674  0.047637835           21 
  501000   0.46824903   -3.2251555    286.51198  0.047656684  0.047528582           13 
  502000   0.46974262     -3.20368    286.45921   0.04755299  0.047420043           11 
  503000   0.47791836   -3.2288027    285.96863  0.047377175  0.047311235           35 
  504000   0.45953044    -3.255047    286.56426  0.047381656  0.047202216           17 
  505000   0.46463865   -3.2254582    287.06402    0.0473703  0.047093623           17 
  506000   0.46284603   -3.2375791    286.05238  0.047110075  0.046985188           26 
  507000   0.46434195    -3.245838    286.04123  0.047015324  0.046876742           28 
  508000    0.4621076   -3.2343207    286.16532   0.04694313  0.046768015           14 
  509000   0.45052879   -3.2399371    286.51895  0.046908799  0.046659596           17 
  510000   0.46403823   -3.2723767    286.01054  0.046733748  0.046550949           18 
  511000   0.44700823   -3.2690553    286.51027  0.046723789  0.046442194           36 
  512000   0.45684943    -3.260002    285.74656  0.046508229  0.046333736           69 
Loop time of 1190.26 on 48 procs for 500000 steps with 4000 atoms

Performance: 72588.955 tau/day, 420.075 timesteps/s
99.4% CPU use with 48 MPI tasks x no OpenMP threads

MPI task timing breakdown:
Section |  min time  |  avg time  |  max time  |%varavg| %total
---------------------------------------------------------------
Pair    | 76.539     | 82.131     | 85.854     |  24.8 |  6.90
Neigh   | 8.0323     | 8.3869     | 8.7879     |   6.6 |  0.70
Comm    | 76.631     | 81.047     | 87.349     |  27.3 |  6.81
Output  | 0.88723    | 0.8877     | 0.89768    |   0.2 |  0.07
Modify  | 1005.7     | 1007.4     | 1009       |   2.8 | 84.63
Other   |            | 10.45      |            |       |  0.88

Nlocal:        83.3333 ave          89 max          78 min
Histogram: 7 1 5 7 6 5 6 4 2 5
Nghost:        2160.58 ave        2180 max        2137 min
Histogram: 1 1 3 10 6 5 11 3 6 2
Neighs:        14263.9 ave       15431 max       12735 min
Histogram: 1 2 3 7 7 7 6 7 3 5
FullNghs:      28527.2 ave       30706 max       26701 min
Histogram: 4 5 3 9 6 7 5 4 2 3

Total # of neighbors = 1369307
Ave neighs/atom = 342.32675
Neighbor list builds = 27204
Dangerous builds = 0

#clear
#
#next RN
#
#jump SELF
Total wall time: 0:19:53
