
units lj                  # Use reduced LJ style units
atom_style atomic         # Uncharged point particles
atom_modify map hash      # Needed for indexing of clusters etc
                          # Used to be able to find where atoms are in relation to each other.

lattice fcc 1.0 spacing 1 1 1
Lattice spacing in x,y,z = 1.5874011 1.5874011 1.5874011
region box block 0 10 0 10 0 10 units lattice
create_box 2 box
Created orthogonal box = (0.0000000 0.0000000 0.0000000) to (15.874011 15.874011 15.874011)
  3 by 4 by 4 MPI processor grid
create_atoms 1 box
Created 4000 atoms
  using lattice units in orthogonal box = (0.0000000 0.0000000 0.0000000) to (15.874011 15.874011 15.874011)
  create_atoms CPU = 0.014 seconds
set type 1 type/fraction 2 0.85 78393
Setting atom values ...
  3394 settings made for type/fraction
mass 1 1.0
mass 2 1.0
pair_style lj/cut  3.5
pair_modify tail  yes
pair_coeff 1  1  1.0  1.0   # Intearaction between 1 and 1 set with epsilon = 1 and sigma = 1
pair_coeff 1  2  1.5  0.8
pair_coeff 2  2  0.5  0.88

write_data data.0
System init for write_data ...
Neighbor list info ...
  update every 1 steps, delay 10 steps, check yes
  max neighbors/atom: 2000, page size: 100000
  master list distance cutoff = 3.8
  ghost atom cutoff = 3.8
  binsize = 1.9, bins = 9 9 9
  1 neighbor lists, perpetual/occasional/extra = 1 0 0
  (1) pair lj/cut, perpetual
      attributes: half, newton on
      pair build: half/bin/atomonly/newton
      stencil: half/bin/3d
      bin: standard
WARNING: Not all mixed pair coeffs generated from mixing. Use write_data with 'pair ij' option to store all pair coeffs. (../write_data.cpp:312)


#############################
#   M E L T   S Y S T E M   #
#############################

velocity all create 2.4 5300450 mom yes dist gaussian # Assign velocities
                                                    # Temperature 2.4, random number seed, zero linear momentum
                                                                                # Gaussian distribution

timestep 0.002   # simulation timestep
thermo 1000       # output thermodynamic data every 1000 steps bf 100

# Define a fix  in this case with index 1 applied to all
# particles in the simulation. This fix is for simulations
# in the anisotropic NPT ensemble. Note that we use the MTK
# correction.
fix 1 all npt temp 2.4 2.4 0.1 iso 5.68 5.68 0.5 mtk yes tchain 5 pchain 5 # Use NPT ensemble
                                                                         # Set temperature and pressure and damping
                                                                         # Numbers of thermostats in chain and in barostat
run 10000          # run for 10000 steps
Per MPI rank memory allocation (min/avg/max) = 3.642 | 3.644 | 3.648 Mbytes
Step Temp E_pair E_mol TotEng Press Volume 
       0          2.4   -3.4381692            0   0.16093083   -2.9520202         4000 
    1000    2.3634486   -2.6058452            0   0.93844134    5.8564299    3893.5282 
    2000     2.379627   -2.6790801            0   0.88946806    5.1880786    3925.3346 
    3000    2.4205385   -2.6375005            0   0.99239953    5.7271443    3898.2934 
    4000    2.4262723   -2.6647771            0   0.97372158    5.5080895      3903.55 
    5000    2.4218999    -2.598836            0    1.0331056    6.1120303    3859.5828 
    6000    2.4307475   -2.6323484            0    1.0128613     5.797356    3873.8964 
    7000    2.4077383   -2.6483511            0   0.96235353     5.967471    3844.4812 
    8000     2.440964   -2.6429303            0    1.0176003    5.9521142    3874.2991 
    9000     2.451261   -2.6743448            0    1.0016275    5.8419288    3845.0077 
   10000    2.4082591   -2.6412088            0   0.97027671    6.0626192    3834.1244 
Loop time of 2.57473 on 48 procs for 10000 steps with 4000 atoms

Performance: 671138.868 tau/day, 3883.905 timesteps/s
99.6% CPU use with 48 MPI tasks x no OpenMP threads

MPI task timing breakdown:
Section |  min time  |  avg time  |  max time  |%varavg| %total
---------------------------------------------------------------
Pair    | 1.0986     | 1.1927     | 1.3264     |   3.8 | 46.32
Neigh   | 0.21114    | 0.21911    | 0.24235    |   1.5 |  8.51
Comm    | 0.73174    | 0.8972     | 0.99909    |   5.1 | 34.85
Output  | 0.00025305 | 0.00025761 | 0.00032584 |   0.0 |  0.01
Modify  | 0.22188    | 0.25013    | 0.30073    |   3.4 |  9.71
Other   |            | 0.01537    |            |       |  0.60

Nlocal:        83.3333 ave          92 max          75 min
Histogram: 2 6 6 4 7 7 5 5 4 2
Nghost:        1684.83 ave        1715 max        1661 min
Histogram: 4 0 11 10 7 4 2 5 3 2
Neighs:        9967.02 ave       11569 max        8714 min
Histogram: 3 5 7 10 7 1 9 4 1 1

Total # of neighbors = 478417
Ave neighs/atom = 119.60425
Neighbor list builds = 907
Dangerous builds = 210

# Equilibrate just above the melting temperature to avoid step fn in T

fix 1 all npt temp 1.25 1.25 0.1 iso 5.68 5.68 0.5 mtk yes tchain 5 pchain 5
run 2000
Per MPI rank memory allocation (min/avg/max) = 3.643 | 3.645 | 3.649 Mbytes
Step Temp E_pair E_mol TotEng Press Volume 
   10000    2.4082591   -2.6412088            0   0.97027671    6.0626192    3834.1244 
   11000    1.2302261   -3.9258567            0   -2.0809788    5.6848616    2995.6296 
   12000    1.2521267   -3.8733476            0   -1.9956271    5.4603852    3032.8161 
Loop time of 0.635238 on 48 procs for 2000 steps with 4000 atoms

Performance: 544048.442 tau/day, 3148.428 timesteps/s
99.6% CPU use with 48 MPI tasks x no OpenMP threads

MPI task timing breakdown:
Section |  min time  |  avg time  |  max time  |%varavg| %total
---------------------------------------------------------------
Pair    | 0.26604    | 0.30405    | 0.33879    |   2.5 | 47.86
Neigh   | 0.040235   | 0.042774   | 0.048468   |   0.7 |  6.73
Comm    | 0.1996     | 0.23678    | 0.27731    |   3.1 | 37.27
Output  | 5.1337e-05 | 5.2944e-05 | 6.9359e-05 |   0.0 |  0.01
Modify  | 0.042813   | 0.046731   | 0.050616   |   1.0 |  7.36
Other   |            | 0.004854   |            |       |  0.76

Nlocal:        83.3333 ave          92 max          77 min
Histogram: 5 4 5 10 7 4 2 4 6 1
Nghost:        1989.29 ave        2013 max        1968 min
Histogram: 2 0 6 10 8 11 5 3 2 1
Neighs:        12620.7 ave       14506 max       10981 min
Histogram: 3 2 4 9 9 9 7 1 2 2

Total # of neighbors = 605794
Ave neighs/atom = 151.44850
Neighbor list builds = 144
Dangerous builds = 11

#############################
# L I N E A R  Q U E N C H  #
#############################

# Define solid atoms. This closely follows ten Wolde  Ruiz-Montero and Frenkel  Faraday Discuss  1996  104  93-110
# Compute components of the per-atom q6 vector
compute q6 all orientorder/atom degrees 1 6 components 6 nnn NULL cutoff 1.3 # compute the Q6 parameter.
                                                                             # Use all neighbours within 1.3 unit cell.

# get number of connections
compute coord_number all coord/atom orientorder q6 0.5

# An atom is solid if it has 8 or more connections (of a possible 14)
variable is_solid atom c_coord_number>=8
group solid dynamic all var is_solid    # Must be dynamic to update
dynamic group solid defined

# do clustering
compute cluster solid cluster/atom 1.3 # Create a cluster where all atoms within are solid and max 1.3 units from another member

# define chunks one chunk per cluster
compute clus_chunks solid chunk/atom c_cluster nchunk every compress yes  # Says which atoms are in which chunk

# count the size of each chunk
compute size_chunks solid property/chunk clus_chunks count


# Find the maximum entry in the vector of chunk sizes
variable max_n equal max(c_size_chunks)


# Thermo style which includes this variable
# thermo_style custom step temp pe vol v_max_n

thermo ${N}  # Print the thermo information every 100 steps
thermo 1000  

# Reset the npt fix at a lower temperature (below freezing)
fix 1  all npt temp  ${temp} ${temp}  0.1  iso  5.68  5.68  0.5  mtk yes tchain  5  pchain  5
fix 1  all npt temp  0.45 ${temp}  0.1  iso  5.68  5.68  0.5  mtk yes tchain  5  pchain  5
fix 1  all npt temp  0.45 0.45  0.1  iso  5.68  5.68  0.5  mtk yes tchain  5  pchain  5

dump dmp2 all dcd ${N} traj.dcd
dump dmp2 all dcd 1000 traj.dcd


compute msd all msd com yes
variable twopoint equal c_msd[4]/6/(step*dt+1.0e-6)
fix 9 all vector 10 c_msd[4]
variable fit equal slope(f_9)/6/(10*dt)
thermo_style custom step temp pe c_msd[4] v_twopoint v_fit v_max_n

fix 1 all npt temp 1.25 ${temp} 0.1 iso 5.68 5.68 0.5 mtk yes tchain 5 pchain 5
fix 1 all npt temp 1.25 0.45 0.1 iso 5.68 5.68 0.5 mtk yes tchain 5 pchain 5
run 5000000 # 5000000  # Run for this many steps
Neighbor list info ...
  update every 1 steps, delay 10 steps, check yes
  max neighbors/atom: 2000, page size: 100000
  master list distance cutoff = 3.8
  ghost atom cutoff = 3.8
  binsize = 1.9, bins = 8 8 8
  4 neighbor lists, perpetual/occasional/extra = 1 3 0
  (1) pair lj/cut, perpetual
      attributes: half, newton on
      pair build: half/bin/atomonly/newton
      stencil: half/bin/3d
      bin: standard
  (2) compute orientorder/atom, occasional
      attributes: full, newton on
      pair build: full/bin/atomonly
      stencil: full/bin/3d
      bin: standard
  (3) compute coord/atom, occasional
      attributes: full, newton on
      pair build: full/bin/atomonly
      stencil: full/bin/3d
      bin: standard
  (4) compute cluster/atom, occasional
      attributes: full, newton on
      pair build: full/bin/atomonly
      stencil: full/bin/3d
      bin: standard
Per MPI rank memory allocation (min/avg/max) = 9.830 | 9.834 | 9.839 Mbytes
Step Temp PotEng c_msd[4] v_twopoint v_fit v_max_n 
   12000    1.2521267   -3.8733476 2.0358528e-30 1.4137866e-32 8.3333333e+20            1 
   13000     1.273381   -3.8604153   0.90828205 0.0058223206  0.076458756            2 
   14000    1.2622815   -3.9184149    1.8724606  0.011145599  0.079441784            1 
   15000    1.2203137   -3.9167177    2.8328425  0.015738014  0.079317746            1 
   16000    1.2703988   -3.9122625    3.8444095  0.020022966  0.080473401            4 
   17000    1.2556849   -3.9271362     4.747832  0.023273686  0.080483724            1 
   18000    1.2209215   -3.9182978    5.5688375  0.025781655  0.078983197            2 
   19000    1.2400638    -3.926908    6.5027225  0.028520712  0.078165837            2 
   20000     1.232949   -3.8824018    7.5435825  0.031431593  0.078349922            2 
   21000    1.2413558   -3.9373392     8.355624  0.033157237   0.07825718            2 
   22000    1.2585887   -3.9013831    9.1368614  0.034609323  0.077370094            3 
   23000    1.2386741   -3.9031738    10.036685  0.036364799  0.076590435            2 
   24000    1.2504519   -3.9052599    10.889683  0.037811398  0.076060622            1 
   25000    1.2394958   -3.9251141    11.820749  0.039402496  0.075720242            4 
   26000    1.2575921   -3.9085276    12.793832  0.041005872  0.075497062            4 
   27000    1.2475636   -3.9064874    13.695264  0.042269333  0.075364241            1 
   28000    1.2374538   -3.9133977    14.548306  0.043298529  0.075424879            2 
   29000    1.2605538   -3.8983469    15.676315  0.045046882  0.075538745            1 
   30000    1.2606457   -3.9010384    16.612585  0.046146067  0.075774175            1 
   31000    1.2637661   -3.9434295     17.52633  0.047113789  0.075979037            3 
   32000    1.2579685   -3.9101115    18.503237  0.048185513  0.076205611            1 
   33000    1.2448807   -3.9054056    19.360104   0.04888915  0.076367267            2 
   34000    1.2420208   -3.9352322    20.249624   0.04963143   0.07645935            4 
   35000    1.2371733   -3.8894293    21.298941  0.050711763  0.076504955            2 
   36000     1.256288   -3.9497654    21.990887   0.05090483   0.07649952            2 
   37000    1.2673454    -3.908708    22.928694  0.051641203  0.076493741            3 
   38000    1.2140484   -3.9346881    23.940803  0.052501761  0.076500708            2 
   39000    1.2248804   -3.9194966    24.797315  0.052985714   0.07644334            2 
   40000     1.242717    -3.920461     25.64185   0.05342052  0.076398257            2 
   41000    1.2500011   -3.9349508    26.743612  0.054356934   0.07639567            2 
   42000    1.2733359   -3.8616991    27.680527   0.05492168  0.076404864            2 
   43000    1.2540423   -3.9087445     28.45556  0.055146433  0.076425723            5 
   44000    1.2517222   -3.9087467    29.369463  0.055623982  0.076416115            2 
   45000    1.2328199    -3.935081    30.204462  0.055934188  0.076370302            2 
   46000    1.2544679   -3.9138479    31.464516  0.057000935  0.076337151            4 
   47000    1.2108969   -3.9223815    32.108456  0.056929887  0.076360784            2 
   48000     1.214534   -3.9361242     33.11355  0.057488801  0.076407115            2 
   49000    1.2733347   -3.9093823    34.130356  0.058044823  0.076466253            1 
   50000    1.2523977   -3.9009813     35.09309  0.058488482   0.07652182            1 
   51000    1.2074556   -3.9317015    35.990123   0.05880739  0.076558707       -1e+20 
   52000    1.2484668   -3.9136675    36.901144  0.059136449  0.076595805            2 
   53000     1.246792   -3.9136372    37.547386   0.05903677  0.076579966            1 
   54000    1.2225446   -3.9436318    38.638299  0.059627004  0.076535505            2 
   55000    1.2773161   -3.8953137    39.710638  0.060167632  0.076537201            2 
   56000    1.2223315    -3.931499    40.353869    0.0600504  0.076544767            2 
   57000    1.2203721   -3.9175222    41.562574  0.060763997  0.076555775            4 
   58000    1.2750631   -3.9235077    42.159258  0.060573646  0.076546887            2 
   59000     1.256051   -3.9716276    43.146449  0.060941312  0.076545379            1 
   60000    1.2639045   -3.9616586    44.144399  0.061311665   0.07654492            2 
   61000     1.229238    -3.936113    44.911261  0.061354181  0.076545634            1 
   62000    1.2312777   -3.9120756    45.780492  0.061532919  0.076496014            2 
   63000    1.2432205   -3.9133853    46.818625  0.061929398  0.076459652            1 
   64000     1.244596   -3.9298543    47.475319  0.061816822  0.076425851            1 
   65000    1.2298224   -3.9276477     48.61501  0.062326936  0.076407151            2 
   66000    1.2491608   -3.9099984    49.579452  0.062600318  0.076415046            2 
   67000    1.2244911   -3.9067325    50.487203  0.062795028  0.076391243            1 
   68000    1.2407714   -3.9064502    51.484482  0.063093728  0.076378304            2 
   69000    1.2386566   -3.9179109    52.413963  0.063301887  0.076363967            1 
   70000    1.2594404   -3.9309176    53.544872  0.063743895  0.076406222            3 
   71000    1.2191475   -3.9630821    54.496875  0.063963468  0.076452128            4 
   72000    1.2395039   -3.9490459    55.332659  0.064042429  0.076489546            4 
   73000    1.2462283   -3.9393912    55.820186  0.063721673  0.076499667            1 
   74000    1.2535252   -3.9160095    56.935838  0.064116934  0.076506187            1 
   75000     1.222054   -3.9340845     57.69815  0.064109055    0.0764906            1 
   76000    1.2203895   -3.9426807    58.416902  0.064053621  0.076471053            1 
   77000    1.2600689   -3.9597417    59.213807  0.064084206  0.076412943            1 
   78000    1.2512356   -3.9453046    60.068153  0.064175376  0.076365709            3 
   79000     1.214775   -3.9291192     61.53679  0.064912226  0.076338772            2 
   80000    1.2085904   -3.9088929    62.415811  0.065016469  0.076346347            3 
   81000     1.242508   -3.9365703    63.150672  0.064969826  0.076339768            1 
   82000    1.2640126   -3.9475187    64.082879  0.065124876  0.076338935            2 
   83000    1.2692461   -3.9050868    65.463575  0.065726481  0.076338528            2 
   84000    1.2258914   -3.9429966    66.185794   0.06566051  0.076349119            3 
   85000    1.2305987   -3.9219494    67.071337  0.065756212  0.076357901            2 
   86000    1.2283081   -3.9482059    67.902764  0.065797251  0.076365449            2 
   87000    1.2201445   -3.9104331    68.790608  0.065891386  0.076370599            1 
   88000     1.261511   -3.9623843    70.100155  0.066382722    0.0763864            1 
   89000    1.2355562   -3.9102592    71.165453  0.066634319   0.07641459            2 
   90000    1.2457212   -3.9597782    71.528067  0.066229691   0.07644034            5 
   91000    1.2313872   -3.9687778    72.650723  0.066529966  0.076451354            2 
   92000    1.2420869   -3.9676589    73.637689  0.066700805  0.076460608            1 
   93000    1.2229725   -3.9588861    75.003122  0.067207098   0.07649301            1 
   94000    1.2627795   -3.9312667    75.605499  0.067026151  0.076517777            4 
   95000    1.2396109    -3.950676    76.558151  0.067156272  0.076537854            2 
   96000    1.2068686   -3.9207566    77.599743  0.067360887  0.076553083            1 
   97000    1.1993024   -3.9055415    78.717586  0.067626792  0.076588127            1 
   98000    1.2338248   -3.9319987     79.75843  0.067821794  0.076626628            2 
   99000    1.1991336   -3.9246135    80.815339   0.06802638  0.076671035            1 
  100000    1.2153127   -3.9069302     81.83224  0.068193533  0.076710141            1 
  101000    1.2438662   -3.9232456    82.286457  0.067893116  0.076733907            1 
  102000     1.244717   -3.9164674    83.117129  0.067906151  0.076761343            3 
  103000    1.2465258   -3.9362051    84.125691  0.068062856   0.07678695            2 
  104000    1.2353047   -3.9138268    85.451955  0.068471117  0.076814192            2 
  105000     1.243148   -3.9025299    86.550092  0.068690549   0.07683898            1 
  106000    1.2249276   -3.9657781    86.562416  0.068052213  0.076866605            1 
  107000    1.2342133   -3.9295031    88.134605  0.068640657  0.076878015            1 
  108000    1.2344071   -3.9318599    88.807749  0.068524497   0.07689574            2 
  109000    1.2388304   -3.9464893    88.897461  0.067964419  0.076904358            4 
  110000     1.230699   -3.9526263    89.661463   0.06792535  0.076886573            2 
  111000    1.2115171   -3.9394915    90.701031  0.068093867  0.076866054            1 
  112000    1.2439018   -3.9541412    91.741846  0.068260302  0.076848231            1 
  113000     1.254596   -3.9602884    93.039923  0.068613512  0.076844669            2 
  114000    1.2012079   -3.9099851    93.777299  0.068550657  0.076838073            3 
  115000    1.2564911   -3.9225087    94.643151  0.068581993  0.076823348            1 
  116000    1.2325228   -3.9626302    95.667798  0.068726866  0.076801108            3 
  117000    1.2022781   -3.9293522     96.36545   0.06863636  0.076789559            2 
  118000    1.2500107   -3.9294939    97.040512  0.068531435  0.076775988            1 
  119000    1.2415507   -3.9863128     97.67139  0.068397332  0.076760013            7 
  120000    1.2430459   -3.9718227    98.892494  0.068675343  0.076745499            1 
  121000    1.2109986   -3.9678597    99.757133  0.068703259  0.076732402            3 
  122000     1.227179   -3.9479045    100.57348  0.068697729  0.076710156            2 
  123000     1.217924   -3.9463976    101.92036  0.069051734  0.076692362            1 
  124000    1.2178578   -3.9793079     102.4145   0.06882695  0.076668744            1 
  125000     1.229406   -3.9664731     103.6869  0.069124601  0.076653141            2 
  126000    1.2165624   -3.9061835    104.73009  0.069265934  0.076643257            4 
  127000    1.2108195   -3.9132836    106.11945  0.069632187  0.076638029            1 
  128000    1.2247075   -3.9587826    105.97332  0.068993044  0.076619999            3 
  129000    1.2147394   -3.8920686    107.44355  0.069407978  0.076601473            3 
  130000    1.1924697   -3.9351992    107.67645  0.069023367   0.07658445            3 
  131000    1.2324907   -3.9428066    108.44759  0.068987017  0.076558031            2 
  132000    1.2435067   -3.9339837    109.68416   0.06924505   0.07653151            2 
  133000    1.2369854   -3.9601324    110.10686  0.068989261  0.076506988            3 
  134000    1.2193785   -3.9837929    111.67737  0.069451102  0.076495854            2 
  135000    1.2301827   -3.9662854    112.17867  0.069246094  0.076482614            1 
  136000    1.2490077   -3.9605011    113.40668  0.069489389  0.076471958            2 
  137000    1.2422113    -3.943475    114.03579  0.069364833  0.076449254            2 
  138000    1.2516984   -3.9724899    115.10681  0.069508946  0.076434183            4 
  139000    1.2282096   -3.9518818    116.02344  0.069558415  0.076419821            4 
  140000     1.241339   -3.9501074    116.16866  0.069148014  0.076400626            2 
  141000    1.2344924   -3.9286078    118.12001  0.069810882  0.076388804            2 
  142000    1.2164784   -3.9251314    119.61646  0.070197453  0.076385927            3 
  143000     1.255321    -3.992921    119.57261  0.069681007  0.076376153            6 
  144000    1.2217015   -3.9386767    120.86914  0.069947418  0.076369274            5 
  145000    1.2427442    -3.913015    121.78736  0.069992734  0.076366011            2 
  146000    1.2543167   -3.9405339    122.81095  0.070097576  0.076361764            2 
  147000    1.2136529   -3.9296277    123.28738  0.069890804  0.076354764            1 
  148000    1.2213398   -3.9325464    124.68853  0.070207506  0.076348315            2 
  149000    1.2146651   -3.9074877    125.23108  0.070039751  0.076334157            2 
  150000    1.2336665   -3.9000623     126.2341  0.070130055  0.076323202            2 
  151000    1.2202505   -3.9034509     127.0747  0.070129526  0.076311487            2 
  152000    1.2417527   -3.9699701    127.93588  0.070140287  0.076304605            6 
  153000    1.2452487   -3.9461028    129.19153  0.070365757  0.076299978            2 
  154000    1.2059312   -3.9646167    129.67944  0.070172854  0.076293774            2 
  155000    1.2292989   -3.9214612    130.64632  0.070239954  0.076288539            1 
  156000    1.2105936   -3.9622493    131.14244  0.070054721  0.076271156            4 
  157000    1.2281868   -3.9124586    132.82645  0.070502364  0.076254626            2 
  158000    1.2441942   -3.9146446    132.80457  0.070044604  0.076238845            1 
  159000    1.2052739   -3.9408659    133.73898  0.070093803  0.076215043            4 
  160000    1.2362715    -3.947023     134.7541  0.070184427  0.076197385            4 
  161000    1.2163166   -3.9662559    136.03594  0.070411975  0.076185084            2 
  162000    1.2258097   -3.9410448    137.85896  0.070915103  0.076176005            3 
  163000    1.2300456   -3.9067736    138.59204  0.070854827  0.076165619            1 
  164000    1.2388952   -3.9383417    138.43808   0.07034455  0.076160173            1 
  165000    1.2070143   -3.9541398    139.03902  0.070221729  0.076141193            2 
  166000    1.2023502   -3.9887665    140.29404  0.070428737  0.076123891            2 
  167000    1.2407024   -3.9401888    141.06249  0.070390466  0.076106753            2 
  168000    1.2317003    -3.925108    142.06673  0.070469609  0.076089061            3 
  169000    1.2276035   -3.9327219    142.78895  0.070408755  0.076073615            4 
  170000    1.2158177    -3.968952    143.75035  0.070465859  0.076059722            2 
  171000    1.2129925   -3.9477375    144.73169  0.070532012  0.076043357            2 
  172000    1.2123221   -3.9313047     144.8032  0.070156591  0.076025661            2 
  173000    1.2325159   -3.9467666    146.43802  0.070538545  0.076008516            1 
  174000    1.2223371   -3.9341223    146.64586  0.070232693  0.075990618            1 
  175000    1.2372684   -3.9450604    148.32542   0.07063115  0.075972716            2 
  176000    1.2444395   -3.9700954      148.942  0.070521781  0.075954324            3 
  177000    1.2317548   -3.9511388    149.05108  0.070174709  0.075933542            2 
  178000    1.2130476   -3.9478384    151.18321  0.070778658   0.07591794            2 
  179000    1.2179486   -3.9641158     151.4852  0.070523837  0.075906781            2 
  180000    1.2295658   -3.9609948    152.20556  0.070465536  0.075901673            2 
  181000    1.2117878   -3.9208159    153.89495  0.070854027  0.075888709            3 
  182000    1.1957567   -3.9945104     154.2273  0.070616895  0.075873627            2 
  183000     1.207203   -3.9367997    155.39758  0.070763924   0.07586075            2 
  184000    1.2032171   -3.9925616    156.57585  0.070912975  0.075853608            1 
  185000     1.219501   -3.9553009    157.79284  0.071077856  0.075847172            4 
  186000    1.2594174    -3.956271    158.27318  0.070910922  0.075837587            1 
  187000    1.2129286    -3.940679    159.53383  0.071093508  0.075828733            4 
  188000    1.1893155   -3.9512289    159.78036  0.070824628  0.075826379            2 
  189000    1.2102625   -3.9477927    161.82311  0.071350579  0.075827748            3 
  190000    1.2438582   -3.9746975    162.98339  0.071483943  0.075830339            3 
  191000     1.225866   -3.9557147    163.41152  0.071296472  0.075833266            1 
  192000    1.2475868   -3.9312276    164.06221  0.071207554  0.075831913            3 
  193000    1.2121389   -3.9677313    164.98587  0.071237423  0.075828267            2 
  194000    1.2077722   -3.9876839    165.29878  0.071004629  0.075829918            1 
  195000    1.2271896   -3.9833392    166.58767  0.071191311  0.075823855            3 
  196000    1.2374728   -3.9856976    166.92754  0.070972595  0.075816661            3 
  197000    1.2182478   -3.9420867    169.09212  0.071527968  0.075812253            4 
  198000    1.2295675    -3.972234    169.13605  0.071185208  0.075808499            1 
  199000    1.2197054   -3.9576695    169.89226  0.071144162  0.075800397            1 
  200000     1.193801   -3.9295655    171.42256  0.071426065  0.075794359            6 
  201000    1.2032182   -3.9800625    171.04521  0.070914268  0.075785336            4 
  202000    1.2259705   -3.9485838    172.04989  0.070977676  0.075772575            2 
  203000    1.2444878   -3.9292543    172.81328  0.070941413  0.075756785            2 
  204000     1.206969   -3.9891487    172.86694  0.070615581   0.07573877            3 
  205000    1.1958392   -3.9541729    174.85709  0.071080116  0.075722395            2 
  206000     1.207441   -3.9777368    175.61898  0.071043276  0.075707923            4 
  207000    1.2006535   -3.9459646     176.3167  0.070980957  0.075688886            2 
  208000    1.2186261   -3.9499871    176.77478  0.070823227  0.075675242            1 
  209000    1.1894519   -3.9452257    178.34851  0.071111848  0.075655122            3 
  210000    1.2333896    -4.005411    178.82395  0.070961885  0.075640726            3 
  211000    1.2129562   -3.9832896    180.08385  0.071123162  0.075629322            2 
  212000    1.2103796   -3.9348008    180.47574  0.070941723  0.075620017            2 
  213000    1.2049156   -3.9742528    182.20725  0.071286093  0.075606994            3 
  214000    1.2343521   -3.9249986    183.02234  0.071270381  0.075590071            1 
  215000    1.2022682   -3.9354954    184.49198  0.071508517  0.075576493            1 
  216000    1.1980897   -3.9854496    184.53632  0.071194569   0.07556922            1 
  217000    1.1674337   -3.9565155    184.95285   0.07102644  0.075557082            2 
  218000    1.2355743      -3.9528    187.11576  0.071527432  0.075545374            1 
  219000    1.2209917    -3.959657    187.20883  0.071236238    0.0755342            3 
  220000    1.1960923   -3.9488478    187.24439  0.070925906  0.075520659            1 
  221000    1.2254845   -3.9793575    188.06662  0.070915013   0.07549996            2 
  222000    1.2202225    -3.963467    188.80268  0.070871877  0.075477045            1 
  223000     1.230987   -3.9784812     189.4048  0.070779072  0.075456535            2 
  224000    1.2534371   -3.9505402    192.37545  0.071568248  0.075440546            1 
  225000      1.18517   -3.9733692    192.33235  0.071234205  0.075425036            1 
  226000    1.2056904    -3.966485    193.93301  0.071509223  0.075413468            1 
  227000    1.2237925   -3.9518086    194.53023  0.071413448   0.07539799            2 
  228000    1.2170323   -3.9623106    195.10214  0.071309263  0.075387346            3 
  229000    1.2154592   -3.9274476    196.14307  0.071376663  0.075373937            5 
  230000    1.1933888   -4.0037583     196.7595  0.071289674  0.075361247            1 
  231000    1.2189981   -4.0091433    197.17449  0.071130768  0.075349092            2 
  232000    1.2132683   -3.9573824    198.13781   0.07117019  0.075333712            1 
  233000    1.2209811   -3.9470277    199.23124  0.071255808  0.075319249            1 
  234000    1.1838651   -3.9616558     200.5533  0.071422114  0.075302931            2 
  235000    1.2482729   -3.9955307    201.14578  0.071328291  0.075289917            4 
  236000    1.1858045   -4.0079102      201.249  0.071062499  0.075280028            2 
  237000    1.2138334    -3.968965    202.20749   0.07109968   0.07526601            3 
  238000     1.210531   -4.0122282     203.6479  0.071305287  0.075252905            1 
  239000    1.2202228   -3.9801646    204.15691  0.071184419  0.075233752            2 
  240000    1.2364419   -3.9707054    204.53312  0.071018443   0.07521544            3 
  241000    1.2293582   -3.9939221    206.16183  0.071286939  0.075199647            1 
  242000    1.1938747   -3.9598691    207.51683  0.071458962  0.075186119            2 
  243000    1.2119991    -3.997657    208.01766  0.071336645  0.075173401            3 
  244000    1.1976376   -3.9842527    209.38748  0.071512117  0.075163255            2 
  245000    1.2191032   -3.9402942    211.21359  0.071841358  0.075153306            2 
  246000    1.2097151   -3.9693118    211.21489   0.07154976  0.075147047            1 
  247000    1.2186303   -3.9858188    211.85466   0.07147593  0.075139607            4 
  248000    1.2085706   -3.9470053     212.3175  0.071343247  0.075126757            1 
  249000    1.2143726    -3.994543    212.62448  0.071159465  0.075110707            1 
  250000     1.225423   -3.9890949    214.18973  0.071396575  0.075092338            2 
  251000    1.2161155   -3.9336713    215.19376  0.071445471  0.075076361            3 
  252000    1.2244741   -3.9563374    215.19915   0.07116374  0.075058564            1 
  253000    1.2130427   -3.9947883    216.00109  0.071146603   0.07503902            2 
  254000    1.1795427   -3.9527944    216.62684  0.071071798   0.07502359            1 
  255000    1.2310632   -4.0025643    217.21072  0.070983895  0.075006397            2 
  256000    1.2167384   -3.9952701    218.69991  0.071191376  0.074987925            2 
  257000    1.2151581   -3.9994741    218.41785  0.070822908  0.074970204            2 
  258000    1.1821715   -3.9947544    219.94033  0.071040158  0.074948774            2 
  259000    1.1934946   -3.9488908    220.93701  0.071086555   0.07493092            2 
  260000     1.202985   -3.9752719    221.21391  0.070901894  0.074910095            2 
  261000    1.2307206   -3.9710938    222.37644  0.071001417  0.074891208            1 
  262000    1.2315453   -3.9766809    224.11384  0.071283028   0.07487216            4 
  263000    1.2528284   -3.9766727    223.97663  0.070968513  0.074849895            2 
  264000    1.2465291   -3.9833086    223.33975  0.070498658  0.074826408            1 
  265000    1.1897624   -4.0092532     225.2749  0.070841162  0.074803011            3 
  266000    1.2138612    -3.990958    226.77161  0.071043737  0.074783274            1 
  267000    1.1983768   -3.9610153    227.82536  0.071106543   0.07476129            2 
  268000    1.2298604   -3.9767686    228.77214  0.071135614  0.074738678            2 
  269000    1.2129991   -3.9452382    230.19845  0.071313027  0.074720516            1 
  270000    1.2125528   -3.9853327    231.11362  0.071331365  0.074706311            2 
  271000    1.2041482   -3.9796369    231.70278  0.071249318  0.074692583            2 
  272000    1.2108676   -3.9730299    233.58191  0.071563084  0.074679921            1 
  273000    1.2119533   -3.9345018    234.27441  0.071512335   0.07466474            1 
  274000    1.1990405   -3.9972446    234.75442   0.07139733  0.074651716            2 
  275000    1.2041677   -3.9559375    235.20933  0.071275555  0.074639763            1 
  276000     1.193639   -3.9728381    236.52424  0.071414325  0.074627491            3 
  277000     1.197093   -4.0271312    235.84169  0.070951171  0.074614262            1 
  278000    1.2164664   -3.9840698    237.04028  0.071055239  0.074598144            2 
  279000    1.2237262   -3.9806582    237.80441  0.071028795  0.074581532            1 
  280000    1.2034894   -3.9780489    238.44508  0.070965797  0.074564526            3 
  281000    1.1999392   -3.9396444     239.8743    0.0711371  0.074543022            1 
  282000    1.2207126   -3.9951729    239.75447  0.070849428  0.074519404            1 
  283000     1.197622   -3.9651059    241.63555  0.071152988  0.074499796            2 
  284000    1.1973973   -4.0065912    242.43588  0.071137288  0.074481112            5 
  285000    1.2151314   -3.9579736    243.54819  0.071212921  0.074464696            3 
  286000    1.1768612    -3.917224    245.64123  0.071573783  0.074450763            3 
  287000    1.1752155    -3.946457    245.01399  0.071142275  0.074436852            4 
  288000    1.1850997   -3.9962073     245.9987   0.07118018   0.07442501            2 
  289000    1.2036421   -3.9670304    246.83084   0.07117383  0.074411789            2 
  290000     1.185273   -4.0331124    246.45688  0.070820942  0.074396818            2 
  291000    1.1854525   -3.9779162    249.28701  0.071388032  0.074383647            2 
  292000    1.2200791   -4.0005609    249.27659  0.071140578  0.074367278            2 
  293000    1.2162568   -3.9993857    249.27225  0.070896543   0.07435124            1 
  294000    1.1822131   -3.9855884    250.89223  0.071114578   0.07433386            2 
  295000    1.2136692   -3.9822787    251.94631  0.071171274  0.074319658            1 
  296000    1.2208838   -3.9806212    252.93215  0.071208377  0.074305939            5 
  297000    1.2238324   -3.9556749    254.36582   0.07137088  0.074292349            9 
  298000    1.2200256   -3.9739728     254.5825  0.071191973  0.074278805            2 
  299000    1.1849871   -3.9476524    255.85988  0.071309887  0.074265473            1 
  300000    1.1953624   -4.0003191    256.59605  0.071276681  0.074252494            2 
  301000    1.2184381   -3.9450473     258.2106  0.071486876   0.07424293            4 
  302000     1.199557   -3.9759483    258.01537  0.071196294  0.074234337            1 
  303000    1.2141042   -3.9745271    258.37005   0.07105887  0.074224041            1 
  304000    1.2022113    -3.981919    258.75771  0.070931388  0.074209602            2 
  305000    1.1892197   -4.0069242    259.61537  0.070933161  0.074191743            4 
  306000    1.1907251   -3.9705458    261.93695  0.071333593  0.074177261            2 
  307000    1.1969925   -3.9762809    262.50278  0.071254826  0.074161597            2 
  308000     1.190345      -3.9599    262.75946  0.071092928  0.074146371            2 
  309000    1.2180602   -4.0056352    262.96055  0.070917085  0.074129274            4 
  310000    1.1830047   -3.9626766    264.61148  0.071132118  0.074112314            2 
  311000     1.176116   -3.9864704    264.40738  0.070848709  0.074092758            2 
  312000    1.2035589   -3.9715681    265.19559  0.070832156  0.074072341            1 
  313000    1.2029305   -3.9923976    265.70026  0.070740218  0.074051381            1 
  314000    1.2061748   -3.9849526    267.19987  0.070912916  0.074034696            3 
  315000    1.1902868   -4.0126039    268.38322  0.071000853  0.074017753            2 
  316000    1.2181593   -3.9759164    269.21827  0.070996379  0.074002014            1 
  317000    1.2169574   -4.0036296    269.17005  0.070759741  0.073984256            4 
  318000    1.2035049   -4.0169173    271.41517   0.07112557    0.0739697            4 
  319000    1.1993353   -3.9688341    272.62686  0.071219138  0.073955983            2 
  320000    1.1891012   -3.9951932    273.15133  0.071133159  0.073941349            4 
  321000    1.1968068   -3.9985434    273.51996  0.071007258  0.073925263            1 
  322000    1.1871423   -3.9812843    275.86213   0.07139289  0.073910796            2 
  323000    1.2277215    -3.989155    275.72942  0.071137621  0.073895428            1 
  324000    1.2054048   -4.0312027     276.0079  0.070989687  0.073882053            2 
  325000    1.2014291   -3.9917311        277.9  0.071256411  0.073870211            1 
  326000    1.2295835   -3.9497055    278.44388  0.071176861   0.07385821            2 
  327000      1.19099   -4.0331221    277.95264  0.070834005   0.07384436            2 
  328000    1.2340306   -4.0050258     278.5795  0.070777311  0.073830268            1 
  329000    1.1758855   -3.9801692    280.38073  0.071018421  0.073814714            2 
  330000    1.1682825   -3.9725091    281.79028  0.071159162  0.073799806            2 
  331000     1.199279   -4.0114987    282.01848  0.071001632  0.073785482            3 
  332000     1.188376   -4.0149593    282.23795  0.070842858  0.073769478            2 
  333000    1.1942184   -4.0288784    282.97933  0.070815649  0.073756448            1 
  334000    1.2085178   -4.0025226     283.8894  0.070830688  0.073741951            3 
  335000    1.1925426   -3.9808348    284.69593  0.070819883  0.073724225            1 
  336000    1.1889425   -3.9925674    286.62769  0.071088217  0.073708915            1 
  337000    1.1979047   -3.9681025     286.1944  0.070770128  0.073695147            2 
  338000    1.1773376   -4.0273857    287.02404  0.070765295  0.073677911            3 
  339000    1.2085301   -4.0116875    289.18061   0.07108668  0.073661052            1 
  340000    1.1928581   -3.9733032    290.14828  0.071114774  0.073647269            3 
  341000    1.1932769   -3.9734997    290.34043  0.070953184  0.073634233            2 
  342000    1.1975675   -4.0066071    290.88324  0.070877982  0.073620473            1 
  343000    1.1829336   -3.9888072     292.0683  0.070959256  0.073604591            1 
  344000    1.1988387   -3.9957143    293.15726  0.071016778  0.073588859            3 
  345000    1.1906196   -4.0115103    293.87019  0.070983138  0.073574614            2 
  346000    1.1896883   -3.9816839    294.95951  0.071040345  0.073559413            2 
  347000    1.1969758   -3.9824561    295.01351  0.070848585  0.073544254            1 
  348000    1.2039269    -3.983101    296.59034  0.071022592  0.073529143            3 
  349000    1.1845319   -4.0099357    296.22777  0.070732515  0.073514121            3 
  350000    1.1845128   -3.9950118    297.62828  0.070863876  0.073499038            5 
  351000    1.1702857   -3.9789113    298.71431  0.070919827   0.07348318            1 
  352000    1.2248545   -4.0132926    299.19359  0.070831817  0.073467478            1 
  353000    1.2043897   -4.0047282    299.90734  0.070799654  0.073451391            1 
  354000     1.182164   -3.9967981    300.25274  0.070680965  0.073436791            3 
  355000    1.1628242   -3.9984131    301.35571  0.070740778  0.073420444            3 
  356000    1.1928022   -3.9753215    302.45572  0.070799559  0.073407302            2 
  357000    1.1699175   -3.9721807    304.28262  0.071027689  0.073394522            2 
  358000     1.184668    -4.004485    304.54312  0.070889925  0.073382654            2 
  359000    1.2153334   -4.0059569    306.41806  0.071127682  0.073369494            2 
  360000    1.2041969   -3.9786875    306.87797  0.071036567  0.073355308            5 
  361000    1.1726148   -4.0218641    306.40099  0.070729683   0.07333918            2 
  362000    1.1859985   -3.9564549    308.55111  0.071029262  0.073325838            3 
  363000    1.1692215   -4.0062212    309.58322  0.071070528  0.073313244            2 
  364000    1.1967569   -3.9736853    310.70639  0.071132414   0.07330231            2 
  365000    1.1847635    -4.009026    309.75096  0.070719397  0.073289745            2 
  366000    1.1911133   -3.9964026    311.30307  0.070879569  0.073276356            1 
  367000    1.1895173   -4.0131318    312.25106  0.070901694  0.073262832            2 
  368000    1.1929452   -3.9878066    313.45616  0.070981921  0.073251689            2 
  369000    1.1782745   -3.9700367    314.38209  0.070998665  0.073239331            2 
  370000    1.1805241   -4.0064431    313.87974  0.070693636  0.073225771            3 
  371000    1.1870107   -3.9722961    314.88321  0.070728484  0.073213334            3 
  372000    1.2143945   -4.0000551    315.98901  0.070786067  0.073201755            3 
  373000    1.1756297   -3.9905154    318.19514  0.071089172  0.073190093            1 
  374000    1.1870574   -4.0157457    317.77042  0.070804461  0.073180707            1 
  375000    1.1971283   -3.9796375    320.49373  0.071220829  0.073170478            1 
  376000    1.1872591   -3.9884397    321.41111  0.071234733  0.073161731            1 
  377000    1.1809182   -3.9984563    320.02457  0.070739294   0.07315171            1 
  378000    1.1655776   -3.9987936    322.23654  0.071039801  0.073142509            1 
  379000    1.1765227   -4.0084632    321.54824   0.07070102  0.073131583            1 
  380000    1.1969278   -4.0056077    322.77805  0.070784659  0.073121327            1 
  381000    1.1876726   -4.0299109    323.90499   0.07084536  0.073112634            3 
  382000    1.2093216   -3.9864109    325.32286   0.07096921   0.07310445            3 
  383000    1.2282784   -3.9775111    325.26178  0.070770621  0.073095124            3 
  384000    1.1789659   -3.9928191    328.23793   0.07123219  0.073084867            1 
  385000    1.1866482   -4.0129193    327.43235  0.070872803  0.073076731            3 
  386000    1.1928829   -4.0339925    329.01718  0.071031342  0.073068755            5 
  387000    1.1960594   -4.0055919    330.33966   0.07113257  0.073059393            1 
  388000    1.2000438   -3.9890957    329.91426  0.070857873  0.073047206            3 
  389000    1.1922299   -4.0185809    330.28216  0.070754533  0.073036613            1 
  390000    1.1822222   -4.0188745     330.0907    0.0705322   0.07302262            2 
  391000       1.1922   -3.9907499    332.04153  0.070767589  0.073009786            2 
  392000    1.1706338   -4.0239005    332.81635  0.070751775  0.072995625            2 
  393000    1.2007852   -3.9847366     333.9255  0.070806934  0.072983263            2 
  394000    1.1899966   -3.9849362    335.55489  0.070971846  0.072968592            1 
  395000    1.1777219   -4.0195936    334.84533  0.070642474  0.072953511            3 
  396000    1.1897004   -4.0292944    334.90296  0.070476213  0.072938312            2 
  397000    1.1744703   -3.9894552    334.42217  0.070197769  0.072920557            3 
  398000    1.1912734   -4.0336129    335.68365  0.070285522  0.072902599            2 
  399000    1.2299851   -4.0143988    336.57954  0.070296478  0.072883907            1 
  400000    1.1691438   -3.9842128    336.65424  0.070136299  0.072863217            7 
  401000     1.190816   -3.9982991    338.01143  0.070243439  0.072842791            2 
  402000     1.149615    -3.982046    338.66815   0.07020484  0.072824311            2 
  403000     1.171882   -4.0024967    340.24589  0.070356884  0.072802964            3 
  404000    1.1655612   -3.9969742    339.48677  0.070026149  0.072783707            2 
  405000    1.1871629   -4.0026124    341.14213  0.070193854  0.072762303            1 
  406000    1.1949201   -4.0127261    341.85146  0.070166555  0.072741072            1 
  407000    1.2126586   -3.9857025     341.9828  0.070021048  0.072720402            1 
  408000    1.1507756   -3.9968396    342.88339  0.070033373  0.072702171            2 
  409000    1.1925251    -4.023592    342.62296  0.069809078  0.072683794            1 
  410000    1.1917858   -4.0434276    345.28709  0.070180302  0.072662516            3 
  411000    1.1764274   -4.0769971    343.51187  0.069649609   0.07264375            1 
  412000    1.1649224   -3.9974898    348.43274  0.070475877  0.072625267            2 
  413000    1.1772504   -4.0291008    345.08364  0.069629467  0.072606373            1 
  414000    1.1902043   -4.0339398     348.8218  0.070213729  0.072585379            2 
  415000     1.183901   -4.0172461    348.32042   0.06994386  0.072563513            2 
  416000    1.1986726   -4.0218343    348.16796  0.069745183   0.07254257            1 
  417000    1.1700281   -3.9810348     351.4829  0.070240387  0.072522515            1 
  418000    1.1937675   -4.0055378    351.02932  0.069981922  0.072503719            5 
  419000    1.1600866   -4.0391189    351.79455  0.069967094  0.072486477            2 
  420000    1.1764184    -4.028229    352.32314  0.069905385   0.07246976            3 
  421000    1.1833191   -4.0435039    352.85842  0.069845292  0.072452638            2 
  422000    1.1986464   -4.0148877    355.03529  0.070109654  0.072433649            3 
  423000    1.1738739   -4.0052834    356.64214  0.070260469  0.072416958            2 
  424000      1.16206   -4.0248773    357.45668   0.07025485  0.072400345            2 
  425000    1.1914265    -4.022609    358.24769  0.070244645   0.07238252            4 
  426000    1.1817055   -4.0166174    359.11608  0.070249624  0.072366176            2 
  427000    1.1854088   -4.0168864    359.59216  0.070178017  0.072348675            3 
  428000    1.1774668   -4.0035713    359.26761  0.069950859  0.072332153            3 
  429000    1.1758426   -4.0029503    360.16474   0.06996207  0.072313732            1 
  430000    1.1895067   -3.9721374    361.79149   0.07011463  0.072297175            3 
  431000    1.1648206   -3.9920948    362.95389  0.070176699  0.072279841            2 
  432000    1.1555646   -4.0180574    364.14747  0.070244496  0.072261963            1 
  433000     1.183658   -4.0028072    366.01965  0.070442581  0.072247091            2 
  434000    1.1583286   -4.0770083    363.00868  0.069702127  0.072230641            3 
  435000    1.1894579   -4.0020301    365.83331   0.07008301  0.072215871            4 
  436000    1.1902813   -4.0245039    367.26668  0.070196231  0.072202575            1 
  437000    1.1762382   -4.0170864     368.5633  0.070282857  0.072187576            3 
  438000    1.1917014   -4.0043774    369.69787  0.070338256  0.072172813            2 
  439000    1.1872199   -4.0097079    368.54731  0.069959625  0.072159095            2 
  440000    1.1737036   -4.0521401    367.29669  0.069563767  0.072143252            5 
  441000    1.1590679   -4.0110992    372.10311  0.070314269   0.07212667            2 
  442000    1.1751901    -4.006706    370.89725  0.069927838  0.072110217            1 
  443000    1.1635036    -3.989368    374.37711  0.070424589  0.072094235            5 
  444000    1.1518382   -4.0260803    373.68953  0.070136924  0.072078391            1 
  445000    1.1810957    -4.031652    374.06176  0.070049018  0.072063745            4 
  446000    1.1770125   -3.9991773    374.90887  0.070050238  0.072048639            1 
  447000    1.1651163   -4.0215887     376.1435  0.070123695  0.072033469            1 
  448000    1.1690444   -4.0471818    375.84957  0.069912495   0.07201776            3 
  449000    1.1669451   -4.0291189    377.57624  0.070077254  0.072003176            3 
  450000    1.2026944   -4.0111644    378.16244  0.070030081  0.071987786            4 
  451000    1.1648094   -4.0287933    380.01648  0.070217383  0.071972938            3 
  452000    1.1691644   -4.0290497    380.92031  0.070228671   0.07196146            2 
  453000    1.1882477   -4.0225339    382.07901  0.070286794  0.071947146            5 
  454000    1.1531135   -4.0236573    381.73941  0.070069642  0.071932967            4 
  455000    1.1726729   -4.0133051    382.27624  0.070013963  0.071919117            3 
  456000    1.1734129   -4.0480935    382.09467  0.069827242  0.071904544            1 
  457000    1.1762916   -4.0281695     384.3924  0.070093436  0.071891637            3 
  458000    1.2011172   -4.0004993    386.06052  0.070243908  0.071878796            1 
  459000    1.1721313   -4.0446673    385.77331  0.070038726  0.071866932            2 
  460000    1.1796198   -3.9893122    388.83551  0.070441215  0.071856722            1 
  461000     1.180518   -4.0410136     387.4784  0.070043095  0.071844744            2 
  462000    1.1817495   -4.0141302    388.97103  0.070160719  0.071832159            7 
  463000    1.1991451   -4.0345916    388.39093  0.069904774  0.071821135            3 
  464000    1.1811062   -4.0109707    390.50886  0.070134494  0.071807738            1 
  465000    1.1859658   -3.9914759    389.96442  0.069886096  0.071795628            1 
  466000    1.1771417    -4.038166    391.32431  0.069979312  0.071783795            2 
  467000     1.189529    -4.024978    391.96216  0.069943283  0.071772955            3 
  468000    1.1556712   -4.0331068    391.37852  0.069689907  0.071760313            4 
  469000    1.1661094   -4.0233712    394.19205  0.070041231  0.071747537            2 
  470000    1.1965302   -4.0455272    394.09996  0.069875879  0.071734462            4 
  471000    1.1982829   -4.0091378    396.47411  0.070147578  0.071722742            2 
  472000    1.1664295   -4.0113219    397.41452  0.070164992  0.071709722            4 
  473000    1.1809612   -4.0197076    396.24008   0.06980974  0.071696417            1 
  474000    1.1800605   -3.9987378    398.65246  0.070086579  0.071683965            2 
  475000    1.1621768   -3.9981828    400.14249  0.070200437  0.071671443            4 
  476000    1.1627018   -4.0508718     398.9566  0.069845343  0.071659331            2 
  477000     1.177727   -4.0169564    400.14958  0.069907334  0.071648139            2 
  478000    1.1761558   -4.0488133     400.1602  0.069762936  0.071636577            3 
  479000    1.1869805   -4.0116604    401.77041  0.069897426  0.071623885            4 
  480000    1.1717851   -4.0372946    402.18774   0.06982426  0.071611204            2 
  481000    1.1729292   -3.9940276    403.43376  0.069894968  0.071599371            2 
  482000    1.1888919   -4.0394391     403.1946   0.06970861  0.071583394            1 
  483000    1.1714022   -4.0408551    404.17665  0.069733721  0.071567517            4 
  484000    1.1615149   -4.0406061    403.97658  0.069555196  0.071553713            4 
  485000    1.1573998   -4.0238223    403.68022  0.069360862   0.07154015            1 
  486000    1.1792096   -3.9988313    409.18931  0.070162777  0.071527976            1 
  487000    1.1571321   -3.9881718    408.02588  0.069819624  0.071515503            1 
  488000    1.1945605   -4.0180606    408.45095  0.069749138  0.071501228            4 
  489000    1.1731167   -4.0348761    408.93567  0.069689105  0.071489167            2 
  490000    1.2050512   -4.0404273    411.56768  0.069994504  0.071476992            1 
  491000     1.152428   -4.0373095     410.8744  0.069734283  0.071464876            1 
  492000    1.1752492   -4.0277628    413.23349  0.069992122  0.071454925            2 
  493000    1.1594589   -4.0176977    417.44248  0.070561609  0.071446428            4 
  494000    1.1716472    -4.046751    413.89694  0.069820671  0.071436258            2 
  495000    1.1719316   -4.0436859    415.25444  0.069908155  0.071426116            1 
  496000    1.1657256   -3.9983529    416.60079  0.069993413  0.071417363            3 
  497000    1.1779489   -4.0203286    418.40808  0.070155613  0.071408119            2 
  498000    1.1534322   -4.0262698    419.79534  0.070246878  0.071399167            1 
  499000    1.1719547   -4.0125468    418.07506  0.069818814  0.071391552            5 
  500000    1.1861138   -4.0397514     419.8047   0.06996745  0.071383134            1 
  501000    1.1870905   -4.0463167    420.44959  0.069935061  0.071374365            1 
  502000    1.1598961   -4.0470964    422.70427  0.070170031  0.071366109            1 
  503000    1.1485183    -4.009245    423.28746  0.070127148  0.071357395            2 
  504000    1.1910364   -4.0301276    423.44803  0.070014555  0.071349157            1 
  505000    1.1593009   -4.0389702    424.13516    0.0699893  0.071341334            3 
  506000    1.1610542   -4.0221216    425.35953  0.070052623   0.07133348            2 
  507000    1.1806785   -4.0499215    426.45507  0.070094522   0.07132524            2 
  508000    1.1866807   -4.0111127     427.3707  0.070106742  0.071317085            2 
  509000     1.159552   -4.0369514    427.34264  0.069964413  0.071307964            1 
  510000    1.1752977   -4.0517971    427.87209   0.06991374  0.071299387            6 
  511000    1.1501637    -4.020638    430.56974  0.070216852  0.071290673            3 
  512000    1.1772147   -4.0482149    432.21054  0.070346768  0.071283604            3 
  513000    1.1703781   -4.0358512    433.39266  0.070401666  0.071277167            3 
  514000     1.157752    -4.019261    430.86061  0.069854184  0.071270267            3 
  515000    1.1662519   -4.0413731    434.02069  0.070229886   0.07126506            2 
  516000    1.1916731   -4.0447177    434.40605  0.070156016  0.071259526            2 
  517000    1.1637025   -4.0529185    433.46856  0.069869207  0.071252791            4 
  518000     1.158634   -4.0469921     435.1726  0.070008462  0.071245094            1 
  519000    1.1713422   -4.0113394    435.38144  0.069907104  0.071237399            6 
  520000    1.1528131   -4.0348038    437.79218  0.070159003  0.071230361            6 
  521000    1.1743338   -4.0575163    436.79085   0.06986418  0.071223429            1 
  522000    1.1955083   -4.0686652    437.72091  0.069878817  0.071216885            1 
  523000    1.1421313   -4.0711147    438.26651   0.06983214  0.071209207            5 
  524000    1.1700556   -4.0218536    440.40111  0.070038345  0.071202002            2 
  525000    1.1701149    -4.029392     440.6043  0.069937191  0.071194396            2 
  526000    1.1852357   -4.0364126    441.53962  0.069952412  0.071185905           11 
  527000    1.1781495   -4.0295514     441.4712  0.069808854  0.071176865            2 
  528000    1.1521622    -4.044702    443.26611  0.069959929  0.071168887            2 
  529000    1.1842564   -4.0256128    444.58221  0.070035005  0.071161447            1 
  530000    1.1266923    -4.041392    446.30747  0.070174131  0.071154646            2 
  531000    1.1419416   -4.0364547    445.15907   0.06986175  0.071147625            2 
  532000     1.179656    -4.086266    445.88915  0.069844792  0.071140594            2 
  533000    1.1675225    -4.017985    449.18579  0.070229173   0.07113325            2 
  534000    1.1599912   -4.0265201    450.03508  0.070230193  0.071125346            1 
  535000    1.1797305   -4.0520908    447.88272  0.069763664  0.071116291            3 
  536000    1.1750063   -4.0525594    447.60279  0.069589986  0.071107066            2 
  537000    1.1611807    -4.097288    448.42784   0.06958843  0.071095665            2 
  538000    1.1780778   -4.0383616    449.65816  0.069649654  0.071084394            1 
  539000    1.1863871     -4.04206    451.01878  0.069730795  0.071073009            1 
  540000    1.1705458   -4.0375275    451.02179  0.069602127  0.071061748            2 
  541000    1.1857314   -4.0416044    453.70241  0.069886384  0.071051174            4 
  542000    1.1504794   -4.0323552    453.09658  0.069664295  0.071041236            3 
  543000    1.1695712   -4.0195895    456.08028  0.069993904  0.071032266            2 
  544000    1.1662852   -4.0630369    452.83651  0.069368338  0.071022261            5 
  545000    1.1845041   -4.0505426    455.51835  0.069651124  0.071012349            3 
  546000    1.1644668   -4.0376436    456.24083  0.069633827  0.071003097            3 
  547000    1.1830948   -4.0513455    456.19425  0.069499429  0.070992478            5 
  548000     1.154851   -4.0748999    456.55692  0.069427755  0.070982064            1 
  549000    1.1234026   -4.0107632    459.11016  0.069688852  0.070971636            3 
  550000    1.1818068   -4.0141298    460.75624  0.069811552  0.070961111            3 
  551000    1.1589594   -4.0456556    460.33035  0.069620441  0.070950928            4 
  552000    1.1612028   -4.0347133    459.24402  0.069330316  0.070940802            1 
  553000    1.1677884   -4.0660249    462.73158  0.069730497  0.070929645            2 
  554000    1.1658831    -4.050735    461.40517   0.06940511  0.070918579            4 
  555000    1.1509232   -4.0356815    463.71502  0.069626881   0.07090767            2 
  556000    1.1531285    -4.045806     465.0323  0.069699086  0.070897599            5 
  557000    1.1709035   -4.0422329    465.23094  0.069603671  0.070888059            2 
  558000    1.1447977   -4.0280257    464.47415  0.069365912   0.07087782            2 
  559000    1.1515479   -4.0702905    464.93256  0.069310161  0.070865888            4 
  560000    1.1499666   -4.0457793     467.8681  0.069623229  0.070855371            2 
  561000    1.1563229   -4.0429487    467.90328  0.069504349  0.070843429            1 
  562000    1.1456245   -4.0609317    469.16607  0.069567923  0.070833107            4 
  563000    1.1624778   -4.0367135     470.6148  0.069658792  0.070823385            2 
  564000     1.157197   -4.0235837    471.51409  0.069668158  0.070814615            1 
  565000    1.1452815   -4.0409729    474.72949  0.070019099  0.070805941            3 
  566000     1.161084   -4.0449229    472.06409  0.069502958  0.070798405            3 
  567000    1.1646539   -4.0542403    474.97048  0.069807537  0.070790723            1 
  568000    1.1715084    -4.074118    474.25322  0.069579405   0.07078298            2 
  569000    1.1753113   -4.0814573    475.27999  0.069607497  0.070775616            2 
  570000    1.1824943   -4.0445442    477.21889  0.069768844  0.070769258            2 
  571000    1.1791053   -4.0447818    476.21008  0.069499427  0.070762029            3 
  572000    1.1331849   -4.0338015    480.58689  0.070015573  0.070754683            2 
  573000    1.1606113   -4.0212803    479.24267  0.069697887  0.070747582            2 
  574000    1.1522286   -4.0667295    480.91893  0.069819821   0.07074103            4 
  575000    1.1687934    -4.071342    479.55692  0.069501004  0.070733679            2 
  576000    1.1393436   -4.0397251    482.97979  0.069875549   0.07072556            1 
  577000    1.1688907   -4.0140588    483.49549  0.069828926  0.070718718            1 
  578000    1.1867088   -4.0527546    483.59359  0.069722259   0.07071038            1 
  579000    1.1668362   -4.0264976    483.78142  0.069628875  0.070701836            1 
  580000    1.1850097   -4.0467944    483.30865  0.069440898  0.070693713            2 
  581000    1.1729821   -4.0538276    485.50249  0.069636043  0.070684735            2 
  582000    1.1514739   -4.0499959    483.12605  0.069176124  0.070674928            2 
  583000    1.1581212   -4.0411668    486.13065  0.069486943  0.070665731            1 
  584000    1.1727096   -4.0489866    488.13076  0.069653361  0.070657764            1 
  585000    1.1501117   -4.0546778    487.26863  0.069411486   0.07064944            3 
  586000    1.1471154   -4.0498937     488.8142  0.069512827  0.070640372            1 
  587000    1.1632188   -4.0665612    488.50857  0.069351019  0.070630748            2 
  588000    1.1698366    -4.073187    489.34468   0.06935157  0.070622824            3 
  589000     1.165118   -4.0377003    490.97496  0.069464483  0.070614972            3 
  590000    1.1430579   -4.0733408    491.36657  0.069402057  0.070606078            2 
  591000    1.1690796    -4.021979    492.57575  0.069455125   0.07059702            5 
  592000    1.1415619   -4.0846786    491.20473   0.06914481  0.070586792            1 
  593000    1.1619726   -4.0481894    493.96597  0.069416241  0.070577717            4 
  594000    1.1555991   -4.0904609    496.27791  0.069623725  0.070569187            4 
  595000    1.1506535   -4.0776865    493.42657  0.069107362   0.07055979            1 
  596000    1.1451553   -4.0347296    496.71383  0.069451039  0.070550681            4 
  597000    1.1408473   -4.0832835    495.19602  0.069122839  0.070540839            2 
  598000     1.141734   -4.0671258     495.0505  0.068986971   0.07053081            4 
  599000    1.1610809   -4.0568841    498.14936  0.069302916  0.070519856            1 
  600000    1.1639471   -4.0509421    498.41954  0.069224936  0.070508636            6 
  601000    1.1433693   -4.0331902    499.75658  0.069295145  0.070497299            2 
  602000    1.1683884   -4.0883327    497.15694  0.068820175  0.070487406            1 
  603000    1.1814114   -4.0285181     501.4444  0.069298562  0.070475612            2 
  604000    1.1298831   -4.0384688    501.19663  0.069149646  0.070464677            2 
  605000     1.140091   -4.0477117    502.72083  0.069245294  0.070453539            1 
  606000    1.1500481   -4.0669946    501.28419  0.068933469  0.070442067            3 
  607000    1.1573619   -4.0710253    504.58658  0.069273281  0.070431115            2 
  608000    1.1563677   -4.0783263    504.54091  0.069153086  0.070420114            5 
  609000    1.1557516   -4.0746376    505.27025  0.069139333  0.070409259            6 
  610000    1.1878909   -4.0781385    507.08269  0.069273592  0.070397912            3 
  611000    1.1700927   -4.0534234    506.54468  0.069086835  0.070387461            2 
  612000    1.1948515   -4.0703252    507.16446  0.069058341   0.07037578            6 
  613000    1.1518723   -4.0666865    507.61526  0.069006969   0.07036383            3 
  614000    1.1709415   -4.0397363    510.98203  0.069351524  0.070351921            1 
  615000    1.1555678    -4.091469    509.61328   0.06905329  0.070340964            2 
  616000    1.1649593   -4.0395327    511.70069  0.069223577   0.07033048            3 
  617000    1.1560034   -4.0441565    511.11024  0.069031636  0.070320395            1 
  618000    1.1347848   -4.0569007     513.0637  0.069183346  0.070309553            3 
  619000    1.1397589   -4.0944499    511.50353  0.068861542  0.070298466            4 
  620000    1.1416726   -4.0648394    515.95374  0.069348621  0.070287427            2 
  621000    1.1513354   -4.0965167    515.08996  0.069121036    0.0702767            3 
  622000    1.1431508   -4.0618176    516.05304  0.069138939  0.070266333            6 
  623000    1.1361795   -4.0602525    515.61728  0.068969674  0.070255606            2 
  624000    1.1707934   -4.0691334    518.01966  0.069179975  0.070246028            1 
  625000    1.1466816   -4.0734279    518.27621  0.069103494  0.070236187            2 
  626000    1.1411559   -4.0686568    520.77273  0.069325443  0.070227754            5 
  627000     1.142939   -4.0905712    518.89989  0.068965961  0.070218867            3 
  628000    1.1455347   -4.0523155    518.63657    0.0688212  0.070209091            3 
  629000    1.1391252    -4.053104    521.85436  0.069138098  0.070199214            3 
  630000    1.1496273   -4.1068954     521.3371  0.068959934   0.07018831            3 
  631000    1.1358521   -4.0790507    522.64166  0.069022934  0.070177513            1 
  632000     1.147168   -4.1027724    521.52848  0.068766941  0.070166309            2 
  633000    1.1521412   -4.0979124     520.9204  0.068578252   0.07015572            2 
  634000    1.1489852   -4.0497597    524.37657  0.068924365  0.070144061            3 
  635000    1.1539099    -4.060048    525.41283  0.068951815  0.070132188            4 
  636000    1.1557684   -4.0642641    525.17587  0.068812352  0.070121584            1 
  637000    1.1661395   -4.0691502    527.31631  0.068984342   0.07011022            3 
  638000    1.1619632    -4.040349    527.57397  0.068909871  0.070099462            3 
  639000    1.1638701    -4.050418    527.18598  0.068751433  0.070087739            4 
  640000    1.1558183   -4.0459913    528.63964  0.068833287  0.070075318            1 
  641000    1.1713289   -4.0697339    527.79324  0.068615865  0.070064042            1 
  642000    1.1331929   -4.0775754    529.40846  0.068718648  0.070052772            2 
  643000    1.1606856   -4.0746393    531.50123     0.068883   0.07004077            3 
  644000    1.1617003   -4.0603159    530.07215  0.068591116  0.070028652            2 
  645000    1.1405797   -4.0724223    531.78988  0.068706703  0.070016624            1 
  646000     1.126435   -4.0590395    530.69437  0.068459026  0.070004127            2 
  647000    1.1529232    -4.078351    531.97372  0.068517996  0.069990922            2 
  648000    1.1432052   -4.0750509    534.84569  0.068781595  0.069979925            2 
  649000    1.1643228   -4.0590539     534.9353  0.068687121  0.069968274            3 
  650000    1.1621417   -4.0747327    537.57484  0.068919851  0.069955405            2 
  651000    1.1362476   -4.1142441    534.82292  0.068461716  0.069943077            1 
  652000    1.1543482   -4.0520689    538.51326  0.068828381  0.069931593            6 
  653000     1.149825   -4.0832418    537.59339  0.068605588  0.069919466            3 
  654000    1.1583112   -4.1192804    536.74846  0.068393025  0.069907617            1 
  655000    1.1329733   -4.0509091    538.99276  0.068574143   0.06989485            1 
  656000    1.1510824   -4.0708288      539.618  0.068549034   0.06988376            3 
  657000    1.1446147   -4.0440039    541.27864  0.068655333  0.069872294            1 
  658000    1.1371131   -4.0652944    542.75635   0.06873814  0.069860653            2 
  659000    1.1579654   -4.0391158    542.15387  0.068557647  0.069848823            2 
  660000    1.1350359   -4.0735181    543.99623  0.068686393  0.069837145            1 
  661000    1.1281359   -4.0641891    543.87363  0.068567023    0.0698252            2 
  662000     1.162198    -4.084312    546.33843  0.068773719  0.069812215            3 
  663000    1.1255904   -4.0935649    542.46144  0.068182685  0.069798159            4 
  664000     1.147255   -4.0644295    544.92009  0.068388565  0.069785243            3 
  665000    1.1527022   -4.0684843    545.10272  0.068308611  0.069771359            2 
  666000    1.1374147   -4.0906243    547.61986  0.068521004  0.069758695            3 
  667000    1.1493933   -4.0777689    547.64235  0.068421083  0.069745529            2 
  668000     1.145313   -4.0864202    547.82205  0.068341074  0.069732782            2 
  669000    1.1403272   -4.0589155    549.19491  0.068409929  0.069720232            3 
  670000    1.1239452   -4.0826956     548.8468  0.068264528  0.069707566            3 
  671000    1.1328189    -4.068519    551.78617   0.06852784  0.069694905            3 
  672000    1.1456894   -4.0601225    554.01136  0.068701806  0.069683943            1 
  673000    1.1160225   -4.0954043    551.47827  0.068286066  0.069672341            4 
  674000     1.135738    -4.064842    554.73539  0.068587461  0.069659934            3 
  675000    1.1433618   -4.0909182    552.71232  0.068236088  0.069648002            3 
  676000    1.1339932   -4.0797452    554.50809   0.06835652  0.069634996            2 
  677000    1.1522007   -4.0655401    555.94477  0.068432394  0.069622284            3 
  678000    1.1286319   -4.0871613    554.65706  0.068173189   0.06961039            2 
  679000     1.176753   -4.0868315    557.39498  0.068408809  0.069597947            1 
  680000    1.1381303    -4.080934    556.46316  0.068194014  0.069584803            2 
  681000     1.145644   -4.0787099    556.95848  0.068154488   0.06957187            2 
  682000    1.1383449   -4.0843621    556.55709   0.06800551  0.069558862            2 
  683000    1.1448637   -4.0652079    558.99821  0.068203783  0.069544857            4 
  684000    1.1483715   -4.0674382    561.65565  0.068427832  0.069532253            3 
  685000    1.1265233   -4.0914285    560.03333  0.068130576  0.069518964            3 
  686000    1.1214571   -4.1104297    558.77009  0.067877805  0.069505105            2 
  687000    1.1453591   -4.1141665    559.62117  0.067882238  0.069491826            1 
  688000    1.1466196   -4.0887767    561.97971  0.068069248  0.069479339            2 
  689000    1.1525929   -4.0408613    565.74041  0.068425304  0.069466849            1 
  690000    1.1225335   -4.0725582    564.18341  0.068138092  0.069453452            3 
  691000    1.1563599   -4.0798653    563.15849  0.067915881  0.069439543            2 
  692000    1.1236361    -4.067099    565.05269  0.068045844  0.069426671            1 
  693000    1.1333194   -4.1115183    564.48465  0.067879347  0.069412563            6 
  694000    1.1506523   -4.1060828    567.74977  0.068173604  0.069398376            2 
  695000    1.1451754   -4.1201189    566.73304  0.067953601  0.069384417            3 
  696000    1.1161192   -4.0841989    567.84102  0.067988628  0.069370523            2 
  697000    1.1209923   -4.1085243    568.81152  0.068007116  0.069357385            1 
  698000    1.1394778   -4.0817026    571.13643  0.068187253  0.069344535            2 
  699000    1.1512395   -4.0827152    570.11193  0.067967564  0.069331001            3 
  700000    1.1323768    -4.073191     571.5234    0.0680385  0.069318322            1 
  701000    1.1543132   -4.0599376    574.31107  0.068272833  0.069305415            1 
  702000    1.1522283     -4.06112    574.12636  0.068153652   0.06929272            2 
  703000    1.1610376   -4.0841148    575.33833   0.06820037  0.069281304            1 
  704000    1.1218631   -4.0768873    576.06316  0.068189295  0.069269575            4 
  705000    1.1286074   -4.0810797    575.39061  0.068013075  0.069257699            2 
  706000    1.1694868   -4.0690206    576.41721  0.068037914  0.069244945            2 
  707000    1.1281728   -4.0754601    579.45936  0.068300255  0.069232934            2 
  708000     1.133556   -4.1069371    578.24747  0.068061143  0.069220912            1 
  709000    1.1508148   -4.0691519    576.95432  0.067813154  0.069208848            5 
  710000    1.1395304   -4.0879267    579.83047   0.06805522  0.069196428            4 
  711000    1.1381056   -4.0362006    580.27499  0.068011602  0.069183353            1 
  712000    1.1549819   -4.0773133     581.8527  0.068100738  0.069170467            2 
  713000    1.1374203   -4.0879683     583.0549  0.068145734  0.069157708            2 
  714000     1.154851    -4.083483    581.12932   0.06782555  0.069144846            2 
  715000    1.1466979   -4.0708221    580.47858  0.067654846  0.069131926            3 
  716000    1.1269822   -4.0532431    584.96772  0.068082836  0.069117903            3 
  717000    1.0925363   -4.1021652    582.27368  0.067674765  0.069104395            1 
  718000    1.1255266   -4.0553517    584.51927   0.06784114  0.069090754            3 
  719000    1.1450343   -4.0979309    586.39886  0.067964634  0.069077931            2 
  720000    1.1303839     -4.09133     584.9189  0.067698946  0.069065034            3 
  721000    1.1244651   -4.0915477    586.46799  0.067784096  0.069052073            2 
  722000    1.1156982   -4.0679094    589.16908  0.068001971  0.069039867            3 
  723000    1.1375825   -4.0912878    587.07529  0.067666585  0.069027637            4 
  724000    1.1180878   -4.0748301    588.84678  0.067777023  0.069015363            2 
  725000    1.1278093   -4.0989979    591.39156  0.067976042   0.06900265            3 
  726000    1.1318607   -4.1087233    589.88706  0.067709718  0.068990557            4 
  727000    1.1091426   -4.0682903    589.85662  0.067613093  0.068977445            3 
  728000     1.137287   -4.0663919    591.83669  0.067746874  0.068964607       -1e+20 
  729000    1.1488764   -4.1395017    589.27167   0.06736073   0.06895135            2 
  730000    1.1541137   -4.0858738    592.68784  0.067658429  0.068937079            2 
  731000    1.1496331   -4.0907448    593.28747   0.06763423  0.068922926            7 
  732000     1.122041   -4.0572971    593.17313  0.067528817  0.068908245            3 
  733000    1.1312277   -4.0609703    594.01281  0.067532152  0.068893194            2 
  734000    1.1409941   -4.0469219    595.74744  0.067637085  0.068879053            3 
  735000    1.1041123   -4.1035575    591.51272  0.067064934  0.068864352            2 
  736000     1.104594   -4.0718093     594.7853   0.06734435  0.068848642            1 
  737000    1.1639897   -4.1145486    594.19839  0.067186611  0.068833555            2 
  738000    1.1424458    -4.111306    595.18966  0.067207504   0.06881882            4 
  739000    1.1400724   -4.1250099    595.19752  0.067117446  0.068803412            2 
  740000    1.1063438   -4.1255258     598.1005   0.06735366  0.068787538           10 
  741000    1.1478042   -4.0895162    598.97485  0.067361095   0.06877275            1 
  742000    1.1200347   -4.0954109    596.98498   0.06704683  0.068757859            3 
  743000    1.1088497   -4.1023563    600.83797  0.067388736  0.068743118            2 
  744000    1.1402158   -4.0931747    602.02317   0.06743091  0.068727325            3 
  745000    1.1240384   -4.1026402    600.36601  0.067155035  0.068713766            3 
  746000    1.1244614   -4.0865813     603.7952  0.067448079  0.068699792            2 
  747000     1.122923   -4.0663178    606.64227  0.067675398  0.068686087            3 
  748000    1.1200578   -4.1138902    603.54708  0.067240093  0.068672265            2 
  749000    1.1075363   -4.0708528    605.88169  0.067410068  0.068658581            4 
  750000    1.1459424   -4.0938267    607.77405   0.06753045  0.068644653            3 
  751000    1.1197831   -4.0899748     607.8537  0.067449367  0.068630359            2 
  752000    1.1204419   -4.0907892    606.47562  0.067206961  0.068616066            2 
  753000    1.1424433   -4.1039204    607.08071  0.067184674  0.068601953            4 
  754000     1.136327   -4.0827509    609.42279   0.06735442  0.068587784            4 
  755000    1.1326412   -4.0812279    610.49455  0.067383504   0.06857374            5 
  756000    1.1175553   -4.1126576    610.29223  0.067272071  0.068559059            4 
  757000    1.1113324   -4.1172433    609.66285   0.06711392  0.068544498            2 
  758000    1.1311122   -4.0984978    612.69764   0.06735902  0.068531026            3 
  759000    1.1298265    -4.141661    614.88084  0.067509974  0.068518281            2 
  760000    1.1101884   -4.0775295    614.86843  0.067419784  0.068506073            2 
  761000    1.1182535   -4.0764823    617.06311  0.067571519  0.068494262            4 
  762000    1.1028086    -4.082117    618.46177  0.067635801  0.068482368            3 
  763000    1.1488617   -4.1118154    617.64204  0.067457628  0.068471184            2 
  764000    1.1421168   -4.1429027    618.88726  0.067505155  0.068459892            5 
  765000    1.1329594   -4.1157278     618.1101  0.067332255  0.068447928            3 
  766000     1.128427   -4.1160837    620.29846  0.067482426   0.06843522            2 
  767000    1.1197241   -4.0695786     622.1476   0.06759535  0.068423272            2 
  768000    1.1433029    -4.108682    620.10531  0.067285733  0.068411193            2 
  769000    1.1200459   -4.0584903    623.30937  0.067545445  0.068399259            2 
  770000    1.1307581   -4.1376049    621.84293  0.067299019  0.068387937            3 
  771000    1.1262082    -4.079289    623.80628  0.067423938  0.068376372            2 
  772000    1.0947693   -4.1074972    623.31125  0.067283166  0.068365173            3 
  773000    1.1276746   -4.0657661    627.11615  0.067606312  0.068354002            2 
  774000    1.0976998   -4.0974212    627.05889    0.0675128  0.068343598            5 
  775000    1.1423412    -4.088786     628.7876   0.06761157  0.068332701            2 
  776000     1.133898   -4.1055182    629.79844  0.067632994  0.068322073            1 
  777000    1.0947583      -4.0697    629.79881   0.06754599  0.068312146            4 
  778000    1.1469375   -4.1124385    631.21081  0.067610412  0.068302998            3 
  779000    1.1245731   -4.1037766    631.70589  0.067576582  0.068293389            3 
  780000    1.1475428   -4.0876489    633.78799  0.067712392  0.068284803            2 
  781000    1.1255956    -4.094782    632.18566  0.067454723  0.068274697            4 
  782000    1.1140423   -4.1201015    633.21738  0.067478408  0.068264611            2 
  783000    1.1251192   -4.1355023    633.08678  0.067378329  0.068254434            2 
  784000    1.1406065   -4.0313046    637.93895  0.067808137  0.068244909            1 
  785000     1.159046    -4.083066    638.47646  0.067778818  0.068235229            4 
  786000    1.1265737   -4.1176183    637.04504  0.067540823  0.068225838            1 
  787000    1.1251567   -4.0910932    637.66295  0.067520431  0.068215769            2 
  788000    1.1135679   -4.1135571    633.21222  0.066964067  0.068204614            3 
  789000    1.1623898   -4.1016288    637.50625  0.067332726   0.06819364            1 
  790000     1.131893   -4.0953089    638.67502  0.067370783  0.068182883            3 
  791000    1.1108903   -4.0821934    639.76911  0.067400875  0.068171996            5 
  792000    1.1285268   -4.0832894    638.37168  0.067168738  0.068160427            1 
  793000    1.1427009   -4.0903793    641.35133  0.067397156  0.068148691            2 
  794000    1.1107034   -4.1060681      636.499  0.066803001  0.068136989            3 
  795000    1.1254843   -4.1077412    639.51608  0.067035229  0.068125454            1 
  796000    1.1225464   -4.1048934    638.72133  0.066867811  0.068113919            3 
  797000    1.1256484   -4.1402973    640.06903  0.066924825  0.068101846            2 
  798000    1.1318343   -4.0532402    643.53261  0.067202653  0.068089847            2 
  799000    1.1235824   -4.0881262    641.72922  0.066930457  0.068077988            3 
  800000    1.1070076   -4.1169594    645.57879   0.06724779  0.068066396            4 
  801000    1.1154444   -4.1768067    639.89219  0.066572222  0.068053589            3 
  802000    1.1284296   -4.1046231     643.9884  0.066914837  0.068040761            2 
  803000    1.1558611   -4.1121649    643.60476  0.066791694  0.068028086            4 
  804000    1.1177276   -4.1036556    645.46712   0.06690165  0.068015399            3 
  805000    1.1209184   -4.1214675    644.26731  0.066694338  0.068003162            3 
  806000    1.1305644   -4.0906189    649.04666  0.067105734  0.067990757            1 
  807000     1.142181   -4.1088326    649.36082  0.067055021  0.067979107            2 
  808000    1.1290672   -4.1010092    648.60724  0.066894311  0.067967634            3 
  809000      1.12728   -4.0912185    652.21778  0.067183537  0.067956324            3 
  810000    1.1273309   -4.0993866    651.86077  0.067063865  0.067945124            1 
  811000    1.1467025   -4.1047416     653.3133  0.067130426  0.067934542            2 
  812000    1.1054056   -4.1055289    654.21931  0.067140734   0.06792386            2 
  813000    1.1588178   -4.0969246    657.01151  0.067344354  0.067912102            1 
  814000     1.130466   -4.0965172    656.15089  0.067173514   0.06790169            2 
  815000    1.1375637   -4.1163072    656.41486  0.067118084  0.067891048            2 
  816000    1.1321962   -4.0873116    658.06796  0.067204653  0.067880609            3 
  817000    1.1388317   -4.1398405    656.70393  0.066983265   0.06786987            2 
  818000    1.1274014   -4.1199059    656.61465  0.066892283  0.067859272            2 
  819000    1.1163744   -4.0983611    660.18459   0.06717385  0.067848646            2 
  820000      1.13558   -4.0931915    661.91064  0.067267341  0.067838265            1 
  821000    1.1244388   -4.1044964    660.66346  0.067058816  0.067827864            2 
  822000    1.1116697   -4.1224153     660.0941  0.066919515  0.067816586            2 
  823000    1.1329369   -4.1435275     662.5448   0.06708635  0.067804957            1 
  824000     1.098469    -4.131775    661.46362  0.066895592  0.067793857            2 
  825000    1.1318933   -4.1286492    660.65759   0.06673309  0.067782939            1 
  826000     1.132041   -4.1451275     661.5847  0.066745833  0.067771765            3 
  827000    1.0859189   -4.1209384    661.81318  0.066688148  0.067760376            3 
  828000    1.1199807   -4.0830411    664.61074  0.066889165  0.067748638            2 
  829000    1.1545952   -4.1377485    661.40856  0.066486586  0.067737165            3 
  830000    1.1145842   -4.1147291    667.02555  0.066970437  0.067725582            2 
  831000    1.1354057   -4.1281478    666.44265  0.066831393  0.067714139            4 
  832000     1.121928   -4.1571634    666.19945  0.066726708  0.067702935            3 
  833000    1.1211304   -4.0976337    669.72501  0.066999301  0.067691002            1 
  834000    1.1248679   -4.1538912    664.59109  0.066405984  0.067679257            2 
  835000    1.1392533   -4.1359303    667.67985  0.066634716  0.067667302            3 
  836000    1.1395834   -4.1272809    670.43427  0.066829573  0.067655482            2 
  837000     1.106852   -4.1250578    670.72299  0.066778474  0.067643962            4 
  838000    1.1053541    -4.121191    669.32469  0.066559735  0.067631949            2 
  839000    1.1221695   -4.1075748    672.73507  0.066819137  0.067620224            2 
  840000    1.0797036   -4.1282845    670.35947  0.066503915  0.067608142            3 
  841000    1.1041485    -4.140912    670.67877  0.066456478  0.067595211            3 
  842000    1.1172856   -4.0979759    673.65335  0.066671947  0.067582359            2 
  843000    1.1025455   -4.0914703    674.68238  0.066694581  0.067569741            4 
  844000     1.138122   -4.1247188    673.20275  0.066469466  0.067556402            2 
  845000    1.1189196   -4.0834094    676.20821    0.0666872  0.067544015            2 
  846000    1.1311726   -4.1045574    675.48811  0.066537442  0.067531748            5 
  847000    1.1065064   -4.1188553    674.84461  0.066395573  0.067517854            4 
  848000    1.1294147   -4.1083468    674.93372  0.066326034   0.06750542            2 
  849000    1.1121789   -4.1152105    675.11988  0.066266184  0.067491907            3 
  850000    1.1223954   -4.0949151    677.85045  0.066455926  0.067478408            2 
  851000    1.1171991    -4.112478    677.33394  0.066327257  0.067464767            3 
  852000    1.1190807   -4.1173048    680.65661  0.066574395   0.06745169            3 
  853000    1.1407021   -4.1168184    681.28812  0.066558042  0.067438887            3 
  854000    1.1253871   -4.1678422    677.81755  0.066141447  0.067425905            4 
  855000    1.1113265    -4.095861    681.12246  0.066386205  0.067411832            2 
  856000    1.1330694   -4.1394049    678.22608  0.066026683  0.067397949            3 
  857000    1.1111414   -4.1242062    682.68587  0.066383301  0.067384589            2 
  858000    1.1045979   -4.1342293    681.27553  0.066168952  0.067371683            3 
  859000    1.1089669   -4.1036875     683.8026  0.066337078  0.067359095            2 
  860000    1.1213559   -4.1159045    686.26423  0.066498472  0.067346983            3 
  861000    1.0988961   -4.1109736    686.03131  0.066398694  0.067334803            2 
  862000    1.1207622   -4.1286438    685.36976  0.066257711  0.067323345            2 
  863000    1.1049568   -4.1363398    686.48137  0.066288275  0.067311083            2 
  864000    1.0980954   -4.1325037    685.64898  0.066131267  0.067297911            4 
  865000    1.1162551    -4.125885    688.82323   0.06636062  0.067284409            2 
  866000    1.1271503   -4.1009016    690.46557   0.06644203  0.067272432            2 
  867000    1.1199217   -4.1384954    689.70933  0.066292707  0.067260406            4 
  868000    1.1332202    -4.115749     691.4609  0.066384495  0.067248727            3 
  869000    1.1321143   -4.1101616    694.20439  0.066571192  0.067238187            4 
  870000    1.1278866   -4.1387977    694.17678  0.066492028  0.067228105            1 
  871000     1.114321   -4.1280803    695.72183  0.066563512  0.067216918            3 
  872000     1.103571   -4.1365759    692.80332  0.066208268  0.067205691            3 
  873000    1.1134929   -4.1593643    693.93786  0.066240727  0.067193933            1 
  874000    1.0700609   -4.1142783    694.14017  0.066184226  0.067182033            3 
  875000    1.0927341   -4.1333391    694.53694  0.066146375  0.067171063            2 
  876000    1.1063557   -4.1457464    698.19964  0.066419296  0.067159871            2 
  877000    1.1222004   -4.1409934    697.07794  0.066236976  0.067148382            2 
  878000     1.085867   -4.1168223    697.12195  0.066165713  0.067137233            2 
  879000    1.1147176   -4.1148103    698.92445  0.066261324  0.067126171            4 
  880000    1.1299409   -4.1285389    702.20149  0.066496353  0.067115318            2 
  881000    1.1017403   -4.1368738    701.50201  0.066354712    0.0671049            3 
  882000    1.1007529   -4.1263199    702.08186  0.066334265  0.067094534            7 
  883000    1.1013707   -4.1440246    703.26633  0.066370925  0.067084429            3 
  884000    1.1154371    -4.128179    702.80531  0.066252386  0.067074348            3 
  885000    1.1278115   -4.1314679    705.14425  0.066397763   0.06706395            3 
  886000    1.0954627   -4.1463499    703.04566  0.066125439  0.067053218            6 
  887000    1.0952619   -4.1634593    706.02562  0.066330855  0.067042353            1 
  888000    1.1219997   -4.0975447    707.72406  0.066415546  0.067032207            5 
  889000    1.0943815   -4.1063911    708.65495  0.066428098  0.067021616            4 
  890000    1.0805848   -4.1305235     705.5731  0.066064897  0.067010964            2 
  891000    1.0925411   -4.0985358    711.42422  0.066537993  0.067000778            1 
  892000    1.0907735   -4.1006966    711.01926  0.066425566  0.066990713            2 
  893000    1.0917465   -4.1406983    710.52343  0.066304911  0.066980428            3 
  894000    1.1197906   -4.1498028    713.09303  0.066470268  0.066969666            2 
  895000    1.1139465   -4.1141327    712.35778   0.06632754  0.066960154            1 
  896000    1.1066111   -4.1255008     714.7277  0.066473931  0.066950705            3 
  897000    1.1006081     -4.13216    714.87037  0.066413078  0.066941426            1 
  898000    1.0834524   -4.1632903    708.42987   0.06574145  0.066930782            4 
  899000    1.1075281   -4.1241588    713.25616  0.066115699  0.066919845            2 
  900000    1.1178373   -4.1044539    715.13849  0.066216527  0.066909022            6 
  901000    1.1130716   -4.1192169    716.62648  0.066280658  0.066898207            2 
  902000    1.0878546   -4.1656952    715.54728  0.066107472  0.066887557            3 
  903000    1.0789632   -4.1348666    720.94523  0.066532413   0.06687681            1 
  904000     1.116777   -4.1083419    719.82729   0.06635576   0.06686638            1 
  905000    1.1133388   -4.1114729    720.45359   0.06634011  0.066856144            2 
  906000    1.1093335   -4.1293979    719.44833  0.066174423  0.066845421            3 
  907000     1.124126   -4.1063941    718.74738  0.066037061  0.066834298            2 
  908000    1.1109041   -4.1546369    719.24464   0.06600997  0.066823163            2 
  909000    1.1026065   -4.1266467    720.60221  0.066061809  0.066812338            2 
  910000     1.109353   -4.1247166    721.74292  0.066093674  0.066800904            2 
  911000    1.0751104   -4.1356708    726.22964  0.066431544  0.066789513            2 
  912000    1.1091398   -4.1370954    720.83213  0.065865509   0.06677839            3 
  913000    1.0855074   -4.1414346    724.50064  0.066128207  0.066767613            2 
  914000     1.099469    -4.126247    727.30529  0.066311569  0.066756776            3 
  915000     1.122271   -4.1544442    724.14926  0.065951663  0.066745827            1 
  916000    1.1101422   -4.1482515     725.7082  0.066021488  0.066733979            4 
  917000    1.1167899   -4.1176832    727.15829   0.06608127  0.066722871            2 
  918000    1.1292483   -4.1541347    726.52056  0.065951394  0.066711518            1 
  919000    1.0946165   -4.1356835      728.449  0.066054498  0.066700317            1 
  920000    1.0962008   -4.1117913    728.23448  0.065963268  0.066688524            4 
  921000    1.1112063   -4.1422362    729.96882  0.066048572  0.066677139            3 
  922000    1.0759755   -4.1247189    733.18911  0.066267996  0.066665963            3 
  923000    1.0720453   -4.1482225    730.86817  0.065986653  0.066654602            1 
  924000    1.1060106   -4.1658508    729.91387  0.065829173  0.066643721            2 
  925000    1.0985266   -4.1291804    732.72516  0.066011276   0.06663264            3 
  926000    1.1143212   -4.1584176    732.00543  0.065875218  0.066622393            2 
  927000    1.0947034   -4.1561679    731.69936  0.065776642  0.066611498            2 
  928000    1.1027384   -4.1074248    735.56676   0.06605305  0.066600926            2 
  929000     1.108131   -4.1117337    733.75595  0.065819514  0.066589642            1 
  930000    1.0980288   -4.1547732    731.96776  0.065588509  0.066578602            3 
  931000    1.1186255   -4.1204321     734.9971  0.065789214  0.066566851            2 
  932000    1.0888516   -4.1236889    736.01174  0.065809348  0.066555645            4 
  933000    1.0904092   -4.1475691    733.96972  0.065556423  0.066544739            3 
  934000    1.1215361    -4.165558    736.04384  0.065671292  0.066532998            3 
  935000    1.1266154   -4.1394979    737.00769   0.06568696  0.066521866            2 
  936000    1.1170104   -4.1598475    741.84301  0.066047277  0.066510387            2 
  937000    1.0982434   -4.1324391    739.60992  0.065778185   0.06649896            2 
  938000    1.0873858   -4.1553717    739.97208  0.065740234  0.066487593            2 
  939000    1.0765301   -4.1380857    742.05797   0.06585534  0.066475691            5 
  940000    1.0747265    -4.142292    742.47745  0.065822469   0.06646436            2 
  941000    1.1079345   -4.1326203    744.23677  0.065908322  0.066453344            3 
  942000    1.1076579   -4.1599104    742.48843   0.06568369  0.066442113            7 
  943000    1.1216031   -4.1575034    740.73552   0.06545913  0.066431091            5 
  944000    1.1026082   -4.1200117    743.23789   0.06561069  0.066420135            3 
  945000     1.103828   -4.1688153    743.84738  0.065595007  0.066408588            1 
  946000    1.1044689   -4.1617245    744.46527  0.065580098   0.06639713            2 
  947000        1.096   -4.1388521    749.23427  0.065930506  0.066386042            6 
  948000    1.1054626   -4.1515719    746.65212  0.065633977  0.066374598            1 
  949000    1.0859934   -4.1492676    747.77947   0.06566381  0.066363354            5 
  950000    1.0909008   -4.1307916    749.03016    0.0657044  0.066351549            2 
  951000     1.117123   -4.1442306      746.199  0.065387224  0.066340258            3 
  952000    1.0848869    -4.153927    749.09179  0.065571761  0.066328665            4 
  953000     1.096866   -4.1293069    750.44216  0.065621035  0.066317572            2 
  954000    1.1104157   -4.1578841    748.43754  0.065377143  0.066306211            4 
  955000    1.0986791   -4.1344939    752.26843   0.06564297  0.066294646            2 
  956000    1.0963053   -4.1781798    748.30385  0.065228718  0.066282681            2 
  957000    1.0980283   -4.1511826    751.26682  0.065418567  0.066270901            3 
  958000    1.0895233   -4.1485886    752.54803  0.065461728  0.066258547            2 
  959000    1.0940064   -4.1328549     755.0724  0.065612826  0.066246165            4 
  960000    1.1017967   -4.1296929    751.96889  0.065275077  0.066234345            2 
  961000    1.0960883   -4.1764132    751.81786  0.065194056  0.066221832            4 
  962000     1.092772   -4.1346825    755.10121  0.065410708  0.066209406            1 
  963000    1.0845647   -4.1215463    755.57617  0.065383884  0.066197376            6 
  964000    1.0699439   -4.1563555    753.87547  0.065169041   0.06618535            3 
  965000    1.0978798   -4.1588696     752.1981  0.064956658  0.066172498            4 
  966000    1.1115154   -4.1244513    758.85471  0.065463657  0.066159486            2 
  967000    1.0790643   -4.1610939    755.96375  0.065146824   0.06614672            3 
  968000    1.1039071    -4.157938    755.73889  0.065060166  0.066133663            1 
  969000    1.0885179   -4.1386725    756.02924  0.065017995   0.06612048            1 
  970000    1.1151476   -4.1215106    759.51465    0.0652504  0.066107418            4 
  971000    1.1136039   -4.1337594    761.40161  0.065345143  0.066094237            3 
  972000    1.0703891   -4.1645025    758.64613  0.065041678  0.066080679            4 
  973000    1.1130137    -4.143215    760.00198  0.065090954  0.066067778            2 
  974000    1.0847376   -4.1521901    760.33401  0.065052533  0.066054291            2 
  975000     1.091398   -4.1499411    760.90313  0.065034455  0.066041082            2 
  976000    1.0951088   -4.1782225    758.91995  0.064798493  0.066027527            2 
  977000    1.0860594   -4.1610158    757.30772  0.064594654  0.066013723            2 
  978000    1.0783967   -4.1400831    762.51097  0.064971964  0.066000291            2 
  979000    1.0922104   -4.1631201    764.03395  0.065035236  0.065986913            2 
  980000    1.1038114   -4.1546063    764.14597  0.064978398  0.065973257            1 
  981000    1.0892109   -4.1263929    763.63172  0.064868477  0.065959661            4 
  982000    1.0883073   -4.1756605    765.23432  0.064938418  0.065946056            1 
  983000    1.0877816   -4.1645043    762.56522  0.064646085  0.065932561            3 
  984000    1.1098528     -4.17649    768.07438  0.065046949  0.065919675            3 
  985000    1.0951975   -4.1481805    766.38115  0.064837661  0.065906872            1 
  986000    1.0792346    -4.178603    767.01095  0.064825131  0.065893367            3 
  987000    1.0612012   -4.1688669     768.2836  0.064866903  0.065879911            4 
  988000    1.0969984   -4.1327309    772.18689  0.065130473   0.06586675            3 
  989000     1.094161   -4.1514551    769.47215  0.064835874  0.065853427            5 
  990000    1.0965442   -4.1684048    768.21308  0.064664401  0.065840488            1 
  991000    1.0869569   -4.1536184    772.55458  0.064964226  0.065827431            3 
  992000    1.0966107   -4.1426488    769.08581  0.064607343  0.065813927            4 
  993000    1.0939599   -4.1612257    769.81364   0.06460336  0.065800569            2 
  994000    1.0970026   -4.1816629    772.52134  0.064765371  0.065787717            3 
  995000    1.0806663   -4.1497201    776.13975   0.06500333   0.06577442            1 
  996000     1.122118   -4.1620615    773.44129   0.06471229  0.065761998            2 
  997000    1.0805299   -4.1352792    778.21955   0.06504677  0.065749553            4 
  998000    1.0973947   -4.1503808    775.36194  0.064742981  0.065736995            1 
  999000    1.1029413   -4.1231579    780.86625  0.065137325  0.065724889            4 
 1000000    1.0772823   -4.1415198    780.16466  0.065013721  0.065712709            3 
 1001000    1.1063899   -4.1764537    776.63692  0.064655088  0.065700341            2 
 1002000    1.0910012   -4.1418018    782.63805  0.065089658  0.065687427            2 
 1003000    1.0742981   -4.1460014    784.28204  0.065161353  0.065675085            3 
 1004000    1.1128317   -4.1772265     781.7726  0.064888164   0.06566294            2 
 1005000    1.0892601    -4.177784    780.54905  0.064722143  0.065650789            2 
 1006000    1.0840562   -4.1376209    780.27853  0.064635398   0.06563861            8 
 1007000    1.0985518   -4.1744679    781.33571  0.064658698  0.065626736            3 
 1008000    1.0815676   -4.1927498    783.05842  0.064736972  0.065614716            3 
 1009000    1.0834024   -4.1580814    785.52885  0.064876846  0.065602248            7 
 1010000    1.0873216   -4.1322661    787.41087  0.064967893  0.065590649            1 
 1011000    1.0916959   -4.1494669     787.4386  0.064905918  0.065579286            8 
 1012000    1.0655739   -4.1989256    787.11474  0.064815114  0.065567302            3 
 1013000    1.0942758   -4.1781808    784.66316  0.064549454  0.065555036            3 
 1014000    1.0909407    -4.156349    786.46347   0.06463375  0.065543358            2 
 1015000    1.1005922   -4.1589006     789.9823  0.064858973  0.065531537            3 
 1016000    1.0960405   -4.1699948    790.17316  0.064810791  0.065519396            9 
 1017000    1.0814626   -4.1334597    791.56231  0.064860891  0.065506925            3 
 1018000    1.0836322   -4.1511952    790.45336  0.064706398  0.065494357            2 
 1019000    1.0977339   -4.1369934    792.13435  0.064780369  0.065481731            3 
 1020000    1.0944302   -4.1562822    793.89222  0.064860475  0.065469276            1 
 1021000    1.0937286   -4.1777489    790.52766  0.064522336  0.065456925            4 
 1022000    1.0831691   -4.1447801    791.58264  0.064545225  0.065444896            2 
 1023000    1.0999768   -4.1900248    791.44616  0.064471014  0.065432387            4 
 1024000    1.1100296   -4.1657488    794.96345  0.064694291  0.065420315            4 
 1025000    1.0674642   -4.1594838    794.20194  0.064569263  0.065408068            2 
 1026000    1.0876932   -4.1698271     796.6096  0.064701884  0.065395939            4 
 1027000    1.1024995   -4.1483507    796.25143   0.06460982  0.065384492            2 
 1028000    1.0853934   -4.1619649     796.1533  0.064539016  0.065372237            3 
 1029000    1.1092953   -4.1553828    798.13795  0.064637022  0.065360584            2 
 1030000    1.0918539   -4.1559581    799.71821   0.06470212  0.065349328            3 
 1031000    1.0868403   -4.1538937    801.35159  0.064771386  0.065338414            3 
 1032000    1.0844345   -4.1730151    796.31115  0.064301611  0.065326444            5 
 1033000    1.0866567   -4.1574177    798.31191  0.064400767   0.06531493            3 
 1034000    1.0778268   -4.1698443     800.4908  0.064514088  0.065303062            4 
 1035000    1.0668064   -4.1840777    803.31406  0.064679071  0.065290925            7 
 1036000    1.0909741   -4.2127022    800.23462  0.064368936  0.065279359            7 
 1037000    1.0993961      -4.1521    803.42741  0.064563437  0.065267297            2 
 1038000    1.0851662   -4.2004073    800.44641  0.064261915  0.065255218            4 
 1039000     1.094487   -4.1575864    805.14622  0.064577014  0.065243434            2 
 1040000    1.0959312   -4.1553026    803.31072  0.064367846  0.065232096            1 
 1041000    1.1010102   -4.1626777    807.29714  0.064625131  0.065220439            5 
 1042000    1.0674761    -4.148699    806.03892  0.064462486  0.065208581            2 
 1043000    1.0554101   -4.1843118    805.09223  0.064325043  0.065196912            5 
 1044000    1.0851653   -4.1822906    807.01314  0.064416757  0.065184608            3 
 1045000    1.0630197    -4.195838    807.11846  0.064363514  0.065172648            4 
 1046000    1.0871466   -4.1794147    807.04758  0.064296334    0.0651606            1 
 1047000     1.090241   -4.1952389    804.26359  0.064013339   0.06514886            3 
 1048000     1.088949   -4.1415851     810.4497  0.064444156  0.065136606            3 
 1049000    1.1001235   -4.1462077    810.39367   0.06437827  0.065125059            2 
 1050000    1.1042313   -4.1872712     812.5447  0.064487675  0.065112912            4 
 1051000    1.0635877   -4.1702978    810.93891  0.064298994  0.065100928            6 
 1052000    1.0595677   -4.1891291    810.84507  0.064230439  0.065088349            2 
 1053000    1.0587419   -4.1583784     812.9003  0.064332091  0.065075555            2 
 1054000    1.0905883   -4.1835541    809.62492   0.06401209  0.065063354            2 
 1055000    1.0680929   -4.1589109    811.85703  0.064127727  0.065051207            2 
 1056000    1.0824051   -4.1587947    812.91562  0.064150538  0.065038922            3 
 1057000    1.0916414   -4.1860725    813.05327  0.064100699  0.065027009            3 
 1058000    1.0702661   -4.1633614    817.29062  0.064373867  0.065014898            2 
 1059000    1.0762196   -4.1620719    819.13984  0.064458596  0.065002827            3 
 1060000    1.1068388   -4.2075621    816.91304  0.064222723  0.064990683            1 
 1061000    1.0619969   -4.1795876    819.48996   0.06436459  0.064979038            1 
 1062000    1.0822407   -4.1424774    818.97537  0.064263604  0.064967478            3 
 1063000    1.0684191   -4.1950441    819.44137  0.064239681  0.064955558            2 
 1064000    1.0833858   -4.1691895    818.63427  0.064116093  0.064943939            4 
 1065000    1.0457173   -4.1930006    820.66894  0.064215097  0.064931803            4 
 1066000    1.0705079   -4.1836177    823.80215  0.064399793   0.06492017            3 
 1067000    1.0744557   -4.1822605    823.41157  0.064308932  0.064908094            2 
 1068000    1.0662279   -4.1798113    823.81179  0.064279946  0.064896421            3 
 1069000    1.0983873   -4.1986531    822.72072  0.064134761  0.064884924            2 
 1070000    1.0614663   -4.1723262    823.28745   0.06411896  0.064873311            2 
 1071000    1.0701454   -4.1581578     825.8514   0.06425859  0.064861676            5 
 1072000     1.077259   -4.1797079    825.50668   0.06417185  0.064850842            4 
 1073000     1.077638   -4.1730587    828.31475   0.06433013  0.064839553            2 
 1074000    1.0649263   -4.1647445    830.76004  0.064459966  0.064828472            2 
 1075000    1.0472341   -4.1359422    831.19042  0.064433366  0.064817566            2 
 1076000    1.0690674   -4.1756087    828.36036  0.064154303  0.064806705            2 
 1077000    1.0886638   -4.1386239    834.75884  0.064589821  0.064795804            1 
 1078000    1.0791128    -4.199887    831.13271  0.064249591  0.064784558            2 
 1079000    1.0823675   -4.1753145    831.94094  0.064252467  0.064773723            4 
 1080000    1.0666102   -4.1429718    834.86276  0.064418423  0.064762509            2 
 1081000    1.0851541    -4.185676    834.08262  0.064298691  0.064751369            4 
 1082000    1.0799134   -4.1735371    834.01631  0.064234158  0.064740963            2 
 1083000    1.0864422   -4.1724783    833.37662  0.064125625   0.06472949            2 
 1084000    1.0998746   -4.1894571    833.86053   0.06410367  0.064718057            2 
 1085000    1.1014264   -4.1929278    834.17223  0.064068527  0.064706851            2 
 1086000    1.0652835   -4.1397996    836.77757  0.064209451  0.064695386            2 
 1087000    1.0597659   -4.1685134    836.57514  0.064134862  0.064684471            3 
 1088000    1.0844434    -4.186953    837.49207  0.064146145  0.064673507            2 
 1089000    1.0791445   -4.1663055    839.98094  0.064277697  0.064662497            3 
 1090000     1.068236   -4.1880531    838.82378  0.064130258  0.064651463            4 
 1091000    1.0777191   -4.1652974    841.90442  0.064306785  0.064640936            1 
 1092000    1.0761607   -4.1718605    844.44404    0.0644417  0.064630201            3 
 1093000      1.07769   -4.1759418    842.84882  0.064261118  0.064619685            4 
 1094000    1.0850719   -4.1662775     843.2767  0.064234971  0.064608855            3 
 1095000    1.0906697   -4.1549682    844.30091  0.064254255  0.064598188            2 
 1096000    1.0765345   -4.1850221    842.96023  0.064093691  0.064587375            2 
 1097000    1.1025544   -4.2025065    844.27322  0.064135006  0.064576372            3 
 1098000    1.0590001   -4.2080561    842.00574  0.063904504  0.064564846            4 
 1099000    1.0831739   -4.1934605    842.77077  0.063904365  0.064553605            9 
 1100000    1.0802421   -4.1733389     846.8226  0.064153227   0.06454229            2 
 1101000    1.0699703   -4.1856415     846.4104   0.06406376  0.064531206            3 
 1102000    1.0672703   -4.1652371    845.30811  0.063922271  0.064520712            2 
 1103000     1.068931   -4.1912012     847.1864  0.064006225    0.0645096            2 
 1104000    1.0855255   -4.1933812     849.9371   0.06415588  0.064499022            3 
 1105000    1.0856161   -4.2079109    850.27949  0.064123642  0.064487488            5 
 1106000    1.0827964   -4.1712635    848.99792  0.063969102  0.064476462            4 
 1107000    1.0783044   -4.1698614    849.27534    0.0639322  0.064465273            2 
 1108000     1.086346   -4.1978746    845.18573  0.063566917   0.06445402            4 
 1109000    1.0862735   -4.1975154    848.74495  0.063777048  0.064442465            2 
 1110000    1.0844254   -4.2273787    848.87893  0.063729649  0.064430335            2 
 1111000     1.058007   -4.1962452    847.34099   0.06355693  0.064418326            2 
 1112000    1.0936058   -4.1828185    851.23685   0.06379173  0.064406231            2 
 1113000    1.0877119   -4.2130507    847.05111  0.063421018  0.064394198            6 
 1114000    1.1066294   -4.2100515    851.28733  0.063680979  0.064382502            4 
 1115000    1.0634707   -4.1842255    853.34677  0.063777785  0.064371279            3 
 1116000    1.0653189   -4.1730264    854.70917  0.063822369   0.06435968            3 
 1117000     1.074901   -4.1837697    851.99673  0.063562871   0.06434793            1 
 1118000    1.0508865   -4.1863587    856.57759  0.063847465  0.064336428            4 
 1119000    1.0777927    -4.197218    853.87348  0.063589029  0.064324789            4 
 1120000    1.0634334   -4.1943801    850.90771  0.063311586  0.064312959            2 
 1121000    1.0788708   -4.1745307    853.48946  0.063447031  0.064300755            3 
 1122000    1.0950949    -4.209486    855.58167  0.063545876  0.064288023            4 
 1123000    1.0568993   -4.1989433    857.69812  0.063646343  0.064275558            2 
 1124000    1.0700658   -4.2168787    856.28448  0.063484911  0.064263142            2 
 1125000    1.0778586   -4.1946707    858.10564  0.063563381  0.064251209            2 
 1126000     1.059872    -4.178539    860.95253  0.063717624  0.064239353            3 
 1127000    1.0785543   -4.1918895    858.23082  0.063459835  0.064227487            2 
 1128000    1.0453618     -4.16937    863.10841  0.063763919  0.064216083            1 
 1129000    1.0736167   -4.2026243    861.78977   0.06361011  0.064204558            1 
 1130000    1.0754012   -4.1994065    863.69335    0.0636942  0.064193392            5 
 1131000    1.0535998   -4.2026024    859.35445  0.063318188  0.064181968            1 
 1132000    1.0773808   -4.1787364    864.10735  0.063612143  0.064170752            3 
 1133000    1.0719038    -4.175661    866.17609  0.063708156  0.064159569            2 
 1134000    1.0810162   -4.1896091    864.57122   0.06353404  0.064148438            3 
 1135000    1.0852958   -4.1724454    867.56763  0.063698064  0.064137449            2 
 1136000    1.0817521   -4.2267576    866.76244  0.063582926  0.064125918            1 
 1137000    1.0779936   -4.2020958    865.95528  0.063467845  0.064114365            2 
 1138000    1.0657596   -4.1907847    868.74485  0.063616348  0.064103292            1 
 1139000    1.0854827   -4.2156505    866.13312  0.063369412  0.064091829            2 
 1140000    1.0548457   -4.2051854    870.92843  0.063664359  0.064080251            5 
 1141000    1.0709283   -4.1725311    869.20944  0.063483015  0.064068731            2 
 1142000    1.0739096   -4.1821865     871.0261   0.06355999  0.064057105            1 
 1143000    1.0733245   -4.2093317    868.14948  0.063294654  0.064045027            1 
 1144000     1.056888   -4.1838664    873.60991  0.063637086  0.064032838            2 
 1145000    1.0718374   -4.2309164    868.28428  0.063193907  0.064020602            3 
 1146000    1.0856507    -4.191893    870.81735   0.06332296  0.064007935            2 
 1147000    1.0604832   -4.1869964    871.82058  0.063340641  0.063995752            3 
 1148000    1.0768153   -4.2076388    873.27381  0.063390956  0.063983377            3 
 1149000    1.0785464   -4.1727997    873.86965     0.063379  0.063971143            2 
 1150000    1.0228781   -4.1592364    875.00087   0.06340586  0.063958999            2 
 1151000    1.0436545   -4.2032999    872.62912  0.063179056  0.063947025            6 
 1152000     1.075945   -4.1775146     869.6008   0.06290515   0.06393422            2 
 1153000    1.0875558   -4.2020694     870.5656  0.062920324  0.063921081            2 
 1154000    1.0469741   -4.1957397    872.80407  0.063027446  0.063907787            5 
 1155000    1.0693581   -4.2055767    873.21535  0.063002551  0.063894441            1 
 1156000    1.0668274   -4.2273053    870.51877   0.06275366  0.063881371            5 
 1157000    1.0632318   -4.2162861    873.90749  0.062943495  0.063868549            2 
 1158000    1.0602931   -4.1947671    873.47885  0.062858294  0.063855612            5 
 1159000    1.0605757   -4.2022134    876.33061  0.063009104  0.063842749            2 
 1160000    1.0580043   -4.1756527    878.75187  0.063128726  0.063830396            1 
 1161000    1.0451965   -4.2126232    879.70364  0.063142667  0.063817459            2 
 1162000    1.0595831   -4.2029305    875.87093  0.062813463  0.063804272            3 
 1163000    1.0755141    -4.212526    880.16753  0.063067321  0.063791143            3 
 1164000    1.0738195   -4.1782747    879.46715  0.062962998   0.06377805            3 
 1165000    1.0682156   -4.1791491    877.29407   0.06275351  0.063764614            2 
 1166000    1.0971038   -4.2209629    876.20131  0.062621591  0.063750965            2 
 1167000    1.0623508   -4.1979403    879.55016  0.062807066  0.063737587            1 
 1168000    1.0584883   -4.2179927    880.10382  0.062792796  0.063723476            2 
 1169000    1.0756249   -4.2161307    880.05662  0.062735715  0.063709675            5 
 1170000    1.0829562   -4.1807383    880.11088   0.06268596  0.063696204            3 
 1171000    1.0842661   -4.2008125    883.75115  0.062891485  0.063683357            3 
 1172000    1.0772588   -4.2009988    880.22589  0.062587165   0.06367041            3 
 1173000    1.0817252   -4.2156994    887.26363   0.06303379  0.063657586            3 
 1174000    1.0576488   -4.2216128    886.02028  0.062891843  0.063644696            2 
 1175000    1.0834451   -4.2280675    886.54183  0.062875307  0.063632163            2 
 1176000    1.0670861   -4.2349577    886.09365  0.062790083  0.063619329            2 
 1177000    1.0875579   -4.2115962     887.3893  0.062828469  0.063606768            1 
 1178000    1.0688484   -4.1899388    889.10611  0.062896584  0.063594438            3 
 1179000    1.0630941   -4.2029139    887.28293  0.062714372  0.063582326            4 
 1180000    1.0617732   -4.1978261    888.44665  0.062743407  0.063569836            3 
 1181000    1.0446917   -4.2258227    887.67274  0.062635672  0.063557626            2 
 1182000      1.05293   -4.1811144    892.99087  0.062957619  0.063545591            1 
 1183000    1.0561349   -4.1935846    893.61591   0.06294843  0.063533663            4 
 1184000    1.0696822   -4.2110792    894.57935  0.062963074  0.063520949            5 
 1185000     1.066075   -4.1954169    891.78267  0.062713268  0.063507959            2 
 1186000    1.0629417    -4.220704    891.05263  0.062609094  0.063495078            3 
 1187000    1.0599117   -4.2368572    889.29614  0.062433034  0.063482827            3 
 1188000     1.057476   -4.1717304     897.9854  0.062989997  0.063470289            1 
 1189000    1.0703033    -4.214188    894.23221   0.06267397  0.063458045            3 
 1190000    1.0453383   -4.2064455    896.03565  0.062747595  0.063445621            3 
 1191000    1.0469202   -4.2125138    895.74826  0.062674801  0.063433416            3 
 1192000    1.0537047   -4.1890116    898.05169  0.062783255  0.063420672            2 
 1193000    1.0534485   -4.1977807    901.61479  0.062979519  0.063408925            3 
 1194000    1.0620282   -4.1889405    902.23407  0.062969994  0.063397029            4 
 1195000    1.0644314   -4.1729281    900.41066  0.062790144  0.063385137            2 
 1196000    1.0756906   -4.2156588    900.96265  0.062776105  0.063373452            3 
 1197000    1.0521614   -4.2148052    900.77999  0.062710943  0.063361913            3 
 1198000    1.0726161   -4.1789143    903.39348  0.062840392  0.063350116            3 
 1199000    1.0621743   -4.1710175    904.68484  0.062877734  0.063338395            2 
 1200000    1.0568476   -4.1979358    906.54501  0.062954514  0.063326836            3 
 1201000    1.0422282   -4.1983111    905.25512  0.062812595   0.06331534            1 
 1202000    1.0768009   -4.2238637     900.7996  0.062451442  0.063303562            2 
 1203000     1.048376   -4.2463405      902.977   0.06255036  0.063291143            3 
 1204000    1.0559581   -4.2240355    906.11245  0.062715424  0.063279208            2 
 1205000    1.0649381   -4.2037573    904.92834   0.06258149  0.063267384            2 
 1206000    1.0748552   -4.1943536    909.10542   0.06281823  0.063255578            2 
 1207000    1.0528737   -4.1941424    909.04699  0.062762151  0.063243801            1 
 1208000    1.0478947   -4.2078298    910.16287  0.062787174  0.063232189            1 
 1209000    1.0371197   -4.2352483     907.1051  0.062524476  0.063220782            1 
 1210000    1.0477608   -4.1828131    910.94995    0.0627376  0.063208971            4 
 1211000    1.0442976   -4.2300703    907.27243   0.06243273  0.063196481            3 
 1212000    1.0866385   -4.2045059     911.9508  0.062702888  0.063184536            2 
 1213000    1.0292578   -4.2383828    910.77062  0.062570117  0.063172522            2 
 1214000    1.0549562   -4.2107974    908.79848  0.062383202  0.063160529            5 
 1215000    1.0484936   -4.2073509    913.82407  0.062676548  0.063148473            6 
 1216000     1.053414    -4.192304    915.74917  0.062756933  0.063136707            2 
 1217000    1.0557789   -4.2173865     914.8502   0.06264381  0.063124804            2 
 1218000    1.0378388   -4.2281867    914.17601  0.062546251  0.063112588            1 
 1219000    1.0509277   -4.2171279    914.32679   0.06250525  0.063100331            3 
 1220000      1.04585    -4.186942    918.93107  0.062768516  0.063088825            3 
 1221000    1.0485677   -4.2181498    916.55329  0.062554824  0.063076951            7 
 1222000    1.0695882    -4.230012    916.71465  0.062514638  0.063065289            3 
 1223000    1.0764575   -4.2576292    914.09869  0.062285275  0.063053301            5 
 1224000    1.0693886   -4.2230265    918.05841  0.062503977  0.063041407            5 
 1225000     1.056864   -4.2241584    914.73436  0.062226827  0.063029971            3 
 1226000    1.0549182   -4.2234446    915.95921  0.062259326  0.063018142            4 
 1227000    1.0825297   -4.1897776    920.71978  0.062531905  0.063006172            4 
 1228000     1.064883   -4.2123821    915.64672  0.062136721   0.06299443            2 
 1229000    1.0726053   -4.2446423    919.95015   0.06237796  0.062982352            4 
 1230000    1.0559127    -4.231626    923.74574    0.0625844  0.062970558            4 
 1231000    1.0507143   -4.2501736    920.40091  0.062307129  0.062958451            3 
 1232000    1.0605223   -4.2106852    920.78138   0.06228229    0.0629469            4 
 1233000    1.0421709   -4.2104255    922.81777  0.062369409  0.062935268            3 
 1234000    1.0545639   -4.2327491     921.8127  0.062250992  0.062923072            3 
 1235000    1.0626685   -4.2364468    927.33034  0.062572897  0.062911434            2 
 1236000     1.042767   -4.2535576     919.3871  0.061986725  0.062899629            2 
 1237000    1.0314275   -4.1871933    924.49424  0.062280668  0.062887918            3 
 1238000    1.0452012   -4.1935172    924.68359  0.062243106  0.062876124            3 
 1239000    1.0464539   -4.2215059    925.88641   0.06227377   0.06286397            2 
 1240000     1.050229   -4.2055691    925.03813  0.062166541  0.062851084            7 
 1241000    1.0554353   -4.1976369    923.40262  0.062006622  0.062838604            1 
 1242000    1.0399139   -4.2173624    928.56605  0.062303144  0.062826244            3 
 1243000    1.0596604   -4.2264346    923.70154  0.061926893  0.062813705            4 
 1244000    1.0368206   -4.2843588    922.03078  0.061765192  0.062801016            6 
 1245000    1.0622577   -4.2103382    927.33958  0.062070922  0.062788422            2 
 1246000     1.055938   -4.2064507    928.03992  0.062067946  0.062776205            2 
 1247000    1.0476182   -4.2237085    932.55954  0.062320205  0.062763879            4 
 1248000     1.045932    -4.244569    926.86185  0.061889813  0.062751758            5 
 1249000    1.0651116   -4.2353961    930.92232  0.062111177  0.062739847            2 
 1250000    1.0469412   -4.2486149    931.07278  0.062071519  0.062728069            5 
 1251000    1.0659493   -4.2268538     932.8656  0.062141327   0.06271633            2 
 1252000    1.0397955   -4.2067252    932.91274  0.062094831  0.062704444            2 
 1253000    1.0547872   -4.2006471    936.65427  0.062294112  0.062692493            1 
 1254000    1.0497965   -4.2064985    936.63294  0.062243018  0.062680865            1 
 1255000    1.0390161   -4.2351532     933.8887  0.062011202  0.062668743            3 
 1256000    1.0469562   -4.2138189    934.50482  0.062002708  0.062656967            1 
 1257000     1.050719   -4.2383813    933.49018  0.061886117  0.062644944            3 
 1258000    1.0718512   -4.2248296    939.56963  0.062239642  0.062632623            2 
 1259000    1.0471846   -4.2289949    938.31421  0.062107109  0.062620664            3 
 1260000    1.0593474   -4.2062372    937.08087  0.061976248  0.062608442            3 
 1261000     1.055706   -4.2611435    936.55442  0.061892309  0.062596417            6 
 1262000    1.0520154   -4.2280746    937.87263  0.061930311  0.062584443            5 
 1263000    1.0626763   -4.2040549    944.86883   0.06234289  0.062572909            3 
 1264000    1.0535946   -4.2272167    940.37047  0.061996999  0.062561477            2 
 1265000    1.0703203    -4.202909    941.26876  0.062007165  0.062550074            1 
 1266000    1.0585138   -4.2164759    945.96495  0.062267309  0.062538307            3 
 1267000    1.0352155   -4.2545564    942.21634  0.061971609  0.062526867            3 
 1268000    1.0575119   -4.2515286    940.49683  0.061809729  0.062514999            3 
 1269000    1.0687438   -4.2146629    944.44649  0.062020389  0.062503465            3 
 1270000    1.0795824   -4.2401264    945.69854   0.06205371  0.062492329            3 
 1271000    1.0646546   -4.2255774    946.70876  0.062071122  0.062480855            1 
 1272000    1.0344199   -4.2163564    948.91104  0.062166604  0.062469581            4 
 1273000    1.0521799   -4.2398687    948.31589  0.062078809  0.062458459            4 
 1274000    1.0501918   -4.2416926    945.88413  0.061871018  0.062447125            2 
 1275000     1.058956   -4.2416841    947.25832  0.061912309  0.062435874            3 
 1276000    1.0704089   -4.2475514    948.26327  0.061929419  0.062424717            3 
 1277000    1.0432458   -4.2280202    946.08458  0.061738748  0.062413343            3 
 1278000    1.0519558   -4.2263492    953.97053  0.062204651  0.062401889            2 
 1279000    1.0637039   -4.2146577    948.22062   0.06178138  0.062390689            3 
 1280000    1.0415221   -4.2366153    947.03035  0.061655622  0.062379163            3 
 1281000     1.054999   -4.2502429    954.20919  0.062074498  0.062367595            3 
 1282000    1.0565776   -4.2376033    949.91728  0.061747093   0.06235604            2 
 1283000    1.0493001   -4.2323764    951.40139  0.061795362  0.062344306            3 
 1284000    1.0281127   -4.2224538    951.82543  0.061774755  0.062332466            1 
 1285000    1.0613824   -4.2409306    955.05443  0.061936085  0.062320687            2 
 1286000    1.0471016    -4.271613    951.32852  0.061646482  0.062308809            1 
 1287000    1.0588227   -4.2313276    956.00962  0.061901685  0.062297213            3 
 1288000    1.0393446   -4.2471605    954.10169  0.061730182  0.062286001            4 
 1289000    1.0336213   -4.2435164    954.83394  0.061729632  0.062274693            4 
 1290000    1.0621926   -4.2611417    956.05354  0.061760565  0.062262982            1 
 1291000    1.0365084   -4.2506645    955.84246    0.0616991  0.062251283            3 
 1292000    1.0549556   -4.2162824    960.29848  0.061938756  0.062239663            3 
 1293000    1.0274129   -4.2165758    960.63226  0.061912365  0.062228028            3 
 1294000    1.0513803   -4.2110734    962.13659  0.061961398  0.062216731            2 
 1295000    1.0361043   -4.2232979    958.69854  0.061692313  0.062205516            2 
 1296000    1.0633176    -4.243546    959.79492  0.061715209  0.062194436            3 
 1297000    1.0329901   -4.2644615    958.78258  0.061602582   0.06218278            3 
 1298000    1.0188638    -4.229156    956.15638  0.061386516  0.062171139            2 
 1299000    1.0131828   -4.2414488    962.36172  0.061737344  0.062159345            3 
 1300000    1.0429382   -4.2380845    962.19883  0.061679412  0.062147019            2 
 1301000     1.031938   -4.2054276    963.00963  0.061683937  0.062135299            4 
 1302000    1.0355637   -4.2364092    960.81937  0.061496376  0.062123745            4 
 1303000    1.0187105   -4.2592147    962.01468  0.061525625  0.062112054            2 
 1304000    1.0200285   -4.2796753    963.85912  0.061596314  0.062100235            4 
 1305000    1.0438084   -4.2513365     964.1098  0.061565122  0.062088385            2 
 1306000    1.0740349   -4.2586526    961.91714  0.061378072   0.06207651            3 
 1307000    1.0362259   -4.2641346    963.00207  0.061400285  0.062064499            3 
 1308000    1.0293452   -4.2562775    966.89453  0.061601334  0.062052733            2 
 1309000    1.0484853    -4.255746    965.75108  0.061481479  0.062041692            3 
 1310000    1.0540373   -4.2484244    965.92198  0.061445419  0.062030331            7 
 1311000    1.0123858   -4.2611752    966.77316  0.061452655  0.062018738            3 
 1312000    1.0430491   -4.2337538    969.56691  0.061583264  0.062007447            4 
 1313000    1.0575488   -4.2245813    966.94737  0.061370105  0.061995808            2 
 1314000    1.0467747   -4.2497929    968.46565  0.061419689   0.06198391            1 
 1315000    1.0229522   -4.2285473    968.91454  0.061401428  0.061972532            3 
 1316000    1.0455955   -4.2513509    971.29318  0.061505394   0.06196075            7 
 1317000    1.0357956   -4.2409358    970.08152  0.061382025  0.061948951            5 
 1318000    1.0473087   -4.2687022    967.47015  0.061170343  0.061936829            6 
 1319000    1.0315801   -4.2209297    972.91022  0.061467666  0.061925118            2 
 1320000     1.050476   -4.2130948    973.57487   0.06146306  0.061913522            3 
 1321000     1.006887   -4.2664893    973.75131  0.061427663  0.061902188            2 
 1322000    1.0389976   -4.2095397    977.83605  0.061638682   0.06189093            2 
 1323000    1.0410019   -4.2110257    977.58814  0.061576476  0.061879778            3 
 1324000    1.0255667   -4.2324222    978.02292  0.061557334  0.061869005            5 
 1325000    1.0351578   -4.2383852    980.31774  0.061655204  0.061858397            4 
 1326000    1.0540662    -4.241966     983.0267  0.061778953  0.061848209            4 
 1327000    1.0299235   -4.2605161    979.65226  0.061520488  0.061837732            3 
 1328000    1.0618243   -4.2701226    980.98506  0.061557797  0.061826673            4 
 1329000    1.0297341    -4.250163    979.64406  0.061427393  0.061815782            2 
 1330000    1.0181688   -4.2399915    983.12521  0.061599324  0.061805024            2 
 1331000    1.0182088   -4.2239583    983.27527  0.061562438  0.061794654            3 
 1332000    1.0826894   -4.2453865    984.97866  0.061622789  0.061784083            2 
 1333000    1.0365237    -4.268631    983.66788  0.061494616   0.06177381            5 
 1334000    1.0722411   -4.2384029    985.03539  0.061533945  0.061763521            3 
 1335000    1.0602787   -4.2352961    991.44185  0.061887756  0.061753183            5 
 1336000    1.0268547   -4.2308143    990.42604  0.061778071  0.061743045            3 
 1337000    1.0314208   -4.2469256    988.18431  0.061592141  0.061732798            3 
 1338000    1.0585815   -4.2151264    987.64943  0.061512795  0.061722524            3 
 1339000   0.99290333   -4.2367728    989.58904  0.061587568   0.06171227            3 
 1340000    1.0403905   -4.2098683    990.63369  0.061606573  0.061701946            3 
 1341000    1.0566215     -4.22639    991.55511  0.061617892  0.061691835            4 
 1342000    1.0475761   -4.2744419    987.68884  0.061331895  0.061681063            8 
 1343000    1.0421692   -4.2603854    987.16235  0.061253558  0.061670366            3 
 1344000    1.0338654   -4.2507169    985.92648  0.061131354  0.061659572            1 
 1345000     1.070425   -4.2116717    993.00242  0.061524313  0.061648976            2 
 1346000    1.0310899   -4.2275418     989.5504  0.061264884  0.061638294            2 
 1347000    1.0300583   -4.2601062    992.54095  0.061404414  0.061627138            4 
 1348000    1.0254395   -4.2445437    991.13172  0.061271743  0.061616611            2 
 1349000    1.0437159   -4.2626071    990.32595  0.061176547  0.061605596            3 
 1350000    1.0657519   -4.2490044    995.36614  0.061442354   0.06159493            3 
 1351000      1.05245   -4.2706027    990.07522  0.061070517  0.061583835            2 
 1352000     1.046199   -4.2414198    996.14983  0.061399767  0.061572656            4 
 1353000    1.0372091   -4.2850204    995.23722  0.061298178  0.061561737            3 
 1354000    1.0385849   -4.2482016    999.82424  0.061535219  0.061551273            5 
 1355000    1.0585574   -4.2481026     995.1513  0.061202417  0.061540467            2 
 1356000    1.0347767    -4.219816    995.75862  0.061194605   0.06152994            4 
 1357000    1.0196191   -4.2512878    1000.2453  0.061425035  0.061519088            1 
 1358000    1.0212828   -4.2476748    997.27769  0.061197698  0.061508272            7 
 1359000    1.0229889   -4.2480245     1000.402  0.061344248  0.061497975           10 
 1360000     1.011453   -4.2551295    1003.4283  0.061484578  0.061487449            3 
 1361000    1.0440531   -4.2480633    1000.9389  0.061286976  0.061477032            2 
 1362000    1.0190566   -4.2498905    1001.6364  0.061284656  0.061466617            5 
 1363000    1.0246679   -4.2606283    1000.8089  0.061189096   0.06145642            4 
 1364000    1.0302307    -4.276262    999.64904  0.061073377   0.06144573            2 
 1365000    1.0340185   -4.2843018    1000.7854  0.061098007  0.061434575            4 
 1366000    1.0397015   -4.2563438    1001.7622  0.061112869   0.06142357            3 
 1367000    1.0263723   -4.2403844     1000.792  0.061009022  0.061413097            4 
 1368000    1.0365035   -4.2608573    1004.5777  0.061195037  0.061402366            2 
 1369000    1.0360092   -4.3062896    1000.6502  0.060911258  0.061391704            5 
 1370000     1.039377   -4.2711178     1003.423  0.061035461  0.061380536            4 
 1371000    1.0456869   -4.2670617    1003.6862   0.06100694  0.061369797            7 
 1372000    1.0371709   -4.2816369    1004.4322  0.061007786  0.061359045            4 
 1373000    1.0362286   -4.2643963    1005.1426  0.061006467   0.06134848            2 
 1374000    1.0463948   -4.2271612    1010.9176  0.061312323  0.061338138            2 
 1375000    1.0323411   -4.2338559    1013.3581  0.061415644  0.061327848            4 
 1376000    1.0107424   -4.2612034    1007.6538  0.061025543  0.061317556            2 
 1377000    1.0350061   -4.2596964    1007.8305  0.060991918  0.061307111            3 
 1378000    1.0108764   -4.2464344    1010.6718  0.061119486  0.061296476            5 
 1379000    1.0478475   -4.2503114    1008.9942  0.060973787  0.061285935           11 
 1380000    1.0410228   -4.2698087     1010.657   0.06103001  0.061275331            4 
 1381000    1.0423273   -4.2291055    1011.2374  0.061020841  0.061264553            2 
 1382000    1.0179609    -4.213992    1019.2565  0.061460231  0.061254098            5 
 1383000    1.0207972   -4.2526512    1012.2643  0.060994477  0.061243415            2 
 1384000    1.0382384   -4.2695004    1011.0233  0.060875677  0.061232514            3 
 1385000    1.0169317   -4.2927329    1010.0833   0.06077517  0.061221256            3 
 1386000    1.0342996   -4.2716735    1014.6504  0.061005916  0.061210044            1 
 1387000    1.0256562   -4.2576947    1015.6616  0.061022687  0.061199427            3 
 1388000    1.0488489   -4.2306334    1015.3111  0.060957676  0.061188901            1 
 1389000     1.035789   -4.2971526    1013.2739  0.060791573  0.061178822            2 
 1390000    1.0385515   -4.2546653    1019.0957  0.061096863  0.061168408            4 
 1391000    1.0098161   -4.2393038    1018.5163  0.061018229  0.061158121            1 
 1392000    1.0402645   -4.2365029    1019.6107  0.061039911  0.061147796            5 
 1393000    1.0275585   -4.2789916    1019.5875  0.060994703   0.06113726            3 
 1394000    1.0281758   -4.2490051    1019.3269  0.060935373  0.061126361            3 
 1395000    1.0150119   -4.2438716    1018.4939  0.060841928  0.061115425            2 
 1396000    1.0210526       -4.293      1018.62  0.060805875  0.061104602            1 
 1397000     1.038985   -4.2533209    1021.5634  0.060937926  0.061094242            4 
 1398000    1.0349011   -4.2962777    1016.8642   0.06061422  0.061083341            2 
 1399000    1.0418028   -4.2526129    1015.5825  0.060494552  0.061072247            3 
 1400000    1.0274875   -4.2488419    1019.3967  0.060678373  0.061061059            4 
 1401000    1.0343835   -4.2699663    1020.5972  0.060706474  0.061049692            5 
 1402000    1.0400452   -4.2336964     1022.213  0.060759215  0.061038894            5 
 1403000    1.0186759   -4.2904286    1016.7415  0.060390919  0.061027816            3 
 1404000    1.0200918   -4.2863078    1019.2772  0.060498409   0.06101653            4 
 1405000    1.0017435   -4.2725331    1021.8765  0.060609518   0.06100526            3 
 1406000    1.0346195   -4.2968932    1022.5486   0.06060625  0.060994198            5 
 1407000    1.0093756   -4.2759366    1026.0696  0.060771715  0.060983169            3 
 1408000    1.0290996   -4.2612291    1025.2103   0.06067769  0.060972032            2 
 1409000    1.0420081   -4.2279005     1026.134  0.060689258   0.06096115            3 
 1410000    1.0266345   -4.2678931    1025.2899  0.060596331   0.06095002            7 
 1411000    1.0528668   -4.2598274    1030.3992  0.060855141  0.060938953            3 
 1412000   0.99359724   -4.2371824    1029.8897  0.060781973  0.060927855            2 
 1413000    1.0439909   -4.2778876    1028.0919  0.060632924   0.06091732            7 
 1414000    1.0236833   -4.2519031    1029.5685  0.060677067  0.060906652            3 
 1415000    1.0221062   -4.2571469    1031.0114  0.060719163  0.060895772            3 
 1416000    1.0319451   -4.2754452    1030.0561  0.060620061  0.060885092            4 
 1417000     1.009988    -4.266918    1030.8151  0.060621921  0.060874265            2 
 1418000     1.046747   -4.2607242    1031.7997  0.060637027  0.060863805            4 
 1419000    1.0160933   -4.2886049    1030.9805  0.060546189  0.060852923            5 
 1420000    1.0175417   -4.2577328    1031.3547  0.060525512  0.060842454            2 
 1421000    1.0189804    -4.261649    1032.7476  0.060564605  0.060832385            3 
 1422000    1.0190268   -4.2820312    1037.7362  0.060814359  0.060822043            4 
 1423000    1.0331173   -4.2452541    1038.5683  0.060820352  0.060811499            3 
 1424000    1.0072292   -4.2893606    1034.5267  0.060541125  0.060801076            4 
 1425000    1.0173903   -4.2844828    1033.7977  0.060456006  0.060790528            7 
 1426000    1.0342483   -4.2855725    1033.4133  0.060391146  0.060779887            3 
 1427000    1.0157155   -4.3115098    1032.8253  0.060314489  0.060768992            2 
 1428000    1.0465324   -4.2595953    1037.9491  0.060571259  0.060758076            2 
 1429000    1.0283376   -4.2595394    1036.8549  0.060465064  0.060747377            2 
 1430000     1.027075    -4.241987    1042.9256   0.06077655  0.060736699            4 
 1431000    1.0349264   -4.2695393    1040.6195  0.060599787  0.060726226            2 
 1432000    1.0314979   -4.2454394    1041.2004  0.060591273  0.060715667            7 
 1433000    1.0285398   -4.2875694    1040.5611  0.060511814  0.060705175            2 
 1434000    1.0148227   -4.2475812     1040.625  0.060473325  0.060694798            5 
 1435000    1.0157808   -4.2550967    1040.3803  0.060416975  0.060684177            2 
 1436000    1.0358461   -4.2681313    1037.5661  0.060211587  0.060673559            2 
 1437000    1.0284327   -4.2632239    1041.1552  0.060377821  0.060662983            2 
 1438000    1.0067456   -4.2658973     1040.684  0.060308528   0.06065221            2 
 1439000    1.0066145   -4.2431728    1046.4355  0.060599696  0.060641954            4 
 1440000    1.0106622   -4.2721668    1046.5357  0.060563411  0.060631702            7 
 1441000    1.0258647   -4.2834334    1045.6821  0.060472018   0.06062136            2 
 1442000   0.99665591   -4.2831603     1046.683   0.06048792  0.060610978            4 
 1443000    1.0248106    -4.292018    1047.6099  0.060499535   0.06060063            5 
 1444000     1.034915   -4.2640892    1046.1124  0.060371213  0.060590165            4 
 1445000    1.0416625   -4.2778321    1045.0154  0.060266168  0.060580041            2 
 1446000     1.014219    -4.266689    1051.9771  0.060625696  0.060569877            2 
 1447000    1.0217614    -4.256024    1049.4552  0.060438562  0.060559533            6 
 1448000    1.0153529   -4.2749518    1044.8629  0.060132536  0.060549032            3 
 1449000    1.0027112   -4.2946559    1043.8208  0.060031102   0.06053841            2 
 1450000    1.0348314   -4.2531002    1050.4465   0.06037049  0.060528221            5 
 1451000    1.0160697   -4.2328317     1053.823  0.060522802   0.06051798            2 
 1452000    1.0280099    -4.278336    1050.9904  0.060318549  0.060507756            2 
 1453000    1.0286715   -4.2765293    1052.2974  0.060351997  0.060497578            4 
 1454000    1.0116839   -4.2626926    1055.2051  0.060477136  0.060487592            5 
 1455000    1.0267085   -4.2815273    1052.2153  0.060264337  0.060477235            4 
 1456000    1.0522837   -4.2739546    1057.0379  0.060498965  0.060467074            6 
 1457000    0.9979314   -4.2442058    1057.8852  0.060505904  0.060457263            4 
 1458000     1.013491   -4.2876243    1055.0216  0.060300729  0.060447481            2 
 1459000    1.0190754   -4.2594431    1055.2988  0.060275235  0.060437694            5 
 1460000    1.0350692   -4.2723571    1055.7516  0.060259793  0.060427795            6 
 1461000   0.99350978   -4.2811543    1058.4342  0.060371562  0.060417425            3 
 1462000    1.0301362   -4.2623873    1062.0427   0.06053595  0.060407465            3 
 1463000    1.0159355   -4.2807803    1057.9452  0.060261177   0.06039729            5 
 1464000    1.0276508   -4.2740925    1056.9921  0.060165762  0.060387157            2 
 1465000    1.0135209   -4.2636942    1061.8138  0.060398965  0.060377107            5 
 1466000   0.99803058   -4.2759632     1060.728  0.060296045   0.06036754            2 
 1467000    1.0091172    -4.281298    1055.7891  0.059974385  0.060357216            4 
 1468000    1.0211657   -4.2750332    1062.8438  0.060334005  0.060347083            3 
 1469000    1.0346914    -4.245838    1063.6268  0.060337351  0.060337275            2 
 1470000    1.0210734   -4.2660474    1064.7896  0.060362222  0.060327718            2 
 1471000    1.0382697   -4.2997997    1063.2632  0.060234715  0.060318059            4 
 1472000    1.0455192   -4.2698051    1067.7537  0.060448012  0.060308406            3 
 1473000    1.0122949   -4.2693022    1064.6262   0.06023004  0.060298317            3 
 1474000    1.0290691   -4.2729708    1062.6071   0.06007503  0.060288024            2 
 1475000     1.017549   -4.2769419    1066.1705  0.060235622  0.060277884            1 
 1476000    1.0296049   -4.2829797    1064.5089     0.060101  0.060267747            4 
 1477000     1.009763   -4.2804011    1064.1947  0.060042581  0.060257593            4 
 1478000    1.0210599    -4.279166    1067.0648  0.060163777  0.060247557            2 
 1479000    1.0007354   -4.2910779    1065.7048  0.060046474  0.060237546            2 
 1480000    1.0198114   -4.2771926    1069.2261   0.06020417  0.060227462            1 
 1481000    1.0410109   -4.2601533    1069.4924  0.060178504  0.060217121            4 
 1482000    1.0237895   -4.2925288    1068.1019  0.060059713  0.060206765            2 
 1483000     1.005607   -4.2847979     1066.141  0.059909026   0.06019657            6 
 1484000    1.0236576    -4.285028    1068.2072  0.059984682  0.060186477            5 
 1485000    1.0343541   -4.2810501    1070.1534  0.060053499  0.060176341            4 
 1486000    1.0071608   -4.3362752     1069.496  0.059976225  0.060166136            6 
 1487000    1.0107885     -4.29818    1070.3618  0.059984408  0.060155925            6 
 1488000    1.0237728   -4.3146569    1070.0602  0.059927209  0.060145788            3 
 1489000   0.99043734   -4.2810356    1073.6411   0.06008737  0.060135991            4 
 1490000    1.0128168   -4.2640484    1075.9475  0.060176032  0.060126266            3 
 1491000    1.0198202   -4.3048491    1077.1397  0.060202309  0.060115999            2 
 1492000    1.0293857   -4.2897398    1075.6613  0.060079385  0.060105914            4 
 1493000    1.0254026    -4.299551    1070.7411  0.059764516  0.060095969            4 
 1494000    1.0259785   -4.3223353    1072.6824  0.059832798  0.060085812            2 
 1495000      1.01002   -4.2939701    1076.3983  0.059999908  0.060075602            3 
 1496000    1.0174091   -4.2764282    1076.1715  0.059947164   0.06006532            3 
 1497000    1.0396563   -4.3026547    1074.2867  0.059802196   0.06005522            2 
 1498000    1.0206368   -4.2623929    1080.6724  0.060117512  0.060045235            1 
 1499000    1.0181997   -4.3230853    1077.2265  0.059885838  0.060035271            3 
 1500000      1.01967   -4.2444858    1082.4844  0.060138022  0.060025268            3 
 1501000   0.99280498   -4.2670813    1083.5325  0.060156149  0.060015265            2 
 1502000    1.0090878   -4.3295452    1076.1576  0.059706925  0.060004818            1 
 1503000    1.0030919   -4.2926025    1076.6171  0.059692677  0.059994379            4 
 1504000   0.97571186   -4.3110544    1076.7172  0.059658533  0.059984095            3 
 1505000    1.0498451   -4.2875393    1082.1542  0.059919945  0.059973886            3 
 1506000   0.99062156   -4.2933539    1080.2786  0.059776375  0.059963628            5 
 1507000    1.0123038   -4.2993287    1079.4989  0.059693589  0.059953554            4 
 1508000   0.98678369   -4.2957728     1081.559  0.059767852  0.059943053            3 
 1509000    1.0259441    -4.281146    1083.0874  0.059812646  0.059932753            2 
 1510000     1.017384   -4.2992392    1083.3046   0.05978502   0.05992248            3 
 1511000     1.020962   -4.3115599    1081.5388  0.059648069  0.059912605            2 
 1512000    1.0020391   -4.2905597    1086.0815  0.059858987  0.059902583            5 
 1513000   0.99527263   -4.2753475    1087.1669  0.059879206  0.059892983            3 
 1514000    1.0123529   -4.2968207    1087.8875  0.059879319  0.059883054            6 
 1515000    1.0103176   -4.3180881    1085.3654   0.05970107  0.059873315            2 
 1516000    1.0024345     -4.30231    1084.4311  0.059610331   0.05986322            3 
 1517000    1.0172409   -4.2927934    1089.3956  0.059843748  0.059853307            1 
 1518000   0.98776762   -4.3026455    1092.5156  0.059975604   0.05984325            2 
 1519000   0.98092455    -4.290148    1087.3188  0.059651023  0.059833043            3 
 1520000     1.020789   -4.2581123    1093.3542  0.059942664  0.059823124            3 
 1521000    1.0040343   -4.2976282    1090.7652  0.059761405  0.059813052            2 
 1522000    1.0131903    -4.308256    1091.3142  0.059752203  0.059802785            3 
 1523000    1.0128431   -4.3239909    1089.7844   0.05962926  0.059792488            3 
 1524000    1.0128091   -4.2963672    1091.0079   0.05965704  0.059781928            4 
 1525000    1.0134804   -4.3222956    1089.3875   0.05952937  0.059771742            3 
 1526000    1.0076102   -4.2801934    1092.4649  0.059658413  0.059761525            2 
 1527000    1.0070401   -4.3287589    1089.6793  0.059467325  0.059751535            3 
 1528000    1.0176132   -4.3210488     1090.114  0.059452114  0.059741459            2 
 1529000    1.0047566   -4.3067369    1094.1346  0.059632362  0.059731171            7 
 1530000   0.98757039   -4.3382855    1092.3941   0.05949859  0.059721004            3 
 1531000    1.0411817    -4.317862    1093.0491   0.05949538  0.059710752            1 
 1532000    1.0003852   -4.2889641    1094.8958  0.059556994   0.05970078            4 
 1533000    1.0007551   -4.2868773    1101.1841  0.059859977  0.059690984            3 
 1534000    1.0128669   -4.2597787    1097.8869  0.059641834  0.059681728            4 
 1535000    1.0077593   -4.3061843    1096.9767  0.059553565   0.05967195            3 
 1536000   0.99011656   -4.2966242     1098.412  0.059592663  0.059662215            4 
 1537000    1.0100042   -4.3206205    1097.7642  0.059518769  0.059652464            3 
 1538000   0.99709838   -4.3175081    1102.9695  0.059762112  0.059642547            5 
 1539000   0.99326843   -4.2892924    1099.1296  0.059515354  0.059633038            2 
 1540000    1.0139602   -4.3003197    1100.5574  0.059553974  0.059623486            3 
 1541000    1.0015046   -4.2991054    1103.2522  0.059661054  0.059614316            2 
 1542000   0.98380984   -4.3105616    1104.1157  0.059669029  0.059605071            3 
 1543000   0.99215094   -4.3123978    1102.7416  0.059556148  0.059595849            2 
 1544000   0.98618739   -4.3035262    1102.8464  0.059523231  0.059586145            2 
 1545000    1.0206405   -4.2851438    1105.5993  0.059633188  0.059576596            3 
 1546000   0.98328676   -4.3217318    1107.3058  0.059686597  0.059567057            3 
 1547000     0.990624   -4.3179325    1100.8368  0.059299547  0.059557331            3 
 1548000    1.0059753   -4.2802327    1110.4461  0.059778536  0.059547887            3 
 1549000    1.0182711   -4.3362484    1108.2982  0.059624393  0.059538269            2 
 1550000    1.0346068   -4.3066759    1112.1631  0.059793716  0.059528846            5 
 1551000    1.0151752   -4.3298012    1107.3698  0.059497623  0.059519531            1 
 1552000   0.99693196   -4.3147936     1111.243  0.059667259  0.059510614            2 
 1553000    1.0118744   -4.3233534    1113.1769  0.059732608  0.059501495            3 
 1554000     1.027665   -4.3157941    1114.8092  0.059781701  0.059492319            3 
 1555000   0.99963097    -4.309595    1110.8832  0.059532864  0.059483142            3 
 1556000    0.9966325   -4.3104612    1113.3442  0.059626401   0.05947429            3 
 1557000    1.0021322   -4.3048843    1111.0578  0.059465737  0.059465237            2 
 1558000    1.0087759    -4.301118    1117.3597   0.05976464  0.059456158            3 
 1559000   0.99477264   -4.3035926    1115.6469   0.05963475  0.059447255            4 
 1560000    1.0089435   -4.3011897     1112.288  0.059417093  0.059438382            5 
 1561000    1.0260528   -4.3264761    1113.9383  0.059467129  0.059429315            4 
 1562000   0.99070901   -4.3023723    1119.8163  0.059742656  0.059420221            3 
 1563000    1.0033604   -4.3041009    1119.7847  0.059702744  0.059411352            3 
 1564000    1.0231718   -4.3096139    1114.0443  0.059358709   0.05940235            1 
 1565000    1.0054649   -4.3361803    1113.1323   0.05927222   0.05939305            2 
 1566000   0.98153611   -4.3047969    1117.7871  0.059482071  0.059383809            2 
 1567000   0.97172891   -4.2989204    1117.9185  0.059451102  0.059374476            4 
 1568000    1.0097344   -4.2962069    1117.2712  0.059378782  0.059365477            5 
 1569000    1.0089985   -4.3371522    1117.2022  0.059337276  0.059356069            8 
 1570000    1.0104589   -4.2889524    1121.0505  0.059503742  0.059346755            5 
 1571000   0.98532769   -4.2997157    1120.8106  0.059453143   0.05933723            2 
 1572000    1.0036579   -4.3045808    1122.2744   0.05949292  0.059327735            3 
 1573000   0.99599592   -4.3052739    1120.1735  0.059343797  0.059318398            2 
 1574000    1.0061564   -4.2936405    1125.7943   0.05960368  0.059308944            2 
 1575000    1.0014696   -4.3335946    1120.6094  0.059291503  0.059299363            2 
 1576000   0.99342539   -4.3336963    1122.3988    0.0593485  0.059289786            3 
 1577000    1.0186317   -4.2922166    1124.7543  0.059435336  0.059280459            2 
 1578000    1.0102617   -4.3414479    1121.3333   0.05921701  0.059270981            2 
 1579000   0.98319028   -4.3238075    1122.8096  0.059257423    0.0592614            2 
 1580000   0.99463974   -4.3336485    1128.1969  0.059504055  0.059252078            2 
 1581000   0.96995075   -4.3092325    1125.4644  0.059322391  0.059242471            4 
 1582000   0.98878139   -4.3450774    1125.1517  0.059268423  0.059233239            2 
 1583000   0.98956068   -4.3350786    1125.8679  0.059268682  0.059223846            4 
 1584000   0.98231096   -4.3161176    1128.3473  0.059361705  0.059214557            4 
 1585000   0.97569432   -4.3170071    1126.0733  0.059204696  0.059205044            2 
 1586000    1.0139618   -4.2784644    1129.7776  0.059362001  0.059195807            4 
 1587000   0.97209233   -4.3329972    1130.5667  0.059366032  0.059186247            1 
 1588000    1.0128367   -4.3100314    1124.9146  0.059032043  0.059176507            3 
 1589000   0.99168321   -4.3351399    1128.4553  0.059180578  0.059166929            8 
 1590000   0.98621294   -4.2950204    1132.0809   0.05933338  0.059157298            5 
 1591000    0.9966305    -4.310667    1134.7824  0.059437588  0.059147982            2 
 1592000   0.96637968   -4.3251387    1130.6594  0.059184432   0.05913864            4 
 1593000    1.0083326   -4.3135734    1132.2382   0.05922987  0.059129264            1 
 1594000   0.98424392    -4.297939    1133.5387  0.059260701  0.059119842            2 
 1595000    1.0050311   -4.3047588    1133.6615  0.059229964  0.059110392            2 
 1596000   0.99104616   -4.3248155    1136.5125  0.059341716  0.059101354            1 
 1597000   0.99048205   -4.3299704     1134.611  0.059205332  0.059092346            1 
 1598000   0.98402428   -4.3203723    1134.4096  0.059157781  0.059083278            5 
 1599000   0.98555555   -4.3129958    1136.7682  0.059243706  0.059074036            3 
 1600000   0.98782003   -4.3255701    1135.5902  0.059145322  0.059064796            3 
 1601000    1.0105094   -4.3319329    1135.3441   0.05909557  0.059055468            6 
 1602000    1.0136158   -4.2774999    1137.5459  0.059173218  0.059046357            4 
 1603000   0.99114691   -4.2988239    1139.1771  0.059221101  0.059036988            2 
 1604000   0.98249733   -4.2966308    1135.7585   0.05900657  0.059027747            3 
 1605000    1.0049629   -4.3020356    1139.1718  0.059147031  0.059018445            2 
 1606000   0.99422068   -4.3151204     1138.321  0.059066053  0.059009094            2 
 1607000   0.97363373   -4.3183727    1138.9157  0.059060137  0.058999595            2 
 1608000   0.99649718   -4.3435876    1139.4741  0.059052346  0.058989854            3 
 1609000    1.0088259   -4.3448969    1137.5304  0.058914979  0.058979968            2 
 1610000   0.99635744   -4.3021205     1141.564  0.059087166  0.058970437            4 
 1611000   0.98889456   -4.3344355    1142.6983   0.05910916  0.058961139            3 
 1612000   0.99972676   -4.3383432    1142.0618   0.05903959  0.058951729            4 
 1613000   0.99817569   -4.3270119    1142.1392  0.059006985  0.058942287            2 
 1614000   0.99641156    -4.274972    1147.1953  0.059231478  0.058933226            1 
 1615000   0.98556055   -4.2799675    1145.5624  0.059110548  0.058923764            1 
 1616000   0.97755587   -4.3122634    1142.0475  0.058892714  0.058914632            4 
 1617000   0.98605708   -4.3115757    1146.4998  0.059085746  0.058905312            4 
 1618000   0.98701069   -4.3253668     1148.704  0.059162751  0.058896072            2 
 1619000   0.96931702   -4.3396218    1144.5413  0.058911947  0.058886872            3 
 1620000    1.0050404   -4.3245678    1145.2193  0.058910459   0.05887761            4 
 1621000   0.97905288    -4.323865    1145.9057  0.058909404  0.058868425            7 
 1622000   0.99791115   -4.3139475    1149.8906  0.059077817  0.058859061            1 
 1623000   0.98926725   -4.3644757    1145.8491  0.058833902  0.058849661            3 
 1624000    1.0143395   -4.3194036    1147.8525  0.058900479  0.058840204            1 
 1625000   0.98642925   -4.3488348    1147.8727  0.058865269  0.058830782            2 
 1626000    1.0022525    -4.330679    1153.6961  0.059127517  0.058821737            4 
 1627000   0.98769775   -4.3354521    1150.5471  0.058929886  0.058812284            3 
 1628000   0.97833002   -4.3171768    1151.0372  0.058918775  0.058802753            3 
 1629000   0.98162251   -4.3391958    1149.2049  0.058788876  0.058793255            3 
 1630000   0.99586949   -4.3248366    1152.6497  0.058928922  0.058784075            4 
 1631000   0.99935214   -4.3140592     1151.932  0.058856121  0.058774713            5 
 1632000   0.99090476   -4.3240276    1158.0239   0.05913112  0.058765397            6 
 1633000   0.98147745   -4.3464076    1153.3634  0.058857081  0.058755766            4 
 1634000   0.99362359   -4.3774111    1151.3259  0.058717153  0.058746211            5 
 1635000   0.97760282   -4.3352519    1152.7592  0.058754291  0.058736466            4 
 1636000   0.98729452   -4.3068595    1159.5838  0.059066005  0.058727104            3 
 1637000   0.98832467   -4.3387048    1153.0638  0.058698014  0.058717581            1 
 1638000   0.98906432   -4.3369869    1151.8834  0.058602129  0.058707886            3 
 1639000   0.98508475    -4.313009    1158.0107  0.058877908  0.058698632            7 
 1640000   0.99590503    -4.321506    1156.9865  0.058789964  0.058689497            1 
 1641000   0.98355281   -4.3396023    1157.8369  0.058797325  0.058679878            4 
 1642000   0.98219218   -4.3232877    1158.4803  0.058794167  0.058670729            3 
 1643000    1.0066808   -4.3094246    1159.8666  0.058828698   0.05866163            4 
 1644000   0.99419132   -4.2911455    1164.3409  0.059019711  0.058652365            5 
 1645000   0.99382347   -4.3338476    1159.4547  0.058736309  0.058642886            4 
 1646000   0.97947318   -4.3657126    1156.4333  0.058547658  0.058633324            3 
 1647000   0.98493071   -4.3119023    1157.5648  0.058569361  0.058623642            2 
 1648000    1.0058928   -4.3423972    1156.9561   0.05850304  0.058613962            2 
 1649000   0.99580374   -4.3603145     1156.986  0.058469074  0.058604163            4 
 1650000   0.98358757   -4.3190358    1162.6346  0.058718918  0.058594238            6 
 1651000   0.98761462   -4.3469268    1158.9173  0.058495723  0.058584215            5 
 1652000    1.0043303   -4.3160818    1157.1743  0.058372391  0.058574099            2 
 1653000   0.99484345   -4.3428392    1162.6711  0.058614192  0.058564147            3 
 1654000    0.9978866   -4.3447857    1156.9045  0.058288214  0.058553638            4 
 1655000    0.9902824   -4.3013841    1165.1621  0.058668788  0.058543575            6 
 1656000   0.99497387   -4.3152113    1164.2096  0.058585427  0.058533634            1 
 1657000   0.98472963   -4.3569461    1160.1995  0.058348396  0.058523676            2 
 1658000    1.0034196   -4.3171841    1165.6318   0.05858624  0.058513937            2 
 1659000    1.0083157   -4.3391761     1161.303  0.058333486  0.058504037            3 
 1660000   0.99465225   -4.3124146     1165.163   0.05849212  0.058494014            3 
 1661000    1.0012308   -4.3265591    1165.8126  0.058489493  0.058484137            2 
 1662000   0.99068152   -4.2973782    1163.4522  0.058335951  0.058474082            4 
 1663000     1.009259   -4.3211354    1170.9803  0.058678108  0.058464402            4 
 1664000   0.98337542   -4.3367587    1167.4307  0.058465079  0.058454625            2 
 1665000   0.98418069   -4.3669048    1163.3328  0.058224866  0.058444894            3 
 1666000   0.98039688   -4.3387857    1167.3065  0.058388681  0.058435151            4 
 1667000   0.98432183   -4.3644993    1168.6838  0.058422505    0.0584255            4 
 1668000   0.98809272   -4.3271149    1170.3323  0.058469837  0.058415632            4 
 1669000   0.97241107    -4.349935    1167.8517  0.058310948  0.058405891            5 
 1670000     1.000013   -4.3496957    1165.9467  0.058180972  0.058396358            3 
 1671000   0.98591287   -4.3176028    1172.6252  0.058479214  0.058386735            6 
 1672000   0.97920513   -4.3447687    1172.6966  0.058447797  0.058377366            3 
 1673000   0.98022576    -4.385519    1171.6838  0.058362413  0.058367832            6 
 1674000   0.97604891   -4.3289365    1174.0082  0.058443261  0.058358301            4 
 1675000   0.97703612   -4.3307388    1172.1647  0.058316653  0.058348907            5 
 1676000   0.98626249   -4.3278751    1175.9777  0.058471443   0.05833942            3 
 1677000   0.97909462   -4.3360143    1176.7817  0.058476533  0.058329792            3 
 1678000    0.9767696   -4.3227841    1179.1484  0.058559218  0.058320062            2 
 1679000   0.95317152   -4.3308792    1171.8969  0.058164429  0.058310604            2 
 1680000    1.0010574   -4.3364746    1174.9632  0.058281906  0.058300837            2 
 1681000   0.98777283   -4.3506794    1178.1433  0.058404883  0.058291126            2 
 1682000   0.97210025   -4.3319906    1177.6001  0.058343249  0.058281456            6 
 1683000   0.98134478   -4.3444309    1179.4766  0.058401498  0.058271795            6 
 1684000   0.96676406   -4.2891134    1179.9741  0.058391433   0.05826244            3 
 1685000   0.97587087   -4.3438452    1179.2961  0.058323248  0.058253154            4 
 1686000    0.9756755   -4.3191349    1180.7342  0.058359736  0.058244119            4 
 1687000   0.98131618   -4.3525651    1186.2606  0.058598132  0.058234918            6 
 1688000   0.98343798   -4.3385056     1183.704  0.058437206  0.058225474            3 
 1689000     0.964412   -4.3462817     1179.274  0.058184035  0.058215971            3 
 1690000   0.99484597   -4.3640733    1182.3834  0.058302931  0.058206717            2 
 1691000   0.95987612   -4.3353275    1183.0561  0.058301599  0.058197585            3 
 1692000    0.9931221   -4.3481895    1185.8378  0.058404148  0.058188322            3 
 1693000   0.98407839   -4.3557728    1185.4857  0.058352318  0.058179311            2 
 1694000   0.98157241   -4.3506649    1187.9786  0.058440505  0.058170369            3 
 1695000   0.97336361    -4.368763    1189.5296  0.058482281  0.058161334            2 
 1696000    0.9844456   -4.3271669    1189.6758  0.058454984  0.058152477            3 
 1697000   0.97852268    -4.349964    1191.4327  0.058506809  0.058143726            2 
 1698000   0.97998145   -4.4026622    1186.4912   0.05822984  0.058134737            5 
 1699000   0.98596873   -4.3442702    1191.6302  0.058447626  0.058125921            3 
 1700000    0.9841794   -4.3632585    1186.5396  0.058163705  0.058117214            5 
 1701000   0.95683072   -4.3614177    1188.5505  0.058228027   0.05810815            6 
 1702000   0.98791317   -4.3404573     1192.114  0.058368294  0.058098804            5 
 1703000   0.98099094   -4.3715762    1189.6302  0.058212476  0.058089674            3 
 1704000   0.98458379   -4.3652217    1187.8576  0.058091627  0.058080518            6 
 1705000   0.98512872    -4.342508    1195.0289  0.058408062  0.058071434            3 
 1706000   0.96457338   -4.3648175    1195.0993  0.058377261  0.058062338            3 
 1707000   0.97770737   -4.3414022    1192.1794   0.05820052   0.05805347            5 
 1708000   0.97004428   -4.3561719    1188.1919  0.057971893   0.05804451            2 
 1709000   0.96929819    -4.367699    1192.4364  0.058144936  0.058035397            2 
 1710000    1.0014988   -4.3626684     1195.819  0.058275779  0.058026259            4 
 1711000   0.95994394   -4.3631496    1194.4617  0.058175615  0.058017326            2 
 1712000    0.9568255   -4.3639915    1197.6783  0.058298204  0.058008465            6 
 1713000    1.0023082   -4.3522996    1199.5777  0.058356573  0.057999974            3 
 1714000   0.96565703   -4.3518829    1193.9433  0.058048586  0.057991178            4 
 1715000    0.9763251   -4.3612046    1197.8385  0.058204009  0.057982307            3 
 1716000   0.95574502   -4.3727323    1195.3039  0.058047006  0.057973092            3 
 1717000   0.99199148   -4.3686325    1200.0466   0.05824338  0.057964053            3 
 1718000   0.95389107   -4.3444087    1202.4289  0.058325035  0.057955111            5 
 1719000   0.99725478   -4.3539091    1197.2635  0.058040696  0.057946128            2 
 1720000   0.96686985   -4.3612465    1198.4988    0.0580668  0.057937409            4 
 1721000   0.97420414   -4.3890529    1196.0928  0.057916558  0.057928254            5 
 1722000    0.9746964    -4.364766    1196.2927  0.057892602  0.057919105            4 
 1723000   0.95667884   -4.3287033    1202.4184  0.058155273   0.05790984            1 
 1724000   0.98709811   -4.3843229    1196.0988  0.057816068  0.057900671            6 
 1725000   0.98718779    -4.330957    1200.0257  0.057972256  0.057891171            5 
 1726000   0.99461787   -4.3673641    1201.1503  0.057992968   0.05788218            3 
 1727000   0.95467578   -4.3605162     1201.259  0.057964632  0.057872922            3 
 1728000   0.98315316   -4.3433371    1204.9654  0.058109826  0.057863503            2 
 1729000   0.96348058   -4.3698287     1202.093  0.057937776  0.057854084            5 
 1730000   0.97168878   -4.3224274    1206.8751  0.058134639  0.057844831            2 
 1731000   0.97401108   -4.3672126    1198.3579  0.057691023   0.05783533            2 
 1732000   0.96961827   -4.3840114    1197.7969  0.057630719  0.057825777            3 
 1733000   0.97780984   -4.3481551    1206.9902  0.058039538  0.057816352            7 
 1734000   0.96143236   -4.3592543    1205.2153  0.057920767  0.057807137            5 
 1735000   0.98988723   -4.3448522    1205.1322  0.057883393  0.057797761            6 
 1736000   0.96789064   -4.3455736    1208.8529  0.058028654  0.057788315            4 
 1737000   0.99492685   -4.3639124    1204.8038  0.057800988  0.057778991            3 
 1738000   0.97867946   -4.3309522    1207.7591  0.057909433  0.057769483            3 
 1739000   0.98189747   -4.3663927    1206.1461  0.057798837  0.057760303            2 
 1740000    1.0075912   -4.3615129    1208.1864  0.057863332  0.057750991            5 
 1741000   0.96057291   -4.3463954    1213.0437  0.058062594   0.05774148            2 
 1742000    0.9765619   -4.3102849    1215.3997   0.05814197  0.057732258            1 
 1743000    0.9653652   -4.3533023    1208.7744  0.057791854  0.057723003            6 
 1744000   0.97711863   -4.3480122    1207.9028  0.057717068  0.057713898            5 
 1745000   0.97957557   -4.3305892     1215.124  0.058028846  0.057704758            1 
 1746000   0.97928785   -4.3607853    1207.1098  0.057613107  0.057695349            4 
 1747000    0.9876308   -4.3496408    1209.7808  0.057707534  0.057686008            5 
 1748000   0.94798152   -4.3709223    1211.7952  0.057770558  0.057676542            5 
 1749000   0.96437984   -4.3945042    1207.3841  0.057527353  0.057667124            3 
 1750000   0.96852733   -4.3586809    1211.9402  0.057711437  0.057657347            3 
 1751000   0.97617375   -4.3747994    1209.8471  0.057578863  0.057647787            4 
 1752000   0.95185705   -4.3469063    1215.6296  0.057821042  0.057638397            6 
 1753000   0.95694684   -4.3358831    1213.3487   0.05767963   0.05762881            5 
 1754000   0.98413329   -4.3621047    1216.5577  0.057799205  0.057619415            4 
 1755000   0.95836571    -4.329977    1209.8047  0.057445619  0.057609802            3 
 1756000   0.94646484   -4.3786015    1218.1246  0.057807734  0.057600446            3 
 1757000   0.96462153   -4.3411147    1216.0678   0.05767728  0.057590955            5 
 1758000    0.9798504   -4.3931093    1215.8553  0.057634399  0.057581334            2 
 1759000    0.9830381   -4.3717582     1218.224  0.057713852   0.05757184            3 
 1760000   0.95092271   -4.3601101    1217.4234  0.057643155  0.057562255            4 
 1761000    0.9759457   -4.3531938    1217.3389  0.057606421   0.05755266            2 
 1762000   0.99083146   -4.3169283     1218.072  0.057608399  0.057543293            5 
 1763000   0.96989999   -4.3628172    1220.4498  0.057688115  0.057534196            5 
 1764000    0.9819907   -4.3579499    1221.5771   0.05770867  0.057524967            3 
 1765000   0.97382896   -4.3555107    1216.4051  0.057431779  0.057515858            5 
 1766000   0.97453064   -4.4015367    1217.5181   0.05745178  0.057506463            3 
 1767000   0.98903744   -4.3789617    1217.1138  0.057400196  0.057497047            2 
 1768000   0.96644574   -4.3567083    1220.0962  0.057508304  0.057487358            4 
 1769000   0.97104638   -4.3599987    1222.9976  0.057612473  0.057477919            5 
 1770000   0.95918354     -4.34419    1221.7612  0.057521714  0.057468307            2 
 1771000    1.0016718   -4.3622691    1218.5156  0.057336512  0.057458835            3 
 1772000   0.97834028   -4.3488393     1221.962  0.057466236  0.057449279            6 
 1773000   0.96352619   -4.3823556    1218.0791  0.057251319  0.057439462            6 
 1774000    1.0009279    -4.333439    1224.1329  0.057503426  0.057429736            4 
 1775000   0.98851491   -4.3980009    1217.9776  0.057182046  0.057419943            2 
 1776000   0.96531931   -4.3764874    1218.9861  0.057197173  0.057410288            6 
 1777000   0.96620986   -4.3298094    1225.1405  0.057453598  0.057400492            2 
 1778000   0.97582814   -4.3640671    1224.4177  0.057387407  0.057391051            3 
 1779000    0.9968882   -4.3880849    1223.4452  0.057309592  0.057381381            3 
 1780000   0.96344909   -4.3586378    1225.6145  0.057378956  0.057371812            3 
 1781000   0.98339908   -4.3478036    1228.2806  0.057471486  0.057362309            2 
 1782000   0.97554438   -4.3375203    1233.0086  0.057660333  0.057352896            4 
 1783000   0.96259343   -4.3745213    1228.4743  0.057416071  0.057343437            2 
 1784000   0.98202793   -4.3912215    1228.3151  0.057376454  0.057333875            2 
 1785000   0.96385585   -4.3665095    1230.8172  0.057461123  0.057324449            5 
 1786000    0.9692158   -4.3905315    1231.4187  0.057457015  0.057314679            3 
 1787000   0.96278913   -4.3555442    1229.6741  0.057343506  0.057305295           10 
 1788000   0.96198399   -4.3908903    1227.9784  0.057232401  0.057295799            5 
 1789000   0.94867995   -4.3350144    1229.5343  0.057272883  0.057286506            3 
 1790000   0.95680113   -4.3236648    1237.6345  0.057617992  0.057277228            1 
 1791000   0.97060693   -4.3665316    1235.0646  0.057466249  0.057268042            3 
 1792000   0.95720491   -4.3799852    1233.5638   0.05736439  0.057258432            2 
 1793000   0.95342005   -4.3887176    1231.6197  0.057242038  0.057249148            4 
 1794000   0.96401978   -4.3687147    1235.4725  0.057389099  0.057239498            4 
 1795000   0.95080861   -4.3941051    1235.8317  0.057373801  0.057229958            3 
 1796000   0.94843686   -4.3635696    1235.8231  0.057341456  0.057220289            4 
 1797000   0.97087902   -4.3793458    1236.2066  0.057327334  0.057210705            2 
 1798000   0.98121392   -4.3900307    1234.7137  0.057226258    0.0572011            2 
 1799000      0.95447   -4.3877279    1233.0357  0.057116718  0.057191341            4 
 1800000   0.96948238   -4.3837988    1233.1488  0.057090224  0.057181734            5 
 1801000   0.93621953   -4.3997782    1233.5511  0.057077136  0.057171874            2 
 1802000   0.96546505   -4.3783029    1234.0918  0.057070469  0.057162137            3 
 1803000    0.9589482   -4.3599233     1234.961  0.057078987  0.057152667            3 
 1804000   0.95527652   -4.3744822    1239.1036  0.057238709  0.057142961            5 
 1805000   0.98273838   -4.3742606    1241.6006  0.057322281  0.057133249            5 
 1806000   0.96493799    -4.411664    1233.8124  0.056931175  0.057123318            3 
 1807000   0.96314208   -4.3603624    1237.5042  0.057069921  0.057113318            3 
 1808000   0.95975796   -4.3415195    1239.3181  0.057121963  0.057103488            3 
 1809000   0.97023378   -4.3565323    1238.0014  0.057029731  0.057093404            6 
 1810000    0.9824773   -4.3541863    1237.5709  0.056978401  0.057083344            2 
 1811000   0.94236991   -4.3878803    1241.9225  0.057147178  0.057073288            3 
 1812000   0.98368768   -4.3874805    1240.2055  0.057036676  0.057063398            2 
 1813000   0.98792938   -4.4013808    1238.6187  0.056932281  0.057053212            3 
 1814000   0.93530918   -4.4129027    1236.7237   0.05681384  0.057043015            3 
 1815000   0.96221019    -4.366768    1240.8865  0.056973669  0.057032676            2 
 1816000   0.97030005   -4.3349056    1243.7851  0.057075306   0.05702268            3 
 1817000   0.95278665   -4.3510103    1238.5933  0.056805781  0.057012692            5 
 1818000   0.93842688   -4.3699951    1243.0108  0.056977024  0.057002649            4 
 1819000   0.97526502   -4.3942044    1241.9359  0.056896457  0.056992857            4 
 1820000   0.98571778   -4.4095605    1238.1063  0.056689848  0.056982844            2 
 1821000   0.98158283   -4.3825027    1239.3076   0.05671369  0.056972913            2 
 1822000   0.97424638   -4.3718856    1244.7042   0.05692939  0.056963056            4 
 1823000   0.97428015   -4.3800218    1243.5477  0.056845298  0.056953138            2 
 1824000   0.96244304   -4.4176969    1242.2994  0.056757101  0.056943247            4 
 1825000   0.97164926   -4.3678688     1246.406  0.056913514  0.056933299            2 
 1826000   0.98509806    -4.405622    1247.0449  0.056911504  0.056923539            3 
 1827000   0.94454602    -4.362097    1250.5196  0.057038843  0.056913614           11 
 1828000   0.96160753   -4.3629778    1251.6236  0.057057969  0.056903947            4 
 1829000   0.98321205    -4.398369    1245.4868  0.056747165  0.056894261            4 
 1830000   0.95734088   -4.3635582    1251.9029   0.05700833  0.056884385            3 
 1831000   0.95592521   -4.3922417    1244.3237  0.056632246  0.056874634            2 
 1832000   0.95808095   -4.3571614    1247.1159  0.056728343  0.056864842            3 
 1833000   0.96409211   -4.3865798    1248.3551  0.056753731  0.056854946            3 
 1834000   0.94853617   -4.3753927     1250.405  0.056815931  0.056845141            3 
 1835000   0.93110459   -4.3786058    1246.2025   0.05659412  0.056835181            2 
 1836000   0.96786139   -4.4113973     1245.035  0.056510303  0.056825024            3 
 1837000   0.97193807   -4.3882596    1249.4464   0.05667966  0.056814997            5 
 1838000   0.97056134     -4.35148    1253.6918  0.056841303   0.05680469            6 
 1839000   0.97706922   -4.3737732    1251.0408  0.056690269   0.05679458            2 
 1840000   0.94950433   -4.4064711     1249.001  0.056567073  0.056784454            3 
 1841000   0.96426443   -4.3777025    1252.5308  0.056696123   0.05677432            4 
 1842000   0.94887544   -4.3904911    1246.7721  0.056404819  0.056764265            2 
 1843000   0.94297386   -4.3880288    1251.5218  0.056588974  0.056754104            5 
 1844000   0.97509869   -4.3795206    1251.4282  0.056554059  0.056743703            4 
 1845000   0.96376565   -4.3731041    1251.9869  0.056548639  0.056733339            3 
 1846000   0.94053998   -4.3509821    1256.9505  0.056742076  0.056722919            4 
 1847000   0.97086275   -4.3881602    1253.1026  0.056537747  0.056712305            2 
 1848000   0.98133584   -4.3539565    1254.4763  0.056569097  0.056701857            6 
 1849000   0.95567667   -4.3825797    1256.5569  0.056632276   0.05669147            2 
 1850000   0.95356447   -4.3863174    1255.2738  0.056543865  0.056680982            3 
 1851000   0.94813713   -4.4219632    1249.9764  0.056274824  0.056670627            2 
 1852000   0.96322633   -4.3990596    1252.8055  0.056371738  0.056660162            4 
 1853000   0.96051423   -4.3863065    1254.2296  0.056405361  0.056649621            4 
 1854000   0.92461274   -4.3589861    1259.6672  0.056619346  0.056639029            2 
 1855000   0.97055295   -4.3766156    1252.1109  0.056249369  0.056628622            2 
 1856000   0.95949343   -4.3640049    1258.3399  0.056498739  0.056618138            3 
 1857000   0.95413643   -4.4016433      1253.41  0.056247084    0.0566076            3 
 1858000   0.96978707   -4.3663144     1257.459  0.056398411  0.056597152            6 
 1859000   0.95925768   -4.4034141    1258.8587  0.056430819  0.056586817            9 
 1860000    0.9504214   -4.4181508    1252.3009  0.056106669  0.056576107            2 
 1861000   0.96069016   -4.4003273    1256.9663  0.056285431  0.056565436            4 
 1862000   0.97807017   -4.4164949    1256.1061  0.056216709  0.056554821            3 
 1863000   0.93016764   -4.3896254    1257.0833  0.056230244  0.056543917            6 
 1864000   0.95200924   -4.3457717    1263.2509  0.056475807  0.056533398            6 
 1865000   0.93990978   -4.4142869    1261.7362  0.056377844  0.056523116            2 
 1866000   0.96100168   -4.3856542    1259.9179  0.056266429  0.056512763            3 
 1867000   0.94496304   -4.4262665    1256.9137  0.056102199  0.056502134            3 
 1868000   0.93206411   -4.3916981    1258.2238  0.056130611  0.056491547            6 
 1869000   0.97270281   -4.4131479    1259.2319  0.056145529  0.056481009            5 
 1870000   0.94731041   -4.3553888    1258.6536  0.056089732  0.056470514            2 
 1871000   0.93237071   -4.3662486     1261.849  0.056202075  0.056460048            6 
 1872000   0.95384004   -4.3868157    1263.8517  0.056261205  0.056449373            3 
 1873000   0.96301535    -4.410942     1261.074   0.05610758  0.056438673            5 
 1874000   0.94697337   -4.4070433    1260.6721  0.056059767  0.056428046            4 
 1875000   0.95522992   -4.3981958    1266.2722  0.056278766  0.056417599            6 
 1876000   0.96605642   -4.4062818    1265.0326  0.056193702  0.056406944            4 
 1877000   0.95440084    -4.414075    1264.2896  0.056130775  0.056396399            4 
 1878000   0.94846802   -4.3876542    1265.6709  0.056162179  0.056385823            3 
 1879000   0.97264197   -4.4128813     1264.868  0.056096682  0.056375294            3 
 1880000   0.94062851   -4.3826669    1266.3816  0.056133935  0.056364671            3 
 1881000   0.93999028   -4.4118246    1263.3116  0.055968083  0.056353891            2 
 1882000   0.95594006   -4.3910528    1270.8972   0.05627423  0.056343347            3 
 1883000   0.96318932   -4.4024394    1263.7354  0.055927392  0.056332996            3 
 1884000   0.92769621   -4.4098465    1263.5539  0.055889679  0.056322369            2 
 1885000   0.92665795   -4.3651197    1270.8324  0.056181806  0.056311531            3 
 1886000   0.96764989   -4.3765824    1264.2685  0.055861988   0.05630085            3 
 1887000   0.93211126   -4.3780055    1268.8509  0.056034752  0.056289892            2 
 1888000   0.95547912   -4.4024701    1266.4695   0.05589996  0.056279084            5 
 1889000   0.96298328   -4.3841214    1270.8488  0.056063561  0.056268268            3 
 1890000   0.98652746    -4.403313    1264.7573  0.055765314  0.056257415            3 
 1891000   0.96017625   -4.3565189     1272.429  0.056073901  0.056246701            4 
 1892000   0.93575139   -4.3946853    1270.9445  0.055978879  0.056236027            4 
 1893000   0.94432993   -4.3947617    1270.1547  0.055914541  0.056225351            4 
 1894000   0.95097707   -4.4160302    1270.4594  0.055898425   0.05621448            4 
 1895000   0.96707467   -4.4104633     1268.089  0.055764688  0.056203666            5 
 1896000   0.93813466   -4.3932427    1268.3968  0.055748802  0.056192484            4 
 1897000   0.94252471    -4.421805    1269.1187  0.055751127  0.056181303            5 
 1898000   0.94563892   -4.3938216    1272.9873  0.055891609  0.056170418            6 
 1899000   0.95102739   -4.4225876     1271.194  0.055783484  0.056159605            5 
 1900000   0.97093847   -4.3762854     1274.477  0.055898113  0.056148814            4 
 1901000   0.93541661   -4.4259307    1271.7363  0.055748565  0.056137872            3 
 1902000   0.94371526   -4.3608005    1270.3157  0.055657015  0.056127147            5 
 1903000   0.94254902   -4.4074745    1271.4487   0.05567738  0.056116217            3 
 1904000   0.97216656   -4.4139207    1268.7508  0.055530058  0.056105364            5 
 1905000   0.96449617   -4.3986337    1275.6996  0.055804882  0.056094517            5 
 1906000   0.95199186   -4.3993959    1277.4677  0.055852906   0.05608367            2 
 1907000   0.95619723   -4.4008419    1274.0643  0.055674894  0.056072848            3 
 1908000   0.96560935   -4.4541839    1274.4438  0.055662291  0.056061885            6 
 1909000   0.94128469   -4.4179697    1278.6009  0.055814603  0.056051161            4 
 1910000   0.93563352   -4.3714556    1279.2056  0.055811764  0.056040602            3 
 1911000   0.94470686   -4.4166215    1276.0747  0.055646028  0.056029966            4 
 1912000   0.92959772   -4.3962519    1276.9123  0.055653432  0.056019165            4 
 1913000   0.95555903   -4.4139321    1283.0793  0.055892984  0.056008307            3 
 1914000   0.95031168   -4.4477156    1275.8347  0.055548358  0.055997367            2 
 1915000   0.93818538   -4.3825342    1283.7714  0.055864724   0.05598654            8 
 1916000   0.95238276   -4.4249873    1272.7878  0.055357855  0.055975508            9 
 1917000   0.92310947   -4.3783068    1284.9325  0.055856918  0.055964468            3 
 1918000   0.94875006   -4.4112584    1276.2123  0.055448917  0.055953755            3 
 1919000    0.9383376   -4.3746014    1279.9666  0.055583056  0.055942795            3 
 1920000   0.95815777   -4.3965858    1277.2007  0.055434059  0.055931717            3 
 1921000   0.96823814    -4.413427    1275.6514  0.055337991  0.055920679            6 
 1922000   0.92215524   -4.3965177    1277.3931  0.055384716  0.055909645            6 
 1923000   0.95130444   -4.4045206    1278.8259  0.055418006  0.055898417            2 
 1924000   0.93889625   -4.3965325    1277.9165  0.055349816  0.055887082            2 
 1925000   0.92747239   -4.3981202     1273.327  0.055122379  0.055875317            6 
 1926000   0.95021021   -4.4291548    1275.6415  0.055193904  0.055863603            3 
 1927000   0.93689223   -4.4057273    1284.7635  0.055559743  0.055852125            4 
 1928000   0.93407332    -4.413829    1279.8713  0.055319471  0.055840788            3 
 1929000   0.93849392   -4.4504179    1279.3245  0.055267173  0.055829184            2 
 1930000   0.95520193   -4.3986813    1281.9096  0.055350154   0.05581762            4 
 1931000   0.93554697   -4.4197204    1281.4092  0.055299897  0.055806069            2 
 1932000   0.93351559   -4.3883041    1282.4528  0.055316287   0.05579474            2 
 1933000   0.94383755   -4.3900888     1285.752  0.055429902  0.055783518            5 
 1934000   0.95158443   -4.4085724    1283.7855  0.055316505  0.055771998            6 
 1935000   0.95286583   -4.3816362     1290.259   0.05556671  0.055760571            3 
 1936000   0.95778867   -4.4357842    1282.4001   0.05519973  0.055749203            7 
 1937000   0.94533801   -4.4337726    1283.7433   0.05522902  0.055737557            3 
 1938000   0.92546258   -4.4029411    1286.7245  0.055328711  0.055726176            2 
 1939000    0.9562923   -4.4434182    1283.9231  0.055179778  0.055714842            6 
 1940000   0.93274165    -4.397044    1283.9037  0.055150501  0.055703183            2 
 1941000   0.94610174   -4.4016137    1281.0935  0.055001437  0.055691561            3 
 1942000   0.93322755   -4.3977846    1282.5026  0.055033584  0.055679937            5 
 1943000   0.94799419   -4.4345047    1274.8589  0.054677429  0.055668336            5 
 1944000   0.94852729    -4.428222    1280.1107  0.054874429  0.055656482            2 
 1945000   0.94072219   -4.3970532    1286.3525  0.055113644  0.055644679            5 
 1946000   0.95352964     -4.41158    1288.1826  0.055163696  0.055633058            3 
 1947000   0.92616028   -4.4220144    1283.3694  0.054929352  0.055621198            4 
 1948000   0.93705883   -4.4063393    1284.6364  0.054955354  0.055609565            3 
 1949000    0.9528037   -4.4026476    1285.6471  0.054970374  0.055597902            5 
 1950000   0.94154247   -4.4001396    1287.8577  0.055036653  0.055586532            3 
 1951000   0.95041952   -4.4392518    1291.5639  0.055166749  0.055574969            4 
 1952000   0.93109046    -4.435966    1287.9891  0.054985874  0.055563357            4 
 1953000   0.94829148    -4.426708    1291.8095  0.055120732  0.055551639            3 
 1954000   0.92931417   -4.3817394    1291.5019  0.055079405  0.055540014            2 
 1955000   0.93293981   -4.4206726    1291.4714  0.055049932  0.055528347            7 
 1956000    0.9381942   -4.4255279    1288.5591  0.054897712  0.055516768            4 
 1957000   0.91084325   -4.4423735    1289.7722  0.054921316  0.055505277            2 
 1958000   0.95247861   -4.3979163    1294.5282  0.055095686  0.055493827            4 
 1959000    0.9412279   -4.4200698    1288.4487  0.054808945   0.05548237            6 
 1960000   0.93158388    -4.409227    1292.0429  0.054933796   0.05547107            3 
 1961000      0.93941   -4.4386141    1292.2698  0.054915428  0.055459567            7 
 1962000   0.93845925   -4.4097962    1295.4711  0.055023409  0.055448036            5 
 1963000   0.93371871   -4.3825973    1301.4364  0.055248618  0.055436845            6 
 1964000   0.91582085   -4.4138563    1294.5757  0.054929385  0.055425507            2 
 1965000   0.94446319   -4.4020057    1296.0463  0.054963795  0.055414181            2 
 1966000   0.93322081   -4.4240525    1292.8982    0.0548024  0.055402665            3 
 1967000   0.92673657   -4.4170502    1298.4722  0.055010687   0.05539142            7 
 1968000   0.92857569   -4.4142512    1296.5414  0.054900974   0.05538013            4 
 1969000    0.9446654     -4.39584    1298.8178  0.054969435  0.055368916            5 
 1970000   0.96556622   -4.4081761      1298.09  0.054910743  0.055357858            5 
 1971000     0.939135   -4.4141225    1295.9778  0.054793584  0.055346894            2 
 1972000   0.92447342   -4.4206693    1299.4688  0.054913321  0.055335441            4 
 1973000   0.92471027   -4.4266657    1294.6999  0.054684064  0.055324125            3 
 1974000   0.94164028   -4.4304568    1297.2195  0.054762726  0.055312728            3 
 1975000   0.94358216    -4.404008    1299.2335   0.05481998  0.055301331            3 
 1976000   0.91982423   -4.4199057    1299.8456  0.054818051  0.055289768            4 
 1977000   0.95634472   -4.4121251    1298.9046  0.054750657  0.055278524            4 
 1978000    0.9271619   -4.4362329    1297.5047  0.054663998  0.055266875            2 
 1979000   0.93688785   -4.4466086    1300.8533  0.054777384  0.055255411            5 
 1980000   0.92761585   -4.4297462    1298.2833  0.054641553  0.055243899            3 
 1981000   0.93250653   -4.4401292     1302.777  0.054803006  0.055232624            4 
 1982000   0.94726016   -4.4463104    1302.9006  0.054780549  0.055221358            3 
 1983000   0.90662236   -4.4590607    1306.0847  0.054886734  0.055210135            5 
 1984000   0.95600205   -4.4295772    1308.4435  0.054958142  0.055198803            3 
 1985000   0.93479364   -4.3960109    1305.0832  0.054789389  0.055187674            8 
 1986000   0.94064015   -4.4492449    1300.4086  0.054565652  0.055176455            4 
 1987000   0.93999502   -4.4092884    1308.1121   0.05486127  0.055165109            5 
 1988000   0.93882163   -4.4574339     1298.656   0.05443729  0.055153922            2 
 1989000   0.94382427   -4.4279098    1301.8193  0.054542454  0.055142546            5 
 1990000    0.9624358   -4.4392116    1306.4292   0.05470809  0.055131292            4 
 1991000   0.93807678   -4.4282613    1307.8276  0.054739144   0.05512004            7 
 1992000   0.92805131   -4.4410329    1307.5439  0.054699795  0.055108732            1 
 1993000   0.92547404   -4.4572118    1307.1218  0.054654702  0.055097573            3 
 1994000   0.91715843   -4.4235096     1305.808  0.054572382  0.055086412            7 
 1995000   0.93057484   -4.4088853    1310.1709  0.054727273  0.055075186            3 
 1996000   0.94964894    -4.428884    1309.7947  0.054684146  0.055064032            5 
 1997000    0.9419999   -4.4259799    1310.4931  0.054685907   0.05505303           11 
 1998000   0.91624819    -4.439371    1306.9365  0.054510198  0.055041826            4 
 1999000   0.94758584   -4.4175739    1309.3163  0.054582136  0.055030666            4 
 2000000   0.93733731    -4.442812    1305.7676  0.054406981  0.055019705            2 
 2001000    0.9327231    -4.415337    1313.4916  0.054701465   0.05500875            6 
 2002000   0.95364755   -4.4422179    1312.2098  0.054620787  0.054997547            3 
 2003000   0.91556061   -4.4203287    1311.1373  0.054548897  0.054986285            2 
 2004000   0.91990391   -4.4495915    1311.0034   0.05451611  0.054974909            2 
 2005000   0.93374998   -4.4368967    1310.3596  0.054462159  0.054963415            4 
 2006000   0.94346704   -4.4140182    1309.7305  0.054408879  0.054951883            3 
 2007000   0.92633239   -4.4649236    1308.1143  0.054314662  0.054940572            7 
 2008000   0.93485561   -4.4522075    1309.1455  0.054330409   0.05492905            3 
 2009000   0.90602138    -4.456863    1307.4893  0.054234665  0.054917645            4 
 2010000   0.92091885   -4.4219769    1314.3514  0.054492182  0.054906031            2 
 2011000   0.91590025   -4.4339695    1310.2839  0.054296533  0.054894635            4 
 2012000   0.91515362    -4.415746    1313.4598  0.054401084  0.054883215            4 
 2013000   0.92206437   -4.4203192     1311.986   0.05431305  0.054871912            6 
 2014000   0.94079154   -4.4324452    1311.4433  0.054263626   0.05486059            5 
 2015000    0.9289338   -4.4471764    1317.1627   0.05447323  0.054849125            6 
 2016000   0.93404629   -4.4271063    1311.5534  0.054214344  0.054837676            2 
 2017000   0.93960736   -4.4265424    1316.3528  0.054385755   0.05482623            4 
 2018000   0.92371007   -4.4191284    1316.2414  0.054354205  0.054814918            5 
 2019000   0.90276552   -4.4515492    1317.3332  0.054372347   0.05480355            3 
 2020000    0.9229963   -4.4183098    1324.0002  0.054620469  0.054792206            3 
 2021000   0.93719464   -4.4640321    1313.8679  0.054175653   0.05478063            4 
 2022000   0.91874336    -4.454351    1318.1982  0.054327323  0.054769066            5 
 2023000   0.92672629   -4.4344345    1320.9727  0.054414758  0.054757581            3 
 2024000   0.92973187   -4.4245917    1313.9535  0.054098877  0.054746015            2 
 2025000   0.92168918   -4.4216326    1319.0778  0.054283039  0.054734505            3 
 2026000   0.93416236   -4.4271152    1321.7465  0.054366014   0.05472303            8 
 2027000   0.92077457   -4.4508529    1319.5613  0.054249354  0.054711528            3 
 2028000   0.91691193   -4.4280793    1320.8986  0.054277557  0.054699927            4 
 2029000   0.93897401   -4.4491385    1316.4799  0.054069322   0.05468825            2 
 2030000   0.90568452   -4.4180665    1320.3158  0.054200154  0.054676857            3 
 2031000   0.94345569   -4.4560312    1319.1821  0.054126952  0.054665365            3 
 2032000   0.93843492   -4.4251391    1320.2516  0.054144178  0.054653877            3 
 2033000   0.91163226   -4.4414578    1322.9891  0.054229756  0.054642409            6 
 2034000   0.93063019   -4.4237328    1326.2844    0.0543381  0.054631103            2 
 2035000   0.91007481   -4.4204688    1320.6868  0.054082177   0.05461981            4 
 2036000    0.9158227   -4.4327606    1319.8161  0.054019976  0.054608342            5 
 2037000   0.89949336   -4.4469372    1322.6237  0.054108318  0.054596821            6 
 2038000   0.92345094   -4.4665181    1324.1849  0.054145603  0.054585241            6 
 2039000    0.9115165   -4.4099663    1325.2652  0.054163201  0.054573911            9 
 2040000   0.92007471   -4.4345985    1322.4187  0.054020372  0.054562279            4 
 2041000   0.89223143   -4.4451737    1322.3683  0.053991847  0.054550528            5 
 2042000   0.93745457   -4.4474916    1322.3083  0.053962956  0.054538784            5 
 2043000   0.92810714   -4.4565674    1321.2319  0.053892637  0.054526883            3 
 2044000   0.91003989   -4.4311357    1324.4596  0.053997866  0.054515268            3 
 2045000   0.95192018   -4.4466665    1326.5937  0.054058424  0.054503546            7 
 2046000   0.92620035   -4.4581401    1325.7569  0.053997917  0.054491938            3 
 2047000   0.89783242   -4.4447882     1325.342  0.053954648  0.054480282            3 
 2048000   0.91739809   -4.4309175     1328.902  0.054073162  0.054468723            3 
 2049000   0.90804655   -4.4386672    1323.6122  0.053831633  0.054457258            3 
 2050000   0.92539855   -4.4439125    1330.2087  0.054073526  0.054445652            4 
 2051000   0.93490672   -4.4383927     1328.705  0.053986062   0.05443412            6 
 2052000   0.91214065   -4.4519876    1329.9595  0.054010701  0.054422801            2 
 2053000   0.93156808   -4.4616362    1328.4353  0.053922522  0.054411198            3 
 2054000   0.92811186   -4.4462386    1327.8102   0.05387091  0.054399721            5 
 2055000   0.90195359   -4.4455384    1324.9016  0.053726748  0.054387982            4 
 2056000   0.90009181   -4.4700475    1328.3802  0.053841608  0.054376187            7 
 2057000   0.93886373   -4.4568145    1330.6777  0.053908513  0.054364657            2 
 2058000   0.91695774   -4.4379388    1328.0204  0.053774715    0.0543531            3 
 2059000   0.92276696   -4.4569623    1334.7355  0.054020376  0.054341513            6 
 2060000   0.92280386    -4.429335    1333.2354   0.05393347  0.054329711           10 
 2061000   0.92399258   -4.4527719    1331.0036  0.053817062  0.054318219            5 
 2062000   0.92944179    -4.452991    1327.7343   0.05365884  0.054306424            4 
 2063000   0.89776292   -4.4404759    1329.7371  0.053713732  0.054294705            4 
 2064000   0.94006907   -4.4351857    1335.8981  0.053936454  0.054283295            3 
 2065000   0.93242217   -4.4645846    1332.1532  0.053759211  0.054272051            4 
 2066000   0.90520812    -4.445576    1329.6154  0.053630825  0.054260381            4 
 2067000   0.93469093   -4.4559353    1333.8539  0.053775759  0.054248857            4 
 2068000    0.9318092   -4.4435206    1332.4558  0.053693415  0.054237286            7 
 2069000   0.92056994   -4.4653628    1328.9671   0.05352695  0.054225599            4 
 2070000   0.93954773   -4.4695661    1339.5457  0.053926962  0.054214144            4 
 2071000   0.91782486     -4.44513    1332.7533  0.053627609  0.054202681            5 
 2072000   0.91878903   -4.4292676    1336.5007  0.053752442  0.054191268            3 
 2073000   0.95001235   -4.4262939    1333.9185  0.053622709  0.054179973            4 
 2074000   0.93462402   -4.4381257    1339.7045  0.053829337  0.054168648            4 
 2075000   0.92737037   -4.4752981    1333.9886  0.053573841  0.054157117            5 
 2076000   0.91094199   -4.5020802    1335.1364  0.053594108  0.054145617            2 
 2077000   0.92123884   -4.4671405    1333.2071  0.053490897  0.054134082            3 
 2078000   0.91708586   -4.4495539     1346.847  0.054012149  0.054122648            4 
 2079000   0.91913118    -4.457567    1339.3509  0.053685704  0.054111288            2 
 2080000   0.91748154   -4.4335698    1335.2294  0.053494766  0.054099825            3 
 2081000   0.92094856   -4.4639181    1340.4851  0.053679526  0.054088551            4 
 2082000   0.91732754   -4.4694013    1337.6277  0.053539373  0.054077103            2 
 2083000   0.93599986   -4.4365597    1345.2397  0.053818199  0.054065655            2 
 2084000   0.93050141   -4.4735195    1335.7047  0.053411096  0.054054223            3 
 2085000   0.92303589   -4.4571866    1338.9276  0.053514292  0.054042721            6 
 2086000   0.93009929   -4.4589051    1338.0778  0.053454692  0.054031228            4 
 2087000   0.91499695   -4.4632306    1337.3991  0.053401977  0.054019688            4 
 2088000   0.91460921   -4.4816591    1337.6394  0.053385993  0.054008261            4 
 2089000   0.90349644   -4.4622158    1337.8079  0.053367159  0.053996625            2 
 2090000   0.92150208   -4.4740761    1340.9089  0.053465266  0.053985223            5 
 2091000   0.89701231   -4.4724874     1336.074  0.053247012   0.05397379            1 
 2092000   0.92290781   -4.4764962    1342.9079  0.053493782  0.053962264            4 
 2093000   0.93980998   -4.4663896    1341.8061  0.053424357  0.053950807            4 
 2094000   0.91167669    -4.460107    1339.7259  0.053316058  0.053939251           11 
 2095000   0.89095911   -4.4381353    1343.4371  0.053438232  0.053927876            8 
 2096000   0.91329907   -4.4628917    1345.9596  0.053513026  0.053916552            3 
 2097000   0.90320868   -4.4661473    1344.2118  0.053418049  0.053905236            5 
 2098000   0.91708268   -4.4780804    1346.4485   0.05348143  0.053893849           14 
 2099000   0.91386528   -4.4747734    1342.8343  0.053312464  0.053882493            4 
 2100000   0.91994652   -4.4681601    1345.6171  0.053397503  0.053871235            6 
 2101000   0.91036863   -4.4482849    1348.4708  0.053485276  0.053860076            5 
 2102000   0.91247606   -4.4901479    1343.5196  0.053263544  0.053848869            6 
 2103000   0.91133423    -4.428817    1348.7174  0.053444183  0.053837665            3 
 2104000    0.9222295   -4.4589002    1348.2998   0.05340224  0.053826713            6 
 2105000   0.92834453   -4.4736978    1348.4988  0.053384749  0.053815544            3 
 2106000    0.9036405   -4.4383816    1353.4459  0.053555154  0.053804212            4 
 2107000   0.91288867   -4.4693724    1349.0536   0.05335602  0.053792931            8 
 2108000   0.92278383   -4.4762034    1348.9809  0.053327833  0.053781551            5 
 2109000   0.89748471   -4.4880025    1345.8157  0.053177483  0.053770094            4 
 2110000   0.90474642   -4.4643208    1355.1104  0.053519368   0.05375882            6 
 2111000   0.91452537   -4.4549906    1350.1712  0.053299035  0.053747597            4 
 2112000   0.92705347   -4.4352408    1351.4506   0.05332428  0.053736413            3 
 2113000   0.89928607   -4.4447655    1353.9417   0.05339729  0.053725249            5 
 2114000   0.91529257    -4.468366    1350.2121  0.053225012  0.053714187            7 
 2115000   0.91650943   -4.4777488    1354.7121   0.05337715  0.053702973            3 
 2116000   0.91806311   -4.4833037    1352.9726  0.053283419  0.053691713            3 
 2117000    0.9162135   -4.4487928    1354.7954  0.053330003  0.053680452            4 
 2118000   0.91350942   -4.4527332    1352.5792  0.053217625  0.053669179            2 
 2119000   0.93200972   -4.4523003    1355.6202  0.053312106  0.053658125            5 
 2120000   0.91593172   -4.4659733    1354.5657  0.053245506  0.053646916            2 
 2121000   0.89542259   -4.4886151    1356.0883  0.053280227  0.053635577            9 
 2122000   0.92200117    -4.470613    1352.4794  0.053113391  0.053624332            6 
 2123000   0.89918473   -4.4626545    1356.0714  0.053229368  0.053613129            5 
 2124000   0.91440842    -4.470261    1356.0634  0.053203995  0.053601917            5 
 2125000   0.91426987    -4.452466     1355.704  0.053164863  0.053590566            3 
 2126000   0.91713839   -4.4537665    1354.9144  0.053108906  0.053579265            5 
 2127000   0.90460128    -4.492274      1351.68  0.052957215  0.053567818            5 
 2128000   0.91989003   -4.4827444    1351.5777  0.052928323  0.053556322            5 
 2129000   0.93075069   -4.4937341    1352.1169   0.05292457  0.053544711            5 
 2130000   0.90114938     -4.46178    1354.9062  0.053008848  0.053533292            4 
 2131000   0.90928613    -4.501293    1354.0055  0.052948752   0.05352177            5 
 2132000   0.91455601   -4.4532366    1359.3748  0.053133788  0.053510326            2 
 2133000   0.91789365   -4.4557475    1359.8759  0.053128455  0.053498987            6 
 2134000   0.91300716    -4.486406     1358.205  0.053038309  0.053487548            2 
 2135000   0.89801735   -4.4843545    1358.7546  0.053034917  0.053476098            6 
 2136000   0.91757682   -4.4650903    1357.5587  0.052963433  0.053464626            3 
 2137000   0.88602653   -4.4694719    1364.1667  0.053196332  0.053453197            5 
 2138000   0.89640339   -4.4825036     1357.361  0.052906181  0.053441736            3 
 2139000   0.92017603   -4.4716671    1363.7008  0.053128442  0.053430408            5 
 2140000   0.88428841   -4.4723338     1359.808  0.052952023  0.053419139            3 
 2141000   0.91866269   -4.5116255    1359.2445   0.05290536  0.053407867            5 
 2142000   0.90160824   -4.4776303    1360.1096  0.052914315   0.05339648            4 
 2143000   0.89521101   -4.4662372    1365.0322  0.053081049  0.053385274            2 
 2144000    0.9255995   -4.4609171    1363.4875  0.052996249  0.053374027            4 
 2145000   0.89959719   -4.4688581    1371.9938  0.053302014  0.053362887            4 
 2146000   0.90260427   -4.5022962    1363.7228  0.052955997  0.053351729            4 
 2147000    0.9057467   -4.4681822    1363.2916  0.052914595  0.053340378            5 
 2148000   0.89901431   -4.5075092    1363.7931  0.052909417  0.053329218            3 
 2149000   0.90141151   -4.4816341    1358.1648  0.052666542  0.053317844            2 
 2150000   0.90588577   -4.4532383    1366.3319  0.052958602  0.053306702            8 
 2151000   0.91167516   -4.4759501    1366.4873      0.05294   0.05329546            3 
 2152000   0.89858953   -4.4859866    1365.2745  0.052868436  0.053284143            4 
 2153000    0.8931317   -4.4516856     1369.013  0.052988583  0.053272752            3 
 2154000    0.9169615   -4.4789994    1371.4367   0.05305775  0.053261392            5 
 2155000   0.91377539   -4.4647882    1364.7478  0.052774471  0.053250125            4 
 2156000   0.89693848   -4.5075149    1366.4795  0.052816927  0.053238776            3 
 2157000   0.90182113   -4.4653033    1369.5118   0.05290959  0.053227287            4 
 2158000    0.9160588   -4.4904555    1364.5555  0.052693678  0.053215658            5 
 2159000   0.91919324   -4.4729219    1365.7961  0.052717158  0.053204341            4 
 2160000   0.91850264    -4.479055    1363.2462  0.052594375  0.053192969            7 
 2161000   0.89439614    -4.485602    1364.9261  0.052634818  0.053181526            4 
 2162000   0.92793177   -4.4876996    1362.7837  0.052527894  0.053169859            6 
 2163000   0.89685311   -4.4463206    1368.9055  0.052739463  0.053158326            3 
 2164000   0.88584775   -4.4808024    1369.9198  0.052754151  0.053146816            5 
 2165000    0.9274982   -4.4999746    1370.9916  0.052771038  0.053135303            3 
 2166000   0.90334868   -4.4850115    1370.4856  0.052727208  0.053123846            5 
 2167000   0.90963911   -4.5119806    1366.0897  0.052533831  0.053112351            5 
 2168000   0.90045349   -4.4794618    1364.3915  0.052444324  0.053100781            1 
 2169000   0.90734069   -4.4945654    1367.2957  0.052531724  0.053089274            9 
 2170000   0.91011347   -4.4927558    1366.0938  0.052461358   0.05307773            3 
 2171000   0.87875428   -4.5011078    1371.1968  0.052633074  0.053066171            3 
 2172000   0.93188379   -4.4792083      1371.02  0.052602055  0.053054545            3 
 2173000   0.89334761   -4.5050387    1368.4034  0.052477505  0.053042891            3 
 2174000   0.91586229   -4.4789296    1372.6117  0.052614678  0.053031292            6 
 2175000    0.8912127   -4.4678035    1375.7885  0.052712203  0.053019742            2 
 2176000   0.88790192   -4.4940019     1373.318  0.052593369  0.053008349            9 
 2177000     0.908558   -4.4560121    1374.8101  0.052626323  0.052996749            5 
 2178000   0.89598924    -4.499039    1363.4781  0.052168585  0.052985238            3 
 2179000   0.89392895   -4.4807804    1372.1151  0.052474954  0.052973635            6 
 2180000   0.90696004   -4.4713429    1379.3851  0.052728788  0.052962108            3 
 2181000   0.89284179   -4.4811675    1373.1837  0.052467663   0.05295071            3 
 2182000   0.89237288   -4.5146211    1369.1633  0.052290075  0.052939151            4 
 2183000   0.89738264   -4.4653585    1376.3765  0.052541475  0.052927563            4 
 2184000   0.88296636   -4.4619933    1370.2173  0.052282406  0.052916047            3 
 2185000   0.89459997   -4.4950582    1373.2729  0.052375015   0.05290417           10 
 2186000   0.92503501   -4.5072739    1374.3403  0.052391748  0.052892556            7 
 2187000   0.91139636   -4.4721159    1377.7763  0.052498714  0.052880852            5 
 2188000    0.9103276   -4.4614177    1374.3229  0.052343194  0.052869233            4 
 2189000   0.92205096   -4.4537698    1378.8017  0.052489787  0.052857404            8 
 2190000   0.89532232    -4.477904    1371.9456  0.052204933  0.052845793            4 
 2191000   0.88529696   -4.4660976    1369.2717  0.052079403  0.052834025            6 
 2192000   0.90344013   -4.4793247    1373.7008  0.052224027  0.052822366            4 
 2193000   0.89576526   -4.4978011    1377.6484   0.05235022  0.052810441            3 
 2194000    0.8980414   -4.5022641    1375.7432  0.052253994  0.052798788            4 
 2195000    0.9063067   -4.4588425    1377.3213  0.052290102  0.052786984            4 
 2196000   0.87859107   -4.4957545    1373.9885  0.052139817  0.052774985            9 
 2197000    0.9011377   -4.4829928    1376.8885  0.052226085  0.052763281            3 
 2198000   0.91481851   -4.4980923    1371.7645  0.052008055   0.05275147            3 
 2199000   0.88376613   -4.4764822    1378.1682   0.05222708  0.052739822            4 
 2200000    0.9024189   -4.4705785    1375.3047  0.052094877  0.052728117            2 
 2201000   0.91517692   -4.4991709    1378.4896  0.052191793  0.052716201            3 
 2202000   0.86562482   -4.5020153    1374.8908  0.052031897  0.052704343            3 
 2203000    0.8927764    -4.482582    1377.7846  0.052117742  0.052692616            4 
 2204000   0.89389835    -4.471955    1384.5663  0.052350509  0.052681174            6 
 2205000   0.90187456   -4.4921878    1376.9356  0.052038382  0.052669784            7 
 2206000   0.92205302   -4.4856624    1382.6023  0.052228856  0.052658157            5 
 2207000   0.88792538   -4.5102517    1384.0475  0.052259761  0.052646554            3 
 2208000   0.90614676   -4.4914596    1380.5577  0.052104381  0.052635079            3 
 2209000   0.91791466   -4.4988958    1378.4072  0.051999667  0.052623334            3 
 2210000   0.90318245   -4.4831654     1384.827  0.052218213  0.052611612            3 
 2211000   0.89887485    -4.486486    1380.1193  0.052017161  0.052599975            3 
 2212000   0.89461323   -4.5024543    1382.4518  0.052081517  0.052588341            5 
 2213000   0.87722298   -4.4986001    1378.8623  0.051922817  0.052576506            2 
 2214000   0.88543882   -4.4768492    1390.3466  0.052331624  0.052564926            5 
 2215000   0.90659997   -4.4859838    1382.8872   0.05202736  0.052553386            7 
 2216000   0.90744721   -4.5202233    1379.1873  0.051864747  0.052541681            4 
 2217000   0.89799427    -4.471192     1386.247  0.052106715  0.052530024            3 
 2218000   0.89466568   -4.4840814    1383.1911  0.051968405  0.052518338            3 
 2219000   0.90923381   -4.4915808    1383.3871  0.051952348  0.052506786            2 
 2220000   0.87753396   -4.5007369    1383.5954  0.051936764  0.052495088            5 
 2221000   0.88124182   -4.4699163    1385.8848  0.051999278  0.052483345            4 
 2222000   0.92086937   -4.4907093    1386.5242  0.051999857  0.052471711            3 
 2223000   0.90560849   -4.5186832    1387.0951  0.051997866  0.052459984            3 
 2224000   0.87792851   -4.5009366     1388.227  0.052016901  0.052448235            4 
 2225000   0.88117273   -4.4811907    1389.5035  0.052041329  0.052436542            7 
 2226000   0.89789833   -4.4894049    1387.2737  0.051934475  0.052424867            8 
 2227000   0.87889734   -4.5249783    1383.7984  0.051781111   0.05241308            4 
 2228000     0.908154   -4.4821284    1384.4394  0.051781844  0.052401412            3 
 2229000    0.8854464   -4.5112261    1386.1213  0.051821492  0.052389848            7 
 2230000   0.89920677   -4.4947193    1389.1775  0.051912464  0.052378164            4 
 2231000   0.89821994   -4.5275911    1390.1054  0.051923855  0.052366382            4 
 2232000   0.91504317   -4.4921746    1387.3065   0.05179609  0.052354698            5 
 2233000   0.89921134   -4.5181564    1387.4539  0.051778395  0.052343135            6 
 2234000   0.88979621   -4.4896019    1391.8104  0.051917725  0.052331531            5 
 2235000    0.8797736   -4.5022601    1391.4178  0.051879859  0.052320094            6 
 2236000   0.88037278   -4.5089399    1389.8647  0.051798773  0.052308547            4 
 2237000   0.89046071   -4.5269256    1386.6721  0.051656687  0.052296862            6 
 2238000   0.89520733    -4.488406     1392.487  0.051850128  0.052285337           13 
 2239000   0.88605184   -4.5092162     1388.949   0.05169529  0.052273869            6 
 2240000   0.88168176   -4.5096655    1393.8143   0.05185321  0.052262519            5 
 2241000   0.88112561   -4.5051133    1393.8008  0.051829569  0.052251125            4 
 2242000   0.88852812   -4.5171977     1395.242  0.051860021  0.052239744            2 
 2243000   0.89987124   -4.4996784    1397.5529  0.051922757  0.052228165            3 
 2244000   0.89383886   -4.4999934    1396.4091  0.051857143  0.052216683            6 
 2245000    0.9111851   -4.4919793    1394.5791  0.051766112  0.052205281            3 
 2246000   0.88364735   -4.4906787    1393.3078  0.051695896  0.052193895            6 
 2247000   0.87379577   -4.5118112    1391.9636   0.05162304  0.052182497            9 
 2248000   0.89983452    -4.475424    1401.2495  0.051944303  0.052171106            6 
 2249000   0.90507153   -4.4921892    1395.2171  0.051697686  0.052159769            5 
 2250000   0.88425637   -4.4911228    1400.6131  0.051874558  0.052148214            5 
 2251000   0.88671529   -4.4875126    1397.1508  0.051723339  0.052136968            2 
 2252000   0.89529571    -4.504302    1397.4746  0.051712351  0.052125616            3 
 2253000    0.8855421   -4.5159332    1399.0276   0.05174684  0.052114322            3 
 2254000    0.8921755   -4.4737355    1398.5543  0.051706387  0.052103124            2 
 2255000   0.88014336   -4.5011073    1401.0869  0.051777046  0.052091804            6 
 2256000   0.88623998   -4.5236544    1398.2785  0.051650359  0.052080584            3 
 2257000   0.89106819   -4.5176363    1403.5436  0.051821872  0.052069459            4 
 2258000   0.89674615   -4.4957979    1400.2337  0.051676767  0.052058311            4 
 2259000   0.90943225   -4.4953024    1404.0425  0.051794398   0.05204716            3 
 2260000   0.86245935   -4.5128809    1398.8244  0.051579071   0.05203602            4 
 2261000   0.89038888   -4.4991964    1404.1757  0.051753489  0.052024764            2 
 2262000   0.90379864   -4.5112653    1394.9887  0.051392157  0.052013674            3 
 2263000   0.88357966   -4.5193799    1400.2186  0.051562035  0.052002559            3 
 2264000   0.86595251    -4.520794    1403.2289  0.051650063  0.051991464            7 
 2265000   0.88726757   -4.5074544    1404.8802  0.051688012  0.051980375            4 
 2266000   0.89386552   -4.4998857    1410.1883  0.051860413  0.051969319            4 
 2267000   0.88117117   -4.5283153    1400.2913  0.051473728  0.051958143            5 
 2268000   0.89009778   -4.5192416    1403.2839  0.051560992  0.051946952            2 
 2269000   0.89120947   -4.4790648    1409.7942  0.051777368  0.051935964            4 
 2270000   0.87963907    -4.505611     1406.411  0.051630358  0.051924909            3 
 2271000   0.87303645   -4.5155739    1405.7502  0.051583378  0.051913681            2 
 2272000   0.89159646   -4.5457771    1405.6037  0.051555301  0.051902488            7 
 2273000   0.88258051   -4.5026794    1405.1571  0.051516244  0.051891226            4 
 2274000   0.88836869   -4.5130511    1407.4571  0.051577877  0.051879971            3 
 2275000   0.88409655   -4.5067367    1407.7204  0.051564851  0.051868752            5 
 2276000   0.86948033   -4.5042611    1409.9205  0.051622747  0.051857441            3 
 2277000   0.89773022    -4.523296    1399.3689  0.051213911   0.05184604            3 
 2278000    0.8921421   -4.5045706    1406.0711  0.051436609  0.051834716            3 
 2279000   0.88608114   -4.5089703    1403.7262  0.051328295  0.051823264            4 
 2280000   0.88319062   -4.5421475    1405.0504  0.051354183  0.051811885            3 
 2281000   0.86482596   -4.5332988    1406.4755  0.051383733  0.051800552            9 
 2282000   0.88663503   -4.5248742    1408.6489  0.051440584  0.051789028            3 
 2283000   0.87826859   -4.5044877    1406.1558  0.051327049  0.051777687            3 
 2284000   0.88186745   -4.5180427     1405.945  0.051296883  0.051766285            4 
 2285000   0.87120717   -4.5130639    1410.5856  0.051443676  0.051754951            4 
 2286000   0.88370006   -4.5255052    1410.6116  0.051422118  0.051743688            5 
 2287000   0.88772307   -4.5211618     1411.061  0.051416012  0.051732403            2 
 2288000   0.87236651   -4.5237887    1402.7748   0.05109174  0.051720983            3 
 2289000   0.88798269   -4.5194559    1408.7429  0.051286692  0.051709695            3 
 2290000   0.88027103   -4.5267018     1407.749   0.05122813  0.051698425            2 
 2291000    0.9071953   -4.5157355    1414.2986  0.051444004  0.051687187            3 
 2292000   0.88474761   -4.5228493    1412.1681    0.0513441  0.051675918            4 
 2293000   0.88283715    -4.529091    1414.8689  0.051419863  0.051664524            3 
 2294000   0.88420565   -4.5222925    1412.1908  0.051300162  0.051653255            8 
 2295000   0.89351968   -4.5166401    1413.3724  0.051320712  0.051641861            4 
 2296000   0.87526599   -4.5269098    1413.2061  0.051292324  0.051630559            5 
 2297000   0.88473164   -4.4908065    1412.5121  0.051244816  0.051619224            4 
 2298000   0.89549647   -4.5296423     1414.947  0.051310812  0.051607943            4 
 2299000    0.8783319   -4.5384292    1408.2078  0.051044213  0.051596657            3 
 2300000   0.87809598   -4.5409171    1410.9974  0.051123093  0.051585246            6 
 2301000   0.86654505   -4.5072567    1415.0021   0.05124591  0.051573818            2 
 2302000   0.88677716   -4.5186437     1417.241  0.051304698  0.051562558            4 
 2303000   0.89136146    -4.527708    1415.1103  0.051205323  0.051551364            6 
 2304000   0.86301959   -4.5169814    1416.4664  0.051232146  0.051539982            4 
 2305000   0.87048747   -4.5285994    1414.9246  0.051154179  0.051528579            3 
 2306000   0.89633522   -4.5437439    1415.2759  0.051144691  0.051517358            5 
 2307000    0.8796932   -4.5239101    1410.9372  0.050965801  0.051506086           11 
 2308000   0.86471102   -4.5046609    1417.2743  0.051172527  0.051494894            1 
 2309000   0.87626965   -4.5218708    1415.8059  0.051097368  0.051483821            3 
 2310000   0.87869116   -4.5482317    1415.4723  0.051063214  0.051472515            7 
 2311000   0.89168959   -4.5415937    1423.9071  0.051345272  0.051461086            3 
 2312000   0.88732268    -4.542089    1414.0012  0.050966018  0.051449779            8 
 2313000   0.88641064    -4.497791    1420.7042   0.05118548  0.051438452            3 
 2314000   0.88743179   -4.5555807    1411.5878  0.050835055  0.051427235            4 
 2315000   0.89074176   -4.5078594    1417.3722  0.051021318  0.051416062            8 
 2316000   0.87449069   -4.5079875    1418.5746  0.051042553  0.051404812            5 
 2317000   0.87864368   -4.5099762    1418.5515  0.051019692  0.051393595            4 
 2318000   0.87965577   -4.5094824    1418.5979  0.050999348  0.051382297            7 
 2319000   0.89401426   -4.4533478    1427.1817  0.051285815  0.051371297            5 
 2320000   0.86387702   -4.4909861    1422.0495  0.051079363  0.051360324            3 
 2321000   0.89291028   -4.4970757    1421.6532  0.051043127  0.051349228            5 
 2322000   0.86650296   -4.5206684    1423.0013  0.051069527  0.051338062            4 
 2323000   0.86969462   -4.5390487    1418.8757  0.050899545  0.051326909            9 
 2324000   0.86843724   -4.5198801    1424.1439   0.05106655  0.051315656            8 
 2325000   0.87086481   -4.4947193    1423.4887  0.051021099  0.051304613            2 
 2326000   0.89613255   -4.5172134    1428.8977  0.051192954  0.051293537            3 
 2327000   0.88126114   -4.5309817    1422.7234  0.050949843  0.051282329            6 
 2328000   0.87346965   -4.5345141    1426.7002   0.05107031  0.051271075            5 
 2329000   0.90371678    -4.526304    1424.2752  0.050961615  0.051259872            4 
 2330000   0.88900956    -4.530447    1426.4852  0.051018785  0.051248585            4 
 2331000   0.87391903    -4.552361    1417.6619  0.050681464  0.051237279            7 
 2332000   0.86380045   -4.5236711    1426.1443  0.050962846  0.051226138            3 
 2333000   0.89281533   -4.5123718    1429.3002   0.05105373   0.05121488            2 
 2334000   0.87913277   -4.5221477    1425.4451  0.050894212  0.051203718            4 
 2335000   0.87675834   -4.5283965     1425.658  0.050880015  0.051192585            3 
 2336000    0.8847883   -4.5040746    1424.5585  0.050819009  0.051181343            3 
 2337000    0.8663029   -4.5254223    1426.9939  0.050884107  0.051170213            4 
 2338000   0.88515601   -4.5213657    1427.8966  0.050894518   0.05115905            5 
 2339000   0.87342591   -4.5394061    1424.5331  0.050752927  0.051147897            8 
 2340000   0.88444813   -4.5270156    1422.8604  0.050671665  0.051136682            3 
 2341000   0.88106378   -4.5563472    1428.5469  0.050852447  0.051125404            2 
 2342000   0.87355128   -4.5416694    1430.9051  0.050914644  0.051114226            5 
 2343000   0.88114611   -4.5586154    1425.1976  0.050689912  0.051103104            9 
 2344000   0.88696284   -4.5216079    1431.3878   0.05088836  0.051092096            4 
 2345000   0.86407791   -4.5343764    1425.6593  0.050663088  0.051080973            3 
 2346000    0.8752604   -4.5480255    1428.1816  0.050731088  0.051069764            3 
 2347000    0.8764548   -4.5104367    1436.0516  0.050988906  0.051058611            5 
 2348000   0.87784433   -4.5370621    1429.0686  0.050719357   0.05104748            9 
 2349000   0.88105136    -4.523743    1426.5546  0.050608579   0.05103638            2 
 2350000    0.8671811   -4.5275243    1430.1038  0.050712901  0.051025396            2 
 2351000   0.85442462   -4.5078015    1431.5728  0.050743401  0.051014518            5 
 2352000     0.890257   -4.5211168    1432.8067  0.050765543  0.051003679            4 
 2353000   0.85815863   -4.5326929    1434.6479  0.050809178   0.05099273            4 
 2354000   0.87163648   -4.5444573    1430.6937   0.05064761  0.050981785            5 
 2355000   0.89699808    -4.542176    1427.6757  0.050519311  0.050970781            5 
 2356000   0.89191312   -4.4990289    1439.3016  0.050909084  0.050959848            5 
 2357000   0.86573794   -4.5241017    1433.5944  0.050685703  0.050948892            6 
 2358000   0.87228413   -4.5461636    1438.0782  0.050822666  0.050937833            3 
 2359000   0.88154051   -4.5428047    1432.7875  0.050614226  0.050926823            8 
 2360000   0.88123693   -4.5534244    1430.3922    0.0505082  0.050915754            4 
 2361000   0.87602567   -4.5295509    1436.2504  0.050693574  0.050904698            3 
 2362000   0.86801322   -4.5476045    1432.6947  0.050546666  0.050893635            3 
 2363000   0.85630538    -4.556141    1432.9654   0.05053482  0.050882621            2 
 2364000   0.89314006   -4.5259394    1434.2884  0.050560082  0.050871524            4 
 2365000   0.90261509   -4.5109851    1441.5433  0.050794337   0.05086061            2 
 2366000   0.88626516   -4.5589803     1433.396  0.050485912  0.050849657            4 
 2367000   0.86744777   -4.5320418    1438.0877   0.05062976  0.050838698            4 
 2368000   0.88492731    -4.510794    1437.8923  0.050601504   0.05082785            3 
 2369000   0.88747179    -4.540108    1434.7962  0.050471232  0.050816873            4 
 2370000    0.8782032   -4.5392169    1440.7129  0.050657978  0.050805951            3 
 2371000   0.86398989   -4.5571128    1438.2612  0.050550442  0.050794965            5 
 2372000   0.87890398   -4.5564783    1443.3522   0.05070799  0.050783994            3 
 2373000    0.8728143   -4.5379609    1442.1025  0.050642736  0.050772929            3 
 2374000   0.85139474   -4.5651494    1439.9029  0.050544192  0.050761944            8 
 2375000   0.87359302   -4.5191927    1445.7089  0.050726627  0.050751052            4 
 2376000   0.85760887   -4.5116178    1444.7119  0.050670311  0.050740239            4 
 2377000   0.88616247   -4.5535479    1439.4014  0.050462816  0.050729281            6 
 2378000   0.87565731   -4.5436515    1442.9131  0.050564659  0.050718271            6 
 2379000   0.87497289   -4.5506749    1439.6273  0.050428306  0.050707271            2 
 2380000   0.87225151   -4.5422505    1439.7568  0.050411651  0.050696229            9 
 2381000   0.87641506   -4.5404591    1436.8193  0.050287671  0.050685234            4 
 2382000   0.85787696   -4.5468012    1443.6684  0.050506171  0.050674365           12 
 2383000   0.86872097   -4.5318181    1443.9697  0.050495513   0.05066352            3 
 2384000   0.87935566   -4.5381058     1447.447  0.050595882  0.050652629            4 
 2385000   0.87837303   -4.5042592    1449.8626  0.050659071  0.050641771            4 
 2386000     0.873114   -4.5348243    1448.3289  0.050584274  0.050631048            4 
 2387000   0.88481092   -4.5508313    1445.4944  0.050464124  0.050620079            6 
 2388000   0.88560204   -4.5417732    1446.6339  0.050482757  0.050609254            5 
 2389000    0.8691942   -4.5268898     1448.137  0.050514058  0.050598295            2 
 2390000   0.87957322   -4.5508008    1447.9628  0.050486847  0.050587409            2 
 2391000   0.87341667   -4.5446803    1446.5605   0.05041686  0.050576342            3 
 2392000   0.85894577   -4.5707359    1442.7195  0.050261967  0.050565432            4 
 2393000    0.8785222   -4.5577251    1448.2402  0.050433216  0.050554533            4 
 2394000   0.87013475   -4.5239808     1440.267  0.050134607    0.0505437           11 
 2395000   0.87178571   -4.5321974    1443.0556  0.050210703  0.050532792            3 
 2396000   0.89048276   -4.5676897    1447.5297  0.050345356  0.050521794            5 
 2397000   0.86328241   -4.5566472    1446.0344  0.050272369  0.050510836           21 
 2398000    0.8690494    -4.552282    1445.5065   0.05023306  0.050499912            7 
 2399000   0.86119517   -4.5251627    1451.3925  0.050416578  0.050489175            6 
 2400000   0.87231868   -4.5457448    1448.1219  0.050282009  0.050478314            8 
 2401000   0.85133096   -4.5194523    1453.4924  0.050447467  0.050467571            6 
 2402000   0.86854126   -4.5249738    1452.6876  0.050398541   0.05045673            6 
 2403000    0.8697554   -4.5413469    1453.9485  0.050421298  0.050445735            3 
 2404000   0.87976866   -4.5634799    1447.7734  0.050186267  0.050434979            3 
 2405000    0.8576168   -4.5486027     1447.331  0.050150068  0.050424039            7 
 2406000   0.85740916   -4.5530169    1451.0736  0.050258853  0.050413071            5 
 2407000    0.8706068   -4.5345868    1455.2817  0.050383662  0.050402199            2 
 2408000   0.85503248   -4.5418563    1455.6264  0.050374668  0.050391455            3 
 2409000   0.89184158   -4.5644358    1454.6272  0.050319191  0.050380646            4 
 2410000   0.84810606    -4.562408    1451.4476  0.050188367  0.050369642            6 
 2411000    0.8686617    -4.563869     1451.566  0.050171644  0.050358632            2 
 2412000   0.86867466   -4.5358185    1451.5902  0.050151678  0.050347672            6 
 2413000   0.86791952   -4.5529414    1451.7153  0.050135216  0.050336697            3 
 2414000   0.84919431    -4.573364     1449.322  0.050031829  0.050325832            5 
 2415000    0.8649486   -4.5666785    1451.4761  0.050085441  0.050314819            2 
 2416000   0.87030273   -4.5495205    1458.6419  0.050311876  0.050304051            3 
 2417000   0.85940148   -4.5428399    1455.4316  0.050180374  0.050293335            9 
 2418000   0.86160609   -4.5969957    1456.3075  0.050189809  0.050282435            2 
 2419000   0.85995242   -4.5585377    1454.5241  0.050107625  0.050271649            3 
 2420000   0.86121338   -4.5559715     1453.621   0.05005582  0.050260924            6 
 2421000   0.85362777   -4.5626845    1454.6387  0.050070175   0.05025036            3 
 2422000   0.86088668    -4.522031    1458.5601  0.050184423  0.050239733            5 
 2423000   0.85082143   -4.5648007    1454.1295  0.050011333  0.050229127            6 
 2424000   0.85623506   -4.5597769     1458.158  0.050129196  0.050218408            5 
 2425000   0.88118391   -4.5465354    1461.5606   0.05022545  0.050207675            5 
 2426000   0.87631032   -4.5699923    1458.9638  0.050115547  0.050196882            3 
 2427000   0.84426193    -4.547113    1460.4949  0.050147469  0.050186243            4 
 2428000   0.85273921   -4.5318527    1452.4755  0.049851574  0.050175339            2 
 2429000   0.87743447   -4.5396033    1458.5985  0.050041117  0.050164467            2 
 2430000   0.85721043   -4.5619958    1452.9593  0.049827137  0.050153535            7 
 2431000    0.8650665   -4.5313844     1461.744  0.050107775  0.050142574           13 
 2432000   0.86194605   -4.5870731    1453.9774  0.049821046  0.050131542            9 
 2433000   0.86610573   -4.5606092    1454.6679  0.049824218  0.050120317            5 
 2434000   0.86082533   -4.5461453    1451.8729  0.049708055  0.050109298            4 
 2435000   0.86707373   -4.5610519    1460.5599  0.049984939  0.050098401            5 
 2436000   0.85300611   -4.5475075    1461.9556  0.050012164  0.050087476            4 
 2437000   0.86765563   -4.5386149    1460.3391  0.049936366  0.050076634            7 
 2438000   0.84848353   -4.5576349    1460.1272  0.049908641   0.05006573            3 
 2439000    0.8772232    -4.542842    1462.4391  0.049967168  0.050054913            5 
 2440000   0.84998257   -4.5580251    1460.4153  0.049877571  0.050043955            7 
 2441000   0.85571458    -4.564834    1457.3441  0.049752291  0.050032952            7 
 2442000   0.87456454   -4.5761966    1461.3592  0.049868933   0.05002199           11 
 2443000   0.84995227   -4.5608803    1462.2651  0.049879421  0.050010983            5 
 2444000   0.85871567    -4.567255    1464.9253  0.049949716  0.050000057            4 
 2445000   0.85900968   -4.5568292    1459.5317  0.049745457  0.049989284            4 
 2446000   0.86814495   -4.5903507    1459.7091  0.049731163  0.049978473            4 
 2447000   0.86616018   -4.5650874    1458.7739  0.049678991  0.049967398            3 
 2448000   0.86539796   -4.5750302    1460.2069  0.049707479  0.049956417            6 
 2449000   0.86005025   -4.5619451    1459.5202  0.049663817  0.049945489            9 
 2450000   0.86176002   -4.5556943    1461.7586  0.049719679    0.0499344            7 
 2451000   0.85905984   -4.5402294    1459.7661   0.04963165  0.049923546            3 
 2452000   0.86194609    -4.565781    1461.1749  0.049659287  0.049912527            5 
 2453000   0.84166399   -4.5695338    1463.5062  0.049718242  0.049901402            6 
 2454000   0.84879459   -4.5619918     1463.114  0.049684665  0.049890404            6 
 2455000   0.85152819   -4.5728018    1461.7758  0.049619003   0.04987943            5 
 2456000   0.85900314   -4.5433437    1469.2995  0.049854081  0.049868481            6 
 2457000   0.88171436   -4.5636888    1460.6959  0.049541986  0.049857567            1 
 2458000   0.86478339   -4.5381661    1465.7147  0.049691981  0.049846689            3 
 2459000   0.84793525   -4.5595169    1462.3522  0.049557821  0.049835753            2 
 2460000   0.84940502   -4.5541466    1465.5319  0.049645389  0.049824752            3 
 2461000   0.85491506    -4.572308    1468.7248  0.049733332  0.049813921            6 
 2462000   0.84034076   -4.5849694    1460.4873   0.04943431  0.049802839            2 
 2463000    0.8673351   -4.5703486    1465.7059  0.049590807  0.049791778            3 
 2464000   0.86747193   -4.5689274    1462.1729  0.049451194  0.049780838            6 
 2465000   0.85577588   -4.5720718    1466.1818  0.049566661  0.049769958            5 
 2466000   0.84973295   -4.5840001    1464.7013  0.049496528  0.049759156            3 
 2467000   0.84202271   -4.5687895    1463.9131  0.049449842  0.049748276            5 
 2468000   0.84704511   -4.5757129    1469.8761  0.049631149  0.049737453            3 
 2469000   0.85521414   -4.5679684    1472.7483  0.049707989  0.049726539            4 
 2470000   0.86080809   -4.5710491    1469.2918  0.049571247  0.049715611            4 
 2471000   0.86941356   -4.5738888    1469.6565  0.049563486  0.049704778            2 
 2472000   0.85744809   -4.5959257    1469.6234  0.049542322  0.049693931            3 
 2473000   0.87160999   -4.5856963    1469.9198  0.049532276  0.049683151            5 
 2474000   0.84992572   -4.5847292    1465.2233  0.049354059  0.049672297            4 
 2475000   0.85388841   -4.5793575    1471.3133  0.049539167  0.049661543            7 
 2476000   0.86060581   -4.6102518    1468.4851  0.049423975  0.049650779            6 
 2477000   0.84760449   -4.5848165    1471.5106  0.049505806  0.049639894            3 
 2478000   0.85075256   -4.5693137    1470.9387  0.049466596  0.049629007            7 
 2479000    0.8387081   -4.5720628    1472.5712  0.049501521  0.049618209            6 
 2480000   0.86415831   -4.5874818    1472.8519  0.049490993  0.049607306            4 
 2481000   0.84622719   -4.5891261    1468.9982  0.049341603   0.04959641            4 
 2482000   0.85165023   -4.5696164    1473.6669  0.049478476  0.049585638            9 
 2483000   0.84968443   -4.5837449    1467.6514   0.04925666  0.049574936            4 
 2484000   0.86607802   -4.5760314    1472.9806  0.049415612  0.049564177            4 
 2485000   0.84065989    -4.547192    1477.2528  0.049538994  0.049553554            8 
 2486000   0.85719102   -4.6066467     1477.161  0.049515989  0.049542934            8 
 2487000   0.85218227   -4.5780865    1472.9528  0.049355074  0.049532269            9 
 2488000   0.83488727   -4.5850856    1478.4828  0.049520457  0.049521651            8 
 2489000   0.84146739   -4.5641981    1473.0967  0.049320234   0.04951096            7 
 2490000   0.87633981   -4.5752232    1476.6392  0.049418981  0.049500283            4 
 2491000   0.85636067   -4.5834035    1476.0155  0.049378278   0.04948964            7 
 2492000   0.84877288   -4.5837301    1478.9144  0.049455405  0.049478969            6 
 2493000   0.86480709   -4.5516943    1474.2257  0.049278838  0.049468323            7 
 2494000   0.85250062   -4.5838226    1475.5256  0.049302512   0.04945766            2 
 2495000   0.86644229   -4.5673673    1477.4088   0.04934565  0.049447157            3 
 2496000   0.84989761   -4.5666658    1477.5541  0.049330732  0.049436492            2 
 2497000   0.87726862   -4.5802722    1481.5412  0.049444041  0.049425998            3 
 2498000   0.87242509   -4.5758051     1483.146  0.049477781  0.049415509            2 
 2499000   0.85302456    -4.587591    1474.3843  0.049165809  0.049405057            4 
 2500000   0.85434077   -4.5771565    1484.9844  0.049499481  0.049394481            4 
 2501000   0.84554656    -4.588408    1483.7976  0.049440144  0.049384012            2 
 2502000   0.85208794   -4.5758584    1479.1099   0.04926425  0.049373525            7 
 2503000   0.83700103    -4.563906    1480.9399  0.049305497  0.049362945            3 
 2504000   0.84977871    -4.602971    1483.2445  0.049362503  0.049352431            4 
 2505000   0.85819252   -4.5650286    1483.8126  0.049361695  0.049341931            4 
 2506000    0.8450085   -4.5675512    1488.7924  0.049507596  0.049331568            4 
 2507000   0.84584266    -4.589775    1484.4917  0.049344891   0.04932116            4 
 2508000   0.83457935   -4.5871495    1485.6862  0.049364907  0.049310639            4 
 2509000   0.84050372   -4.5865902     1485.287  0.049331972  0.049300168            4 
 2510000   0.84442623   -4.5980173    1483.6033  0.049256419  0.049289806            3 
 2511000   0.84669746   -4.5544168    1486.6967  0.049339463  0.049279257            3 
 2512000   0.84963458   -4.5761318    1487.6468   0.04935134   0.04926897            5 
 2513000   0.87004253   -4.6098893    1482.1211  0.049148464  0.049258572           11 
 2514000    0.8460604   -4.5732433    1487.2647  0.049299412  0.049248169            2 
 2515000   0.86128114    -4.612988    1484.6086  0.049191804  0.049237626            9 
 2516000   0.85690823   -4.5781147    1487.1605  0.049256773  0.049227182            5 
 2517000   0.86605185   -4.5639112    1489.5376  0.049315906  0.049216769            9 
 2518000    0.8421413   -4.6234999    1481.3695  0.049025995  0.049206263            4 
 2519000   0.85096232   -4.6040819    1487.9603  0.049224571  0.049195577            4 
 2520000   0.85206471   -4.5562557    1494.1225  0.049408813  0.049185143            3 
 2521000   0.85598794   -4.5833894    1485.7302  0.049111801  0.049174782            3 
 2522000   0.85842759   -4.5929843    1487.9911  0.049167032  0.049164386            9 
 2523000   0.84528053   -4.5829444    1485.2426  0.049056765  0.049153905            4 
 2524000   0.84102904   -4.5738465     1487.995  0.049128204  0.049143294            6 
 2525000   0.84304859    -4.614856    1491.4211  0.049221818  0.049132904            2 
 2526000   0.84819622   -4.5871458    1489.8005   0.04914887  0.049122444            3 
 2527000     0.854423   -4.6296541     1487.446  0.049051773  0.049112048            9 
 2528000   0.84361741   -4.5983805    1491.2419  0.049157499  0.049101654            4 
 2529000   0.84609275    -4.574939    1490.4489  0.049111932  0.049091184            4 
 2530000    0.8478597   -4.5822048    1490.9498  0.049109017  0.049080725            4 
 2531000   0.83930406   -4.5725733    1492.8735  0.049152953  0.049070244            5 
 2532000   0.85210808   -4.5559041    1493.9989   0.04917058  0.049059866            4 
 2533000   0.86218122   -4.5888502    1490.6625  0.049041404  0.049049382            4 
 2534000   0.83832399   -4.5809325    1491.6455  0.049054376  0.049038847            4 
 2535000   0.83521683   -4.6033807    1488.9131  0.048945205  0.049028243            4 
 2536000   0.84677745   -4.5858512    1489.6935  0.048951548  0.049017624            4 
 2537000   0.85314689   -4.5956399    1488.7023  0.048899694  0.049007036            3 
 2538000   0.84063414   -4.6000382     1489.625  0.048910725   0.04899658            5 
 2539000   0.85019029   -4.5585765    1493.6602  0.049023901  0.048986093            9 
 2540000   0.85307516   -4.5880979    1491.4881  0.048933337  0.048975614            6 
 2541000   0.83903341   -4.6085658    1490.7874  0.048891098  0.048965122            6 
 2542000   0.84855073   -4.6122487    1487.6734   0.04876978  0.048954649            5 
 2543000   0.84412081   -4.5609654    1492.0854  0.048895183   0.04894426            5 
 2544000   0.85750002   -4.5946508    1497.2331  0.049044585  0.048933889           11 
 2545000   0.84113502   -4.5858267    1496.9348  0.049015548  0.048923409            6 
 2546000   0.86652688   -4.5587861    1500.5146  0.049113466  0.048913007            3 
 2547000   0.84146192   -4.6216713    1492.9212  0.048845741  0.048902542            2 
 2548000   0.84311096    -4.594544    1496.4989   0.04894358  0.048892037            4 
 2549000   0.85289804    -4.586805    1497.7835  0.048966374   0.04888158            4 
 2550000   0.85143915   -4.5776341    1503.7453  0.049142003  0.048871246            4 
 2551000   0.83491517   -4.5759361    1502.4221  0.049079515  0.048860924            8 
 2552000   0.85161634    -4.587329    1495.6346  0.048838644   0.04885072            3 
 2553000   0.83431254   -4.5826231    1502.5177  0.049044185  0.048840486            6 
 2554000     0.854432   -4.6001685    1495.0498  0.048781317  0.048830271            2 
 2555000   0.85654235   -4.6040725    1501.6089  0.048976154  0.048819899            3 
 2556000   0.83202919    -4.599594    1500.9286  0.048934814  0.048809593            2 
 2557000    0.8281189   -4.5814659    1503.9441  0.049013952  0.048799428            5 
 2558000   0.85460951   -4.5693097    1502.7304  0.048955252  0.048789376            4 
 2559000   0.84589787   -4.5933728    1500.7915  0.048872982  0.048779252            4 
 2560000   0.83993204   -4.5881876    1502.6051  0.048912925  0.048769007            4 
 2561000   0.83535636    -4.576626    1500.8805  0.048837708  0.048758824            7 
 2562000     0.835798   -4.6087704    1501.3215  0.048832991   0.04874881            4 
 2563000   0.86613526   -4.5961218    1499.8633  0.048766526  0.048738687            4 
 2564000   0.83935893   -4.6306885    1503.6807  0.048871579  0.048728472            5 
 2565000   0.83173098   -4.5854266    1504.1473  0.048867683  0.048718379            2 
 2566000   0.84159378   -4.5951027    1501.5005   0.04876268  0.048708172            5 
 2567000   0.85307048   -4.6046521    1507.3096  0.048932267  0.048698109            4 
 2568000    0.8514799   -4.5674189    1506.4812  0.048886332  0.048688109            8 
 2569000   0.84861441   -4.5855794     1504.574  0.048805435  0.048678045           10 
 2570000    0.8482308   -4.6093453    1502.1914  0.048709191  0.048667892            2 
 2571000    0.8288215   -4.6061396     1501.731  0.048675322  0.048657614            4 
 2572000   0.82941442   -4.6028558    1504.6133  0.048749784  0.048647413            3 
 2573000   0.83674238   -4.5763948    1508.8369  0.048867628  0.048637188            4 
 2574000   0.84339704   -4.6215157    1498.8983  0.048526881  0.048626899            6 
 2575000   0.84410502   -4.6166145     1507.992  0.048802329  0.048616725            7 
 2576000   0.83288397   -4.5601512    1504.4024  0.048667263  0.048606498            5 
 2577000   0.83511272   -4.5687249    1508.7023  0.048787425  0.048596164            5 
 2578000   0.83284778   -4.5735811    1502.8106  0.048578052  0.048585929            3 
 2579000   0.82842897   -4.5879923    1506.3637  0.048674024  0.048575491            3 
 2580000   0.84169799    -4.593262    1509.2352  0.048747906   0.04856519            5 
 2581000      0.84346   -4.6243478     1502.675  0.048517209  0.048554735            5 
 2582000   0.80840494   -4.6350947     1502.143  0.048481248  0.048544221            5 
 2583000   0.82723884   -4.5861172    1502.4639  0.048472833  0.048533739            6 
 2584000   0.83319324   -4.5805324    1508.7143  0.048655647  0.048523418            4 
 2585000   0.82450193    -4.623592    1503.7349  0.048476303  0.048513229            5 
 2586000   0.83317472   -4.6263417     1504.337  0.048476958  0.048502847            7 
 2587000   0.84227871   -4.6068006    1504.4326  0.048461302   0.04849248            3 
 2588000   0.86553838   -4.6146379    1509.1106  0.048593205   0.04848206            5 
 2589000   0.85031213   -4.6047223    1509.7033  0.048593515  0.048471675            7 
 2590000   0.84376222   -4.5903164    1508.3522  0.048531279  0.048461365            3 
 2591000   0.84642397    -4.610737    1502.3106  0.048318237  0.048451008            7 
 2592000   0.83799599   -4.6086288    1510.4803  0.048562251  0.048440642            7 
 2593000   0.84657492   -4.6252435    1508.0995  0.048467011  0.048430467            3 
 2594000   0.84306758   -4.5953312    1506.1229  0.048384826  0.048420353            7 
 2595000   0.83430291   -4.6254442    1509.6361  0.048479001  0.048410108            4 
 2596000   0.84342246   -4.5933899    1510.4852  0.048487582  0.048399762            3 
 2597000    0.8353286   -4.6010894    1507.4985  0.048373075  0.048389415            5 
 2598000   0.84428492   -4.5979437    1510.2065  0.048441318  0.048378943            5 
 2599000   0.84704732   -4.6158414    1509.6336  0.048404311  0.048368456            5 
 2600000   0.84144051   -4.5949955    1512.3249  0.048471952  0.048358072            5 
 2601000   0.83705768   -4.5988709    1513.0772  0.048477418  0.048347794            3 
 2602000   0.84465321   -4.6160263    1510.6353  0.048380582  0.048337471           12 
 2603000   0.82337085   -4.5783694    1513.1905  0.048443798  0.048327113            2 
 2604000   0.82049373   -4.6164476    1509.6497  0.048311881  0.048316708            6 
 2605000   0.83340191   -4.6237939    1513.9532  0.048431004  0.048306295            3 
 2606000   0.84210074   -4.5974869    1514.3906  0.048426406  0.048295952            9 
 2607000   0.81069573   -4.6050912    1510.6615  0.048288629  0.048285706            4 
 2608000   0.82630716   -4.6290913    1512.3782   0.04832497  0.048275388            5 
 2609000   0.83069746   -4.6178944    1510.6885  0.048252475  0.048265025            8 
 2610000   0.83491626   -4.6007337    1515.8297  0.048398139  0.048254734            3 
 2611000   0.83069305   -4.6134933     1512.456  0.048271925  0.048244334            4 
 2612000    0.8288477   -4.6204131    1512.5529  0.048256538  0.048234046            5 
 2613000   0.83513546   -4.6180247    1513.9342  0.048282122  0.048223783            2 
 2614000   0.83447008   -4.6467691    1511.5927  0.048189004  0.048213494            5 
 2615000   0.82230906   -4.5828627    1520.6142  0.048458069  0.048203234            6 
 2616000   0.83120213   -4.5823694    1513.3788  0.048209059  0.048193047            3 
 2617000    0.8361972   -4.5930165    1520.2057  0.048408026  0.048182906            9 
 2618000   0.82629384   -4.6234505    1516.9615  0.048286271  0.048172696            6 
 2619000   0.83834711   -4.6066124    1513.1979  0.048148082  0.048162426            2 
 2620000   0.84653724   -4.6122555    1515.8077  0.048212712  0.048152123            6 
 2621000   0.83176223   -4.5937446    1518.6342  0.048284184  0.048141764            4 
 2622000   0.82282445   -4.5982198    1522.6513  0.048393442  0.048131579            5 
 2623000   0.81647495   -4.6172316    1512.6164  0.048056184  0.048121185            2 
 2624000   0.82279455    -4.614532    1520.1473  0.048277037  0.048110827            3 
 2625000   0.82598356   -4.6181014    1515.0743  0.048097595  0.048100516            4 
 2626000   0.83149812   -4.6113557     1514.264  0.048053566  0.048090251            3 
 2627000   0.82949976   -4.6305393    1514.0965   0.04802996  0.048080006           12 
 2628000   0.83036494   -4.6060338    1518.4579  0.048149983  0.048069767            2 
 2629000   0.82662007   -4.6253122    1517.2837  0.048094451  0.048059459            3 
 2630000    0.8298081   -4.6024571    1515.7774  0.048028436   0.04804908            5 
 2631000    0.8102136   -4.6325434    1520.5811  0.048162331  0.048038641            7 
 2632000   0.83447314   -4.6122086    1518.9241  0.048091568  0.048028434            5 
 2633000   0.82155979   -4.5903446    1515.1391  0.047953511  0.048018213            2 
 2634000   0.84727525   -4.6258685    1523.7528  0.048207821   0.04800797            4 
 2635000   0.83937279   -4.6306824    1520.0098  0.048071152  0.047997635            8 
 2636000   0.84118639   -4.5956298    1525.7961   0.04823584  0.047987449            4 
 2637000   0.81802501   -4.5876244     1524.143  0.048165307  0.047977354           15 
 2638000   0.81214749   -4.5959093    1528.8474   0.04829566  0.047967254            8 
 2639000   0.82022666   -4.6149855    1523.0241  0.048093472  0.047957135           10 
 2640000   0.81162466   -4.5955085    1524.5721  0.048124118  0.047947073            3 
 2641000   0.83537609   -4.6166607    1525.1919  0.048125455  0.047936904            4 
 2642000   0.82261771   -4.6121374    1527.9893  0.048195473  0.047926767            5 
 2643000   0.82350403   -4.6108713     1522.656   0.04800908  0.047916697            6 
 2644000   0.82047125   -4.6193402    1525.2267  0.048071946  0.047906413            6 
 2645000   0.80310237   -4.6307179    1523.7193  0.048006279  0.047896292            4 
 2646000   0.85949118   -4.6189913    1525.7462   0.04805197  0.047886134            2 
 2647000   0.82441361   -4.6387199    1526.5799  0.048060064  0.047876118            2 
 2648000   0.82974429   -4.6030409    1524.5539  0.047978156  0.047866026            3 
 2649000   0.84207404   -4.6394831     1524.971  0.047973165  0.047855875            3 
 2650000   0.82667029   -4.6046098    1525.4157  0.047969047  0.047845798            4 
 2651000   0.84428001    -4.623413    1525.6599   0.04795863  0.047835705            8 
 2652000   0.82654641   -4.6268946     1529.374  0.048057251  0.047825679            4 
 2653000    0.8312497   -4.6279539    1528.6474  0.048016315  0.047815642            5 
 2654000   0.84274723   -4.6020237    1529.6751  0.048030493  0.047805529            8 
 2655000   0.81277588   -4.6049311    1530.7904  0.048047408  0.047795434            5 
 2656000   0.81042298   -4.6502604    1525.0145  0.047848094  0.047785256            3 
 2657000   0.84744336   -4.6317324    1527.9491  0.047922126  0.047775109            5 
 2658000   0.80306546   -4.6363634    1523.3614  0.047760265  0.047764915            4 
 2659000   0.82161029   -4.6425374    1531.0223  0.047982395  0.047754781            4 
 2660000   0.81989238   -4.6234655    1528.9601  0.047899751  0.047744576            3 
 2661000   0.80924076   -4.6033969    1529.9153  0.047911666  0.047734325            7 
 2662000   0.82535366   -4.6360324    1525.8871  0.047767565  0.047724249            4 
 2663000    0.8439185   -4.6440954    1528.7462  0.047839098  0.047714114            3 
 2664000   0.81016066   -4.6099758     1529.216  0.047835836  0.047703889            4 
 2665000   0.82295513   -4.6410086    1524.0918  0.047657656  0.047693669            4 
 2666000   0.83013424   -4.6746776    1525.3036  0.047677658  0.047683495            5 
 2667000   0.83049807   -4.6334994     1528.533  0.047760687  0.047673282            8 
 2668000   0.85653924   -4.6190887    1532.1488  0.047855723   0.04766322            2 
 2669000   0.82705108   -4.6400436    1531.1341   0.04780611  0.047653086            4 
 2670000   0.83512468   -4.6359283    1527.5332  0.047675818  0.047642968            5 
 2671000   0.84182248   -4.6039622    1531.0611  0.047768036  0.047632758            5 
 2672000   0.82617324    -4.626652    1537.9588  0.047965282  0.047622628            8 
 2673000   0.82447929   -4.6224414    1529.2438  0.047675639  0.047612546            6 
 2674000   0.83567638   -4.6583916    1525.4602  0.047539897  0.047602243            6 
 2675000    0.8374032   -4.6401121    1529.0867  0.047635099  0.047591849            7 
 2676000   0.82211744   -4.6596411    1528.5583  0.047600843  0.047581567           12 
 2677000   0.81623135   -4.6384213    1529.8272  0.047622564   0.04757138            4 
 2678000   0.82062969   -4.5865424    1534.6822  0.047755856   0.04756119            9 
 2679000   0.82478778   -4.6198479    1532.4193  0.047667641  0.047551092           10 
 2680000   0.82234684   -4.6368555    1533.0531  0.047669561  0.047540993            8 
 2681000   0.82427037   -4.6276927    1533.9336   0.04767915  0.047530946            5 
 2682000    0.8063358   -4.6335325    1529.8605  0.047534815  0.047520811            3 
 2683000   0.81624586   -4.6141691    1536.3346  0.047718181   0.04751057            3 
 2684000   0.81933041     -4.64136    1531.8939  0.047562528  0.047500294            4 
 2685000   0.82749186    -4.655336    1534.3132  0.047619901  0.047490028            5 
 2686000   0.82026415   -4.6367461    1536.1271  0.047658449  0.047479876            7 
 2687000   0.81066562   -4.6460974    1528.9492  0.047418098  0.047469668            2 
 2688000   0.81406448     -4.63325    1538.0987  0.047684111  0.047459443            3 
 2689000   0.81205423   -4.6183705    1536.2119  0.047607905  0.047449341            5 
 2690000    0.8361018    -4.639513    1532.8663  0.047486563   0.04743914            5 
 2691000   0.84776852    -4.647866     1537.143  0.047601358   0.04742893            3 
 2692000   0.83844752   -4.6040595    1537.3529  0.047590171  0.047418806            3 
 2693000   0.83276559   -4.6373223     1538.954  0.047622044  0.047408671            5 
 2694000   0.80963886   -4.6360795     1536.004  0.047513115  0.047398485            8 
 2695000   0.81348907   -4.6532766    1534.4971  0.047448889  0.047388267            7 
 2696000   0.80640116   -4.6565112    1543.5867   0.04771225  0.047378163            6 
 2697000   0.80911837   -4.6611552    1536.2708  0.047468509  0.047367934            6 
 2698000   0.81646796   -4.6276773    1536.1545  0.047447321  0.047357678            5 
 2699000   0.81092026   -4.6361835    1534.2753  0.047371721   0.04734744           16 
 2700000   0.83055462   -4.6417872     1533.981  0.047345092  0.047337271            2 
 2701000   0.81782205   -4.6416596    1537.3356  0.047431061  0.047327104            5 
 2702000   0.81611964    -4.601814    1540.2971  0.047504846  0.047316923            4 
 2703000   0.81787719   -4.6124294    1542.7491  0.047562865  0.047306821            6 
 2704000    0.8253885   -4.6229875    1541.4657  0.047505723  0.047296737            4 
 2705000   0.83977728   -4.6526905     1536.949  0.047349016  0.047286519            6 
 2706000   0.83377138   -4.6108311    1542.9934  0.047517657  0.047276414            7 
 2707000    0.8077728   -4.6362674    1536.3333  0.047295078  0.047266419            4 
 2708000   0.81437145   -4.6311652    1540.4304  0.047403694   0.04725626            4 
 2709000   0.81849706   -4.6548474    1534.3694  0.047199748  0.047246009           12 
 2710000   0.82120675   -4.6270953    1543.1008  0.047450824  0.047235969            4 
 2711000   0.81041188   -4.6509602    1540.7015   0.04735957  0.047225753            8 
 2712000   0.82373835   -4.6464039    1542.0761  0.047384344  0.047215569            4 
 2713000   0.81262579   -4.6265188    1541.9784  0.047363876   0.04720537           11 
 2714000    0.8343843    -4.642289    1535.7716  0.047155845  0.047195209            8 
 2715000   0.81411474   -4.6310234    1540.9864  0.047298539   0.04718506           10 
 2716000    0.8099126   -4.6299642    1541.6941  0.047302838  0.047174869            3 
 2717000   0.83052476   -4.6612277    1541.1267  0.047268025  0.047164762            4 
 2718000   0.82140067    -4.650795    1543.6533    0.0473281  0.047154623            6 
 2719000   0.83477292   -4.6257778    1544.9821  0.047351418  0.047144445            6 
 2720000    0.8275002   -4.6662106    1542.3334  0.047252862  0.047134343            6 
 2721000   0.81797666   -4.6112449    1544.3827  0.047298259  0.047124216            5 
 2722000   0.80685973    -4.664526    1542.8506  0.047233977  0.047114147            6 
 2723000   0.81713297   -4.6399438    1544.5004   0.04726712  0.047104068            3 
 2724000   0.80938486   -4.6560423     1546.117  0.047299223  0.047093964           10 
 2725000   0.80567797    -4.651847    1540.7354  0.047117291  0.047083904            4 
 2726000    0.8308692   -4.6298882    1546.1059   0.04726418  0.047073805            5 
 2727000   0.80652632   -4.6514149    1540.5007  0.047075561   0.04706382            4 
 2728000   0.80019507   -4.6370151    1550.5924  0.047366581  0.047053685            7 
 2729000   0.80324096   -4.6334112    1551.4409  0.047375134  0.047043762            5 
 2730000   0.79017778   -4.6627869    1544.0038  0.047130764  0.047033589            2 
 2731000    0.7973052   -4.6702381    1546.6233  0.047193435  0.047023467            5 
 2732000   0.82297586   -4.6642824    1547.2026  0.047193832  0.047013355            4 
 2733000   0.84217811   -4.6497769    1544.1435  0.047083287  0.047003263            4 
 2734000   0.81983118    -4.645166     1550.263   0.04725259  0.046993247            6 
 2735000    0.8034664   -4.6558683    1552.3152  0.047297842  0.046983247            4 
 2736000   0.81625551   -4.6889681    1546.2708  0.047096455  0.046973202            5 
 2737000   0.81101538   -4.6397809    1553.7181  0.047305996  0.046963223            5 
 2738000   0.81730694   -4.6321854    1544.4924  0.047007925  0.046953288            8 
 2739000   0.81021898   -4.6473722    1549.7403  0.047150428  0.046943323           10 
 2740000   0.81638554   -4.6550689    1550.7959  0.047165324  0.046933323            3 
 2741000   0.81352871    -4.667738    1552.9641  0.047214036  0.046923235            2 
 2742000    0.8199572   -4.6416933    1549.9576  0.047105445  0.046913193            3 
 2743000   0.82192042   -4.6246509    1551.0264  0.047120743  0.046903192            5 
 2744000   0.79942947   -4.6587254     1554.874  0.047220419  0.046893148            6 
 2745000   0.80850865   -4.6783058    1547.7708  0.046987577   0.04688313            2 
 2746000    0.8253414   -4.6452126    1549.4586  0.047021687  0.046873101            6 
 2747000   0.78158956   -4.6619364     1550.309  0.047030368  0.046863064            4 
 2748000   0.81838704   -4.6348162    1549.1028  0.046976675  0.046852943            3 
 2749000   0.81982094   -4.6701779    1548.3091  0.046935524  0.046842816            7 
 2750000   0.81152678   -4.6537791    1548.2523  0.046916736  0.046832696            3 
 2751000   0.81417356   -4.6502037    1550.5278  0.046968612  0.046822572           10 
 2752000   0.81616668   -4.6520496    1552.1599  0.047000967  0.046812472            6 
 2753000    0.8154869   -4.6644259    1550.1246  0.046922284  0.046802391           15 
 2754000   0.81604543   -4.6667621    1549.6346   0.04689042  0.046792281           13 
 2755000   0.80503649   -4.6668854     1552.169   0.04695006  0.046782197           10 
 2756000   0.80154208     -4.63619    1551.8938  0.046924704  0.046772156            4 
 2757000   0.80168065   -4.6391559    1552.0724  0.046913081  0.046762126            8 
 2758000   0.80322832   -4.6831117    1550.4722  0.046847721  0.046751959            7 
 2759000   0.78797908   -4.6357122    1555.1297  0.046971418  0.046741837            5 
 2760000   0.81311022   -4.6681849    1549.6807  0.046789877   0.04673171            7 
 2761000   0.81018211   -4.6357931    1552.1324  0.046846929  0.046721541            7 
 2762000   0.80219906   -4.6718988    1551.1517  0.046800378  0.046711341            6 
 2763000    0.8230108   -4.6469351    1555.9843  0.046929192  0.046701172            3 
 2764000   0.80542591   -4.6500424    1558.9411  0.047001358  0.046691103            3 
 2765000   0.81038612    -4.673233    1548.6915  0.046675453   0.04668085            4 
 2766000   0.80964739   -4.6625545    1552.6439  0.046777653  0.046670628            5 
 2767000   0.79541945   -4.6460169    1558.2626  0.046929965   0.04666054            3 
 2768000   0.80327828   -4.6594909     1554.904  0.046811899  0.046650384            5 
 2769000   0.81961315   -4.6262932    1557.0675  0.046860104  0.046640284            4 
 2770000   0.80686899    -4.671559    1555.7969   0.04680496  0.046630276            6 
 2771000   0.79790369   -4.6573673    1552.5346  0.046689963  0.046620205            3 
 2772000   0.81833546   -4.6526482    1554.2878  0.046725824  0.046610036            6 
 2773000   0.80461201   -4.6567654    1559.1783  0.046855943  0.046599904           11 
 2774000   0.83632764   -4.6545961    1557.0977  0.046776548  0.046589806            3 
 2775000   0.79463207   -4.6922244    1551.5982   0.04659454  0.046579671           13 
 2776000   0.81590762   -4.6550718    1553.5895  0.046637532  0.046569537            6 
 2777000   0.80891644   -4.6608213    1564.6653  0.046953107  0.046559387            4 
 2778000   0.79613752   -4.6511599    1558.1031  0.046739355  0.046549235           13 
 2779000   0.79844065   -4.6660164     1557.298  0.046698394  0.046538999            8 
 2780000   0.81373647   -4.6826865    1554.9224  0.046610382  0.046528808            5 
 2781000   0.80851802   -4.6484864    1558.7286  0.046707678  0.046518593            6 
 2782000   0.80520143   -4.6377998    1552.8428  0.046514582  0.046508443            4 
 2783000   0.81503263   -4.6549008    1555.6334   0.04658143   0.04649828            7 
 2784000   0.81026974   -4.6441844    1555.8882  0.046572323  0.046488086            4 
 2785000   0.79787882   -4.6584059     1560.011  0.046678964  0.046477892            4 
 2786000   0.79151784   -4.6797018    1555.0746  0.046514553  0.046467718            5 
 2787000   0.80773443   -4.6350436    1559.4559  0.046628869  0.046457509            4 
 2788000   0.80385771    -4.693279    1551.8772  0.046385617  0.046447282            9 
 2789000   0.82595519   -4.6612714    1561.6028  0.046659579  0.046437074            3 
 2790000   0.80938844   -4.6542837    1554.1867  0.046421347  0.046426928            4 
 2791000   0.81441371   -4.6443797    1562.4623  0.046651807  0.046416769            4 
 2792000   0.79771205   -4.6669341    1555.9474  0.046440646    0.0464067            5 
 2793000   0.80973032   -4.6537967    1560.0115  0.046545276  0.046396526            9 
 2794000   0.79436563   -4.6909085    1553.1547  0.046324109  0.046386242            5 
 2795000   0.81109631   -4.6504504    1560.3841   0.04652308  0.046376059            9 
 2796000   0.81206109   -4.6613681    1562.1668  0.046559574  0.046365913            5 
 2797000   0.79109321   -4.6741943    1560.7967  0.046502106  0.046355799            5 
 2798000   0.79980974   -4.6654586    1564.0524  0.046582451  0.046345638            3 
 2799000   0.80126756   -4.6714219    1561.9005   0.04650174   0.04633553            8 
 2800000   0.80706894   -4.6770511     1556.402  0.046321489  0.046325358            5 
 2801000   0.81881009   -4.6694882     1562.544  0.046487683  0.046315166            4 
 2802000   0.82406436   -4.6789679    1564.0659  0.046516354  0.046305027            5 
 2803000   0.80050721   -4.6959111    1562.4403  0.046451431  0.046294988            5 
 2804000   0.78948436   -4.6694411    1561.7932  0.046415632  0.046284813            4 
 2805000   0.79741177   -4.6611658    1560.2059  0.046351929  0.046274666            4 
 2806000   0.78429838    -4.678089    1559.6733  0.046319593  0.046264655            6 
 2807000   0.80673778   -4.6645941    1569.2705  0.046588008  0.046254581            5 
 2808000   0.79543237   -4.6876022    1564.8855  0.046441285   0.04624449            6 
 2809000   0.79819347   -4.6752301    1564.3644   0.04640929  0.046234418            4 
 2810000   0.79967715   -4.6615913    1565.2602  0.046419342  0.046224347            3 
 2811000   0.80406679   -4.6535347    1563.2954   0.04634458  0.046214309            4 
 2812000   0.81145615   -4.6794686    1566.2327  0.046415145  0.046204262            9 
 2813000   0.81254017   -4.6726549     1568.209  0.046457192   0.04619415           11 
 2814000   0.79424014   -4.6901505    1562.9321  0.046284415  0.046183973            8 
 2815000   0.79525941   -4.6845768    1567.1051  0.046391506  0.046173769            3 
 2816000   0.78220712   -4.6688245    1564.6247  0.046301631  0.046163663            7 
 2817000   0.80794399   -4.6944041     1562.782  0.046230681   0.04615339            7 
 2818000   0.80056166   -4.6880054    1567.2857  0.046347459  0.046143269            8 
 2819000   0.79913995   -4.6580816    1566.3852  0.046304399  0.046133194           10 
 2820000   0.79354954   -4.6622445    1567.9015  0.046332785  0.046123134            5 
 2821000   0.79510447   -4.6557237    1565.9402  0.046258426  0.046113097           12 
 2822000   0.80669827   -4.6896957    1566.0036  0.046243905     0.046103            5 
 2823000   0.79730784   -4.6861572    1566.3418  0.046237506  0.046092894            3 
 2824000   0.79050465   -4.6713573    1565.9898  0.046210747  0.046082731            6 
 2825000   0.79694416   -4.6834628    1566.2284  0.046201429  0.046072679            9 
 2826000   0.80278235   -4.6569103    1566.9441  0.046206183  0.046062567            4 
 2827000   0.80287518   -4.7090165    1570.3074   0.04628898  0.046052457            4 
 2828000   0.80820321   -4.6899714    1567.8017  0.046198778  0.046042346            7 
 2829000   0.79851197   -4.6580197    1570.1259  0.046250911  0.046032301            5 
 2830000   0.80836948   -4.6643569    1570.0322  0.046231809   0.04602231            3 
 2831000   0.80809995    -4.707881     1568.987  0.046184711  0.046012192            7 
 2832000   0.80825038    -4.675516    1566.0402  0.046081691  0.046002012            4 
 2833000   0.78813379   -4.6923444    1570.5391   0.04619776  0.045992013            6 
 2834000   0.79880818   -4.6608834    1563.8328  0.045984263  0.045982012           10 
 2835000   0.81370303   -4.6940929    1568.9075  0.046117211  0.045971964           20 
 2836000   0.80766839   -4.6718493    1571.2693   0.04617035  0.045961838            9 
 2837000   0.81072176   -4.6838894    1569.3001  0.046096233  0.045951773            3 
 2838000   0.78886634   -4.6679222     1577.407  0.046318035  0.045941711            2 
 2839000   0.78819875   -4.6761254     1570.191  0.046089909  0.045931768            5 
 2840000   0.79977239   -4.6691631    1573.7051  0.046176793  0.045921773            5 
 2841000   0.79171283   -4.6859732     1569.247  0.046029772  0.045911766            4 
 2842000   0.77559347   -4.7060476    1569.0379  0.046007446  0.045901667            7 
 2843000   0.78946985   -4.6579146    1573.3647  0.046118089  0.045891668            3 
 2844000   0.82574883   -4.6795073    1569.3039  0.045982885  0.045881707            6 
 2845000   0.79691925   -4.7015995    1572.0445  0.046046997    0.0458716            3 
 2846000   0.81124239   -4.7073763    1570.7237  0.045992144   0.04586151           12 
 2847000   0.80540745   -4.6851375    1575.0186  0.046101703  0.045851391           13 
 2848000   0.79260962   -4.6527876    1571.8991   0.04599424  0.045841249           13 
 2849000   0.77587526   -4.6862196    1569.2328  0.045900105   0.04583106            7 
 2850000   0.78445121   -4.6860614    1571.8625  0.045960893  0.045820832            9 
 2851000   0.78529834   -4.6880321    1571.3662  0.045930265  0.045810668            7 
 2852000   0.79603699   -4.6752335    1566.9636  0.045785518  0.045800421            3 
 2853000   0.79438005   -4.6954291    1566.4954  0.045755794  0.045790147            4 
 2854000   0.79315958   -4.6735531    1567.9575  0.045782455  0.045779848            5 
 2855000   0.79565135   -4.6631509    1573.8124  0.045937316  0.045769576            9 
 2856000   0.81103359   -4.6798072    1569.2859  0.045789155  0.045759284            4 
 2857000    0.7903046   -4.6668356    1574.6344  0.045929133  0.045748906            8 
 2858000   0.79113938   -4.6663469    1570.5262  0.045793276  0.045738665            4 
 2859000   0.80095286   -4.6978355    1573.7445  0.045871066  0.045728457            3 
 2860000    0.7944976   -4.6935194    1572.4505  0.045817321  0.045718149            6 
 2861000   0.79279957   -4.7086515    1572.6747  0.045807839  0.045707809            6 
 2862000   0.79948205   -4.6715003     1572.623  0.045790327   0.04569754            5 
 2863000   0.78289513   -4.6879307    1574.9851  0.045843087  0.045687257            4 
 2864000   0.78302153   -4.6956576     1567.111   0.04559797  0.045676998            8 
 2865000   0.79176323   -4.6717491    1574.9837  0.045811043   0.04566666            7 
 2866000   0.79853382   -4.6921508    1575.8983  0.045821654  0.045656465            5 
 2867000   0.79304381   -4.7123035    1571.8944  0.045689291  0.045646123            3 
 2868000   0.79607014   -4.6817771    1578.3061  0.045859661  0.045635956            5 
 2869000   0.79148504   -4.6763207    1576.5584  0.045792911  0.045625819            6 
 2870000   0.78126357   -4.7144417    1572.7965  0.045667726  0.045615653           10 
 2871000   0.78782315   -4.7149379    1571.1679  0.045604549  0.045605411            7 
 2872000   0.79347964   -4.6904948    1573.4028  0.045653517  0.045595093            7 
 2873000   0.80618285   -4.6762403     1575.358  0.045694337   0.04558486            7 
 2874000   0.77298603   -4.6966529    1577.7281   0.04574716  0.045574672           12 
 2875000   0.79139169   -4.7131839    1573.7182   0.04561502  0.045564501            8 
 2876000   0.79558359   -4.6902708    1577.9691   0.04572233  0.045554279            6 
 2877000   0.76561682   -4.6948973    1578.5674  0.045723769  0.045544052            3 
 2878000   0.78504316   -4.6781901    1575.6139  0.045622362  0.045533787           11 
 2879000   0.78768326   -4.6708614    1577.1984   0.04565238  0.045523564           12 
 2880000   0.79760062   -4.7065649     1572.897  0.045512065   0.04551333            7 
 2881000   0.76860111   -4.6881838    1579.4525  0.045685887  0.045503205            9 
 2882000   0.79435743   -4.6701919    1576.6064   0.04558774  0.045493002           10 
 2883000   0.79312479    -4.707263      1578.62  0.045630131  0.045482905            4 
 2884000   0.77002864   -4.6764607    1577.0516  0.045568988   0.04547275            2 
 2885000   0.79823383   -4.6820447    1575.6835  0.045513677  0.045462592            4 
 2886000   0.79352051    -4.704955    1575.4619  0.045491509   0.04545241            7 
 2887000   0.79023398   -4.6791751    1582.3669  0.045675063  0.045442197            6 
 2888000   0.81086383   -4.7054247    1574.6748  0.045437292  0.045431984            5 
 2889000   0.78731994   -4.7000118    1573.5907  0.045390293  0.045421814            8 
 2890000   0.79365965   -4.7147252    1580.9744  0.045587498  0.045411657            7 
 2891000   0.78418402    -4.679333    1579.7173  0.045535491  0.045401466            9 
 2892000   0.77146522    -4.711388    1580.9987  0.045556672  0.045391442            6 
 2893000   0.77901023   -4.7142972    1579.0249  0.045484067  0.045381249            6 
 2894000    0.7892039   -4.7238738     1579.687  0.045487417  0.045371053            5 
 2895000    0.7798916   -4.6628986    1586.9285  0.045680152  0.045360923            5 
 2896000   0.78332476   -4.6655382    1584.4702  0.045593641  0.045350905            4 
 2897000   0.78817286   -4.7172618     1576.554   0.04535019  0.045340862           12 
 2898000   0.77679914   -4.6972632    1584.5164  0.045563503  0.045330746            3 
 2899000   0.77622831   -4.7060052    1582.2536  0.045482742  0.045320576            6 
 2900000   0.79589688   -4.7125367    1580.4496  0.045415219  0.045310332            4 
 2901000    0.7886338   -4.6844594    1584.9022  0.045527466  0.045300177            4 
 2902000   0.78751302   -4.7072513    1582.1199  0.045431883  0.045290074            3 
 2903000   0.78474206   -4.6980119    1586.0551  0.045529198  0.045279943            3 
 2904000   0.78413061    -4.713675    1583.3208  0.045435054  0.045269868            4 
 2905000   0.78081016   -4.6899419    1581.5881  0.045369711  0.045259673            2 
 2906000   0.78241786   -4.7261655    1583.7323  0.045415587  0.045249548            6 
 2907000   0.79903611   -4.6923478    1588.2509  0.045529495  0.045239433            5 
 2908000    0.8016698   -4.7110047    1585.2899  0.045428985  0.045229431            6 
 2909000     0.778262   -4.7146196    1579.6261  0.045251121   0.04521926            7 
 2910000   0.75879897   -4.7109858    1585.3666  0.045399961  0.045209173            3 
 2911000   0.76810825    -4.697276    1584.7851  0.045367718   0.04519915            9 
 2912000   0.80261342   -4.7125121    1581.8665  0.045268614  0.045189011            4 
 2913000   0.77789441   -4.7151013     1583.341  0.045295256  0.045178908            7 
 2914000   0.78352358   -4.6918802    1583.4163  0.045281867  0.045168805            6 
 2915000    0.7976779   -4.7057391    1586.7879  0.045362718  0.045158722            5 
 2916000   0.79309416   -4.7355082    1584.8603  0.045292074  0.045148552            4 
 2917000   0.79686372   -4.7135662    1581.3311  0.045175726  0.045138437            8 
 2918000   0.77784583   -4.6831983    1590.9681   0.04543546  0.045128452            2 
 2919000   0.77993204   -4.6910419    1589.9992  0.045392234  0.045118543            6 
 2920000   0.77455129   -4.6920127    1589.9644  0.045375695  0.045108581            6 
 2921000    0.7708445   -4.6953561    1584.0843  0.045192408  0.045098602            5 
 2922000   0.76831583   -4.7098883    1589.4144  0.045328954  0.045088538            8 
 2923000   0.79557643   -4.7119727    1588.7088  0.045293329  0.045078534            4 
 2924000   0.77434671   -4.7177972    1584.1797  0.045148761  0.045068531            2 
 2925000   0.80427575   -4.7406863    1584.9618  0.045155607  0.045058331            5 
 2926000   0.78650866   -4.7306219     1585.871  0.045166069  0.045048214            8 
 2927000   0.75765741   -4.7018106      1592.22  0.045331398  0.045038136            9 
 2928000   0.78735288    -4.689244    1586.9641  0.045166328  0.045028116            5 
 2929000   0.76856813    -4.713408    1589.7341  0.045229717  0.045018021           15 
 2930000   0.77657501   -4.7208087    1588.1543  0.045169349  0.045007962            4 
 2931000   0.77530045   -4.7025086    1587.6376  0.045139246     0.044998            3 
 2932000   0.81285193   -4.6935912    1591.8779  0.045244369  0.044988084            6 
 2933000   0.79244883    -4.734703    1585.6204  0.045051152   0.04497816           15 
 2934000   0.77638773   -4.7208795     1586.247  0.045053596  0.044968249            7 
 2935000   0.79158473   -4.6989326    1595.5117  0.045301298  0.044958352            7 
 2936000   0.76713534   -4.7301579    1587.9543  0.045071363  0.044948349            4 
 2937000    0.7816194   -4.7212309    1592.6262  0.045188578  0.044938346            6 
 2938000   0.77658342   -4.7279859    1591.4808  0.045140708  0.044928361            4 
 2939000   0.76240822   -4.7194883    1587.7037   0.04501825  0.044918318            5 
 2940000   0.77036441   -4.7044409     1591.865  0.045120891  0.044908242            6 
 2941000     0.774903   -4.6995687     1589.468  0.045037629  0.044898313            8 
 2942000   0.78809574   -4.7213557    1591.7515  0.045087001  0.044888374            5 
 2943000   0.77927202   -4.7228103    1588.3027  0.044974026  0.044878403            3 
 2944000   0.77331094   -4.7034585    1594.3245  0.045129202  0.044868383            6 
 2945000   0.78079205   -4.7093442    1594.1995  0.045110343  0.044858402            3 
 2946000   0.77729697   -4.7189442    1597.9242  0.045200391  0.044848477            6 
 2947000   0.75922138   -4.7119092    1590.9573  0.044988046  0.044838504            3 
 2948000   0.76202786   -4.7209106    1588.9813  0.044916928  0.044828411            4 
 2949000   0.80095493   -4.7171627    1595.0494  0.045073171  0.044818407            3 
 2950000   0.77107616   -4.7081685    1592.2427  0.044978606  0.044808375            3 
 2951000   0.77984447   -4.7176757    1594.2432  0.045019857  0.044798375            8 
 2952000   0.76442579   -4.6769395    1597.0572  0.045084046  0.044788395            4 
 2953000   0.79207328   -4.7156015    1592.9154  0.044951897  0.044778411            2 
 2954000    0.7751762   -4.7208387    1593.6561  0.044957575  0.044768351           12 
 2955000   0.78130842   -4.7180511    1596.8745  0.045033122  0.044758304            7 
 2956000   0.77493555   -4.7194503    1594.1072  0.044939874  0.044748292            4 
 2957000   0.78265304   -4.6963449    1598.2175  0.045040511  0.044738278            5 
 2958000   0.76496645   -4.7154371     1589.884  0.044790512  0.044728196            5 
 2959000   0.78775362   -4.7484877    1591.3125  0.044815606  0.044718065            3 
 2960000   0.77910549   -4.7225508     1596.597  0.044949239  0.044708054            4 
 2961000    0.7945816   -4.7309901    1595.3501  0.044898966   0.04469811            8 
 2962000   0.76609803    -4.735534    1594.5997  0.044862696  0.044688168            6 
 2963000   0.76917708   -4.7357487    1595.7878  0.044880972  0.044678133            7 
 2964000   0.76753796   -4.6973081    1601.6253   0.04502995  0.044668251            8 
 2965000    0.7855081   -4.7326365    1594.8094  0.044823198   0.04465833            4 
 2966000   0.77381217   -4.7083767    1600.1458  0.044958018  0.044648488            3 
 2967000   0.76713746   -4.7158003    1592.6359  0.044731938  0.044638524            5 
 2968000   0.76269427   -4.7076329    1592.9897  0.044726799  0.044628469            8 
 2969000   0.76848888   -4.7085477    1597.0807   0.04482656  0.044618521            8 
 2970000   0.80491962   -4.7136069    1598.0122  0.044837603  0.044608617            6 
 2971000   0.78341364   -4.6741771    1599.2907  0.044858373  0.044598733            6 
 2972000   0.77690536   -4.7318219    1596.8212  0.044774036  0.044588777            3 
 2973000   0.76645093   -4.6839173    1600.8441  0.044871737   0.04457873            9 
 2974000   0.75928403   -4.7182764    1594.9668  0.044691964  0.044568746            6 
 2975000   0.78757441   -4.7282052    1596.8213  0.044728887  0.044558671            7 
 2976000   0.79700662   -4.7298444    1600.9411   0.04482922  0.044548709            3 
 2977000   0.78682231   -4.7434342     1600.147  0.044791932  0.044538727            6 
 2978000   0.77596237   -4.7094954    1599.1097  0.044747864  0.044528686           15 
 2979000   0.78553778   -4.7166793    1600.5887  0.044774216  0.044518764            7 
 2980000   0.78317008    -4.716515    1599.2551  0.044721898  0.044508815            9 
 2981000    0.7674324   -4.7188089    1598.5184  0.044686301  0.044498785           12 
 2982000    0.8026946   -4.6936271     1598.523  0.044671444  0.044488769            7 
 2983000    0.7857815   -4.7273466    1598.7538  0.044662917   0.04447866           11 
 2984000   0.77052269   -4.7207757    1600.8008  0.044705115  0.044468522           20 
 2985000   0.77223125   -4.7247594    1599.0151  0.044640288  0.044458311            5 
 2986000   0.80525853   -4.7344106    1598.6783  0.044615938   0.04444821            8 
 2987000   0.77453323   -4.7192645    1594.7596  0.044491676  0.044438141            5 
 2988000   0.77542467   -4.7023166    1602.4563  0.044691439  0.044428007            4 
 2989000   0.76989593   -4.7076523    1604.2592  0.044726754  0.044417932            3 
 2990000   0.77546749   -4.7141449    1599.5419   0.04458032  0.044407803            6 
 2991000    0.7619576   -4.7167089    1593.3939  0.044394124  0.044397704            7 
 2992000   0.77807599   -4.7292452    1597.8572  0.044503598  0.044387544            7 
 2993000   0.75718532   -4.7184166    1594.8342  0.044404561  0.044377402           10 
 2994000   0.77605577   -4.7128637    1594.2324  0.044372979  0.044367338           12 
 2995000   0.77099547   -4.7249315    1598.9712  0.044490018  0.044357212            5 
 2996000   0.78033625   -4.7297724     1602.439  0.044571622  0.044347237            5 
 2997000   0.77370624   -4.7188641    1605.3394  0.044637399  0.044337277            7 
 2998000   0.77554287   -4.7526853    1601.4232  0.044513652  0.044327246            6 
 2999000   0.76128193   -4.6985673    1601.8799    0.0445115  0.044317105            8 
 3000000   0.77069174   -4.7239047    1600.3447   0.04445402    0.0443071            7 
 3001000   0.76076853   -4.7294143    1600.3308  0.044438821   0.04429709            8 
 3002000   0.78366827    -4.753201    1596.3854  0.044314497  0.044286944            8 
 3003000   0.77100906   -4.7381914    1601.7459  0.044448493  0.044276802            4 
 3004000   0.78441777   -4.7277639    1599.5922  0.044373951  0.044266756            4 
 3005000   0.77404473   -4.7432655    1606.1012  0.044539688  0.044256747            4 
 3006000   0.79475039   -4.7244244    1600.4254  0.044367525  0.044246794            3 
 3007000   0.77148238   -4.7045012    1611.6395  0.044663548  0.044236845            6 
 3008000   0.75237328    -4.728105    1603.7774  0.044430891  0.044226922            7 
 3009000   0.76886698   -4.7238292    1608.7455  0.044553713  0.044216962            7 
 3010000   0.76680337   -4.7371226    1605.8369  0.044458385  0.044206927           11 
 3011000   0.77008258   -4.7318231    1608.6264  0.044520823  0.044196951            5 
 3012000   0.77727881   -4.7502186    1598.3233  0.044220986  0.044186937            5 
 3013000   0.77401856   -4.7392956    1606.6764  0.044437337  0.044176858            9 
 3014000   0.76123238   -4.7400125    1605.9374  0.044402161  0.044166851            5 
 3015000   0.77380851   -4.7348779    1606.2827   0.04439698  0.044156805            7 
 3016000   0.76128031   -4.7454567    1609.3034  0.044465721  0.044146807            5 
 3017000   0.78015427   -4.7456632    1606.9733  0.044386622  0.044136733            3 
 3018000    0.7731641   -4.7476136     1602.902  0.044259499  0.044126611            8 
 3019000   0.77475705   -4.7511448    1603.1472  0.044251606  0.044116556            8 
 3020000   0.75989968   -4.7377448    1603.4164  0.044244382  0.044106481            8 
 3021000   0.76557158   -4.7369745     1607.721  0.044348476  0.044096378            8 
 3022000   0.76675568   -4.7220595    1603.1196  0.044206916  0.044086343            4 
 3023000   0.75789439     -4.74802    1607.3031  0.044307617  0.044076193            4 
 3024000   0.75954378   -4.7232639    1607.4345  0.044296586  0.044066221            7 
 3025000   0.77085952   -4.7382553    1601.6443  0.044122432  0.044056134            3 
 3026000   0.76625506   -4.7529545    1603.5879  0.044161376  0.044046039           11 
 3027000   0.75889623     -4.74323    1613.0693   0.04440781  0.044036065            6 
 3028000   0.78074533   -4.7382481    1607.8499  0.044249501  0.044026126           16 
 3029000    0.7698075   -4.7447775    1603.0315  0.044102329  0.044016069            4 
 3030000   0.75381644   -4.7604387    1608.5118  0.044238498  0.044006083            3 
 3031000   0.76666682   -4.7211606    1613.9592  0.044373672    0.0439961            4 
 3032000   0.77084019   -4.7595635    1610.0161  0.044250662  0.043986147            8 
 3033000   0.74993734   -4.7502875    1608.3078  0.044189137  0.043976186            4 
 3034000    0.7804757   -4.7344225    1608.9487  0.044192176  0.043966319            7 
 3035000   0.78302232   -4.7421468    1611.3705   0.04424411  0.043956421            9 
 3036000   0.76198296   -4.7660902    1608.7653  0.044158028  0.043946461           11 
 3037000   0.76018571   -4.7333019    1608.9393  0.044148264  0.043936469           15 
 3038000   0.77470883   -4.7465388    1608.2689  0.044115342  0.043926499            9 
 3039000   0.76832083   -4.7180848    1613.9999  0.044257978  0.043916709            8 
 3040000   0.77246935   -4.7570629    1610.1735  0.044138527   0.04390686            7 
 3041000    0.7525244   -4.7414844     1612.808  0.044196207  0.043897008            6 
 3042000   0.78050757    -4.742634    1611.9616  0.044158492  0.043887179            7 
 3043000   0.76652837   -4.7381272    1615.2152  0.044233082  0.043877474            9 
 3044000   0.76076692   -4.7307567    1611.2353  0.044109596  0.043867676            5 
 3045000   0.75981033   -4.7543378    1606.9924  0.043978992  0.043857939            6 
 3046000    0.7712397   -4.7366154    1615.2148  0.044189506  0.043848117            5 
 3047000   0.77160793   -4.7403506    1612.0007  0.044087099  0.043838354            6 
 3048000   0.78186692    -4.749035     1619.066  0.044265803   0.04382851            5 
 3049000   0.76203171   -4.7745196    1608.1083  0.043951795  0.043818625            6 
 3050000   0.74798337   -4.7182767    1610.1372  0.043992821  0.043808665            6 
 3051000   0.76762388   -4.7653522    1609.8636  0.043970928   0.04379877            6 
 3052000    0.7428396   -4.7471496     1614.053   0.04407091  0.043788782            4 
 3053000   0.76221174   -4.7331552     1615.029  0.044083116  0.043778892            9 
 3054000   0.76049112   -4.7352212    1616.0276  0.044095929  0.043769024            5 
 3055000    0.7685141   -4.7526526    1616.3144  0.044089317  0.043759195           12 
 3056000   0.75743442   -4.7464538    1616.8763  0.044090213  0.043749398            5 
 3057000   0.77237172   -4.7324041    1616.9772  0.044078541  0.043739643            3 
 3058000   0.76162667   -4.7876198    1610.9802  0.043900704  0.043729801           10 
 3059000   0.75437744     -4.76186    1613.8292  0.043963964  0.043719841            5 
 3060000   0.74481563   -4.7377349    1615.6029    0.0439979  0.043709985            5 
 3061000   0.76122126   -4.7537315    1615.5694  0.043982616  0.043700131            7 
 3062000   0.75199161   -4.7396083    1612.3746  0.043881303  0.043690334            4 
 3063000   0.76069054    -4.744457    1616.2854  0.043973376  0.043680475           14 
 3064000   0.75737168   -4.7631629    1616.2528  0.043958138  0.043670703            7 
 3065000   0.76148461    -4.763021    1616.6868  0.043955595  0.043660972            4 
 3066000   0.76310207    -4.752831    1617.5362  0.043964345  0.043651222           11 
 3067000   0.77994704   -4.7295964    1623.0521  0.044099884  0.043641418            6 
 3068000   0.75573197    -4.759051    1625.6491  0.044156049  0.043631703            4 
 3069000   0.76663896   -4.7718075    1618.4431  0.043945995   0.04362188            5 
 3070000   0.76205659   -4.7425065    1619.8898   0.04397095  0.043612087            7 
 3071000   0.77127683   -4.7587502    1617.1657  0.043882711  0.043602347            6 
 3072000   0.75387352   -4.7577132    1614.9686  0.043808827  0.043592589            6 
 3073000   0.77505673   -4.7298058    1620.9048  0.043955548  0.043582708            7 
 3074000   0.78686668   -4.7253148    1621.4424  0.043955822  0.043572945            5 
 3075000   0.76750598   -4.7510312    1617.8918  0.043845305  0.043563165            8 
 3076000   0.76442105   -4.7660191    1618.9882  0.043860754  0.043553356            9 
 3077000   0.76430704    -4.743904    1621.7189  0.043920457   0.04354356            4 
 3078000   0.75893643   -4.7228583    1620.9928  0.043886528  0.043533769            7 
 3079000   0.77252559   -4.7869876    1622.8241  0.043921837  0.043523972            5 
 3080000   0.77015153   -4.7502414    1620.6595  0.043849012  0.043514181            7 
 3081000   0.74460871    -4.736241    1622.0721  0.043872989  0.043504437            5 
 3082000   0.77128366   -4.7640698    1619.1489  0.043779714  0.043494659            5 
 3083000   0.76384924   -4.7676526    1616.2131  0.043686157  0.043484862            6 
 3084000   0.76691065   -4.7473266     1624.683  0.043900861   0.04347509           10 
 3085000   0.75237784   -4.7765675    1620.9824  0.043786667  0.043465434            9 
 3086000   0.76060243   -4.8112751     1614.901  0.043608258  0.043455638            4 
 3087000   0.76444907   -4.7521153    1621.8375  0.043781381   0.04344585            9 
 3088000   0.77339151      -4.7622    1618.2508  0.043670412   0.04343605            4 
 3089000    0.7528785   -4.7348334    1624.0069  0.043811559  0.043426346            5 
 3090000   0.75985361   -4.7661072     1620.767  0.043710006  0.043416666            8 
 3091000   0.75254011   -4.7669756    1619.4277  0.043659758   0.04340692            8 
 3092000   0.74409019   -4.7569999    1621.5586  0.043703067  0.043397199            4 
 3093000   0.75190955    -4.749269    1623.9038  0.043752123  0.043387462            4 
 3094000   0.73400411   -4.7494871    1627.2903  0.043829193  0.043377818            6 
 3095000   0.74401178   -4.7556005    1629.4109   0.04387213  0.043368219            4 
 3096000   0.76418665   -4.7433562     1627.301  0.043801169  0.043358517            6 
 3097000   0.77698215   -4.7578381    1627.8918  0.043802921  0.043348882            6 
 3098000   0.75259803   -4.7609441    1628.0897  0.043794107  0.043339272           12 
 3099000   0.76466711   -4.7728846    1621.4453  0.043601303  0.043329557            4 
 3100000   0.75451904   -4.7544061     1630.939  0.043842446  0.043319906            6 
 3101000   0.75275826   -4.7655802    1627.9681  0.043748471  0.043310197            5 
 3102000   0.77014333   -4.7575268    1628.9893  0.043761801  0.043300505            4 
 3103000   0.73900882    -4.776194    1624.3306  0.043622587  0.043290862            4 
 3104000   0.75677005   -4.7727605    1623.7582  0.043593164  0.043281138            4 
 3105000   0.76719304   -4.7728169    1622.8922  0.043555883  0.043271394            6 
 3106000   0.73736243   -4.7694849    1622.0413  0.043519031  0.043261694            8 
 3107000   0.75027438   -4.7634602    1630.5632  0.043733592  0.043252042            6 
 3108000   0.73789853   -4.7589953    1624.7964  0.043564898  0.043242366           13 
 3109000   0.76484098   -4.7508974    1628.4813  0.043649653  0.043232743            7 
 3110000   0.75447082   -4.7450679    1623.2263   0.04349481  0.043223011            5 
 3111000    0.7580196    -4.780261    1627.4652  0.043594374  0.043213286            7 
 3112000   0.73826449   -4.7752738    1630.0973  0.043650849  0.043203565            3 
 3113000   0.75627245   -4.7715621    1625.1286  0.043503818  0.043193855           11 
 3114000    0.7454119   -4.7873867    1624.2013  0.043465031  0.043184091            7 
 3115000    0.7501265    -4.767501    1623.9921  0.043445481  0.043174338           11 
 3116000   0.74982643   -4.7674759      1631.27  0.043626178  0.043164668            5 
 3117000   0.77351492    -4.794775    1625.4483  0.043456537     0.043155            6 
 3118000   0.74071448   -4.7795265    1629.8699  0.043560775  0.043145252            4 
 3119000   0.76536441   -4.7564433    1625.4751  0.043429388  0.043135577            5 
 3120000   0.75344574   -4.7725032    1627.2755  0.043463556  0.043125862            6 
 3121000   0.75733782   -4.7541796    1628.1919  0.043474096   0.04311617            6 
 3122000   0.74317674   -4.7802055    1626.0338  0.043402567  0.043106505            4 
 3123000   0.75411172   -4.7891065    1629.6914  0.043486268  0.043096834            6 
 3124000   0.75975281   -4.7525379    1630.7907  0.043501671  0.043087218            5 
 3125000   0.75732851   -4.7646161    1635.4763    0.0436127  0.043077587            9 
 3126000   0.76909476   -4.8040522    1628.7853  0.043420381  0.043067868            6 
 3127000   0.75553367    -4.789526    1625.5811  0.043321103  0.043058111            5 
 3128000   0.74642653   -4.7686589    1628.6248  0.043388343  0.043048469           18 
 3129000   0.76360792   -4.7832973    1629.1912  0.043389559  0.043038762            6 
 3130000   0.74731631   -4.7608784    1633.8149    0.0434988  0.043029099            4 
 3131000   0.73766017   -4.7363996    1631.8558  0.043432764  0.043019504            4 
 3132000   0.75377342   -4.7768765    1630.0728  0.043371455   0.04300989            6 
 3133000   0.73398961   -4.7558849    1630.0462  0.043356905  0.043000174            4 
 3134000   0.75969869    -4.802837     1630.436  0.043353434  0.042990354            7 
 3135000   0.75681189   -4.7846228    1625.7216   0.04321429  0.042980657            5 
 3136000   0.74748134   -4.7802959     1625.035  0.043182264  0.042970923            4 
 3137000   0.75112861   -4.7607299    1633.2643  0.043387109  0.042961288            6 
 3138000   0.75911863   -4.7605165    1631.7893  0.043334112  0.042951634            4 
 3139000    0.7597228   -4.7743384    1630.0715  0.043274702  0.042941947            4 
 3140000   0.73796258    -4.757276    1637.6046  0.043460843  0.042932293            8 
 3141000   0.73926119   -4.7890725    1630.3765  0.043255239  0.042922625           12 
 3142000   0.73609289   -4.8074855    1625.4804  0.043111617  0.042912886            3 
 3143000   0.76073541   -4.7795146    1632.1974  0.043275995  0.042903225            6 
 3144000   0.73943863   -4.7865526    1629.1792   0.04318223  0.042893525           11 
 3145000   0.75131136   -4.7677439    1634.5189  0.043309988  0.042883836            5 
 3146000   0.74304703   -4.7946932      1627.55  0.043111624   0.04287411            5 
 3147000   0.75100146   -4.7649772    1628.7487  0.043129665  0.042864478            8 
 3148000   0.75974369    -4.793189    1634.3786  0.043264998  0.042854865           10 
 3149000   0.75701027   -4.7743748    1631.5967  0.043177641  0.042845159           13 
 3150000   0.74678979   -4.7939331    1634.2807  0.043234938  0.042835468            6 
 3151000   0.75711673   -4.7785727    1633.7743  0.043207827  0.042825804            7 
 3152000   0.76880359   -4.7884939     1630.708   0.04311305  0.042816166            4 
 3153000   0.75405367   -4.7843377    1632.9006  0.043157327  0.042806578            4 
 3154000   0.73628427   -4.8032419     1631.896  0.043117099  0.042796958            5 
 3155000   0.74603146   -4.8199835    1632.7384  0.043125683  0.042787293            5 
 3156000   0.74304646   -4.7660643    1631.3354  0.043074972  0.042777671            6 
 3157000   0.75322012   -4.7950514     1636.847  0.043206815  0.042768131            9 
 3158000   0.73024394   -4.7862018    1638.5841  0.043238972  0.042758535            6 
 3159000   0.74511207   -4.7768414    1637.2496  0.043190082  0.042749004            5 
 3160000    0.7474385   -4.8121626    1634.0216  0.043091286   0.04273954           17 
 3161000    0.7425172   -4.7813649     1639.514   0.04322245  0.042729931           11 
 3162000   0.75153477   -4.7759798    1636.2071  0.043121628  0.042720312            9 
 3163000    0.7544691   -4.8096019     1638.728  0.043174411  0.042710653           10 
 3164000   0.74474585   -4.8090976    1636.5308  0.043102898  0.042701002            6 
 3165000   0.75066301    -4.791234    1637.6261  0.043118117  0.042691352            9 
 3166000   0.73825123   -4.8052106    1635.1339  0.043038901  0.042681704           10 
 3167000   0.74306388   -4.7928912    1638.6332  0.043117388  0.042672137            6 
 3168000   0.75624785   -4.7836793    1637.8412  0.043082944  0.042662608            6 
 3169000    0.7302706   -4.7743745    1638.7043  0.043092046  0.042653042            3 
 3170000   0.74814766   -4.7885059    1636.8011  0.043028421   0.04264347            8 
 3171000   0.74695116   -4.7621927    1641.6411  0.043142045  0.042633859            5 
 3172000   0.75015274   -4.7790013    1643.4433  0.043175791  0.042624271            7 
 3173000   0.75142043    -4.782081    1638.0524  0.043020601  0.042614696            5 
 3174000   0.73717567   -4.7683514    1639.0985  0.043034513  0.042605165            4 
 3175000   0.73765512   -4.8037225    1636.8087  0.042960859  0.042595531            5 
 3176000   0.73953642   -4.7859475    1639.9385  0.043029452  0.042585861            9 
 3177000   0.74072895   -4.8011589    1634.8445  0.042882293  0.042576203            5 
 3178000   0.74005379   -4.7845942    1639.6062  0.042993661  0.042566567            6 
 3179000   0.74160412   -4.7904155    1636.8006  0.042906589  0.042556997            7 
 3180000    0.7331134   -4.7858397    1639.8071  0.042971883  0.042547422            8 
 3181000   0.75834936   -4.7900023    1633.1873  0.042784955  0.042537778            9 
 3182000   0.75211872   -4.7805704     1640.854  0.042972291  0.042528152            9 
 3183000   0.72949336   -4.7890866    1639.4179  0.042921192  0.042518549           13 
 3184000   0.74294397   -4.8132007    1641.6879  0.042967124   0.04250886            5 
 3185000   0.75142065   -4.7621524    1643.1064  0.042990748  0.042499179            8 
 3186000   0.75737193   -4.7912506    1639.5575  0.042884429   0.04248957            7 
 3187000   0.73689087   -4.7864958    1637.1376  0.042807697  0.042479922           12 
 3188000   0.74064937   -4.8135953    1635.2157  0.042744032  0.042470204            3 
 3189000   0.74254414   -4.7890782    1633.4326  0.042684034  0.042460356            6 
 3190000    0.7517779   -4.7672724    1636.3834  0.042747737  0.042450651            4 
 3191000   0.73229559   -4.7977846      1638.33  0.042785177  0.042440903            9 
 3192000      0.74855   -4.7913292    1637.7071  0.042755512  0.042431206            4 
 3193000   0.74282369    -4.802737    1638.7638  0.042769699  0.042421435            8 
 3194000   0.74678793   -4.7936127    1635.3207  0.042666476  0.042411652            9 
 3195000   0.75411337    -4.806778    1638.3626  0.042732462   0.04240192            6 
 3196000     0.745215   -4.8298701    1635.8751  0.042654231  0.042392086            5 
 3197000   0.72982754   -4.7974523    1637.2481  0.042676679  0.042382286            3 
 3198000   0.72991326   -4.8313339    1639.5569  0.042723498  0.042372444            4 
 3199000   0.74371932   -4.7699905    1643.2142  0.042805414  0.042362624            8 
 3200000    0.7358885   -4.7932611    1636.1043  0.042606882  0.042352819            7 
 3201000    0.7417861   -4.7940277     1637.755  0.042636546  0.042343061            7 
 3202000   0.76364828   -4.8057751    1643.8171  0.042780998  0.042333405            4 
 3203000   0.74108298    -4.799896    1640.6574  0.042685435  0.042323697            6 
 3204000    0.7344108   -4.7935031    1635.3008  0.042532791  0.042313919            5 
 3205000   0.74577964   -4.7730929    1641.2524  0.042674269  0.042304142            7 
 3206000   0.74262689   -4.8065468    1635.1833  0.042503205  0.042294344           14 
 3207000   0.72442818   -4.7655373    1638.5191  0.042576632  0.042284554           10 
 3208000   0.74675518   -4.7936159    1640.6253  0.042618072  0.042274823           13 
 3209000   0.73041409   -4.7697433    1637.2032  0.042515925  0.042265028           16 
 3210000   0.74760441   -4.7933857    1635.0018   0.04244553  0.042255176            6 
 3211000    0.7347369   -4.8053406    1641.4977  0.042600895  0.042245318            5 
 3212000   0.71351815   -4.8016072    1640.5879  0.042564027  0.042235549           12 
 3213000   0.75820913   -4.8034211     1640.777  0.042555685  0.042225742           12 
 3214000   0.73749051   -4.8062724    1638.3223  0.042478799  0.042216012           11 
 3215000   0.73589275   -4.7829375    1643.6781  0.042604408  0.042206208            7 
 3216000   0.74421975    -4.772088    1639.4067  0.042480481  0.042196473           10 
 3217000   0.73451173   -4.8297498    1638.3486  0.042439866   0.04218666            6 
 3218000   0.73759559   -4.7991532    1640.4858  0.042482022  0.042176846            6 
 3219000     0.739441   -4.8061092    1642.0502  0.042509325  0.042167002           12 
 3220000   0.74067717   -4.7777088    1642.9471  0.042519334  0.042157245            6 
 3221000   0.74774272   -4.7950876    1640.0742  0.042431808  0.042147605            7 
 3222000    0.7220984    -4.816516    1638.2299  0.042370937  0.042137811            9 
 3223000   0.75515043   -4.7963592     1640.372  0.042413176  0.042128043            9 
 3224000   0.73291873   -4.7951831    1641.5476  0.042430407  0.042118319            5 
 3225000    0.7296658   -4.8051627    1644.2817    0.0424879  0.042108638            9 
 3226000   0.71984275   -4.7951118    1640.2665  0.042371008  0.042098966            7 
 3227000   0.73644699   -4.8165252    1645.3955  0.042490329  0.042089304           10 
 3228000   0.72832805   -4.7704141    1643.6661  0.042432519  0.042079581            7 
 3229000   0.74070594   -4.8072821    1644.5721  0.042442762  0.042069833            5 
 3230000    0.7197246   -4.8041591    1647.2584  0.042498928  0.042060112            8 
 3231000   0.73913404   -4.8056137    1641.3817  0.042334203  0.042050406            9 
 3232000    0.7312086   -4.8094611    1647.0148  0.042466347  0.042040737           15 
 3233000   0.73344691   -4.7958522    1644.4025  0.042385876   0.04203099           10 
 3234000   0.72949138   -4.8260929    1641.7026  0.042303201  0.042021169            6 
 3235000   0.72121943   -4.7765119    1648.6154  0.042468196   0.04201141            7 
 3236000   0.71314608   -4.8055049    1643.8608  0.042332634   0.04200164            9 
 3237000   0.73583247    -4.818757    1642.3383  0.042280359  0.041991843            7 
 3238000   0.73522101   -4.8116307    1640.2386  0.042213264  0.041982078            6 
 3239000   0.73603233   -4.7927639     1643.969  0.042296207   0.04197227            5 
 3240000   0.71495205   -4.8062827    1643.4887    0.0422708  0.041962542           10 
 3241000   0.74326347   -4.7891371    1647.4816  0.042360423  0.041952747            8 
 3242000   0.73419523   -4.7901968    1649.4259  0.042397335  0.041943054            5 
 3243000   0.74087198    -4.775746    1647.9434  0.042346165   0.04193336            7 
 3244000   0.73021203   -4.7800621    1646.7608  0.042302732  0.041923605            6 
 3245000   0.70942563   -4.8271748    1643.0807   0.04219519  0.041913815            7 
 3246000   0.72084276   -4.7866124    1645.7102  0.042249698  0.041904114            8 
 3247000   0.73028781   -4.8042836     1650.302  0.042354532  0.041894391            4 
 3248000   0.74036408    -4.806209     1643.194  0.042159124  0.041884615           10 
 3249000   0.73477088   -4.8080626    1646.6276  0.042234215   0.04187492            5 
 3250000    0.7110717   -4.8357149    1644.1313  0.042157212  0.041865091            4 
 3251000   0.73986339   -4.8165506    1646.9921  0.042217577  0.041855299            5 
 3252000   0.72816812   -4.8341117    1639.1972  0.042004848  0.041845468           10 
 3253000   0.72253953   -4.7925175    1645.1559  0.042144581  0.041835753            6 
 3254000   0.73454421   -4.7958645    1648.6905  0.042222149   0.04182601            5 
 3255000   0.72157477   -4.8040077    1652.2655  0.042300704  0.041816311           15 
 3256000   0.73938285   -4.8125512    1644.5296   0.04208972  0.041806503            4 
 3257000   0.74360791   -4.8214113    1647.5855  0.042154987  0.041796672            7 
 3258000   0.71843021   -4.8307715    1641.2739  0.041980608  0.041786884            4 
 3259000   0.72304372    -4.827982    1642.5022  0.041999135   0.04177705            7 
 3260000    0.7165982   -4.8139074    1646.3616  0.042084909   0.04176727            7 
 3261000   0.73750933   -4.8106849    1646.5001  0.042075542  0.041757473            7 
 3262000   0.73269461   -4.8194172     1642.264  0.041954425  0.041747642            5 
 3263000   0.72342295   -4.7979494    1649.4645  0.042125459  0.041737895            6 
 3264000   0.73068413   -4.7938066    1651.1917   0.04215665  0.041728225            5 
 3265000   0.72258201   -4.8223695    1648.8191  0.042083184  0.041718549            9 
 3266000   0.73409432   -4.7940292    1646.9421  0.042022405  0.041708887           21 
 3267000   0.72114443   -4.8137088    1644.8973  0.041957385  0.041699178            7 
 3268000   0.74050027   -4.8307031    1648.5556   0.04203783  0.041689464            9 
 3269000   0.71688228   -4.8332405    1646.8361  0.041981139  0.041679698            6 
 3270000   0.73339771   -4.8531937    1647.4667  0.041984371  0.041669925            8 
 3271000   0.71552957   -4.8144918    1643.1175  0.041860733  0.041660178           12 
 3272000   0.72659743   -4.8369144    1647.0983  0.041949325  0.041650425            4 
 3273000    0.7304568   -4.8450985     1648.604  0.041974845  0.041640696            9 
 3274000   0.71764991    -4.817157    1645.5015  0.041883057  0.041630915            9 
 3275000   0.72830506   -4.8190358    1649.1904  0.041964132  0.041621064            7 
 3276000   0.71009037   -4.8181309    1645.1289  0.041848007  0.041611263           11 
 3277000   0.74100575   -4.8376229    1646.9325  0.041881103  0.041601441            7 
 3278000   0.73043035   -4.8406703    1649.5312  0.041934391  0.041591719            5 
 3279000    0.7321522   -4.8155091    1649.9293  0.041931719  0.041581926            9 
 3280000   0.72447668   -4.8162348    1647.2424  0.041850671   0.04157219            6 
 3281000   0.71357646   -4.8301454    1649.6002    0.0418978  0.041562349            3 
 3282000   0.72930854   -4.8175687    1645.3243  0.041776465  0.041552538            4 
 3283000    0.7346678   -4.8135009    1646.1838  0.041785558  0.041542697            9 
 3284000   0.72383358   -4.8207832    1646.0689  0.041769918  0.041532838            7 
 3285000   0.72248756   -4.8280471    1643.5819  0.041694113   0.04152292            7 
 3286000   0.71886747   -4.8291423    1647.7997  0.041788388  0.041513096            3 
 3287000   0.71037472   -4.8496273    1647.7722  0.041774977  0.041503237            5 
 3288000   0.71754311    -4.846895    1644.6495  0.041683127  0.041493335            9 
 3289000   0.74264135   -4.8176616    1647.5196  0.041743174   0.04148349           15 
 3290000   0.72328787   -4.8288581    1644.7779  0.041661042  0.041473695            7 
 3291000   0.72721649   -4.8306041    1646.3384  0.041687897   0.04146381            5 
 3292000   0.72351296     -4.81428    1646.4152  0.041677176  0.041453977            5 
 3293000   0.72637952   -4.8454782    1646.6001  0.041669201  0.041444221            5 
 3294000    0.7131283   -4.8263648    1650.4478   0.04175389  0.041434403            6 
 3295000   0.72684261   -4.8496495    1649.4205  0.041715238  0.041424653           13 
 3296000   0.71776971    -4.840892    1646.7603  0.041635324  0.041414821            8 
 3297000   0.71550718   -4.7949537    1658.0895  0.041909047  0.041405083            4 
 3298000   0.72168659   -4.8275335    1653.8388  0.041788932  0.041395364           11 
 3299000   0.72444227   -4.8163925    1649.2231  0.041659671  0.041385585            6 
 3300000   0.73197877   -4.8182144     1651.921  0.041715177  0.041375855            8 
 3301000    0.7326135    -4.835032    1648.1345  0.041606949  0.041366074            7 
 3302000   0.71985179   -4.8396339    1650.1619  0.041645515  0.041356328            9 
 3303000   0.71728968   -4.8298565    1648.1111  0.041581166  0.041346525           15 
 3304000   0.71918259   -4.8277163     1653.066  0.041693554  0.041336764            3 
 3305000   0.72741732   -4.8228277    1648.6069  0.041568506  0.041327057            5 
 3306000   0.72816851   -4.8601039    1650.5523  0.041604968  0.041317286            7 
 3307000   0.72271401   -4.8475603    1647.8268  0.041523707  0.041307528            5 
 3308000    0.7220687    -4.831113    1650.9363  0.041589489  0.041297693            5 
 3309000   0.72014102   -4.8447676    1654.9315  0.041677533  0.041287965           12 
 3310000   0.71054717   -4.8391546    1650.3794  0.041550338  0.041278271            6 
 3311000    0.7245962   -4.8495779    1652.6627  0.041595255  0.041268594            6 
 3312000   0.73423559   -4.8272053    1656.9355  0.041690206  0.041258939           10 
 3313000   0.70493085   -4.8529545    1647.6208  0.041443325  0.041249265            5 
 3314000   0.72793761   -4.8125067    1655.0267  0.041617046  0.041239642            7 
 3315000   0.71942388    -4.842265    1654.1192  0.041581678  0.041230051            9 
 3316000    0.7344795   -4.8338653    1655.7924  0.041611189  0.041220433            5 
 3317000   0.74123225   -4.8246411    1657.5159  0.041641943  0.041210796            6 
 3318000   0.73010664    -4.854212    1649.5351   0.04142895  0.041201101            5 
 3319000    0.7220299   -4.8557195    1655.0568  0.041555107  0.041191358           14 
 3320000   0.72198583    -4.812849    1658.8995  0.041639045  0.041181697           10 
 3321000   0.70553342   -4.8184256    1657.1624  0.041582918  0.041172063           12 
 3322000    0.7204701   -4.8269648     1653.539  0.041479504   0.04116241            5 
 3323000   0.71866472   -4.8465944    1653.1915  0.041458309  0.041152703            4 
 3324000    0.7274841   -4.8334177    1658.2147  0.041571767  0.041143023           26 
 3325000   0.72907428   -4.8330393     1656.548  0.041517493  0.041133318            9 
 3326000   0.72937653   -4.8538683    1655.9286  0.041489491  0.041123656            9 
 3327000   0.72928477   -4.8456935    1648.9087   0.04130119  0.041113953            4 
 3328000   0.69715303   -4.8546403     1651.689  0.041358399  0.041104197            7 
 3329000   0.71050893   -4.8324025    1649.2059  0.041283818  0.041094486            9 
 3330000   0.70653275   -4.8306988    1656.5604  0.041455466  0.041084714            4 
 3331000   0.74312527   -4.8112013    1655.6144  0.041419353  0.041075084            6 
 3332000   0.71468297   -4.8421761    1656.8068  0.041436744  0.041065399           10 
 3333000   0.71283661   -4.8384485     1658.969  0.041478374  0.041055723            6 
 3334000   0.71739158   -4.8596951    1653.5036  0.041329324   0.04104604           15 
 3335000   0.73101131    -4.807845    1660.5886  0.041493968  0.041036419            6 
 3336000   0.71082846   -4.8311576    1658.0984  0.041419324  0.041026839            8 
 3337000   0.72182341   -4.8193644    1656.4009  0.041364522  0.041017184            4 
 3338000   0.72570032   -4.8569014    1658.3927  0.041401855  0.041007553           15 
 3339000   0.71673431   -4.8377204    1657.6597  0.041371163  0.040997945            6 
 3340000   0.72437417   -4.8578523    1658.7173  0.041385162  0.040988302           11 
 3341000   0.71526801     -4.82729    1655.5606  0.041294039  0.040978577            6 
 3342000   0.72160865   -4.8407651    1656.5544  0.041306464  0.040968923            5 
 3343000   0.72920528   -4.8452903    1658.3411  0.041338646  0.040959229           11 
 3344000   0.71764806   -4.8459571    1661.9771  0.041416895  0.040949586            5 
 3345000   0.71942018   -4.8169699    1661.2458  0.041386294  0.040940013            9 
 3346000   0.71945559   -4.8316656    1660.8127  0.041363138  0.040930484            6 
 3347000   0.73035592   -4.8666717    1656.5433  0.041244479  0.040920878            4 
 3348000   0.72360495   -4.8438497    1657.7981  0.041263394  0.040911279           10 
 3349000   0.71181176   -4.8480745    1659.0729  0.041282793  0.040901655            7 
 3350000   0.71557501   -4.8332345    1661.1866   0.04132305  0.040892065            6 
 3351000   0.71554076    -4.823447     1664.772  0.041399879   0.04088259           10 
 3352000   0.72459552    -4.846731    1659.1111  0.041246795  0.040873036            6 
 3353000   0.71140396   -4.8495428    1660.2502  0.041262805  0.040863487           15 
 3354000   0.71277918   -4.8214202    1656.7129  0.041162615   0.04085394            6 
 3355000   0.71087917   -4.8478713    1664.2354  0.041337193  0.040844345            9 
 3356000   0.72446542   -4.8598331      1665.64  0.041359755  0.040834719            3 
 3357000   0.70504529   -4.8634546    1659.4922  0.041194821  0.040825148            9 
 3358000   0.71284874   -4.8558845    1659.7661  0.041189351   0.04081552            6 
 3359000   0.68515594    -4.848174    1663.7098  0.041274929  0.040805959            8 
 3360000   0.71215762   -4.8293926    1661.4873  0.041207523  0.040796445           10 
 3361000   0.70186399   -4.8615658    1662.3085  0.041215622   0.04078694            7 
 3362000   0.70923297   -4.8359116    1661.5203  0.041183826  0.040777461           12 
 3363000   0.71879928   -4.8486823    1661.6789   0.04117551  0.040767948            7 
 3364000   0.71826588   -4.8489067    1662.0486  0.041172429  0.040758404            4 
 3365000   0.71707507   -4.8436293    1662.4072  0.041169074  0.040748902            8 
 3366000   0.72378209     -4.85128    1659.5724  0.041086661  0.040739358            8 
 3367000   0.72004816   -4.8101778    1665.4381  0.041219635  0.040729891            7 
 3368000    0.7091859   -4.8381826    1667.2912  0.041253245  0.040720449            8 
 3369000   0.70269248   -4.8539124    1666.3091  0.041216709   0.04071097           10 
 3370000   0.71676045   -4.8532057    1664.6998  0.041164683  0.040701437            5 
 3371000   0.73122265   -4.8533298    1661.8249  0.041081403  0.040691892            5 
 3372000    0.7148197   -4.8506357    1660.4648  0.041035608  0.040682299           14 
 3373000   0.70865048   -4.8460613     1667.265  0.041191448  0.040672844            6 
 3374000   0.69835377   -4.8410956    1665.0969   0.04112569  0.040663353            4 
 3375000   0.70986728   -4.8607509     1663.245  0.041067778  0.040653848            8 
 3376000   0.71092027   -4.8518356    1662.6939   0.04104201   0.04064435            7 
 3377000   0.73856657   -4.8631143     1665.718  0.041104482  0.040634796           10 
 3378000   0.71769962    -4.852577    1665.7478  0.041093049  0.040625303            6 
 3379000   0.73546552   -4.8553151    1664.2213  0.041043241  0.040615842            9 
 3380000   0.71202354     -4.83854    1662.5503    0.0409899  0.040606368           12 
 3381000   0.70600729    -4.853853    1668.0955   0.04111445   0.04059687            3 
 3382000    0.7186663   -4.8603975    1666.2385  0.041056536  0.040587368            8 
 3383000   0.71260352   -4.8485455    1667.0666  0.041064798  0.040577874            6 
 3384000    0.7002908   -4.8708318    1665.3295  0.041009887  0.040568382            6 
 3385000   0.71785817   -4.8611773    1664.0556  0.040966411  0.040558868            8 
 3386000   0.70256341   -4.8524027     1664.256  0.040959244  0.040549316           13 
 3387000   0.71887807   -4.8704642    1667.5862  0.041029087  0.040539866            5 
 3388000   0.70033706   -4.8828599    1662.7496  0.040898012  0.040530414            7 
 3389000   0.68998164   -4.8426206    1666.7023   0.04098314  0.040520852            9 
 3390000   0.69846845   -4.8583423    1668.9037  0.041025164  0.040511378            4 
 3391000   0.70566535    -4.860472    1664.5454  0.040905963  0.040501861            8 
 3392000   0.72201585   -4.8533539    1666.0253   0.04093026  0.040492312            6 
 3393000   0.71441254   -4.8585383    1665.9143   0.04091547  0.040482738            6 
 3394000   0.71157511   -4.8550766    1664.3374  0.040864698  0.040473203            6 
 3395000   0.69716628   -4.8350788    1667.6935  0.040935038   0.04046366            5 
 3396000   0.71008257   -4.8478895    1668.1265   0.04093361  0.040454144            9 
 3397000   0.72314443   -4.8626815    1667.1096  0.040896614  0.040444596            5 
 3398000   0.70708128   -4.8507622    1665.2225    0.0408383   0.04043508            4 
 3399000   0.71257328   -4.8597936    1666.8216  0.040865489  0.040425617            3 
 3400000   0.71031717   -4.8580941    1662.2526  0.040741485  0.040416058           10 
 3401000   0.69937304   -4.8681001    1664.1274  0.040775443  0.040406583            7 
 3402000   0.70314574   -4.8466024    1664.5333    0.0407734  0.040397054            5 
 3403000   0.70514005   -4.8623276    1666.6935  0.040814319  0.040387532            6 
 3404000    0.7111218   -4.8768853      1668.72   0.04085194  0.040378014           11 
 3405000   0.70990569   -4.8626693     1665.718  0.040766471  0.040368565            7 
 3406000   0.71474031   -4.8750884    1668.1635  0.040814335  0.040359098            8 
 3407000   0.70875253   -4.8483391    1672.0159  0.040896584  0.040349622            6 
 3408000   0.70854609   -4.8471293    1669.9562  0.040834219  0.040340085            2 
 3409000   0.70130902   -4.8680694    1663.6584   0.04066829  0.040330522            5 
 3410000   0.69744372   -4.8680351    1669.6764  0.040803431  0.040320982           17 
 3411000   0.70218214   -4.8704461    1669.3832  0.040784306  0.040311469            9 
 3412000   0.68973581    -4.867109    1666.9935  0.040713987  0.040301869            9 
 3413000   0.70060788   -4.8691301    1667.7964  0.040721662  0.040292281            6 
 3414000   0.72188461   -4.8497496    1669.0497  0.040740325  0.040282748            7 
 3415000    0.7001377   -4.8718478    1668.5726  0.040716754  0.040273168            8 
 3416000   0.69291899   -4.8746993    1666.4329  0.040652636   0.04026355           12 
 3417000   0.69506634   -4.8777176     1659.844   0.04048005  0.040253835            6 
 3418000   0.68761622   -4.8753671    1659.4373  0.040458291  0.040244134            7 
 3419000   0.71280089   -4.8625908    1665.8675  0.040603186  0.040234493            6 
 3420000   0.70344703   -4.8589344    1666.1343  0.040597814  0.040224929           14 
 3421000   0.70552121   -4.8656474       1668.6  0.040646009  0.040215361            8 
 3422000   0.68121111   -4.8696723    1667.1195   0.04059808  0.040205755            9 
 3423000   0.69998513   -4.8680477    1665.6904  0.040551426  0.040196181           21 
 3424000   0.69839203   -4.8829656    1663.8825  0.040495584  0.040186555           11 
 3425000   0.70652202   -4.8527889      1671.25  0.040663016  0.040176978            5 
 3426000   0.71595693   -4.8810503    1665.8063  0.040518737  0.040167449            9 
 3427000   0.69956363   -4.8786095    1662.9964  0.040438586   0.04015786           10 
 3428000   0.68937599   -4.8578376    1670.6036  0.040611717  0.040148347            5 
 3429000   0.69795129   -4.8869711     1661.226  0.040371975  0.040138744           16 
 3430000   0.70746707   -4.8501289    1674.3364  0.040678728   0.04012923            6 
 3431000   0.70988289    -4.877893    1668.6584  0.040528962  0.040119735            8 
 3432000   0.69370679   -4.8711537    1668.6794  0.040517663  0.040110163            7 
 3433000   0.69387183   -4.8720801    1667.7392  0.040483038  0.040100631            5 
 3434000   0.70695884   -4.8811747    1663.9328  0.040378878  0.040091037            9 
 3435000   0.71883058   -4.8942734    1668.6615  0.040481841  0.040081492           10 
 3436000   0.69816263   -4.8983525    1666.2915  0.040412581  0.040071876            7 
 3437000   0.69367819   -4.8589312    1670.7957   0.04051003   0.04006231           14 
 3438000   0.70643944   -4.8756122    1667.1819  0.040410654  0.040052678            8 
 3439000   0.69816004   -4.8921119    1665.5688  0.040359814  0.040043015            7 
 3440000   0.68931543   -4.8683014    1673.4224  0.040538333   0.04003345            2 
 3441000   0.69874949   -4.8779246    1667.5752  0.040384946  0.040023892            6 
 3442000   0.69779394   -4.8554333    1669.1333  0.040410936  0.040014408            9 
 3443000   0.71314413   -4.8738921    1674.5017  0.040529135  0.040004866           11 
 3444000    0.6936846   -4.9010627    1664.8714  0.040284345   0.03999529           15 
 3445000   0.68358469    -4.871757    1669.6182  0.040387474  0.039985755            9 
 3446000   0.71221627   -4.8824405    1673.7586   0.04047588  0.039976208           11 
 3447000   0.70727439   -4.8742785    1672.1873  0.040426151  0.039966783            5 
 3448000   0.69875357   -4.8787627     1665.823  0.040260609  0.039957312           21 
 3449000    0.6894806   -4.8948426    1672.2099  0.040403255   0.03994779           11 
 3450000   0.69795171    -4.870589    1669.1539  0.040317727  0.039938278            5 
 3451000   0.70437038   -4.8837662    1671.9186  0.040372805  0.039928685            8 
 3452000   0.70858354   -4.8782101    1671.1851  0.040343403   0.03991919           15 
 3453000   0.71042476   -4.8510407    1676.1611  0.040451807  0.039909683           18 
 3454000   0.68920672   -4.9010509     1672.634  0.040354998   0.03990014            9 
 3455000    0.6957166   -4.8868488    1669.7723  0.040274295   0.03989054            7 
 3456000   0.71239319   -4.8933021    1667.9563  0.040218854  0.039881032           11 
 3457000   0.69033772   -4.8696811    1670.4291  0.040266828   0.03987153            9 
 3458000   0.70541836   -4.8737516    1672.7889  0.040312053  0.039862008            7 
 3459000   0.69380134   -4.8854287    1672.3416  0.040289621  0.039852563            7 
 3460000   0.69509873    -4.866039     1674.651  0.040333598  0.039843055            4 
 3461000   0.69012166   -4.9008385    1675.9159  0.040352401  0.039833571            7 
 3462000   0.70081245   -4.8605538    1671.0887  0.040224549  0.039824105            4 
 3463000   0.71158577   -4.8685609     1671.857  0.040231422  0.039814653            8 
 3464000   0.70759957    -4.844132    1678.0747  0.040369388  0.039805229            7 
 3465000   0.70594476   -4.8698564    1675.1339  0.040287011  0.039795798            4 
 3466000    0.6970321   -4.8569522    1676.9289  0.040318546  0.039786334            4 
 3467000   0.70856217   -4.8528053    1672.6693  0.040204531  0.039776932            5 
 3468000   0.68667352   -4.8934781    1673.5889  0.040215036  0.039767459            9 
 3469000   0.70887411   -4.8794458    1672.7377  0.040182995  0.039757916           11 
 3470000   0.70171187   -4.8694516    1671.4195  0.040139757  0.039748393           10 
 3471000   0.68759693   -4.9050448    1672.5675  0.040155755  0.039738915            4 
 3472000   0.69321183   -4.8609681    1675.1265  0.040205608  0.039729387           13 
 3473000   0.69671686   -4.8813004    1673.4358  0.040153465  0.039719879            6 
 3474000   0.69716809   -4.8786741    1673.3987  0.040141017  0.039710395            5 
 3475000   0.68870336   -4.8831241    1669.4569  0.040034938   0.03970087            6 
 3476000   0.69573039   -4.8736447    1671.8888  0.040081721  0.039691375            4 
 3477000   0.69136668   -4.8704334    1676.7532  0.040186781  0.039681913            8 
 3478000   0.69351075   -4.8990907    1674.0585   0.04011066  0.039672409            8 
 3479000   0.69236222   -4.8786797    1674.1953  0.040102408  0.039662885           11 
 3480000    0.6940409   -4.8781886    1671.0952  0.040016648  0.039653399            4 
 3481000   0.68966606   -4.9063277    1672.1277  0.040029869  0.039643889           15 
 3482000   0.68931573   -4.8759861    1673.5052   0.04005134  0.039634425            6 
 3483000   0.69860972   -4.8707018    1675.2264  0.040081021  0.039624919            6 
 3484000   0.69583224   -4.8713105    1677.5668  0.040125498  0.039615486            7 
 3485000   0.71370684   -4.9007668    1676.1459  0.040080008  0.039606028            6 
 3486000    0.6909824   -4.8978629    1673.5307  0.040005994  0.039596531            9 
 3487000   0.69172458   -4.8807467    1677.4194  0.040087452  0.039587121            7 
 3488000   0.69783358   -4.8702808    1675.8824  0.040039239  0.039577638           12 
 3489000   0.69878601   -4.8914582    1676.5126  0.040042816   0.03956817            5 
 3490000   0.68830841   -4.8891722    1678.9724  0.040090075   0.03955869            6 
 3491000   0.68703187   -4.8984944    1672.8334  0.039932048  0.039549148           13 
 3492000   0.69904787   -4.9159285    1676.3077  0.040003524  0.039539649            5 
 3493000   0.68841256   -4.8992323    1673.6487  0.039928637  0.039530193           10 
 3494000   0.69657656   -4.8898032    1672.6946  0.039894453   0.03952077            9 
 3495000   0.69533387    -4.896953    1678.3147  0.040017041  0.039511349            9 
 3496000   0.69454791   -4.9036152    1671.5551  0.039844468  0.039501911            5 
 3497000   0.69000318    -4.907978    1675.5028  0.039927148  0.039492433           10 
 3498000   0.70358255   -4.8740626    1678.5526   0.03998839  0.039482957            6 
 3499000   0.69190638   -4.8866407    1678.9193  0.039985694  0.039473564            7 
 3500000   0.69556836    -4.901471    1678.7825  0.039971012  0.039464206            7 
 3501000   0.68957649   -4.9100754    1677.8071  0.039936378  0.039454759           14 
 3502000   0.69869616   -4.9217846    1673.2514  0.039816566  0.039445308            9 
 3503000   0.68482251   -4.9019438    1675.8947  0.039868082  0.039435869            6 
 3504000   0.68456371   -4.9170721    1683.5321  0.040038339  0.039426412            7 
 3505000   0.68845173   -4.8998187    1679.8541  0.039939469  0.039416985            5 
 3506000   0.68369847   -4.9196545    1676.7105  0.039853357  0.039407517            9 
 3507000   0.68436839   -4.9044918    1677.4228   0.03985892  0.039398087           10 
 3508000   0.69339027   -4.9088218    1674.7479  0.039784015  0.039388676            7 
 3509000    0.6845669   -4.9142521    1676.3829  0.039811505  0.039379241            6 
 3510000   0.68783157   -4.8957033     1681.494   0.03992151  0.039369831            6 
 3511000   0.68831252   -4.9149727    1678.4403   0.03983766  0.039360439            9 
 3512000   0.69416601   -4.8897933     1680.464  0.039874336  0.039351063            9 
 3513000   0.68171293   -4.9138772    1676.1791  0.039761342  0.039341625           14 
 3514000   0.68180032   -4.8806487    1680.4255  0.039850727  0.039332184            8 
 3515000   0.67905458   -4.8999695    1679.5913  0.039819613  0.039322781            6 
 3516000   0.69006161   -4.8832783    1675.7497  0.039717238  0.039313359            5 
 3517000   0.70902857   -4.8948528    1681.1533  0.039833981   0.03930399            6 
 3518000   0.68280398   -4.9075193     1681.421  0.039828999  0.039294667           13 
 3519000   0.69515739   -4.8966792    1680.6554   0.03979955  0.039285282           16 
 3520000   0.69227715   -4.9037666    1679.6103  0.039763502  0.039275861            8 
 3521000   0.68401822   -4.8936282    1681.7441  0.039802709  0.039266475            7 
 3522000   0.68375874   -4.9305729    1671.4851  0.039548672   0.03925706            7 
 3523000   0.68933393    -4.894027    1677.7472  0.039685572  0.039247578            6 
 3524000   0.67145069   -4.9118824    1673.2517  0.039568003    0.0392381           13 
 3525000   0.68127314   -4.9353597    1678.2571  0.039675108  0.039228584           11 
 3526000   0.68738563   -4.8921262    1677.6026  0.039648387  0.039219186            8 
 3527000   0.68109394   -4.9040025    1676.3722  0.039608075  0.039209776           10 
 3528000   0.69422924   -4.8894009     1683.038  0.039754299  0.039200402            8 
 3529000    0.6785255   -4.9311315     1673.898  0.039527203  0.039190909            8 
 3530000   0.69212977   -4.9133559    1676.6317  0.039580541  0.039181477            7 
 3531000   0.68893239    -4.876436    1683.3109  0.039726963   0.03917203            8 
 3532000   0.70121655    -4.904562    1681.7467  0.039678811  0.039162586            7 
 3533000   0.68901266   -4.9062932     1672.248  0.039443532   0.03915309           24 
 3534000   0.68944425    -4.895576    1682.5244  0.039674693  0.039143653            4 
 3535000   0.67402606    -4.924337    1679.9096  0.039601829  0.039134183           12 
 3536000   0.68064409      -4.8931    1681.1026  0.039618744  0.039124681           17 
 3537000   0.67482656    -4.887255    1679.4225   0.03956796  0.039115204            7 
 3538000   0.70024624   -4.9123337    1678.5584  0.039536423  0.039105697            5 
 3539000    0.6830652   -4.8933258    1680.2146   0.03956425  0.039096251            9 
 3540000   0.67884802   -4.9064557    1677.2214  0.039482612  0.039086825            9 
 3541000   0.68610255   -4.9234335    1673.4776  0.039383357  0.039077301           11 
 3542000    0.6835366   -4.9336207    1676.8683  0.039452012  0.039067775            6 
 3543000    0.6854368   -4.9065811    1676.9644  0.039443137  0.039058274           15 
 3544000    0.6859759   -4.9021416    1680.1507   0.03950693  0.039048748           15 
 3545000     0.680032   -4.9143144    1678.0805   0.03944712  0.039039281           10 
 3546000   0.68265489   -4.8746377    1683.1238  0.039554518  0.039029818            6 
 3547000   0.68565797   -4.8868104    1679.6232  0.039461121  0.039020341            6 
 3548000   0.67313081   -4.9225015     1677.985  0.039411523   0.03901082           13 
 3549000   0.67690944   -4.9075212    1678.9392  0.039422824  0.039001284            8 
 3550000   0.69495124   -4.9251771    1677.5694  0.039379563  0.038991783           12 
 3551000   0.68624227   -4.9266507    1677.9858  0.039378246  0.038982255           21 
 3552000     0.681263   -4.8953357    1681.3821   0.03944684  0.038972773            9 
 3553000   0.66913646   -4.9048231    1681.2268  0.039432095  0.038963317           15 
 3554000   0.69323158   -4.9026242    1678.4051  0.039354838  0.038953831            5 
 3555000   0.68140653   -4.9119521    1682.6749  0.039443857  0.038944389           10 
 3556000   0.68787921   -4.9123794    1684.4387  0.039474097  0.038934942           10 
 3557000   0.67310756   -4.8999135    1678.7854  0.039330555  0.038925488            7 
 3558000   0.67786808   -4.9374014    1676.9812  0.039277243  0.038916012           13 
 3559000   0.66643666   -4.9004732    1685.8046  0.039472807  0.038906562            8 
 3560000   0.69074707   -4.9180168    1678.6003  0.039293077    0.0388971           14 
 3561000   0.67366536   -4.9045744     1682.112  0.039364223  0.038887657            6 
 3562000   0.68467001   -4.9159243    1681.2034  0.039331916  0.038878239            7 
 3563000   0.67941876   -4.9308129    1677.5447  0.039235306  0.038868718            7 
 3564000   0.67193012   -4.8983843    1683.2304   0.03935724  0.038859243            7 
 3565000   0.66791557   -4.8874972    1680.6283  0.039285373  0.038849787           10 
 3566000   0.67834993     -4.93946    1681.4481  0.039293516  0.038840387            5 
 3567000    0.6851896   -4.9526682    1685.7876  0.039383881  0.038830966            5 
 3568000   0.68522855    -4.914573    1681.6933  0.039277217   0.03882152            7 
 3569000   0.65921592    -4.903784     1679.852   0.03922322  0.038812083           12 
 3570000   0.67605555   -4.9088887    1680.7931  0.039234199  0.038802624            4 
 3571000   0.66794614   -4.9121475    1678.7366  0.039175221  0.038793193           16 
 3572000   0.67577906    -4.903075    1687.3968  0.039366294  0.038783763            8 
 3573000   0.66746352   -4.9192425    1679.3408  0.039167385  0.038774343            4 
 3574000   0.67351358   -4.9704599    1676.7831  0.039096789  0.038764819            7 
 3575000   0.67935548   -4.9379003    1676.3782  0.039076416  0.038755332           11 
 3576000   0.67510221   -4.8982861    1685.6616  0.039281824  0.038745935           11 
 3577000   0.66767139   -4.9075838    1683.4276  0.039218796  0.038736493           15 
 3578000   0.69079216   -4.9296798    1685.1209  0.039247272  0.038727088           11 
 3579000   0.68501566   -4.9203702    1686.3568  0.039265083  0.038717718            6 
 3580000   0.65550865    -4.899611    1686.4316  0.039255856   0.03870837            5 
 3581000    0.6789842   -4.9392953     1681.668   0.03913404  0.038699049           11 
 3582000   0.68882919    -4.896509    1687.8203  0.039266245  0.038689692            4 
 3583000   0.68144714   -4.9356111    1683.5327  0.039155566  0.038680378            7 
 3584000   0.66958402   -4.9237208    1681.6956  0.039101926     0.038671           12 
 3585000   0.66534313   -4.9214126    1682.1487  0.039101552   0.03866159           11 
 3586000   0.69407825   -4.9262228    1682.9258  0.039108705  0.038652217           17 
 3587000   0.67082723     -4.92799    1687.3352  0.039200242  0.038642788            4 
 3588000   0.68661908   -4.9230147    1686.4203  0.039168068  0.038633416            6 
 3589000   0.67563188   -4.9070069     1688.282  0.039200381  0.038624123            6 
 3590000   0.67461523     -4.90524     1680.601  0.039011165  0.038614837            6 
 3591000   0.68611139   -4.9318769    1686.4914  0.039136995  0.038605548            4 
 3592000   0.67490224   -4.9274344    1689.0608  0.039185708  0.038596211            8 
 3593000   0.66860709   -4.9150082    1688.9715  0.039172732  0.038586828            9 
 3594000    0.6870045    -4.929354    1688.1875  0.039143654   0.03857744           12 
 3595000   0.68757347   -4.9309042    1686.1878  0.039086412  0.038568026            6 
 3596000   0.67212013   -4.9369583    1681.4618  0.038966022  0.038558614            7 
 3597000   0.66671353   -4.9255563    1685.4371  0.039047287  0.038549201           10 
 3598000   0.68117852    -4.944451    1683.5259   0.03899217  0.038539824            9 
 3599000   0.68157483   -4.9286155    1685.8797  0.039035836   0.03853043            7 
 3600000   0.68316668   -4.9173802    1683.5839   0.03897185  0.038521032            5 
 3601000    0.6810502    -4.942278      1685.78  0.039011848  0.038511681           21 
 3602000   0.67384018   -4.9447515    1688.6952  0.039068462  0.038502308            9 
 3603000   0.69048179   -4.9227893    1685.3834  0.038981021  0.038492885            6 
 3604000   0.68097913   -4.9085227    1687.1467  0.039010976  0.038483588            5 
 3605000   0.67859103   -4.9273181    1688.6131  0.039034052  0.038474324           12 
 3606000   0.67365653   -4.9292256    1686.8999  0.038983637  0.038465027            4 
 3607000   0.66929962   -4.9464516    1689.0165  0.039021728  0.038455711           13 
 3608000    0.6883548   -4.9388521    1686.4609  0.038951888  0.038446343            3 
 3609000   0.67532125   -4.9432682    1689.8259  0.039018793  0.038436984            5 
 3610000   0.69260231   -4.9390097    1687.0532   0.03894398  0.038427679           13 
 3611000   0.65885682    -4.932895    1687.8608  0.038951833  0.038418321            9 
 3612000     0.670619   -4.9563868    1684.2389  0.038857487  0.038409005            9 
 3613000   0.67623875   -4.9441781     1686.272  0.038893625  0.038399653            7 
 3614000   0.67414316   -4.9345113     1689.425  0.038955566  0.038390335            4 
 3615000   0.68493033   -4.9125907    1691.4784  0.038992126  0.038381086            8 
 3616000   0.68014336   -4.9517858    1691.8296  0.038989437  0.038371744           12 
 3617000   0.67678252   -4.9517391    1685.8264  0.038840347  0.038362414            7 
 3618000   0.66599009   -4.9345448    1685.6278  0.038825037   0.03835302           11 
 3619000   0.66959634   -4.9300868    1686.8633  0.038842759  0.038343707            4 
 3620000   0.67710938   -4.9414211    1688.5343  0.038870495  0.038334378            6 
 3621000   0.68422178   -4.9377047    1686.6391  0.038816145  0.038324974           13 
 3622000   0.68155458   -4.9109577    1686.3647  0.038799115  0.038315665            7 
 3623000   0.66398027   -4.9049256    1690.0139   0.03887234  0.038306376            7 
 3624000   0.65981934   -4.9138396    1694.5701  0.038966383  0.038297079            4 
 3625000   0.67889083   -4.9244222    1690.8269  0.038869585  0.038287848           12 
 3626000   0.67906675   -4.9135031    1690.3036  0.038846837  0.038278561           10 
 3627000   0.66789258    -4.920299    1693.2039  0.038902763   0.03826934           13 
 3628000   0.65812865   -4.9375954    1688.5065  0.038784145  0.038260017           10 
 3629000   0.67425546   -4.9583818    1686.0983  0.038718157  0.038250716           12 
 3630000   0.66891055   -4.9499742    1685.0827  0.038684175  0.038241367            9 
 3631000    0.6585399   -4.9755308     1688.258  0.038746397  0.038231992            9 
 3632000   0.67381626   -4.9169483    1690.1223  0.038778503  0.038222679            9 
 3633000   0.67993305   -4.9307933    1693.0958  0.038836036  0.038213387            7 
 3634000   0.66194709   -4.9667889     1686.567  0.038675634  0.038204064            8 
 3635000   0.68906247   -4.9408737    1692.1235  0.038792376  0.038194769            8 
 3636000   0.67141599   -4.9238048    1688.8445  0.038706557  0.038185522           13 
 3637000   0.68141648   -4.9287373    1687.5579  0.038666436  0.038176193           14 
 3638000   0.65782127   -4.9594535    1687.4545  0.038653438  0.038166753           10 
 3639000   0.68280415   -4.9411557    1693.7191  0.038786277  0.038157411            7 
 3640000   0.67468665   -4.9545186    1686.8862   0.03861919  0.038148116            5 
 3641000   0.66546364   -4.9471842     1691.386  0.038711572  0.038138799           21 
 3642000   0.67006774   -4.9228854      1691.27  0.038698288  0.038129498            8 
 3643000   0.67720158   -4.9657649    1691.9567  0.038703374  0.038120247            7 
 3644000   0.65931179   -4.9180278    1693.4301  0.038726447     0.038111           11 
 3645000   0.65806971   -4.9491618    1691.2602  0.038666214  0.038101733            5 
 3646000   0.67110787   -4.9401887    1688.7992   0.03859936  0.038092442           22 
 3647000   0.65385094   -4.9481686    1691.7988  0.038657316  0.038083122           12 
 3648000   0.66551121   -4.9469954    1688.7321  0.038576665  0.038073863           12 
 3649000   0.66097197   -4.9606489    1685.9445  0.038502432  0.038064552            5 
 3650000   0.68768273   -4.9557353    1689.8172  0.038580302  0.038055249           12 
 3651000    0.6648119    -4.959918    1688.5066  0.038539821  0.038045927           13 
 3652000   0.66908506   -4.9374919    1693.3886  0.038640668  0.038036656            6 
 3653000   0.67059096   -4.9547349    1688.0343  0.038507945  0.038027336            4 
 3654000   0.65212836   -4.9417891    1692.8758  0.038607823  0.038018082           10 
 3655000   0.66011697   -4.9694707    1686.2605  0.038446431  0.038008785            7 
 3656000   0.67525908   -4.9458024    1688.8508  0.038494958  0.037999451            9 
 3657000   0.67472226   -4.9428059    1685.6898  0.038412401  0.037990119           22 
 3658000   0.66584825    -4.956332    1688.3433   0.03846235  0.037980747            6 
 3659000    0.6719086   -4.9265968    1689.5345  0.038478967  0.037971454            6 
 3660000    0.6648109   -4.9274874     1694.225  0.038575249  0.037962229            4 
 3661000   0.66265724    -4.952343    1688.3954  0.038432017  0.037952967            7 
 3662000   0.66521112   -4.9568811    1687.8575  0.038409283  0.037943666           12 
 3663000   0.66582751   -4.9521204    1689.5879  0.038438163  0.037934349           12 
 3664000    0.6761515   -4.9238999    1693.3784  0.038513884  0.037925061            9 
 3665000   0.65406215   -4.9655308    1692.2386  0.038477459  0.037915694            6 
 3666000   0.64953569   -4.9484781     1691.802  0.038457038  0.037906353            7 
 3667000   0.67243439   -4.9663561    1691.5356  0.038440495  0.037897056           14 
 3668000   0.66307111     -4.92264    1691.7825  0.038435625  0.037887723            8 
 3669000   0.64484283   -4.9514536    1686.6889   0.03830946  0.037878392            4 
 3670000   0.66328076    -4.944071    1690.3955  0.038383187  0.037868997            7 
 3671000   0.67116024   -4.9167009    1688.3227  0.038325676  0.037859646            5 
 3672000    0.6619782   -4.9331632    1694.2584  0.038449944  0.037850337           11 
 3673000   0.65776375   -4.9549745    1689.9087   0.03834079  0.037841047            6 
 3674000   0.66621272   -4.9508069    1688.1976  0.038291543  0.037831725           10 
 3675000   0.66690438   -4.9621921    1690.5686   0.03833489   0.03782242           10 
 3676000   0.65491042   -4.9523566     1688.526  0.038278157  0.037813088           15 
 3677000    0.6756767   -4.9393101     1691.022  0.038324314  0.037803818            4 
 3678000   0.66268127   -4.9531968    1693.5914   0.03837211  0.037794526            6 
 3679000   0.65632759   -4.9557367    1691.2717  0.038309135  0.037785211           26 
 3680000   0.65940184   -4.9398804    1689.4258  0.038256924  0.037775883            9 
 3681000   0.66383035   -4.9474692    1688.1624  0.038217931  0.037766567           12 
 3682000   0.66551602   -4.9555723    1697.2719  0.038413722  0.037757248           11 
 3683000   0.65384526   -4.9605929    1692.5459  0.038296359  0.037747931           15 
 3684000   0.65818221     -4.95364    1690.9414  0.038249671  0.037738578            6 
 3685000   0.67698853   -4.9750242    1687.6405  0.038164642  0.037729258            5 
 3686000   0.65541924    -4.959195    1690.2137  0.038212463  0.037719923           12 
 3687000   0.66118233   -4.9630268    1692.4207  0.038251983  0.037710611           10 
 3688000   0.66140558   -4.9656467    1690.8017  0.038205027  0.037701284            6 
 3689000   0.65637844   -4.9436425    1692.7857  0.038239488     0.037692            9 
 3690000   0.64489535   -4.9467166    1693.9326  0.038255027  0.037682697            7 
 3691000   0.66373775   -4.9315392    1693.1761  0.038227582  0.037673371           11 
 3692000   0.64379108   -4.9599755     1690.737  0.038162174  0.037664096            6 
 3693000   0.64365434   -4.9762599    1690.7801  0.038152813  0.037654794            8 
 3694000   0.64430455   -4.9523932    1693.3515  0.038200494  0.037645465           19 
 3695000   0.66716542   -4.9593083    1689.7426  0.038108764  0.037636124           22 
 3696000   0.66242663   -4.9814647     1692.905  0.038169756  0.037626751            6 
 3697000   0.66330338   -4.9608557    1693.0048   0.03816168  0.037617413            6 
 3698000   0.67067067   -4.9656211    1690.8352  0.038102469  0.037608099           12 
 3699000   0.66549169   -4.9628834    1690.3803  0.038081921  0.037598758            7 
 3700000   0.66574536   -4.9682154    1692.9146  0.038128708  0.037589518            4 
 3701000   0.65525023   -4.9645144    1693.4053  0.038129454  0.037580263            9 
 3702000   0.65043471   -4.9712861     1694.738  0.038149154  0.037570953           10 
 3703000   0.66532861   -4.9711177     1691.817  0.038073117  0.037561657           13 
 3704000    0.6615261    -4.958331    1692.0191  0.038067384  0.037552354            6 
 3705000   0.65752154   -4.9577767    1692.2454    0.0380622  0.037543082            5 
 3706000   0.66443853   -4.9640122    1694.6655  0.038106348  0.037533842            4 
 3707000   0.67330156   -4.9739019    1692.8699  0.038055703  0.037524529            8 
 3708000   0.64848116   -4.9710764    1691.1281  0.038006295  0.037515213            7 
 3709000    0.6695473   -4.9624134    1692.6409  0.038030038  0.037505888            7 
 3710000   0.64487269    -4.980322    1697.0274  0.038118314  0.037496626            8 
 3711000   0.65541467   -4.9732645    1691.8549  0.037991891  0.037487408            7 
 3712000   0.65945788   -4.9492619    1697.0315  0.038097869  0.037478171            9 
 3713000   0.65460506   -4.9624161    1692.8088  0.037992835  0.037468891            8 
 3714000   0.66034153     -4.97495    1697.8907  0.038096632  0.037459619           12 
 3715000   0.66311154   -4.9707438    1693.2998  0.037983397  0.037450343           14 
 3716000   0.67337083   -4.9552699    1695.4786  0.038022035  0.037441055            7 
 3717000   0.65532276   -4.9393189    1696.7714  0.038040789  0.037431807            9 
 3718000   0.65487583   -4.9692524    1695.5356   0.03800286  0.037422539           11 
 3719000   0.66568193   -4.9730999    1694.6233    0.0379722  0.037413238           18 
 3720000   0.64994769    -4.944304    1695.6515  0.037985024  0.037403933           11 
 3721000   0.67103618   -4.9545826    1689.1359  0.037828897  0.037394668           11 
 3722000    0.6672354   -4.9688255    1693.8746   0.03792483  0.037385414            7 
 3723000   0.65415906   -4.9704401    1694.0676  0.037918964  0.037376171            6 
 3724000   0.66125351   -4.9809325    1694.4686  0.037917755  0.037366858            7 
 3725000   0.65572666   -4.9755666    1687.1951  0.037744857  0.037357545           10 
 3726000   0.66191179   -4.9707271    1692.9454  0.037863335  0.037348236           11 
 3727000   0.65721613   -4.9650885    1692.9276  0.037852778  0.037338933           14 
 3728000   0.64686552   -4.9611788    1694.2231  0.037871583  0.037329651           16 
 3729000   0.66243049   -4.9665179    1697.3258  0.037930764  0.037320423            5 
 3730000   0.65911454   -4.9692542    1693.0912  0.037825988  0.037311191            4 
 3731000   0.64877435   -4.9712168    1689.8014   0.03774237  0.037301862            5 
 3732000   0.64840121   -4.9611467    1692.4708  0.037791864  0.037292552           13 
 3733000   0.66954349   -4.9931946    1688.2584  0.037687704  0.037283233            9 
 3734000   0.64624108   -4.9624295    1696.2496  0.037855954  0.037273904            7 
 3735000   0.64911401   -4.9428575    1698.3235   0.03789209  0.037264595            8 
 3736000   0.65833416   -5.0105487    1693.3504  0.037771021  0.037255351           18 
 3737000   0.64236195   -4.9578857    1694.7312  0.037791704  0.037246121           16 
 3738000   0.66787152   -4.9706863     1696.589  0.037823011  0.037236859            6 
 3739000   0.64642107   -4.9951378    1696.7456  0.037816386  0.037227567           10 
 3740000   0.66517476   -4.9620335    1700.5746  0.037891591  0.037218317           13 
 3741000   0.66265583    -4.953407    1695.4022  0.037766243  0.037209125           16 
 3742000   0.65751871   -4.9897449    1692.8294  0.037698856  0.037199905            5 
 3743000   0.65046073   -4.9632298    1688.6732  0.037596251  0.037190665            8 
 3744000   0.64617254   -4.9758096    1697.0553  0.037772776  0.037181433            6 
 3745000   0.64612732   -4.9892465    1691.3643  0.037636054   0.03717214            6 
 3746000    0.6429377   -4.9674339    1695.8236  0.037725209  0.037162858           17 
 3747000   0.64150545   -4.9554445    1698.2568  0.037769254  0.037153602            9 
 3748000   0.65962417   -4.9650111    1695.1555  0.037690225  0.037144379            6 
 3749000   0.63590424   -4.9771811    1695.1871  0.037680872  0.037135092            6 
 3750000   0.65294431   -4.9577925    1690.9887  0.037577526  0.037125798           25 
 3751000    0.6541272   -4.9637669     1690.194  0.037549853   0.03711655            7 
 3752000   0.65537211   -4.9882622    1692.2875  0.037586343  0.037107295            8 
 3753000   0.64613447   -5.0052765    1691.3607  0.037555748  0.037097991           11 
 3754000   0.64427349   -4.9993003    1693.3596  0.037590117  0.037088683            6 
 3755000   0.64646677   -4.9706626    1696.0612  0.037640063  0.037079399            7 
 3756000   0.64619674   -4.9777171    1692.4338  0.037549561  0.037070097           27 
 3757000   0.67092632   -5.0050812    1688.8339  0.037459718  0.037060796           11 
 3758000   0.64665461   -4.9806306    1699.1727  0.037679012  0.037051511           26 
 3759000   0.64906883   -4.9634534    1695.9044  0.037596534  0.037042231           11 
 3760000   0.63824305    -4.947375    1697.8361  0.037629346  0.037032939            7 
 3761000   0.66069721   -4.9932058    1692.6965  0.037505463  0.037023612           23 
 3762000   0.65030225   -4.9890069    1689.9526  0.037434712  0.037014253            7 
 3763000   0.66679434   -4.9772932    1693.6504  0.037506652  0.037004937            6 
 3764000   0.65226256   -4.9773699    1694.6692  0.037519244  0.036995622           17 
 3765000    0.6522054    -4.970307    1693.6854  0.037487502  0.036986296           12 
 3766000   0.64735904   -4.9804522    1694.5859  0.037497476  0.036976968           10 
 3767000   0.64792732   -4.9868499    1692.3845  0.037438822  0.036967605           18 
 3768000   0.65442224   -4.9596096    1691.3376  0.037405732  0.036958224           11 
 3769000   0.64461075   -4.9703589     1692.066  0.037411912   0.03694883            5 
 3770000   0.65022187    -4.964295    1696.9392  0.037509708  0.036939515           12 
 3771000   0.63478699   -4.9665012    1695.5045  0.037468057  0.036930193            5 
 3772000      0.65772   -4.9916113    1690.8747   0.03735584  0.036920838           13 
 3773000   0.64058758   -4.9831123    1692.9569  0.037391927  0.036911507            9 
 3774000   0.65768658   -4.9818574    1691.9707  0.037360242  0.036902232           13 
 3775000   0.65225941   -5.0005765    1692.1822  0.037355016  0.036892908           16 
 3776000   0.64650236   -4.9885822    1692.2616  0.037346875  0.036883589           16 
 3777000   0.64783434   -4.9827912    1693.1954  0.037357589  0.036874254            8 
 3778000   0.65588711   -5.0111674    1695.0522  0.037388659   0.03686496           16 
 3779000   0.65706162   -5.0124363    1692.0786  0.037313192  0.036855649           23 
 3780000   0.64919543   -4.9890194    1692.1176  0.037304179  0.036846326           10 
 3781000   0.66117356   -4.9875662    1692.2994   0.03729832  0.036837003            9 
 3782000   0.65228536   -5.0172627    1691.0168  0.037260198  0.036827637           15 
 3783000    0.6526343   -4.9801681    1696.8033  0.037377814  0.036818302           13 
 3784000   0.63352353   -4.9897518    1699.4876  0.037427051  0.036809024            9 
 3785000   0.65231003   -4.9873171    1692.9227  0.037272626  0.036799734           12 
 3786000   0.64821945   -4.9813386    1695.3582  0.037316389  0.036790504           11 
 3787000   0.63852039   -4.9949667     1692.265   0.03723847  0.036781238           14 
 3788000   0.63317649   -5.0187505    1689.2462  0.037162226  0.036771984           17 
 3789000    0.6281137   -4.9937543    1701.1202  0.037413569  0.036762672            4 
 3790000   0.65501095   -4.9982273    1695.1846  0.037273188  0.036753393            9 
 3791000   0.65193291   -5.0069847    1692.1925  0.037197583  0.036744116           10 
 3792000   0.64687774   -4.9880792    1696.5368  0.037283246   0.03673485           11 
 3793000   0.63473846   -4.9935403    1697.4606  0.037293713  0.036725588           13 
 3794000   0.64076845   -4.9928779    1697.7493  0.037290223  0.036716317            8 
 3795000   0.64831182   -5.0259546    1695.6811  0.037234983   0.03670704           13 
 3796000   0.64131334    -4.994868    1695.8845  0.037229638  0.036697734            4 
 3797000   0.63876915    -4.986013    1700.3733   0.03731835  0.036688444            9 
 3798000   0.63969301   -5.0085813    1697.4034  0.037243361  0.036679142           20 
 3799000   0.63597281   -4.9988627    1696.5757  0.037215401  0.036669856            6 
 3800000   0.64243003   -5.0043557    1698.8422  0.037255312  0.036660557           11 
 3801000   0.64571552   -4.9876787    1697.9559  0.037226079  0.036651246           15 
 3802000   0.63467513   -5.0053957    1698.5531  0.037229377  0.036641979            9 
 3803000   0.65424695   -5.0120404    1696.4098  0.037172622  0.036632682           12 
 3804000   0.66010196   -5.0013349    1698.0001  0.037197688  0.036623419            6 
 3805000   0.63995496   -5.0047707    1695.8382  0.037140566  0.036614138            7 
 3806000   0.64185222   -4.9838638    1695.4804  0.037122973  0.036604829            6 
 3807000   0.62880418   -4.9940475     1693.958  0.037079898  0.036595551           13 
 3808000   0.62989571   -5.0026587    1690.9663  0.037004689  0.036586282           11 
 3809000   0.64896854   -5.0039137    1691.0583  0.036996988  0.036577006           12 
 3810000   0.65585337   -5.0019176    1694.3882   0.03706011  0.036567735           12 
 3811000   0.65501648   -4.9899384    1692.1709  0.037001899  0.036558473            9 
 3812000   0.63692327   -4.9818463     1697.255  0.037103336  0.036549202            8 
 3813000   0.64435305   -4.9859995     1698.151  0.037113188  0.036539979            9 
 3814000   0.63519235   -5.0089245    1695.8258  0.037052653  0.036530746            5 
 3815000   0.64694354   -5.0005228    1696.1837  0.037050757  0.036521473            7 
 3816000    0.6256985   -5.0020367    1691.9627   0.03694887  0.036512139           15 
 3817000   0.62683943    -5.006597    1696.2786  0.037033416  0.036502802           15 
 3818000    0.6486377   -4.9852598    1698.0624   0.03706265  0.036493491            6 
 3819000   0.64555903   -4.9837657    1699.1683  0.037077077  0.036484184           12 
 3820000   0.62991349   -4.9853052    1699.8634  0.037082534  0.036474918            6 
 3821000   0.64088787   -5.0062734    1701.3988  0.037106317  0.036465706            5 
 3822000   0.63544451   -5.0012359    1697.8837  0.037019965  0.036456512           13 
 3823000   0.62063098   -4.9875061    1699.3569  0.037042395  0.036447277            7 
 3824000   0.63619804   -5.0102169      1701.63  0.037082244  0.036438101           14 
 3825000   0.64586819   -4.9800479    1701.6703  0.037073427  0.036428909            7 
 3826000   0.64275339   -5.0020183    1696.1351  0.036943175  0.036419709           10 
 3827000   0.62889969   -4.9884514    1703.1927  0.037087203  0.036410509            9 
 3828000   0.63631481   -4.9991726     1695.241  0.036904411  0.036401298            6 
 3829000   0.65366895   -5.0087674    1696.9852  0.036932732  0.036392121            7 
 3830000   0.64144105      -4.9929    1696.1922  0.036905835  0.036382943           10 
 3831000   0.65066634   -4.9910674     1702.508  0.037033585  0.036373746            6 
 3832000   0.64835694   -5.0321751    1695.7509  0.036876976  0.036364542           10 
 3833000   0.63699488   -5.0187173    1698.2271  0.036921191  0.036355292            5 
 3834000   0.64759264   -5.0246714    1696.5672  0.036875482  0.036346061            5 
 3835000   0.62641881   -5.0211732    1699.3422  0.036926167  0.036336759           14 
 3836000   0.63666161   -4.9998288    1696.3025  0.036850506   0.03632757            9 
 3837000   0.63290605   -5.0041296     1702.344  0.036972113  0.036318358            6 
 3838000   0.63458168   -5.0122358    1695.8072  0.036820549  0.036309151           10 
 3839000   0.64613972   -4.9789207    1702.6067  0.036958555  0.036299992           29 
 3840000   0.64144515   -5.0055154    1697.0384  0.036828089  0.036290769            8 
 3841000   0.64655551   -4.9987179    1701.1117  0.036906875  0.036281559            7 
 3842000   0.62451031   -5.0309266    1698.8991  0.036849279  0.036272334            5 
 3843000   0.62517193    -5.015031    1692.9212  0.036710062  0.036263112            7 
 3844000   0.64759777   -5.0012855    1698.0988  0.036812756  0.036253906           16 
 3845000   0.62460462   -5.0177368    1701.0874  0.036867954  0.036244689           14 
 3846000   0.63788134    -5.000734    1697.8972  0.036789244    0.0362355           11 
 3847000   0.63586486   -5.0156086    1698.1264  0.036784647  0.036226323            9 
 3848000   0.63793533   -5.0022234    1700.3838  0.036823973  0.036217174           11 
 3849000   0.63504082   -5.0042769    1700.1403  0.036809134  0.036207995            7 
 3850000   0.62961861   -5.0139386    1699.8436  0.036793152  0.036198808            4 
 3851000    0.6297788   -5.0180587    1703.1479    0.0368551  0.036189633            7 
 3852000   0.63501638   -4.9919396    1699.2414   0.03676102  0.036180501            7 
 3853000   0.63851148   -5.0365577     1697.945   0.03672344  0.036171399           16 
 3854000   0.63890404   -5.0240791    1698.6874  0.036729964  0.036162251           21 
 3855000   0.63339784   -5.0084099    1700.5678  0.036761084  0.036153152            6 
 3856000   0.65442836   -5.0143244    1701.1997  0.036765208  0.036144035           10 
 3857000   0.63074657   -5.0259137    1700.2357  0.036734848  0.036134894            7 
 3858000   0.63989971   -5.0250103     1702.631  0.036777065   0.03612571            8 
 3859000   0.64938218   -5.0263617    1698.0666  0.036668968  0.036116565           10 
 3860000   0.63231831   -5.0170262    1702.4126  0.036753294  0.036107426           11 
 3861000   0.62706566   -5.0002415    1706.6464  0.036835156  0.036098346            7 
 3862000   0.63591496   -5.0136356    1696.3544  0.036603539  0.036089199            9 
 3863000   0.63862401   -5.0124349    1702.8086  0.036733294  0.036080022           17 
 3864000   0.64253186   -5.0318401    1699.9644  0.036662449   0.03607086            8 
 3865000   0.63789561   -4.9981255    1700.3315  0.036660877  0.036061728            7 
 3866000    0.6288473   -5.0138856    1701.1295  0.036668596  0.036052602            8 
 3867000   0.62318937   -4.9927357    1701.1407  0.036659355   0.03604349            7 
 3868000   0.63917349    -5.011075    1699.1683  0.036607383  0.036034393           14 
 3869000   0.61932229   -5.0007502    1701.7699  0.036653957  0.036025256           12 
 3870000   0.62974866   -5.0398417    1699.9446  0.036605181  0.036016134           21 
 3871000   0.64387301   -5.0198597    1697.9227  0.036552198  0.036007039            6 
 3872000   0.65210708   -5.0290609    1700.5768  0.036599879  0.035997969           24 
 3873000   0.61927516   -5.0221186    1695.8044  0.036487743   0.03598878           15 
 3874000   0.63537972   -5.0239171    1702.6124  0.036624773  0.035979676            6 
 3875000   0.63683823   -5.0461059      1705.84   0.03668473  0.035970584           11 
 3876000   0.64028605   -5.0248177    1699.6675   0.03654256  0.035961514           14 
 3877000    0.6378388   -5.0244354    1700.8526  0.036558607  0.035952428           19 
 3878000   0.62768966   -5.0265821     1705.122  0.036640922  0.035943305           25 
 3879000   0.63686319   -5.0058781    1705.4192  0.036637863  0.035934231           12 
 3880000   0.62416441   -5.0154736    1703.7166  0.036591852  0.035925117           15 
 3881000    0.6282041   -5.0177925    1704.3884  0.036596849  0.035916042            7 
 3882000   0.64573943   -5.0318823    1704.9725  0.036599958  0.035906966           11 
 3883000   0.64318858   -5.0192527    1702.7485  0.036542804  0.035897918           25 
 3884000   0.63659946    -5.034656    1703.4036  0.036547451  0.035888846           17 
 3885000   0.62294485   -5.0282251    1700.3557  0.036472667  0.035879745            7 
 3886000   0.62794604   -5.0258011    1704.1146  0.036543889  0.035870631           19 
 3887000   0.62532076   -5.0372304    1702.5407  0.036500744  0.035861521           12 
 3888000   0.63606382   -5.0258761    1705.3496   0.03655156  0.035852452           10 
 3889000   0.62121792    -5.044922    1701.2727  0.036454802  0.035843396           12 
 3890000   0.64170972   -5.0300526     1704.486  0.036514268  0.035834355            3 
 3891000   0.63899507   -5.0253182    1705.2569  0.036521394  0.035825301            9 
 3892000   0.63550825   -5.0161797    1706.4562  0.036537687  0.035816278           11 
 3893000   0.63231047   -5.0161673    1708.9876  0.036582489  0.035807265           10 
 3894000   0.63093413    -5.017239    1711.4352  0.036625476  0.035798317           12 
 3895000   0.62698371   -5.0074163     1709.033  0.036564677  0.035789331           16 
 3896000   0.62844444   -5.0111327    1708.9714  0.036553974  0.035780354           10 
 3897000   0.64283452   -5.0356923    1705.1673  0.036463247  0.035771372           14 
 3898000   0.63436198   -5.0551205    1700.9688  0.036364135  0.035762364           11 
 3899000   0.62870743    -5.025268    1707.8947  0.036502836  0.035753336           14 
 3900000   0.64076765   -5.0558915    1704.8185  0.036427746  0.035744349           11 
 3901000   0.62779277   -5.0237354    1707.5867  0.036477542  0.035735352           11 
 3902000   0.62916712   -5.0239169    1705.4849  0.036423305  0.035726382            8 
 3903000   0.63320716   -5.0485264    1703.2767  0.036366827  0.035717388           16 
 3904000   0.63502409   -5.0444929    1702.1347  0.036333136  0.035708337            9 
 3905000   0.62069571   -5.0374911    1706.7906  0.036423189  0.035699304            6 
 3906000   0.62109943   -5.0166248    1708.7614  0.036455909  0.035690343            5 
 3907000   0.62805388   -5.0339699    1707.7328   0.03642464  0.035681398            3 
 3908000   0.61611823   -5.0203585    1710.6037  0.036476537  0.035672416           10 
 3909000   0.62415353   -5.0230829    1706.0567  0.036370271   0.03566353            6 
 3910000   0.64335004   -5.0233461    1706.7393  0.036375517  0.035654588           12 
 3911000   0.61292619   -5.0130941    1707.7596  0.036387957   0.03564563            7 
 3912000   0.62417876    -5.021334     1711.549  0.036459378  0.035636721           12 
 3913000   0.61451221   -5.0495941    1704.9646  0.036309836    0.0356278           13 
 3914000   0.62672891   -5.0368001     1706.196  0.036326775  0.035618805           16 
 3915000   0.63649023   -5.0577284    1708.6344    0.0363694  0.035609844           15 
 3916000   0.61971641   -5.0358012    1708.9027  0.036365822  0.035600906            6 
 3917000   0.62939265   -5.0525207    1708.2805  0.036343302  0.035591929            9 
 3918000   0.62017978   -5.0171915    1706.8708  0.036304041  0.035583001           14 
 3919000   0.62321601   -5.0287366    1708.4613  0.036328597  0.035574165           29 
 3920000    0.6226347   -5.0363767    1710.4897  0.036362451  0.035565288            9 
 3921000   0.63035311   -5.0369715    1709.8071  0.036338671  0.035556404            9 
 3922000   0.63273633   -5.0450697    1709.0838  0.036314037  0.035547516            9 
 3923000   0.60827305   -5.0480105    1708.7863  0.036298461  0.035538662           12 
 3924000   0.61749345   -5.0379791    1705.9868  0.036229757  0.035529756           18 
 3925000   0.63047167   -5.0580623    1710.4888   0.03631611  0.035520892            6 
 3926000   0.62122352   -5.0703676    1708.2819  0.036260016  0.035512002            7 
 3927000   0.64001979   -5.0612827    1711.9071  0.036327712  0.035503147            8 
 3928000    0.6312452   -5.0551404    1705.8511  0.036189984  0.035494266           11 
 3929000   0.62467345   -5.0717867    1707.1858  0.036209081  0.035485406           26 
 3930000   0.61943154   -5.0319139    1709.7209  0.036253624  0.035476549           11 
 3931000   0.63893863   -5.0536232    1706.9054  0.036184715  0.035467729            9 
 3932000   0.63960984   -5.0295905     1714.576   0.03633808  0.035458949           11 
 3933000    0.6298935    -5.043923    1713.4091  0.036304117  0.035450161            6 
 3934000   0.61817614    -5.056092    1711.9204  0.036263353  0.035441309            9 
 3935000   0.62796627   -5.0514533    1708.5071  0.036181854   0.03543245           16 
 3936000   0.63128695   -5.0305237    1712.8271  0.036264124  0.035423655           12 
 3937000   0.60601567    -5.050379      1705.16  0.036092625  0.035414868           11 
 3938000   0.62011641   -5.0482192    1715.7643  0.036307862  0.035406056            9 
 3939000    0.6198199   -5.0334643    1715.9862  0.036303337  0.035397264            8 
 3940000   0.61995693   -5.0323624    1708.7232  0.036140507  0.035388445           11 
 3941000   0.61871179   -5.0508933    1708.6952  0.036130746  0.035379585           13 
 3942000   0.62614437     -5.04753    1710.5383  0.036160541  0.035370716           11 
 3943000   0.61106025   -5.0486867    1713.3673  0.036211162  0.035361897           19 
 3944000   0.60235756   -5.0535379    1711.2953  0.036158201  0.035353077            8 
 3945000   0.62337749   -5.0464345    1711.6938  0.036157453  0.035344286           12 
 3946000     0.616877    -5.057822    1710.5802  0.036124771  0.035335498           10 
 3947000   0.62819372   -5.0564498    1713.2881  0.036172791   0.03532676            5 
 3948000   0.63180648   -5.0209452    1712.7994  0.036153314  0.035317989           10 
 3949000   0.62928292   -5.0583139    1711.7839   0.03612273  0.035309241           19 
 3950000   0.60854911   -5.0187581    1717.1291  0.036226353  0.035300484            9 
 3951000   0.61821533   -5.0423469    1710.6754  0.036081065  0.035291701            9 
 3952000   0.62300193   -5.0525915    1712.9057  0.036118962  0.035282967            8 
 3953000   0.62339376   -5.0432134    1714.1759  0.036136602  0.035274176           12 
 3954000    0.6252027   -5.0552547    1712.9528  0.036101687  0.035265356            9 
 3955000   0.62125815   -5.0300742    1714.6711  0.036128764   0.03525657            7 
 3956000   0.62041062   -5.0599044    1710.4077  0.036029822  0.035247784            5 
 3957000   0.62336844   -5.0510274    1710.4565  0.036021745  0.035238967            6 
 3958000   0.62306565   -5.0523697    1710.9998  0.036024082  0.035230149            6 
 3959000   0.61276955   -5.0365812    1714.9647  0.036098441  0.035221283            9 
 3960000   0.62801896   -5.0327711    1714.4996  0.036079537  0.035212445           11 
 3961000   0.61263171   -5.0292433    1715.4815  0.036091086  0.035203611           12 
 3962000   0.62950602   -5.0684734    1713.8387  0.036047423  0.035194761            9 
 3963000   0.61775958    -5.052933    1712.1056  0.036001885  0.035185926           18 
 3964000   0.62884719   -5.0456249    1716.2026  0.036078931  0.035177094           24 
 3965000   0.62774684   -5.0490485    1713.3555  0.036009993  0.035168284           16 
 3966000   0.61678094   -5.0509734    1707.3922  0.035875614  0.035159462           19 
 3967000   0.61526486   -5.0582195    1707.6368  0.035871707  0.035150663           10 
 3968000   0.63081773   -5.0386439    1712.7171  0.035969361  0.035141875            8 
 3969000   0.62102523   -5.0718774    1712.9895  0.035966018  0.035133076           15 
 3970000   0.60337594   -5.0498261    1713.2395  0.035962207  0.035124275           11 
 3971000   0.61285031   -5.0610343    1715.6373  0.036003468  0.035115461           10 
 3972000   0.64184381   -5.0499482    1714.6917  0.035974566  0.035106711            6 
 3973000   0.62095698   -5.0420839    1716.3891  0.036001114  0.035097962            9 
 3974000   0.61456954   -5.0673758    1718.9089  0.036044894  0.035089198           11 
 3975000   0.61157765   -5.0796517    1715.2372   0.03595885  0.035080446            8 
 3976000   0.62286771   -5.0847962    1708.5127  0.035808868  0.035071646           21 
 3977000   0.62083953    -5.069729    1710.7061  0.035845824  0.035062828            6 
 3978000   0.60373201   -5.0568231    1710.9642   0.03584222  0.035054066           12 
 3979000    0.6104237   -5.0611055    1712.7192  0.035869967  0.035045319            9 
 3980000   0.62091446   -5.0538873    1713.9162  0.035886018  0.035036577           10 
 3981000   0.60654794   -5.0573934     1714.301  0.035885059  0.035027891           18 
 3982000   0.62143224   -5.0386593     1714.969  0.035890026  0.035019199           10 
 3983000   0.62126614   -5.0539444    1715.9183  0.035900877  0.035010527            9 
 3984000   0.62531902   -5.0380142    1717.5377  0.035925739  0.035001837           25 
 3985000   0.62413461   -5.0351659    1715.5782  0.035875746  0.034993156           10 
 3986000   0.60540767   -5.0581559     1714.508  0.035844372  0.034984425           27 
 3987000   0.62342697   -5.0663611    1712.2271  0.035787707  0.034975675            7 
 3988000    0.6187155   -5.0636307    1716.6039  0.035870192  0.034966956            9 
 3989000   0.62529245   -5.0511556    1710.0994  0.035725315  0.034958264            8 
 3990000   0.60112825   -5.0459449    1712.7497  0.035771714  0.034949585            7 
 3991000   0.61800996   -5.0438418    1716.9425  0.035850298  0.034940891           10 
 3992000   0.60635251   -5.0386132    1715.5389  0.035812018  0.034932186           11 
 3993000   0.60289802   -5.0318882    1713.4252  0.035758937  0.034923488           11 
 3994000   0.60636994   -5.0428512    1711.3224  0.035706109  0.034914779           10 
 3995000   0.61769872    -5.078834    1711.3627  0.035698012  0.034906019           31 
 3996000   0.61138771   -5.0514599    1716.1186  0.035788258  0.034897314           12 
 3997000   0.61843592   -5.0494267    1714.2681  0.035740724  0.034888626           14 
 3998000   0.60743823   -5.0405422     1716.508  0.035778472  0.034879967            9 
 3999000   0.61555023   -5.0565955     1710.695  0.035648391  0.034871273           22 
 4000000   0.61445533   -5.0468674    1714.1922  0.035712337  0.034862587           12 
 4001000   0.62588461    -5.043051    1717.1608  0.035765243    0.0348539           18 
 4002000   0.63155266   -5.0637817    1716.1441  0.035735134  0.034845156            6 
 4003000   0.60769924   -5.0912127    1713.6385  0.035674046  0.034836392           12 
 4004000   0.61275572   -5.0755198    1710.0497  0.035590446  0.034827641           10 
 4005000   0.61149514   -5.0785308    1714.9766  0.035684074  0.034818879            8 
 4006000   0.60720951    -5.094763    1710.2025  0.035575856  0.034810089            8 
 4007000   0.60768032   -5.0774627    1715.5377  0.035677933  0.034801321            6 
 4008000   0.61329364   -5.0588852     1714.626  0.035650074  0.034792583           10 
 4009000   0.60310523   -5.0644427    1717.6126  0.035703264   0.03478389           15 
 4010000   0.59559684   -5.0549302    1719.5533  0.035734691  0.034775188            6 
 4011000   0.60910618   -5.0669261    1712.4549  0.035578302  0.034766469           11 
 4012000   0.61826997   -5.0793167    1716.9165  0.035662107  0.034757743           16 
 4013000   0.61658218   -5.0665865    1711.8678  0.035548381  0.034748981           20 
 4014000   0.61028107   -5.0950667    1712.1679  0.035545755  0.034740194           24 
 4015000   0.59692947   -5.0700569    1716.8187  0.035633431  0.034731474           15 
 4016000   0.62298028   -5.0640108    1719.7459  0.035685299  0.034722789           13 
 4017000   0.60522389   -5.0738809     1718.854  0.035657912  0.034714117            8 
 4018000   0.60722596   -5.0539531    1718.3169  0.035637898  0.034705458            7 
 4019000    0.6124654   -5.0769799    1716.3642  0.035588542  0.034696766            5 
 4020000   0.61091978   -5.0540154    1717.9081  0.035611694  0.034688085           11 
 4021000   0.61881819    -5.079954    1721.2019    0.0356711  0.034679424           12 
 4022000   0.60733106   -5.0855536    1715.0988  0.035535778   0.03467076           15 
 4023000   0.60113774   -5.0809597    1714.4749  0.035514022  0.034662045            7 
 4024000   0.59704435   -5.0553128    1718.1321  0.035580934  0.034653355           11 
 4025000    0.5973277   -5.0729627    1712.5003  0.035455493  0.034644718           10 
 4026000   0.61327426   -5.0543522     1715.227  0.035503125  0.034636034           18 
 4027000   0.60263914   -5.0613461    1719.2926  0.035578442  0.034627402            9 
 4028000   0.61038867   -5.0939197    1717.8969  0.035540734  0.034618745           10 
 4029000   0.60151007   -5.0726143    1719.4205  0.035563425  0.034610072            6 
 4030000   0.61282475   -5.0718836    1712.3409  0.035408207  0.034601395            5 
 4031000   0.61304693   -5.0671344    1721.4409  0.035587548  0.034592752            7 
 4032000   0.59182998   -5.0678261    1713.0955   0.03540624  0.034584126            8 
 4033000   0.62308228    -5.082131    1716.1154  0.035459861  0.034575483           19 
 4034000   0.59973861   -5.0659084    1718.2047  0.035494231  0.034566855           12 
 4035000   0.61076482    -5.092788    1715.2499  0.035424408  0.034558249           12 
 4036000   0.59303922   -5.0957534    1717.6878  0.035465969  0.034549614           18 
 4037000   0.58723308   -5.0591142    1717.7552  0.035458575  0.034541013           13 
 4038000    0.6095025   -5.0972178    1716.3856  0.035421528  0.034532358           29 
 4039000   0.62306845   -5.0795723    1716.6713  0.035418654  0.034523713           11 
 4040000   0.59807671   -5.0732251    1720.6841  0.035492658  0.034515068           15 
 4041000   0.59348272   -5.0742389    1718.2781  0.035434259   0.03450647           18 
 4042000   0.61802132   -5.0815465    1717.4887  0.035409219  0.034497864           12 
 4043000   0.61404242   -5.0666511    1722.0986  0.035495478  0.034489282           10 
 4044000   0.61693363   -5.0880495    1718.5804  0.035414201  0.034480679            7 
 4045000   0.61302195   -5.0842538    1714.2188  0.035315592  0.034472056            4 
 4046000   0.59705377   -5.0829875     1712.997  0.035281699  0.034463427           12 
 4047000   0.60388056   -5.0857478    1718.8499    0.0353935   0.03445483            7 
 4048000   0.60336085   -5.0742074    1717.0451  0.035347601   0.03444621           23 
 4049000   0.60518894   -5.1028642    1715.3106  0.035303175  0.034437566           20 
 4050000   0.60210702   -5.0700977    1720.1717   0.03539448  0.034428928           17 
 4051000   0.59739377   -5.1071324    1717.2517  0.035325674  0.034420284           16 
 4052000   0.59814513   -5.0841261    1718.2914  0.035338339  0.034411669            7 
 4053000   0.60227931   -5.0814654    1718.7509  0.035339068  0.034403087           13 
 4054000   0.61824887   -5.0726273    1719.7157  0.035350182   0.03439451           17 
 4055000    0.5991985   -5.0847171    1716.5387  0.035276175  0.034385939           17 
 4056000   0.60824173    -5.096385    1714.6777  0.035229243  0.034377333           28 
 4057000   0.61079239   -5.0755282    1717.4804  0.035278128  0.034368731           14 
 4058000   0.61379998   -5.1065979    1718.6753  0.035293972  0.034360135           16 
 4059000   0.60613126   -5.0762854     1716.721  0.035245155  0.034351498           17 
 4060000   0.60713225    -5.084149    1722.4444   0.03535395  0.034342906            9 
 4061000   0.59362527   -5.0763357    1716.9303  0.035232092  0.034334311           15 
 4062000   0.60540283   -5.0740282    1722.7799  0.035343425  0.034325701           12 
 4063000   0.60858301   -5.1005176     1721.972  0.035318156  0.034317091           11 
 4064000    0.5970012   -5.0821447    1717.5599  0.035218994  0.034308472           10 
 4065000   0.60006328   -5.0953197    1717.0638  0.035200161  0.034299866            7 
 4066000   0.61218392   -5.0611284    1721.1466  0.035275181  0.034291238            9 
 4067000   0.61321885   -5.0927919    1715.7785  0.035156514  0.034282636           14 
 4068000   0.59863892   -5.0922298    1716.8979  0.035170803  0.034273998            9 
 4069000   0.60166909   -5.0938579     1716.071  0.035145224  0.034265366           13 
 4070000   0.59870733   -5.0865021    1720.2748  0.035222662  0.034256767           16 
 4071000   0.60565493   -5.0861798    1716.5284  0.035137321  0.034248136           13 
 4072000   0.59873139    -5.100472    1717.4173  0.035146883  0.034239516           14 
 4073000   0.61481536   -5.0984363    1716.7837  0.035125291  0.034230917           12 
 4074000   0.60542558   -5.0928714    1717.7221  0.035135864  0.034222274           16 
 4075000   0.59342909    -5.089772    1716.5408  0.035103084  0.034213684            7 
 4076000   0.58363222    -5.084456    1721.8314  0.035202638  0.034205129           15 
 4077000   0.60924168   -5.0939524    1724.1423  0.035241237  0.034196583           11 
 4078000   0.59278819   -5.0964673     1720.136  0.035150727  0.034188027           31 
 4079000   0.60085653    -5.097632    1716.6332  0.035070547  0.034179412           17 
 4080000   0.60128396   -5.0895506    1718.2664   0.03509531  0.034170833           10 
 4081000   0.59706678    -5.109856    1720.0817  0.035123779  0.034162211           29 
 4082000   0.59547988   -5.1044372    1715.4346  0.035020304  0.034153616           27 
 4083000   0.59881121   -5.1022272    1719.7232  0.035099258  0.034144976           14 
 4084000   0.59205963   -5.0646692    1721.6226   0.03512942  0.034136395           20 
 4085000   0.58758133   -5.1018816    1715.9207  0.035004502  0.034127825           16 
 4086000   0.60034717    -5.106274    1714.9376  0.034975884  0.034119223           25 
 4087000   0.57081124   -5.0922645    1721.6355  0.035103897  0.034110628           12 
 4088000   0.58845709   -5.1180247    1716.7332  0.034995377  0.034102022           22 
 4089000   0.59400543   -5.1038823    1717.6777  0.035006066  0.034093412           17 
 4090000   0.59633998   -5.0799143     1724.891  0.035144478  0.034084863           30 
 4091000   0.59383785   -5.0930689    1716.0992    0.0349568  0.034076316           17 
 4092000   0.59385795   -5.0925832    1719.4304  0.035016096  0.034067763           17 
 4093000   0.58554029   -5.0633596    1725.1159  0.035123297  0.034059227            7 
 4094000   0.59863695   -5.0769076    1716.8867  0.034947213  0.034050683            5 
 4095000   0.59944701   -5.1073424    1718.2419  0.034966258   0.03404209            8 
 4096000   0.57880467    -5.090187    1719.0901  0.034974978  0.034033518            7 
 4097000   0.58454414   -5.0856037    1719.5866   0.03497654  0.034024946           14 
 4098000   0.61639464   -5.1193875    1718.9152  0.034954351  0.034016401           30 
 4099000   0.60300769   -5.1072892    1721.0265  0.034988747  0.034007833            8 
 4100000   0.58944346   -5.1020927     1720.454  0.034968578  0.033999295           14 
 4101000   0.58616433   -5.1006842    1718.2335  0.034914928  0.033990759           42 
 4102000   0.59096944   -5.0809016    1716.1848  0.034864798  0.033982174           21 
 4103000   0.59239951   -5.0956242    1716.9046  0.034870919  0.033973634            9 
 4104000   0.60288651   -5.0815765    1719.3948  0.034912987  0.033965066            8 
 4105000   0.59056214   -5.1156545    1715.1228  0.034817759  0.033956491            7 
 4106000   0.60307309   -5.0928701    1719.9465  0.034907179  0.033947905           15 
 4107000   0.60032737    -5.108302    1716.7959  0.034834751  0.033939317           14 
 4108000   0.58718001   -5.0963144    1719.4166  0.034879434  0.033930726           10 
 4109000   0.59703864   -5.1092573    1717.8532   0.03483924  0.033922126           19 
 4110000   0.59573399   -5.1042158    1720.0631   0.03487557  0.033913545           28 
 4111000   0.59841214   -5.1129897    1715.5795    0.0347762  0.033904924           16 
 4112000   0.58906651   -5.1187545    1717.2696  0.034801993  0.033896332            9 
 4113000   0.58880175   -5.1032125    1722.3715  0.034896902  0.033887719            8 
 4114000   0.59077712   -5.1063739    1719.6653  0.034833602  0.033879176           12 
 4115000   0.59656422   -5.1179372    1718.0097  0.034791611  0.033870614            6 
 4116000   0.58592449   -5.1170807    1717.4491  0.034771807   0.03386205           13 
 4117000   0.57486482   -5.1192018    1717.1776  0.034757866  0.033853457           14 
 4118000   0.58940109   -5.0792487    1723.2456  0.034872219  0.033844864           14 
 4119000   0.59910842   -5.1087368     1718.917   0.03477618  0.033836329            7 
 4120000   0.59971814   -5.1138584    1717.4241  0.034737542  0.033827755           17 
 4121000   0.58848273   -5.0804145    1719.0505  0.034762002  0.033819224           12 
 4122000   0.60095938   -5.0993427    1719.8636  0.034770007  0.033810636           12 
 4123000   0.58911515   -5.0958237    1720.5406  0.034775257   0.03380211           13 
 4124000   0.58222754   -5.0962653     1721.865  0.034793586   0.03379358           10 
 4125000   0.58640538   -5.1106169    1717.8973  0.034704996  0.033785032            5 
 4126000   0.59082466   -5.1177737    1717.4554   0.03468766  0.033776446           14 
 4127000   0.59134144   -5.1166562     1718.408   0.03469849  0.033767852            6 
 4128000   0.59045238   -5.1024531     1720.676   0.03473587  0.033759281            4 
 4129000   0.57968185   -5.1110097    1719.2602  0.034698882   0.03375073           10 
 4130000   0.59474553   -5.1026143    1719.1469  0.034688195   0.03374217           15 
 4131000   0.58740389   -5.1026609    1718.7953  0.034672705  0.033733619           13 
 4132000   0.58654618   -5.1247998    1716.6907  0.034621868  0.033725067           18 
 4133000   0.59600288   -5.1053084    1724.0113  0.034761097  0.033716509           16 
 4134000   0.58517207   -5.1054952    1718.9432  0.034650524  0.033707978            8 
 4135000   0.57815869   -5.1192791     1719.241  0.034648146  0.033699452           15 
 4136000   0.57967238   -5.1156292    1720.4231  0.034663587  0.033690902           12 
 4137000   0.59255629   -5.1458214    1716.3466  0.034573092  0.033682361           21 
 4138000   0.58017699   -5.1261003    1717.1728  0.034581375  0.033673781           25 
 4139000   0.59770368   -5.1171654    1716.8127   0.03456577  0.033665199           10 
 4140000   0.58379231   -5.1306777    1715.2054  0.034525069  0.033656622           13 
 4141000   0.59808648   -5.1360853    1718.9699  0.034592488  0.033648041           22 
 4142000   0.57905805    -5.103866    1721.2648  0.034630307  0.033639519            8 
 4143000   0.58219487   -5.1206154    1721.0142  0.034616908  0.033630974            8 
 4144000   0.60001614    -5.117401       1717.3  0.034533864  0.033622441           18 
 4145000   0.59590952   -5.1140501     1715.953  0.034498452   0.03361388           10 
 4146000   0.58810156    -5.115515    1720.4273  0.034580062  0.033605387            9 
 4147000   0.57804392   -5.1150656    1720.1502  0.034566156  0.033596873           24 
 4148000    0.5846948   -5.1316477     1723.533  0.034625783  0.033588354            8 
 4149000   0.59947185   -5.1201351    1726.7555  0.034682162  0.033579844           10 
 4150000   0.59462282   -5.1376131    1714.3289  0.034424276  0.033571313            9 
 4151000    0.5728435   -5.1212214    1718.5663  0.034501049  0.033562792            8 
 4152000   0.57305835   -5.1231172    1716.6123  0.034453523  0.033554239           15 
 4153000   0.58487395   -5.1243831    1724.8547  0.034610618    0.0335457           17 
 4154000   0.60615194    -5.102888    1718.2964  0.034470718  0.033537162           16 
 4155000   0.58405358   -5.1288125    1720.5402  0.034507426  0.033528674           14 
 4156000   0.59451408   -5.1437713     1720.865  0.034505634  0.033520162           12 
 4157000    0.5871425   -5.1070961    1719.8942  0.034477874  0.033511669           13 
 4158000   0.58009087   -5.1088785     1719.464  0.034460959   0.03350318           22 
 4159000   0.58626103   -5.1445219    1719.0491   0.03444436    0.0334947           20 
 4160000    0.5825012     -5.12741    1722.3344   0.03450189   0.03348621            5 
 4161000    0.5900389   -5.1219999    1718.9179  0.034425176  0.033477694           14 
 4162000   0.58618912   -5.0931266    1720.0244   0.03443906  0.033469198           14 
 4163000   0.58925107    -5.108501       1722.1  0.034472336  0.033460697           21 
 4164000   0.58236399   -5.1195133    1720.7171  0.034436381  0.033452174           36 
 4165000   0.57303636   -5.1067636    1722.3722  0.034461229  0.033443642           12 
 4166000   0.59082363   -5.1118753    1724.6198  0.034497916  0.033435128           13 
 4167000   0.57336267   -5.1055621    1718.8593  0.034374436  0.033426624           36 
 4168000   0.58022997   -5.1328603    1720.0216  0.034389428  0.033418158           26 
 4169000   0.59341097   -5.1319491    1718.2503  0.034345773   0.03340964           22 
 4170000   0.58267258   -5.1517507    1719.3513  0.034359539  0.033401109           14 
 4171000   0.59284768   -5.1373545     1717.412  0.034312556  0.033392596           52 
 4172000   0.58208063   -5.1437544    1721.2704  0.034381401  0.033384041           14 
 4173000   0.58290447   -5.1456099    1718.0566  0.034308982  0.033375532            9 
 4174000   0.58393279   -5.1337655    1726.2363  0.034464069  0.033367052           18 
 4175000    0.5741062    -5.122547    1720.2681  0.034336689  0.033358538           12 
 4176000   0.58219354   -5.1444771    1717.8589   0.03428039  0.033350004           14 
 4177000   0.57210196   -5.1392057    1718.6148  0.034287263  0.033341455           30 
 4178000   0.58721313   -5.1280318    1720.1111  0.034308903  0.033332966            5 
 4179000   0.58102948   -5.1337454    1722.3828  0.034345992  0.033324489           15 
 4180000   0.58898595    -5.132029    1722.8864  0.034347815  0.033316039           23 
 4181000   0.59089795   -5.1281479    1721.9975  0.034321883  0.033307584           19 
 4182000   0.57447707   -5.1218753    1724.1344  0.034356257  0.033299112           10 
 4183000   0.58578503   -5.1047277    1720.6917  0.034279459  0.033290672           12 
 4184000   0.58655321   -5.1252406    1721.0038  0.034277483  0.033282206           14 
 4185000   0.58523624   -5.1252548    1721.2827  0.034274844  0.033273705           11 
 4186000   0.58928433   -5.1345642    1723.9268  0.034319295  0.033265254           17 
 4187000   0.58429318   -5.1257092    1719.2541  0.034218098  0.033256795            8 
 4188000    0.5777369   -5.1336615    1719.9849  0.034224469  0.033248346           13 
 4189000   0.57930618    -5.122169    1717.7501  0.034171842   0.03323988           15 
 4190000   0.57750914   -5.1424565    1724.0155  0.034288295  0.033231432           17 
 4191000   0.58334576   -5.1260991    1721.6324  0.034232728  0.033222998           12 
 4192000   0.58463966   -5.1252769    1718.8271  0.034168796  0.033214581           18 
 4193000   0.58141994   -5.1046185    1723.8078  0.034259634  0.033206165           39 
 4194000   0.57373279   -5.1241697    1723.5574  0.034246492  0.033197773           20 
 4195000   0.57944477   -5.1216269    1722.0383   0.03420815  0.033189364           15 
 4196000   0.57471331   -5.1535223    1718.7198  0.034134091  0.033180901           21 
 4197000   0.58083434   -5.1226773    1723.5718  0.034222298  0.033172459           13 
 4198000   0.58899705   -5.1122349    1726.3825  0.034269939  0.033164064           14 
 4199000   0.57232166   -5.1095501     1726.886   0.03427177  0.033155678           34 
 4200000   0.58435374   -5.1435627    1721.8414  0.034163519  0.033147199           21 
 4201000   0.57432763   -5.1385137    1721.7831  0.034154231  0.033138732           11 
 4202000   0.58967881   -5.1142317    1720.1429  0.034113576  0.033130269           19 
 4203000   0.58355381   -5.1357695    1721.0617  0.034123676  0.033121821           36 
 4204000    0.5717573   -5.1353986    1721.0003  0.034114342  0.033113331            6 
 4205000   0.58224438   -5.1334907    1721.2385   0.03411095  0.033104879            9 
 4206000   0.59242007    -5.140313    1719.0364   0.03405921  0.033096417           12 
 4207000   0.56911629   -5.1382474    1719.5793  0.034061867  0.033087958           11 
 4208000   0.57640497   -5.1404272    1721.0865   0.03408362  0.033079519           17 
 4209000   0.58586611   -5.1340572    1719.4751  0.034043619  0.033071053           22 
 4210000   0.57141162   -5.1331175    1719.3397  0.034032853  0.033062611            5 
 4211000   0.57361961   -5.1366899    1721.7649  0.034072763    0.0330542           22 
 4212000   0.57762086   -5.1256789    1724.8191  0.034125101  0.033045781           15 
 4213000   0.57037517   -5.1383376    1721.9528  0.034060305  0.033037352           12 
 4214000   0.58674456   -5.1412678    1720.3511  0.034020549  0.033028914           20 
 4215000   0.58296645     -5.13346    1721.0249  0.034025798  0.033020491            7 
 4216000   0.57789737   -5.1386267    1719.9008  0.033995509  0.033012106           22 
 4217000   0.57076219   -5.1392454    1723.8832  0.034066145   0.03300371           11 
 4218000   0.57859508   -5.1306407    1722.1381  0.034023591   0.03299531           14 
 4219000   0.56739567   -5.1409592    1722.3383   0.03401948  0.032986924           14 
 4220000   0.58067171    -5.126465    1724.0075  0.034044382  0.032978517           16 
 4221000   0.58534963    -5.141601    1720.3813  0.033964727  0.032970098           19 
 4222000   0.58298858   -5.1435239     1720.404  0.033957129  0.032961667           10 
 4223000   0.57683448   -5.1491972    1719.2661  0.033926633  0.032953229           19 
 4224000   0.58201936    -5.126262    1723.1605  0.033995432  0.032944826           25 
 4225000   0.57496476   -5.1496658    1722.3722  0.033971839  0.032936419           47 
 4226000   0.56649515   -5.1490192    1722.3356  0.033963077  0.032927993           33 
 4227000   0.57597314   -5.1325401    1721.2534  0.033933707  0.032919588           14 
 4228000   0.58724431   -5.1551104    1721.6864  0.033934216  0.032911174           10 
 4229000   0.57739959   -5.1740155    1713.5066  0.033765007  0.032902722           12 
 4230000   0.58460586    -5.161686    1721.1608  0.033907818  0.032894256           11 
 4231000   0.56796302   -5.1537816    1721.2243  0.033901054  0.032885828           15 
 4232000   0.56810023   -5.1343889    1720.4818  0.033878423  0.032877448           18 
 4233000   0.57555191   -5.1497762    1719.6438  0.033853921  0.032869049           18 
 4234000   0.57830211    -5.149561    1723.2365  0.033916636  0.032860677            8 
 4235000   0.56628589   -5.1413349    1725.0804  0.033944912  0.032852291            7 
 4236000   0.57490673   -5.1453814    1724.8392  0.033932152  0.032843917            8 
 4237000   0.57179558   -5.1342147    1726.7654  0.033962028  0.032835561           20 
 4238000   0.57114295   -5.1397006     1725.675  0.033932574  0.032827246           11 
 4239000   0.56468463   -5.1395512    1721.4566  0.033841641   0.03281887           21 
 4240000   0.57163859    -5.151842     1722.315  0.033850531  0.032810489           16 
 4241000   0.58311884    -5.146439    1724.5963  0.033887375  0.032802108           11 
 4242000    0.5719018   -5.1320312    1724.3867   0.03387527  0.032793737           17 
 4243000   0.57630062   -5.1498937    1718.5532  0.033752714  0.032785322            8 
 4244000   0.56915732   -5.1615711    1721.7548  0.033807627  0.032776913            8 
 4245000   0.58489968   -5.1493698    1724.2185  0.033848026  0.032768564            7 
 4246000   0.57910006   -5.1708327    1726.8021  0.033890763  0.032760228           13 
 4247000   0.57660292   -5.1357815    1726.7088  0.033880952  0.032751886           14 
 4248000   0.57135655   -5.1476471    1720.2334  0.033745946  0.032743573           12 
 4249000   0.56248458    -5.161555    1721.6115  0.033765032  0.032735211           30 
 4250000   0.57194674   -5.1623414    1723.9812  0.033803552  0.032726836           22 
 4251000   0.57659305    -5.146656    1721.9543  0.033755866  0.032718502           34 
 4252000   0.56671298   -5.1654915    1722.6802  0.033762156  0.032710113           21 
 4253000   0.56897921   -5.1547108    1722.1122  0.033743087  0.032701751            9 
 4254000   0.57393958   -5.1652001      1725.08  0.033793293  0.032693366           38 
 4255000   0.56854132   -5.1666969    1723.7184  0.033758684  0.032685013           51 
 4256000   0.56875223    -5.168538    1720.2953  0.033683727  0.032676629           21 
 4257000   0.57140986   -5.1628097    1724.5981  0.033760043  0.032668288           25 
 4258000    0.5687669   -5.1375626    1728.1357  0.033821351  0.032659977           37 
 4259000   0.57449121   -5.1692477    1722.9169  0.033711295  0.032651661           19 
 4260000   0.56822993   -5.1630897    1724.7971  0.033740163  0.032643301           10 
 4261000   0.56727882   -5.1542108    1726.1563  0.033758826  0.032635003           29 
 4262000   0.57906094   -5.1432214    1722.6516  0.033682379  0.032626699           18 
 4263000   0.57507434   -5.1489633    1722.2053  0.033665754  0.032618392           23 
 4264000   0.56711429   -5.1477108    1721.5849  0.033645733  0.032610082           27 
 4265000   0.55958676   -5.1686937    1726.1692  0.033727416  0.032601789            9 
 4266000   0.56467807   -5.1404056    1729.0589   0.03377596  0.032593498           17 
 4267000   0.56126184    -5.140933    1721.5506  0.033621409  0.032585205            7 
 4268000   0.57419658   -5.1624697    1724.9818  0.033680525  0.032576913           18 
 4269000   0.56775153    -5.171545    1726.3403  0.033699155  0.032568622           10 
 4270000   0.57752996   -5.1561125    1724.4649  0.033654662  0.032560312           15 
 4271000   0.56799641   -5.1571997    1727.3392  0.033702864  0.032552018           20 
 4272000   0.56012334   -5.1436798     1727.042  0.033689177   0.03254374           14 
 4273000   0.57829943   -5.1376074    1727.7094  0.033694308  0.032535456           14 
 4274000   0.56857096    -5.166358    1726.4324  0.033661527  0.032527205           19 
 4275000   0.56799878   -5.1682163    1724.2844  0.033611781  0.032518899           12 
 4276000   0.56464039   -5.1627162    1725.3047  0.033623805  0.032510638           15 
 4277000   0.56970787   -5.1428809    1726.7519  0.033644142  0.032502365            7 
 4278000   0.56251262   -5.1377021    1723.7415  0.033577636  0.032494113            8 
 4279000   0.57633888   -5.1477316    1729.8545   0.03368884  0.032485869            7 
 4280000   0.55949897   -5.1682373    1725.4584  0.033595373  0.032477598            8 
 4281000   0.56738139   -5.1640423    1722.4973  0.033529887  0.032469299           13 
 4282000   0.55413641   -5.1481911    1726.9094  0.033607921  0.032460998           20 
 4283000   0.55682064   -5.1592129    1726.7075  0.033596145  0.032452727           12 
 4284000   0.56482545   -5.1788373    1721.4663  0.033486351   0.03244441           30 
 4285000   0.56436161   -5.1806095    1723.8547  0.033524984  0.032436078           50 
 4286000   0.56428925    -5.161668    1725.7905  0.033554801  0.032427816           19 
 4287000   0.56643931   -5.1815618    1724.2845  0.033517699   0.03241953           32 
 4288000   0.56176556   -5.1682105    1719.6938  0.033420666   0.03241125           13 
 4289000    0.5582072   -5.1841634    1724.0673  0.033497849   0.03240295            9 
 4290000   0.57173678   -5.1654191    1723.3567  0.033476237  0.032394718           18 
 4291000   0.56208227   -5.1680133    1724.4691   0.03349004  0.032386457           32 
 4292000   0.57179911   -5.1612125    1726.8983  0.033529402  0.032378235           22 
 4293000   0.56195123   -5.1611759    1728.5068  0.033552815  0.032370051           13 
 4294000   0.56082525    -5.153925    1727.2999  0.033521578  0.032361861           17 
 4295000   0.56296109   -5.1736651     1724.106  0.033451804  0.032353657           48 
 4296000   0.56070442   -5.1669857    1726.1112  0.033482914  0.032345426           28 
 4297000   0.57042948   -5.1629989    1729.3842  0.033538597  0.032337233           20 
 4298000   0.56839234   -5.1568174    1727.7677  0.033499452  0.032329032           20 
 4299000   0.56745843   -5.1620708    1730.0707  0.033536302  0.032320846           24 
 4300000    0.5801792   -5.1743205    1723.1228  0.033393852  0.032312673           22 
 4301000   0.56676492     -5.17671    1729.1374  0.033502624  0.032304467           42 
 4302000   0.56249321   -5.1667928    1723.7672   0.03339081  0.032296302           29 
 4303000   0.55968497   -5.1899419      1729.81  0.033500077  0.032288098           12 
 4304000   0.56293761   -5.1694816    1727.8046  0.033453467  0.032279903           10 
 4305000   0.56614531   -5.1423679    1728.3547  0.033456342  0.032271751           18 
 4306000   0.56364284   -5.1518314    1730.2727  0.033485693  0.032263623           15 
 4307000   0.55580112   -5.1622181    1732.6725   0.03352435  0.032255479           23 
 4308000   0.56291576   -5.1849038    1725.1705   0.03337145  0.032247322           19 
 4309000   0.56105227    -5.174529    1732.1099  0.033497909  0.032239168           27 
 4310000   0.55281989   -5.1637338     1724.874  0.033350233  0.032231036           15 
 4311000   0.56229554   -5.1696971    1730.9135  0.033459242   0.03222292            9 
 4312000   0.55512106   -5.1821499    1730.2225  0.033438128  0.032214842           24 
 4313000   0.56290062   -5.1604304    1729.8136  0.033422474  0.032206751           12 
 4314000   0.55661387   -5.1534634      1732.42  0.033465074  0.032198628           18 
 4315000   0.55467045   -5.1616856     1732.537  0.033459579   0.03219052           10 
 4316000   0.55070875   -5.1547235    1727.0665  0.033346203  0.032182415           12 
 4317000   0.56437922   -5.1755313    1726.7535  0.033332435  0.032174306            9 
 4318000   0.55651514   -5.1526184    1734.1313    0.0334671  0.032166206           11 
 4319000   0.56874387   -5.1766102    1725.1615  0.033286284  0.032158077            9 
 4320000   0.56368979   -5.1746123    1729.5785  0.033363783  0.032149969            9 
 4321000   0.56882773   -5.1865426    1728.4654  0.033334594  0.032141845           13 
 4322000    0.5607635   -5.1767943     1725.642  0.033272443  0.032133725           13 
 4323000   0.55567827   -5.1717167    1730.5753  0.033359844  0.032125608           11 
 4324000   0.57769574    -5.164159    1726.3761  0.033271201  0.032117476            6 
 4325000   0.55098054   -5.1653511    1727.5269  0.033285682  0.032109376           24 
 4326000   0.55119355   -5.1843301    1729.2642  0.033311454  0.032101271           13 
 4327000   0.54945708   -5.1802126    1727.1971  0.033263945  0.032093103           29 
 4328000   0.56182205   -5.1721469    1728.7821  0.033286778  0.032084983           25 
 4329000   0.54815246   -5.1781839    1725.6957  0.033219675  0.032076811           15 
 4330000   0.55869744   -5.1855351    1729.4161  0.033283604  0.032068653           22 
 4331000   0.56594835   -5.1835314    1726.2202  0.033214427  0.032060509           11 
 4332000   0.56770527   -5.1892809    1725.9182  0.033200951  0.032052334           14 
 4333000    0.5598624   -5.1774257      1730.17   0.03327506  0.032044172           10 
 4334000   0.56291737   -5.1987952    1727.0928  0.033208215  0.032036035           22 
 4335000   0.56869039   -5.1631706    1729.5161  0.033247138  0.032027889           12 
 4336000   0.56433595   -5.1827849    1723.4989  0.033123826  0.032019765            6 
 4337000    0.5582556   -5.1799993    1727.1656  0.033186642  0.032011601           17 
 4338000   0.54862406   -5.1852193    1728.2618   0.03320005  0.032003429           11 
 4339000   0.56369486    -5.190222    1725.6971  0.033143141  0.031995285           26 
 4340000   0.56818927   -5.2025439      1725.71  0.033135752  0.031987144           29 
 4341000    0.5471338   -5.2015303    1725.4189  0.033122531  0.031978978           16 
 4342000   0.55549062   -5.1608437    1732.6664     0.033254  0.031970859           16 
 4343000   0.54644591   -5.1728791    1733.0771  0.033254223  0.031962785           20 
 4344000   0.55775073   -5.1625955    1729.5937  0.033179744  0.031954683           14 
 4345000   0.54988684    -5.180014    1730.1377  0.033182542  0.031946563           15 
 4346000   0.54911994   -5.2021613     1726.861  0.033112076  0.031938429           15 
 4347000   0.57038246   -5.1769866    1726.9029  0.033105263  0.031930288           12 
 4348000   0.55818026   -5.1734635    1728.1918  0.033122352  0.031922189           21 
 4349000   0.55527093   -5.1685437    1735.2597  0.033250167   0.03191405           15 
 4350000   0.56576407   -5.1786683    1724.4267  0.033034995  0.031905936           26 
 4351000   0.55078978   -5.1974763    1725.9909   0.03305736  0.031897771           18 
 4352000   0.55592455   -5.1966526    1731.7571  0.033160177  0.031889617           16 
 4353000    0.5651551    -5.180666    1726.8738  0.033059074  0.031881507           24 
 4354000   0.56820783   -5.1834818      1730.79  0.033126436  0.031873404           24 
 4355000   0.56211343   -5.1909465    1729.2125  0.033088643  0.031865318           13 
 4356000   0.55389825    -5.194709    1724.6317  0.032993414  0.031857205           47 
 4357000   0.55091401   -5.1788083    1730.0423  0.033089325  0.031849082           19 
 4358000   0.56139271    -5.177133    1731.9239  0.033117712  0.031841014            9 
 4359000   0.54272189   -5.1860281    1725.7968   0.03299298   0.03183295           27 
 4360000   0.55071715   -5.1957186    1727.4299  0.033016626  0.031824819           17 
 4361000   0.54419461   -5.1982888    1728.2081  0.033023926  0.031816715           14 
 4362000   0.55694983   -5.1669806    1732.5157   0.03309865  0.031808658           21 
 4363000   0.55303987   -5.1865558    1731.9314  0.033079903  0.031800606           11 
 4364000    0.5512602     -5.17185    1728.5126  0.033007039  0.031792523            9 
 4365000   0.54507002   -5.1790445    1733.2695  0.033090293  0.031784466           19 
 4366000   0.55023565    -5.177181    1730.8011  0.033035599  0.031776411           13 
 4367000   0.55769964   -5.1925307    1728.7377   0.03298866  0.031768336           13 
 4368000   0.56330752   -5.1897381    1733.0614  0.033063594  0.031760269           13 
 4369000   0.54897002   -5.1935114    1729.9095  0.032995909  0.031752176           13 
 4370000   0.54101555   -5.1887847    1727.2305  0.032937271  0.031744082           22 
 4371000   0.55787784   -5.1807389    1729.1706  0.032966724  0.031735996           24 
 4372000   0.55684817   -5.1916075    1729.4088  0.032963725  0.031727922           22 
 4373000   0.54242955   -5.2081941    1729.2524  0.032953204  0.031719845           13 
 4374000   0.54939941    -5.212669     1729.678  0.032953779  0.031711775           26 
 4375000    0.5548386   -5.1888331    1728.4761  0.032923354  0.031703657           18 
 4376000   0.54891179   -5.1853624    1731.7957  0.032979046  0.031695587           16 
 4377000   0.54811184   -5.1946405    1727.0099  0.032880397  0.031687559           16 
 4378000    0.5564066   -5.1771953    1734.4131  0.033013802  0.031679514           18 
 4379000   0.55577611   -5.1720448    1732.4996  0.032969848  0.031671499           15 
 4380000   0.54904732   -5.1823083    1731.4561  0.032942468  0.031663483           19 
 4381000   0.55968231   -5.1946942    1729.0386  0.032888964  0.031655474           11 
 4382000   0.55565961   -5.2073783    1732.8789   0.03295449  0.031647448           13 
 4383000   0.55326953   -5.1880022    1729.5617  0.032883901  0.031639416           19 
 4384000   0.54242771   -5.1928526    1727.5377  0.032837927   0.03163139           17 
 4385000   0.54807867   -5.1918971    1732.0566  0.032916317  0.031623359            9 
 4386000   0.55274148   -5.1902966    1732.6599  0.032920275  0.031615363           11 
 4387000   0.56245039   -5.2016997    1727.4833  0.032814439   0.03160732           12 
 4388000    0.5557625   -5.1931562    1727.9931  0.032816643  0.031599278           14 
 4389000   0.54831112   -5.2272007    1730.4569  0.032855945  0.031591209           22 
 4390000   0.54487361   -5.2087472    1728.4218   0.03280983  0.031583166           25 
 4391000   0.54290865   -5.2169964    1731.7087  0.032864737  0.031575128           22 
 4392000   0.55525324   -5.2002969    1726.4078  0.032756675  0.031567044           21 
 4393000   0.55546849   -5.2148076    1733.4069  0.032881989  0.031558987           31 
 4394000   0.55498805   -5.2071578    1728.8304  0.032787711  0.031550926           14 
 4395000   0.55063783   -5.2183198    1729.4468  0.032791938  0.031542895           43 
 4396000   0.55631354   -5.2025244    1729.8036  0.032791242  0.031534873           17 
 4397000   0.55465911   -5.1924921    1731.2859  0.032811878  0.031526849           15 
 4398000   0.54620168   -5.2079906    1732.8048  0.032833197  0.031518824           15 
 4399000   0.54553715    -5.213156    1730.5979  0.032783926  0.031510824           22 
 4400000   0.54178387   -5.1894884    1729.5439  0.032756514   0.03150282           11 
 4401000   0.53909296   -5.2043512    1727.3291  0.032707132  0.031494785           18 
 4402000   0.54965912   -5.2052202    1730.0433  0.032751084  0.031486761           21 
 4403000   0.55036502   -5.2040346    1728.2071  0.032708893  0.031478724           13 
 4404000   0.55835466    -5.201225    1729.6644  0.032729042  0.031470699           30 
 4405000   0.55480301    -5.221577    1734.2049  0.032807509  0.031462701           29 
 4406000   0.55058667    -5.209219    1730.7911  0.032735496  0.031454675           21 
 4407000   0.56971567   -5.2192657     1726.717  0.032651029  0.031446647           35 
 4408000   0.54935617   -5.2159658    1731.0736  0.032725984  0.031438619           43 
 4409000   0.54213224   -5.2006035    1728.6058  0.032671918  0.031430585           58 
 4410000   0.54371891   -5.2271331     1729.191  0.032675568  0.031422577           34 
 4411000   0.53471471   -5.2108242    1730.2286  0.032687762  0.031414558           16 
 4412000   0.55624716   -5.2236193    1727.5296  0.032629373  0.031406531           32 
 4413000   0.55421401   -5.2111924    1729.1942  0.032653415  0.031398502           21 
 4414000   0.54424851   -5.2166858    1730.7166  0.032674759    0.0313905           17 
 4415000   0.53851315   -5.1965117    1729.8941  0.032651832  0.031382452           12 
 4416000   0.53827505   -5.2151689    1724.5251  0.032543122  0.031374383           14 
 4417000   0.54620806    -5.229501    1728.2331  0.032605711  0.031366315           17 
 4418000   0.54977348   -5.2210808    1724.7326  0.032532303  0.031358265           10 
 4419000   0.54454837   -5.1966458      1733.13  0.032683299  0.031350254           22 
 4420000     0.548337   -5.2178104    1729.2996  0.032603689  0.031342235            9 
 4421000   0.54646102   -5.2077106    1725.0412  0.032516046   0.03133421           18 
 4422000   0.53655595   -5.2089363    1733.0408  0.032659446   0.03132622           22 
 4423000   0.52299548   -5.2252071    1728.3064  0.032562861  0.031318194           11 
 4424000   0.54493004    -5.201635     1733.092  0.032645644  0.031310194           11 
 4425000    0.5411617   -5.1926717    1727.9906  0.032542195   0.03130218           14 
 4426000   0.54384199   -5.2172878    1730.6111  0.032584182  0.031294162            8 
 4427000   0.54691494   -5.2240076    1729.4759  0.032555454  0.031286143            8 
 4428000   0.53893544   -5.1945114    1730.1834  0.032561415  0.031278137           17 
 4429000   0.53924727   -5.1960359     1725.926  0.032473959  0.031270124           19 
 4430000   0.54138031   -5.2196465    1732.6128  0.032592415  0.031262104            8 
 4431000   0.54636417   -5.2170105    1726.8511  0.032476701  0.031254085           24 
 4432000   0.53102673   -5.2231609    1725.3084  0.032440365  0.031246055           19 
 4433000   0.54615639   -5.2184506    1726.9329  0.032463586  0.031238043           22 
 4434000   0.54761881   -5.2047154    1725.9678  0.032438126  0.031230014           19 
 4435000   0.54113339   -5.2373021    1728.9348  0.032486561  0.031221987           20 
 4436000    0.5485688    -5.211048    1729.4765  0.032489414  0.031213952           46 
 4437000   0.54800886   -5.2200823    1728.8319  0.032469986  0.031205968           20 
 4438000   0.56207281   -5.2001509     1730.762  0.032498911  0.031197986           28 
 4439000   0.54867041   -5.2172989    1730.9546  0.032495205  0.031190006           53 
 4440000    0.5469942   -5.2060562    1730.8026  0.032485033  0.031182047           42 
 4441000   0.54307873   -5.2143737    1727.0988   0.03240822  0.031174103           19 
 4442000   0.53826489   -5.2035765     1727.454  0.032407586  0.031166181           19 
 4443000    0.5461108   -5.2249264     1732.734  0.032499324  0.031158242           41 
 4444000    0.5356067   -5.2163387    1730.8109   0.03245595    0.0311503           45 
 4445000   0.54800689   -5.2183534    1728.3222   0.03240199  0.031142323           54 
 4446000   0.54598804   -5.2319761    1731.9767    0.0324632  0.031134347           17 
 4447000   0.53554174   -5.2146321    1728.8824  0.032397916  0.031126374            9 
 4448000   0.52780219   -5.2154726    1731.2288  0.032434592   0.03111841           22 
 4449000   0.55413047   -5.2330997    1729.4943  0.032394813  0.031110451           20 
 4450000   0.53571472   -5.2400952    1732.0121  0.032434683  0.031102479           23 
 4451000   0.55799173   -5.2225139    1727.1103  0.032335622  0.031094518           14 
 4452000    0.5289729   -5.2248484    1728.1732  0.032348255  0.031086514           25 
 4453000       0.5501   -5.2332782    1727.3404  0.032325406  0.031078528           47 
 4454000   0.53342446   -5.2098592    1727.2856  0.032317122  0.031070545           20 
 4455000   0.54469985   -5.2268265    1727.8151  0.032319774  0.031062567           27 
 4456000   0.53534743   -5.2351364    1728.8054   0.03233104  0.031054555           37 
 4457000   0.53974975   -5.2279014    1729.4014  0.032334931  0.031046544           32 
 4458000   0.53617405   -5.2617134    1726.7766  0.032278611  0.031038552           19 
 4459000   0.53594736   -5.2284864    1732.7676  0.032383337  0.031030564           21 
 4460000   0.55470122   -5.2308462     1728.043  0.032287798  0.031022587           27 
 4461000   0.54483894   -5.2148324    1729.6549  0.032310672  0.031014608           17 
 4462000   0.54512813   -5.2021697    1727.6223  0.032265469  0.031006663           43 
 4463000   0.53863114   -5.2386779     1729.053  0.032284955  0.030998721           30 
 4464000    0.5333448   -5.2214341    1729.5644  0.032287269  0.030990792           45 
 4465000   0.53968497   -5.2220709     1726.514  0.032223106  0.030982864           24 
 4466000   0.54341648   -5.2198026    1728.9539  0.032261418  0.030974911           16 
 4467000   0.54140453   -5.2119069    1728.4352  0.032244518  0.030966968           24 
 4468000   0.54450687    -5.244245     1731.811  0.032300266  0.030959027           14 
 4469000   0.54302215   -5.2350938    1730.1866  0.032262747  0.030951076           27 
 4470000   0.51841076   -5.2086643    1727.2897  0.032201523  0.030943107           28 
 4471000   0.53103176   -5.2231104    1730.6575  0.032257093  0.030935156           23 
 4472000   0.53377131   -5.2362169    1728.9255  0.032217605  0.030927201           46 
 4473000   0.54322459   -5.2207831    1730.2805  0.032235646  0.030919238           30 
 4474000   0.52910842    -5.237244    1728.9082  0.032202879  0.030911279           30 
 4475000    0.5437816   -5.2359627    1727.2058  0.032163981  0.030903352           18 
 4476000   0.53341217   -5.2200842    1727.7142  0.032166261  0.030895426           24 
 4477000   0.54126377    -5.216815    1727.5946  0.032156849  0.030887492           26 
 4478000    0.5362799   -5.2329083    1731.6591  0.032225307  0.030879576           25 
 4479000   0.53883523   -5.2243163    1728.3819  0.032157139  0.030871642           33 
 4480000   0.54327498   -5.2202996     1727.652  0.032136384  0.030863671           25 
 4481000   0.53880914   -5.2015143    1731.6652  0.032203846  0.030855736           25 
 4482000   0.54654354   -5.2299162    1728.7449  0.032142363    0.0308478           24 
 4483000   0.52739186   -5.2476917    1730.2403  0.032162992  0.030839847           23 
 4484000   0.53647792   -5.2289695    1729.9556  0.032150527  0.030831876           28 
 4485000   0.52177487   -5.2265391    1725.3431  0.032057657  0.030823911            7 
 4486000   0.53135707   -5.2456768     1729.672  0.032130926  0.030815933           12 
 4487000   0.52819432    -5.236487    1725.3305  0.032043133  0.030807964           13 
 4488000   0.53683497   -5.2433158    1727.1131  0.032069093  0.030799946           69 
 4489000   0.51699332   -5.2239306    1725.6438  0.032034673  0.030791949           51 
 4490000   0.53676854   -5.2338551    1723.3184   0.03198438  0.030783963           14 
 4491000   0.54060481   -5.2175578    1728.3893  0.032071351  0.030775988           23 
 4492000   0.53583766   -5.2414209     1725.895  0.032017939  0.030768019           26 
 4493000   0.52679068   -5.2413099    1726.2569  0.032017525  0.030760041           13 
 4494000   0.53967399   -5.2367779    1726.6082  0.032016915  0.030752069           11 
 4495000   0.53039448    -5.240839    1724.3732  0.031968358  0.030744092           19 
 4496000    0.5244683   -5.2364901    1723.1345  0.031938287  0.030736054           19 
 4497000   0.53164687    -5.249992    1724.6319  0.031958934  0.030728026           30 
 4498000   0.53348826   -5.2311409    1727.4674  0.032004361  0.030720032           36 
 4499000   0.53053922   -5.2295241    1726.2841   0.03197533  0.030712086           23 
 4500000   0.52808154   -5.2314087    1727.7547  0.031995458  0.030704147           18 
 4501000   0.52204342   -5.2114839    1728.9651  0.032010759  0.030696214           11 
 4502000   0.54014356   -5.2132396    1729.5815  0.032015059  0.030688314           12 
 4503000    0.5273776   -5.2302511    1731.2239  0.032038342  0.030680391            7 
 4504000   0.52388528   -5.2215426    1726.3847  0.031941695  0.030672464           23 
 4505000   0.53445061   -5.2446524    1729.3671  0.031989772  0.030664529           22 
 4506000   0.51804293   -5.2416242    1730.3183  0.032000264  0.030656607           13 
 4507000   0.54456074   -5.2433021    1725.8434  0.031910424  0.030648666           14 
 4508000   0.52513073   -5.2430609    1731.3684  0.032005479  0.030640726           28 
 4509000   0.51911427   -5.2385939     1724.758  0.031876211  0.030632763           28 
 4510000   0.51539897   -5.2251792     1729.546  0.031957612  0.030624823           45 
 4511000   0.52178335   -5.2284729    1726.0806   0.03188651  0.030616884           18 
 4512000   0.52650376   -5.2283202    1729.7685  0.031947557  0.030608951           16 
 4513000   0.51907598   -5.2319711    1724.4224  0.031841761  0.030600994           19 
 4514000   0.52792292   -5.2284834    1726.9977  0.031882249  0.030593073           30 
 4515000    0.5344757   -5.2545682    1722.8987  0.031799533  0.030585127           20 
 4516000   0.53044535   -5.2508623    1729.2384  0.031909478  0.030577182           23 
 4517000   0.53602944   -5.2544695    1728.9236  0.031896605  0.030569242           26 
 4518000   0.53927175   -5.2339333    1727.2687  0.031859021  0.030561271           16 
 4519000     0.525658   -5.2523672    1726.1697  0.031831705  0.030553304           28 
 4520000   0.53655612   -5.2395869    1724.9206  0.031801634  0.030545335           28 
 4521000   0.53599767   -5.2366519    1723.9554  0.031776809  0.030537348           36 
 4522000   0.52077278   -5.2460077    1726.9702  0.031825339  0.030529373           34 
 4523000   0.53604481   -5.2359656    1727.9704  0.031836731  0.030521412           20 
 4524000    0.5298675   -5.2523772    1726.1657   0.03179645  0.030513446           17 
 4525000   0.52844813   -5.2393513    1723.4588  0.031739573  0.030505457           47 
 4526000   0.51814983   -5.2579203    1723.8687  0.031740107  0.030497491           13 
 4527000   0.53300088   -5.2432905    1728.5121  0.031818571  0.030489562           22 
 4528000   0.52614546   -5.2435888    1727.7742  0.031797964  0.030481636            9 
 4529000   0.53183252   -5.2444591    1730.4149  0.031839533  0.030473677           13 
 4530000   0.53026744   -5.2621653    1723.7321  0.031709568  0.030465726           12 
 4531000    0.5320962   -5.2461962    1725.9043   0.03174252  0.030457782           36 
 4532000   0.51089306   -5.2711421     1722.795  0.031678343  0.030449816           36 
 4533000   0.53268894   -5.2578689    1726.2051  0.031734045  0.030441845           22 
 4534000   0.52131249   -5.2570517    1725.7137  0.031718014  0.030433896           24 
 4535000    0.5336335    -5.254792    1729.4107  0.031778954  0.030425965           20 
 4536000   0.52878108    -5.265196    1723.3879    0.0316613  0.030418016           22 
 4537000   0.53450112    -5.251319    1725.7363  0.031697457  0.030410051           13 
 4538000   0.52302241   -5.2501107    1725.9083   0.03169363  0.030402118           10 
 4539000   0.51904173   -5.2471763    1721.9056  0.031613161   0.03039416           16 
 4540000   0.52368343   -5.2557363    1727.3569  0.031706256  0.030386222           21 
 4541000   0.54175038   -5.2539583    1728.4418  0.031719185    0.0303783           14 
 4542000   0.53787519   -5.2459629    1726.5954  0.031678325   0.03037035           24 
 4543000   0.51442976   -5.2338228     1725.322  0.031647993   0.03036242           20 
 4544000   0.51762577   -5.2595684    1721.0841  0.031563309  0.030354493           13 
 4545000   0.52738672   -5.2607077    1723.5988  0.031602471  0.030346575           17 
 4546000   0.52362405   -5.2459677     1732.417  0.031757168  0.030338655            8 
 4547000   0.52964179   -5.2463403     1726.025  0.031633036  0.030330722           14 
 4548000    0.5219017   -5.2470454    1729.6044  0.031691666  0.030322815            8 
 4549000   0.53324088   -5.2657735    1729.0069  0.031673753  0.030314906            8 
 4550000   0.51814014    -5.269912    1727.2493  0.031634603  0.030307004            9 
 4551000   0.52226598   -5.2417467    1730.0169  0.031678329  0.030299091           14 
 4552000   0.51864978   -5.2602869    1723.0839  0.031544447  0.030291186           22 
 4553000   0.53094119   -5.2553661    1725.7337  0.031586018  0.030283275           36 
 4554000   0.52122187   -5.2594036    1722.6292  0.031522274  0.030275347           31 
 4555000   0.51932421   -5.2614326    1725.4898  0.031567688  0.030267417           16 
 4556000   0.51480747    -5.263738     1723.827  0.031530345  0.030259525           11 
 4557000   0.53520041   -5.2428707    1725.1084  0.031546858  0.030251641           13 
 4558000   0.51856114   -5.2531954     1729.393  0.031618272  0.030243774           11 
 4559000   0.53141405     -5.25648    1725.1445  0.031533679  0.030235901           27 
 4560000   0.51980309   -5.2538266    1729.3541  0.031603694  0.030228041           10 
 4561000   0.52931462   -5.2571982    1723.0042  0.031480746  0.030220191           19 
 4562000   0.52343127   -5.2827848    1725.6993  0.031523077  0.030212314           19 
 4563000   0.52150503   -5.2765754    1724.3421  0.031491381   0.03020442           21 
 4564000   0.52750398   -5.2656614    1723.8767  0.031475984   0.03019654           46 
 4565000   0.51830048   -5.2647103    1722.5507  0.031444882  0.030188662           20 
 4566000   0.51846448   -5.2680918    1723.9157  0.031462909  0.030180785           14 
 4567000   0.52827735   -5.2542267    1722.9023  0.031437528  0.030172886           23 
 4568000    0.5111376   -5.2756197     1725.993   0.03148703  0.030164978           12 
 4569000   0.52212862   -5.2615079    1727.0546    0.0314995  0.030157088           43 
 4570000   0.52011427   -5.2816756    1724.0277  0.031437413  0.030149198           21 
 4571000   0.52815147   -5.2668723    1731.8694  0.031573495  0.030141327           73 
 4572000   0.52535197   -5.2812124    1724.8818  0.031439227  0.030133456           24 
 4573000   0.51561066   -5.2609059    1723.6765  0.031410388  0.030125569           30 
 4574000   0.52603936   -5.2647811    1725.5991  0.031438549  0.030117705           62 
 4575000   0.51658888   -5.2552311    1723.7126  0.031397316  0.030109845           30 
 4576000    0.5212716   -5.2841339     1724.318  0.031401479  0.030101957           32 
 4577000   0.53046453   -5.2671143    1726.3595  0.031431787  0.030094072           59 
 4578000   0.51468941   -5.2712112    1727.6777  0.031448917  0.030086203          110 
 4579000   0.51815023   -5.2487758    1721.2087  0.031324319  0.030078323           47 
 4580000   0.53098979   -5.2806885    1723.1329   0.03135249  0.030070452           59 
 4581000   0.50340401    -5.294107    1724.8558  0.031376988  0.030062593           43 
 4582000   0.51608383   -5.2633753    1725.9513  0.031390064  0.030054731           59 
 4583000   0.52594397   -5.2917986     1724.894  0.031363991  0.030046864           38 
 4584000   0.52729744   -5.2769179    1724.8414  0.031356193  0.030038976          121 
 4585000   0.51711407   -5.2717075    1725.3722     0.031359  0.030031134           54 
 4586000   0.51568181   -5.2736269    1730.0792  0.031437694  0.030023299           20 
 4587000   0.53512178   -5.2724757    1728.1943  0.031396597  0.030015476           54 
 4588000   0.52322956    -5.272486    1725.7495  0.031345348  0.030007643           91 
 4589000   0.52927993   -5.2875986    1726.3947  0.031350235  0.029999798           96 
 4590000   0.51567668   -5.2709173    1728.1018  0.031374397  0.029991971           48 
 4591000   0.52781243   -5.2873334    1724.6369   0.03130467   0.02998413           54 
 4592000   0.52809882   -5.2616617     1729.139  0.031379556  0.029976311           14 
 4593000   0.52005055   -5.2898046    1725.6707  0.031309795  0.029968491           19 
 4594000   0.52565418   -5.2821395    1724.9477  0.031289865  0.029960668           16 
 4595000    0.5181017   -5.2805842    1729.9268  0.031373355  0.029952836           41 
 4596000   0.51563069   -5.2711192    1728.2661  0.031336418   0.02994501           38 
 4597000   0.51315095   -5.2796495    1726.5579  0.031298635  0.029937183           26 
 4598000   0.52631875   -5.2780602    1726.7916  0.031296063  0.029929361            9 
 4599000   0.52182141   -5.2758271    1728.0822  0.031312643  0.029921558           30 
 4600000   0.51680819    -5.254799    1730.6597  0.031352531   0.02991379           51 
 4601000   0.51620914   -5.2719624    1728.3346  0.031303605  0.029906024           44 
 4602000   0.51897366   -5.2660809    1728.3423  0.031296942   0.02989825           20 
 4603000   0.51137753   -5.2778123     1724.222  0.031215548  0.029890479           32 
 4604000   0.51263673   -5.2706421    1726.8707  0.031256709  0.029882704           16 
 4605000   0.51938043   -5.2557082    1729.9801   0.03130619  0.029874928           12 
 4606000   0.51450153   -5.2675607    1727.9807  0.031263221  0.029867155           36 
 4607000   0.52443076   -5.2772629     1730.132  0.031295347  0.029859383           16 
 4608000   0.51824203    -5.294483     1724.402  0.031184932  0.029851594           23 
 4609000   0.52504693   -5.2805893    1727.1392  0.031227656  0.029843808           16 
 4610000   0.51937291   -5.2864775    1726.7423  0.031213708  0.029836015           16 
 4611000   0.51697099   -5.2954043    1726.9932  0.031211473  0.029828211           33 
 4612000   0.50788371   -5.2519107    1725.8845  0.031184672  0.029820448           25 
 4613000   0.52463201   -5.2846147    1730.7625  0.031266032  0.029812703           15 
 4614000   0.50436593   -5.2771521    1729.2624  0.031232164   0.02980494           15 
 4615000   0.50942784   -5.2759676    1727.3722  0.031191265  0.029797168           18 
 4616000   0.51570553   -5.2788144    1727.5438  0.031187605  0.029789414           34 
 4617000   0.51986645   -5.2902985    1725.3253  0.031140808  0.029781657           22 
 4618000   0.51120464   -5.3018509    1727.2524   0.03116884  0.029773876           25 
 4619000   0.50389455   -5.2760483     1725.608  0.031132424  0.029766087           54 
 4620000   0.51916449   -5.2660859    1727.2266  0.031154881  0.029758313           28 
 4621000   0.51703523   -5.2713582    1723.3516  0.031078258  0.029750571           67 
 4622000   0.50723807   -5.2819158    1725.6036  0.031112138  0.029742823           51 
 4623000   0.51602738   -5.2688554    1726.8849  0.031128504  0.029735067           35 
 4624000    0.5146828   -5.2858114    1724.1475  0.031072439  0.029727313           36 
 4625000   0.51537297    -5.273017     1728.617  0.031146251  0.029719557           28 
 4626000   0.51009619   -5.2649994    1731.2651  0.031187223  0.029711813           39 
 4627000   0.51489481   -5.2603616    1725.8912  0.031083697  0.029704068           48 
 4628000   0.51033172   -5.2735861     1731.118  0.031171096  0.029696326           40 
 4629000   0.51264716   -5.2808145    1728.4794  0.031116862  0.029688588           24 
 4630000   0.52162166   -5.2878112    1731.6909  0.031167942  0.029680844           35 
 4631000   0.50551032   -5.2771029    1725.6135  0.031051852  0.029673102           20 
 4632000   0.51349424   -5.2867981    1727.2014  0.031073716  0.029665372           33 
 4633000   0.50599489   -5.2728335    1729.4671  0.031107762  0.029657641           29 
 4634000   0.50096288   -5.2919116    1723.8438  0.030999924   0.02964989           25 
 4635000   0.51696046   -5.2927771    1724.7072  0.031008759  0.029642128           57 
 4636000   0.51527898   -5.2773812     1726.025  0.031025759  0.029634362           36 
 4637000   0.51006733   -5.2823286    1729.7406  0.031085842  0.029626614           54 
 4638000   0.50909506   -5.2940542    1728.5919  0.031058501  0.029618858           48 
 4639000   0.50642939   -5.3138426    1724.5583  0.030979347  0.029611086           32 
 4640000   0.50363902    -5.291837    1725.9805  0.030998213  0.029603343           57 
 4641000   0.51108846   -5.2786681    1728.4513  0.031035899  0.029595588           24 
 4642000   0.49112956   -5.3022628    1727.2375  0.031007423  0.029587847           64 
 4643000   0.51524534   -5.2948001    1726.7836  0.030992599  0.029580089           32 
 4644000   0.50719532   -5.2873146    1724.3047  0.030941442  0.029572348           19 
 4645000   0.51908364   -5.2755615    1724.9721  0.030946754  0.029564599           63 
 4646000   0.50539109   -5.3037761    1725.9619  0.030957847   0.02955686           44 
 4647000   0.51191289    -5.307473    1726.5301  0.030961374  0.029549117           41 
 4648000   0.51638467   -5.3000607    1725.8925  0.030943282  0.029541377           55 
 4649000   0.50065918   -5.2790073    1723.1471  0.030887415  0.029533631           57 
 4650000   0.50541059   -5.2897434    1728.5737  0.030978023  0.029525884           65 
 4651000   0.51220869   -5.3012231    1726.4258  0.030932878  0.029518144           45 
 4652000    0.5143434   -5.2902952    1724.2764  0.030887726  0.029510411           30 
 4653000   0.50806183   -5.2929664    1725.7004  0.030906591  0.029502663           23 
 4654000   0.51051641   -5.2876366     1723.837  0.030866584  0.029494924           25 
 4655000    0.5089694   -5.2710971    1726.9121  0.030915004  0.029487189           17 
 4656000   0.50148788   -5.3004442    1726.6977  0.030904527  0.029479472           30 
 4657000   0.50119947   -5.2873675    1724.7399  0.030862857   0.02947176           20 
 4658000   0.50203041   -5.2976535    1723.0607  0.030826189  0.029464032           21 
 4659000   0.50562221   -5.2912513    1725.4981  0.030863171  0.029456307           31 
 4660000   0.49818166   -5.2800787    1729.8844  0.030934985  0.029448572           37 
 4661000   0.50847757   -5.2792589    1723.4115   0.03081262  0.029440857           33 
 4662000     0.516158    -5.283219    1726.1774  0.030855452  0.029433141           62 
 4663000   0.50255509   -5.2895507    1726.0022  0.030845705  0.029425422           22 
 4664000   0.51108947   -5.2888416    1726.6305  0.030850317    0.0294177           41 
 4665000   0.50587439   -5.2950874    1724.9174  0.030813102   0.02940996           43 
 4666000   0.51479235   -5.2989099     1727.187  0.030847032  0.029402234           30 
 4667000   0.50014337   -5.3022154    1722.4494  0.030755828  0.029394488           56 
 4668000   0.49968678   -5.2724133    1727.0577  0.030831507  0.029386762           71 
 4669000   0.50810887   -5.2988631    1723.6267  0.030763666   0.02937903           60 
 4670000   0.49657443   -5.2874284    1725.4982  0.030790474  0.029371291          104 
 4671000   0.50587553   -5.3052727    1724.9723    0.0307745   0.02936356           80 
 4672000   0.50062101   -5.2992212    1721.9825  0.030714585  0.029355806           58 
 4673000   0.50998394   -5.2926359    1721.3234  0.030696258  0.029348074          113 
 4674000   0.49367251   -5.2943251    1723.8564  0.030734853  0.029340353           23 
 4675000   0.50766334   -5.3016414    1723.2942  0.030718257  0.029332628           23 
 4676000   0.49993638   -5.3020854    1721.9554  0.030687829  0.029324886           25 
 4677000   0.50522297   -5.3060348    1725.6193  0.030746549  0.029317155           37 
 4678000   0.49972132   -5.3040039    1725.6916  0.030741264  0.029309427           13 
 4679000    0.4872784   -5.3042943    1721.5772  0.030661417  0.029301719           57 
 4680000   0.51393493   -5.2871632    1724.5914  0.030708536  0.029293987           29 
 4681000   0.50337279   -5.2892748    1726.3547  0.030733367  0.029286267           58 
 4682000   0.50473007   -5.2982544     1722.145  0.030651876  0.029278548           26 
 4683000   0.49344494   -5.3029639    1725.6428  0.030707573  0.029270831           26 
 4684000   0.50190659   -5.2695771    1723.8576  0.030669256  0.029263121           28 
 4685000   0.50170772    -5.314846    1723.3843  0.030654291  0.029255413           31 
 4686000   0.50593609   -5.3193022    1720.8373  0.030602456  0.029247668           73 
 4687000   0.48585214   -5.3186207    1721.5784  0.030609103  0.029239919           28 
 4688000   0.49557283   -5.2987921     1720.509  0.030583564  0.029232156           33 
 4689000   0.50063094   -5.3078139    1726.8982  0.030690591  0.029224411           67 
 4690000   0.50028343   -5.3024114    1722.3199  0.030602699  0.029216683           31 
 4691000   0.50836821   -5.3030992     1725.134  0.030646166  0.029208963          107 
 4692000   0.50416699   -5.3235675    1723.5936  0.030612276  0.029201219           24 
 4693000   0.49130003   -5.3015624    1725.0859  0.030632253  0.029193482           38 
 4694000   0.50001363   -5.3032002    1723.1574   0.03059149   0.02918575           19 
 4695000   0.50486983   -5.3243775    1719.0111  0.030511378  0.029177991           27 
 4696000   0.50476804   -5.3221278    1723.9922  0.030593274  0.029170258           26 
 4697000   0.50629427   -5.3116018    1721.0549  0.030534648   0.02916253           23 
 4698000   0.49720709   -5.3089953    1721.0727  0.030528464  0.029154796           50 
 4699000   0.50280821   -5.2998886    1720.2309  0.030507039  0.029147073           19 
 4700000   0.50231061   -5.3084859    1724.4366  0.030575117  0.029139346           21 
 4701000   0.48677226   -5.2966327     1721.892  0.030523505  0.029131635           26 
 4702000   0.49629704   -5.3133609    1723.4478  0.030544588  0.029123906           41 
 4703000   0.48709727   -5.3191162    1721.7173   0.03050743   0.02911617           24 
 4704000    0.4907772    -5.326915    1722.4697  0.030514273  0.029108438           27 
 4705000   0.49691639   -5.3211879    1725.4148   0.03055995  0.029100689           59 
 4706000   0.49428919   -5.3089395    1719.9444  0.030456587  0.029092939           21 
 4707000   0.49918364    -5.320937    1722.3615   0.03049291  0.029085166           58 
 4708000   0.49941468   -5.3172106     1718.534  0.030418684  0.029077438           34 
 4709000   0.49987358   -5.2986278    1721.7197  0.030468602  0.029069716           18 
 4710000   0.49485625   -5.3048291    1720.7103  0.030444272  0.029061996           36 
 4711000   0.50194518   -5.2952924    1723.7566  0.030491697  0.029054287           46 
 4712000   0.49798566    -5.294126    1722.5108  0.030463193  0.029046591           32 
 4713000   0.49370922   -5.3271771     1720.842  0.030427223  0.029038883           36 
 4714000   0.48753344   -5.3150386     1723.708  0.030471433  0.029031172           52 
 4715000   0.48575086   -5.3098364    1725.0488  0.030488667  0.029023476           36 
 4716000   0.50497816   -5.3118978    1721.7485  0.030423885   0.02901577           19 
 4717000   0.49225385   -5.2912314    1725.9617  0.030491868  0.029008078           23 
 4718000   0.50061668   -5.3216393    1720.3426  0.030386155   0.02900036           21 
 4719000   0.50647375   -5.3303331    1723.7306  0.030439545  0.028992656           10 
 4720000   0.50266554   -5.3262421     1720.458  0.030375318  0.028984931           26 
 4721000   0.48646395   -5.3093395    1722.5362  0.030405568  0.028977185           35 
 4722000   0.49937315   -5.3097366    1720.4609  0.030362504  0.028969424           42 
 4723000   0.49595698   -5.3150857    1720.4067  0.030355119  0.028961705           49 
 4724000   0.48761102   -5.3321003    1720.6667   0.03035328   0.02895398           43 
 4725000   0.49053158   -5.3331854    1721.3486  0.030358881  0.028946245           33 
 4726000   0.48797808   -5.3212164     1720.572  0.030338764  0.028938511           46 
 4727000   0.50139597   -5.3105377     1721.343  0.030345938  0.028930792           50 
 4728000   0.49679263   -5.3233171    1721.7342  0.030346415  0.028923087           43 
 4729000   0.48485421   -5.3226119    1714.2852  0.030208733  0.028915363           22 
 4730000   0.49466545   -5.3239769    1722.0964  0.030339965  0.028907643           24 
 4731000    0.4895113   -5.3180109    1719.7191  0.030291678  0.028899946           96 
 4732000   0.48636439   -5.3043134    1721.0982  0.030309563  0.028892245           70 
 4733000   0.50477502   -5.3212061    1722.0892  0.030320607  0.028884559           57 
 4734000   0.49614052   -5.3290388    1721.2161  0.030298832  0.028876861           31 
 4735000   0.49219506   -5.3208852    1719.9525  0.030270196   0.02886916           34 
 4736000   0.49803842   -5.3133875    1718.8199  0.030243875   0.02886146           51 
 4737000   0.48873786   -5.3173262    1718.6458  0.030234428  0.028853749           49 
 4738000   0.48857686   -5.3223588     1723.885  0.030320195  0.028846047           60 
 4739000    0.4829848   -5.3285256    1714.9113  0.030155999  0.028838341           88 
 4740000    0.4975653     -5.32016    1723.9196  0.030308009  0.028830644           57 
 4741000   0.49709957    -5.314983    1721.4487  0.030258185  0.028822967           80 
 4742000   0.48587997   -5.3164619    1721.2467  0.030248254  0.028815266           72 
 4743000   0.49321136   -5.3203437    1720.9729  0.030237067  0.028807555           36 
 4744000   0.48712166   -5.3180304    1719.2065  0.030199665  0.028799854          100 
 4745000   0.49394566   -5.3208405    1720.9843  0.030224523  0.028792155           30 
 4746000   0.48682513   -5.3154168    1717.4343  0.030155821  0.028784476          108 
 4747000   0.48471381   -5.3169506    1717.5341   0.03015122  0.028776796           80 
 4748000   0.48512459   -5.3345129     1720.328  0.030193905  0.028769112           50 
 4749000   0.50020813   -5.3256414    1720.1764  0.030184888  0.028761402           53 
 4750000   0.49410111   -5.3270941    1717.0698  0.030124031  0.028753693           87 
 4751000   0.49784535   -5.3408887     1716.984  0.030116187  0.028745977           89 
 4752000   0.48958449    -5.320111    1719.2944  0.030150365  0.028738277           62 
 4753000   0.49169317   -5.3250888    1720.1105   0.03015833  0.028730573           72 
 4754000   0.49768532    -5.318048    1718.2982  0.030120218  0.028722861           27 
 4755000   0.48710414   -5.3242698    1712.0126  0.030003725   0.02871514           46 
 4756000   0.49006112   -5.3244866    1719.2717  0.030124609  0.028707409           71 
 4757000   0.50220865   -5.3615993    1715.0819  0.030044879  0.028699659           46 
 4758000   0.48581743   -5.3385056    1716.2633  0.030059256  0.028691912          102 
 4759000   0.49016436   -5.3329118    1715.7459  0.030043881   0.02868417           45 
 4760000   0.48675693   -5.3443798    1718.6018  0.030087566  0.028676428           87 
 4761000   0.48466955   -5.3326824    1718.2328  0.030074789    0.0286687           77 
 4762000   0.49552428   -5.3337349    1716.2023   0.03003294  0.028660977           19 
 4763000   0.50085009   -5.3305692    1718.9665  0.030074997   0.02865326           49 
 4764000   0.49455911   -5.3368926    1716.8768  0.030032131  0.028645562           18 
 4765000    0.4854722   -5.3405754    1717.3741  0.030034525  0.028637848           31 
 4766000   0.48317264   -5.3361477     1718.195  0.030042575  0.028630159           46 
 4767000     0.488416   -5.3293725    1719.4826  0.030058783  0.028622457           23 
 4768000   0.49347717    -5.343841    1718.8871  0.030042071  0.028614764           39 
 4769000   0.50074988   -5.3323262    1721.3634  0.030079042  0.028607075           26 
 4770000   0.48118573   -5.3457243    1716.2574  0.029983533  0.028599386           23 
 4771000   0.48867706   -5.3406888     1716.508  0.029981626  0.028591698           48 
 4772000   0.49323206   -5.3242739    1718.4152  0.030008648  0.028584034           30 
 4773000   0.48426277    -5.338217    1717.2119  0.029981353   0.02857635           23 
 4774000   0.48904925   -5.3347559    1718.5241  0.029997977  0.028568679           52 
 4775000   0.49170437   -5.3213453    1721.9865  0.030052121  0.028561009           46 
 4776000   0.47976074   -5.3475254    1720.0436  0.030011928  0.028553324           40 
 4777000   0.49765367   -5.3377352    1716.6272  0.029946047  0.028545632           21 
 4778000   0.47601713   -5.3577935    1716.6754  0.029940621  0.028537936           32 
 4779000   0.49083964   -5.3330489    1717.7419  0.029952951  0.028530251           22 
 4780000   0.48224175   -5.3523972    1716.3317    0.0299221  0.028522583           47 
 4781000   0.47447525     -5.34265    1721.3094  0.030002604  0.028514918           73 
 4782000   0.48987019   -5.3536161    1714.9382  0.029885302  0.028507239           37 
 4783000   0.48131515   -5.3450807    1718.2653  0.029937022  0.028499569           79 
 4784000   0.48911235   -5.3514443    1717.4517  0.029916592  0.028491904           32 
 4785000   0.49024824   -5.3439973    1717.4846  0.029910913  0.028484246           24 
 4786000   0.48056867   -5.3375096    1717.4692  0.029904395  0.028476602           55 
 4787000   0.49191875   -5.3253893     1715.969  0.029872032  0.028468976           31 
 4788000    0.4766906   -5.3415348    1717.5397  0.029893131  0.028461337           37 
 4789000   0.48051104   -5.3454062    1716.1395  0.029862523  0.028453697           24 
 4790000   0.48286315   -5.3569321    1716.9069   0.02986964  0.028446035           59 
 4791000   0.49065429   -5.3442179     1718.273  0.029887167  0.028438385           41 
 4792000   0.47678977   -5.3472641    1716.1397  0.029843832  0.028430748           53 
 4793000   0.48440444   -5.3386167     1715.847  0.029832516  0.028423106           48 
 4794000   0.48510719   -5.3324197    1718.9561  0.029880337  0.028415469          128 
 4795000   0.48748177    -5.341778    1716.6647  0.029834284  0.028407823           54 
 4796000   0.49165714   -5.3484219    1718.7567  0.029864412  0.028400166           54 
 4797000   0.48051373   -5.3476706    1715.4885  0.029801412  0.028392512           83 
 4798000   0.48327226    -5.350486    1721.3682  0.029897323   0.02838486           55 
 4799000   0.48481385   -5.3298273    1717.9429  0.029831612  0.028377203           27 
 4800000   0.48649799    -5.341144    1715.6347  0.029785324  0.028369564           41 
 4801000   0.48655055   -5.3559663    1717.6548  0.029814184   0.02836192           30 
 4802000   0.48105905   -5.3500721    1716.1162  0.029781275  0.028354282           46 
 4803000    0.4819013   -5.3434151    1715.5484  0.029765223  0.028346649          115 
 4804000   0.47607816   -5.3472384    1716.7138  0.029779242  0.028338991          113 
 4805000    0.4844812   -5.3493112    1722.1061  0.029866564   0.02833135           82 
 4806000   0.47897284   -5.3512453      1717.22  0.029775627  0.028323711           34 
 4807000   0.48152992   -5.3574856    1717.8552  0.029780446  0.028316081           35 
 4808000   0.49372571   -5.3654243    1713.5134  0.029698998  0.028308414           33 
 4809000   0.48025927   -5.3368505    1719.8985  0.029803468  0.028300759           25 
 4810000   0.47669474   -5.3487604    1716.4826   0.02973809  0.028293102           32 
 4811000   0.48623494     -5.32657    1717.2999  0.029746066  0.028285461           17 
 4812000   0.47969348   -5.3518602    1714.2396  0.029686886  0.028277818           19 
 4813000    0.4748718   -5.3653347    1716.1699  0.029714141   0.02827018           31 
 4814000   0.48439652   -5.3525439     1716.461  0.029713008  0.028262534           19 
 4815000   0.47581523   -5.3563749     1713.572  0.029656836  0.028254886           14 
 4816000   0.48112793   -5.3600555    1715.9645  0.029692076  0.028247241           26 
 4817000    0.4884813   -5.3452222    1714.4176  0.029659151  0.028239593           78 
 4818000   0.47700061   -5.3638484    1715.6957  0.029675102  0.028231957           55 
 4819000   0.48382583   -5.3518692     1713.645  0.029633482  0.028224325           43 
 4820000   0.48713269   -5.3424364    1718.0837  0.029704075  0.028216685           42 
 4821000   0.48735772   -5.3511492    1715.2762  0.029649384  0.028209038           33 
 4822000   0.47839334   -5.3557262    1714.7473  0.029634096  0.028201409           27 
 4823000   0.46563831   -5.3602655    1716.5909  0.029659806  0.028193773          107 
 4824000   0.47407971   -5.3400937    1715.4239  0.029633497  0.028186157           95 
 4825000   0.47289787   -5.3590953    1715.7158  0.029632397  0.028178538           12 
 4826000   0.48513166   -5.3489885    1715.5854  0.029624005  0.028170914           27 
 4827000   0.46829208   -5.3660567    1716.3426  0.029630941   0.02816328           20 
 4828000   0.48125244   -5.3676806    1715.1113  0.029603551   0.02815567           25 
 4829000   0.47521048   -5.3572181     1713.963  0.029577604  0.028148043           39 
 4830000   0.47751516   -5.3499101    1714.0599  0.029573153  0.028140401           69 
 4831000    0.4725823   -5.3595447    1716.2142  0.029604192  0.028132775           34 
 4832000    0.4702765   -5.3410779    1718.8724  0.029643908  0.028125166           66 
 4833000    0.4765691   -5.3515584    1712.2314  0.029523268  0.028117557           41 
 4834000   0.47111778    -5.353432    1714.2423  0.029551825  0.028109949           47 
 4835000   0.48642018   -5.3627258    1714.6736  0.029553147   0.02810234           40 
 4836000    0.4644297   -5.3480592    1717.0028  0.029587173  0.028094738           22 
 4837000    0.4826979     -5.37063     1715.842  0.029561058  0.028087136           38 
 4838000   0.48405688   -5.3445133    1714.0808   0.02952461  0.028079535           58 
 4839000    0.4717969   -5.3493077    1715.6637  0.029545769  0.028071941           21 
 4840000   0.48177052   -5.3626676    1717.3252  0.029568271  0.028064354           42 
 4841000   0.47167241   -5.3632662    1718.9829  0.029590699  0.028056752           37 
 4842000   0.46884938   -5.3496466    1714.1662   0.02950169  0.028049158           24 
 4843000   0.49090991   -5.3423629     1716.221  0.029530956  0.028041565          139 
 4844000    0.4749413   -5.3597386    1714.5752  0.029496546  0.028033976          106 
 4845000   0.47979067    -5.381489    1709.7052  0.029406695  0.028026355          108 
 4846000   0.47694107   -5.3651692    1712.8531  0.029454759  0.028018716           57 
 4847000   0.47469235   -5.3564943    1716.0547  0.029503725  0.028011102          125 
 4848000   0.47164824   -5.3681657    1714.5974   0.02947259  0.028003491          113 
 4849000   0.47726549   -5.3810719    1713.5094  0.029447815  0.027995875           93 
 4850000     0.473315    -5.374643    1711.0651  0.029399745  0.027988263           41 
 4851000   0.49100607   -5.3826281    1715.7948  0.029474932  0.027980655          114 
 4852000   0.47731879   -5.3635005    1710.2052  0.029372856  0.027973045           58 
 4853000   0.48664405   -5.3704748    1713.1355  0.029417122  0.027965418          130 
 4854000   0.46936576   -5.3629924    1711.7175  0.029386718  0.027957813           43 
 4855000   0.47714635   -5.3768626    1712.4455   0.02939316  0.027950218          172 
 4856000   0.48877255   -5.3597989    1717.8113  0.029479189  0.027942625           69 
 4857000   0.46328223    -5.377981    1711.9547  0.029372636  0.027935032           85 
 4858000   0.47616559   -5.3801871    1711.1678  0.029353091  0.027927414          163 
 4859000   0.46784808   -5.3903586    1709.7147  0.029322128  0.027919779          242 
 4860000   0.46556243    -5.382596     1713.729  0.029384928  0.027912166          121 
 4861000   0.46542445   -5.3743137    1708.6257  0.029291396  0.027904544           58 
 4862000   0.47913654    -5.376712    1713.7868  0.029373832  0.027896948           82 
 4863000   0.46788841    -5.384353    1713.5409  0.029363578  0.027889347           68 
 4864000   0.48467904   -5.3736879    1712.3379  0.029336929  0.027881734           62 
 4865000   0.47023989   -5.3681646    1710.8425  0.029305284  0.027874137          152 
 4866000   0.46907174   -5.3632739    1716.8831  0.029402711  0.027866547           79 
 4867000   0.47360917    -5.379177    1715.2501  0.029368709  0.027858965           59 
 4868000   0.46148024   -5.3805794    1711.5256  0.029298918  0.027851365           54 
 4869000    0.4811398   -5.3667205    1713.2837   0.02932299  0.027843775           60 
 4870000   0.47617041   -5.3673443    1712.2754  0.029299717  0.027836192           49 
 4871000   0.46936527   -5.3775379    1711.5616  0.029281489  0.027828606           50 
 4872000   0.46979686     -5.38263    1712.4266  0.029290274  0.027821012           51 
 4873000   0.46846817   -5.3711222    1713.2486  0.029298321  0.027813412           86 
 4874000   0.47399028   -5.3807756    1709.6592  0.029230941   0.02780582           83 
 4875000     0.472146   -5.3735988    1711.4736  0.029255958  0.027798225           83 
 4876000   0.47741296   -5.3876468     1712.777  0.029272236   0.02779063           97 
 4877000   0.47707281   -5.3710784    1711.1892  0.029239102  0.027783045           76 
 4878000   0.47692234   -5.3930383    1712.6913  0.029258768  0.027775461           92 
 4879000   0.47204732   -5.3740071      1711.99  0.029240794  0.027767866           78 
 4880000   0.46962996   -5.3758995    1712.3478  0.029240912  0.027760295          120 
 4881000   0.46973905   -5.3826608    1714.6498  0.029274223  0.027752722          121 
 4882000   0.46689079   -5.3832166    1711.6053  0.029216259  0.027745153           92 
 4883000   0.46517514   -5.3876842    1709.5779  0.029175676  0.027737575           65 
 4884000   0.47041874   -5.3918633     1709.787  0.029173269  0.027729984           96 
 4885000   0.46660102   -5.3993996    1710.0111  0.029171121   0.02772241           59 
 4886000   0.47665283   -5.3829374    1713.5978  0.029226323  0.027714828           85 
 4887000   0.46613174   -5.3897355    1711.8118  0.029189888  0.027707262           46 
 4888000   0.47111314   -5.3858551    1713.3589  0.029210292  0.027699728           76 
 4889000   0.48369175   -5.3965549    1712.4323  0.029188524  0.027692188          120 
 4890000   0.46525438   -5.3893392    1711.7533  0.029170983  0.027684637           51 
 4891000   0.46766273   -5.3976121    1708.6536  0.029112206   0.02767708           80 
 4892000   0.46649744   -5.3763919    1714.9199  0.029212999  0.027669543           77 
 4893000   0.46684799   -5.3901793    1714.8411  0.029205687  0.027661999           68 
 4894000   0.47760615   -5.3863846    1711.2938  0.029139317  0.027654454           89 
 4895000   0.45749551   -5.3871232    1711.7616  0.029141328  0.027646926          115 
 4896000   0.47946974   -5.3820836    1713.9202  0.029172116  0.027639388           70 
 4897000   0.46377122   -5.3836194    1709.1633   0.02908521   0.02763186           69 
 4898000   0.46750628   -5.3847928    1709.1291   0.02907869  0.027624313          102 
 4899000   0.47750226   -5.3867606    1713.7239  0.029150913  0.027616778          145 
 4900000   0.46662171   -5.3713437    1714.9462  0.029165752  0.027609242           68 
 4901000   0.46888041   -5.3894809    1712.4813  0.029117889  0.027601705          119 
 4902000   0.46166182    -5.396624    1712.2513  0.029108039   0.02759416          157 
 4903000   0.46083929    -5.390311    1710.8086  0.029077581  0.027586616          109 
 4904000   0.46540492   -5.3834854    1709.2084  0.029044461  0.027579074          244 
 4905000   0.46704507    -5.392598    1711.4994  0.029077462   0.02757154          116 
 4906000    0.4638734   -5.3872359    1712.4932  0.029088416  0.027564013          140 
 4907000   0.46784505   -5.3925693    1712.5647  0.029083701  0.027556487          197 
 4908000   0.46132979   -5.3893447    1710.3231  0.029039716  0.027548968          168 
 4909000    0.4711988   -5.3884366    1713.6366  0.029090049  0.027541457          131 
 4910000   0.46804214   -5.3986613    1711.9152  0.029054907  0.027533945          202 
 4911000   0.46266539   -5.3932457     1714.108  0.029086202  0.027526439          152 
 4912000   0.46026383   -5.4021611     1715.429   0.02910269  0.027518934          102 
 4913000   0.47120527   -5.3892124    1714.7341   0.02908498  0.027511442          149 
 4914000   0.45800151   -5.3937144    1716.3693  0.029106791  0.027503953          153 
 4915000   0.45931313   -5.3860869    1709.7086  0.028987938  0.027496474           97 
 4916000   0.46634828   -5.3720267    1710.5963  0.028997089  0.027488996          162 
 4917000   0.46607059   -5.3850719    1712.8737  0.029029789   0.02748152          183 
 4918000   0.47067608   -5.3854344    1712.0956  0.029010703  0.027474048          166 
 4919000   0.46904215   -5.3868021    1711.3014   0.02899135   0.02746656          188 
 4920000   0.46780038   -5.3899824    1711.5276  0.028989289  0.027459068          241 
 4921000   0.46439316   -5.4008118    1710.1975  0.028960873  0.027451592          225 
 4922000   0.46645568   -5.3690926    1711.3694  0.028974831  0.027444111          160 
 4923000    0.4637765   -5.3968478    1712.4205  0.028986738  0.027436623          213 
 4924000   0.45975128   -5.3790125    1711.5227  0.028965657   0.02742912          322 
 4925000   0.47221841   -5.3956482    1710.3058  0.028939185  0.027421638          223 
 4926000   0.46314424   -5.4145878    1713.4719  0.028986871  0.027414157          218 
 4927000   0.46523045   -5.3869864    1710.8067  0.028935909  0.027406685          246 
 4928000   0.46163002   -5.3963181    1708.5556  0.028891971  0.027399199          201 
 4929000   0.46748079   -5.3845158    1712.1276    0.0289465  0.027391717          285 
 4930000   0.45897864   -5.4080302    1711.6475  0.028932513  0.027384239          287 
 4931000   0.46514912   -5.3968565    1711.0884  0.028917197   0.02737676          436 
 4932000   0.45729054   -5.4020347     1710.282  0.028897709  0.027369283          299 
 4933000   0.46515923   -5.3856278    1711.0083  0.028904121  0.027361808          329 
 4934000   0.45334242   -5.4021265    1712.1693  0.028917872  0.027354333          389 
 4935000   0.45399693   -5.3979517    1712.1545  0.028911762  0.027346858          332 
 4936000   0.47378562   -5.4103324    1709.4716   0.02886061  0.027339373          445 
 4937000   0.45345317   -5.4034427    1710.3611  0.028869777  0.027331891          355 
 4938000   0.44953403   -5.4147411     1708.775  0.028837165   0.02732441          328 
 4939000   0.46393939   -5.4011883    1711.2614  0.028873278  0.027316922          322 
 4940000   0.45658082   -5.4102335    1712.4648  0.028887732  0.027309444          349 
 4941000   0.46439563   -5.4086055    1711.3926  0.028863803  0.027301963          296 
 4942000   0.46471886   -5.4073053    1707.9012   0.02879909  0.027294482          287 
 4943000   0.46034852   -5.4177261     1708.706  0.028806831  0.027286999          365 
 4944000   0.45777847   -5.4034127    1710.2566   0.02882714  0.027279539          296 
 4945000   0.46109708   -5.4033825    1709.4694  0.028808046  0.027272074          389 
 4946000   0.45730886   -5.4080556    1710.6939  0.028822852  0.027264614          252 
 4947000   0.45681171   -5.4158291    1711.4175  0.028829214  0.027257142          413 
 4948000   0.45182393   -5.4134526    1711.7833  0.028829549  0.027249677          376 
 4949000   0.45727808   -5.4025045    1707.1756  0.028746137  0.027242197          365 
 4950000   0.46170908   -5.4047716    1709.8015  0.028784538  0.027234732          349 
 4951000   0.45899855   -5.4031862     1709.017  0.028765519  0.027227259          383 
 4952000   0.45650668   -5.4292788    1711.1643  0.028795845  0.027219788          434 
 4953000   0.45114135   -5.4256499    1708.8491  0.028751079   0.02721231          310 
 4954000   0.44921394   -5.4215731    1709.7715  0.028760791   0.02720483          366 
 4955000     0.458213   -5.4156006    1708.4976  0.028733562  0.027197344          407 
 4956000   0.45949227   -5.4284831    1706.9706  0.028702088  0.027189879          478 
 4957000   0.46710595   -5.4102297    1709.2677  0.028734915  0.027182424          513 
 4958000   0.45952199   -5.4261074     1707.858  0.028705425  0.027174978          512 
 4959000    0.4700347   -5.4255861    1709.4933  0.028727118  0.027167514          548 
 4960000   0.46344476   -5.4046039    1706.6151  0.028672968  0.027160059          553 
 4961000   0.46430335   -5.4231614    1709.6148  0.028717578  0.027152602          502 
 4962000   0.45402713   -5.4163601    1707.3556  0.028673848  0.027145156          413 
 4963000   0.45395946   -5.4203628    1712.2028   0.02874946  0.027137707          407 
 4964000   0.45792154   -5.4246993    1708.6106  0.028683363  0.027130262          562 
 4965000   0.45185219   -5.4168137    1707.5568    0.0286599  0.027122813          463 
 4966000   0.46261241   -5.4085911    1708.5567  0.028670908  0.027115371          538 
 4967000   0.45795835   -5.4141569    1709.1356  0.028674847   0.02710792          436 
 4968000     0.462734   -5.4324681    1707.1155   0.02863519  0.027100473          508 
 4969000    0.4631117   -5.4156978    1711.2427  0.028698643   0.02709303          384 
 4970000   0.45695066   -5.4246115    1707.9063  0.028636927  0.027085596          520 
 4971000   0.44487613   -5.4030466    1707.7377   0.02862834  0.027078159          380 
 4972000   0.45612418   -5.4014176    1707.4795  0.028618253  0.027070732          459 
 4973000   0.45476947   -5.4243439    1709.5156  0.028646618  0.027063296          425 
 4974000   0.45467109   -5.4164143    1706.3678  0.028588121  0.027055852          373 
 4975000   0.45612185   -5.4277246    1709.4351  0.028633753  0.027048433          482 
 4976000   0.45194762   -5.4355596     1709.044  0.028621449  0.027041012          614 
 4977000   0.44862569   -5.4403647    1707.7794  0.028594526  0.027033574          511 
 4978000   0.45174999   -5.4268669    1705.8828  0.028557031   0.02702615          432 
 4979000   0.45173615   -5.4149499    1707.8869  0.028584838  0.027018711          548 
 4980000   0.44555956   -5.4062297    1710.5765  0.028624105  0.027011267          517 
 4981000   0.45453666   -5.4308876    1705.9655  0.028541215   0.02700384          483 
 4982000   0.45261101   -5.4451616    1710.9675  0.028619154  0.026996409          456 
 4983000   0.45976113   -5.4322892    1706.9575  0.028546349  0.026988974          585 
 4984000   0.45274401   -5.4093834    1706.3544  0.028530537  0.026981541          508 
 4985000   0.46266346   -5.4347425    1708.2234  0.028556058   0.02697412          624 
 4986000   0.45436521   -5.4271133    1704.6624  0.028490815  0.026966696          510 
 4987000   0.46024828   -5.4307653    1705.7589  0.028503425  0.026959276          492 
 4988000   0.45860672   -5.4150537    1705.9374  0.028500691  0.026951856          360 
 4989000   0.44948533   -5.4228996     1707.699  0.028524404  0.026944448          597 
 4990000   0.45698637   -5.4408388    1705.7683  0.028486445  0.026937034          650 
 4991000   0.46687379   -5.4141043    1706.3079  0.028489746  0.026929627          579 
 4992000   0.44711554   -5.4319461    1709.2522   0.02853319  0.026922224          577 
 4993000   0.46599298   -5.4483753      1706.56  0.028482542  0.026914827          613 
 4994000   0.45179297   -5.4474359    1705.8427   0.02846487  0.026907409          646 
 4995000   0.45122361   -5.4309329    1704.4761  0.028436371  0.026899998          643 
 4996000   0.45326553   -5.4252827    1707.2179  0.028476413  0.026892601          693 
 4997000   0.44566894   -5.4156057    1709.0239  0.028500832  0.026885207          653 
 4998000   0.46098541    -5.425705    1706.1861  0.028447815  0.026877823          400 
 4999000    0.4559713   -5.4348918    1706.5384  0.028447996  0.026870437          505 
 5000000   0.45036685   -5.4263222    1708.1747  0.028469578  0.026863059          586 
 5001000   0.44607517   -5.4190272    1706.3969  0.028434262  0.026855683          670 
 5002000   0.44373122   -5.4344626    1707.5403  0.028447625   0.02684831          648 
 5003000   0.44951686   -5.4284891    1710.2998  0.028487905  0.026840942          671 
 5004000   0.44959172   -5.4149975    1705.3421  0.028399648   0.02683358          610 
 5005000   0.45501778   -5.4268867    1705.5002  0.028396606   0.02682622          679 
 5006000   0.45464297   -5.4256335     1707.906  0.028430982  0.026818857          817 
 5007000   0.45279947   -5.4286161     1707.356   0.02841615  0.026811495          593 
 5008000   0.45436425   -5.4327332    1707.2465  0.028408654  0.026804126          432 
 5009000   0.45068857   -5.4391289    1708.9181  0.028430794  0.026796765          652 
 5010000   0.45762228   -5.4371275    1708.7626  0.028422531  0.026789388          679 
 5011000   0.45301065   -5.4432347    1709.2004   0.02842414  0.026782016          715 
 5012000    0.4476578   -5.4274539    1708.3879   0.02840496  0.026774649          675 
Loop time of 12543.7 on 48 procs for 5000000 steps with 4000 atoms

Performance: 68879.012 tau/day, 398.605 timesteps/s
99.4% CPU use with 48 MPI tasks x no OpenMP threads

MPI task timing breakdown:
Section |  min time  |  avg time  |  max time  |%varavg| %total
---------------------------------------------------------------
Pair    | 883.53     | 931.15     | 983.64     |  80.7 |  7.42
Neigh   | 84.575     | 88.209     | 92.048     |  20.1 |  0.70
Comm    | 802.68     | 859.98     | 911.28     |  90.4 |  6.86
Output  | 14.047     | 14.053     | 14.126     |   0.3 |  0.11
Modify  | 10504      | 10536      | 10552      |  11.9 | 83.99
Other   |            | 114.8      |            |       |  0.92

Nlocal:        83.3333 ave          92 max          77 min
Histogram: 1 3 8 8 15 2 9 0 0 2
Nghost:        2310.38 ave        2328 max        2290 min
Histogram: 2 2 5 6 7 9 5 2 5 5
Neighs:        15692.7 ave       17674 max       14194 min
Histogram: 2 7 6 6 8 8 7 1 1 2
FullNghs:      31383.8 ave       34969 max       29150 min
Histogram: 4 5 7 11 9 5 4 1 1 1

Total # of neighbors = 1506424
Ave neighs/atom = 376.60600
Neighbor list builds = 269565
Dangerous builds = 1

#clear
#
#next RN
#
#jump SELF
Total wall time: 3:29:07
